
units lj                  # Use reduced LJ style units
atom_style atomic         # Uncharged point particles
atom_modify map hash      # Needed for indexing of clusters etc
                          # Used to be able to find where atoms are in relation to each other.

lattice fcc 1.0 spacing 1 1 1
Lattice spacing in x,y,z = 1.5874011 1.5874011 1.5874011
region box block 0 10 0 10 0 10 units lattice
create_box 2 box
Created orthogonal box = (0.0000000 0.0000000 0.0000000) to (15.874011 15.874011 15.874011)
  3 by 4 by 4 MPI processor grid
create_atoms 1 box
Created 4000 atoms
  using lattice units in orthogonal box = (0.0000000 0.0000000 0.0000000) to (15.874011 15.874011 15.874011)
  create_atoms CPU = 0.018 seconds
set type 1 type/fraction 2 0.76 78393
Setting atom values ...
  3028 settings made for type/fraction
mass 1 1.0
mass 2 1.0
pair_style lj/cut  3.5
pair_modify tail  yes
pair_coeff 1  1  1.0  1.0   # Intearaction between 1 and 1 set with epsilon = 1 and sigma = 1
pair_coeff 1  2  1.5  0.8
pair_coeff 2  2  0.5  0.88

write_data data.0
System init for write_data ...
Neighbor list info ...
  update every 1 steps, delay 10 steps, check yes
  max neighbors/atom: 2000, page size: 100000
  master list distance cutoff = 3.8
  ghost atom cutoff = 3.8
  binsize = 1.9, bins = 9 9 9
  1 neighbor lists, perpetual/occasional/extra = 1 0 0
  (1) pair lj/cut, perpetual
      attributes: half, newton on
      pair build: half/bin/atomonly/newton
      stencil: half/bin/3d
      bin: standard
WARNING: Not all mixed pair coeffs generated from mixing. Use write_data with 'pair ij' option to store all pair coeffs. (../write_data.cpp:312)


#############################
#   M E L T   S Y S T E M   #
#############################

velocity all create 2.4 9580093 mom yes dist gaussian # Assign velocities
                                                    # Temperature 2.4, random number seed, zero linear momentum
                                                                                # Gaussian distribution

timestep 0.002   # simulation timestep
thermo 1000       # output thermodynamic data every 1000 steps bf 100

# Define a fix  in this case with index 1 applied to all
# particles in the simulation. This fix is for simulations
# in the anisotropic NPT ensemble. Note that we use the MTK
# correction.
fix 1 all npt temp 2.4 2.4 0.1 iso 5.68 5.68 0.5 mtk yes tchain 5 pchain 5 # Use NPT ensemble
                                                                         # Set temperature and pressure and damping
                                                                         # Numbers of thermostats in chain and in barostat
run 10000          # run for 10000 steps
Per MPI rank memory allocation (min/avg/max) = 3.642 | 3.644 | 3.648 Mbytes
Step Temp E_pair E_mol TotEng Press Volume 
       0          2.4   -3.9031684            0  -0.30406845   -3.4881309         4000 
    1000    2.4249434   -3.3690553            0   0.26745045     6.089317    3702.2762 
    2000    2.3798015   -3.4098816            0    0.1589283    5.9610931    3689.4432 
    3000    2.3971256   -3.4234804            0   0.17130916    5.0530616    3761.4437 
    4000    2.3810648   -3.4098857            0    0.1608186    5.6446529     3714.109 
    5000    2.4124199   -3.3994459            0    0.2182794     5.971156    3698.6109 
    6000    2.4063692   -3.4044012            0   0.20425015    5.8104603    3707.6589 
    7000    2.3744881   -3.4209337            0   0.13990796     5.406613    3739.2626 
    8000     2.425152   -3.4065138            0   0.23030479    5.7373902    3703.0339 
    9000    2.3344106   -3.3807678            0   0.11997265    5.4717373    3739.3013 
   10000    2.3826119   -3.4004571            0   0.17256734    5.5263255    3737.6398 
Loop time of 2.62421 on 48 procs for 10000 steps with 4000 atoms

Performance: 658484.599 tau/day, 3810.675 timesteps/s
99.6% CPU use with 48 MPI tasks x no OpenMP threads

MPI task timing breakdown:
Section |  min time  |  avg time  |  max time  |%varavg| %total
---------------------------------------------------------------
Pair    | 1.1746     | 1.239      | 1.3583     |   3.2 | 47.21
Neigh   | 0.21462    | 0.22353    | 0.25474    |   1.3 |  8.52
Comm    | 0.78667    | 0.89       | 0.99053    |   4.0 | 33.92
Output  | 0.00025169 | 0.00025763 | 0.00032001 |   0.0 |  0.01
Modify  | 0.20847    | 0.25621    | 0.30546    |   5.8 |  9.76
Other   |            | 0.01524    |            |       |  0.58

Nlocal:        83.3333 ave          92 max          75 min
Histogram: 5 1 7 1 11 8 3 6 5 1
Nghost:        1714.73 ave        1752 max        1689 min
Histogram: 2 3 9 13 6 6 5 2 1 1
Neighs:        10210.4 ave       11487 max        8966 min
Histogram: 2 5 4 7 3 9 8 6 3 1

Total # of neighbors = 490098
Ave neighs/atom = 122.52450
Neighbor list builds = 914
Dangerous builds = 244

# Equilibrate just above the melting temperature to avoid step fn in T

fix 1 all npt temp 1.25 1.25 0.1 iso 5.68 5.68 0.5 mtk yes tchain 5 pchain 5
run 2000
Per MPI rank memory allocation (min/avg/max) = 3.644 | 3.646 | 3.649 Mbytes
Step Temp E_pair E_mol TotEng Press Volume 
   10000    2.3826119   -3.4004571            0   0.17256734    5.5263255    3737.6398 
   11000    1.2595918   -5.0345275            0   -3.1456122    5.7443755    2835.9734 
   12000    1.2611408   -5.0553289            0   -3.1640906    5.3847734     2840.279 
Loop time of 0.655684 on 48 procs for 2000 steps with 4000 atoms

Performance: 527083.272 tau/day, 3050.250 timesteps/s
99.7% CPU use with 48 MPI tasks x no OpenMP threads

MPI task timing breakdown:
Section |  min time  |  avg time  |  max time  |%varavg| %total
---------------------------------------------------------------
Pair    | 0.28479    | 0.31882    | 0.34788    |   2.6 | 48.62
Neigh   | 0.041047   | 0.043374   | 0.048247   |   0.8 |  6.62
Comm    | 0.20541    | 0.24282    | 0.28317    |   3.4 | 37.03
Output  | 5.334e-05  | 5.4602e-05 | 6.941e-05  |   0.0 |  0.01
Modify  | 0.041441   | 0.045646   | 0.04954    |   1.2 |  6.96
Other   |            | 0.004972   |            |       |  0.76

Nlocal:        83.3333 ave          96 max          75 min
Histogram: 3 6 6 8 12 6 4 1 1 1
Nghost:        2072.06 ave        2092 max        2045 min
Histogram: 2 4 1 4 6 7 6 7 5 6
Neighs:        13457.4 ave       15433 max       11494 min
Histogram: 2 2 2 11 6 9 9 4 1 2

Total # of neighbors = 645956
Ave neighs/atom = 161.48900
Neighbor list builds = 143
Dangerous builds = 11

#############################
# L I N E A R  Q U E N C H  #
#############################

# Define solid atoms. This closely follows ten Wolde  Ruiz-Montero and Frenkel  Faraday Discuss  1996  104  93-110
# Compute components of the per-atom q6 vector
compute q6 all orientorder/atom degrees 1 6 components 6 nnn NULL cutoff 1.3 # compute the Q6 parameter.
                                                                             # Use all neighbours within 1.3 unit cell.

# get number of connections
compute coord_number all coord/atom orientorder q6 0.5

# An atom is solid if it has 8 or more connections (of a possible 14)
variable is_solid atom c_coord_number>=8
group solid dynamic all var is_solid    # Must be dynamic to update
dynamic group solid defined

# do clustering
compute cluster solid cluster/atom 1.3 # Create a cluster where all atoms within are solid and max 1.3 units from another member

# define chunks one chunk per cluster
compute clus_chunks solid chunk/atom c_cluster nchunk every compress yes  # Says which atoms are in which chunk

# count the size of each chunk
compute size_chunks solid property/chunk clus_chunks count


# Find the maximum entry in the vector of chunk sizes
variable max_n equal max(c_size_chunks)


# Thermo style which includes this variable
# thermo_style custom step temp pe vol v_max_n

thermo ${N}  # Print the thermo information every 100 steps
thermo 1000  

# Reset the npt fix at a lower temperature (below freezing)
fix 1  all npt temp  ${temp} ${temp}  0.1  iso  5.68  5.68  0.5  mtk yes tchain  5  pchain  5
fix 1  all npt temp  0.45 ${temp}  0.1  iso  5.68  5.68  0.5  mtk yes tchain  5  pchain  5
fix 1  all npt temp  0.45 0.45  0.1  iso  5.68  5.68  0.5  mtk yes tchain  5  pchain  5

dump dmp2 all dcd ${N} traj.dcd
dump dmp2 all dcd 1000 traj.dcd


compute msd all msd com yes
variable twopoint equal c_msd[4]/6/(step*dt+1.0e-6)
fix 9 all vector 10 c_msd[4]
variable fit equal slope(f_9)/6/(10*dt)
thermo_style custom step temp pe c_msd[4] v_twopoint v_fit v_max_n

fix 1 all npt temp 1.25 ${temp} 0.1 iso 5.68 5.68 0.5 mtk yes tchain 5 pchain 5
fix 1 all npt temp 1.25 0.45 0.1 iso 5.68 5.68 0.5 mtk yes tchain 5 pchain 5
run 2000000 # 5000000  # Run for this many steps
Neighbor list info ...
  update every 1 steps, delay 10 steps, check yes
  max neighbors/atom: 2000, page size: 100000
  master list distance cutoff = 3.8
  ghost atom cutoff = 3.8
  binsize = 1.9, bins = 8 8 8
  4 neighbor lists, perpetual/occasional/extra = 1 3 0
  (1) pair lj/cut, perpetual
      attributes: half, newton on
      pair build: half/bin/atomonly/newton
      stencil: half/bin/3d
      bin: standard
  (2) compute orientorder/atom, occasional
      attributes: full, newton on
      pair build: full/bin/atomonly
      stencil: full/bin/3d
      bin: standard
  (3) compute coord/atom, occasional
      attributes: full, newton on
      pair build: full/bin/atomonly
      stencil: full/bin/3d
      bin: standard
  (4) compute cluster/atom, occasional
      attributes: full, newton on
      pair build: full/bin/atomonly
      stencil: full/bin/3d
      bin: standard
Per MPI rank memory allocation (min/avg/max) = 9.839 | 9.846 | 9.851 Mbytes
Step Temp PotEng c_msd[4] v_twopoint v_fit v_max_n 
   12000    1.2611408   -5.0553289 1.0811339e-30 7.5078738e-33 8.3333333e+20            3 
   13000    1.2216746   -4.9939332   0.71226966  0.004565831    0.0596941            3 
   14000    1.2606474   -5.0164838    1.4594578 0.0086872487  0.061593077            2 
   15000    1.2557974     -5.04651    2.1281269  0.011822927  0.060118156            3 
   16000    1.2659915   -5.0315525    2.8482808  0.014834795  0.059173393            2 
   17000    1.2354077   -5.0171109    3.5502719  0.017403293  0.059382534            4 
   18000     1.250032   -5.0187073    4.3101411  0.019954357  0.059164017            2 
   19000    1.2479564   -5.0303523    5.0391224  0.022101413  0.059905289            5 
   20000    1.2472892   -5.0334719    5.8826615  0.024511089  0.060377891            1 
   21000    1.2283946   -5.0534598    6.6506657   0.02639153  0.061065047            2 
   22000    1.2865612   -5.0542578     7.491277  0.028376048  0.061837323            1 
   23000    1.2631955   -5.0295493    8.2688469   0.02995959  0.062453211            2 
   24000    1.2347351   -5.0172593    8.9578146  0.031103522  0.062722738            2 
   25000    1.2180491   -5.0605947    9.5938947  0.031979648  0.062663897            1 
   26000    1.2804547   -5.1100806    10.289183  0.032978151   0.06245412            4 
   27000    1.2275618   -5.0345077     10.96962   0.03385685  0.062171051            4 
   28000    1.2549318   -5.0254475    11.646389  0.034661872  0.061832801            1 
   29000    1.2307169   -5.0313519    12.299883   0.03534449   0.06146289            3 
   30000    1.2347534    -5.033723    12.976018  0.036044494  0.061143701            5 
   31000    1.2327865   -5.0317984     13.93129  0.037449703  0.060967104            2 
   32000    1.2522103   -5.0511439     14.74438  0.038396822  0.061078916            2 
   33000    1.2325482   -5.0822817    15.624757  0.039456456  0.061335434            2 
   34000    1.2411055   -5.0276588    16.499724    0.0404405  0.061614102            1 
   35000    1.2679842    -5.009382    17.266106  0.041109776  0.061885161            1 
   36000    1.2379802   -5.0800479    18.112999  0.041928239  0.062186901            2 
   37000    1.2140638   -5.0226743    18.951094  0.042682643  0.062491048            1 
   38000    1.2510503   -5.0647878    19.722113  0.043250247  0.062753257            6 
   39000    1.2358575   -5.0273651    20.481548  0.043763991  0.062961519            4 
   40000    1.2420916   -5.0705581     21.07751  0.043911479  0.063090271            2 
   41000    1.2395183   -5.0300949    21.872829   0.04445697  0.063211455            2 
   42000    1.2479105    -5.057007     22.60073  0.044842717  0.063248847            1 
   43000    1.2384772   -5.0691198    23.212338  0.044985151  0.063227006            2 
   44000    1.2597009   -5.0361524    23.912115  0.045288096  0.063180978            4 
   45000     1.275158   -5.0560048    24.571338  0.045502477  0.063102416            2 
   46000    1.1978718   -5.0362275    25.391646  0.045999358  0.063008482            2 
   47000    1.2683274   -5.0862716    25.965091  0.046037394  0.062919013            2 
   48000     1.239886   -5.0073495    26.591547   0.04616588   0.06277792            1 
   49000    1.2208712   -5.0000528    27.296483   0.04642259  0.062626989            1 
   50000    1.2386784   -5.0637534    27.937658  0.046562763  0.062483176            2 
   51000    1.2583659   -5.0716316    28.646052  0.046807274   0.06234819            2 
   52000    1.2262926   -5.0953264     29.46663  0.047222162  0.062246353            3 
   53000    1.2464328   -5.0435653    30.244873  0.047554831  0.062176755            3 
   54000    1.2182549   -5.0890285    30.929997  0.047731477  0.062078025            2 
   55000    1.2466736   -5.0667772    31.456426  0.047661251  0.061980121            2 
   56000    1.2376495   -5.0735342    32.036418  0.047673241  0.061846437            4 
   57000    1.2467581   -5.0685447    32.741965  0.047868369  0.061713815            5 
   58000    1.2418933   -5.0518927    33.844528  0.048627195  0.061623938            2 
   59000    1.2286823   -5.0374264    34.663135   0.04895923   0.06156574            2 
   60000    1.2353484   -5.0755079    35.413201     0.049185  0.061521206            4 
   61000    1.2239581   -5.0479538     36.07946   0.04928888  0.061489122            4 
   62000    1.2367416   -5.0625938     36.73601  0.049376357  0.061448155            1 
   63000    1.2467207   -5.0619052    37.396453  0.049466208  0.061388118            3 
   64000    1.1975301   -5.0735017    38.003509  0.049483736  0.061305222            2 
   65000    1.2174172     -5.06111    38.599793  0.049486914  0.061216704            3 
   66000    1.2366883   -5.0575224    39.156315  0.049439792  0.061112795            8 
   67000    1.2144615   -5.0451661    39.810497  0.049515543  0.061004755            5 
   68000    1.2247966   -5.0686412    40.579549  0.049729839  0.060936997            3 
   69000    1.2286322   -5.0513829    41.610089  0.050253731  0.060883062            2 
   70000    1.2482476    -5.068107    42.390817  0.050465257  0.060848977            2 
   71000    1.2196107   -5.0921024    43.041118  0.050517743  0.060817925            3 
   72000    1.2211167   -5.0289726    43.690404  0.050567597  0.060791294            2 
   73000    1.2124467   -5.0875556    44.273582  0.050540619  0.060752333            2 
   74000    1.2102075   -5.0769622     44.98904  0.050663332  0.060717421            2 
   75000    1.2346605   -5.0549569     45.70102   0.05077891   0.06067908            3 
   76000    1.2174072   -5.1142449    46.402878  0.050880348  0.060639103            4 
   77000     1.204357   -5.0564456     47.36228  0.051257878  0.060607619            3 
   78000    1.2380995   -5.0776065    47.867941  0.051140962  0.060567195            3 
   79000    1.2287811   -5.0821467    48.487111  0.051146742  0.060524701            2 
   80000    1.2450513   -5.0885692    48.919992  0.050958325  0.060474972            4 
   81000     1.225436   -5.1041667    49.483914  0.050909377  0.060405381            2 
   82000    1.2123271   -5.0804775    50.232492  0.051049281  0.060320285            4 
   83000    1.2265567    -5.077908    50.741204  0.050944983  0.060223462            3 
   84000    1.2375588   -5.0577192    51.416121  0.051008056  0.060128893            1 
   85000    1.2166468   -5.1052117    51.775576  0.050760368   0.06001726            2 
   86000    1.2123596   -5.0817579    52.360338  0.050736761  0.059907938            1 
   87000    1.2170323   -5.0978193    52.607311  0.050390145  0.059785348            4 
   88000    1.2080397   -5.1162773    53.305151  0.050478362  0.059648973            2 
   89000     1.240009   -5.0352453    54.281017  0.050824922  0.059528801            3 
   90000    1.2025705   -5.0714172     54.53015  0.050490879  0.059406204            2 
   91000    1.2195956   -5.0447633    55.364197  0.050699814  0.059279451            1 
   92000    1.1943974   -5.0593271    56.154281  0.050864384  0.059179168            2 
   93000    1.2258585   -5.1072785    56.891372  0.050977931  0.059089669            1 
   94000    1.1848128   -5.0951189    57.454105   0.05093449  0.058995653            2 
   95000    1.2351718   -5.0960574    58.119484  0.050982003  0.058901402            2 
   96000    1.2032666    -5.097126     59.21949  0.051405807  0.058835384            2 
   97000    1.2292423    -5.110865    59.936321  0.051491685  0.058770217            2 
   98000    1.1808093   -5.1367107    59.924641  0.050956327  0.058695896            1 
   99000    1.2194109   -5.0920844    61.220175  0.051532134  0.058620495            3 
  100000    1.2112712   -5.0712993    61.776372   0.05148031  0.058561474            3 
  101000    1.2181722   -5.0823157    62.418467  0.051500385  0.058498159            1 
  102000    1.2109207   -5.0976801     62.64683   0.05118205  0.058426046            2 
  103000     1.197304   -5.0788939    63.298119   0.05121207  0.058341595            2 
  104000    1.2341427   -5.0659871    63.820529  0.051138244  0.058263704            2 
  105000    1.1830485   -5.0695133    64.566869  0.051243546  0.058176788            2 
  106000    1.2204013    -5.082326    64.984577  0.051088504   0.05809233            1 
  107000    1.1831112   -5.0854283    65.389643  0.050926513  0.058007858            1 
  108000    1.2159736   -5.0982574    66.354219  0.051199243    0.0579205            3 
  109000    1.2079404   -5.1076543    66.821228  0.051086566  0.057837212           10 
  110000    1.2360721   -5.0791549    67.580272  0.051197176  0.057761089            2 
  111000    1.2341491    -5.120587    68.206642  0.051206188  0.057679675            1 
  112000    1.2080628   -5.1200435     69.09571  0.051410498  0.057605635            1 
  113000    1.2296193   -5.1381845    69.680665  0.051386921  0.057547766            2 
  114000    1.1958084   -5.0787535    70.870738  0.051806095  0.057496423            3 
  115000    1.2029365   -5.0686184    71.141676  0.051551939  0.057441927            3 
  116000    1.2039152    -5.068185    71.593384  0.051432028  0.057381162            6 
  117000    1.2211019   -5.1122495    71.864238  0.051185355  0.057303581            3 
  118000    1.1980519   -5.1017846    72.324136  0.051076367  0.057223375            4 
  119000    1.2015942   -5.1174811    72.936992  0.051076324  0.057143856            2 
  120000    1.2304494   -5.1204482    73.532308  0.051064103  0.057060403            1 
  121000    1.2302214    -5.098572    74.389431   0.05123239  0.056987598            5 
  122000    1.2140453    -5.128178    74.762452  0.051067248  0.056921779            2 
  123000    1.2465822   -5.0986682    75.777536  0.051339794  0.056858598            2 
  124000    1.2141651   -5.1059198    76.135642  0.051166426  0.056796307            4 
  125000    1.1891873   -5.0920697    76.865367  0.051243578  0.056735192            3 
  126000    1.2104377   -5.1198858    77.773843  0.051437727  0.056671048            4 
  127000    1.1962185   -5.1269327    78.385699  0.051434185  0.056613691            6 
  128000    1.1760213   -5.0969292    78.909838  0.051373592  0.056559241            4 
  129000    1.2017642   -5.0963642    79.946218  0.051644843  0.056513575            2 
  130000    1.1929099   -5.1227725    80.483012  0.051591674   0.05647102            2 
  131000     1.191152   -5.1259679    81.041931  0.051553391  0.056428723            1 
  132000    1.2187736   -5.1155536     81.15198  0.051232311  0.056376596            2 
  133000    1.2196532   -5.0914104    82.366383  0.051608009  0.056326867            3 
  134000    1.2071557   -5.1158979    82.888827  0.051547778  0.056284896            2 
  135000    1.2108417   -5.1241341    83.726255  0.051682873  0.056245226            2 
  136000    1.2143212   -5.1285135    84.260355  0.051630119  0.056205606            2 
  137000    1.1888515   -5.1057898    84.696288  0.051518423  0.056167943            5 
  138000    1.2080699   -5.1011351    85.524625  0.051645305  0.056128582            2 
  139000    1.1965022   -5.1423008    85.912303  0.051506176  0.056085837            4 
  140000    1.2032481   -5.0991353    86.705122  0.051610191  0.056047416            2 
  141000    1.1983188   -5.1355892    87.048158  0.051446902  0.056005263            1 
  142000    1.1883774   -5.0961953    87.874154  0.051569339  0.055957388            1 
  143000     1.207014   -5.1279597    87.779623  0.051153626  0.055903571            2 
  144000      1.19369   -5.1264032     88.73115  0.051349045  0.055847285            6 
  145000    1.1989354   -5.0936496    89.388724   0.05137283  0.055798693            3 
  146000    1.1891744   -5.1272472    89.834127  0.051275187  0.055752348            2 
  147000    1.1816651    -5.142816    90.196459  0.051131779  0.055694502            2 
  148000    1.1928154   -5.1211805    90.786296   0.05111841  0.055634382            2 
  149000    1.2089731   -5.1421971    91.157894  0.050983162  0.055578659            2 
  150000    1.1902862   -5.1359314    92.367565  0.051315314  0.055529616            2 
  151000    1.1896035   -5.0818842    93.373133  0.051530426  0.055489663            4 
  152000    1.1988656   -5.1580828    93.945254  0.051505073  0.055453967            2 
  153000    1.2192133   -5.1561035    94.267591  0.051344004  0.055417662            2 
  154000    1.1709628    -5.140412    94.917222  0.051362133  0.055376657            4 
  155000    1.1892826   -5.1317355    95.227485  0.051197572  0.055334561            4 
  156000    1.2018295   -5.1648877    96.045462  0.051306336  0.055289406            4 
  157000    1.1789321   -5.1044777    97.190514  0.051587322  0.055250815            4 
  158000    1.1791906   -5.1341233    97.483404  0.051415297   0.05521881            4 
  159000     1.202609   -5.1158953     98.37113  0.051557196  0.055191294            4 
  160000    1.1890718    -5.122743    99.293386  0.051715305  0.055163232            2 
  161000    1.1958957   -5.1128365    99.753309  0.051632148  0.055134777            2 
  162000     1.190173   -5.1235608    100.04177  0.051461816  0.055104911            2 
  163000    1.1952144   -5.1358354    100.86393  0.051566427   0.05507347            2 
  164000    1.1804053   -5.1815503    101.38367  0.051516092  0.055047548            3 
  165000    1.2111893   -5.1951371    102.02139  0.051525954  0.055024191            2 
  166000    1.1834901   -5.1415739    102.82604  0.051619496  0.054997008            3 
  167000    1.1826357   -5.1549513    103.33295  0.051563348  0.054967388            4 
  168000    1.1787735   -5.1434787    103.78196  0.051479145    0.0549347            1 
  169000    1.1837735   -5.1637422    104.31242  0.051436105  0.054902847            2 
  170000    1.2039953   -5.1403563    105.16787  0.051552876  0.054873923            1 
  171000    1.2036552   -5.1636967    105.32137  0.051326206  0.054846047            3 
  172000    1.1720676   -5.2010375    106.27615  0.051490383  0.054814906            1 
  173000    1.1798453   -5.1624431     106.6757  0.051385214  0.054784935            2 
  174000    1.1820014   -5.1632216    107.41632  0.051444596  0.054753875            1 
  175000    1.1680885   -5.0995603    108.37838  0.051608752  0.054725714            2 
  176000    1.1737942   -5.1243191    108.91616  0.051570152  0.054698094            2 
  177000    1.1548558   -5.1701454    108.77245  0.051211136  0.054667333            5 
  178000    1.1948561   -5.1809993    109.77474  0.051392668  0.054635611            4 
  179000    1.2040689   -5.1772236    109.73405  0.051086615  0.054600942            1 
  180000    1.1884537   -5.1437825    110.72221  0.051260281  0.054559951            1 
  181000    1.1816746   -5.2029263    110.88435  0.051051726  0.054519384            4 
  182000     1.182669   -5.1537763    112.56245  0.051539582  0.054483203            2 
  183000    1.1766673   -5.1481882    113.39517  0.051637145  0.054454734            4 
  184000    1.1557898    -5.199648     112.7378  0.051058786  0.054425701            3 
  185000    1.1696523   -5.1701631     113.8352  0.051277115  0.054391947            2 
  186000    1.1797026   -5.1814994    114.04484  0.051095359  0.054361368            4 
  187000     1.173161   -5.1513281    115.20017  0.051336975  0.054337424            3 
  188000    1.1541833   -5.1704841    116.08885  0.051457822  0.054312169            2 
  189000    1.1672458   -5.1683019    116.87229   0.05153099  0.054288097            2 
  190000      1.17717   -5.1745096    117.22408  0.051414068  0.054262061            3 
  191000     1.167245   -5.1602731    117.98313  0.051476058  0.054239949            2 
  192000    1.1655598   -5.1654673    118.38478  0.051382285  0.054214315            2 
  193000    1.1506827   -5.2085842    118.89194  0.051335033  0.054184706            3 
  194000    1.1834486    -5.145757    119.52522  0.051342449  0.054159382            2 
  195000    1.1800483   -5.1692038    119.93114  0.051252624  0.054131154            3 
  196000    1.1873409   -5.1841141    120.50373  0.051234578  0.054103479            2 
  197000     1.155581   -5.1683089    121.28163  0.051303564  0.054078466            5 
  198000    1.1609129   -5.1515154    121.69364   0.05121786  0.054049684            5 
  199000    1.1760585   -5.1495581    123.18594  0.051585403  0.054021963            2 
  200000    1.1726559   -5.1809987    122.89593  0.051206636  0.053996048            3 
  201000     1.191787   -5.1659156    123.81074  0.051331154  0.053971475            4 
  202000    1.1893997   -5.1813957    123.67084  0.051019324  0.053945133            2 
  203000    1.1842975   -5.1824104    124.36217  0.051051793  0.053914688            4 
  204000    1.1559112   -5.1851472      125.017  0.051069038  0.053881392            2 
  205000    1.2064361   -5.1439308    126.00414  0.051221194  0.053848018            4 
  206000    1.1720702   -5.1394985    126.46619  0.051159462  0.053814895            2 
  207000    1.1489676   -5.1759533    126.50193  0.050926702  0.053779254            2 
  208000    1.1551657   -5.1967256    126.85941  0.050825084   0.05374124            3 
  209000    1.1503749   -5.1760057    127.59739  0.050876152  0.053705614            5 
  210000    1.1840086   -5.1799863    128.19104  0.050869459  0.053668938            3 
  211000    1.1668784   -5.1937764    128.24358  0.050649121  0.053628603            4 
  212000    1.1552238   -5.2001023    128.90896  0.050671759  0.053585412            2 
  213000    1.1710348    -5.176691    129.70373  0.050744809  0.053544729            2 
  214000    1.1664092   -5.1894859    130.14903  0.050681085  0.053503924            3 
  215000    1.1887772   -5.1780747    130.97889   0.05076701  0.053465111            1 
  216000    1.1661919   -5.1894101    131.95117  0.050907088  0.053430997            3 
  217000    1.1516023   -5.1768262    131.65209   0.05055764  0.053397288            2 
  218000     1.167455   -5.1788658    132.36754  0.050599211  0.053361803            2 
  219000    1.1858522   -5.1513923       133.71  0.050878995  0.053326822            3 
  220000     1.188954   -5.1862964    133.82662  0.050691901  0.053290247            3 
  221000    1.1999424   -5.1833739    133.84991  0.050471308   0.05325256            3 
  222000    1.1829641   -5.1924977     134.4677  0.050475862  0.053212601            1 
  223000    1.1613395   -5.1784554    134.47291   0.05025146  0.053169928            2 
  224000      1.14504   -5.2039443     135.4631  0.050395498   0.05313138            4 
  225000    1.1790109   -5.1886584    136.08206  0.050400764  0.053093662            3 
  226000    1.1298059   -5.2101569    136.17467    0.0502119  0.053050811            4 
  227000    1.1598072   -5.2335684    136.22681  0.050009841  0.053008886            3 
  228000     1.174735   -5.2164615     137.6049  0.050294188  0.052970524            3 
  229000    1.1544173   -5.2077545    138.00804  0.050221267  0.052930539            3 
  230000    1.1545241   -5.1767623    138.38996   0.05014129  0.052890673            3 
  231000     1.152381   -5.1908156    139.13539  0.050193142  0.052853821            7 
  232000    1.1683802   -5.2335039    139.95444  0.050270993  0.052818622            2 
  233000    1.1573225   -5.1666993    141.09796  0.050464219  0.052783087            4 
  234000    1.1337749   -5.2307455    141.14733  0.050266143  0.052748124            2 
  235000    1.1540513   -5.1682893    142.70888  0.050605986  0.052715112            3 
  236000    1.1470679    -5.185618    143.40685  0.050638013  0.052686484            5 
  237000    1.1574357   -5.1821985    143.62389  0.050500665   0.05265923            2 
  238000    1.1614938   -5.1988248    144.05601  0.050439779  0.052632159            2 
  239000        1.154   -5.2101116    144.97539  0.050549298  0.052605126            2 
  240000    1.1636652   -5.2109002    145.28643  0.050446678  0.052577862            2 
  241000    1.1343894   -5.2160578    146.24024  0.050567164  0.052551279            2 
  242000    1.1490762   -5.2370543    146.70182  0.050517155  0.052526471            1 
  243000    1.1292179   -5.1823684    147.15434   0.05046445   0.05250015            2 
  244000    1.1367896   -5.2196191     147.4861  0.050370936  0.052473673            5 
  245000    1.1526743   -5.1888576    148.49064   0.05050702  0.052447458            4 
  246000    1.1535674   -5.1766168    149.61557  0.050682782  0.052423013            2 
  247000     1.180004   -5.2265382    149.20993  0.050340731  0.052400106            1 
  248000    1.1724423   -5.2351832    149.36601   0.05019019  0.052372318            7 
  249000    1.1332306   -5.2156231    150.52631  0.050376943  0.052343734            3 
  250000    1.1656333   -5.1888168    151.70969  0.050569897  0.052321284            2 
  251000     1.145804    -5.209056    152.06822  0.050487457  0.052301308            3 
  252000    1.1816583   -5.2088906    152.90863  0.050565023  0.052282102            2 
  253000    1.1878905   -5.1837946    154.30214  0.050824157  0.052265541            4 
  254000    1.1179376   -5.2204467    154.22698  0.050599401  0.052248704            2 
  255000    1.1489946   -5.2091954    155.27255  0.050742665  0.052231775            2 
  256000    1.1187458   -5.2595633      155.155  0.050506185  0.052213056            3 
  257000    1.1578346   -5.2021611    156.27697  0.050673467  0.052194551            2 
  258000     1.151121   -5.1871049    156.70521  0.050615378  0.052177474            5 
  259000    1.1776563   -5.2216521    157.21298  0.050583325  0.052160127            2 
  260000    1.1489727   -5.1780864    158.06529  0.050661952  0.052140765            2 
  261000    1.1534333   -5.2437944    157.85732  0.050401444  0.052119877            6 
  262000    1.1455299   -5.2363966    158.59921  0.050445043  0.052101084            2 
  263000    1.1422323   -5.2334084     159.7542    0.0506192  0.052083263            1 
  264000     1.154345   -5.2108765    159.89953  0.050473338  0.052065955            2 
  265000    1.1565379   -5.2047009    160.88604  0.050593093  0.052048523            3 
  266000    1.1565508   -5.2526016    161.29247  0.050530221  0.052029929            3 
  267000    1.1596149   -5.2071553    161.88726  0.050526611   0.05201082            4 
  268000    1.1583464   -5.1969702    162.36339  0.050486129  0.051992326            2 
  269000    1.1362504   -5.2168462    162.99123  0.050492947  0.051974661            4 
  270000    1.1726203   -5.2381204    163.69761  0.050523952  0.051956535            1 
  271000    1.1345235   -5.2162289    164.53049  0.050593632   0.05193894            3 
  272000    1.1350653   -5.2052621    165.19076  0.050609915  0.051922811            1 
  273000    1.1469363   -5.2486926    166.13299  0.050712147  0.051908768            4 
  274000    1.1479831   -5.2292378     166.3941  0.050606478   0.05189568            7 
  275000    1.1484433    -5.210999    167.17977  0.050660535  0.051883949            2 
  276000    1.1324596    -5.209673    167.77584  0.050656955  0.051871236            3 
  277000    1.1467845   -5.1943828    168.22996  0.050610697  0.051858763            3 
  278000    1.1340385   -5.2218777    169.27351  0.050741459  0.051846575            2 
  279000    1.1415508   -5.2319988    169.95043  0.050761778  0.051837366            2 
  280000    1.1341215   -5.2359133    169.50131  0.050446817  0.051826555            4 
  281000    1.1297229    -5.228422    170.55107   0.05057861  0.051816448            2 
  282000    1.1519786    -5.226935    171.35588  0.050637081  0.051804613            2 
  283000    1.1658038   -5.2355768    171.65325  0.050545716  0.051794239            3 
  284000    1.1105099   -5.2472364    171.64276  0.050364659  0.051781503            4 
  285000    1.1534136   -5.2441562    173.52094  0.050737118  0.051768982            2 
  286000     1.126829   -5.2617438    173.37679  0.050517712  0.051757601            6 
  287000     1.154288   -5.2790273    173.97297  0.050514799  0.051745424            2 
  288000    1.1462239   -5.2370954    175.04041  0.050648267  0.051733389            4 
  289000     1.130289   -5.2355552    175.31362  0.050551794  0.051721915            2 
  290000    1.1432877   -5.2637129    175.88355  0.050541251   0.05170836            1 
  291000    1.1260534   -5.2327808    175.87109  0.050364002  0.051695968            2 
  292000    1.1446669   -5.2074865     177.4588  0.050644635     0.051683            3 
  293000    1.1488684   -5.2306322     177.3491  0.050440587  0.051670122            3 
  294000     1.144227   -5.2336498    178.51544  0.050599613  0.051658268            2 
  295000    1.1401894   -5.2473891    180.07283  0.050868032  0.051648484            2 
  296000    1.1366602   -5.2274291    180.41332  0.050792039  0.051638256            1 
  297000    1.1073783   -5.2561924     180.3396  0.050600337  0.051627395            3 
  298000    1.1597498   -5.2815817    179.90619  0.050309337  0.051615491            2 
  299000    1.1311778   -5.2364632    181.03331  0.050455215  0.051604221            3 
  300000    1.1427127   -5.2458702    181.71424  0.050476177  0.051593264            5 
  301000    1.1431594    -5.281598    181.94991  0.050373729  0.051581034            2 
  302000     1.137172   -5.2262231    182.88894  0.050466044  0.051569948            2 
  303000    1.1273565   -5.2497373     183.7632  0.050539934  0.051560881            2 
  304000    1.1109333   -5.2541823    184.13932  0.050476787  0.051551301            5 
  305000     1.156057    -5.223243    184.27898  0.050349449  0.051540082            3 
  306000    1.1357785   -5.2553428    185.26959   0.05045468  0.051527591            3 
  307000    1.1417411   -5.2299874    185.84633  0.050446886  0.051515627            2 
  308000    1.1639802   -5.2537921    186.47887   0.05045424  0.051503073            2 
  309000    1.1335868   -5.2135937    186.97971  0.050426027  0.051489521            4 
  310000    1.1404014    -5.258538    186.88625  0.050238238  0.051476621            3 
  311000    1.1322468   -5.2764919    187.27662  0.050181302  0.051462363            2 
  312000    1.1154975   -5.2557138    188.03084  0.050221913  0.051447279            1 
  313000    1.1229618   -5.2684346     188.3543  0.050147577  0.051430856            3 
  314000     1.152846   -5.2221759    189.43046  0.050273478  0.051415036            2 
  315000    1.1317437   -5.2537556    189.71824  0.050190011  0.051396799            2 
  316000     1.106069   -5.2682369    189.29037  0.049918347  0.051379817            2 
  317000    1.1497197   -5.2619094    190.12454  0.049980164   0.05136181            3 
  318000    1.1339461    -5.272471    191.55078  0.050196745  0.051342635            3 
  319000    1.1438568   -5.2534626    192.52529  0.050293964  0.051324571            5 
  320000    1.1108218   -5.2553711    192.21646   0.05005637  0.051307854            4 
  321000    1.1377398   -5.2251064    193.30345   0.05018262  0.051289462            4 
  322000    1.1391469   -5.2215251    193.50301  0.050078419  0.051273326            2 
  323000    1.1153291   -5.2667607    193.96705  0.050043098  0.051256916            2 
  324000    1.1273028   -5.2590389    195.07374  0.050173287  0.051239865            5 
  325000    1.1425607   -5.2861404    195.31085  0.050079704  0.051223296            3 
  326000     1.118141   -5.2481957    196.02107  0.050107635   0.05120891            2 
  327000    1.1094061   -5.2758696    195.80154  0.049898455  0.051192705            4 
  328000     1.137825   -5.2954122    196.28458   0.04986905  0.051175093            3 
  329000    1.1221143   -5.2452616     197.3691  0.049992172  0.051157412            3 
  330000    1.1461968   -5.2693199    196.94224  0.049732889  0.051139144            2 
  331000    1.1031853   -5.2498435    198.63961  0.050009972  0.051121045            3 
  332000    1.0834198   -5.2705481    198.69954  0.049874383  0.051103054            4 
  333000    1.1300451   -5.2818082     199.3402  0.049884935  0.051085402            2 
  334000    1.0989623   -5.2317302    199.76851  0.049842442  0.051067688            3 
  335000    1.1246186   -5.3068656    199.88597  0.049722879  0.051049404            2 
  336000    1.1158319   -5.2760125    200.53238  0.049735214  0.051029359            3 
  337000    1.1088981   -5.2835968    200.72294  0.049634754  0.051009685            2 
  338000    1.1153684   -5.2959532    201.41813  0.049659301  0.050990985            3 
  339000    1.1263263   -5.2568092    202.45704    0.0497682  0.050972114            3 
  340000    1.1434535   -5.2587841    203.43086  0.049860504   0.05095487            5 
  341000    1.1286875   -5.2900137    202.70128  0.049535992  0.050935882            2 
  342000    1.1273988   -5.2744981    203.59323  0.049608486  0.050915586            2 
  343000     1.118578    -5.251075    204.02123   0.04956784  0.050895147            2 
  344000    1.1099509   -5.2800757    205.29041  0.049731203  0.050876453            1 
  345000    1.1323603   -5.2811773    205.34015   0.04959907  0.050858807            2 
  346000    1.1387044   -5.2519102    206.65653  0.049772767  0.050841596            3 
  347000    1.1193904   -5.2861952    206.68807  0.049636904  0.050824074            8 
  348000    1.1160807   -5.2947404    207.40307  0.049665486  0.050804252            3 
  349000    1.1352833   -5.2945809    207.97037  0.049658637  0.050785822            3 
  350000    1.1306963   -5.2938068    207.42571  0.049387073  0.050768589            5 
  351000    1.1458206   -5.2643468    208.79562  0.049571609   0.05075176            3 
  352000    1.1346406   -5.2483315    209.19458  0.049525232  0.050733271            3 
  353000    1.0949756   -5.3070937    209.67081  0.049497359   0.05071367            3 
  354000    1.1395586   -5.3114645      209.579  0.049335923  0.050693641            3 
  355000    1.1119725   -5.2635944     211.5385  0.049656924  0.050675273            2 
  356000    1.1201012   -5.2755612    212.31775  0.049699848  0.050658011            2 
  357000    1.0734208   -5.2721689    212.22471  0.049538915  0.050639798            3 
  358000    1.1194777   -5.2974744    212.21947  0.049399319  0.050622914            2 
  359000    1.1090413   -5.3164384    212.78252  0.049392414  0.050605432            3 
  360000    1.1048753   -5.2984981    213.27959  0.049370274  0.050585624            3 
  361000    1.1057699   -5.2842822    213.75955  0.049344309  0.050568677            3 
  362000    1.1276654   -5.3101709    214.25527  0.049322116  0.050550641            3 
  363000    1.1341932    -5.312623    214.67875   0.04928346  0.050531802            2 
  364000    1.0821794   -5.3033928    215.52388  0.049341548  0.050513322            5 
  365000    1.0934201   -5.2454979      216.444  0.049416437  0.050495395            5 
  366000    1.1082792   -5.3079505    216.51251   0.04929702  0.050478715            4 
  367000    1.1167882   -5.3204417    217.93524  0.049485749  0.050461534            1 
  368000    1.1124788   -5.3209612    218.08999   0.04938632  0.050445601            5 
  369000     1.107137   -5.3053738     218.9048  0.049436495  0.050426741            4 
  370000    1.1242805   -5.2957544    218.98131  0.049320115  0.050409045            2 
  371000    1.1206107   -5.3029687    218.83131  0.049153485  0.050390842            2 
  372000    1.0933484   -5.3068218    219.65114  0.049205005     0.050372            2 
  373000    1.1258165   -5.3415191    219.29942  0.048994507  0.050351033            5 
  374000     1.108629   -5.3054143    220.94988  0.049231256  0.050329971            2 
  375000     1.115343    -5.341837    220.73345  0.049051879  0.050308567            3 
  376000    1.0850711   -5.2940424    221.78645  0.049154798  0.050289165            2 
  377000    1.0966169   -5.3271651    222.26577  0.049130365  0.050268215            5 
  378000    1.0931654   -5.3039964    222.79983  0.049118128  0.050249046            3 
  379000    1.1127467   -5.3143352    223.21874  0.049080638   0.05022999            3 
  380000    1.1118514    -5.307532    224.27589  0.049183309  0.050213505            2 
  381000    1.0918068   -5.2997268    224.27094  0.049053137  0.050196534            2 
  382000    1.1022522   -5.3273391    224.99795  0.049083322  0.050179214            3 
  383000    1.0843126    -5.311109    225.80185  0.049130081   0.05016012            2 
  384000    1.1110868   -5.3465533    225.75341  0.048991626  0.050140744            3 
  385000    1.1054206   -5.3337326    225.63141  0.048837968  0.050121271            4 
  386000    1.0973088   -5.3549492    225.57337  0.048698914   0.05010039            4 
  387000    1.1091515   -5.3225046    226.57038  0.048787766  0.050078088            9 
  388000    1.0909084   -5.3174118    226.81738  0.048715072  0.050055886            4 
  389000    1.0986695   -5.3319957    227.59225  0.048755839  0.050035113            3 
  390000    1.0934486   -5.2984521    228.10767  0.048740955  0.050012796            4 
  391000    1.1050953   -5.3193067    229.25989  0.048861869   0.04998985            3 
  392000    1.1112781   -5.3217989    229.56482  0.048802045  0.049968064            1 
  393000    1.0880798   -5.3057393    229.21069  0.048602775  0.049946661            1 
  394000    1.1162769   -5.3499006    229.47323  0.048534947  0.049925046            2 
  395000    1.1013486   -5.3087915    230.64374  0.048659018  0.049902442            2 
  396000    1.0856159   -5.2914998    231.77208  0.048773585  0.049880106            3 
  397000    1.0834418   -5.3570956    231.07055  0.048503474  0.049857742            3 
  398000    1.0869142   -5.3107529    231.78693  0.048531602   0.04983527            2 
  399000    1.1107509   -5.3439083    232.10151  0.048475671  0.049813345            2 
  400000    1.0943174   -5.2995527    233.80277   0.04870891  0.049791182            3 
  401000     1.081426   -5.3436712    234.41287  0.048714229  0.049770726            2 
  402000    1.0602341    -5.299504    235.32328  0.048781775  0.049751644            3 
  403000     1.110341   -5.3455466    235.09325  0.048613163  0.049732622            3 
  404000    1.1410175   -5.3095931    235.69312  0.048616568   0.04971202            2 
  405000    1.1070851   -5.2963799    236.80973  0.048726281  0.049693024            3 
  406000    1.1066053   -5.3426751    235.47265  0.048331824  0.049672589            4 
  407000    1.0941426   -5.3271149    236.45215  0.048413627  0.049650624            2 
  408000    1.0959057   -5.3399785    236.94735   0.04839611  0.049628536            2 
  409000    1.0841961   -5.3556915    237.00255  0.048289027  0.049606374            3 
  410000    1.1072498   -5.3392333    237.74706  0.048322573   0.04958326            2 
  411000    1.0720253   -5.3517333    237.63803  0.048182892  0.049559459            2 
  412000     1.097972   -5.3572508    237.19243  0.047975814   0.04953496            5 
  413000    1.0952069   -5.3619906      238.765  0.048176958  0.049510966            3 
  414000    1.0860764   -5.3864022    239.12038  0.048132123  0.049488692            2 
  415000    1.0713726   -5.3146141    240.51169   0.04829552  0.049466461            4 
  416000    1.0650391   -5.3178945    241.64036  0.048405521  0.049445038            2 
  417000    1.1014553   -5.3014666    242.37863  0.048436977  0.049423516            3 
  418000    1.1177121    -5.330573    242.50516  0.048346323  0.049402393            1 
  419000    1.0826995   -5.3864431    242.56357  0.048242556  0.049380506            5 
  420000    1.0571334   -5.3782388     241.8419  0.047984504  0.049358832            2 
  421000    1.0759942    -5.342718    243.50086  0.048198903  0.049336058            1 
  422000    1.1061921   -5.3632257    243.55195  0.048094777   0.04931357            2 
  423000     1.098904   -5.3550239    243.70573  0.048011374  0.049290801            1 
  424000    1.0959959   -5.3488029    243.65945  0.047889042  0.049267906            2 
  425000    1.0969769   -5.3437285    244.68444  0.047977342  0.049244786            3 
  426000    1.0924499   -5.3104813    245.46219  0.048016861  0.049222188            3 
  427000    1.0847731   -5.3452477    246.55118  0.048116936  0.049200806            7 
  428000    1.1037535   -5.3604307    246.73842  0.048040969  0.049178547            3 
  429000    1.0846212   -5.3740807    246.86762  0.047954082  0.049156571            2 
  430000    1.0864837   -5.3236871    247.49445  0.047964041  0.049135031            5 
  431000    1.0738551   -5.3337651    248.61922  0.048070228  0.049113538            4 
  432000    1.0840763   -5.3359345    248.86729  0.048006808  0.049092831            5 
  433000    1.0833665   -5.3830176    248.17999  0.047763663  0.049072134            2 
  434000    1.0670388   -5.3607606    249.85619   0.04797546  0.049050513            3 
  435000    1.0779834   -5.3534091    250.38087  0.047965684  0.049028664            4 
  436000    1.0912301   -5.3806078    250.27619  0.047835663  0.049006336            3 
  437000    1.0810508   -5.3562943      251.202  0.047902745  0.048982663            6 
  438000     1.083581   -5.3516813    251.96861  0.047939232  0.048959211            4 
  439000    1.0967141   -5.3362082     252.4253  0.047916723  0.048936541            2 
  440000    1.0730265   -5.3552783    252.13833  0.047753472  0.048914369            6 
  441000    1.0666921   -5.3952438    251.56379   0.04753662  0.048891373            2 
  442000     1.083865   -5.3294565    254.84369  0.048047453  0.048868787            3 
  443000    1.0411829    -5.378566    253.35921  0.047659746  0.048846861            5 
  444000    1.0716528   -5.3489161    254.77475  0.047818084   0.04882555            1 
  445000    1.0624427   -5.3745073    255.06039  0.047764118   0.04880435            5 
  446000    1.0775069   -5.3649249     255.1949  0.047682156  0.048783089            8 
  447000     1.071821   -5.3337298    256.13505  0.047750755  0.048761367            3 
  448000    1.0853385   -5.3335389    257.06898   0.04781789  0.048740415            2 
  449000    1.1068103   -5.3890438    256.41959  0.047590866   0.04871814            5 
  450000    1.0687066   -5.3677716    257.25381  0.047639594  0.048695918            2 
  451000    1.0817637   -5.3397408    258.98582  0.047853995  0.048675129            5 
  452000    1.0706115   -5.3830721      259.035   0.04775719  0.048653905            3 
  453000    1.0845244   -5.3862353     258.0959   0.04747901  0.048631736            3 
  454000    1.0833291   -5.3929749    258.58468  0.047464148  0.048608792            2 
  455000    1.0555727   -5.4008921     258.2693   0.04730207  0.048585183            2 
  456000     1.057564   -5.3595904    259.48598  0.047420684  0.048561082            5 
  457000    1.0854413    -5.403851    259.49404  0.047318387  0.048538044            2 
  458000    1.0596834   -5.3553569    260.05072  0.047316361  0.048513987            2 
  459000    1.0716617   -5.3804258    260.35715   0.04726891  0.048491023            5 
  460000    1.0594277   -5.3619351    261.23757  0.047325647  0.048468656            3 
  461000    1.0507436   -5.3515487     261.5699  0.047283063  0.048444836            3 
  462000    1.0656142   -5.3510306    263.40724  0.047512128  0.048422304            3 
  463000    1.0756874   -5.3915485    262.05692  0.047166472  0.048398694            4 
  464000    1.0862356   -5.3627655    263.62562  0.047346555  0.048374112            4 
  465000    1.0483377   -5.3578603    263.04897  0.047141393  0.048350576            2 
  466000    1.0645776   -5.3848959    263.63833  0.047145624  0.048325955            2 
  467000    1.0611995    -5.369741     263.3117  0.046986384  0.048301317            4 
  468000    1.0824141   -5.3846911    264.31494  0.047064626  0.048276335            5 
  469000    1.0491189   -5.3811858    264.81295  0.047052763  0.048251224            1 
  470000    1.0783972   -5.3873572     264.9986  0.046985568  0.048226575            2 
  471000    1.0722169   -5.3876119    265.87474  0.047040824  0.048202194            7 
  472000    1.0713954   -5.4288319    265.32559  0.046844207  0.048176788            4 
  473000    1.0506277   -5.3821508    266.18378  0.046896367  0.048152536            3 
  474000    1.0682429   -5.3599294    266.80203  0.046906124  0.048127776            1 
  475000    1.0749126   -5.3750405     268.3456  0.047078176  0.048103464            4 
  476000    1.0450942   -5.3947008    267.58148  0.046845497  0.048078691            1 
  477000    1.0442837   -5.4065176     269.0305  0.047000436  0.048055628            4 
  478000    1.0442428   -5.4230664    269.08689  0.046911941  0.048032215            3 
  479000    1.0540664   -5.4147158    269.70723  0.046921925  0.048008883            5 
  480000    1.0681266   -5.3862219    270.75261  0.047005661  0.047985083            4 
  481000    1.0604239   -5.3881321    270.36837  0.046841366  0.047961933            3 
  482000    1.0700586   -5.4014561    269.79648  0.046645312  0.047937351            5 
  483000    1.0728495    -5.358917    272.82639  0.047071496  0.047913227            5 
  484000    1.0737937   -5.3993919    271.34384   0.04671898  0.047889384            3 
  485000    1.0470761    -5.374879    272.12304  0.046756536  0.047865709            8 
  486000    1.0588484   -5.3878766     272.0383  0.046645799  0.047841779            1 
  487000    1.0474079   -5.3862619     273.5961  0.046816581  0.047817327            4 
  488000    1.0336764   -5.3784868    273.61607  0.046724056  0.047793687            4 
  489000    1.0506086   -5.3624639    274.59699  0.046795669  0.047770511            5 
  490000    1.0549033   -5.4004425    274.53365  0.046689396    0.0477473            3 
  491000    1.0601273   -5.4166686     274.4137  0.046573948  0.047723736            2 
  492000    1.0473378    -5.408358    275.82904  0.046719011  0.047700264            2 
  493000    1.0532137   -5.4205272    275.79359  0.046618253  0.047676941            7 
  494000     1.056881   -5.3962345    277.14832  0.046752416  0.047653971            3 
  495000    1.0619606   -5.3960529    277.13636  0.046655952  0.047631628            3 
  496000    1.0779447   -5.4104455    277.88426  0.046687543  0.047608838            8 
  497000    1.0372418   -5.4429624    276.87349  0.046424127  0.047585619            6 
  498000    1.0517418   -5.4432107    277.47731  0.046431947  0.047562095            4 
  499000    1.0462498   -5.4263461    278.76339  0.046553673  0.047537912            6 
  500000    1.0548508   -5.4285587    278.25336  0.046375561  0.047513791            3 
  501000    1.0450833   -5.4175987    279.26453  0.046451185  0.047489626            3 
  502000    1.0466418   -5.3956251    279.83256  0.046452948  0.047466442            2 
  503000    1.0525206   -5.4063191    280.09711  0.046404424  0.047442678            3 
  504000    1.0466423    -5.407173    279.87969  0.046276405  0.047418006            2 
  505000    1.0417431   -5.4222722    280.91894  0.046356261  0.047394213            3 
  506000    1.0550117   -5.3856784    281.07333  0.046290073  0.047369162            3 
  507000    1.0674089   -5.4223452    281.22498  0.046223699  0.047344489            4 
  508000    1.0445611   -5.3918746    282.14897  0.046284281  0.047320296            4 
  509000    1.0405671   -5.3806806    281.96969  0.046163996  0.047295711            4 
  510000    1.0333059   -5.4083304    282.73415   0.04619839  0.047272095            3 
  511000    1.0517704   -5.4056788    283.06248  0.046161526   0.04724718            2 
  512000    1.0569829   -5.3998486    283.12735  0.046081926   0.04722167            4 
  513000    1.0628361   -5.4416518    282.90849  0.045956544  0.047195973            5 
  514000    1.0425056   -5.3970659    284.08644  0.046058112  0.047171647            4 
  515000    1.0419191   -5.3745881    284.66903   0.04606295  0.047146827            5 
  516000    1.0733022   -5.4158279    284.81266  0.045996877  0.047121859            3 
  517000    1.0499845   -5.4213246    285.17372  0.045966105  0.047096725            4 
  518000     1.036528   -5.4431896    285.81089  0.045979873  0.047071205            4 
  519000     1.035899   -5.4344586    286.25173  0.045962064  0.047046832            5 
  520000    1.0427824   -5.4470496    286.23429  0.045870879   0.04702176            3 
  521000    1.0375189   -5.4324835    286.99666  0.045904776  0.046996438            3 
  522000    1.0521478   -5.3934979    287.79148  0.045943723   0.04697217            1 
  523000    1.0470124   -5.4180444    288.08739  0.045903026  0.046948376            2 
  524000    1.0434718   -5.4201963    287.44474  0.045713222  0.046924281            1 
  525000    1.0449177   -5.4388095    289.39055  0.045935007  0.046899757            3 
  526000    1.0389763   -5.4208325    289.60514  0.045881677  0.046874769            2 
  527000    1.0557345    -5.463777    288.61427   0.04563793  0.046849705            5 
  528000     1.057763   -5.4577256    288.48651  0.045531331  0.046824195            6 
  529000    1.0467923   -5.4270534    290.59752  0.045777807  0.046798266            2 
  530000    1.0396962   -5.4415978    289.53681  0.045524656   0.04677352            3 
  531000    1.0645481   -5.4425043    291.67966  0.045775214  0.046749325            4 
  532000    1.0477841   -5.4136293     292.2948  0.045785527  0.046725606            3 
  533000    1.0585463   -5.4165563    293.11993  0.045828631  0.046702283            2 
  534000    1.0321027   -5.4473485     293.1916  0.045753995  0.046679453            2 
  535000    1.0391884   -5.4623253    291.92535  0.045471238    0.0466547            3 
  536000    1.0517338   -5.4745806    293.52805  0.045635581  0.046629797            5 
  537000    1.0283486   -5.3983677    293.87746   0.04560482  0.046605911            6 
  538000    1.0404119   -5.4483669    294.83956  0.045669076  0.046581595            3 
  539000    1.0194627   -5.4539594    294.08149  0.045467145  0.046557628            3 
  540000    1.0319151   -5.4515188    295.04188  0.045531155  0.046533665            2 
  541000    1.0428126    -5.434801    295.12015  0.045459049  0.046509967            3 
  542000    1.0257842   -5.4755177    296.28403  0.045554125   0.04648583            5 
  543000    1.0358799   -5.4362681    296.70506  0.045534846  0.046462099            1 
  544000    1.0486125   -5.4291776    297.66114  0.045597601  0.046438614            3 
  545000    1.0485014   -5.4421678    297.95124  0.045558293  0.046415019            5 
  546000    1.0564821   -5.4117683    298.25301  0.045520911  0.046391558            2 
  547000    1.0408477   -5.4403427    296.90505  0.045232335  0.046368101            2 
  548000    1.0190281   -5.4621182    298.80674  0.045438981  0.046344151            3 
  549000    1.0583917   -5.4721743    298.57566  0.045321139  0.046319867            4 
  550000    1.0357262   -5.4372467     298.4815   0.04522447  0.046295873            3 
  551000     1.041755   -5.4532851    299.00865  0.045222118  0.046272317            2 
  552000    1.0329961    -5.437694    299.91255  0.045276652  0.046247678            5 
  553000    1.0261765   -5.4240589    301.42343  0.045422457  0.046223373            4 
  554000    1.0336474    -5.461901    301.02314  0.045280255  0.046199854            3 
  555000    1.0244835   -5.4528734    301.34151  0.045246472  0.046175789            1 
  556000    1.0492592   -5.4411464    302.59075  0.045352331  0.046153047            4 
  557000    1.0127857    -5.457319    302.96682  0.045327173  0.046129817            5 
  558000    1.0189326   -5.4397284    302.85712  0.045229557  0.046105719            3 
  559000    1.0251956   -5.5017665    301.44708  0.044938444  0.046081438            4 
  560000    1.0289994   -5.4321154    302.48093  0.045012043  0.046056161            2 
  561000    1.0480022   -5.4685202    303.78972  0.045126221   0.04603136            4 
  562000    1.0060433   -5.4645468    303.39403  0.044987253  0.046006145            2 
  563000     1.019892   -5.4860317    301.89495  0.044685457  0.045980193            5 
  564000    1.0492634   -5.4647628    304.72929  0.045025013  0.045954678            3 
  565000     1.017153   -5.4651009     304.2938  0.044881092   0.04592953            7 
  566000    1.0335071   -5.4603698     305.0513  0.044913325  0.045904977            4 
  567000    1.0553668   -5.4832842     304.8498  0.044804497  0.045880089            3 
  568000    1.0441925   -5.4571299    306.53925  0.044973481  0.045854815            2 
  569000    1.0477932   -5.4730221    304.94193  0.044660505  0.045829807            5 
  570000    1.0307463   -5.4979331    305.17815  0.044616688  0.045803974            3 
  571000    1.0043538   -5.5186129    306.87791  0.044786619  0.045778738            3 
  572000    1.0169025   -5.4581582    307.37427  0.044780634  0.045753694            3 
  573000    1.0337016   -5.4048531    308.79029  0.044908418  0.045729818            6 
  574000    1.0348602   -5.4899042     308.7297  0.044821386  0.045705613            3 
  575000    1.0162798   -5.5066253      308.982      0.04478  0.045680953            4 
  576000    1.0086529   -5.4769878    309.72037  0.044809081  0.045656265            3 
  577000    1.0009033    -5.484204    309.17731  0.044652992  0.045631951            2 
  578000    1.0282266    -5.476017    308.51972  0.044480929  0.045607474            2 
  579000     1.031323   -5.4615275    310.72166  0.044721021  0.045582663            3 
  580000    1.0098607   -5.4832655    309.70635  0.044498039  0.045557499            3 
  581000    1.0181802     -5.49879    310.91905  0.044595389  0.045531709            3 
  582000    1.0157304   -5.4780637    311.23262  0.044563662  0.045506369            4 
  583000    1.0187929   -5.4272879    311.10217  0.044468577  0.045481618            4 
  584000    1.0126591   -5.4849622    311.61069  0.044464996  0.045456301            2 
  585000     1.029961   -5.4511877    312.98164  0.044584279  0.045431126            3 
  586000    1.0163239   -5.5007217    311.06319   0.04423538  0.045405589            7 
  587000    1.0281632   -5.5024173    312.84515  0.044412997  0.045379414            5 
  588000    1.0424762   -5.4853555    312.82522  0.044334639  0.045352995            5 
  589000    1.0273226   -5.4694825    314.48615  0.044494361  0.045327378            4 
  590000    1.0210699   -5.4514497    314.11824  0.044366983  0.045302235            4 
  591000    1.0257058   -5.4869638    313.97431  0.044271617  0.045276341            8 
  592000    1.0072699   -5.5193911    313.58006  0.044141337  0.045250866            5 
  593000    1.0295922   -5.5013583    315.16237   0.04428926  0.045225156            9 
  594000    1.0232084   -5.5104975    315.48443  0.044259881  0.045200332            5 
  595000    1.0315682   -5.5138422    314.83889  0.044095082  0.045174692            6 
  596000   0.99779007   -5.5091997    316.05048  0.044190503  0.045148634            4 
  597000    1.0154523   -5.5084224    317.09834   0.04426275  0.045123241            1 
  598000    1.0360191   -5.4937012    316.80057  0.044147236  0.045097825            3 
  599000    1.0154766   -5.4816492    317.25175  0.044136303  0.045072455            5 
  600000    1.0261072   -5.4981653    317.78315  0.044136549  0.045047075            2 
  601000    1.0214584   -5.5103784    316.97734  0.043951378  0.045021406            2 
  602000   0.98727243   -5.5008274    318.12285   0.04403694  0.044995506            4 
  603000    1.0297411   -5.5152409    319.08896  0.044097425  0.044970584            5 
  604000     1.025597   -5.4813962    318.81183   0.04398618  0.044945014            2 
  605000    1.0042244   -5.5170224    318.58814  0.043882663  0.044919458            4 
  606000     1.016912   -5.4991565    318.74242  0.043831465  0.044893746            2 
  607000    1.0060306    -5.497556    319.88795  0.043916522   0.04486781            4 
  608000    1.0101461   -5.4875136     320.4011  0.043914625   0.04484247            4 
  609000    1.0280513   -5.5117333    320.95883  0.043918833  0.044817319            3 
  610000     1.023262   -5.4973727    321.10064  0.043866207   0.04479158            2 
  611000    1.0066073   -5.4861412    320.74018  0.043745251  0.044765904            6 
  612000    0.9947366   -5.5200173    320.80024  0.043681949  0.044739429            6 
  613000    1.0041607   -5.4974894    321.15134  0.043658421   0.04471265            6 
  614000    1.0235909   -5.5338883    320.89435  0.043552436  0.044686242            2 
  615000   0.99733611   -5.5158004    321.42112  0.043552997  0.044659506            5 
  616000    1.0198815   -5.5055216    322.30894    0.0436024  0.044632792            4 
  617000   0.99994476    -5.519722     322.4689  0.043553337  0.044606169            6 
  618000    1.0131952   -5.5140194    323.78114  0.043659808  0.044580164            2 
  619000   0.99267385   -5.4853087    324.92319  0.043743025  0.044554546            6 
  620000    1.0186494   -5.5517003    323.07059  0.043423466  0.044528525            5 
  621000     1.005983   -5.5180274    323.66666  0.043433529  0.044501584            4 
  622000    1.0142798   -5.5349286    322.91427  0.043262897  0.044474436            2 
  623000    1.0076081   -5.4982411    325.47487  0.043535964  0.044448201            2 
  624000    1.0100635   -5.5140577    325.14352  0.043421944    0.0444218            6 
  625000   0.98236601   -5.4805501    325.58222  0.043410962  0.044395782            3 
  626000    1.0107009   -5.5115848    326.44577  0.043456572  0.044370218            4 
  627000    1.0136345    -5.525255    326.06488   0.04333664  0.044343786            1 
  628000   0.99946382    -5.504545    326.80519  0.043365869  0.044317016            2 
  629000    1.0120292    -5.539492    325.83203  0.043167995  0.044289945            3 
  630000     1.004616   -5.5002219    326.62988  0.043205011  0.044262561            2 
  631000    1.0062484   -5.5183989    326.18698  0.043078049  0.044235148            9 
  632000   0.96828338   -5.5282615    327.09165  0.043129173  0.044207273            2 
  633000    1.0247512   -5.5375632    326.99193   0.04304791  0.044179375            6 
  634000    1.0100781   -5.5353307    327.49744  0.043046457  0.044152288            4 
  635000    1.0164202   -5.5121632    328.51016   0.04311157  0.044124913            4 
  636000     1.019016   -5.5308772     328.7935   0.04308091  0.044097442            6 
  637000    1.0152503   -5.5293357    328.23118  0.042939715  0.044070229            2 
  638000    1.0208427   -5.5277158    329.91693  0.043092598  0.044043838            7 
  639000   0.99880054    -5.517991    330.39832   0.04308794  0.044016936            6 
  640000    1.0214484   -5.5265344    330.26983  0.043003884  0.043989697            2 
  641000    1.0031992    -5.537892    331.09976  0.043044691  0.043963247            4 
  642000    1.0277745   -5.5563487    330.91908   0.04295419   0.04393679            3 
  643000    1.0185613   -5.5123293    332.08013   0.04303786  0.043910734            4 
  644000   0.99390722   -5.5253452    331.61442  0.042910768  0.043884429            4 
  645000    1.0001614   -5.5461533    332.74212  0.042989938   0.04385814            9 
  646000    1.0025799   -5.5302476    332.92405  0.042946859  0.043832093            3 
  647000   0.98527036   -5.5103451    332.93195  0.042881498  0.043805909            3 
  648000    0.9908917   -5.4921315    332.61296    0.0427743  0.043779868            2 
  649000   0.99649466   -5.5394666    333.32836  0.042800251  0.043753496            4 
  650000   0.98394148   -5.5667425    332.26477  0.042598047  0.043726012            4 
  651000    1.0019839   -5.5438063    332.97567  0.042623614  0.043698801            3 
  652000    1.0069831   -5.5720269    334.10146   0.04270213  0.043671516            7 
  653000   0.97513577   -5.5833269    333.08037  0.042506427  0.043644048            3 
  654000    1.0037047   -5.5331847    334.58189  0.042632759  0.043616896            4 
  655000   0.99659784   -5.5276374    335.39134  0.042670653  0.043589979            2 
  656000   0.98083144   -5.5378533    335.65594   0.04263922  0.043562683            5 
  657000   0.99568031   -5.5708094    334.54053  0.042432843  0.043535652            4 
  658000   0.96985119   -5.5909437    334.61105  0.042377286  0.043508327            7 
  659000   0.99030504   -5.5475935     335.8445  0.042468955  0.043481137            4 
  660000    1.0001613   -5.5442908    337.08641  0.042561416  0.043454286            4 
  661000   0.96730319   -5.5505542    336.53991  0.042428128  0.043427132            5 
  662000   0.98038307   -5.5401645    336.59851  0.042371414  0.043399579            2 
  663000   0.99968094   -5.5310464    336.35491  0.042276887  0.043372469            3 
  664000   0.99316176   -5.5550186    337.90177  0.042407351  0.043345476            3 
  665000   0.96901855   -5.5362546    339.42473  0.042534427  0.043318833            6 
  666000   0.98673687   -5.5608909    339.36654  0.042463281  0.043292053            3 
  667000   0.98544926   -5.5353975    339.30245  0.042391611  0.043265131            5 
  668000   0.99040219   -5.5639399    339.22516  0.042318508  0.043238296            6 
  669000    0.9946659   -5.5811761    339.67575  0.042311378  0.043211807            4 
  670000   0.98033351   -5.5745602    339.59534  0.042238227  0.043185925            8 
  671000   0.97149443    -5.517959    341.88566  0.042459719  0.043159804            6 
  672000    0.9638354   -5.5425328    340.81072  0.042263235  0.043133563            3 
  673000   0.98228494   -5.5409037    340.98099  0.042221519   0.04310746            5 
  674000    1.0148353   -5.5809628    341.07594  0.042170616  0.043081005            3 
  675000   0.98459642   -5.5707336    340.91508  0.042088281   0.04305446            4 
  676000   0.99193753   -5.5256923    341.70002  0.042122784  0.043027517            6 
  677000   0.98119955    -5.554278    341.53101   0.04203976  0.043000834            4 
  678000   0.98006824   -5.5755543    341.34202  0.041954526  0.042973875            6 
  679000   0.98938127   -5.5851735    342.37365  0.042019348   0.04294676            4 
  680000   0.98608055    -5.572204     342.0645   0.04191967  0.042919756            2 
  681000   0.98153056   -5.5441125    343.86893  0.042078919  0.042892763            2 
  682000    0.9758248   -5.5329818     343.5465  0.041977822  0.042865786            2 
  683000   0.97867532    -5.608245    342.49095  0.041787573  0.042838712            7 
  684000   0.97981542    -5.573896    343.83187  0.041889847  0.042811586            2 
  685000   0.96629087   -5.5364847    344.37465  0.041894726  0.042784621            5 
  686000    0.9853453   -5.5658761    343.55924  0.041734602   0.04275747            3 
  687000   0.98975838   -5.5736865    344.14849  0.041745328  0.042729317            3 
  688000   0.99195775   -5.5374179    343.50416  0.041606609  0.042701378            6 
  689000   0.97124078   -5.6023998    343.68795  0.041568451  0.042674116            4 
  690000   0.97647685   -5.5477455    345.24349  0.041696074   0.04264678            5 
  691000   0.98283186   -5.5865468    344.38491  0.041532189  0.042618999            5 
  692000   0.97140098   -5.5769943    346.05643  0.041673462  0.042591751            3 
  693000    0.9793754   -5.5411411    345.86672  0.041590514  0.042564926            4 
  694000   0.97262179   -5.5724684     345.3088  0.041463593  0.042538052            2 
  695000   0.97980179   -5.5467267    348.00659  0.041727408   0.04251135            2 
  696000   0.97997299   -5.5574889    348.31522  0.041704408  0.042484948            5 
  697000   0.94798291   -5.5650251    348.27536  0.041639809  0.042458325            4 
  698000   0.97754912   -5.5749353    347.42237  0.041478315  0.042431285            2 
  699000   0.96306269   -5.5794285    347.17344  0.041389299  0.042404617            3 
  700000   0.95672271   -5.5852321    347.73482  0.041397002  0.042377217            3 
  701000   0.95380666   -5.5937476    349.29196  0.041523057  0.042350381            5 
  702000   0.98144513   -5.5669844    348.69849  0.041393458   0.04232308            7 
  703000   0.97495488   -5.5680654    347.88849   0.04123856  0.042295133            8 
  704000   0.95554617   -5.5421883    349.45895   0.04136588  0.042267252           10 
  705000   0.96189695   -5.5625906    350.45535  0.041424982  0.042239888            4 
  706000   0.98289186   -5.5798011    349.97348  0.041309428  0.042212562            2 
  707000   0.97037945   -5.5846976    349.92173  0.041244899  0.042185041            5 
  708000   0.99914036   -5.5923339    350.16173  0.041214893  0.042157605            6 
  709000   0.97985918   -5.6081329    349.58215   0.04108864  0.042129682            5 
  710000   0.97878712   -5.5855298    349.99505  0.041079231   0.04210157            3 
  711000   0.96440348   -5.5999006    350.36091  0.041064335  0.042073322            3 
  712000   0.95800611   -5.5795207    351.03054  0.041085035   0.04204542            4 
  713000   0.97451949   -5.5810114    350.98763  0.041022397  0.042017416            4 
  714000   0.96374075   -5.5655628    351.29218  0.041000488  0.041989456            6 
  715000    0.9632354   -5.6088213    351.98281  0.041023638  0.041961433            2 
  716000   0.96362006   -5.5505901    351.78524  0.040943348  0.041933472           15 
  717000   0.95389496   -5.6015552    352.22999  0.040937935  0.041905735            4 
  718000   0.98078878   -5.6139689    352.62776  0.040927085  0.041877994            6 
  719000   0.98984936   -5.5887744    353.03632  0.040917515  0.041850256            6 
  720000   0.97331132   -5.6032645    353.26022  0.040886599  0.041822617            6 
  721000   0.96933796   -5.6106713    353.65054  0.040875004  0.041795165            4 
  722000   0.95434754   -5.5795586    354.54479  0.040921606  0.041767832            2 
  723000   0.95235012   -5.5665377    354.04662  0.040807586  0.041740367            6 
  724000   0.94555282   -5.5765255    353.77195  0.040719608  0.041713032            3 
  725000   0.94667287   -5.5837448    355.41313  0.040852083  0.041685942            4 
  726000   0.95215477   -5.5646935    355.55903  0.040812561  0.041658376            4 
  727000   0.98238028   -5.5925415    355.43301  0.040741978  0.041630896            5 
  728000    0.9698968   -5.6171196    354.64267  0.040595543  0.041603122            2 
  729000   0.95025112   -5.6357163    356.23511  0.040721892  0.041575442            5 
  730000   0.95508494   -5.6189257     357.0264  0.040756438  0.041548015            6 
  731000   0.96330983   -5.5989987     356.7814  0.040672754  0.041520692            6 
  732000   0.94664739   -5.5869781    355.85045  0.040511208  0.041492802            4 
  733000   0.97136769   -5.5852965    358.20538  0.040723668  0.041465442            2 
  734000   0.94262211   -5.6228321    356.18207  0.040438473  0.041437657            7 
  735000   0.97352943   -5.6213015    356.46351  0.040415364  0.041410014            2 
  736000   0.96774138   -5.6521457    356.31715   0.04034388   0.04138168            4 
  737000   0.95788206   -5.6374657    356.65371  0.040327195  0.041353865            4 
  738000    0.9768504   -5.6237143    356.86924  0.040296888  0.041325948            5 
  739000   0.95963281   -5.5920458    358.08601  0.040379568  0.041297841            6 
  740000   0.96250364   -5.6328093    357.12981  0.040217321  0.041269555            4 
  741000   0.97669153   -5.6670733    357.05446  0.040154572   0.04124115            6 
  742000   0.96823271    -5.602787    358.88025  0.040305508  0.041212741            3 
  743000   0.94058924   -5.6444525    357.74012  0.040123387  0.041184103            4 
  744000   0.94026827    -5.611066    357.03884  0.039990909   0.04115518            6 
  745000    0.9627131   -5.6176281    358.62986  0.040115196  0.041126264           12 
  746000   0.96145696   -5.5924239    359.26959  0.040132886  0.041097128            4 
  747000   0.97461537   -5.5954139    358.68344   0.04001377  0.041068573            5 
  748000   0.94045056   -5.6359787    356.62953  0.039731454  0.041039212           11 
  749000   0.94430722   -5.6333148    357.10243  0.039731022  0.041009618            5 
  750000    0.9279308   -5.6250879    358.77777  0.039864196  0.040980323            4 
  751000   0.95969729   -5.6121153    359.40435  0.039880643  0.040950762            3 
  752000    0.9504763   -5.6111282     360.6868  0.039969725  0.040921593            4 
  753000   0.95625817   -5.6260133    361.49836  0.040006459  0.040892471            4 
  754000   0.92815941   -5.6051566    362.25513  0.040037039  0.040863902            4 
  755000   0.96245194   -5.6476951    360.04209  0.039739745  0.040835251            7 
  756000   0.95410474   -5.6172745    359.85213   0.03966624  0.040806139            6 
  757000   0.94589709    -5.655769      359.552  0.039580802  0.040777246            5 
  758000    0.9427478   -5.6267731    361.56603  0.039750003  0.040748484            3 
  759000   0.96293773   -5.6107895    361.88098  0.039732211   0.04071983            7 
  760000   0.91982196   -5.6434843    362.13513  0.039707799  0.040691544            4 
  761000   0.93590299   -5.6355118    362.90394  0.039739809  0.040663289            8 
  762000   0.98063513   -5.6368934    363.13135  0.039712528  0.040635286            3 
  763000   0.94762314   -5.6103586     363.5088  0.039701704  0.040606867            3 
  764000   0.93058759    -5.652148    362.62217  0.039553029  0.040578458            5 
  765000   0.94293036    -5.626918    362.53002  0.039491287  0.040550195            5 
  766000   0.95292243   -5.6327474    363.90319   0.03958912  0.040522056            9 
  767000   0.93925076   -5.6358384    363.60813  0.039505446  0.040493791            3 
  768000   0.95997337   -5.6368578    364.06908  0.039504024  0.040465343            4 
  769000   0.95480738   -5.6266076    365.01493  0.039555151  0.040436983            3 
  770000     0.927746   -5.6279269    364.45112  0.039442762  0.040408874            9 
  771000   0.96812253   -5.6390094    364.06505  0.039349875  0.040380346            4 
  772000   0.96877965   -5.6563993    364.23147  0.039316868  0.040351777            3 
  773000   0.95871748    -5.643533    365.63837  0.039417676  0.040323441            8 
  774000   0.94112774   -5.6595641    364.96615  0.039294375  0.040295154            3 
  775000    0.9429332   -5.6706826    365.06733  0.039254551  0.040266263            5 
  776000   0.94702354   -5.6590776    366.13833  0.039318979  0.040237664            3 
  777000   0.94086424   -5.6648143    366.05715  0.039259669  0.040209217            6 
  778000   0.94863017   -5.6624436    365.83362  0.039185263  0.040180761            4 
  779000   0.94778091   -5.6406394    368.42899  0.039412601  0.040152967            4 
  780000   0.95495104   -5.6725556    367.59634  0.039273113  0.040124773            6 
  781000   0.95631597   -5.6824364    366.99841  0.039159028  0.040097076            7 
  782000   0.91602171   -5.6677229    368.01834  0.039217641  0.040069413           14 
  783000   0.94750683   -5.6773514     366.9185  0.039050501  0.040041886            2 
  784000   0.94292688   -5.6620479    368.65165  0.039184911  0.040014118            7 
  785000   0.94566602   -5.6303826    370.12211  0.039291094  0.039986243            2 
  786000   0.97273807   -5.6394161    369.14999   0.03913804  0.039958692            4 
  787000   0.93326912   -5.6674213    369.59777  0.039135724  0.039931055            5 
  788000   0.96221304   -5.6347479    370.28453  0.039158685  0.039903798            2 
  789000   0.97109046   -5.6610903     369.6261  0.039039512  0.039876373            4 
  790000   0.92783985   -5.7209614    369.77126  0.039005407  0.039849021            5 
  791000   0.90355524   -5.6853352    369.54639  0.038932405  0.039821224            4 
  792000   0.93711367   -5.6517301    370.10387  0.038941906  0.039793557            6 
  793000   0.91515216   -5.6884707    370.04102  0.038886194  0.039765749            3 
  794000   0.94910177   -5.6211876    371.43389  0.038983406  0.039737769           10 
  795000   0.92716934   -5.6552454    372.48267  0.039044305  0.039710355            9 
  796000   0.94386808   -5.6589064    372.11774  0.038957049  0.039683255            3 
  797000   0.93436429    -5.628069    371.31793  0.038824543  0.039655968            3 
  798000   0.90877936   -5.6851503    371.66885  0.038812537  0.039628579            8 
  799000   0.93083709   -5.6745637     372.0445   0.03880314  0.039601066            6 
  800000   0.92787063   -5.6560679    372.06064  0.038756317  0.039573591            4 
  801000    0.9319919   -5.6654927    372.33876  0.038736867  0.039545952            4 
  802000   0.95438604   -5.6480174    374.18907  0.038880826  0.039518461            7 
  803000   0.92639888   -5.7034244    371.97304  0.038602432  0.039490978            4 
  804000   0.93483042   -5.6568419    372.91726  0.038652287  0.039463304            2 
  805000   0.94407889   -5.6592519    373.43463   0.03865783  0.039436084            5 
  806000   0.92573994   -5.6761675      374.186  0.038687551  0.039408511            7 
  807000   0.93631674   -5.6624142    374.25872  0.038647121  0.039381053            2 
  808000   0.91487266   -5.6959989     374.2313  0.038596463  0.039353635            2 
  809000   0.92462324   -5.6768055    375.09789  0.038638019  0.039326731            6 
  810000   0.93734913   -5.6670407    374.28508  0.038506696  0.039299427            3 
  811000   0.92382992   -5.7009327    374.79425  0.038511534   0.03927232            3 
  812000   0.91906006   -5.6932527    375.49716  0.038536244  0.039245237            3 
  813000   0.90948414   -5.6752547    375.95178  0.038535443  0.039218336            7 
  814000   0.91731403   -5.7169354    374.60303  0.038350023  0.039190748            2 
  815000   0.93645327   -5.6749585    375.52525  0.038397265   0.03916327            4 
  816000   0.94474322   -5.6885242    375.42336  0.038339804  0.039136259            4 
  817000   0.92550191   -5.6583435    376.99195  0.038452871  0.039108988            5 
  818000   0.94864182   -5.6854842    376.73352  0.038379536   0.03908179            5 
  819000   0.91279822   -5.6834643    376.58077  0.038317131  0.039054549            7 
  820000   0.92623493   -5.6827805    376.36695  0.038248674  0.039027759            6 
  821000   0.92167345    -5.680756     378.0915  0.038377132  0.039000751            6 
  822000   0.90271239   -5.7000288    378.00467  0.038321642  0.038974096            2 
  823000    0.9316585   -5.6626943    378.40333  0.038315445  0.038947229            4 
  824000   0.93268603   -5.6890618    379.14382  0.038343833  0.038920468            3 
  825000   0.89228214   -5.7062392    377.92925  0.038174671  0.038893923            7 
  826000   0.91972898   -5.7194767     379.1023  0.038246802  0.038867657            4 
  827000   0.92712491   -5.7103096    378.87732  0.038177884  0.038840965            7 
  828000   0.92173723   -5.6862788    380.25621  0.038270553  0.038814229           14 
  829000   0.90265277   -5.7067257    378.78961  0.038076961  0.038788275           10 
  830000   0.94752574   -5.7195777    378.58821  0.038010865  0.038761642            3 
  831000   0.90336245   -5.7378946    378.79211   0.03798557  0.038735215            5 
  832000    0.8972279   -5.7124907    381.85046   0.03824624  0.038708875            5 
  833000   0.94211223   -5.6791081    381.34431   0.03814969  0.038683133            4 
  834000   0.92528033   -5.6963334    381.05067  0.038074607  0.038657368            4 
  835000   0.93777945   -5.7318722    379.92901  0.037917067   0.03863096            3 
  836000    0.9273292    -5.702021    382.03424  0.038081563  0.038604611            3 
  837000   0.91450186   -5.7049058    380.82775  0.037915945  0.038578044            6 
  838000   0.90025401   -5.7202477    381.23708  0.037911404  0.038551447            2 
  839000   0.90648327   -5.7065387    381.47431  0.037889781  0.038525087            3 
  840000    0.8898421   -5.7043614    382.54822  0.037951212  0.038498898            6 
  841000   0.93829717    -5.664427    383.09669  0.037960433  0.038472853            2 
  842000    0.9217162   -5.6815258    382.95042  0.037900872   0.03844703           10 
  843000   0.90899925    -5.705756    382.57718  0.037819018  0.038421056            7 
  844000   0.92435194   -5.7408503    383.04185  0.037820088   0.03839481            2 
  845000   0.92884946   -5.7243119    383.62542  0.037832882  0.038368781            3 
  846000   0.91327534   -5.6926898    384.23642  0.037848347  0.038343143            2 
  847000    0.9250093   -5.7173667    384.67767  0.037847075  0.038317379            6 
  848000    0.9021111   -5.6947953    385.45142  0.037878481    0.0382915            5 
  849000    0.9262729   -5.7091537     384.3835  0.037729044  0.038265612            7 
  850000   0.91480317   -5.7113693    385.05284  0.037750279  0.038239809            4 
  851000   0.92445242   -5.6785661    386.16792  0.037815112  0.038213943           11 
  852000   0.91387572   -5.7114226    384.91474  0.037648155  0.038188076            7 
  853000   0.91298141   -5.6726257    385.23545   0.03763535  0.038162055            2 
  854000   0.91592093   -5.7097552    385.47307  0.037614468  0.038136143            2 
  855000   0.91829288   -5.7229472     384.9859  0.037522992  0.038110259            9 
  856000   0.91615345   -5.7229958    384.46612  0.037428555  0.038084048            3 
  857000   0.92556329   -5.6924994    387.02712  0.037633909  0.038058039            8 
  858000   0.93159149   -5.7234185    385.34801  0.037426963  0.038032288            4 
  859000   0.90786576   -5.7002152     387.6148  0.037603298  0.038006438            4 
  860000   0.90527319   -5.7029676    386.53924  0.037455353  0.037980741            4 
  861000   0.90712006   -5.7103355    387.85197  0.037538905  0.037955016            5 
  862000   0.90349444   -5.7250382    387.02291  0.037415208  0.037929422            5 
  863000   0.92061626   -5.7329189     387.8337  0.037450145  0.037903652            5 
  864000   0.89254096   -5.7280432    388.92683  0.037512233  0.037878092            6 
  865000    0.9190575   -5.7098911    389.25785  0.037500756  0.037853015            5 
  866000   0.91109351    -5.730046    389.34184  0.037465535  0.037827723            2 
  867000   0.90226072   -5.7325528    389.13432  0.037402376  0.037802501            4 
  868000   0.90743226    -5.707398    390.21605  0.037463139  0.037777469            7 
  869000   0.90738822   -5.7130285    389.89504  0.037389244  0.037752093            5 
  870000   0.91755204   -5.7176007    390.67248  0.037420735  0.037726731            8 
  871000   0.90159931   -5.6818956    390.48959  0.037360275  0.037701838            3 
  872000   0.90177658   -5.7615396    389.94136  0.037265038  0.037676547            5 
  873000   0.89317887    -5.730167    390.66521  0.037291448  0.037651383            3 
  874000   0.91312947   -5.7795381    390.23194  0.037207469  0.037625984            6 
  875000   0.90287699   -5.7654428    390.99749  0.037237856  0.037601114            4 
  876000   0.89463915   -5.7469131    391.64397  0.037256846  0.037575922            4 
  877000   0.90949085   -5.6984937    392.23765  0.037270776  0.037551402            3 
  878000   0.89526012   -5.7678275    391.30479  0.037139786  0.037526557            8 
  879000    0.9108138   -5.7473917     392.0072  0.037164125  0.037501718            3 
  880000   0.90422341   -5.7093056    393.20661  0.037235474  0.037477005            5 
  881000   0.89112059   -5.7498468    392.10158  0.037088685  0.037451968            3 
  882000   0.89779744   -5.7440447    393.07699  0.037138793  0.037427011            3 
  883000   0.90235336   -5.7530399    392.72144  0.037063178  0.037402578            7 
  884000   0.90771663    -5.729296    393.58988  0.037103118  0.037377804            4 
  885000   0.91078375   -5.7746944    392.71113  0.036978449  0.037353474            4 
  886000   0.88928794   -5.7696143    393.83892  0.037042787  0.037329124            3 
  887000   0.90449699   -5.7812566    394.72772  0.037084528  0.037304896            6 
  888000   0.88039497   -5.7435579    394.63565  0.037034126  0.037280955            8 
  889000    0.8967372    -5.730407     396.6051  0.037177081  0.037257352            2 
  890000   0.91676635   -5.7660541    395.08745  0.036993207  0.037233768            5 
  891000   0.87905622   -5.7530226    395.86465  0.037024378  0.037210099            4 
  892000   0.89958752   -5.7684316    394.98804  0.036900975  0.037186158            4 
  893000   0.89373262   -5.7153168    397.32738  0.037077957  0.037162358            4 
  894000   0.89457289   -5.7802671     395.3938  0.036856245  0.037138777            4 
  895000   0.89861606   -5.7448265    397.47799  0.037009124  0.037115129            6 
  896000   0.87919634   -5.7203213    398.43779  0.037057086  0.037091557           10 
  897000   0.89297199   -5.7415487    397.17705  0.036898648  0.037068212            4 
  898000   0.87955784   -5.7539513     397.6687  0.036903183  0.037044261            5 
  899000   0.90048144   -5.7796442    397.50597  0.036847049  0.037020738            3 
  900000   0.90442086   -5.7869205    397.24405  0.036781856  0.036997137            6 
  901000   0.88706528   -5.7605804     398.6692  0.036872845  0.036973656            5 
  902000   0.89074363   -5.7295766    398.31781  0.036799502  0.036950236            4 
  903000   0.88707658   -5.7313735    397.87803  0.036718164  0.036926681            6 
  904000   0.89175466   -5.7548546    398.56831  0.036741179  0.036902944            4 
  905000   0.88571226   -5.7337763     398.7133  0.036713932  0.036879335            5 
  906000    0.9161337   -5.7818914    398.52632   0.03665621  0.036855414            5 
  907000   0.89647371   -5.7342491    399.25092  0.036682371  0.036831392            3 
  908000   0.87913834   -5.7626243    398.78292   0.03659902  0.036807317            8 
  909000   0.89388664   -5.7523053    398.75035  0.036555771  0.036783178            5 
  910000    0.8885822   -5.7932297    398.35953   0.03647981  0.036759384            5 
  911000   0.87491704   -5.7838128    399.90558  0.036581191   0.03673529            9 
  912000   0.88774952   -5.8165376    398.43504   0.03640671  0.036711158            6 
  913000   0.87540204   -5.7635182    399.81187  0.036492504  0.036686844            6 
  914000    0.8739809   -5.7585554    400.33756  0.036500507  0.036662706            7 
  915000   0.91231334   -5.7774083    399.34064  0.036369821  0.036638482            4 
  916000   0.88627615   -5.7609422    400.60326  0.036444984  0.036614382            6 
  917000   0.88307733    -5.763191    401.37753  0.036475603  0.036590116            3 
  918000   0.90875401   -5.7797572    400.20148   0.03632911  0.036565824            5 
  919000   0.90194681    -5.736288    401.65745  0.036421604  0.036541537            4 
  920000   0.88743606   -5.8020987     400.4571  0.036273288  0.036517368            6 
  921000    0.8941529   -5.7692627    401.29808  0.036309996  0.036493123            4 
  922000   0.89614717   -5.7743052     401.0015  0.036243808  0.036468943            6 
  923000   0.88663438   -5.7448456     402.7589  0.036363208  0.036444809            6 
  924000   0.88220862   -5.7611899    401.67685  0.036226268  0.036421098            4 
  925000   0.89739694   -5.7899103    402.16068  0.036230692  0.036397038            5 
  926000   0.91250534   -5.7964651    402.53205  0.036224987    0.0363727            5 
  927000   0.87980093   -5.8048447    402.14128  0.036150781   0.03634868            8 
  928000   0.89225132   -5.8036321    402.09665  0.036107817  0.036324484            8 
  929000   0.88778947   -5.7814564    401.88481  0.036049947  0.036300558           10 
  930000   0.85800594   -5.7883105    402.38641   0.03605613  0.036276761            6 
  931000   0.89289574   -5.7930947    402.46846  0.036024746  0.036252838            4 
  932000   0.91235316   -5.7898232    404.11699  0.036133493  0.036229251            6 
  933000   0.87566958   -5.7999238    403.18549  0.036011565  0.036205339            4 
  934000   0.89217376   -5.7893619    403.57276  0.036007563  0.036181425            3 
  935000   0.89273659   -5.7836712     404.1742  0.036022656  0.036157714            3 
  936000   0.86657319   -5.8002418    404.45667  0.036009319  0.036133941            7 
  937000   0.87161998   -5.8076019    403.88199  0.035919778   0.03611025            2 
  938000   0.88485337   -5.8093024    404.49054  0.035935549  0.036086377            4 
  939000   0.86936049   -5.7763939    406.17718  0.036046963  0.036062792            6 
  940000   0.86885887   -5.8034506    404.81319  0.035887694  0.036039193            9 
  941000   0.88034188    -5.780183    405.46312  0.035907113  0.036015594            9 
  942000   0.88849622   -5.8029145    404.99926   0.03582796  0.035991894            3 
  943000    0.8864495   -5.7841192    406.24018  0.035899627  0.035968241            5 
  944000   0.88126088    -5.811288    406.39491  0.035875257  0.035944765            5 
  945000   0.88775889   -5.7682411    406.15953  0.035816537  0.035921362            6 
  946000   0.88364301    -5.765998    406.76674  0.035832165  0.035898009            3 
  947000   0.87065948   -5.7976057    406.83773  0.035800575  0.035874934            8 
  948000   0.88557511   -5.7655951    407.57069  0.035827241  0.035851681            5 
  949000   0.88004681   -5.7738479     408.1864  0.035843555  0.035828466            5 
  950000   0.86908765   -5.8043317    406.24332  0.035635379  0.035805057            3 
  951000   0.88137205    -5.831328    406.64785  0.035633355  0.035781716           13 
  952000   0.85909715   -5.8200695    406.71387  0.035601704  0.035758175            2 
  953000   0.86537628   -5.8018361    406.43749  0.035540179  0.035734393            6 
  954000   0.88533044   -5.7851281    408.17525  0.035654721  0.035710514            3 
  955000   0.86175481    -5.813164    407.02959  0.035517416  0.035686795            3 
  956000   0.86818644   -5.8104556    407.69215  0.035538019  0.035663123            3 
  957000   0.88524657   -5.7881917    408.60249  0.035580154  0.035639456            9 
  958000   0.88162705   -5.8354307    407.66016  0.035461044  0.035615621            3 
  959000   0.86754152   -5.8153076    408.80963  0.035523951  0.035591812            5 
  960000   0.86466376   -5.8353765    407.87268  0.035405614  0.035568091            4 
  961000   0.87192314   -5.8090277    408.65831  0.035436898  0.035544167            5 
  962000   0.86047698   -5.8032678    408.20885  0.035361127   0.03552051           11 
  963000   0.84295745   -5.7933982    410.30226  0.035505561  0.035496964            4 
  964000   0.86193499   -5.8445406    409.34247  0.035385759  0.035473582            9 
  965000   0.88644968   -5.8068055    410.00281  0.035406115  0.035449838           20 
  966000   0.88138323   -5.8174915    407.89856  0.035187936  0.035426066            7 
  967000   0.88325779   -5.8451362    408.50574  0.035203872  0.035402209           12 
  968000   0.85695227   -5.8041833    409.43221  0.035247263  0.035378314            2 
  969000   0.85837952   -5.8344962     410.2912  0.035284761  0.035354483            3 
  970000   0.84917536   -5.8007408    409.55051  0.035184752   0.03533041            6 
  971000   0.87011209   -5.8141268    410.74972  0.035251435  0.035306425            9 
  972000   0.85278306   -5.7840119    410.89868  0.035227939  0.035282433            4 
  973000   0.87130761   -5.8314518    410.05544  0.035119514   0.03525859            6 
  974000   0.86945915   -5.7701268    410.15161  0.035091685  0.035234697            4 
  975000   0.87194086   -5.8254168    409.79396  0.035025125  0.035210547            5 
  976000   0.87205837   -5.8429841    408.76441  0.034901333  0.035186113            3 
  977000   0.86638352   -5.8671281    408.80425  0.034869008  0.035161681           12 
  978000   0.86095195   -5.8100991    410.97093  0.035017973  0.035137472            8 
  979000   0.86420113   -5.7996107    409.55894  0.034862014  0.035113288           11 
  980000   0.84278551   -5.8071051    410.18984  0.034880089  0.035089122            3 
  981000   0.89042956   -5.8325251    410.02194   0.03483027  0.035064978            7 
  982000   0.84562417   -5.8258141    409.49031  0.034749687  0.035040549           10 
  983000   0.85699035   -5.8034975    409.53898  0.034718462  0.035015987            8 
  984000   0.88485079   -5.8640165    409.96684  0.034719414  0.034991212            4 
  985000   0.87076848   -5.8436453    409.63169  0.034655812  0.034966422            5 
  986000   0.85057891   -5.8277255    410.83769  0.034722591  0.034942318            5 
  987000   0.84413569   -5.8501206      411.549  0.034747467  0.034918094            6 
  988000   0.84499807   -5.8290294    408.95146  0.034493207  0.034893353           10 
  989000   0.85684951   -5.8295645    410.63383  0.034600087  0.034868756            5 
  990000    0.8615897   -5.8635997    412.16866  0.034694331  0.034844323            2 
  991000   0.86516725   -5.8264458    412.46534   0.03468427  0.034819892            4 
  992000   0.87225103   -5.7927188    412.31981  0.034637081   0.03479561            7 
  993000   0.85947446   -5.8334294     411.4898  0.034532544  0.034771312            7 
  994000   0.85785783   -5.8370659    412.00886   0.03454132  0.034746948            5 
  995000   0.85827405   -5.8594566    411.49913  0.034463914  0.034722252            5 
  996000   0.86090409   -5.8468445    412.35683  0.034501073  0.034697794            5 
  997000   0.86721544    -5.859387    411.91822  0.034429808  0.034673171            3 
  998000   0.85823393   -5.8458457     412.5569  0.034448639  0.034648433            6 
  999000   0.85891548   -5.8536786    411.40886   0.03431839  0.034623959           12 
 1000000   0.87006176   -5.8719915    412.62576   0.03438548  0.034599453            5 
 1001000   0.85790856   -5.8372899    413.28875  0.034406323  0.034575058            8 
 1002000   0.86567334    -5.841845    412.10251  0.034273329  0.034550704            7 
 1003000   0.86504166   -5.8904295    411.90096  0.034222412  0.034526006           10 
 1004000   0.86361107    -5.865749    411.77655     0.034178  0.034501492            5 
 1005000   0.85340741   -5.8057693    413.16131  0.034258815  0.034476952           10 
 1006000   0.82892229   -5.8523042    413.69952  0.034269344  0.034452566           10 
 1007000   0.84623563   -5.8503095    413.97684  0.034258262  0.034428327            8 
 1008000   0.85308471   -5.8724879    413.53472  0.034187725  0.034404205            6 
 1009000   0.86523078   -5.8639204      414.825  0.034260406  0.034380003            6 
 1010000   0.84841589   -5.8524557     414.5063   0.03420019  0.034355643            8 
 1011000   0.85148948   -5.8766653    414.25013  0.034145246  0.034331458           10 
 1012000   0.84629919   -5.8493709    414.31345   0.03411672  0.034307332           10 
 1013000   0.84271344    -5.852863    415.15753  0.034152479  0.034283189            5 
 1014000    0.8415559   -5.8661539    415.07401  0.034111934  0.034258946            5 
 1015000   0.84255463    -5.844859    415.08212  0.034078992  0.034234743            7 
 1016000   0.84357571   -5.8859673    415.01413  0.034039873  0.034210619            6 
 1017000   0.86560225   -5.8674639     415.3944  0.034037561  0.034186297            7 
 1018000   0.83292401   -5.8778147    414.87472  0.033961585  0.034161664            8 
 1019000   0.83498711    -5.888392    415.18171  0.033953362  0.034137197            6 
 1020000   0.82959004   -5.9025925    414.61772  0.033873997  0.034112833           11 
 1021000    0.8516857   -5.8754349    414.50731  0.033831808  0.034088478            8 
 1022000   0.87107729   -5.8524671    416.34173  0.033948282  0.034063995            5 
 1023000   0.84890984    -5.871842    414.70248  0.033781564  0.034039451            4 
 1024000   0.82462982   -5.8798057    415.59455  0.033821171  0.034015096            7 
 1025000   0.86418797    -5.885102    416.09724  0.033829044  0.033990829           21 
 1026000   0.84817752   -5.8695832    415.50796   0.03374821  0.033966484            4 
 1027000   0.83747239   -5.9191304    414.28291  0.033615945  0.033941835            5 
 1028000   0.84794438   -5.8688738    415.88284  0.033712941  0.033917195            4 
 1029000   0.84347517   -5.8950255    415.06594  0.033614022  0.033892796            9 
 1030000   0.85791193    -5.903351    415.27775  0.033598523  0.033868227            5 
 1031000   0.83799894    -5.874162    415.72672  0.033602224  0.033843808            3 
 1032000   0.85326256   -5.8671476    416.89437  0.033663951  0.033819347            6 
 1033000   0.84949366   -5.8909964    417.08319  0.033646595  0.033795155            4 
 1034000   0.82033387   -5.8948243     416.1045  0.033535179  0.033770804            6 
 1035000   0.84655603    -5.873288    416.97308  0.033572712  0.033746472            9 
 1036000   0.84129413   -5.8615327    416.86078  0.033531272   0.03372234            8 
 1037000    0.8281162   -5.8956057    416.96063  0.033506961  0.033698177            5 
 1038000   0.85197253   -5.8689391    418.18666   0.03357311  0.033673996            4 
 1039000   0.81758546   -5.8803432    418.57377  0.033571846  0.033649845            6 
 1040000   0.85054587   -5.8926731    418.45248  0.033529846  0.033625677           13 
 1041000   0.83312689   -5.9102383    417.21604  0.033398658  0.033601529           12 
 1042000   0.81873686   -5.9029439    418.11334  0.033438367  0.033577443            8 
 1043000   0.83946504   -5.8799322    418.33199  0.033423777  0.033553428            4 
 1044000   0.81580462   -5.9004666    418.17009  0.033378839  0.033529562            4 
 1045000   0.85014348    -5.908177    418.47399  0.033371132  0.033505447            4 
 1046000   0.83573816   -5.8620966    418.91948   0.03337472  0.033481688            5 
 1047000   0.81134605   -5.8706736    419.67378   0.03340288  0.033457851            7 
 1048000   0.84321817   -5.9058564    418.39874   0.03326962  0.033433965            8 
 1049000   0.82721912   -5.8870654     418.7128  0.033262853   0.03341006            6 
 1050000   0.83875291   -5.9010047    419.06866  0.033259417  0.033386068            5 
 1051000   0.83628944   -5.8884825    418.34578  0.033170455  0.033361957            5 
 1052000   0.84558471   -5.9082342     417.7274   0.03308994  0.033337758            7 
 1053000   0.84864393   -5.9039625    419.72566  0.033216655  0.033313648            6 
 1054000   0.85574992   -5.9168561    418.85272  0.033116123  0.033289386            4 
 1055000   0.82888162   -5.9266706    416.87212  0.032928287  0.033265233            5 
 1056000   0.82992724   -5.9212949    419.73541   0.03312306  0.033241146            5 
 1057000   0.83558959   -5.8833261    419.17296  0.033047379  0.033217009            6 
 1058000   0.83403361   -5.9193999    420.61769  0.033129938  0.033193011            3 
 1059000   0.85452806   -5.9032737    420.55452  0.033093682  0.033169159            5 
 1060000   0.84343391   -5.8861137    421.93854  0.033171269  0.033145527            4 
 1061000   0.82076187   -5.9191017    420.70394  0.033043036  0.033122016            8 
 1062000   0.83798375   -5.9156286    421.21662  0.033052152  0.033098303            3 
 1063000    0.8169385   -5.9269862    420.95151  0.033000275  0.033074797           10 
 1064000    0.8149466   -5.9226432    421.43046  0.033006771  0.033051287            9 
 1065000   0.83387197    -5.915435    421.65466  0.032993322  0.033027865            7 
 1066000   0.82117972   -5.9074705    422.08941  0.032996358  0.033004403            3 
 1067000   0.82319005    -5.899702    422.34911  0.032985716  0.032981158            4 
 1068000   0.82051911   -5.9028775    423.40946  0.033037567  0.032957888           10 
 1069000   0.85015709   -5.9293092    421.85445  0.032885442  0.032934742            7 
 1070000     0.834865   -5.9209376    423.53839  0.032985856  0.032911517            4 
 1071000   0.84568061   -5.9179463    424.06693  0.032996182  0.032888309            5 
 1072000   0.80834726   -5.8963026    424.28929  0.032982687  0.032865287            5 
 1073000   0.83031744   -5.9318097    422.95817  0.032848569  0.032841919           13 
 1074000   0.81985436   -5.9395492    423.41753  0.032853626  0.032818556           22 
 1075000    0.8343421   -5.9289774    422.61979  0.032761224  0.032795394            4 
 1076000   0.83873273   -5.8955425    423.67337  0.032812373  0.032772232           18 
 1077000   0.82199299    -5.922855    423.08616  0.032736471  0.032749276            6 
 1078000   0.83842044   -5.9288499    424.27223  0.032797792   0.03272627           11 
 1079000   0.84540131   -5.9317212    422.83015   0.03265602  0.032703232            4 
 1080000   0.83025605   -5.8927955    424.46074    0.0327516  0.032680256            6 
 1081000   0.82331131   -5.9164463    424.94867  0.032758917   0.03265732            3 
 1082000   0.82617575   -5.9145082    425.49463  0.032770689  0.032634348            7 
 1083000   0.81969662   -5.9405414    423.77402  0.032608034  0.032611517           18 
 1084000   0.81830827   -5.9225509    425.55841   0.03271513  0.032588702            8 
 1085000   0.80779355   -5.9617786     422.9667  0.032485922  0.032565796            7 
 1086000   0.81042187   -5.9365669    425.45441  0.032646901   0.03254281           15 
 1087000   0.80745268   -5.9367843    425.58175  0.032626629  0.032519853           12 
 1088000   0.82856288   -5.9240108    424.92721  0.032546508  0.032496909            7 
 1089000   0.80353269   -5.9366468    424.68881  0.032498378  0.032474128            8 
 1090000   0.84229456   -5.9295205    425.44565  0.032526426  0.032451345            4 
 1091000   0.80739868   -5.8955155    425.80731  0.032524237  0.032428694            7 
 1092000   0.83225671   -5.9636693    425.73756   0.03248913  0.032405889            5 
 1093000   0.79016523   -5.9544199     424.3507  0.032353667  0.032383067            8 
 1094000   0.80190382   -5.9706791    425.70989  0.032427627   0.03236013            3 
 1095000    0.8047061   -5.9538716    423.99182  0.032267262  0.032337075            5 
 1096000   0.82064605   -5.9378306    425.74817  0.032371363  0.032313965           15 
 1097000   0.82972755   -5.9417943    424.97905  0.032283428  0.032290955            7 
 1098000   0.79810864   -5.9404869    426.46304  0.032366654  0.032268078           13 
 1099000   0.80416515   -5.9527995    426.84772  0.032366373  0.032245401           10 
 1100000   0.82596311    -5.957764    427.73246  0.032403974  0.032222942            4 
 1101000   0.80743459   -5.9416502    427.05023  0.032322906  0.032200297            9 
 1102000   0.81194064   -5.9970708     426.6141  0.032260594  0.032177688            7 
 1103000   0.82311429   -5.9371459    427.56225  0.032302981  0.032155072            9 
 1104000   0.82612812   -5.9567268    426.95729  0.032228056  0.032132515            8 
 1105000   0.81375596   -5.9291282    429.11507  0.032361619  0.032110013            9 
 1106000   0.82121295   -5.9421909    428.43085  0.032280805  0.032087846           24 
 1107000   0.79597072   -5.9378019    429.24713  0.032313093  0.032065585            5 
 1108000   0.82528498   -5.9466054     429.8964  0.032332762  0.032043704            7 
 1109000   0.80785111   -5.9544431    429.77523  0.032294502   0.03202187            4 
 1110000   0.81401646   -5.9533752    429.49796  0.032244591  0.031999703           10 
 1111000   0.79702032   -5.9416637    428.46735  0.032138265  0.031977655            5 
 1112000   0.81268778   -5.9256516    430.15546  0.032235871  0.031955839            7 
 1113000   0.81165366   -5.9654261    429.57798  0.032163671  0.031933974            7 
 1114000   0.83423533   -5.9572746    430.10114  0.032173933   0.03191207           10 
 1115000   0.81516282   -5.9751193    430.16351  0.032149739  0.031890198           10 
 1116000   0.82483522   -5.9524915    430.51725  0.032147345   0.03186835            5 
 1117000   0.84506938   -5.9499634    430.64532   0.03212812  0.031846542            6 
 1118000   0.82039348   -5.9349951    431.14891  0.032136919  0.031824761            5 
 1119000   0.81691403   -5.9331611    429.68007  0.031998814  0.031802964           12 
 1120000   0.81443025   -5.9724815    430.52167  0.032032862  0.031781203            7 
 1121000   0.80209585   -5.9621872    430.47012  0.032000455  0.031759277            5 
 1122000    0.8207143    -5.979252    430.27923  0.031957757  0.031737441            5 
 1123000   0.81327483   -5.9727669    430.26958  0.031928583  0.031715624            5 
 1124000   0.80775607   -5.9616475    431.53378  0.031993904  0.031693746            3 
 1125000   0.81185055    -6.006445    431.08099  0.031931925  0.031671733            7 
 1126000   0.81410972   -5.9967334    429.62137  0.031795542  0.031649767           17 
 1127000   0.80041467   -5.9915723     431.8232  0.031930139  0.031627897            7 
 1128000   0.79512365   -6.0048125    431.18091  0.031854382  0.031605888            8 
 1129000   0.80426442   -6.0023615    430.81535  0.031799184  0.031584178           20 
 1130000   0.80087674   -5.9668066    431.70886  0.031836937  0.031562506           19 
 1131000    0.8043525   -5.9581635    431.92843  0.031824965  0.031540881           10 
 1132000   0.78935232   -5.9639082    431.45779  0.031762205  0.031519057            8 
 1133000   0.80689024   -5.9814772    430.94546  0.031696489  0.031497269            9 
 1134000   0.80134534   -5.9670126    433.33361  0.031844034  0.031475579            5 
 1135000   0.79080406   -5.9864154    432.51051  0.031755544  0.031453845            5 
 1136000   0.80395405   -5.9806744    432.75744  0.031745704   0.03143227            5 
 1137000   0.81279006   -5.9744714    433.43402  0.031767371  0.031410663            6 
 1138000   0.79328008   -6.0040026    431.74701  0.031615921  0.031389042            3 
 1139000   0.80893734   -5.9673024    432.96386  0.031677192  0.031367323            3 
 1140000   0.80033141   -5.9600494     432.4689  0.031613224  0.031345964            6 
 1141000   0.79059801   -5.9713343    432.09333  0.031558087   0.03132454            4 
 1142000   0.78180288    -6.004508     432.4787  0.031558574   0.03130293            8 
 1143000   0.79031015    -5.974271    433.48139  0.031604067  0.031281222           23 
 1144000    0.8065075   -5.9751909    432.78923  0.031526022  0.031259554            4 
 1145000   0.78357678   -5.9836076    432.93708  0.031509249  0.031237743            8 
 1146000   0.80839685   -6.0043767    433.38329  0.031514201  0.031215928            7 
 1147000   0.78961232   -5.9827646    433.65019  0.031506117  0.031194143           10 
 1148000    0.7927519   -5.9836403    433.46836  0.031465473  0.031172587            6 
 1149000   0.79660588    -5.979176    434.47508  0.031511102  0.031150909            7 
 1150000    0.7872811   -5.9929166    435.09374  0.031528532  0.031129356            7 
 1151000   0.78849814   -6.0220744    434.00703  0.031422461  0.031107964            7 
 1152000   0.78257541   -5.9967918    433.72773  0.031374981  0.031086519            6 
 1153000   0.78709814   -5.9983372    433.36883  0.031321829  0.031064923            4 
 1154000   0.79935037   -5.9925894    434.22546  0.031356547  0.031043351            3 
 1155000   0.79830625   -5.9852664    434.99197  0.031384702  0.031021699            6 
 1156000   0.79104674   -5.9945201    435.35435  0.031383676  0.031000209            6 
 1157000   0.80488031   -6.0180981    434.10185  0.031266339  0.030978611            8 
 1158000   0.77652052   -6.0095058    433.10451  0.031167567  0.030957173            9 
 1159000   0.77207784   -6.0204102    434.25142  0.031223139  0.030935548            7 
 1160000   0.80437645   -5.9963997    435.18784  0.031263494  0.030914117            5 
 1161000   0.78690439   -5.9628244    436.59741  0.031337741  0.030892732            9 
 1162000   0.79254111   -5.9832787    436.02264  0.031269553  0.030871422            7 
 1163000   0.78617184   -5.9806274    435.06972  0.031174386  0.030850231            6 
 1164000   0.80400069   -6.0104663     435.5643  0.031183011  0.030828858           13 
 1165000   0.79736124   -6.0109186    434.37023  0.031070832  0.030807271           12 
 1166000   0.76688723   -6.0046741    435.61519  0.031133161  0.030785676            8 
 1167000    0.8066806   -6.0279557    434.78071  0.031046895  0.030763961            6 
 1168000   0.78536532   -6.0176779    434.00343  0.030964857    0.0307423           13 
 1169000    0.7815915   -5.9872843    435.91397  0.031074563  0.030720828            4 
 1170000   0.79162161   -6.0143425    434.78263  0.030967424  0.030699159            8 
 1171000   0.78654848   -6.0304796    434.40549   0.03091414  0.030677474            3 
 1172000   0.79968125   -6.0211078    435.29807  0.030951228  0.030655918            3 
 1173000   0.78096261    -6.003233    436.88395  0.031037507  0.030634293            4 
 1174000   0.80646549   -6.0156122     434.9123  0.030871117  0.030612614            5 
 1175000   0.79514986   -6.0240575     436.4813  0.030956121  0.030590998            8 
 1176000   0.79453735   -6.0112115    436.59853  0.030938105  0.030569614            7 
 1177000   0.77516504   -5.9677392    436.59494  0.030911565  0.030548348            3 
 1178000   0.79082652   -6.0018087    435.37659  0.030799136  0.030527122            9 
 1179000   0.80509793   -6.0324627    435.98433  0.030815969  0.030505712           13 
 1180000   0.77841144   -6.0129227    436.27342   0.03081027  0.030484169           16 
 1181000   0.77763368   -5.9919372    437.98591  0.030905018  0.030462859            7 
 1182000   0.79588228   -6.0371782    435.27613  0.030687826  0.030441671            8 
 1183000   0.76222732   -5.9861356    438.37034  0.030879849  0.030420391            4 
 1184000   0.76805924   -6.0374873    435.78493    0.0306718  0.030399103            7 
 1185000   0.77779638   -6.0554491    436.65065  0.030706797  0.030377647            5 
 1186000   0.79291716   -6.0153293    437.32829  0.030728519  0.030356258            9 
 1187000   0.78251852   -6.0472797    437.40948  0.030708332  0.030335131            9 
 1188000   0.77960859   -5.9980882    437.83979  0.030712667   0.03031398           12 
 1189000   0.77439778   -6.0563105    436.58704  0.030599036  0.030292728           12 
 1190000   0.76887092   -6.0738049    436.72069  0.030582681  0.030271323            7 
 1191000   0.78712857   -6.0038889    438.86681  0.030707166  0.030250144            6 
 1192000   0.77753114    -6.058076    438.41717   0.03064997  0.030228998            7 
 1193000    0.7692639   -6.0438432    437.52328  0.030561839  0.030207788            9 
 1194000   0.78230407   -6.0506892    437.85114  0.030559125  0.030186534           13 
 1195000   0.77322442    -6.055575    437.98467  0.030542864  0.030165513            9 
 1196000   0.78010578   -6.0365198    438.43697  0.030548842  0.030144518            7 
 1197000   0.78055273   -6.0212685    439.83475  0.030620631  0.030123549            5 
 1198000   0.77071861    -6.055482    438.18948  0.030480626  0.030102753           30 
 1199000   0.76122206   -6.0459874     440.2667  0.030599576  0.030081888           15 
 1200000   0.77120176   -6.0512624    439.21548  0.030501075  0.030061047            9 
 1201000   0.76767555   -5.9938517    440.87852  0.030591071  0.030040313            7 
 1202000   0.78070236   -6.0052054    440.65813  0.030550342  0.030019702           18 
 1203000   0.77655256   -6.0350361    439.83299  0.030467788  0.029999047            8 
 1204000   0.77591125    -6.081375    438.73101  0.030366211  0.029978434           10 
 1205000   0.76894922   -6.0621632    440.34716  0.030452777  0.029957654            7 
 1206000   0.78203046   -6.0228961     440.1306  0.030412562  0.029936893           17 
 1207000   0.77183899   -6.0654499    441.02547  0.030449149  0.029916342            7 
 1208000   0.77101896   -6.0629774    440.46821    0.0303855  0.029895674            5 
 1209000    0.7745427   -6.0267201    440.37975   0.03035427  0.029875085           10 
 1210000     0.767714   -6.0084212    440.33808  0.030326314  0.029854392            6 
 1211000   0.77775135     -6.05861    439.42993  0.030238779  0.029833731            6 
 1212000   0.77418864   -6.0341383    441.55911  0.030360225  0.029813231            7 
 1213000   0.77204476   -6.0552705    441.26686  0.030315118  0.029792815            8 
 1214000    0.7711638   -6.0457062     441.7703  0.030324705  0.029772398            4 
 1215000   0.78000374   -6.0593262    441.19607  0.030260361  0.029751979            6 
 1216000   0.77640035   -6.0761464    441.01919  0.030223355  0.029731374            7 
 1217000   0.76815321   -6.0653213    440.54866  0.030166301  0.029710928           11 
 1218000   0.76685967   -6.0803285    440.66967  0.030149813   0.02969035            8 
 1219000   0.79170757   -6.0463616    441.70123    0.0301956  0.029670074            7 
 1220000   0.77207674   -6.0929822    441.63632  0.030166415  0.029649877            5 
 1221000   0.76748729   -6.0439447    441.79298  0.030152401  0.029629722            8 
 1222000   0.75108779   -6.0618543    442.77885  0.030194957  0.029609551            8 
 1223000   0.76622056   -6.0766784    442.96692  0.030183083  0.029589295           11 
 1224000   0.74801714    -6.041788    443.49049  0.030194069  0.029569271            5 
 1225000   0.75606655   -6.0522761    442.87787  0.030127746  0.029549262            9 
 1226000   0.76427454   -6.0778675    442.44903  0.030074023   0.02952919            7 
 1227000   0.76519173   -6.0436908    444.00425  0.030155138  0.029509152           10 
 1228000   0.74401312   -6.0727426    443.26875   0.03008067  0.029489059           12 
 1229000   0.78354509    -6.066057     443.1937  0.030051105  0.029468991            5 
 1230000   0.76766998   -6.0667964    442.66503  0.029990855  0.029448927            8 
 1231000   0.77551751   -6.0884863    442.93011  0.029984437  0.029428845            7 
 1232000   0.77067936   -6.0716651     442.8626  0.029955533  0.029408721            6 
 1233000   0.74188066   -6.0680398    443.89081  0.030000731  0.029388537            6 
 1234000   0.77231877   -6.0734028    443.08825  0.029922221  0.029368369            4 
 1235000   0.76334554   -6.0493307    443.10355  0.029899025  0.029348206            5 
 1236000   0.76957477   -6.0949529    442.55911  0.029838128   0.02932817            9 
 1237000   0.75816582   -6.0746456    443.80115  0.029897679  0.029308219           13 
 1238000   0.77530628   -6.0778629    442.89277  0.029812383  0.029288316            6 
 1239000   0.75586908   -6.0930538    442.42635  0.029756951  0.029268264            8 
 1240000   0.73918239   -6.0736013    444.03355  0.029840965  0.029248102           29 
 1241000    0.7723018   -6.0889181    443.83617  0.029803664  0.029227987            5 
 1242000   0.76678207   -6.0835327    444.73154  0.029839743   0.02920787            5 
 1243000   0.76898613   -6.0684978     443.7582  0.029750483   0.02918796            6 
 1244000   0.75083433   -6.0639015     444.8184  0.029797588  0.029168071            9 
 1245000   0.75536944   -6.0986034     443.9648  0.029716519  0.029148049            9 
 1246000   0.75206751   -6.0887402    443.80292  0.029681843  0.029127912            5 
 1247000   0.76886239   -6.0781564    443.85957  0.029661827  0.029107807           25 
 1248000   0.74898844   -6.0982031    443.13287  0.029589535  0.029087509           12 
 1249000   0.74949651   -6.0835094    443.91189   0.02961782  0.029067299            7 
 1250000    0.7412426    -6.112236     444.5793   0.02963862  0.029047089            6 
 1251000   0.75199357   -6.0951738    444.13951  0.029585632  0.029026904           13 
 1252000   0.75367078   -6.1081811    444.25166  0.029569466   0.02900678           13 
 1253000   0.75056173   -6.1221738    444.06863  0.029533694  0.028986633            6 
 1254000    0.7585842   -6.1102534    444.30155  0.029525621  0.028966596            7 
 1255000   0.74946783   -6.1311312    443.66963  0.029460135  0.028946555           22 
 1256000   0.75956081   -6.1069285    444.19058  0.029471243  0.028926496           11 
 1257000   0.73946102    -6.116569    443.92195  0.029429989  0.028906286            8 
 1258000   0.74061196   -6.0801178    444.83514  0.029467086  0.028886325           10 
 1259000   0.75789696   -6.1063337    444.91298  0.029448834  0.028866433           15 
 1260000   0.75525084   -6.1145855    446.02747  0.029499171  0.028846532            6 
 1261000   0.75331617   -6.0737991    445.56951  0.029445514  0.028826659            9 
 1262000   0.77073392   -6.1013201    445.52273  0.029419092  0.028806841            9 
 1263000   0.73939174   -6.1109823    445.36639  0.029385484  0.028787132            4 
 1264000   0.73727209   -6.1307365     446.0509  0.029407364   0.02876745            8 
 1265000   0.73658268   -6.0983725    446.23031  0.029395936  0.028747422           14 
 1266000   0.76225757   -6.0825545    446.58864  0.029396303  0.028727517            7 
 1267000   0.74921336   -6.1413371    445.77667  0.029319697  0.028707714            9 
 1268000   0.75952498   -6.1026964    446.45954  0.029341452  0.028687711           12 
 1269000   0.74920538   -6.1252545    445.40018  0.029248764  0.028667852           23 
 1270000   0.74961222   -6.1168104    446.02101   0.02926647  0.028648117           13 
 1271000   0.75050596   -6.1164932    446.58062  0.029280135  0.028628356            8 
 1272000   0.75235029   -6.0774583    446.10315  0.029225835  0.028608581            7 
 1273000    0.7495373   -6.1057649    446.34421  0.029218658  0.028588809            9 
 1274000   0.75661961   -6.0994967     446.7269  0.029220755  0.028569058           10 
 1275000   0.75835201   -6.1024359    448.33311  0.029302818  0.028549368            9 
 1276000   0.73470766   -6.1466923    446.64364  0.029169517  0.028529622           12 
 1277000    0.7442639   -6.1361791      446.652   0.02914722  0.028509959            8 
 1278000    0.7460543   -6.1020233    447.88211  0.029204624  0.028490492           11 
 1279000   0.74991906   -6.0889561    447.51667   0.02915798  0.028471067           14 
 1280000   0.74045996   -6.1079862    447.69775  0.029146989  0.028451555            6 
 1281000    0.7472541   -6.1337794    447.70947  0.029124998  0.028432135            8 
 1282000    0.7286881   -6.1133837    447.77752  0.029106703  0.028412775            7 
 1283000   0.74949148   -6.1581983     447.7123   0.02907978  0.028393388           19 
 1284000    0.7436331   -6.1248458    448.39216  0.029101257  0.028373932            8 
 1285000   0.74885683   -6.1320994    446.96387  0.028985984  0.028354515           11 
 1286000   0.73364411   -6.1216323     448.0773  0.029035595  0.028335143           10 
 1287000   0.74070403   -6.1143454    448.51748  0.029041536  0.028315792           10 
 1288000   0.73090231   -6.1371699     448.6837  0.029029743   0.02829657            6 
 1289000   0.75173492   -6.1296401    447.44381  0.028927063  0.028277173           14 
 1290000   0.74020265   -6.1491651    449.10032  0.029011649  0.028257755           10 
 1291000   0.73178169   -6.1260479    447.57984   0.02889103  0.028238284            6 
 1292000   0.75829724   -6.1587053     448.3453  0.028918041  0.028218871            6 
 1293000   0.73391499   -6.1380896    449.33038  0.028959164  0.028199578            5 
 1294000   0.74023638    -6.118509    449.07783   0.02892052  0.028180214            9 
 1295000   0.74087856   -6.1688673    447.88355  0.028821335  0.028160815            8 
 1296000   0.73362158   -6.1583755    448.37568  0.028830741  0.028141351           17 
 1297000   0.74614232   -6.1399465    449.23563  0.028863765  0.028122065           10 
 1298000   0.73189521   -6.1542975    448.42015  0.028789173  0.028102875           21 
 1299000   0.73593877   -6.1348425    448.91586  0.028798811  0.028083605            5 
 1300000   0.71132551   -6.1332435    449.76799  0.028831281  0.028064421            6 
 1301000   0.72529733     -6.15232    449.18708  0.028771912  0.028045211           12 
 1302000    0.7328403    -6.125844    450.74393  0.028849458  0.028025915           12 
 1303000   0.74973011   -6.1173868    451.44596  0.028872215  0.028006806            9 
 1304000   0.72702926   -6.1630388    449.11379  0.028701035  0.027987625            9 
 1305000   0.73526889   -6.1508821    448.02005  0.028609199  0.027968492            6 
 1306000   0.73431336   -6.1660752    449.65214  0.028691433  0.027949295           22 
 1307000   0.72803463   -6.1481879    449.10283  0.028634457  0.027929975            8 
 1308000   0.72679216   -6.1463724    450.58982  0.028707302  0.027910665           15 
 1309000   0.74125772   -6.1359929    449.37819  0.028608237  0.027891416           11 
 1310000   0.73016322   -6.1403511    449.24715  0.028578063  0.027872215           42 
 1311000   0.73134764   -6.1367488    449.47593  0.028570807  0.027853245           62 
 1312000    0.7128181   -6.1418388    449.98474  0.028581348  0.027834099            5 
 1313000   0.74457949   -6.1556414    450.21211  0.028574011  0.027815113            8 
 1314000   0.74275084    -6.132628    451.59751  0.028640126   0.02779617           21 
 1315000   0.73004976   -6.1350699    452.17392  0.028654875  0.027777266           19 
 1316000   0.73499927   -6.1543362    450.13429  0.028503944  0.027758369            7 
 1317000    0.7269645   -6.1691985    450.41923  0.028500331  0.027739383           10 
 1318000   0.71783145   -6.1778903    449.97068  0.028450347  0.027720308           14 
 1319000   0.72850487   -6.1614633    450.21725  0.028444355  0.027701287           10 
 1320000   0.73501614    -6.160808    451.14743   0.02848153  0.027682162           15 
 1321000   0.73354455   -6.1701148    451.20503  0.028463603   0.02766305            8 
 1322000   0.72384057    -6.172433    450.64746  0.028406925  0.027643916           12 
 1323000   0.73999751   -6.1965489    448.94532  0.028278239  0.027624767            9 
 1324000   0.74161607   -6.1695085    450.85081  0.028376814  0.027605651            7 
 1325000   0.71441795   -6.1682581    451.37795   0.02838855  0.027586582            7 
 1326000   0.72275197   -6.1802514    451.97888  0.028404907  0.027567531           15 
 1327000   0.73407233   -6.1839644     451.7024  0.028366139  0.027548514            9 
 1328000   0.70368719   -6.1871061    451.63985  0.028340854  0.027529398           13 
 1329000   0.72537942   -6.1836988    450.73411  0.028262736  0.027510216           10 
 1330000   0.72898195   -6.1727281     450.7759  0.028244104    0.0274912           14 
 1331000   0.72542961   -6.1762651    450.87269  0.028228944  0.027472105            8 
 1332000    0.7154072   -6.1748522    452.37351  0.028301646  0.027453084            9 
 1333000   0.71500387   -6.1814964    451.03066  0.028196465  0.027434138           13 
 1334000   0.72403932   -6.2001133    451.25252  0.028189188   0.02741505            8 
 1335000   0.71677988   -6.1491848    451.82573  0.028203853  0.027396044            8 
 1336000   0.71312065   -6.1738227    451.82619  0.028182771  0.027377112            8 
 1337000    0.7100348   -6.1451961    451.77469  0.028158483   0.02735831           12 
 1338000   0.71985579     -6.14774    452.21148  0.028164641  0.027339465           13 
 1339000   0.73714897   -6.1920535    450.92605  0.028063608   0.02732054           10 
 1340000   0.71249684   -6.1632561    452.90789  0.028165914  0.027301722            8 
 1341000   0.72257512   -6.1758635    453.64417  0.028190665  0.027282859            8 
 1342000   0.73026845   -6.1834899    453.42906    0.0281563  0.027264033           11 
 1343000   0.72642621   -6.1826838    452.71907   0.02809128  0.027245169            6 
 1344000    0.7094217   -6.1814972      451.713  0.028007999  0.027226398           29 
 1345000   0.72383778   -6.1705691    452.62941  0.028043953  0.027207707           15 
 1346000   0.70495989    -6.180057    450.81866  0.027911012  0.027188927           22 
 1347000   0.72307086   -6.1777051    453.87558   0.02807941  0.027170214           10 
 1348000   0.71803862    -6.165443    453.19339  0.028016407  0.027151546            6 
 1349000   0.69886168   -6.1914425    452.53937  0.027955237  0.027132858           11 
 1350000   0.71856289   -6.1832534    454.00958  0.028025283  0.027114209            8 
 1351000   0.71267288   -6.2098581    451.89256  0.027873955  0.027095515           10 
 1352000   0.71284696   -6.1958181    452.96131  0.027919213   0.02707667            8 
 1353000   0.72494756   -6.2076115    453.16064  0.027910855  0.027058022            7 
 1354000    0.7149279   -6.2217075    453.52852  0.027912883  0.027039257           13 
 1355000    0.7103543   -6.2371921    452.16552  0.027808458  0.027020554            6 
 1356000   0.72039607   -6.1934208    453.39803  0.027863694  0.027001726           13 
 1357000   0.70436441   -6.2116113    453.62051  0.027856824  0.026983056           18 
 1358000   0.70780388    -6.208068    453.04755  0.027801151  0.026964479            8 
 1359000   0.72749445   -6.1994557    453.90757   0.02783343  0.026945926            7 
 1360000   0.69537985   -6.2314806      452.926  0.027752818  0.026927291            5 
 1361000   0.69317658   -6.1926244    453.78988  0.027785322  0.026908772           10 
 1362000   0.71874789   -6.1775855    454.32189  0.027797473  0.026890279            9 
 1363000   0.69927828   -6.2025992    453.71726  0.027740111  0.026871775            7 
 1364000   0.71275456     -6.20323    454.50563  0.027767939  0.026853227           11 
 1365000   0.70421222   -6.1740687    455.64405  0.027817097  0.026834852           15 
 1366000   0.71973091    -6.207129    454.43689   0.02772309  0.026816586           14 
 1367000    0.7116575   -6.1796658    454.95713  0.027734524  0.026798246           11 
 1368000   0.71047947   -6.2057102    454.44279  0.027682919  0.026779897           12 
 1369000    0.7048223   -6.2183524     454.6199  0.027673478  0.026761517           10 
 1370000   0.70624835   -6.2127301    453.75904  0.027600915  0.026743106           13 
 1371000    0.7050085    -6.232581    454.21333  0.027608396  0.026724656           16 
 1372000   0.69649603   -6.2039988    455.43591  0.027662531  0.026706371           11 
 1373000   0.71754301   -6.1960977    455.57273  0.027650688  0.026688082           19 
 1374000   0.71658641   -6.2170877    454.55739  0.027568983  0.026669685            4 
 1375000   0.70453208   -6.1926934    455.03486   0.02757787  0.026651298            7 
 1376000   0.70708856   -6.2194533    452.99661  0.027434388  0.026632857           27 
 1377000   0.70729348   -6.2198427    453.55505   0.02744826  0.026614357            8 
 1378000   0.71110209   -6.2028646    455.38319  0.027538897  0.026595938           16 
 1379000   0.70836033   -6.2136765    454.53076  0.027467414  0.026577544           12 
 1380000   0.69747579   -6.2184191    455.03483  0.027477949  0.026559227           16 
 1381000   0.69956247   -6.1959656    456.19309  0.027527944  0.026540924           34 
 1382000   0.71230162   -6.2041092    455.29896   0.02745411  0.026522725           22 
 1383000   0.71142164   -6.1986021    455.33895  0.027436668  0.026504525           15 
 1384000   0.69940819   -6.1931109    455.67631  0.027437157  0.026486382           18 
 1385000   0.70796079   -6.2040139     455.9281  0.027432497  0.026468212            8 
 1386000   0.68962001   -6.2104593    454.95391  0.027354131  0.026449977           12 
 1387000   0.69311515   -6.2046399    456.11304  0.027404052  0.026431789           16 
 1388000   0.70634415   -6.2160844    455.21668  0.027330492  0.026413645            6 
 1389000   0.69648613   -6.2288882    454.00171  0.027237923   0.02639534           23 
 1390000    0.7131339   -6.2635458    453.96533  0.027216147  0.026377073            6 
 1391000   0.69630479   -6.2408895    454.88114  0.027251446  0.026358728           21 
 1392000   0.70055784     -6.23368    455.05676  0.027242382  0.026340374           25 
 1393000   0.69571043   -6.2360129    454.95169   0.02721654  0.026322074           16 
 1394000   0.68828173   -6.2356206    456.48265  0.027288537  0.026303759           11 
 1395000   0.68230382   -6.2402967     454.2657  0.027136541  0.026285547           10 
 1396000   0.70322663   -6.2152103       455.35  0.027181829   0.02626738            7 
 1397000   0.69127293   -6.2370948    455.44131  0.027167819  0.026249194            7 
 1398000   0.69492895    -6.226113    456.42219  0.027206854  0.026231117            8 
 1399000   0.70004618   -6.2646033    455.61834  0.027139524   0.02621311            5 
 1400000    0.6912223   -6.2445263    456.30019  0.027160725  0.026195036            8 
 1401000   0.70313224    -6.246788    456.35082   0.02714435  0.026177102            6 
 1402000   0.68601826    -6.233644     457.2188  0.027176581  0.026159161           28 
 1403000   0.70652183   -6.2597271    455.81879  0.027074055  0.026141096           14 
 1404000   0.68486243   -6.2559461    456.56487  0.027099055  0.026123178           15 
 1405000    0.6859882   -6.2404049    456.58544  0.027080987  0.026105227           15 
 1406000   0.69562479   -6.2197914    456.74958  0.027071455  0.026087316            8 
 1407000   0.68535919   -6.2454484    456.59623  0.027043131  0.026069315           10 
 1408000   0.68316218   -6.2201132     456.5884  0.027023461  0.026051423           18 
 1409000   0.67448542   -6.2254205    457.57011  0.027062344  0.026033589            8 
 1410000   0.68859452   -6.2505775    455.94242  0.026946952   0.02601568            7 
 1411000   0.68576186   -6.2494151    455.93152   0.02692721  0.025997628            4 
 1412000   0.69635741   -6.2414397    457.17554  0.026981559  0.025979582           12 
 1413000   0.69299969   -6.2652089    455.26797  0.026849963  0.025961466           10 
 1414000   0.69164065   -6.2420691    457.49792  0.026962395  0.025943367           14 
 1415000   0.67779809    -6.236078    458.19615  0.026984461  0.025925315           13 
 1416000   0.69623743   -6.2645589    455.56443  0.026810524  0.025907251           23 
 1417000   0.69140645   -6.2515227    456.79175  0.026863782  0.025889139           23 
 1418000    0.6903458   -6.2435431    456.46854  0.026825843  0.025871005           11 
 1419000   0.69265376   -6.2677629      454.867  0.026712885  0.025852882           23 
 1420000   0.69991229    -6.286379    456.02914  0.026762273  0.025834701           20 
 1421000   0.69915423    -6.249852    456.02473  0.026743181  0.025816589           16 
 1422000    0.6747733   -6.2595308     457.2081  0.026793724  0.025798495           10 
 1423000   0.68794204   -6.2612963    457.56392  0.026795732  0.025780428           17 
 1424000   0.68863538   -6.2735488    456.07247  0.026689635   0.02576245           12 
 1425000    0.7007097   -6.2793963     455.4003  0.026631596  0.025744448            7 
 1426000   0.67608645   -6.2691298    456.44769  0.026674128  0.025726358           11 
 1427000   0.68701452   -6.2860164    456.95207  0.026684891  0.025708306           12 
 1428000   0.66902274   -6.2960634    455.75552  0.026596377  0.025690218           12 
 1429000   0.66686255   -6.2427572    457.24661  0.026664719  0.025672231           21 
 1430000   0.69388278   -6.2434207    457.63119  0.026668484  0.025654399           26 
 1431000   0.69320393   -6.2681451    457.47793  0.026640923  0.025636645           15 
 1432000   0.68381323   -6.2570394    458.14918  0.026661381  0.025618842           17 
 1433000   0.67421966   -6.2617467    456.97476   0.02657448  0.025601074           17 
 1434000   0.69075596   -6.2782509    456.94553   0.02655425   0.02558327           12 
 1435000   0.67931382    -6.268848    457.93577   0.02659325  0.025565535           22 
 1436000   0.67225873   -6.2928719    455.69342  0.026444604  0.025547672            9 
 1437000   0.67243061   -6.2677339    457.90259  0.026554314  0.025529785           11 
 1438000   0.68417418   -6.3147493    457.33518  0.026502966  0.025511903           30 
 1439000   0.68828683   -6.2882145    457.86714  0.026515355  0.025494035            8 
 1440000   0.68348614   -6.2753654    458.31404  0.026522803  0.025476339            7 
 1441000   0.68278921   -6.2652453    457.64607  0.026465769   0.02545868            7 
 1442000   0.67295934   -6.2684544    458.09368  0.026473282   0.02544101           14 
 1443000   0.67066983   -6.2699598    458.11506  0.026456171  0.025423315            8 
 1444000   0.67189969   -6.2752133    457.06945  0.026377507  0.025405573            9 
 1445000   0.68185274   -6.2849381    459.04821  0.026473369  0.025387925            7 
 1446000   0.68039399   -6.2643667     458.3679  0.026415854  0.025370414           16 
 1447000   0.67734757   -6.2710729    458.35304  0.026396743  0.025352819            6 
 1448000   0.66950534   -6.2893672    459.14381  0.026424022  0.025335209            9 
 1449000   0.66360712   -6.2516974     458.0438  0.026342523  0.025317523           11 
 1450000   0.67305206   -6.3029459    457.97678  0.026320504  0.025299947           22 
 1451000   0.66089119    -6.291995    458.84578  0.026352273  0.025282375           18 
 1452000   0.68004085   -6.3151908    457.14491  0.026236508  0.025264823           11 
 1453000   0.68219583   -6.2724331    458.43536  0.026292462  0.025247279           15 
 1454000   0.66833466   -6.3027802    458.90608  0.026301357  0.025229688           22 
 1455000   0.67102003   -6.2672488    458.08263  0.026236119  0.025212218           10 
 1456000   0.66110162   -6.2935647    459.66828  0.026308853  0.025194757            9 
 1457000   0.65924466   -6.2867516    459.71652  0.026293555  0.025177216           20 
 1458000   0.67022295   -6.2869635    458.48357  0.026205051  0.025159783           16 
 1459000   0.65916766   -6.3254707    458.59291  0.026193335  0.025142209           13 
 1460000   0.67887725     -6.28758    459.35811   0.02621907  0.025124749            9 
 1461000   0.66496171   -6.3258211    458.25377  0.026138134  0.025107196           23 
 1462000    0.6723604   -6.3403974    458.99901  0.026162734  0.025089622           14 
 1463000   0.66762686   -6.3356213    457.47718  0.026058167  0.025072125           33 
 1464000   0.66833716   -6.3107747    458.22432  0.026082896  0.025054547           23 
 1465000   0.64986053   -6.3160351    458.44544   0.02607767  0.025036996            8 
 1466000   0.67253421   -6.3236551    459.53942  0.026122068  0.025019516           21 
 1467000   0.66829441   -6.3046618    459.46665  0.026100128  0.025002119           11 
 1468000    0.6539224   -6.3305875     458.4511  0.026024699  0.024984702           27 
 1469000   0.67354462   -6.3065694    458.85126  0.026029684  0.024967201           26 
 1470000   0.66263975   -6.3389287    458.91334  0.026015496  0.024949765           18 
 1471000   0.66770575   -6.3218796    458.49526  0.025974125  0.024932252           16 
 1472000   0.67863854   -6.3164961    458.67474  0.025966641  0.024914844           12 
 1473000   0.66226656   -6.3319365    458.60085  0.025944832  0.024897344           25 
 1474000   0.66128091   -6.3026795    459.42665  0.025973917  0.024879984            7 
 1475000   0.66931738   -6.3174581    459.06056  0.025935625  0.024862664           12 
 1476000   0.66739058   -6.3205436    460.17464  0.025980953  0.024845366           10 
 1477000     0.663433   -6.3449506    459.30823  0.025914479  0.024827952           17 
 1478000   0.67224111   -6.3314095    458.04646  0.025825804  0.024810576           33 
 1479000   0.65886817   -6.3210427    459.54033  0.025892513  0.024793281           17 
 1480000   0.65662352   -6.3031568    460.14357  0.025908985   0.02477603           31 
 1481000   0.66330449   -6.3223034    459.14541  0.025835326  0.024758841           16 
 1482000   0.65419282    -6.323368    458.34207  0.025772721  0.024741629           43 
 1483000   0.66194747   -6.3311128    459.32635  0.025810651  0.024724287           14 
 1484000   0.65076646   -6.3495962    459.57419  0.025807176  0.024706927           24 
 1485000   0.66843531   -6.3306045    458.22351  0.025714002   0.02468959           23 
 1486000   0.66959001   -6.3194075    459.14193  0.025748201   0.02467232           11 
 1487000   0.66024595    -6.334356    460.24505  0.025792706  0.024655044           16 
 1488000   0.66064519   -6.3385337    459.49839  0.025733557  0.024637829           13 
 1489000   0.65273534   -6.3455827    458.98135  0.025687338  0.024620611           14 
 1490000   0.66540643   -6.3292986    459.65245  0.025707632  0.024603262           10 
 1491000   0.64876422   -6.3509903    458.58807    0.0256309  0.024585967           20 
 1492000   0.65643152   -6.3702445     459.2376      0.02565  0.024568611           15 
 1493000   0.66212885   -6.3321283    459.59694  0.025652877  0.024551325           10 
 1494000   0.65283971   -6.3678761    459.29165  0.025618677  0.024533934           19 
 1495000     0.661821   -6.3552103    457.62789  0.025508801  0.024516524           16 
 1496000   0.67084641   -6.3416276    459.18295  0.025578373  0.024499151           21 
 1497000   0.65981865   -6.3284808    459.93927  0.025603389  0.024481805           13 
 1498000   0.65049791    -6.340272    458.53708  0.025508293  0.024464544           27 
 1499000   0.65077714    -6.348651    459.69215   0.02555549   0.02444724           11 
 1500000   0.65510739    -6.344747    459.30374  0.025516874  0.024429868            8 
 1501000   0.64591056    -6.352861     459.6492  0.025519054  0.024412526           26 
 1502000   0.66924766   -6.3574624    457.70217   0.02539404  0.024395192           19 
 1503000   0.64111026    -6.367538    459.73245  0.025489712   0.02437791           19 
 1504000   0.65820861   -6.3762883    458.79373  0.025420752  0.024360657           26 
 1505000   0.64581257   -6.3293945    460.02133  0.025471835  0.024343463           18 
 1506000   0.64775149   -6.3670537    458.65861  0.025379516  0.024326236           17 
 1507000    0.6500176   -6.3345078    460.62924  0.025471646  0.024309038           23 
 1508000   0.64616948   -6.3451255    460.00781  0.025420414    0.0242919           20 
 1509000    0.6390954   -6.3244311    459.35604  0.025367574  0.024274661           18 
 1510000   0.65387834   -6.3497252    460.26248  0.025400799  0.024257532           17 
 1511000   0.65098777   -6.3732609      458.376  0.025279947  0.024240318           37 
 1512000   0.65073882   -6.3609496    457.76248  0.025229413  0.024223051           11 
 1513000   0.66348874   -6.3313125    459.40963   0.02530346  0.024205822           15 
 1514000   0.64714351   -6.3515646    459.16048  0.025273034  0.024188599           57 
 1515000   0.65279544    -6.375909    458.66333  0.025229006  0.024171298           12 
 1516000   0.65865409   -6.3623515    458.75886  0.025217615  0.024154003           11 
 1517000   0.64890127   -6.3646293    458.53079  0.025188463  0.024136726           16 
 1518000   0.64388347   -6.3714775    459.01914  0.025198679  0.024119455           14 
 1519000   0.64366396   -6.3581329    459.90488  0.025230682    0.0241023           13 
 1520000   0.63845577   -6.3573193    458.39613  0.025131367  0.024085013           14 
 1521000   0.65683919   -6.3647766    459.59318  0.025180428  0.024067812           15 
 1522000   0.65322223   -6.3623724    459.35699  0.025150952  0.024050539           12 
 1523000   0.65056502   -6.3923528    459.12225  0.025121594  0.024033276           22 
 1524000   0.65154795   -6.3654627    459.50842  0.025126226  0.024016026           34 
 1525000   0.65750738   -6.3910486    458.79844  0.025070953  0.023998814           25 
 1526000   0.63371652   -6.3491631    459.25396  0.025079399  0.023981623           11 
 1527000   0.64294799   -6.3660629    458.95177  0.025046484  0.023964407           29 
 1528000   0.63819531   -6.3704707    458.78478  0.025020985  0.023947207           32 
 1529000   0.64786403   -6.3883283    458.82662  0.025006901  0.023930009           12 
 1530000   0.64702762   -6.3913145    458.78965  0.024988543  0.023912838           36 
 1531000   0.63825288    -6.403665    459.91791  0.025033633  0.023895736           19 
 1532000   0.64910113   -6.3816126    459.90033  0.025016337  0.023878635           14 
 1533000   0.63196014   -6.3901231    458.49964  0.024923877  0.023861597           18 
 1534000   0.65347411   -6.3857459    459.95166  0.024986509  0.023844566           23 
 1535000   0.64920529   -6.3971631    459.53911  0.024947835  0.023827485           32 
 1536000   0.64625386   -6.4122451    459.64219  0.024937185  0.023810419           39 
 1537000   0.64061522   -6.3558668    460.10279  0.024945933  0.023793363           37 
 1538000   0.64786947    -6.391156    459.44058  0.024893833  0.023776292           34 
 1539000   0.62376448   -6.3858545    458.97776  0.024852597  0.023759251           18 
 1540000   0.65140617   -6.3892485    459.86627  0.024884538  0.023742204           29 
 1541000   0.64730242   -6.3715399    459.39233  0.024842761   0.02372516           12 
 1542000   0.65116447   -6.3863824    459.61643  0.024838761  0.023708235            7 
 1543000    0.6460528   -6.3716897     459.7279  0.024828684  0.023691292           10 
 1544000   0.64645048    -6.400429    460.22221  0.024839281  0.023674419           25 
 1545000   0.61773567   -6.3891373    459.21021   0.02476862  0.023657444           13 
 1546000   0.63978474   -6.3956302    459.31463  0.024758227  0.023640548           25 
 1547000   0.63744743   -6.3768961    460.02971  0.024780743   0.02362358           10 
 1548000    0.6416765   -6.3815389    460.04616   0.02476562  0.023606647           19 
 1549000   0.63663377   -6.4090286    459.09941  0.024698698  0.023589698           17 
 1550000   0.66057859   -6.4030684    459.77284   0.02471897  0.023572735           20 
 1551000   0.62118565   -6.3971578    459.59816  0.024693647  0.023555803           16 
 1552000   0.62849151    -6.394667    460.03333  0.024701102  0.023538903           16 
 1553000   0.63394995   -6.3973902    459.84101  0.024674877  0.023521974           25 
 1554000    0.6344661   -6.3993629    460.02717  0.024668981  0.023505055           14 
 1555000   0.64226775   -6.3991926    459.58575  0.024629462  0.023488232           13 
 1556000   0.63855071   -6.3805575    461.16566  0.024698246  0.023471386           31 
 1557000   0.64152757    -6.384409    460.69916  0.024657416  0.023454504           13 
 1558000   0.63596863   -6.4099559    459.46911  0.024575798  0.023437603           22 
 1559000   0.63458848   -6.4111966    460.18083  0.024598077  0.023420727           14 
 1560000   0.62888569     -6.42563    458.51505  0.024493325  0.023403797           27 
 1561000   0.62755821   -6.4097816    459.18196  0.024513237  0.023386827           46 
 1562000   0.61694468   -6.4054215    458.91479   0.02448329  0.023369898           34 
 1563000   0.62076351   -6.4160625    459.88695  0.024519458   0.02335306           25 
 1564000   0.63454884   -6.4176177    459.55501  0.024486094  0.023336207           43 
 1565000   0.63539347   -6.4264701    459.10071  0.024446257  0.023319286           47 
 1566000   0.62574474   -6.4290488    458.96712  0.024423538  0.023302381           39 
 1567000   0.62381725   -6.4036985    460.01929  0.024463906  0.023285506           46 
 1568000    0.6240114   -6.4104019    458.86984  0.024387215  0.023268623           16 
 1569000   0.61814584   -6.4306838    459.27143  0.024393001  0.023251687           38 
 1570000   0.62730127   -6.4047501    459.98604  0.024415395   0.02323478           10 
 1571000   0.63622584    -6.404992    460.19246  0.024410803  0.023217901           26 
 1572000   0.61486341   -6.3964449    459.27182  0.024346471  0.023201069           17 
 1573000   0.61517013   -6.4009338    459.87614  0.024363008  0.023184254           15 
 1574000   0.62091798   -6.3914158    460.60455  0.024386094  0.023167457           22 
 1575000   0.62334436   -6.4196439    459.99084   0.02433814  0.023150724           28 
 1576000   0.62142024   -6.4166221    460.13712  0.024330431  0.023133942           18 
 1577000   0.60730807   -6.4290249    458.51381  0.024229222  0.023117107           27 
 1578000   0.61850583    -6.407899    457.94273   0.02418371  0.023100273           24 
 1579000    0.6223756   -6.4109652    458.79994  0.024213634  0.023083398           19 
 1580000   0.63073383   -6.4148401    458.48325  0.024181606  0.023066576           10 
 1581000   0.61597893   -6.4244521    458.83677  0.024184945  0.023049714           22 
 1582000   0.62486409   -6.4406188    458.38696  0.024145963  0.023032886           40 
 1583000   0.61454706   -6.4211009    458.83787  0.024154447  0.023016053           19 
 1584000   0.61622402   -6.4232775     458.6552  0.024129587  0.022999206           30 
 1585000    0.6185119   -6.4199389    459.60132  0.024164107  0.022982412           24 
 1586000   0.63204076   -6.4158799    458.80568  0.024107066   0.02296564           30 
 1587000   0.62256635   -6.4276956    459.03314  0.024103819  0.022948914           27 
 1588000   0.61038324   -6.4130515    459.67555  0.024122353  0.022932245           43 
 1589000   0.62120903   -6.4368134    459.64353  0.024105492  0.022915652           58 
 1590000   0.61470159     -6.42833    459.84849  0.024101074  0.022899056           58 
 1591000   0.63105808   -6.4399257    461.03524  0.024148085  0.022882464           87 
 1592000    0.6287214   -6.4340308    459.73419  0.024064813  0.022865831           45 
 1593000   0.62320121   -6.4297003    460.18914  0.024073506  0.022849255           28 
 1594000   0.61716047   -6.4439611    459.50417  0.024022593  0.022832641           79 
 1595000   0.62638893   -6.4229291    459.73782   0.02401974  0.022816113           63 
 1596000   0.62910868   -6.4589525    458.75457  0.023953351  0.022799533           22 
 1597000    0.6133168    -6.454218    459.51548  0.023978057   0.02278287           13 
 1598000   0.61970257   -6.4285971    459.94461   0.02398543   0.02276629           55 
 1599000   0.62736758   -6.4351811    460.68057  0.024008785  0.022749763           67 
 1600000   0.62153927   -6.4412615    458.91643  0.023901897  0.022733195           44 
 1601000   0.61834351   -6.4433644     459.8144  0.023933708  0.022716592           47 
 1602000   0.61958499   -6.4660587    459.17274   0.02388539  0.022699977           46 
 1603000   0.61000069   -6.4596089    458.87572  0.023855049  0.022683325           42 
 1604000   0.60294679    -6.478068    458.17925  0.023803993  0.022666689           89 
 1605000   0.59740371   -6.4675903    460.02496  0.023884993  0.022650006           50 
 1606000   0.60843274   -6.4667197    459.26505   0.02383069  0.022633389           30 
 1607000   0.60687473   -6.4634991    459.47433  0.023826713  0.022616773           72 
 1608000   0.61151419   -6.4449381     459.5976  0.023818284  0.022600192           42 
 1609000   0.60997274   -6.4643519    459.64857   0.02380612  0.022583634           72 
 1610000   0.61300173   -6.4446418    459.28769  0.023772655  0.022567131           76 
 1611000   0.60516606   -6.4524196    460.99546  0.023846237  0.022550619           42 
 1612000   0.61082496   -6.4771676    459.23326  0.023740347  0.022534183           75 
 1613000   0.60157615   -6.4363907    459.51718  0.023740297  0.022517711           44 
 1614000   0.61238996   -6.4856035    458.70571   0.02368369  0.022501203           57 
 1615000   0.61367953   -6.4737419    459.44468  0.023707156  0.022484722           56 
 1616000   0.61847778   -6.4649975    459.88582  0.023715234  0.022468289           59 
 1617000   0.59700961   -6.4689771    458.70949  0.023639945  0.022451861          102 
 1618000   0.60815916   -6.4768706    459.41266   0.02366155  0.022435473           49 
 1619000   0.61794377   -6.4655027    459.47404  0.023650094  0.022419101           22 
 1620000   0.60554833    -6.482558    460.12878  0.023669176  0.022402748           25 
 1621000    0.6160987   -6.4551545    460.02832   0.02364941  0.022386449           16 
 1622000    0.6076976   -6.4598604     459.9938  0.023633056   0.02237017           27 
 1623000   0.61278554   -6.4615314    460.14122  0.023626064  0.022353852           40 
 1624000    0.6081919   -6.4748381    459.86772  0.023597482   0.02233749           38 
 1625000   0.60205728    -6.483748    459.27119  0.023552369  0.022321145           33 
 1626000   0.59894106   -6.4691342    459.63109  0.023556329  0.022304814           23 
 1627000   0.60305947   -6.4672266    459.55986  0.023538202  0.022288523           38 
 1628000   0.61475518   -6.4571423    460.51103  0.023572432  0.022272212           52 
 1629000   0.59992917   -6.4760047    460.07817  0.023535818  0.022255854           24 
 1630000   0.59252822   -6.4835463    459.15886  0.023474379  0.022239481           20 
 1631000   0.58578485    -6.480704    458.95122  0.023449378  0.022223158           73 
 1632000   0.60893353    -6.497908    459.42071  0.023458982  0.022206773           55 
 1633000   0.60967497   -6.4561212    459.40429  0.023443779  0.022190416           40 
 1634000   0.60091947   -6.4961435    459.29182  0.023423696  0.022174116           54 
 1635000    0.5917989   -6.4934578    459.41093   0.02341544  0.022157769           24 
 1636000   0.59370172   -6.4966692     459.5794  0.023409708   0.02214143           56 
 1637000   0.60324926   -6.4885255    458.67497  0.023349367  0.022125129           84 
 1638000   0.59367802   -6.4821782    459.14028  0.023358785  0.022108804           58 
 1639000   0.60447028   -6.4874115    459.69543  0.023372759  0.022092537           98 
 1640000   0.58903627   -6.4978533    459.92802  0.023370326  0.022076256           41 
 1641000   0.60042216   -6.5188516    459.90691  0.023355013  0.022059959           42 
 1642000   0.60051674   -6.5020342    460.38739  0.023365174  0.022043702           25 
 1643000   0.60153282   -6.5041873    459.06359   0.02328381  0.022027388           47 
 1644000    0.5847786   -6.4792977     458.9796  0.023265389  0.022011157           52 
 1645000   0.61061942   -6.5069333     458.8232  0.023243323  0.021994872           64 
 1646000   0.57720717   -6.4858473      459.072  0.023241798  0.021978666           55 
 1647000   0.59710073   -6.5156986    458.80303  0.023214078   0.02196241           89 
 1648000   0.59386679   -6.5082398    458.41797   0.02318052  0.021946161          102 
 1649000   0.58794926   -6.5094884    458.13278  0.023152051  0.021929913          115 
 1650000   0.57969897   -6.4889878    458.83105  0.023173285  0.021913717           47 
 1651000   0.59331703   -6.5182266     460.2856  0.023232667  0.021897529           75 
 1652000   0.59495839   -6.5208598    459.45099  0.023176503  0.021881336           50 
 1653000   0.58297019    -6.503577    458.69835  0.023124538  0.021865167          108 
 1654000   0.59668409   -6.4866143    458.96054  0.023123767  0.021849001           80 
 1655000   0.58622054   -6.5117162    459.50087  0.023137002   0.02183288           75 
 1656000   0.59393929   -6.5010264    459.84322  0.023140258  0.021816784           93 
 1657000   0.58951914   -6.4917255    459.17638  0.023092757  0.021800665           79 
 1658000   0.59163431   -6.4970312     460.3922  0.023139938  0.021784616           47 
 1659000   0.58800069   -6.5360437    458.86383  0.023049218  0.021768541          105 
 1660000   0.57614805   -6.5115578    459.21377    0.0230529  0.021752435          111 
 1661000   0.59230242   -6.5038816    458.83298  0.023019917  0.021736291           63 
 1662000   0.59246156   -6.5207809    459.01924  0.023015405  0.021720204           97 
 1663000   0.59927456   -6.5324752    459.02909  0.023002059  0.021704096          105 
 1664000   0.57389466   -6.5061011    458.89031  0.022981286   0.02168798          110 
 1665000   0.58711722   -6.5093244    458.78769  0.022962347  0.021671847           65 
 1666000   0.58896455   -6.5346077    458.14643  0.022916488  0.021655724          171 
 1667000   0.59093631   -6.5365749    458.37099  0.022913967  0.021639622          162 
 1668000   0.59854834   -6.5194614    459.11805  0.022937553  0.021623552           99 
 1669000   0.58654946   -6.5241866     458.8863  0.022912238  0.021607457           98 
 1670000   0.58339268   -6.5144309    459.34927   0.02292162  0.021591427          156 
 1671000     0.590307   -6.5354409    458.19221    0.0228502  0.021575363          104 
 1672000   0.58667161   -6.5382563    458.80563  0.022867107  0.021559241          141 
 1673000   0.58271943   -6.5494619    458.67751  0.022847057  0.021543131          116 
 1674000    0.5945279   -6.5205307    459.64601  0.022881621  0.021527091          204 
 1675000   0.58329052   -6.5395052    457.59313  0.022765828   0.02151106           91 
 1676000   0.57667641    -6.539445    458.31003  0.022787889     0.021495          199 
 1677000   0.59263846    -6.547592    458.10532  0.022764128  0.021478971           54 
 1678000   0.56913062   -6.5545114    458.26922  0.022758702  0.021462963           62 
 1679000   0.58102417   -6.5535407    458.32606  0.022747968  0.021446984          111 
 1680000   0.58843952    -6.527825    458.94862  0.022765309  0.021430988          127 
 1681000   0.60748919   -6.5224022    458.54128  0.022731573  0.021415012          125 
 1682000   0.59430292   -6.5364193    459.32836  0.022757053  0.021399054           77 
 1683000    0.5810089   -6.5304907    459.03983  0.022729245  0.021383078           77 
 1684000   0.56397429    -6.544668    458.50812  0.022689436  0.021367124           82 
 1685000   0.57321807   -6.5571208    457.91994  0.022646882   0.02135121          120 
 1686000   0.60130521   -6.5507565    457.50436  0.022612908  0.021335305           58 
 1687000    0.5686606   -6.5666977     458.7925  0.022663135  0.021319405           92 
 1688000   0.57488578   -6.5617924    458.39424  0.022630047   0.02130352           90 
 1689000   0.58957188   -6.5398262    459.30244  0.022661458  0.021287677          104 
 1690000   0.58170763   -6.5599095    458.29889  0.022598565  0.021271885           58 
 1691000   0.57808818   -6.5540053    458.41587  0.022590965  0.021256042           75 
 1692000    0.5749702   -6.5528904    458.89137  0.022601033  0.021240213           75 
 1693000   0.58699278   -6.5440689     458.2204  0.022554656  0.021224355           89 
 1694000   0.57271803    -6.561059    458.52372  0.022556263   0.02120854           82 
 1695000   0.57552213   -6.5662514    458.48169  0.022540889  0.021192705           79 
 1696000   0.58092693   -6.5647731    459.05193  0.022555618  0.021176893           93 
 1697000   0.57606996   -6.5539869    458.29495  0.022505154  0.021161104          120 
 1698000   0.57312281   -6.5616057    458.04748  0.022479755  0.021145275          192 
 1699000   0.56810418    -6.560181    459.09029  0.022517672  0.021129538           74 
 1700000   0.57090383   -6.5527893    458.81886   0.02249112  0.021113779          173 
 1701000   0.56914952   -6.5612628    458.92696  0.022483194  0.021098035           80 
 1702000   0.58456279   -6.5430973    458.82433  0.022464959  0.021082317          204 
 1703000   0.58064382   -6.5545771    458.93104   0.02245699  0.021066626          131 
 1704000   0.56986099   -6.5410114    459.28178  0.022460963  0.021050934           97 
 1705000   0.57545771   -6.5469404    458.66214  0.022417505  0.021035263          177 
 1706000   0.57147123   -6.5618825    457.76502  0.022360542  0.021019563          185 
 1707000   0.57348691   -6.5527685    457.16213   0.02231801  0.021003872          160 
 1708000   0.57822868   -6.5771505    458.03116  0.022347344  0.020988197          131 
 1709000    0.5814501   -6.5757423    457.89204  0.022327484   0.02097245           80 
 1710000   0.56475871   -6.5704556    457.63699  0.022301997  0.020956705          103 
 1711000   0.56696798   -6.5485818    457.79658  0.022296736  0.020941004          110 
 1712000   0.56946967   -6.5581258    457.70165  0.022279091  0.020925283          138 
 1713000   0.57126237   -6.5929772    457.69576  0.022265799  0.020909551          139 
 1714000   0.56502098   -6.5701964    457.66476  0.022251301  0.020893845          179 
 1715000   0.55131441    -6.565098    457.86423  0.022248019  0.020878191           91 
 1716000    0.5675038    -6.570379    458.00396   0.02224184  0.020862519           79 
 1717000   0.56793411   -6.5732124    457.02498  0.022181372  0.020846831          109 
 1718000   0.58853113   -6.5601891    458.00765  0.022216126   0.02083118          116 
 1719000   0.58535888   -6.5670185     458.2065  0.022212842  0.020815553          152 
 1720000   0.54922982   -6.5905798     456.9204  0.022137616  0.020799898           76 
 1721000   0.55437665   -6.5877494    456.99458  0.022128345  0.020784218           62 
 1722000   0.56191118   -6.5709594    457.61474  0.022145506  0.020768566           76 
 1723000   0.56280869   -6.6023513      457.799  0.022141565  0.020752931           63 
 1724000   0.56350873   -6.5741957     458.2996   0.02215292  0.020737298          100 
 1725000    0.5777836   -6.5608228    458.71297  0.022160047  0.020721684           80 
 1726000   0.56763708   -6.5909945    457.62365  0.022094614  0.020706064           48 
 1727000   0.56929465   -6.5856326     457.4563  0.022073745  0.020690467           59 
 1728000   0.55345495   -6.5913362     457.2076  0.022048978  0.020674907           96 
 1729000   0.57394519   -6.5923682    457.23486  0.022037539  0.020659286          135 
 1730000   0.57091409   -6.5851626    457.76172  0.022050179  0.020643692           87 
 1731000   0.56491436   -6.5957893    457.57256  0.022028334  0.020628123          141 
 1732000   0.57035531   -6.6064137    457.22151  0.021998725  0.020612551          204 
 1733000   0.55451424   -6.6072243    457.17268  0.021983684   0.02059695          175 
 1734000   0.54598318   -6.6082444    457.05287  0.021965247  0.020581389          159 
 1735000   0.56536699   -6.6018208    456.73313   0.02193723  0.020565819          193 
 1736000   0.56934339   -6.5913337     457.2182  0.021947878  0.020550286          165 
 1737000   0.57723841   -6.6128986    457.74081  0.021960315  0.020534742          131 
 1738000   0.56843848   -6.5946707     457.4753  0.021934949   0.02051923           97 
 1739000   0.55343665   -6.6144758    456.90952  0.021895223  0.020503745          129 
 1740000   0.57249941   -6.5957646    457.28741  0.021900738  0.020488248          100 
 1741000   0.55141553    -6.604787     456.6841  0.021859281  0.020472768          119 
 1742000   0.55512612    -6.606283    457.20063  0.021871442  0.020457288          161 
 1743000   0.55368285   -6.6013473    457.53716  0.021874984  0.020441831          124 
 1744000    0.5690509   -6.5925722    457.21966   0.02184727  0.020426383          182 
 1745000   0.55409433   -6.6018877    457.27482  0.021837384  0.020410941           91 
 1746000   0.55167233   -6.6056135    457.33287  0.021827647   0.02039551           66 
 1747000   0.55623112   -6.6222535    456.30593  0.021766167  0.020380104          143 
 1748000   0.56010684   -6.6050633    458.45204  0.021856028  0.020364747          107 
 1749000   0.55318054   -6.6068795    457.01231  0.021774934  0.020349378          105 
 1750000   0.56250901   -6.6061163    456.90579  0.021757419  0.020333969          185 
 1751000   0.54210191   -6.6112479    456.74805  0.021737486  0.020318577          168 
 1752000   0.57051753    -6.621767    457.89634  0.021779697  0.020303206          228 
 1753000   0.55482505   -6.5976332    456.54878  0.021703212  0.020287881          229 
 1754000   0.55719295   -6.6267149    456.69759  0.021697909   0.02027248          187 
 1755000   0.55570805   -6.6340752    457.03375  0.021701508  0.020257085          154 
 1756000   0.55809601     -6.60226    456.61395  0.021669227  0.020241731          172 
 1757000   0.55853383   -6.6152797    456.24196  0.021639251    0.0202264          185 
 1758000    0.5603914   -6.6149482    457.50146  0.021686645   0.02021105          174 
 1759000   0.54713111   -6.6471486    456.68804   0.02163578  0.020195686          211 
 1760000   0.53884592   -6.6425402    456.66596  0.021622441  0.020180334          278 
 1761000   0.54704661   -6.6263101    457.54633  0.021651823  0.020164984          194 
 1762000   0.53836138    -6.631871    456.77283  0.021602953  0.020149637          181 
 1763000   0.55742879   -6.6329096    456.90335  0.021596868   0.02013431          247 
 1764000   0.54362081   -6.6285861    457.09374  0.021593619  0.020118984          145 
 1765000   0.54411149   -6.6277294    456.80595  0.021567797  0.020103679          254 
 1766000   0.56035808   -6.6292709    457.12984  0.021570868  0.020088369          235 
 1767000   0.55044568   -6.6307801    456.47872  0.021527953   0.02007315          282 
 1768000   0.56066713   -6.6390219     456.9336  0.021537217  0.020057896          273 
 1769000    0.5310338   -6.6407679    456.62718  0.021510608   0.02004266          385 
 1770000   0.54925857   -6.6307071    456.49577  0.021492268  0.020027405          104 
 1771000   0.55789546   -6.6411994    456.01323  0.021457427  0.020012153          325 
 1772000   0.54263249   -6.6455301    456.73908  0.021479453  0.019996917          292 
 1773000   0.54024581   -6.6556781    455.88814  0.021427343  0.019981647          250 
 1774000   0.54487963   -6.6405644    456.44446  0.021441397  0.019966405          118 
 1775000   0.54572063    -6.639779    456.40738  0.021427577  0.019951206          104 
 1776000   0.54449116   -6.6426798    455.06688  0.021352613   0.01993601          345 
 1777000   0.54950061   -6.6543124    455.45156  0.021358636   0.01992083          241 
 1778000   0.53838249    -6.645278    455.74553  0.021360402  0.019905652          245 
 1779000   0.54686544   -6.6364532    455.91859  0.021356501  0.019890503          144 
 1780000   0.54277215   -6.6573234    456.78881  0.021385244  0.019875348          358 
 1781000   0.54972704   -6.6411724    456.66279   0.02136734  0.019860203          351 
 1782000   0.54807412    -6.637872     456.5684  0.021350935  0.019845046          225 
 1783000   0.53320654   -6.6143217    456.57562  0.021339298  0.019829936          158 
 1784000   0.54714528   -6.6405493    456.24595  0.021311937  0.019814809          234 
 1785000   0.53751398   -6.6433546    455.92009  0.021284785  0.019799697          315 
 1786000   0.54327428    -6.656255    456.02616  0.021277816   0.01978459          340 
 1787000   0.55148992   -6.6802701    455.96324  0.021262975  0.019769493          389 
 1788000   0.53553294   -6.6881137    456.04135  0.021254724  0.019754369          353 
 1789000   0.54353471   -6.6619738    455.85442  0.021234136  0.019739298          205 
 1790000    0.5357342   -6.6592431    456.56978  0.021255576  0.019724222          295 
 1791000   0.53844285    -6.652363    456.98719   0.02126313  0.019709201          137 
 1792000   0.54371805   -6.6609245    456.17516  0.021213502  0.019694171          389 
 1793000    0.5389493   -6.6745779    454.95072  0.021144763  0.019679164          290 
 1794000    0.5230693   -6.6601872    455.65845  0.021165852  0.019664122          357 
 1795000   0.55561483   -6.6722277    455.68672  0.021155373   0.01964912          315 
 1796000   0.52901629   -6.6875653    455.76424   0.02114719   0.01963413          328 
 1797000   0.53229168   -6.6794008    455.08767  0.021104047  0.019619117          127 
 1798000   0.53979773   -6.6631978    456.34854  0.021150748  0.019604146          184 
 1799000   0.53273736   -6.6784467    456.14464  0.021129546  0.019589178          276 
 1800000   0.53573305   -6.6443487    456.21214  0.021120932  0.019574234          217 
 1801000   0.53613934   -6.6718123    455.92443  0.021095893  0.019559293          259 
 1802000    0.5339699   -6.6791257    455.55785  0.021067233  0.019544346          274 
 1803000   0.53545638   -6.6778309     455.2413  0.021040918  0.019529407          177 
 1804000   0.53093043   -6.6816864    455.91588  0.021060416  0.019514458          238 
 1805000   0.52015461   -6.6698355    454.80604  0.020997509  0.019499529          243 
 1806000   0.53034051   -6.6834954     455.1366  0.021001135  0.019484578          231 
 1807000   0.53084645   -6.6848235    454.51413  0.020960807  0.019469628          344 
 1808000   0.54173256   -6.6868713      455.648  0.021001475  0.019454684          348 
 1809000   0.54299633   -6.7026438     454.2423   0.02092511  0.019439745          489 
 1810000   0.53363107   -6.6949543       455.44  0.020968692  0.019424844          385 
 1811000   0.52864464   -6.6904455    455.18313  0.020945294  0.019409974          462 
 1812000   0.52178944    -6.704416    455.16033  0.020932686  0.019395091          448 
 1813000   0.53230282   -6.6866513    455.64246  0.020943301  0.019380241          415 
 1814000   0.54184751   -6.6869382    455.37366  0.020919407  0.019365395          459 
 1815000   0.51736122   -6.6929409    455.36537  0.020907501  0.019350564          345 
 1816000   0.53782285   -6.7061344     454.4845  0.020855566  0.019335699          528 
 1817000   0.52359872   -6.7009791    455.31446  0.020882153  0.019320863          493 
 1818000    0.5300925   -6.6892358    455.62669  0.020884979  0.019306022          346 
 1819000   0.53233196   -6.6961554    454.71234  0.020831608   0.01929118          521 
 1820000   0.53221885   -6.6866219     454.0274  0.020788801  0.019276398          588 
 1821000   0.52173375   -6.6923402    455.20136  0.020831107  0.019261614          430 
 1822000   0.52847259   -6.6773605    454.74631  0.020798861  0.019246837          518 
 1823000   0.51921271   -6.7021183    454.47096  0.020774865  0.019232064          482 
 1824000   0.52476671   -6.6977609    455.31147  0.020801876  0.019217324          360 
 1825000   0.52290349   -6.7046509    455.37621  0.020793434  0.019202586          440 
 1826000   0.52787457   -6.7169595     454.7751  0.020754614  0.019187833          478 
 1827000   0.51690751   -6.7151301    455.08687  0.020757474   0.01917309          338 
 1828000   0.51900134   -6.7161217    455.10569  0.020746977  0.019158376          378 
 1829000   0.52198458   -6.7116819    454.14782  0.020691991  0.019143631          313 
 1830000   0.53130486   -6.7205364    454.68224   0.02070502  0.019128933          526 
 1831000   0.52246965   -6.7002281    454.20906  0.020672177  0.019114219          578 
 1832000   0.52540793    -6.721088    454.22098  0.020661435  0.019099535          367 
 1833000   0.51668029   -6.7166897    455.38438  0.020703054  0.019084871          531 
 1834000    0.5195444   -6.7076011    454.89941   0.02066973  0.019070227          556 
 1835000    0.5105725   -6.7029166     454.7056  0.020649664  0.019055577          542 
 1836000     0.518488   -6.7216315    454.41322  0.020625146  0.019040928          552 
 1837000   0.51361889   -6.7037064    454.69269  0.020626597   0.01902628          611 
 1838000   0.53173182   -6.7281575    454.11763  0.020589301  0.019011655          666 
 1839000   0.51488929   -6.7195886    454.54507  0.020597475  0.018997014          615 
 1840000   0.52137521   -6.7207645    454.53014  0.020585604  0.018982366          643 
 1841000   0.51247095   -6.7165205    454.67658  0.020581051  0.018967762          499 
 1842000    0.5275147   -6.7196494    453.90377  0.020534915  0.018953157          525 
 1843000   0.52658964   -6.7213995    454.31264  0.020542261  0.018938555          516 
 1844000   0.53337957   -6.7175951    454.13925  0.020523285  0.018923972          348 
 1845000   0.52463988    -6.721557    453.09235  0.020464876  0.018909389          634 
 1846000   0.51806007   -6.7212692    453.68159  0.020480389  0.018894825          673 
 1847000   0.51481958   -6.7155379    454.31788  0.020498009  0.018880278          556 
 1848000    0.5043712   -6.7215772    454.67002  0.020502797  0.018865747          677 
 1849000   0.51635434   -6.7278366    454.16036  0.020468738   0.01885119          680 
 1850000   0.51169847   -6.7179765    453.69217  0.020436584  0.018836662          773 
 1851000   0.50371147   -6.7219891    453.62358  0.020422455  0.018822115          713 
 1852000    0.5118754   -6.7406251    453.88108  0.020423015  0.018807564          674 
 1853000   0.51943482   -6.7210811    453.99462  0.020417099  0.018793054          639 
 1854000   0.51639377   -6.7362268    454.69466  0.020437552  0.018778541          670 
 1855000   0.51569563   -6.7184076     453.3759  0.020367291  0.018764073          615 
 1856000   0.51253633   -6.7401098    454.20354  0.020393478  0.018749606          660 
 1857000   0.52881594   -6.7262276    455.03511  0.020419813  0.018735141          721 
 1858000   0.51326268   -6.7231665    453.06173  0.020320314  0.018720691          547 
 1859000   0.51287737   -6.7241321    453.40044  0.020324567  0.018706265          584 
 1860000   0.50884575   -6.7367279    453.35088  0.020311419  0.018691813          676 
 1861000   0.50600543   -6.7242783    453.29309  0.020297917  0.018677388          707 
 1862000   0.51252172   -6.7411265     453.6574  0.020303321  0.018662981          678 
 1863000    0.4998288   -6.7252054    453.58113  0.020289011  0.018648582          768 
 1864000   0.51305033    -6.736164    453.82959  0.020289234  0.018634199          675 
 1865000    0.5289337   -6.7465262     454.0409  0.020287797   0.01861983          781 
 1866000   0.51083229   -6.7280107    452.97747  0.020229433  0.018605471          704 
 1867000   0.49456123   -6.7570933    453.84801  0.020257455  0.018591118          722 
 1868000   0.50557317   -6.7356842    453.45027  0.020228866  0.018576774          653 
 1869000   0.51294854   -6.7470838    454.03687  0.020244198  0.018562431          670 
 1870000   0.51424673   -6.7407332    453.11806  0.020192427   0.01854809          694 
 1871000   0.51381803   -6.7545484     453.6541   0.02020551  0.018533781          681 
 1872000   0.50360678   -6.7289776    453.85481  0.020203651  0.018519471          659 
 1873000    0.4994092   -6.7496268    453.77296  0.020189222  0.018505193          656 
 1874000   0.49548195   -6.7440453    454.10066  0.020193021  0.018490937          662 
 1875000   0.50311554   -6.7363996    454.01396  0.020178398   0.01847669          634 
 1876000   0.49929986   -6.7544612    454.01564  0.020167717  0.018462471          679 
 1877000   0.49929052   -6.7276312    453.07827  0.020115356  0.018448265          716 
 1878000   0.50739423   -6.7390943    453.79439  0.020136421  0.018434081          399 
 1879000    0.5168628   -6.7322593    453.76461  0.020124384  0.018419911          720 
 1880000   0.50022031   -6.7334117    453.74777  0.020112933  0.018405737          725 
 1881000   0.50385658   -6.7309084    453.66475  0.020098562  0.018391589          711 
 1882000   0.49977962   -6.7610945    453.20968  0.020067733   0.01837742          742 
 1883000   0.50697352   -6.7397293    453.88899  0.020087139   0.01836329          685 
 1884000   0.50361314   -6.7311863    453.49722  0.020059148  0.018349154          755 
 1885000   0.49863562   -6.7536662    453.97567  0.020069658  0.018335044          751 
 1886000    0.5031645   -6.7556023     453.1482  0.020022455  0.018320916          700 
 1887000   0.49315268   -6.7533546    453.48888  0.020026889  0.018306815          634 
 1888000   0.50589107   -6.7511864    452.74889   0.01998362  0.018292717          716 
 1889000   0.49472422   -6.7665376    454.39097  0.020045481   0.01827862          626 
 1890000   0.49812667   -6.7547048    454.25266  0.020028777   0.01826455          616 
 1891000   0.49575242   -6.7618894    453.38181  0.019979808   0.01825051          649 
 1892000   0.49462613   -6.7713255    453.72846  0.019984516  0.018236475          669 
 1893000   0.49731107   -6.7709937    453.18599  0.019950079  0.018222434          632 
 1894000   0.49524616   -6.7385056     453.8099  0.019966997  0.018208414          662 
 1895000   0.48950406   -6.7734293    453.26305  0.019932412  0.018194411          613 
 1896000   0.49144688    -6.756451    452.80824  0.019901909  0.018180406          611 
 1897000   0.49659674   -6.7628365    453.85804  0.019937535  0.018166428          611 
 1898000   0.50285341   -6.7553361    454.11421  0.019938277  0.018152463          561 
 1899000   0.49810076   -6.7478802     453.0078  0.019879226  0.018138483          309 
 1900000   0.50811867   -6.7600923    452.66515  0.019853735  0.018124516          648 
 1901000    0.4900407   -6.7703604     452.4154  0.019832343  0.018110556          682 
 1902000   0.50536556   -6.7795013    452.46254  0.019823981  0.018096626          692 
 1903000   0.49992625   -6.7688075    453.00026   0.01983711  0.018082725          619 
 1904000   0.49765356   -6.7713498    452.32833  0.019797283  0.018068816          677 
 1905000   0.49590629    -6.757058    453.41298  0.019834339   0.01805491          679 
 1906000   0.50649642   -6.7725422    452.43736  0.019781277  0.018041021          704 
 1907000   0.49410449    -6.767788    452.42699   0.01977045  0.018027142          384 
 1908000   0.49673099   -6.7722681    452.86066   0.01977903  0.018013246          721 
 1909000   0.49634929   -6.7781364    453.04717   0.01977681  0.017999367          625 
 1910000   0.49559119   -6.7616262    452.44638  0.019740244  0.017985492          740 
 1911000   0.48647076   -6.7711257     453.6342  0.019781711  0.017971639          297 
 1912000   0.49787426   -6.7575857    453.12483  0.019749164  0.017957812          732 
 1913000   0.50303812    -6.758309    453.40652  0.019751112  0.017943987          689 
 1914000   0.47903933   -6.7931056    452.98415  0.019722403  0.017930163          707 
 1915000   0.48499785   -6.7802459     452.0021  0.019669369  0.017916339          733 
 1916000   0.49510475   -6.7757961    453.37816  0.019718953  0.017902554          745 
 1917000   0.49246857   -6.7760186    453.12283  0.019697567  0.017888763          652 
 1918000   0.48866598   -6.7765388     452.4386  0.019657569  0.017874996          603 
 1919000   0.48595293   -6.7932965    452.61456  0.019654966  0.017861241          618 
 1920000   0.48992257   -6.8017476    452.11293  0.019622957  0.017847507          743 
 1921000   0.50150799   -6.7840935    452.05771  0.019610347  0.017833764          595 
 1922000   0.48288076    -6.775956    452.96726  0.019639579  0.017820048          590 
 1923000   0.48754521   -6.7804608    452.41372  0.019605379  0.017806343          594 
 1924000   0.47940577    -6.777695    453.03052  0.019621904  0.017792635          643 
 1925000   0.48406282   -6.7923561    452.36804  0.019583032  0.017778951          608 
 1926000   0.48519801   -6.7883607    453.35482   0.01961556  0.017765253          627 
 1927000   0.48135068   -6.8028736    452.50267  0.019568529  0.017751566          773 
 1928000   0.48830575   -6.7989821    451.60205  0.019519452  0.017737886          656 
 1929000   0.48771417    -6.789023    451.97664  0.019525516   0.01772421          664 
 1930000   0.48347194   -6.7979589    452.41385  0.019534277  0.017710539          792 
 1931000   0.48148937     -6.78355    451.74184   0.01949516   0.01769689          682 
 1932000   0.49013657   -6.8032389    451.76107  0.019485898  0.017683238          775 
 1933000   0.49032766   -6.7988978    452.05264  0.019488388  0.017669576          712 
 1934000   0.47964304   -6.8068868    452.51793   0.01949836  0.017655957          753 
 1935000   0.49290504   -6.8153562    452.58424  0.019491139  0.017642343          817 
 1936000   0.48647188   -6.8097851     451.5497   0.01943654  0.017628701          754 
 1937000   0.48021134   -6.7935675     452.4228  0.019464068  0.017615082          794 
 1938000   0.48994221   -6.7857943    452.27875  0.019447831  0.017601486          808 
 1939000   0.47161099    -6.797128    451.35115  0.019397935  0.017587913          802 
 1940000   0.48563498   -6.7824249    452.26354  0.019427128  0.017574355          833 
 1941000   0.47623764   -6.8085898     451.9715  0.019404581  0.017560795          788 
 1942000   0.47882912   -6.8185835    452.34074  0.019410433  0.017547225          823 
 1943000   0.48588767    -6.803136    452.38299  0.019402256  0.017533655          749 
 1944000    0.4872355   -6.8121804     451.2691  0.019344526  0.017520117          932 
 1945000   0.47377476   -6.7976995    451.66523  0.019351552  0.017506589          874 
 1946000   0.47439291    -6.809648     451.4113  0.019330734  0.017493065          900 
 1947000   0.47317178   -6.8072472    451.21524  0.019312414  0.017479548          853 
 1948000   0.46626912   -6.7944794    452.35425  0.019351226  0.017466048          838 
 1949000   0.47379556   -6.8064791    451.65968  0.019311599  0.017452576          915 
 1950000   0.48034641   -6.8258926    451.23241  0.019283436  0.017439102          931 
 1951000   0.46867317    -6.801377    451.33538  0.019277951  0.017425641          777 
 1952000   0.46448973   -6.8006734    452.22134  0.019305897   0.01741221          931 
 1953000   0.47190186   -6.8159204     451.4163  0.019261662  0.017398758          843 
 1954000   0.47269926   -6.8226266    451.91347  0.019273007   0.01738533          883 
 1955000   0.47634634   -6.8193932    450.87965  0.019219081  0.017371901          894 
 1956000   0.47048245   -6.8222193    451.10244  0.019218748  0.017358469          893 
 1957000   0.47457292   -6.8123455    452.32261  0.019260884  0.017345072          879 
 1958000   0.48263948   -6.8202375    451.91345  0.019233633    0.0173317          860 
 1959000    0.4717057   -6.8240514    451.53824  0.019207854  0.017318322          842 
 1960000   0.47793637   -6.8303411    450.97666  0.019174178  0.017304951          850 
 1961000   0.47146565   -6.8343194    451.56843  0.019189547  0.017291588          864 
 1962000   0.45955025   -6.8130985    451.61214  0.019181623  0.017278228          815 
 1963000   0.47039335   -6.8299544    451.24997  0.019156477   0.01726488          762 
 1964000   0.47062978   -6.8171537    451.38042  0.019152258  0.017251558          753 
 1965000   0.47020923   -6.8259762      451.444  0.019145208  0.017238254          749 
 1966000   0.47140069   -6.8219343    451.73771  0.019147919  0.017224943          866 
 1967000   0.47288279   -6.8277514    451.15492  0.019113494  0.017211649          868 
 1968000    0.4603565   -6.8235575    451.97374  0.019138454  0.017198354          809 
 1969000   0.46438252   -6.8239409    451.34285  0.019102034  0.017185072          907 
 1970000    0.4648757   -6.8213975    450.67575  0.019064118  0.017171821          904 
 1971000    0.4715911   -6.8088157    451.33824  0.019082456   0.01715857          787 
 1972000    0.4801921   -6.8267939     450.7572  0.019048225  0.017145324          887 
 1973000    0.4600779   -6.8327994    451.06192  0.019051441  0.017132088          841 
 1974000   0.46252452   -6.8207995    450.91496  0.019035586  0.017118879          776 
 1975000   0.47364292   -6.8197243    450.92771  0.019026485  0.017105664          882 
 1976000   0.46740782   -6.8143537    451.00806  0.019020245  0.017092484          775 
 1977000   0.46967985   -6.8328072     450.7609  0.019000207  0.017079294          737 
 1978000   0.45654685   -6.8383152    451.20527  0.019009322  0.017066133          852 
 1979000   0.45947573   -6.8297497    451.00645  0.018991344  0.017052961          790 
 1980000   0.44916116   -6.8302591    451.26146  0.018992486   0.01703981          673 
 1981000   0.46526414   -6.8402999    450.54312   0.01895268  0.017026664          740 
 1982000    0.4602702   -6.8182101    450.55558  0.018943642  0.017013534          778 
 1983000   0.45052492   -6.8272521    450.77632  0.018943365  0.017000423          841 
 1984000   0.45980229   -6.8383218     450.6851  0.018929986  0.016987315          708 
 1985000   0.45694364    -6.831969    450.92241  0.018930412  0.016974208          873 
 1986000    0.4580673   -6.8374861    450.77291  0.018914607  0.016961129          791 
 1987000   0.45981512   -6.8347527    450.46255  0.018892071  0.016948037          743 
 1988000   0.46177138   -6.8417132    450.78025  0.018895886  0.016934964          743 
 1989000    0.4692733   -6.8449361    450.66147  0.018881409  0.016921919          769 
 1990000   0.45388938   -6.8312117    451.47547  0.018906008  0.016908881          832 
 1991000    0.4638752   -6.8453446    450.72515  0.018865108   0.01689585          772 
 1992000   0.45577503   -6.8335133    450.26424  0.018836355  0.016882845          751 
 1993000   0.45200889   -6.8415662    450.35144   0.01883055   0.01686984          781 
 1994000   0.45839701   -6.8337918    450.43686  0.018824677  0.016856836          880 
 1995000   0.45081679   -6.8534846    450.62475  0.018823089  0.016843846          931 
 1996000   0.45508697   -6.8474151    450.73258  0.018818161  0.016830866          789 
 1997000   0.45222215   -6.8503829    451.01443  0.018820499  0.016817913          845 
 1998000   0.44488238   -6.8424589    450.74609  0.018799887  0.016804968          674 
 1999000   0.46525559   -6.8503868    450.65938  0.018786868  0.016792038          902 
 2000000    0.4572667   -6.8447811    450.86921  0.018786217  0.016779112          949 
 2001000   0.45116723     -6.84421    451.22797   0.01879177  0.016766194          934 
 2002000   0.45332074   -6.8522056    450.39362  0.018747653  0.016753303          941 
 2003000   0.44816684   -6.8543395     450.1104   0.01872651  0.016740409          872 
 2004000    0.4495404   -6.8563639    451.12091  0.018759186  0.016727539          829 
 2005000   0.46267301   -6.8494025    449.97687   0.01870228  0.016714685          855 
 2006000   0.44981879   -6.8396246    450.99856    0.0187354  0.016701835          911 
 2007000   0.45810842   -6.8499033     450.9343  0.018723397  0.016688985          850 
 2008000   0.45388522    -6.841068    450.96974  0.018715543  0.016676162          782 
 2009000   0.45621109   -6.8506409     450.1231  0.018671109  0.016663341          854 
 2010000   0.45036552   -6.8436313    450.42346  0.018674273  0.016650531          823 
 2011000   0.44093685   -6.8490749    450.57929  0.018671444   0.01663775          756 
 2012000   0.46126984   -6.8502555     451.1291  0.018684936  0.016624966          881 
Loop time of 5159.44 on 48 procs for 2000000 steps with 4000 atoms

Performance: 66984.006 tau/day, 387.639 timesteps/s
99.4% CPU use with 48 MPI tasks x no OpenMP threads

MPI task timing breakdown:
Section |  min time  |  avg time  |  max time  |%varavg| %total
---------------------------------------------------------------
Pair    | 383.78     | 403.03     | 427.32     |  53.6 |  7.81
Neigh   | 35.648     | 36.833     | 38.263     |  11.2 |  0.71
Comm    | 333.26     | 356.75     | 377.83     |  60.1 |  6.91
Output  | 4.6845     | 4.6863     | 4.7268     |   0.3 |  0.09
Modify  | 4301.1     | 4311.4     | 4323.7     |   7.9 | 83.56
Other   |            | 46.74      |            |       |  0.91

Nlocal:        83.3333 ave          89 max          78 min
Histogram: 6 3 5 8 2 5 6 5 4 4
Nghost:        2399.40 ave        2421 max        2381 min
Histogram: 3 1 5 8 7 13 6 4 0 1
Neighs:        16512.4 ave       18903 max       14324 min
Histogram: 3 5 4 8 7 5 4 6 3 3
FullNghs:      33024.7 ave       35640 max       30855 min
Histogram: 7 2 4 9 3 8 6 5 2 2

Total # of neighbors = 1585185
Ave neighs/atom = 396.29625
Neighbor list builds = 107206
Dangerous builds = 1

#clear
#
#next RN
#
#jump SELF
Total wall time: 1:26:03
