
units lj                  # Use reduced LJ style units
atom_style atomic         # Uncharged point particles
atom_modify map hash      # Needed for indexing of clusters etc
                          # Used to be able to find where atoms are in relation to each other.

lattice fcc 1.0 spacing 1 1 1
Lattice spacing in x,y,z = 1.5874011 1.5874011 1.5874011
region box block 0 10 0 10 0 10 units lattice
create_box 2 box
Created orthogonal box = (0.0000000 0.0000000 0.0000000) to (15.874011 15.874011 15.874011)
  3 by 4 by 4 MPI processor grid
create_atoms 1 box
Created 4000 atoms
  using lattice units in orthogonal box = (0.0000000 0.0000000 0.0000000) to (15.874011 15.874011 15.874011)
  create_atoms CPU = 0.017 seconds
set type 1 type/fraction 2 0.72 78393
Setting atom values ...
  2894 settings made for type/fraction
mass 1 1.0
mass 2 1.0
pair_style lj/cut  3.5
pair_modify tail  yes
pair_coeff 1  1  1.0  1.0   # Intearaction between 1 and 1 set with epsilon = 1 and sigma = 1
pair_coeff 1  2  1.5  0.8
pair_coeff 2  2  0.5  0.88

write_data data.0
System init for write_data ...
Neighbor list info ...
  update every 1 steps, delay 10 steps, check yes
  max neighbors/atom: 2000, page size: 100000
  master list distance cutoff = 3.8
  ghost atom cutoff = 3.8
  binsize = 1.9, bins = 9 9 9
  1 neighbor lists, perpetual/occasional/extra = 1 0 0
  (1) pair lj/cut, perpetual
      attributes: half, newton on
      pair build: half/bin/atomonly/newton
      stencil: half/bin/3d
      bin: standard
WARNING: Not all mixed pair coeffs generated from mixing. Use write_data with 'pair ij' option to store all pair coeffs. (../write_data.cpp:312)


#############################
#   M E L T   S Y S T E M   #
#############################

velocity all create 2.4 8172548 mom yes dist gaussian # Assign velocities
                                                    # Temperature 2.4, random number seed, zero linear momentum
                                                                                # Gaussian distribution

timestep 0.002   # simulation timestep
thermo 1000       # output thermodynamic data every 1000 steps bf 100

# Define a fix  in this case with index 1 applied to all
# particles in the simulation. This fix is for simulations
# in the anisotropic NPT ensemble. Note that we use the MTK
# correction.
fix 1 all npt temp 2.4 2.4 0.1 iso 5.68 5.68 0.5 mtk yes tchain 5 pchain 5 # Use NPT ensemble
                                                                         # Set temperature and pressure and damping
                                                                         # Numbers of thermostats in chain and in barostat
run 10000          # run for 10000 steps
Per MPI rank memory allocation (min/avg/max) = 3.642 | 3.644 | 3.648 Mbytes
Step Temp E_pair E_mol TotEng Press Volume 
       0          2.4   -4.0785584            0  -0.47945841   -3.6688173         4000 
    1000    2.4173427   -3.6022328            0  0.022874756    5.7816549    3711.7194 
    2000    2.3892817   -3.6708958            0 -0.087869188     5.572979    3675.7429 
    3000     2.420634   -3.6640548            0 -0.034011512     5.433907    3696.5473 
    4000    2.4016864   -3.6854388            0 -0.083809749    5.6354567    3658.0838 
    5000    2.4202329    -3.642752            0   -0.0133103     5.560036    3697.3831 
    6000    2.3949558   -3.6912219            0 -0.099686401    5.7229997    3655.7912 
    7000    2.4234766   -3.6297078            0 0.0045983233    5.4591922    3711.7679 
    8000    2.3658791   -3.7040211            0  -0.15608957    5.2402113    3688.0464 
    9000    2.4733966   -3.6556734            0  0.053494072    5.6351476    3681.5164 
   10000    2.4082168   -3.6851456            0 -0.073723506    5.7965048    3651.8737 
Loop time of 2.62588 on 48 procs for 10000 steps with 4000 atoms

Performance: 658064.321 tau/day, 3808.243 timesteps/s
99.6% CPU use with 48 MPI tasks x no OpenMP threads

MPI task timing breakdown:
Section |  min time  |  avg time  |  max time  |%varavg| %total
---------------------------------------------------------------
Pair    | 1.1673     | 1.2531     | 1.4299     |   3.7 | 47.72
Neigh   | 0.21671    | 0.22349    | 0.25582    |   1.3 |  8.51
Comm    | 0.67542    | 0.89175    | 0.97555    |   5.5 | 33.96
Output  | 0.00025021 | 0.00025481 | 0.00032312 |   0.0 |  0.01
Modify  | 0.21218    | 0.24175    | 0.27178    |   3.6 |  9.21
Other   |            | 0.01549    |            |       |  0.59

Nlocal:        83.3333 ave          92 max          74 min
Histogram: 1 3 3 6 8 9 8 5 4 1
Nghost:        1746.83 ave        1777 max        1716 min
Histogram: 3 2 4 6 7 7 10 5 2 2
Neighs:        10452.4 ave       12007 max        9157 min
Histogram: 3 3 4 10 11 6 4 4 2 1

Total # of neighbors = 501716
Ave neighs/atom = 125.42900
Neighbor list builds = 907
Dangerous builds = 215

# Equilibrate just above the melting temperature to avoid step fn in T

fix 1 all npt temp 1.25 1.25 0.1 iso 5.68 5.68 0.5 mtk yes tchain 5 pchain 5
run 2000
Per MPI rank memory allocation (min/avg/max) = 3.644 | 3.646 | 3.649 Mbytes
Step Temp E_pair E_mol TotEng Press Volume 
   10000    2.4082168   -3.6851456            0 -0.073723506    5.7965048    3651.8737 
   11000    1.2411716   -5.3875182            0   -3.5262263    5.5316111    2816.0295 
   12000    1.2564671   -5.3989299            0   -3.5147004    5.9265655    2798.3216 
Loop time of 0.657561 on 48 procs for 2000 steps with 4000 atoms

Performance: 525578.576 tau/day, 3041.543 timesteps/s
99.6% CPU use with 48 MPI tasks x no OpenMP threads

MPI task timing breakdown:
Section |  min time  |  avg time  |  max time  |%varavg| %total
---------------------------------------------------------------
Pair    | 0.29664    | 0.32254    | 0.34977    |   2.1 | 49.05
Neigh   | 0.041692   | 0.043495   | 0.046212   |   0.5 |  6.61
Comm    | 0.21119    | 0.24146    | 0.26746    |   2.7 | 36.72
Output  | 5.1205e-05 | 5.3323e-05 | 6.9356e-05 |   0.0 |  0.01
Modify  | 0.041497   | 0.045066   | 0.048366   |   1.0 |  6.85
Other   |            | 0.004954   |            |       |  0.75

Nlocal:        83.3333 ave          92 max          76 min
Histogram: 1 5 4 12 6 6 8 4 1 1
Nghost:        2081.33 ave        2100 max        2063 min
Histogram: 3 1 8 5 10 4 4 9 0 4
Neighs:        13618.7 ave       14861 max       11603 min
Histogram: 1 0 1 5 5 10 7 10 5 4

Total # of neighbors = 653696
Ave neighs/atom = 163.42400
Neighbor list builds = 142
Dangerous builds = 8

#############################
# L I N E A R  Q U E N C H  #
#############################

# Define solid atoms. This closely follows ten Wolde  Ruiz-Montero and Frenkel  Faraday Discuss  1996  104  93-110
# Compute components of the per-atom q6 vector
compute q6 all orientorder/atom degrees 1 6 components 6 nnn NULL cutoff 1.3 # compute the Q6 parameter.
                                                                             # Use all neighbours within 1.3 unit cell.

# get number of connections
compute coord_number all coord/atom orientorder q6 0.5

# An atom is solid if it has 8 or more connections (of a possible 14)
variable is_solid atom c_coord_number>=8
group solid dynamic all var is_solid    # Must be dynamic to update
dynamic group solid defined

# do clustering
compute cluster solid cluster/atom 1.3 # Create a cluster where all atoms within are solid and max 1.3 units from another member

# define chunks one chunk per cluster
compute clus_chunks solid chunk/atom c_cluster nchunk every compress yes  # Says which atoms are in which chunk

# count the size of each chunk
compute size_chunks solid property/chunk clus_chunks count


# Find the maximum entry in the vector of chunk sizes
variable max_n equal max(c_size_chunks)


# Thermo style which includes this variable
# thermo_style custom step temp pe vol v_max_n

thermo ${N}  # Print the thermo information every 100 steps
thermo 1000  

# Reset the npt fix at a lower temperature (below freezing)
fix 1  all npt temp  ${temp} ${temp}  0.1  iso  5.68  5.68  0.5  mtk yes tchain  5  pchain  5
fix 1  all npt temp  0.45 ${temp}  0.1  iso  5.68  5.68  0.5  mtk yes tchain  5  pchain  5
fix 1  all npt temp  0.45 0.45  0.1  iso  5.68  5.68  0.5  mtk yes tchain  5  pchain  5

dump dmp2 all dcd ${N} traj.dcd
dump dmp2 all dcd 1000 traj.dcd


compute msd all msd com yes
variable twopoint equal c_msd[4]/6/(step*dt+1.0e-6)
fix 9 all vector 10 c_msd[4]
variable fit equal slope(f_9)/6/(10*dt)
thermo_style custom step temp pe c_msd[4] v_twopoint v_fit v_max_n

fix 1 all npt temp 1.25 ${temp} 0.1 iso 5.68 5.68 0.5 mtk yes tchain 5 pchain 5
fix 1 all npt temp 1.25 0.45 0.1 iso 5.68 5.68 0.5 mtk yes tchain 5 pchain 5
run 2000000 # 5000000  # Run for this many steps
Neighbor list info ...
  update every 1 steps, delay 10 steps, check yes
  max neighbors/atom: 2000, page size: 100000
  master list distance cutoff = 3.8
  ghost atom cutoff = 3.8
  binsize = 1.9, bins = 8 8 8
  4 neighbor lists, perpetual/occasional/extra = 1 3 0
  (1) pair lj/cut, perpetual
      attributes: half, newton on
      pair build: half/bin/atomonly/newton
      stencil: half/bin/3d
      bin: standard
  (2) compute orientorder/atom, occasional
      attributes: full, newton on
      pair build: full/bin/atomonly
      stencil: full/bin/3d
      bin: standard
  (3) compute coord/atom, occasional
      attributes: full, newton on
      pair build: full/bin/atomonly
      stencil: full/bin/3d
      bin: standard
  (4) compute cluster/atom, occasional
      attributes: full, newton on
      pair build: full/bin/atomonly
      stencil: full/bin/3d
      bin: standard
Per MPI rank memory allocation (min/avg/max) = 9.841 | 9.847 | 9.850 Mbytes
Step Temp PotEng c_msd[4] v_twopoint v_fit v_max_n 
   12000    1.2564671   -5.3989299 1.9591361e-30 1.3605111e-32 8.3333333e+20            3 
   13000    1.2668343   -5.3949543   0.63414006 0.0040650002  0.052911451            2 
   14000     1.266145   -5.4413765    1.2495501 0.0074377982  0.051610502            3 
   15000    1.2533463   -5.4569375    1.8966827  0.010537126  0.052334071            4 
   16000    1.2573271   -5.4078692    2.5478714  0.013270163  0.052639888            2 
   17000    1.2592765   -5.4155668    3.2233248  0.015800611  0.053406608            4 
   18000    1.2381075   -5.4220596    3.9618801  0.018342037  0.054216927            4 
   19000    1.2567015   -5.4286618    4.6899833  0.020570101  0.055593118            1 
   20000    1.2540922   -5.4328844    5.4277303  0.022615543  0.056440255            3 
   21000    1.2532913   -5.4092988    6.1338234  0.024340568  0.056920773            3 
   22000    1.2779993   -5.3883094    6.8713887  0.026027987  0.057506544            2 
   23000    1.2384758   -5.4406164    7.6271813  0.027634714  0.057989456            2 
   24000    1.2630836    -5.447437    8.2613006  0.028685071   0.05827817            2 
   25000    1.2647108   -5.4307105    8.9617803    0.0298726  0.058363449            4 
   26000    1.2682369   -5.4252038    9.5987401  0.030765192  0.058381183            2 
   27000    1.2446908   -5.4240747    10.142523  0.031304084  0.058172775            2 
   28000    1.2436095   -5.4595646    10.747483  0.031986557  0.057802048            2 
   29000    1.2357406   -5.4473691    11.472567  0.032967146  0.057471878            2 
   30000    1.2444426   -5.3990636    12.206128  0.033905912  0.057305838            2 
   31000    1.2457267   -5.4089932    12.885512  0.034638472   0.05717157            1 
   32000    1.2364656    -5.422655    13.409837   0.03492145  0.056982293            3 
   33000    1.2416036   -5.4604109    14.074434  0.035541499  0.056742678            2 
   34000    1.2544858   -5.4692705    14.742552  0.036133705  0.056587527            3 
   35000    1.2362027   -5.4328903    15.274269  0.036367306  0.056400446            4 
   36000    1.2403382   -5.4271279    16.145981  0.037374956  0.056263068            2 
   37000    1.2167364   -5.4009385     16.84293  0.037934526  0.056216433            3 
   38000    1.2031076   -5.4543452    17.304242  0.037947898  0.056118801            2 
   39000    1.2233265   -5.4835597    17.886538  0.038219098  0.055978613            3 
   40000     1.232803   -5.4763942    18.471463  0.038482215  0.055812511            3 
   41000    1.2573541   -5.4469734    18.984085  0.038585537  0.055589962            3 
   42000    1.2490562   -5.4749658    19.516875  0.038723957   0.05531317            5 
   43000    1.2770066   -5.4493414    20.172509  0.039094008   0.05504131            6 
   44000    1.2181525   -5.4602326    20.813879  0.039420224  0.054818449            3 
   45000     1.223666   -5.4719059    21.359877  0.039555328  0.054612646            2 
   46000    1.2195899   -5.4391428    22.057495  0.039959229  0.054438747            3 
   47000    1.2134902   -5.4366278    22.658584  0.040174794  0.054294146            1 
   48000     1.256268   -5.4734093    23.051682   0.04002028  0.054104342            1 
   49000     1.238263   -5.4991109     23.54672  0.040045442  0.053866222            2 
   50000    1.2130527   -5.4750064    24.116264  0.040193773  0.053665498            2 
   51000    1.2075979   -5.4374339    25.009158  0.040864636  0.053516926            3 
   52000     1.242459   -5.4288631    25.812588  0.041366326  0.053432453            5 
   53000    1.2102872   -5.4637305    26.252943  0.041278211  0.053361327            2 
   54000    1.2343776   -5.4576056    26.944016  0.041580271  0.053279111            3 
   55000    1.2368643   -5.4558089    27.672302   0.04192773  0.053215533            3 
   56000    1.2189165    -5.486382    27.923925  0.041553459  0.053125145            2 
   57000    1.2431221   -5.4652745     28.60729  0.041823523  0.053000698            3 
   58000    1.2245826   -5.4381012    28.950598  0.041595686  0.052863196            2 
   59000    1.2402796   -5.4695103    29.533449   0.04171391  0.052703685            2 
   60000    1.2126248   -5.4726399    29.898705  0.041525978  0.052531638            1 
   61000    1.2234194    -5.477585    30.605819  0.041811228  0.052370794            2 
   62000    1.2139448   -5.4579999    31.239721  0.041988872  0.052213281            4 
   63000    1.2287312   -5.4848323    31.731663  0.041973098  0.052067277            1 
   64000    1.2433474   -5.4191418    32.463646  0.042270372  0.051947241            2 
   65000    1.2455537   -5.5010406    32.834105  0.042095006  0.051828792            4 
   66000    1.2425688   -5.4479875    33.456671  0.042243272  0.051705868            4 
   67000    1.2367982    -5.465603    34.077571  0.042385039  0.051587366            2 
   68000    1.2493372    -5.468515    34.606704  0.042410176   0.05146354            2 
   69000     1.234757   -5.4599056     35.16944  0.042475168  0.051351499            3 
   70000    1.2417176   -5.4712832    35.867876  0.042699852  0.051261436            1 
   71000    1.2307729   -5.4855158    36.380542  0.042700167  0.051168646            2 
   72000    1.2142916   -5.4682542    37.106983  0.042947896  0.051094049            2 
   73000    1.2391172   -5.4562416    37.934593   0.04330433  0.051043997            3 
   74000    1.2408262     -5.41378    38.788174  0.043680375  0.051013602            3 
   75000    1.2140768   -5.4667757    39.259807  0.043622007  0.050990421            2 
   76000    1.2206482   -5.4875562    39.699061  0.043529672  0.050969942            3 
   77000    1.2246677   -5.5019266    40.581315  0.043919172  0.050953673            1 
   78000    1.2211869   -5.5073711      41.0274  0.043832692  0.050946013            2 
   79000    1.2304193   -5.4508309    41.777629  0.044069228  0.050941648            2 
   80000    1.2061372   -5.4667395    42.205082  0.043963627  0.050924159            1 
   81000    1.2174767   -5.4911781    42.752861  0.043984425  0.050901388            2 
   82000    1.2111713   -5.5009771    43.468136  0.044174934  0.050881994            3 
   83000    1.2142874   -5.5114372    44.180755  0.044358187  0.050879874            4 
   84000    1.2344429   -5.4599956    44.919038  0.044562538  0.050883683            4 
   85000      1.23389    -5.518357    45.504078  0.044611841  0.050888689            4 
   86000    1.2194679   -5.4746781    46.210718  0.044777828  0.050902309            4 
   87000     1.215987   -5.5221408    46.455871  0.044497961  0.050904363            2 
   88000    1.2161746   -5.4502907    47.548754  0.045027229  0.050904118            6 
   89000    1.2010177   -5.5319056    47.712459  0.044674586  0.050903158            2 
   90000    1.2254515   -5.4983392    48.655588   0.04505147  0.050904598            2 
   91000    1.2223987   -5.5092745     48.97367  0.044847683  0.050898089            3 
   92000    1.2221737    -5.432994    49.631804  0.044956344  0.050889225            3 
   93000    1.1991016   -5.5087036    50.247133  0.045024312  0.050873811            1 
   94000    1.2224626   -5.5291112    50.859864  0.045088532  0.050870379            3 
   95000    1.2355433   -5.5061078    51.502632  0.045177747  0.050869382            2 
   96000    1.1726389   -5.4871418    51.929561  0.045077743  0.050861734            3 
   97000    1.2242443   -5.4776142    52.687688  0.045264337  0.050856137            3 
   98000    1.2061431   -5.5035516    53.032349  0.045095535  0.050848352            3 
   99000    1.2153376   -5.4499196    54.217499  0.045637625  0.050844736            3 
  100000    1.2133885   -5.4613862    54.690179  0.045575149  0.050851979            2 
  101000    1.2118353   -5.5100047    55.153333   0.04550605  0.050850091            2 
  102000    1.1933929   -5.4901398    55.741276  0.045540258  0.050848626            3 
  103000    1.2123587   -5.5017581    56.289167  0.045541397  0.050848951            2 
  104000    1.2137494   -5.5046154    56.816666  0.045526174  0.050844381            2 
  105000    1.1962011   -5.4614097    57.743301  0.045828016  0.050843618            2 
  106000    1.2212809   -5.4900079    58.192689  0.045748969  0.050844276            3 
  107000    1.2026349   -5.4929071    58.612853  0.045648639  0.050826314            3 
  108000    1.1917134   -5.5082524    59.074833  0.045582433  0.050804395            2 
  109000    1.2021596   -5.4623268    59.718564  0.045656394  0.050781887            2 
  110000    1.1964965   -5.5144265    60.331295  0.045705526  0.050764612            7 
  111000    1.2103479   -5.5037614    60.701145   0.04557143  0.050747155            1 
  112000    1.2167488   -5.5069535    61.250471  0.045573267   0.05073075            3 
  113000    1.2193432   -5.5506381    61.607378  0.045433169  0.050699313            2 
  114000    1.2107377   -5.4914265    62.139279   0.04542345  0.050662055            3 
  115000    1.2179061   -5.4749789    62.864017  0.045553635   0.05062397            2 
  116000     1.186147   -5.4871339    63.357165  0.045515204  0.050597181            2 
  117000    1.2179109   -5.4994471    64.175213  0.045708841  0.050578383            2 
  118000    1.2100472   -5.4992356    64.670862  0.045671512  0.050549714            3 
  119000    1.1868272   -5.4911991     65.58779  0.045929824  0.050528246            2 
  120000    1.1964728   -5.5166076    65.840917  0.045722859  0.050508123            1 
  121000    1.1818542   -5.4869968    66.905433  0.046078122  0.050494051            3 
  122000    1.2013429    -5.524333    67.284895  0.045959628  0.050481568            3 
  123000    1.1877853   -5.5058815    67.855273  0.045972407   0.05046723            3 
  124000    1.1796655   -5.5487109     68.08998  0.045759395   0.05045144            3 
  125000    1.2013195   -5.5331298    69.210051  0.046140034  0.050439551            3 
  126000    1.1983058   -5.4750665    69.975001  0.046279762  0.050431824            2 
  127000    1.1995927   -5.4995398    70.573377   0.04630799  0.050420338            1 
  128000    1.2093034   -5.4880309    71.137341  0.046313373  0.050414537            3 
  129000    1.1974505   -5.5211394    71.704293  0.046320603  0.050409499            3 
  130000    1.1878872   -5.4974886    72.507408  0.046479108  0.050408843            2 
  131000    1.2002056   -5.4838188    73.178982  0.046551515  0.050406611            1 
  132000    1.1791457   -5.5373523    73.483252  0.046390942  0.050399617            3 
  133000    1.1967488   -5.5400447    74.325665  0.046569965  0.050396841            2 
  134000    1.1623191   -5.5291602    74.470199  0.046312313   0.05038848            1 
  135000    1.1842899   -5.5030994    74.987082  0.046288322  0.050381735            2 
  136000     1.175434   -5.5400768    75.779884  0.046433752  0.050370723            2 
  137000    1.2027751   -5.5484839    76.254629  0.046383594  0.050359846            3 
  138000    1.2082333   -5.5030148    76.930475    0.0464556  0.050350408            6 
  139000    1.2153442   -5.5022757    77.579019  0.046510203  0.050337636            5 
  140000     1.193366   -5.4795924    78.066142  0.046467942  0.050327152            3 
  141000    1.1986427   -5.5508797    78.477461  0.046381478  0.050313237            1 
  142000    1.2244058   -5.5524696    78.943961  0.046328616  0.050297218            3 
  143000    1.1936756   -5.5214319    79.595394  0.046384262  0.050277049            3 
  144000    1.2136295   -5.5349631    79.868293  0.046220077  0.050258382            5 
  145000    1.2289991   -5.5352366    80.307593  0.046153789  0.050233262            2 
  146000    1.2085744   -5.5477247    80.738483  0.046083609  0.050205546            1 
  147000     1.182676   -5.5037653    81.698665  0.046314436  0.050180723            6 
  148000    1.1896032   -5.4904023    82.330117  0.046357047  0.050153004            1 
  149000    1.2188509   -5.5191031    82.541598  0.046164204   0.05012382            4 
  150000    1.1847229   -5.5736294    82.678721  0.045932622   0.05009001            2 
  151000    1.1878475   -5.4987699    83.655747  0.046167631  0.050056302            1 
  152000     1.189081   -5.5542725    84.066505  0.046089092  0.050021216            4 
  153000    1.1882506   -5.5478813    84.443285  0.045993074  0.049984138            3 
  154000    1.1887999   -5.5500342    85.364329  0.046192819  0.049951486            3 
  155000    1.2064152    -5.521763     85.85655  0.046159435  0.049922303            2 
  156000    1.1814641   -5.5157568    86.178654  0.046035606  0.049889906            3 
  157000    1.1929346   -5.5532674    86.615302  0.045974152  0.049856334            3 
  158000    1.2148804   -5.5588215    87.036321  0.045905233  0.049825739            4 
  159000    1.1866695   -5.5631897    87.866025  0.046051376   0.04979389            2 
  160000    1.2052513   -5.5618168    87.813507  0.045736202  0.049758045            2 
  161000    1.1836156   -5.5500084    88.962976  0.046047089  0.049719183            3 
  162000    1.1964449   -5.5405454    89.252753   0.04591191  0.049684219            2 
  163000    1.1920303   -5.5598571    90.078295  0.046052298  0.049649881            3 
  164000    1.1990574     -5.56799    90.508272  0.045989975  0.049623279            2 
  165000    1.1921297   -5.5266809    91.150865   0.04603579  0.049592366            2 
  166000    1.1837904   -5.5696354     91.62589  0.045996933  0.049561837            3 
  167000    1.1660362   -5.5452647    92.289322  0.046052556  0.049529467            4 
  168000    1.2012059   -5.5594619    92.727903  0.045995984  0.049496528            3 
  169000    1.1577824   -5.5629499    93.361783  0.046036382  0.049465592            2 
  170000    1.1832957   -5.5115236    94.137841  0.046146001  0.049435666            2 
  171000    1.1737868   -5.5759234    94.270011  0.045940551  0.049408617            4 
  172000    1.1677309   -5.5400165    95.365758   0.04620434   0.04938469            2 
  173000    1.2004434   -5.5739329     95.73315  0.046114234  0.049357995            2 
  174000    1.1710198   -5.5568408     95.99751  0.045975819  0.049333304            3 
  175000    1.1990518   -5.5186941    96.744361  0.046068743  0.049309127            1 
  176000    1.2007749   -5.5776959    96.925744  0.045892871  0.049282921            3 
  177000    1.1645266   -5.5673284    97.649759  0.045974462   0.04925714            2 
  178000    1.1880221   -5.5392641     98.32375  0.046031718  0.049228606            7 
  179000    1.1921342   -5.5920609    98.471158  0.045843183  0.049195676            2 
  180000    1.1858066   -5.5922627    99.206045  0.045928724  0.049163617            1 
  181000    1.1979138    -5.564915    100.14893  0.046109082  0.049133457            2 
  182000    1.1759681    -5.534103    100.94065  0.046218244  0.049112151            3 
  183000    1.1661206   -5.5886135    101.16143  0.046066223  0.049090105            3 
  184000    1.1726346   -5.5689786    101.79066  0.046100841  0.049069687            2 
  185000     1.193485   -5.5424622    102.37718  0.046115847  0.049047877            4 
  186000    1.1608798   -5.5302873    103.28831  0.046276124  0.049029932            2 
  187000    1.1836459   -5.5580173    103.79844  0.046255991  0.049011523            1 
  188000    1.1968227    -5.591593    104.05658  0.046124372  0.048990569            2 
  189000    1.1726258   -5.5169398    104.65819  0.046145586  0.048970114            1 
  190000    1.1666293   -5.5429815    105.19639  0.046138768  0.048946683            2 
  191000    1.1592915   -5.5684776    105.87658   0.04619397  0.048923569            3 
  192000    1.1876021   -5.5654682    106.23739  0.046109977  0.048900703            2 
  193000    1.1664922   -5.6069045    106.42976  0.045954129  0.048877254            3 
  194000    1.1601945   -5.5895895    107.01923   0.04597046  0.048849798            1 
  195000    1.1759023   -5.5812173    107.30067  0.045854987  0.048823252            3 
  196000    1.1642223   -5.5971755    107.84873  0.045854053  0.048799816            1 
  197000    1.1454827   -5.5707427    108.91058  0.046070466  0.048774492            4 
  198000    1.1843158   -5.5569242    109.18446  0.045953057  0.048752014            2 
  199000    1.1854689   -5.5833687    109.93503  0.046036445  0.048726502            4 
  200000    1.1926942    -5.549925     109.9857  0.045827375  0.048699316            2 
  201000    1.1588086   -5.5793057     110.7116  0.045900332   0.04867311            2 
  202000     1.201303   -5.5391121    111.39512  0.045955083  0.048644483            1 
  203000    1.1766529   -5.5668847    111.52967  0.045783935  0.048614334            2 
  204000    1.1646926   -5.5808012    111.85063  0.045690616  0.048582417            3 
  205000    1.1736783   -5.5792808    112.27213  0.045639077   0.04855253            4 
  206000    1.1621508   -5.6120116     112.1488  0.045367636   0.04851933            2 
  207000    1.1387477   -5.5696059     113.3915  0.045648753  0.048486412            2 
  208000    1.1546161   -5.5702224    114.38099  0.045825718  0.048456016            3 
  209000    1.1765223   -5.6010439    114.48985  0.045649859  0.048427419            2 
  210000    1.1555623   -5.6184693    114.60156   0.04547681   0.04839841            3 
  211000    1.1532823   -5.5636694    115.47427  0.045605952  0.048368733            4 
  212000    1.1656513    -5.579593    116.38733  0.045749738  0.048339987            6 
  213000    1.1736692   -5.5693711    116.28386   0.04549447  0.048307367            3 
  214000    1.1487155   -5.6081771    116.86992  0.045510095   0.04827702            2 
  215000    1.1533544   -5.5911372    117.95525  0.045719088  0.048247204            4 
  216000    1.1594261   -5.6013014     118.1006  0.045563503  0.048221866            4 
  217000    1.1665987   -5.5997096      118.861  0.045645544  0.048197568            3 
  218000    1.1549379    -5.651624    119.40828  0.045645367  0.048173958            4 
  219000    1.1423024   -5.6096714    119.53483  0.045485095  0.048147997            2 
  220000    1.1747929   -5.6169446    119.88405  0.045410625  0.048119278            2 
  221000    1.1785407   -5.6103491    120.48684  0.045432445  0.048094136            3 
  222000    1.1905373   -5.5957439    121.63749  0.045659717  0.048064644            4 
  223000    1.1323544   -5.6201616    121.38447  0.045360415  0.048035677            2 
  224000    1.1629386   -5.6227523    122.60928  0.045613571  0.048007073            3 
  225000    1.1694827    -5.601733      123.205   0.04563148  0.047980692            4 
  226000    1.1608114   -5.5682359    123.60728  0.045577905  0.047955225            2 
  227000    1.1750405   -5.6035859    123.80195  0.045448586  0.047927502            2 
  228000    1.1890073   -5.6154658    124.34963  0.045449427  0.047899905            2 
  229000    1.1648666   -5.6337973    124.54409  0.045321722  0.047871249            2 
  230000    1.1545611    -5.633712    124.45245  0.045091468  0.047839655            4 
  231000    1.1658264   -5.6369979    125.51459  0.045279434  0.047811128            4 
  232000     1.197484    -5.610206    126.03016  0.045269454  0.047782963            7 
  233000    1.1543794    -5.586047    126.99078  0.045418733  0.047756577            1 
  234000    1.1645338   -5.6318518    127.48822  0.045401786  0.047730293            3 
  235000    1.1663484    -5.644537    128.67183  0.045628309  0.047707821            3 
  236000    1.1507646   -5.6159293    128.79163  0.045477269  0.047683769            3 
  237000     1.162229   -5.6146514    129.49618  0.045533114   0.04765921            3 
  238000    1.1410213   -5.5944419    129.61561  0.045383616  0.047635771            5 
  239000    1.1445685   -5.5737067    130.40404  0.045468632  0.047610663            2 
  240000      1.16613   -5.6005264    131.08306  0.045514951  0.047585488            3 
  241000    1.1386099   -5.6230506    131.43711  0.045448516  0.047564614            5 
  242000    1.1598701   -5.6008485    132.12354  0.045497086  0.047542746            5 
  243000     1.157764   -5.6276623    132.42407  0.045412917  0.047521746            2 
  244000    1.1272212   -5.6107224    133.68406  0.045657125  0.047502335            7 
  245000    1.1696501   -5.6197201    132.95872  0.045224053  0.047481507            2 
  246000    1.1555562   -5.6326717    133.83744  0.045337886  0.047459983            2 
  247000    1.1474269   -5.6370095    134.48458  0.045372667  0.047439564            2 
  248000    1.1440584   -5.6193636    134.76794  0.045284925  0.047418942            2 
  249000    1.1539732   -5.6521841    135.63622  0.045393649  0.047396158            2 
  250000    1.1644867   -5.6579941    135.20999  0.045069996   0.04737208            4 
  251000    1.1424995   -5.6406056    136.07564  0.045177835  0.047346032            2 
  252000    1.1631007   -5.6461322    136.20621  0.045041736  0.047317746            3 
  253000    1.1473347   -5.6230215    136.81433  0.045064009   0.04728854            2 
  254000    1.1236456   -5.6379318    137.32022  0.045052566  0.047260886            6 
  255000    1.1553058   -5.5926311    137.96709  0.045087284  0.047232898            3 
  256000    1.1343181    -5.627521    138.52008  0.045091173  0.047205408            3 
  257000    1.1642714   -5.6389996    138.68258   0.04496841  0.047175852            3 
  258000    1.1483554   -5.6164781    139.12837  0.044938105  0.047145124            5 
  259000    1.1270671   -5.6370157    139.48921  0.044880698   0.04711524            3 
  260000    1.1517261   -5.5894081     141.0625   0.04521234  0.047089523            2 
  261000    1.1372815   -5.5936962    141.34309  0.045128702  0.047063786            2 
  262000    1.1680631   -5.6535102    140.62875  0.044729245  0.047037093            1 
  263000    1.1660483   -5.5922791     142.6923  0.045213022  0.047012819            5 
  264000    1.1492425   -5.6119959    142.44044  0.044962259    0.0469882            3 
  265000    1.1540172   -5.6486599    143.02045  0.044974983  0.046961846            1 
  266000    1.1537422   -5.6563857    143.31864  0.044899322  0.046935961            3 
  267000     1.158926   -5.6597438    143.69311  0.044848036  0.046909784            4 
  268000    1.1526688   -5.6205601    144.63944   0.04497495  0.046883441            2 
  269000    1.1550394    -5.604173    145.52239  0.045081284   0.04685996            3 
  270000    1.1512787   -5.6439349    144.98848  0.044749531  0.046836282            5 
  271000    1.1507867   -5.6028365    146.21487  0.044961523   0.04681125            3 
  272000    1.1504246   -5.6623863    145.83913  0.044681106  0.046788585            3 
  273000    1.1381565   -5.6102414    147.54725  0.045038843  0.046765718            2 
  274000    1.1690685   -5.6479314    147.83656  0.044962458  0.046742034            4 
  275000    1.1563783   -5.6505514    147.91082  0.044821461  0.046717935            5 
  276000    1.1439463   -5.6652986    148.47971   0.04483083  0.046693236            2 
  277000    1.1535143    -5.663774    148.32265  0.044621737  0.046667867            1 
  278000    1.1599422   -5.6556989    149.21403  0.044728425  0.046640611            3 
  279000    1.1460287   -5.6430188      149.621  0.044689666  0.046613997            1 
  280000    1.1637901   -5.6099198    150.69577  0.044849931  0.046588419            2 
  281000    1.1549312   -5.6230891    150.62399  0.044669036  0.046561809            2 
  282000    1.1382251    -5.585182     151.1675  0.044671248   0.04653422            1 
  283000    1.1156697    -5.628371    151.25992  0.044540611  0.046505378            1 
  284000    1.1432216   -5.6821301    150.81362  0.044252821  0.046476214            3 
  285000    1.1510015   -5.6230695    152.72815  0.044657355  0.046447166            3 
  286000    1.1428435   -5.6563957    153.12434  0.044616649   0.04641893            8 
  287000     1.158421   -5.6394116    153.30999  0.044515095   0.04639163            2 
  288000    1.1429942   -5.6608359     153.8711  0.044522887  0.046365396            2 
  289000    1.1356241   -5.6629768    154.82408  0.044643622  0.046338891            3 
  290000    1.1267504   -5.6310755     155.3625  0.044644397  0.046312755            4 
  291000    1.1341777   -5.6437048    154.98168  0.044381926  0.046288143            2 
  292000    1.1499343   -5.6699477    155.56781  0.044397207  0.046261495            2 
  293000      1.14416   -5.6893607    156.28892  0.044450774  0.046233073            2 
  294000    1.1453154   -5.6626322    157.21722  0.044562705   0.04620762            2 
  295000    1.1521657   -5.6624215    156.27242  0.044144752   0.04618188            1 
  296000     1.123167   -5.6665565    157.39542  0.044311773   0.04615499            2 
  297000    1.1181818   -5.6812656    158.11063  0.044363252  0.046127819            4 
  298000    1.1320589    -5.682692    157.86255  0.044145009  0.046099993            5 
  299000    1.1361142   -5.6534092    159.18251  0.044365247  0.046073555            1 
  300000    1.1193411   -5.6777349    159.55508  0.044320856  0.046048514            3 
  301000    1.1302109   -5.6723632    160.18488  0.044347972  0.046022626            5 
  302000    1.1160661   -5.6716713    160.45036  0.044274382  0.045996192            4 
  303000    1.1260917   -5.6680063    160.80515   0.04422584   0.04597031            2 
  304000    1.1339014   -5.6914896    161.15194  0.044175423  0.045946575            4 
  305000    1.1233476   -5.6684328    162.05982   0.04427864  0.045922961            2 
  306000    1.1456588   -5.6731389    163.08092  0.044412014  0.045899332            2 
  307000    1.1417957   -5.6784634    163.63646   0.04441815  0.045877746            6 
  308000    1.1359539   -5.7081961     164.0566  0.044387608  0.045855459            8 
  309000    1.1234396   -5.7059071    164.40966  0.044339175  0.045834457            6 
  310000    1.1057177   -5.6613261    165.61615  0.044520471  0.045812184            4 
  311000     1.139909   -5.6627594    164.92275  0.044191518  0.045790886            5 
  312000    1.1295635   -5.6636803    166.22418  0.044397484  0.045772264            5 
  313000    1.1548222    -5.680705    166.30753   0.04427783  0.045751327            3 
  314000    1.1031927   -5.6838162    166.57723  0.044208396  0.045729815            5 
  315000    1.1553582   -5.6782648    168.08459  0.044466823  0.045709784            2 
  316000    1.1446719   -5.7061186    168.07968   0.04432481  0.045688965            2 
  317000    1.1422222    -5.664099    168.21448  0.044220421  0.045668381            2 
  318000    1.1431533   -5.6859712    168.43334  0.044138716  0.045646709            3 
  319000    1.1147739    -5.673708    169.14925  0.044187369  0.045624879            2 
  320000    1.1282457    -5.689707    169.91582  0.044248913  0.045603359            3 
  321000     1.149273   -5.6671685    169.89307  0.044105158  0.045582746            2 
  322000     1.099447   -5.6868626    170.28966  0.044070823  0.045560747            2 
  323000    1.1309362   -5.7030454    170.61916   0.04401939  0.045539236            3 
  324000    1.1325047   -5.6519614    171.58665   0.04413237  0.045516539            3 
  325000    1.1305864   -5.6441798    172.33705  0.044188986  0.045493418            1 
  326000    1.1373641   -5.6953487    171.37994  0.043808778  0.045469034            4 
  327000    1.1460696   -5.6887012    172.47771  0.043954564  0.045443789            4 
  328000    1.1234895   -5.6638299    172.54042  0.043836489  0.045418378            5 
  329000    1.1273801   -5.6892629    172.74306  0.043754575  0.045393641            5 
  330000     1.101602   -5.6931242    173.42335  0.043793775  0.045368305            4 
  331000    1.1212745   -5.6633062    173.86814  0.043773449  0.045344342            3 
  332000     1.110875   -5.6936399    174.56334  0.043816098  0.045320566            2 
  333000    1.1092702   -5.7041583    175.42445  0.043900013  0.045297804            2 
  334000     1.144431   -5.6739681    175.05407  0.043676164  0.045275548            4 
  335000    1.1356648   -5.6961592     176.7217  0.043960621  0.045253445            2 
  336000    1.1116767    -5.684819    177.32037  0.043978266  0.045231141            4 
  337000    1.1189216   -5.7008509    177.51771  0.043896566  0.045210425            3 
  338000    1.1176968    -5.664252    178.39202  0.043982255  0.045189052            3 
  339000    1.1383039   -5.7072235    178.22643  0.043811808  0.045167731            2 
  340000    1.1058028   -5.7191298    178.47048  0.043742765  0.045143986            3 
  341000    1.1179917   -5.6987463    178.89351  0.043717867  0.045119509            5 
  342000    1.1122115    -5.693605     179.4936  0.043736257  0.045098017            7 
  343000    1.1326422   -5.7143385    180.27088  0.043797589   0.04507499            5 
  344000    1.1175097   -5.6725557    180.81022  0.043800926  0.045052846            3 
  345000    1.1162581   -5.7019789    180.38184  0.043570493   0.04503086            1 
  346000    1.1332601   -5.7040502      180.597  0.043496387  0.045008086            2 
  347000     1.120638   -5.6878329    181.13514  0.043500275  0.044982816            5 
  348000     1.104633   -5.7185527    182.30932  0.043656447  0.044959048            3 
  349000    1.1139426   -5.7231162    182.17205  0.043498579  0.044935053            2 
  350000    1.1046896   -5.6795434    181.82195  0.043290939  0.044909742            2 
  351000    1.0920454   -5.6993329    183.73012  0.043620635  0.044885428            3 
  352000    1.1132107   -5.6792448     183.8869  0.043533831  0.044861174            5 
  353000    1.1382927   -5.6999276    183.69971  0.043366315  0.044836439            4 
  354000    1.1274899   -5.6987538    184.92152  0.043531431  0.044811459            4 
  355000     1.122929   -5.7242522     184.2246  0.043245212   0.04478683            3 
  356000    1.1162793   -5.6909262    185.02541  0.043311192   0.04476132            5 
  357000      1.10025   -5.7138852     185.4357  0.043285645  0.044736871            2 
  358000    1.1313964   -5.6940256    186.03783  0.043304895  0.044712036            3 
  359000    1.1155466   -5.7454751    185.57114  0.043075937  0.044686678            1 
  360000     1.087812   -5.7000079    186.78073  0.043236279  0.044661388            3 
  361000    1.1179241   -5.7173376    186.86621  0.043136245  0.044635654            2 
  362000     1.111779   -5.7041373    187.15351  0.043083221  0.044609043            6 
  363000    1.0960339    -5.691443    187.74284  0.043099825   0.04458253            3 
  364000    1.1106084   -5.7296199    188.34579  0.043119456  0.044556285            3 
  365000    1.0972727   -5.7164587    188.82709  0.043111207  0.044528639            3 
  366000    1.0877939   -5.7181997    188.97597  0.043027316  0.044501174            4 
  367000    1.1116005   -5.7574527    188.65324  0.042836795  0.044473361            3 
  368000    1.0789492   -5.7150994    189.73451  0.042965242  0.044445629            1 
  369000    1.1035542   -5.7187588    190.35116  0.042988066  0.044418903            3 
  370000    1.1397768   -5.7429981    190.44934  0.042893995  0.044392317            1 
  371000    1.1041085   -5.6893659    190.47437  0.042784001  0.044365524            2 
  372000    1.1237189   -5.7356805    191.50132   0.04289904  0.044339023            3 
  373000    1.0979134   -5.7245468    192.06338  0.042909603  0.044312657            2 
  374000    1.0897475   -5.7361639    191.87924   0.04275384  0.044285447            6 
  375000    1.1129811   -5.7355383     191.8055  0.042623444  0.044256905            4 
  376000    1.0958946   -5.7018143    192.01638  0.042556823  0.044227094            3 
  377000    1.0787322   -5.7501818    192.59997  0.042572939  0.044196882            8 
  378000    1.1069268    -5.741368    193.08543  0.042567335  0.044168012            1 
  379000    1.0888213   -5.6856098    193.44784  0.042534705  0.044138066            2 
  380000    1.1142398   -5.7222616    193.44972  0.042423184  0.044108071            3 
  381000    1.0986002   -5.7449727    193.10035  0.042235423  0.044076384            3 
  382000    1.1168735   -5.7498616    193.70323  0.042256376  0.044042733            2 
  383000    1.1152812   -5.7820985    193.63267  0.042130695  0.044009446            2 
  384000    1.0988376   -5.7051956    195.32599  0.042388452  0.043977808            4 
  385000     1.097618    -5.668026     195.8986  0.042402294  0.043947424            2 
  386000    1.1085456   -5.6969578    196.03674  0.042322267  0.043916258            2 
  387000    1.0816169   -5.7408195    196.03545  0.042212629  0.043884844            3 
  388000    1.1074629   -5.7277461    196.09575  0.042116785  0.043852947            3 
  389000    1.0969205   -5.7469574    196.86229  0.042172728  0.043819347            3 
  390000    1.1293773   -5.7580986    196.76355  0.042043494  0.043785773            2 
  391000    1.0924894   -5.7394837    197.70757  0.042137164  0.043753635            2 
  392000    1.1171299   -5.7406911    198.55622  0.042210081  0.043721948            7 
  393000    1.0858371   -5.7624366    197.56464  0.041892417  0.043689553            4 
  394000    1.1018332   -5.7267455    198.29254  0.041940046   0.04365695            2 
  395000    1.0987463   -5.7770348    199.01916  0.041987164  0.043623969            3 
  396000    1.0732076   -5.7640107    199.81949  0.042049557  0.043591023            3 
  397000    1.1116585    -5.776577    200.07645  0.041997576  0.043559711            2 
  398000    1.0846257   -5.7445536    200.67919  0.042018255  0.043528889            2 
  399000    1.0852232   -5.7511555    200.79585  0.041937312  0.043497713            6 
  400000    1.0783255   -5.7808346    201.03836  0.041882991  0.043466236            3 
  401000    1.0919149   -5.7272958    201.88523  0.041954537  0.043434357            3 
  402000    1.1032476   -5.7761251    201.03416  0.041673747  0.043401715            5 
  403000    1.0777912   -5.7776677    201.85052  0.041739149  0.043369822            2 
  404000    1.0751512   -5.7569168    202.12673  0.041692806  0.043337778            5 
  405000    1.0934364   -5.7140387      203.814  0.041937037  0.043306079            2 
  406000    1.0925008   -5.7374169    204.31578  0.041936736  0.043275157            2 
  407000    1.0721483   -5.7354913    203.97007  0.041762914  0.043245153            2 
  408000    1.1114366   -5.7305956    203.96779  0.041660089  0.043214929            4 
  409000    1.0754291   -5.7492944     205.0736  0.041783537  0.043184084            4 
  410000    1.0951003   -5.7761351      204.445  0.041553862  0.043152891            2 
  411000     1.103678   -5.7714198    205.39537  0.041645452  0.043121815            4 
  412000    1.1005986   -5.7576432    205.95711  0.041657991  0.043090257            2 
  413000    1.0707168   -5.8112943    205.74823  0.041514977   0.04305976            2 
  414000    1.1002925   -5.7576777    206.62751  0.041591688  0.043029823            2 
  415000    1.0821847   -5.7887006     206.3381  0.041433353  0.043000525            2 
  416000    1.1214298   -5.7746701     207.4421  0.041554908  0.042970289            4 
  417000    1.0816517    -5.758058    207.75404  0.041517594  0.042939785            3 
  418000    1.0727054   -5.7799325    208.12979  0.041493181  0.042909205            4 
  419000    1.0828735   -5.7403783    208.39295  0.041446489  0.042878651            2 
  420000    1.0842176   -5.7817513    208.18836  0.041307214  0.042848879            7 
  421000    1.0916456   -5.7676854    209.45995  0.041460798  0.042817553            4 
  422000    1.0817308   -5.7626852    209.63706  0.041397524  0.042786654            3 
  423000    1.0809303   -5.7836865    209.81073  0.041333871  0.042755676            5 
  424000    1.0835168   -5.7525632    210.90925   0.04145229  0.042725164            4 
  425000    1.0750619   -5.7826124    210.25072   0.04122563  0.042693355            5 
  426000     1.089536   -5.7719487     210.3971  0.041157492  0.042661731            2 
  427000    1.0952182   -5.7557132     211.1988  0.041217564  0.042629955            2 
  428000    1.1152367   -5.7721996    211.79461  0.041237269  0.042598977            3 
  429000     1.074888    -5.781782    211.77074  0.041136508  0.042568113            7 
  430000     1.081701    -5.823809    212.28424  0.041140357  0.042536862            2 
  431000    1.0809625   -5.7698265    213.17307  0.041216758  0.042507365            2 
  432000    1.0586216   -5.7721339    213.52158  0.041188577  0.042477919            4 
  433000    1.0808118   -5.7815953    213.70374   0.04112851  0.042447487            3 
  434000    1.1000857   -5.8187852    213.80502   0.04105319   0.04241838            4 
  435000    1.1013171   -5.7815484    214.96085   0.04118024  0.042390246            7 
  436000    1.0877799    -5.814028    214.89317  0.041072853  0.042361253            3 
  437000    1.0575418   -5.7897641    215.95272  0.041180915  0.042332975            3 
  438000    1.0550824   -5.7902371     216.3321  0.041159076  0.042304267            5 
  439000    1.0969962   -5.7849814    216.11528  0.041024162  0.042275266            3 
  440000    1.0767956   -5.7595247    217.44153  0.041182109   0.04224664            3 
  441000    1.0539011   -5.8349896    216.30136  0.040873272  0.042217318            2 
  442000    1.0852516   -5.7977522    217.69627  0.041043791  0.042187633            7 
  443000    1.0801217   -5.7777164    217.86148  0.040982221  0.042159278            1 
  444000    1.0688397   -5.8059456    218.22019  0.040957242  0.042130369            6 
  445000    1.0770991   -5.7844113    218.80794   0.04097527  0.042102083            7 
  446000    1.0715919   -5.7877116    218.97945  0.040915443  0.042074292            6 
  447000    1.0503006   -5.8035671    218.94569  0.040817616     0.042046            1 
  448000    1.0691573    -5.774752    220.13749  0.040948194  0.042017132            3 
  449000    1.0551546   -5.8066994    219.65818  0.040768036  0.041989315            3 
  450000    1.0733406   -5.8201844    220.19882   0.04077756  0.041961355            4 
  451000    1.0812923   -5.7714482    220.53023   0.04074838  0.041933132            1 
  452000    1.0617353   -5.7972371    220.48839  0.040650514  0.041903209            5 
  453000    1.0749533   -5.8080138     221.9808  0.040835319  0.041874473            3 
  454000    1.0820734   -5.8032136     221.7476  0.040702569  0.041845942            5 
  455000    1.0748595   -5.7537501    221.71332  0.040606835  0.041817191            2 
  456000    1.0725213   -5.8243242    221.68281  0.040512209  0.041787934            7 
  457000    1.0586921   -5.7802088    223.26839  0.040712689  0.041758433            3 
  458000    1.0537048   -5.8025796    223.50869  0.040667519   0.04172997            6 
  459000    1.0836998   -5.8243003    222.92467  0.040472889  0.041702684            4 
  460000    1.0626885   -5.7828039    224.39581  0.040651414  0.041674664            9 
  461000    1.0794418   -5.8407818     224.5914  0.040598589  0.041647897            4 
  462000     1.059668   -5.8028232    224.38811  0.040474046  0.041619988            4 
  463000    1.0566764   -5.7813347    226.03603   0.04068323  0.041591836            4 
  464000    1.0741246   -5.8210703    225.52475  0.040503726  0.041564147            5 
  465000    1.0654222   -5.8147865     226.3507  0.040564641  0.041536441            4 
  466000    1.0742364   -5.7930628    225.58242  0.040340204  0.041507693            5 
  467000    1.0606968   -5.7893868    227.07749  0.040520608  0.041479593            4 
  468000    1.0812467   -5.7823908    227.54988  0.040518141  0.041451428            2 
  469000     1.071812   -5.7906109    227.20383  0.040370262   0.04142396            6 
  470000    1.0585599   -5.8234822    228.29232  0.040477362  0.041395937            5 
  471000    1.0537525   -5.8101523    228.87022   0.04049367  0.041369039            4 
  472000    1.0853495   -5.7811043    228.83345  0.040401386  0.041341791            3 
  473000    1.0706043   -5.7868464    230.08671  0.040536771  0.041315835            3 
  474000    1.0745891   -5.8155619    229.89283  0.040417165  0.041289541            4 
  475000    1.0696517   -5.8457578    229.39461  0.040244668  0.041262844            3 
  476000    1.0745687    -5.811178    229.99163  0.040264641  0.041235201            6 
  477000     1.036683   -5.8288795    229.91127  0.040166189  0.041208085            2 
  478000    1.0400082   -5.8283907    230.22466  0.040136795  0.041180324            5 
  479000    1.0455754   -5.8241344    231.23239  0.040228322  0.041152525            4 
  480000    1.0585573   -5.8171593    230.62091  0.040038353  0.041125417            2 
  481000    1.0654883   -5.7976969    232.12658   0.04021597  0.041099075            4 
  482000     1.074257   -5.8392566    232.11523  0.040130571  0.041072687            3 
  483000    1.0669535    -5.871355    232.54537  0.040121699  0.041046795            3 
  484000    1.0484135   -5.8262206     233.8157  0.040257524  0.041020725            5 
  485000    1.0627776   -5.8378295     234.2306  0.040245808  0.040994578            3 
  486000    1.0566674   -5.8390649    234.88788  0.040275699  0.040969415            3 
  487000    1.0399757   -5.8183755    234.88751  0.040192934  0.040945496            3 
  488000    1.0610889    -5.820002    235.71838  0.040252455  0.040921655            3 
  489000    1.0598061   -5.8267039    236.53437  0.040309198  0.040897543            4 
  490000    1.0588906    -5.844865    236.12456  0.040157238   0.04087359            3 
  491000    1.0672702   -5.8509399    236.55153  0.040147917  0.040849245            2 
  492000    1.0433754   -5.8125191    236.69291  0.040090263  0.040825183            4 
  493000    1.0479637    -5.815577    237.23103  0.040099903  0.040800466            3 
  494000    1.0496743   -5.8205414    237.68857  0.040095913  0.040775662            7 
  495000    1.0618187   -5.8426312    237.62033  0.040003422  0.040751263            4 
  496000    1.0562134     -5.75222    240.04291  0.040329789  0.040727698            2 
  497000    1.0350871   -5.8157897    238.83957  0.040046876  0.040704578            2 
  498000    1.0618588   -5.8404043    238.43843  0.039899336  0.040680571            5 
  499000    1.0828201   -5.8413822    238.94538  0.039904037  0.040656249            8 
  500000    1.0570786   -5.8353807    239.88672  0.039981121  0.040632523            3 
  501000    1.0465637   -5.8434944     239.9303  0.039908567   0.04060889            4 
  502000    1.0325923   -5.8040454    241.38998  0.040071378  0.040585071            4 
  503000    1.0680041    -5.798187    240.94156  0.039917422  0.040561562            3 
  504000    1.0663175   -5.8422353    241.63067  0.039952161  0.040538009            5 
  505000    1.0572583   -5.8459058    241.23259  0.039807358  0.040514192            3 
  506000    1.0543094   -5.8418599    242.06944  0.039866508  0.040490646            4 
  507000    1.0628595   -5.8210466    242.61724  0.039877916  0.040467146            2 
  508000    1.0557936    -5.860617    242.19787  0.039730622  0.040443339            2 
  509000    1.0371216   -5.8414503    243.00605  0.039784881   0.04041944            4 
  510000     1.035868   -5.8913304    242.30677  0.039592609  0.040395438            4 
  511000    1.0684399   -5.8658717    243.59058  0.039724491  0.040371348            2 
  512000    1.0455697   -5.8572674    244.81353  0.039845953  0.040348079            3 
  513000    1.0595769   -5.8370459    245.25263  0.039839608  0.040325909            3 
  514000      1.05988   -5.8187712    246.68448  0.039994242  0.040304082            3 
  515000    1.0484858   -5.8156586     247.1838  0.039997379  0.040282981           13 
  516000    1.0540955   -5.8084701    245.94607  0.039719972  0.040261614            2 
  517000    1.0476913   -5.8251089     247.4979  0.039893279  0.040240223            3 
  518000    1.0323029   -5.8448753    247.41537  0.039802988  0.040218439            4 
  519000    1.0427564   -5.8719606    246.12469  0.039519057  0.040195871            3 
  520000    1.0422633   -5.8731374    247.16006  0.039608983  0.040173707            2 
  521000    1.0538189   -5.8589407    247.61935  0.039606421  0.040152237            5 
  522000    1.0384318    -5.907533    247.36588  0.039490083   0.04013003            4 
  523000    1.0383508   -5.8449515    248.79708  0.039642619  0.040107023            5 
  524000    1.0685404   -5.8498311    248.49478   0.03951889  0.040084571            5 
  525000    1.0533182   -5.8536596    248.61141  0.039462128   0.04006219            2 
  526000    1.0685664   -5.8774186    249.19004  0.039478777    0.0400392            2 
  527000    1.0601225   -5.8688361    249.89035  0.039514603   0.04001704            4 
  528000    1.0635377   -5.8568823    250.15682  0.039481822  0.039994213            2 
  529000    1.0554739   -5.8857361    250.15765  0.039407317  0.039972326            2 
  530000    1.0524318   -5.8652998    251.06303  0.039475318  0.039950314            4 
  531000    1.0608596    -5.877265    252.03803  0.039553991  0.039928171            7 
  532000    1.0251194   -5.8602835    252.66511  0.039577868  0.039906655            4 
  533000    1.0310062   -5.8549968    251.64083   0.03934347  0.039884932            2 
  534000    1.0504101   -5.8563584    252.09956   0.03934138  0.039863536            3 
  535000     1.030769   -5.8372244    253.37119  0.039465917  0.039842004            3 
  536000    1.0211433   -5.8525259    254.37896  0.039548968  0.039820218            5 
  537000    1.0434617   -5.8370682    254.19948  0.039447467   0.03979924            5 
  538000    1.0186493    -5.826166    254.72203  0.039455085  0.039778892            5 
  539000    1.0490656   -5.8292612    254.60009  0.039363032  0.039757116            3 
  540000    1.0406448   -5.8611412    255.08723  0.039365313   0.03973569            5 
  541000    1.0421251   -5.8897429    254.63342  0.039222646  0.039713821            3 
  542000    1.0320922     -5.87066    255.48338  0.039280962   0.03969119            2 
  543000    1.0492332   -5.9111076    254.78047  0.039100747  0.039668666            6 
  544000    1.0454655   -5.9158425    255.60449    0.0391551  0.039646784            1 
  545000    1.0126111   -5.9434142    256.36663  0.039199791  0.039624276            2 
  546000    1.0411318   -5.9243292    256.87231  0.039205175  0.039602862            5 
  547000     1.046216   -5.8905356    257.25954  0.039192495  0.039580941            4 
  548000    1.0372064   -5.9020956     257.2799  0.039124072  0.039559174            5 
  549000     1.050081   -5.9097626    257.10799  0.039026713  0.039537126            3 
  550000    1.0318642   -5.8515386    258.28234  0.039133688  0.039515567            1 
  551000    1.0263767   -5.8968441    257.21762  0.038901636   0.03949306            8 
  552000    1.0160664   -5.9099757    258.15984  0.038973406  0.039469915            3 
  553000     1.055444   -5.9089617    257.92886  0.038868123  0.039446983            1 
  554000     1.024724    -5.886557    257.97625  0.038805092  0.039424136            6 
  555000    1.0274916   -5.8484308    258.70528  0.038844637  0.039401447            3 
  556000    1.0242493   -5.9021178    258.16535  0.038693847    0.0393781            3 
  557000    1.0159493    -5.902108    259.26596  0.038789042  0.039354441            2 
  558000    1.0375665   -5.9181652     259.3745  0.038735737  0.039330994            1 
  559000    1.0302244   -5.8942249     259.5687  0.038695393  0.039307206            6 
  560000    1.0127537   -5.9340363     259.5527  0.038623914  0.039283405            3 
  561000     1.047327    -5.879365    260.45123  0.038688536  0.039259164            3 
  562000    1.0277471   -5.8722189      261.207  0.038731761  0.039235103            4 
  563000    1.0281054   -5.8696061    261.40746  0.038692637  0.039211427            5 
  564000    1.0182066   -5.8838378    261.28743  0.038606299   0.03918765            5 
  565000    1.0041936   -5.8807659    261.23777  0.038530644   0.03916421            2 
  566000      1.02006   -5.8870258     262.4492  0.038640931  0.039141032            3 
  567000    1.0358102   -5.8704073    263.77298   0.03876734  0.039117662            2 
  568000    1.0129213   -5.8818498    262.42415  0.038501195  0.039094534            3 
  569000    1.0221271   -5.9303281     263.4799  0.038588151  0.039071211            3 
  570000    1.0323531   -5.9089967    263.04091  0.038456274  0.039047925            3 
  571000      1.02506   -5.8826503    264.29027   0.03857126  0.039024859            2 
  572000    1.0375883   -5.8886399    265.26427  0.038645727  0.039001966            2 
  573000    1.0150948   -5.9091569    264.04907  0.038401552  0.038978692            5 
  574000    1.0413517   -5.8873576    265.74923   0.03858148  0.038955742            5 
  575000    1.0239017   -5.8883401    264.96364  0.038400527  0.038932841            3 
  576000    1.0160106   -5.8951627    265.92277  0.038472623  0.038910068            3 
  577000    1.0086255   -5.9182581    265.67398  0.038370014   0.03888743           10 
  578000    1.0245863    -5.901776    265.99037  0.038349246  0.038865143            2 
  579000    1.0135976   -5.9092022    266.39286  0.038340941   0.03884213            3 
  580000    1.0277777   -5.8915652    268.00243  0.038506096  0.038819464            2 
  581000    1.0270726   -5.9323962    267.47319  0.038363912  0.038796991            7 
  582000     1.025497     -5.92006     267.7305  0.038334836  0.038774923            3 
  583000    1.0198245   -5.9446552    267.41291  0.038223686  0.038752811            2 
  584000    1.0262906   -5.9466427    267.70503  0.038199919  0.038730785            3 
  585000    1.0131661   -5.9357791    268.45688  0.038241721  0.038709204            5 
  586000    1.0126206   -5.9248142    269.87015  0.038377439  0.038687388            2 
  587000    1.0395621   -5.8938388     270.1333  0.038349418  0.038666236            2 
  588000    0.9975292   -5.9330992    270.11851  0.038282102  0.038645149            3 
  589000    1.0208859   -5.9528622    270.30195   0.03824306  0.038624121            5 
  590000    1.0202441   -5.8980256    271.60679  0.038362541  0.038603063            3 
  591000    1.0010626   -5.9141953    271.30245  0.038254717  0.038581974            4 
  592000    1.0245517   -5.9364004    271.63393  0.038236759  0.038561041            7 
  593000    1.0495937   -5.9213474    271.20973  0.038112666  0.038539826            4 
  594000    1.0088511   -5.9387224    273.15856  0.038321907  0.038519429            3 
  595000    1.0173914   -5.9516656    272.31766  0.038139728  0.038499053            5 
  596000    1.0252594   -5.9545623    273.02082  0.038174052   0.03847811            4 
  597000    1.0123949   -5.9203542    273.75546  0.038212655  0.038457425            4 
  598000    1.0083316   -5.9234529    273.52964  0.038117286  0.038436638            3 
  599000    1.0212158   -5.9380356    274.37815  0.038171695  0.038415312            4 
  600000    1.0255588   -5.9594403     273.6184  0.038002555  0.038394118            8 
  601000    1.0182101   -5.9128753    274.87905  0.038114123   0.03837197            4 
  602000    1.0087417   -5.9709672    274.53618  0.038003347   0.03835064            3 
  603000    1.0255471   -5.9824277    274.27361  0.037904037  0.038329279            3 
  604000    1.0243195   -5.9600696    275.56604  0.038019597  0.038307462            1 
  605000    1.0047069   -5.9151849    275.76742  0.037984494  0.038286236            3 
  606000    1.0174138   -5.9381477     274.8214  0.037791721  0.038264723            3 
  607000    0.9980828   -5.9401782    275.74498  0.037856257  0.038242772            6 
  608000    1.0143853   -5.9292188    276.45662  0.037891532  0.038220846            2 
  609000    1.0102194   -5.9533819    277.06293  0.037912279  0.038199431            2 
  610000      1.02843   -5.9526849    276.55754  0.037781084  0.038177575            3 
  611000   0.99793822   -5.9906737    276.35946  0.037692234  0.038156264            2 
  612000   0.99008654    -5.935792    277.35663  0.037766426  0.038134507            2 
  613000    1.0073244   -5.9246015    278.40715  0.037847628  0.038112842            5 
  614000    1.0042953   -5.9418168    279.54334  0.037940193  0.038092061            4 
  615000    1.0063743   -5.9362543    279.60647  0.037887056  0.038071605           10 
  616000     1.012824   -5.9392839    278.76079  0.037711145  0.038050906            6 
  617000    1.0199419   -5.9658224    279.94898  0.037810505  0.038030051            3 
  618000    0.9959605   -5.9615598    279.91709  0.037745023  0.038008739            3 
  619000    1.0057937   -5.9804126    279.39567  0.037613849  0.037987082            3 
  620000    1.0030363   -5.9492037    280.64879  0.037721612  0.037965959            7 
  621000    1.0188205   -5.9410052    279.64427  0.037526069  0.037944792            3 
  622000    1.0091196   -5.9109701    281.46719  0.037709966  0.037923637            2 
  623000   0.98362079   -5.9783995    280.92947   0.03757751  0.037902073            9 
  624000    1.0176881   -5.9558657    282.00843  0.037661382  0.037880958            4 
  625000    1.0194999   -5.9747842     281.7606  0.037568079  0.037859207            5 
  626000    0.9993204   -5.9706642    281.53029  0.037477408  0.037837036            6 
  627000   0.99499992   -5.9454785    282.48641  0.037544712  0.037815123            3 
  628000   0.99072733   -5.9313594    281.61663   0.03736951  0.037793115            7 
  629000     1.016205   -5.9544552     282.3947  0.037413182   0.03777105            4 
  630000   0.99146164   -5.9841215    281.75575  0.037269279  0.037749101            4 
  631000    0.9984004   -5.9559023    282.53758  0.037313467  0.037726669            6 
  632000   0.98712178   -5.9965992    283.12367  0.037331707  0.037704413            3 
  633000    1.0114813    -5.992195      282.694  0.037216166  0.037682019            5 
  634000   0.98276786   -5.9501748    283.76483  0.037298217  0.037659405            6 
  635000   0.96929645   -5.9672207    283.88784  0.037255622  0.037636735            4 
  636000    1.0063939   -6.0161001    283.86408   0.03719393  0.037614392            2 
  637000    1.0068186   -5.9754655    284.06858  0.037162295  0.037591917            6 
  638000   0.99002743   -5.9788276    284.97805  0.037222838  0.037569511            5 
  639000    0.9972185   -5.9991241    284.87696  0.037151404  0.037547442            2 
  640000   0.98827074   -5.9649091    284.47795    0.0370414  0.037525297            5 
  641000   0.99684884   -5.9883114    284.35876  0.036968117  0.037503031            5 
  642000    1.0000808   -5.9328073    287.15675  0.037273721  0.037480916            4 
  643000   0.99828502   -5.9723839    284.95234  0.036930059   0.03745859            4 
  644000    1.0068865   -5.9759613    286.15876  0.037028825   0.03743611            5 
  645000   0.99909485   -5.9963266    286.39262  0.037001631  0.037413655            4 
  646000    1.0204243   -5.9673849    286.42561  0.036948609  0.037390986            3 
  647000   0.97427999   -5.9854921    286.33742  0.036880141    0.0373682            4 
  648000   0.99444365   -6.0227472    285.79844  0.036753915  0.037345008            4 
  649000   0.99437273   -6.0239828    286.52253  0.036790258  0.037321337            3 
  650000    0.9778695    -5.979768     286.6378  0.036748435  0.037298099            3 
  651000   0.99771297   -5.9761696    286.92029  0.036728148  0.037274385            4 
  652000    1.0065423   -5.9946724    287.34514  0.036726117  0.037250559            8 
  653000   0.98523771   -5.9980963    287.85172  0.036734523  0.037226932            4 
  654000    1.0046515   -5.9861095    289.11595  0.036839443  0.037203239            6 
  655000   0.99684443    -5.978695    289.10702  0.036782063  0.037179849            5 
  656000   0.99203593   -5.9607207     289.1469  0.036731059  0.037156372            6 
  657000   0.99780749   -5.9485618    288.79218   0.03663016  0.037132629            6 
  658000   0.99963317   -5.9465255    290.83215  0.036832846  0.037109731            2 
  659000   0.97823638   -5.9677512    289.88447  0.036657115  0.037086378            3 
  660000   0.97089605     -5.99053    290.60661  0.036692753  0.037063491            3 
  661000   0.97627975   -5.9978999    290.90633  0.036675029  0.037039996            8 
  662000   0.98496916   -6.0045814    289.99373   0.03650475  0.037017195            4 
  663000   0.97963345   -5.9795386    290.77263   0.03654759  0.036994184            3 
  664000   0.98684629    -5.959717    291.99999  0.036646586  0.036971337            4 
  665000   0.99798289   -5.9635993    291.61246  0.036542915  0.036948853            2 
  666000   0.99220035   -6.0073886    292.18863  0.036560139  0.036926428            9 
  667000   0.97791346   -5.9946898    291.43924    0.0364117  0.036904134            3 
  668000   0.98575047   -6.0262279    293.01608  0.036553902  0.036881315            8 
  669000   0.98688399   -5.9775958    293.39927  0.036546995  0.036858628            3 
  670000    1.0013789   -5.9798455     293.5395  0.036509888  0.036835919            4 
  671000    1.0016194   -6.0339403    292.67167  0.036347699  0.036813073            5 
  672000    1.0027558   -5.9957795    293.40215  0.036384195  0.036790166            7 
  673000   0.99825912   -5.9737051    294.02687  0.036407487   0.03676734            2 
  674000   0.97754382   -5.9776038    293.42983  0.036279652  0.036745094            3 
  675000   0.95460681   -5.9730017    295.05097  0.036426046  0.036722613            4 
  676000   0.96170352   -6.0397075    292.72742  0.036085727  0.036700064            3 
  677000   0.97337962   -6.0581775    293.34975  0.036109028  0.036676937            2 
  678000   0.96784702   -6.0048976    296.09359  0.036393017  0.036654127            5 
  679000   0.97218701   -5.9914757    295.41661  0.036256334  0.036631111            3 
  680000   0.97294001   -6.0028121    296.01201  0.036275982  0.036607724            9 
  681000   0.97475618   -5.9896101    295.75627  0.036191418  0.036584792            7 
  682000   0.96586589   -6.0293069    296.16439   0.03618822  0.036562144            5 
  683000   0.96405558   -5.9687894    296.08716  0.036125813  0.036539851            3 
  684000   0.98088663   -6.0190233    295.51729  0.036003568  0.036517301            3 
  685000   0.98658188   -6.0253676    296.73896   0.03609963  0.036494591            2 
  686000   0.99816768   -6.0460123    296.75456  0.036048902  0.036471948            5 
  687000    1.0007807   -5.9814647    298.12195  0.036162293  0.036449891            6 
  688000   0.99048442   -5.9865765     298.6325  0.036171572  0.036427959           14 
  689000   0.97943348    -6.007955      298.321  0.036081398  0.036405668            5 
  690000   0.98056384   -6.0389185    298.88339  0.036097028  0.036383737            6 
  691000   0.98866847   -6.0108128    299.00228  0.036059127  0.036361837            2 
  692000    1.0039732   -6.0486042    298.38078  0.035932175  0.036339751            6 
  693000   0.98522675   -6.0194435    299.82525  0.036054023  0.036318124            7 
  694000   0.97005868    -5.989742    300.71731  0.036109188   0.03629588            2 
  695000   0.96680871   -6.0538837    299.97087   0.03596773  0.036273932            5 
  696000   0.96275223   -6.0018036    299.42027  0.035850129  0.036251649            4 
  697000   0.98601732     -6.02584    299.83358  0.035848109  0.036229617            3 
  698000   0.98368232   -6.0506434    300.09294  0.035827715  0.036207457            1 
  699000   0.97169969   -5.9955468    301.01759  0.035886694   0.03618561            4 
  700000    0.9819327   -6.0578016    301.95486  0.035947007  0.036164135            6 
  701000   0.96716651   -6.0532537    301.07453  0.035791076  0.036142258            8 
  702000   0.97526529   -6.0158784    302.46183  0.035904776  0.036120712            3 
  703000   0.97104655   -6.0328039    302.24571  0.035828083  0.036098697            3 
  704000   0.96240175   -6.0229647    303.82884  0.035964587  0.036077291            3 
  705000   0.96941953    -6.056922    303.37555  0.035859994  0.036055984            8 
  706000    0.9876996   -6.0260279    304.24053  0.035911299  0.036034952            8 
  707000   0.95793392    -6.011972    304.92972   0.03594174  0.036014113            7 
  708000   0.97927991   -6.0785679    303.27392  0.035696082  0.035993005            3 
  709000   0.95001348   -6.0263685     304.5792  0.035799154  0.035971725            2 
  710000   0.98719072   -6.0537923    304.74786  0.035768529  0.035950332            3 
  711000    0.9758542    -6.096189    305.47128   0.03580301  0.035929298            5 
  712000   0.95230098   -6.0071073    305.03071   0.03570116  0.035908021            3 
  713000   0.97900034   -6.0347197    305.22262  0.035673518  0.035887058            3 
  714000   0.96685273   -6.0433755    305.05147   0.03560358  0.035865777            3 
  715000   0.96599172   -6.0488292    305.85357  0.035647269  0.035844812            4 
  716000   0.97668171   -6.0594585     305.9279  0.035606134  0.035823419            3 
  717000   0.97971655   -6.0426375    305.80436  0.035542116   0.03580193            2 
  718000   0.94803021   -6.0050497    306.05694  0.035521929   0.03578069           10 
  719000   0.95053134   -6.0397454    307.18725  0.035603529   0.03575978            7 
  720000   0.97791551   -6.0296403    306.50033  0.035474575  0.035738624            5 
  721000   0.96809965    -6.064484    306.77528  0.035457152  0.035717267            5 
  722000    0.9619424   -6.0894275    307.52882  0.035495016  0.035695793            3 
  723000    0.9476048    -6.091859    307.85935  0.035484019  0.035674412            3 
  724000   0.95490506    -6.077792    308.59359   0.03551952  0.035653557            6 
  725000   0.95320435   -6.0720362    308.67148   0.03547948  0.035632679           13 
  726000   0.95342376   -6.0784694    309.32567  0.035505701  0.035612122            3 
  727000   0.97190281   -6.0253722    311.33039  0.035686656  0.035591577            3 
  728000   0.98389577   -6.0321999    310.13707  0.035501038  0.035571321            5 
  729000   0.96273408   -6.0630383    309.03587   0.03532646  0.035550553            2 
  730000   0.97543583   -6.0448347    310.13887  0.035403981  0.035529285            3 
  731000   0.95433944   -6.0917763    309.19762  0.035248247  0.035507957            5 
  732000   0.96637553    -6.070874    310.89393  0.035393207  0.035486668            9 
  733000   0.95189333   -6.0456797    309.95337  0.035237991  0.035465758            5 
  734000   0.96092128   -6.0530932     310.5952  0.035262852  0.035444619            4 
  735000   0.95500209   -6.0611581    310.64354  0.035220356  0.035423481            6 
  736000   0.95322342   -6.0255151    311.31465  0.035248488  0.035402643            4 
  737000   0.95144131   -6.0425084    312.05379  0.035284237  0.035381584            2 
  738000   0.92847386   -6.0806635    311.18169  0.035137951  0.035360074            2 
  739000   0.97939444   -6.0404712     312.2685  0.035212957  0.035338261            8 
  740000   0.93751868   -6.0438032    312.45786  0.035186696   0.03531649            3 
  741000   0.97041579   -6.0869131    312.59604   0.03515475  0.035295167            6 
  742000   0.95032788    -6.091111      311.995  0.035039869  0.035273864            3 
  743000   0.97672839   -6.0735112    312.36506  0.035034215  0.035252726            7 
  744000   0.96628565   -6.0343663    313.51224  0.035115618   0.03523174            3 
  745000   0.94683246   -6.0745608    312.20531  0.034922295  0.035210767            6 
  746000   0.97788236   -6.0411729    312.80169  0.034942101  0.035189459            8 
  747000   0.94797855   -6.0783149    313.05152  0.034923195  0.035167795            5 
  748000   0.95704215   -6.0680056     312.1789  0.034779289  0.035145908            3 
  749000   0.96281892   -6.0788251    312.90286  0.034813403  0.035123934            5 
  750000   0.96625423   -6.0541373    313.66489  0.034851654  0.035101414           19 
  751000    0.9460486    -6.086192    313.34303  0.034769533   0.03507925            4 
  752000    0.9501654   -6.1119806    312.90024  0.034674229  0.035056553            2 
  753000   0.97304019   -6.1064402    313.40639  0.034684196  0.035034016            3 
  754000    0.9563626   -6.0735452    315.03976  0.034818718   0.03501174            3 
  755000   0.94918559   -6.0801513    314.23945  0.034684266  0.034989714            3 
  756000   0.96607989   -6.0481423     315.2524  0.034750044  0.034967859            5 
  757000   0.94566039    -6.062301    314.83865  0.034658592  0.034946048            4 
  758000   0.94818015   -6.0799063    315.64676   0.03470171  0.034924214            4 
  759000   0.95324697   -6.0688963    315.58554  0.034649269  0.034902437            5 
  760000   0.94242397   -6.0832598    315.88519  0.034636534  0.034880793            4 
  761000   0.92948827   -6.0738837    316.28914  0.034635254  0.034858784            2 
  762000   0.95206669   -6.0687829    316.98112  0.034665477   0.03483713           10 
  763000   0.95274919   -6.1381642    316.27452  0.034542871  0.034815321            5 
  764000   0.94821117   -6.0847012     317.5623  0.034638122  0.034793519            3 
  765000   0.97255587   -6.0851289    317.38389  0.034573408  0.034772208            7 
  766000   0.95636655   -6.1165069    316.81761  0.034466667  0.034750534            4 
  767000   0.95839326   -6.0927602    317.65595  0.034512815  0.034728218            7 
  768000   0.94954852   -6.0766553    318.42623  0.034551457  0.034706272            6 
  769000   0.96458722   -6.0929427    317.66993   0.03442457  0.034684625            5 
  770000   0.93389772   -6.0743587    317.78936  0.034392788  0.034662217            5 
  771000   0.95926759   -6.0619405    319.38531  0.034520678  0.034640451            3 
  772000     0.940013   -6.1015289    319.03301  0.034437933  0.034618872            3 
  773000   0.96337989   -6.0981865    319.00186  0.034390024  0.034597062            4 
  774000   0.96242163   -6.0665675    319.89249  0.034441483  0.034575744            3 
  775000   0.95739703   -6.1260101    318.20679  0.034215783  0.034553837           17 
  776000   0.93462461   -6.1125499    319.24086  0.034282738  0.034531922            4 
  777000   0.94567341    -6.147924    319.02353  0.034215307  0.034510026            7 
  778000   0.92953353   -6.1073685      319.525  0.034225042  0.034488034            3 
  779000   0.96393931    -6.152436    319.17296  0.034143449  0.034465662            6 
  780000   0.93624217   -6.1113557    320.17757  0.034207006  0.034443226            8 
  781000   0.94682879   -6.0988274     320.3566  0.034182309  0.034421354            4 
  782000   0.95300254   -6.1284162    321.03898  0.034211315  0.034399163            5 
  783000   0.94788587   -6.1020574    320.66823  0.034128165  0.034377125            4 
  784000   0.95215664    -6.098111    321.25723  0.034147239  0.034355668            4 
  785000   0.94474607   -6.1014147    322.51954  0.034237743   0.03433408            8 
  786000   0.94383513   -6.0995171    323.15279  0.034261322  0.034312874            5 
  787000   0.94017032   -6.1299499    322.35936  0.034133774  0.034291503           13 
  788000   0.92730653   -6.1205275    321.51927  0.034001614  0.034270092           12 
  789000   0.95002082   -6.0846112     322.8519  0.034099271  0.034248951            6 
  790000   0.92277412   -6.1202422    323.17863  0.034090573   0.03422783            3 
  791000   0.94940639   -6.1005013    323.43082  0.034074044  0.034206687            3 
  792000   0.95210075   -6.1381596    321.81297  0.033860793  0.034185682            7 
  793000    0.9418676   -6.1041918    323.94253   0.03404188  0.034164444            7 
  794000   0.92938277   -6.0627445    324.57333  0.034065211  0.034143394            6 
  795000   0.93921215   -6.1233625    324.30801   0.03399455   0.03412226            7 
  796000   0.93598096   -6.1499753    323.54451  0.033871913  0.034100614            3 
  797000   0.93611276    -6.160586    323.43222  0.033817672  0.034078918            7 
  798000   0.94863736   -6.1372116    325.51901  0.033993214  0.034057312            5 
  799000    0.9321763   -6.0939212    325.80616  0.033980618  0.034036157            7 
  800000   0.91758367   -6.1120661    325.32413   0.03388793   0.03401488            4 
  801000   0.93772149   -6.1151395    325.24364   0.03383725  0.033993433            6 
  802000   0.91381444   -6.1360505    325.37088  0.033808279  0.033971861            4 
  803000   0.94612641   -6.1337669    324.39279  0.033664673  0.033950398            5 
  804000   0.94097343   -6.1611077      325.366  0.033723673  0.033929155            5 
  805000   0.90876349   -6.1405097    325.86204   0.03373313   0.03390762            7 
  806000   0.92760903   -6.1482197    325.71875  0.033676463  0.033886272            2 
  807000   0.90569831    -6.142012    326.10322  0.033674434  0.033864799            8 
  808000   0.93350264   -6.1310943    327.57141   0.03378418  0.033843338            4 
  809000   0.94160504   -6.1276411     326.8734  0.033670519  0.033822103            5 
  810000   0.92288986   -6.1398195    326.75906  0.033617188  0.033801063            6 
  811000   0.95927083   -6.1218186    328.25362  0.033729308   0.03378028            5 
  812000   0.92653358   -6.1357648    329.07149  0.033771704  0.033759977            6 
  813000   0.95525498    -6.098847    329.33126  0.033756792  0.033739804            2 
  814000   0.92022202   -6.1378495    330.54059  0.033839127  0.033719383            7 
  815000   0.93063428   -6.1580077    328.31288  0.033569824  0.033698955            2 
  816000   0.93472711   -6.1654399    328.38966  0.033536526  0.033678614            6 
  817000   0.92898531   -6.1252858     329.6728  0.033626357  0.033658159            4 
  818000   0.93132701   -6.1320199    330.38068  0.033657363  0.033638302            5 
  819000   0.90953994   -6.1409983    331.30398  0.033710214  0.033618295            3 
  820000   0.91921696   -6.1521175    330.27806  0.033564844   0.03359795           10 
  821000   0.94202848   -6.1607844    330.44957   0.03354137  0.033577406            2 
  822000   0.92964379   -6.1175081    332.12491  0.033670408  0.033557211            7 
  823000   0.94821173   -6.1360098    331.88747  0.033605455  0.033537269            2 
  824000   0.91803194    -6.137805    330.88048  0.033462832   0.03351704            4 
  825000   0.93645849   -6.1312893    332.06096  0.033541511  0.033496736            9 
  826000   0.91532476   -6.1435594     331.4565  0.033439922  0.033476138            3 
  827000   0.90349673    -6.189012    330.20899   0.03327378  0.033455114            7 
  828000   0.91439359   -6.1541112    332.06925  0.033420818  0.033434275            6 
  829000   0.92836146   -6.1292583    332.73946  0.033447875  0.033413917            6 
  830000   0.91296452   -6.1594456    331.24437  0.033257467  0.033393391            9 
  831000   0.91955521   -6.1629436    333.64173  0.033457855  0.033372877            8 
  832000    0.9208851   -6.1406831    334.11461  0.033465005  0.033352292            8 
  833000   0.92252322   -6.1510641    333.72775  0.033386129  0.033332134            5 
  834000   0.90381987   -6.1392119    333.90139  0.033363448   0.03331201            5 
  835000   0.91664427   -6.1827092    332.31171  0.033164842  0.033291757            6 
  836000   0.92706038   -6.1495337    333.68886  0.033262446  0.033271354            5 
  837000   0.91250668   -6.1469761     334.8667  0.033339975  0.033251214            8 
  838000   0.90323567   -6.1409363    334.49456  0.033263183  0.033231347            3 
  839000   0.92392768    -6.143627    334.64346  0.033238326  0.033211449            5 
  840000   0.92282343   -6.1538114    335.43557  0.033277338  0.033191294            4 
  841000   0.94114061   -6.1647837    334.80889  0.033175673   0.03317102            8 
  842000   0.92397551   -6.1278707    335.41444  0.033196204  0.033150952           12 
  843000   0.90816898    -6.195173    335.87497   0.03320235  0.033130869           10 
  844000   0.94229449   -6.1594782    336.27673  0.033202679  0.033111094            5 
  845000   0.91884402   -6.1820042    337.40813  0.033274963  0.033091203            4 
  846000   0.90943104    -6.161783    337.36808  0.033231686  0.033071417            6 
  847000   0.91873447   -6.1783673    335.94941  0.033052873  0.033051495            5 
  848000   0.89869386    -6.183137    336.99644  0.033116789  0.033031691            4 
  849000   0.92572285   -6.1481951    338.40587  0.033216124  0.033011873            6 
  850000   0.91672166   -6.2134392    336.71447  0.033011223  0.032992072            8 
  851000   0.92681272   -6.1989571    337.06391   0.03300665  0.032972087            4 
  852000   0.89522547   -6.1958138    336.64456  0.032926893   0.03295196            9 
  853000    0.9145119   -6.1806583    337.60531  0.032982152  0.032931758            6 
  854000   0.89515804    -6.184845    336.96368  0.032880921  0.032911727            5 
  855000   0.91378289   -6.2158207    336.26866  0.032774723  0.032891482            7 
  856000   0.92639476   -6.1782332    337.82973  0.032888409  0.032871272            4 
  857000   0.90855173     -6.20173    337.69553  0.032836983  0.032850881            4 
  858000   0.91254253   -6.2206937    336.84244  0.032715855  0.032830538            4 
  859000    0.8895524   -6.1805524    338.80088  0.032867761  0.032810482            7 
  860000   0.90879356   -6.1639815    338.56764  0.032806942  0.032790142            3 
  861000   0.89926014   -6.1573012    339.33933  0.032843528  0.032770067            4 
  862000   0.90029836   -6.1652085    339.20824  0.032792753  0.032749917            5 
  863000   0.91029428   -6.1644028    339.72645  0.032804795  0.032729865            5 
  864000   0.90568949   -6.2128146    339.61031  0.032755624  0.032709945            3 
  865000   0.90619351   -6.1586305    340.16252  0.032770956  0.032689863            3 
  866000   0.93909865   -6.1661826    339.84607  0.032702663  0.032670109            5 
  867000   0.92322035   -6.1574745    339.25946   0.03260856  0.032649816            4 
  868000   0.91452489   -6.2155711    339.33242  0.032577997  0.032629327            3 
  869000   0.91745378   -6.2114067    339.54065  0.032560476  0.032608824            5 
  870000   0.88301503   -6.1816073    340.20629   0.03258681   0.03258814            5 
  871000   0.90864726   -6.1949489    340.57994  0.032585146  0.032567693            6 
  872000    0.8993081   -6.1964334    339.80683  0.032473894  0.032547434            7 
  873000   0.90909456   -6.1745774    340.98328  0.032548996  0.032527078            5 
  874000   0.90790321   -6.1783132    341.67004  0.032577235  0.032506655            5 
  875000   0.89518163   -6.1673153    341.82985  0.032555224  0.032486285            6 
  876000   0.89459586   -6.1694287    341.53301  0.032489822  0.032466153            5 
  877000   0.88303937    -6.174642    341.70847  0.032469448  0.032446243            4 
  878000    0.9158918   -6.1942671    342.79803   0.03253588  0.032426132            5 
  879000   0.90074156   -6.2204739    341.10959  0.032338793  0.032405785            5 
  880000   0.90535806   -6.2000376    342.12338  0.032398047   0.03238528            8 
  881000   0.88446096   -6.2126816    341.87515  0.032337793  0.032365036            2 
  882000   0.90045266   -6.2044437    343.40342  0.032445523  0.032344761            6 
  883000   0.90006208   -6.1882097     342.5808  0.032331144  0.032324289            5 
  884000   0.88017253   -6.1758959     343.6957   0.03239967   0.03230385            9 
  885000   0.90094836   -6.2016004    342.69632  0.032268957  0.032283721            5 
  886000   0.93552897   -6.2132514    342.66357  0.032229456  0.032263678            5 
  887000   0.88335283   -6.2194655    342.61732  0.032188775  0.032243175            7 
  888000   0.87856105    -6.170938    344.70878  0.032348796  0.032223079            3 
  889000   0.88283758   -6.2225383    343.09471  0.032161109   0.03220277            9 
  890000   0.89462492   -6.2083574    343.83438  0.032194231  0.032182283            5 
  891000   0.91195283   -6.1954182    344.02009  0.032175467  0.032161834           11 
  892000    0.9011009   -6.2271475    344.13308  0.032149952  0.032141617            7 
  893000   0.90830883   -6.2030931    346.09915   0.03229742  0.032121774            6 
  894000   0.86933304   -6.1602655    345.00268  0.032159086  0.032102088            3 
  895000   0.91170308   -6.2212931    345.16333  0.032138113  0.032082091            2 
  896000   0.90475516    -6.222509    345.22577  0.032108051  0.032062095            5 
  897000   0.89639987   -6.2447567    345.82855  0.032128256  0.032041973            8 
  898000   0.89823369   -6.1715843    346.19473   0.03212646  0.032022009            7 
  899000   0.87437216   -6.1939495    346.06643  0.032078831  0.032001889            6 
  900000   0.88244468   -6.2339085    345.89179  0.032027018  0.031981853            7 
  901000   0.88732733   -6.2252025    345.42745  0.031948525  0.031961601            9 
  902000   0.90646361   -6.2313217    345.50198  0.031919991  0.031941166            4 
  903000   0.87236725   -6.2039379      346.944  0.032017719  0.031921097            5 
  904000   0.89026149   -6.2199838    345.86803  0.031883115  0.031900995            8 
  905000   0.89655091   -6.2054725    346.97486  0.031949803  0.031880679            6 
  906000   0.88808732   -6.2434614    345.97904  0.031822943   0.03186032            3 
  907000   0.89030157   -6.2166441    346.56102  0.031841328  0.031839909            7 
  908000   0.86631514   -6.2308936    346.75915  0.031824445   0.03181971            7 
  909000    0.8881872   -6.2218604    347.21254  0.031830999  0.031799277            5 
  910000   0.90431332   -6.2552248    346.53749  0.031734203  0.031778861            3 
  911000   0.87971694    -6.263679    347.01274  0.031742841  0.031758241            6 
  912000   0.87849636   -6.2237274    346.81548  0.031690011  0.031737683            5 
  913000   0.88098597   -6.2313332    347.52909  0.031720435  0.031717094            9 
  914000   0.88060274   -6.2511028    346.36392  0.031579497   0.03169654            4 
  915000   0.89636037    -6.261774    347.00203  0.031603099  0.031675743            8 
  916000   0.87189067    -6.230947    348.10099  0.031668576  0.031654983            4 
  917000   0.90351371   -6.2460984     348.3066  0.031652726  0.031634575            5 
  918000   0.88397893   -6.2457523    348.37199  0.031624182  0.031614224            5 
  919000   0.86029219   -6.2359513    347.97087  0.031553398  0.031593781            5 
  920000   0.86686821   -6.2412893    348.23478  0.031543005  0.031572945            5 
  921000    0.8754712   -6.2402164    348.15497  0.031501536  0.031552261            3 
  922000   0.89476287   -6.2638236    346.88173  0.031352289  0.031531681            3 
  923000   0.90072713    -6.262911    348.55745  0.031469614   0.03151087            7 
  924000   0.88445445   -6.2694464    348.06072  0.031390758  0.031490162            9 
  925000   0.88320934   -6.2526521    348.91656  0.031433924  0.031469486           10 
  926000   0.86804485   -6.2443155    348.89392  0.031397941   0.03144875            7 
  927000   0.88192429   -6.2499537    349.22486  0.031393821  0.031428055           11 
  928000   0.88255424   -6.2258363    350.08854  0.031437549  0.031407393            5 
  929000   0.87906545   -6.2295958    350.26495  0.031419533  0.031386761            5 
  930000   0.87785967   -6.2381049    349.58248  0.031324595  0.031366196            5 
  931000   0.88584262   -6.2216509    350.93512  0.031412023  0.031345418            4 
  932000   0.88927194   -6.2124118    350.37921  0.031328614  0.031324993            3 
  933000    0.8770121   -6.2684182    351.12099  0.031361288  0.031304322            4 
  934000   0.86571275     -6.22576    350.96743  0.031314011  0.031284066           10 
  935000   0.87988688   -6.2618796    350.76374  0.031262365  0.031263693            3 
  936000    0.8767357   -6.2428716    351.63562   0.03130659  0.031243192            4 
  937000   0.87098246   -6.2247481    352.22457  0.031325558   0.03122289            7 
  938000   0.87156656    -6.228761    351.13221  0.031195114  0.031202658            6 
  939000   0.88597789   -6.2547552    351.59767  0.031203201  0.031182108            8 
  940000   0.88507644   -6.2548317    351.87356  0.031194465  0.031161659           11 
  941000   0.86810443   -6.2527609    352.41222  0.031209017  0.031141313            7 
  942000   0.87783577   -6.2381797    352.01198  0.031140479  0.031120944           13 
  943000   0.88195003   -6.2597259    351.55006  0.031066637  0.031100457            5 
  944000    0.8760556   -6.2471794    352.37075  0.031106175  0.031079937            7 
  945000   0.85970556   -6.2931284    352.35689  0.031072036  0.031059852            8 
  946000   0.87095811   -6.2765135     353.4594  0.031136311  0.031039416            5 
  947000   0.87142806    -6.258929    353.74537  0.031128596    0.0310192            7 
  948000   0.88780875   -6.3093122    353.22579  0.031050087  0.030999092           14 
  949000   0.87045913   -6.2849499    353.35077  0.031028343  0.030978851            5 
  950000   0.86438597   -6.3046972    351.73596  0.030854032  0.030958355            9 
  951000   0.86110113   -6.2402647    354.58915  0.031071604  0.030937979            5 
  952000   0.86563809   -6.2605109     353.5943  0.030951882  0.030917729            5 
  953000   0.87021722   -6.2808121    353.20623  0.030885469  0.030897507            5 
  954000   0.85976609   -6.2820857    353.54878  0.030883018  0.030877101            4 
  955000   0.87953127   -6.2476007    354.82967   0.03096245  0.030856962            8 
  956000   0.88276149   -6.2468282    354.83299  0.030930351  0.030837044            6 
  957000   0.87563429   -6.3029287    353.92052  0.030818576   0.03081685            8 
  958000   0.87544635   -6.2789993    354.10651  0.030802585  0.030796669            6 
  959000   0.86654307   -6.2636275    355.41976  0.030884581  0.030776334            8 
  960000   0.85783143   -6.2762112    355.49569  0.030859001   0.03075645           19 
  961000   0.86544155   -6.2899717    355.23273  0.030804087  0.030736579            8 
  962000   0.85744654   -6.2959565    355.60406  0.030804232   0.03071671            6 
  963000   0.87167534   -6.2776866    355.51784  0.030764784  0.030696832            8 
  964000   0.85613389   -6.2816176    355.57253  0.030737598  0.030677216            7 
  965000   0.84847284   -6.2895234    356.79243  0.030811091  0.030657374            8 
  966000   0.86529901   -6.3069689     355.8226  0.030695532  0.030637625            6 
  967000   0.86419728   -6.3422805    355.56059  0.030641209  0.030617752            6 
  968000   0.87282273   -6.3261499    356.40032  0.030681846    0.0305979            7 
  969000   0.86904466    -6.285179    357.09794  0.030710177  0.030577984            3 
  970000   0.86742011   -6.2464267    357.66813  0.030727503  0.030558167            7 
  971000    0.8432185   -6.3042458    356.29397  0.030577924  0.030538278            5 
  972000   0.85808375   -6.3023089     356.7435  0.030585005  0.030518133            4 
  973000   0.84420626   -6.3287021    357.28753  0.030600165  0.030498201            5 
  974000   0.86437505   -6.3071199    357.48905  0.030585989  0.030478501            7 
  975000   0.85316143   -6.2882183    358.19645  0.030615081  0.030458897            5 
  976000    0.8586987    -6.301878    358.76941  0.030632634  0.030439228            6 
  977000   0.85458429   -6.2932611    357.81255  0.030519665  0.030419573            4 
  978000   0.86007781   -6.2918959    357.29097  0.030444016  0.030399992            9 
  979000    0.8908356   -6.3181567    358.12439   0.03048386  0.030380257            6 
  980000   0.86157712   -6.3032577    358.00992  0.030443021  0.030360548            8 
  981000   0.83646976   -6.2997674    358.10765   0.03042029  0.030340874            5 
  982000   0.85499403   -6.2952837    359.23054  0.030484601  0.030321194            8 
  983000   0.85072715   -6.3136619    359.03341  0.030436878  0.030301714            6 
  984000   0.85238879   -6.3227386    358.02376  0.030320441  0.030282007            9 
  985000    0.8700249   -6.3025942    359.26763  0.030394893  0.030262262           10 
  986000   0.84788162   -6.3387028    359.59447  0.030391689  0.030242506            9 
  987000   0.87333237    -6.343282    358.69552  0.030284998   0.03022284            6 
  988000   0.85663885   -6.3323618    359.78723  0.030346426  0.030203118            5 
  989000   0.85802585   -6.3096736    359.66766  0.030305668  0.030183397            6 
  990000   0.87110715    -6.277564    360.42935  0.030339171   0.03016372            6 
  991000   0.86128463   -6.2889922    361.19599  0.030373023  0.030144146            2 
  992000   0.86858485   -6.3013216    360.72888  0.030303166   0.03012441            7 
  993000   0.84779524    -6.345046    359.71278  0.030187377  0.030104497            6 
  994000   0.86084896   -6.2820812    360.91441  0.030257747  0.030084711            6 
  995000   0.85026656   -6.3292002     360.0311  0.030153359  0.030065007            4 
  996000   0.86067498   -6.3236324    360.68478  0.030177776  0.030045194            5 
  997000   0.87557993    -6.311478    359.76884  0.030070949  0.030025278            8 
  998000   0.84577785   -6.3240349    361.14305  0.030155566  0.030005225            5 
  999000   0.85188909   -6.3289365    360.64875  0.030084147  0.029985486            5 
 1000000   0.86821185   -6.2939295    361.10014  0.030091678  0.029965701           10 
 1001000    0.8452041    -6.337163    360.64947  0.030024098  0.029945865            4 
 1002000   0.86545677   -6.3433242    360.34171  0.029968539  0.029926172           11 
 1003000    0.8589228   -6.3197976    361.75837  0.030056361  0.029906607            3 
 1004000   0.86013374   -6.3232245    361.91966  0.030039812  0.029887025            8 
 1005000   0.84807125   -6.3160564    361.25709  0.029954982  0.029867321           10 
 1006000   0.85561109   -6.3456196    362.23511  0.030006222  0.029847537            5 
 1007000     0.841893   -6.3220047    361.97637  0.029955012  0.029827724            6 
 1008000   0.84585074   -6.3150886    361.46734  0.029883213  0.029807964            4 
 1009000   0.84918298   -6.3151325    363.14955   0.02999253  0.029788228            8 
 1010000   0.87026789     -6.33699    362.62276  0.029919369  0.029768633            6 
 1011000   0.86304823   -6.3443916    362.94483  0.029916323  0.029748998            4 
 1012000   0.83781695   -6.3223411    362.56415  0.029855415  0.029729285            5 
 1013000   0.84386639   -6.3303986    363.26374  0.029883493  0.029709834            8 
 1014000   0.85412636   -6.3425307    363.59839  0.029881524  0.029690255           20 
 1015000   0.85856518   -6.3496142    363.67081  0.029858031  0.029670428            4 
 1016000   0.86369097   -6.3613132    363.74672  0.029834868   0.02965079           11 
 1017000     0.863902   -6.3441298    362.37526  0.029693155  0.029631106           11 
 1018000   0.82846004   -6.3504191     363.6074   0.02976485  0.029611464            9 
 1019000   0.83166758   -6.3522955    363.28072  0.029708924  0.029591821            5 
 1020000   0.84662465   -6.3438764    363.40175  0.029689685  0.029572062           11 
 1021000   0.86854302   -6.3409512    364.09483  0.029717175  0.029552323           10 
 1022000   0.85000022   -6.3505722    362.85092   0.02958667  0.029532303            9 
 1023000    0.8500798   -6.3463746    363.52821   0.02961292  0.029512285            7 
 1024000    0.8526427   -6.3454376    363.62759  0.029592089  0.029492302            4 
 1025000   0.86330945   -6.3744836    363.37796  0.029542924  0.029472335            8 
 1026000   0.85369319    -6.366964    363.56324  0.029529178  0.029452346            4 
 1027000   0.85535412   -6.3476679    362.24477  0.029393441  0.029432484           10 
 1028000     0.837528   -6.3595824     363.7753  0.029488918  0.029412398            7 
 1029000   0.85012968   -6.3800784    364.50259   0.02951916  0.029392187           10 
 1030000   0.83714541   -6.3760692    363.07917  0.029375337  0.029371957            8 
 1031000   0.86738587   -6.3361831    364.37543  0.029451619  0.029351808            8 
 1032000   0.82763675   -6.3689896    364.19365  0.029408402  0.029331832           14 
 1033000   0.84436458   -6.3619552    364.07631  0.029370467  0.029311733            7 
 1034000   0.83560969   -6.3768768     364.3872  0.029367118  0.029291721            7 
 1035000   0.85309584   -6.3604818    364.19595  0.029323345  0.029271641           12 
 1036000   0.85893148   -6.3957672    363.89296   0.02927067  0.029251267           12 
 1037000   0.83572226      -6.3763    363.90348  0.029243288  0.029231114            7 
 1038000   0.84547705   -6.3875181    364.22837  0.029241198  0.029210915           17 
 1039000   0.84032717   -6.3788802    363.93926  0.029189867  0.029190696            3 
 1040000   0.84704791   -6.3618019    364.98411  0.029245522  0.029170679            7 
 1041000    0.8403308   -6.3582589    366.55904  0.029343503  0.029150798            7 
 1042000   0.84124471     -6.37519    366.08518  0.029277445  0.029130898            6 
 1043000   0.82261184   -6.3748497    365.85487  0.029230974  0.029111041            6 
 1044000   0.83900623   -6.3824516    365.36435  0.029163821  0.029091055            8 
 1045000   0.83996586   -6.3685165    365.65488  0.029159082  0.029071206            3 
 1046000   0.81827504   -6.3537473    366.88561  0.029229255  0.029051336            9 
 1047000   0.82928657   -6.3723266    366.38407  0.029161419  0.029031359            8 
 1048000   0.82195439   -6.3896011    364.68067  0.028998145  0.029011329            7 
 1049000   0.81504301    -6.328942    366.40188  0.029107236  0.028991539            5 
 1050000   0.83069028   -6.3858688    366.01391  0.029048723  0.028971482            6 
 1051000   0.83939702   -6.3926422    366.39353  0.029051184  0.028951367           10 
 1052000   0.82169935   -6.4043285     365.8057  0.028977004  0.028931208            4 
 1053000   0.83903632   -6.3720117    366.29159  0.028987939  0.028911038            4 
 1054000   0.83990099   -6.3547387    366.60414  0.028985147  0.028890911            4 
 1055000   0.82227339   -6.3955641    365.99084  0.028909229  0.028870872            7 
 1056000   0.83942918   -6.3614445    366.10834  0.028891126  0.028850602           12 
 1057000   0.83849813    -6.357535     366.5106  0.028895506  0.028830541            6 
 1058000   0.84391566   -6.3445804    367.53231   0.02894867  0.028810461            7 
 1059000   0.83546812   -6.3670555    367.31345  0.028904112  0.028790381            6 
 1060000   0.83543186   -6.3902916    366.83745  0.028839422   0.02877033            7 
 1061000   0.83211263   -6.3809134    367.53737  0.028867214  0.028750317            7 
 1062000    0.8389522    -6.424397    365.82173  0.028705409  0.028730168            5 
 1063000   0.80815784    -6.389615    366.99839  0.028770648  0.028710071            8 
 1064000    0.8137507   -6.3951053    366.78978   0.02872727  0.028690002            7 
 1065000   0.82444417   -6.4136402    367.39571  0.028747708  0.028669757           13 
 1066000   0.83661211   -6.3952087     366.8657  0.028679308  0.028649377            6 
 1067000   0.81260615   -6.3901249    367.57802  0.028708061  0.028629144            4 
 1068000    0.8293212   -6.3790833    367.75593  0.028695063  0.028608965            3 
 1069000    0.8347898   -6.3958353    366.76204  0.028590742  0.028588853            4 
 1070000   0.82196303    -6.401561    368.20423  0.028676342  0.028568751           11 
 1071000   0.82348255   -6.3965146    368.48103  0.028671104  0.028548638            5 
 1072000   0.82011433    -6.427836    367.98306  0.028605649  0.028528801            5 
 1073000   0.81857761   -6.3806474    369.35909  0.028685857  0.028509024            4 
 1074000   0.81643293   -6.4124015    367.42977  0.028509448  0.028489038            7 
 1075000   0.83640469    -6.388952    368.78647  0.028588098  0.028469044           12 
 1076000   0.82760411   -6.3900136    369.72719  0.028634386  0.028449157            7 
 1077000   0.83971767   -6.4061312    367.94097  0.028469589  0.028429336            5 
 1078000   0.81550898   -6.4001352    369.22798   0.02854267  0.028409538            7 
 1079000   0.81747436   -6.3855666    368.59158  0.028467067  0.028389704            5 
 1080000   0.82395208   -6.4107596    368.71491  0.028450225   0.02836985            5 
 1081000   0.82523922   -6.3890855     370.8604    0.0285893  0.028350187            6 
 1082000   0.82449338   -6.4005444    369.46248  0.028455212  0.028330422            9 
 1083000   0.81889991   -6.4209306    370.62719  0.028518558   0.02831065            8 
 1084000    0.8191256   -6.4087987    369.41873  0.028399349  0.028290961            5 
 1085000   0.81721965    -6.417202    370.89958  0.028486911  0.028271364            8 
 1086000   0.81483669   -6.4159546    370.30499  0.028415054  0.028251766           12 
 1087000    0.8328097    -6.418658    369.06741  0.028294036  0.028232122            3 
 1088000     0.818419   -6.4290397    369.76306  0.028321313  0.028212332            4 
 1089000   0.81190144   -6.4308855    368.81925  0.028223083  0.028192506            7 
 1090000   0.83956519   -6.4556063    368.75532  0.028192302  0.028172556            6 
 1091000   0.81903832   -6.4205821    370.34354  0.028287774  0.028152716           14 
 1092000   0.79585753   -6.4334375    370.26274  0.028255704  0.028132936           11 
 1093000   0.81940904   -6.4291441    370.62062  0.028257138  0.028113096           15 
 1094000   0.80485305    -6.396631    371.37641   0.02828888  0.028093395            8 
 1095000   0.82470018   -6.4312418    370.84258  0.028222419  0.028073693           11 
 1096000   0.82671492   -6.3925895    371.22748  0.028225934  0.028054092            7 
 1097000   0.78081273   -6.4375521    370.89358  0.028174839  0.028034508           13 
 1098000   0.81921754   -6.4293926    371.02203  0.028158928  0.028014784            7 
 1099000   0.81308473   -6.4668848    370.38515  0.028085013  0.027994906            8 
 1100000   0.81688602   -6.4217806    371.47776  0.028142255  0.027974999            7 
 1101000   0.81821064   -6.4251143    370.42328  0.028036882  0.027955193            8 
 1102000   0.81497261   -6.4002682    370.56102  0.028021856  0.027935348            4 
 1103000   0.81634061   -6.3856241    371.73552  0.028085186  0.027915747           12 
 1104000   0.81076518   -6.4082017    371.79679  0.028064372  0.027895905           12 
 1105000   0.81772912   -6.4351148     371.1361  0.027989148  0.027875902            9 
 1106000   0.81753592   -6.4225108    370.32942  0.027903061  0.027855935            5 
 1107000   0.80245466   -6.4183259     373.2714  0.028099323  0.027835938            8 
 1108000   0.82511266   -6.4272704    370.46815  0.027863128  0.027815969            6 
 1109000    0.8248372   -6.4087869    371.12275  0.027887192  0.027795911            6 
 1110000   0.81783709   -6.4276897    371.91987  0.027921912  0.027775875            6 
 1111000    0.8206461   -6.4313055    371.68637  0.027879266  0.027756078            7 
 1112000   0.80985448   -6.4196145    372.30819  0.027900794  0.027736282            4 
 1113000   0.79886152   -6.4757192    371.50443  0.027815546   0.02771628            8 
 1114000     0.828992   -6.4354623     372.6765  0.027878254  0.027696475           10 
 1115000   0.79394253   -6.4540142     372.5953  0.027847182  0.027676681           12 
 1116000   0.79934012   -6.4235808    371.70873  0.027756028  0.027656929            5 
 1117000   0.80765139   -6.4334345    372.71337   0.02780613  0.027637322            7 
 1118000    0.8082397    -6.433347    372.30385  0.027750734  0.027617558            3 
 1119000   0.78564626   -6.4464706    372.37988  0.027731597  0.027597971           15 
 1120000     0.815624   -6.4564974     373.3498  0.027779003   0.02757826            7 
 1121000   0.79371576   -6.4418735    372.55265  0.027694964  0.027558534            5 
 1122000   0.78590548   -6.4369194    372.89202  0.027695486  0.027538672            7 
 1123000   0.80648431   -6.4583442    373.09772  0.027686087  0.027518908            6 
 1124000   0.79847259   -6.4505011    374.19536  0.027742835  0.027499233            6 
 1125000   0.81447326   -6.4493866    374.03264  0.027706122  0.027479587            7 
 1126000   0.79909667   -6.4870389    372.45776  0.027564961  0.027459982            8 
 1127000   0.80578057   -6.4729801    373.16741  0.027592977  0.027440355            8 
 1128000   0.82008061   -6.4384292    373.47377  0.027591148  0.027420808            6 
 1129000   0.80698967   -6.4202371     375.0103  0.027680122  0.027401447            9 
 1130000   0.79636774   -6.4502305    374.42054  0.027612134   0.02738213            5 
 1131000   0.77895323   -6.4347916    374.11078  0.027564897  0.027362863            5 
 1132000   0.81499502   -6.4500927    375.34308  0.027631263  0.027343546            6 
 1133000    0.8028666   -6.4632588    374.53909  0.027547741  0.027324325            9 
 1134000   0.78156874   -6.4714036    374.37544  0.027511423  0.027304708           16 
 1135000   0.79582667   -6.4806036    374.65816  0.027507941  0.027285284            6 
 1136000   0.81187226   -6.4361148    375.83029   0.02756971  0.027265916           10 
 1137000   0.80672537   -6.4763759    374.25196  0.027429783  0.027246645            8 
 1138000   0.79770104   -6.4825805    374.60742  0.027431709  0.027227134            7 
 1139000   0.79342593   -6.4872877    374.51429  0.027400811  0.027207767            8 
 1140000    0.8028662   -6.4902696    373.93285  0.027334272  0.027188385           14 
 1141000   0.82007954   -6.4882634    374.97385  0.027386346  0.027169027           11 
 1142000   0.80262009   -6.4688608    374.83037  0.027351895  0.027149592           15 
 1143000   0.80344283   -6.4672981    375.33098  0.027364464  0.027130204            7 
 1144000   0.77537915   -6.4959456    373.37363  0.027197962  0.027110685            8 
 1145000   0.80969253    -6.473892    374.49291   0.02725567  0.027091067            6 
 1146000   0.80168395   -6.4578288    374.41482  0.027226209  0.027071439           13 
 1147000   0.80354671   -6.4759172    375.22161  0.027261087   0.02705188           14 
 1148000    0.7923316    -6.481815    374.37691  0.027176024  0.027032305           12 
 1149000   0.79647552   -6.4675768    375.44396  0.027229762  0.027012776           14 
 1150000   0.79566317   -6.5087244    374.69555  0.027151851  0.026993286           10 
 1151000   0.78656397   -6.4858387     374.2929   0.02709911  0.026973668            9 
 1152000   0.79786777     -6.50831    374.94162  0.027122513  0.026954141           12 
 1153000   0.81725259   -6.5227157    373.82952  0.027018612  0.026934581           10 
 1154000   0.80123754   -6.5024835    374.94661  0.027075867  0.026914896           16 
 1155000   0.78559276   -6.4782906    375.18952  0.027069951  0.026895341            9 
 1156000   0.77467261   -6.4736462    375.60123  0.027076213  0.026875963           12 
 1157000   0.77836377   -6.4833857    375.35834  0.027035317  0.026856522            9 
 1158000   0.80822429   -6.4881463    375.69699  0.027036341   0.02683706            5 
 1159000   0.79370196   -6.5270361    375.47323  0.026996924  0.026817633            8 
 1160000   0.79158602   -6.5068822    374.88564   0.02693144  0.026798145            9 
 1161000   0.80585293   -6.4917539    375.84895  0.026977387  0.026778639            6 
 1162000   0.80397397   -6.4654282    376.42944    0.0269958  0.026759367           12 
 1163000   0.78197103   -6.4962907    375.09859  0.026877228  0.026739937            7 
 1164000   0.79184566   -6.4783425    376.22654   0.02693489  0.026720576            8 
 1165000   0.76829227   -6.4979941    375.57608  0.026865242  0.026701167           12 
 1166000   0.79906557    -6.513164    375.26382  0.026819884  0.026681707           17 
 1167000   0.79727573   -6.5422185     374.4495  0.026738753  0.026662151            6 
 1168000   0.77247424   -6.4840464    377.15664  0.026909007  0.026642751           12 
 1169000   0.79557388   -6.5130958    376.91915  0.026869059  0.026623545            9 
 1170000   0.77904079   -6.5167403    376.87549  0.026842983  0.026604403           17 
 1171000   0.78302973   -6.4855434    377.65567  0.026875581  0.026585177            5 
 1172000    0.7949372   -6.5132471    376.09499   0.02674168   0.02656604            8 
 1173000   0.78011031    -6.515103    377.19794   0.02679724  0.026546719            7 
 1174000   0.77333814   -6.4930051    378.23783  0.026848228  0.026527625            7 
 1175000   0.77581832   -6.4979197     378.3023   0.02682995  0.026508708            8 
 1176000   0.77532577    -6.527704    377.34485  0.026739289  0.026489743            9 
 1177000   0.78159571   -6.5076444    377.35495  0.026717286  0.026470648            9 
 1178000   0.78618207   -6.5038412    378.72152  0.026791279  0.026451723            8 
 1179000   0.77257488   -6.5304644    377.94213  0.026713467  0.026432705           15 
 1180000   0.80648663   -6.5017116    378.52735  0.026732157  0.026413639           12 
 1181000   0.77960639   -6.5030922    378.51364  0.026708555  0.026394605           34 
 1182000   0.79597652   -6.5242646     377.8516  0.026639284  0.026375654           12 
 1183000   0.77357544   -6.5285174     377.5938  0.026598605  0.026356498           16 
 1184000   0.76755776   -6.5205134    377.88525  0.026596654  0.026337329           12 
 1185000    0.7881857   -6.5133864    378.22672  0.026598222  0.026318111           10 
 1186000   0.76968484    -6.508792    378.87416  0.026621287  0.026298926            8 
 1187000   0.78167439   -6.5080268    378.99555  0.026607382    0.0262799           11 
 1188000    0.7807501   -6.5387748    377.39068   0.02647241  0.026260912            6 
 1189000   0.78986318   -6.5076888    378.77344  0.026547059  0.026241818            7 
 1190000   0.77152852   -6.5312323    378.77592  0.026524924  0.026222825           10 
 1191000   0.78193185   -6.5025788    377.82469  0.026436097  0.026203791            4 
 1192000   0.77893422   -6.4877626    378.61132  0.026468912  0.026184833            9 
 1193000   0.79667644   -6.5215324     379.1736  0.026486002  0.026165832            5 
 1194000   0.77057677   -6.5175935    378.38399  0.026408709  0.026146932            8 
 1195000   0.77707993   -6.5268326     378.6952  0.026408312  0.026127963            6 
 1196000   0.77092942   -6.5384728    379.63954   0.02645203  0.026109017            4 
 1197000   0.76581827   -6.5083869    379.45667  0.026417201   0.02609019            4 
 1198000   0.77169733   -6.5032663    378.95658  0.026360363  0.026071175           16 
 1199000   0.77342861   -6.5551637    379.10067  0.026348393  0.026052137            8 
 1200000   0.77611552    -6.534138    378.43209  0.026280006  0.026033033            9 
 1201000   0.76512983   -6.5544207    378.80043  0.026283682  0.026013961           11 
 1202000   0.75819235   -6.5296528    379.41112  0.026304154  0.025994883           11 
 1203000   0.78407947   -6.5607588    378.81269  0.026240835  0.025976055           12 
 1204000   0.79314793   -6.5337253    378.73789  0.026213863  0.025957095           10 
 1205000    0.7755935   -6.5047829    379.66179  0.026256002  0.025938123           11 
 1206000   0.78062338   -6.5482432    378.30582  0.026140535  0.025919203           13 
 1207000   0.76918132   -6.4960191    378.94722  0.026163161  0.025900406           10 
 1208000   0.74797504   -6.5748984    379.29354  0.026165393  0.025881554           24 
 1209000   0.77353775   -6.5450391    380.25436  0.026209978   0.02586274            6 
 1210000   0.76205506   -6.5211896    380.13365  0.026180004  0.025844102            9 
 1211000   0.78166143    -6.580072     379.2369  0.026096676  0.025825292           13 
 1212000   0.76373546   -6.5407341     379.7774  0.026112307  0.025806513            9 
 1213000   0.77244342   -6.5578956     380.0264  0.026107887  0.025787643           10 
 1214000   0.76304048   -6.5598447     380.5703  0.026123717  0.025768798            7 
 1215000   0.76669197   -6.5384806    380.60864  0.026104845  0.025750005           18 
 1216000   0.76948007    -6.516317    380.09081   0.02604789  0.025731297            7 
 1217000   0.76301743   -6.5727479    379.29206  0.025971793  0.025712539           15 
 1218000   0.76047392   -6.5579662     380.5395  0.026035817    0.0256937            9 
 1219000   0.79098094   -6.5620553    379.98018  0.025976222  0.025675014           12 
 1220000   0.76274414   -6.5901047    380.20567  0.025970333  0.025656229            9 
 1221000   0.78322662   -6.5662115    379.82452   0.02592305  0.025637435            6 
 1222000   0.74568031   -6.5616339    380.71712  0.025962706  0.025618744            8 
 1223000   0.78436778   -6.5389678    381.18781  0.025973549  0.025600023           21 
 1224000   0.78488708   -6.5713616    379.91808  0.025865882  0.025581368           20 
 1225000   0.76500119   -6.5285425    381.42794  0.025947479  0.025562882            6 
 1226000   0.76320096   -6.5590327    380.94346  0.025893384  0.025544327           31 
 1227000   0.77099752    -6.584138    381.35462  0.025900205  0.025525764           63 
 1228000   0.76593581   -6.5436574    382.72897  0.025972378  0.025507202            4 
 1229000   0.77656839    -6.568782    381.18113  0.025846293  0.025488776            9 
 1230000   0.74381485   -6.6118791    381.27022  0.025831316  0.025470409           11 
 1231000   0.75280206   -6.5816959    381.66047   0.02583675  0.025451847           12 
 1232000   0.75777315   -6.5630301    381.94264  0.025834865   0.02543333           13 
 1233000   0.76392469   -6.5614934    382.13576  0.025826964  0.025414986            6 
 1234000   0.76586141   -6.5376195    382.31778  0.025818327  0.025396623            8 
 1235000   0.75677973   -6.5567968    382.57932  0.025815069   0.02537826           14 
 1236000   0.74657651   -6.5520001    381.99708  0.025754927  0.025359787           12 
 1237000   0.74911081   -6.5561149    381.92378  0.025729169  0.025341454            7 
 1238000    0.7582723   -6.5815722    382.03712  0.025716015  0.025323195           20 
 1239000   0.74266277   -6.5708678    382.41918  0.025720957  0.025304777           10 
 1240000   0.74713569   -6.5963961    382.12316   0.02568032  0.025286432            9 
 1241000   0.76663973   -6.5662128    382.19274  0.025664299  0.025268181            8 
 1242000    0.7658482    -6.586045    382.81904  0.025685657  0.025249927            9 
 1243000   0.75974019   -6.5898403    382.95875   0.02567436  0.025231712           19 
 1244000   0.73824926    -6.612861    382.80266  0.025643265  0.025213368           29 
 1245000   0.75599997   -6.5937829    382.24424   0.02558529  0.025195094           33 
 1246000   0.76411907   -6.5975277    382.00274  0.025548605  0.025176837           10 
 1247000   0.75095879   -6.5563703    383.44158   0.02562427  0.025158603           11 
 1248000   0.74678209   -6.6104681    382.33938   0.02553014  0.025140372            9 
 1249000   0.75575931   -6.5774449    382.92347   0.02554867  0.025122225           19 
 1250000   0.75183598   -6.5898524    382.74477  0.025516318  0.025103952            8 
 1251000    0.7450226   -6.5767402    383.58584  0.025551948  0.025085759            8 
 1252000   0.75206763   -6.5987098    382.94632  0.025488972  0.025067476            5 
 1253000   0.75109175    -6.617449    382.50404  0.025439215    0.0250491           16 
 1254000   0.74586417   -6.5660721    383.71401  0.025499336  0.025030798            8 
 1255000   0.75032699   -6.5756424    382.95112  0.025428361  0.025012583           10 
 1256000   0.74781698   -6.6024595    383.27048  0.025429305  0.024994218            8 
 1257000   0.76969087   -6.5876063    384.34953   0.02548061  0.024975873            7 
 1258000   0.74532842   -6.6226713    382.89251  0.025363839  0.024957584           21 
 1259000   0.74051815   -6.6071361    383.11366  0.025358331  0.024939206            8 
 1260000   0.75403518   -6.6285848    383.23624  0.025346312  0.024920913           12 
 1261000   0.73428635   -6.6044666    382.54046  0.025280231  0.024902612            6 
 1262000   0.75143491   -6.6088273    382.66663  0.025268531   0.02488439            9 
 1263000   0.72912443   -6.5987796    383.33091  0.025292354  0.024866127            6 
 1264000     0.743422   -6.6091872    383.20715  0.025264184  0.024847948            7 
 1265000   0.74063548   -6.6284124    382.34285  0.025187276  0.024829643           18 
 1266000   0.74072359   -6.6034707     383.5983   0.02525002  0.024811345            8 
 1267000   0.72354986    -6.617273    383.62694  0.025231975  0.024793109           15 
 1268000   0.75120168   -6.6277847     383.6225  0.025211784  0.024774776            8 
 1269000   0.73491233   -6.6152251    383.42514  0.025178956  0.024756582           14 
 1270000   0.76751567    -6.567826    383.96607  0.025194624  0.024738434            7 
 1271000   0.75701795   -6.5876714    383.79635  0.025163673  0.024720364            7 
 1272000   0.73777011   -6.6206606    383.82391  0.025145696  0.024702224            6 
 1273000   0.75154491   -6.5962311    383.38857  0.025097445  0.024684055            9 
 1274000    0.7557805    -6.585549    384.09163  0.025123733  0.024665962           10 
 1275000   0.74840591   -6.5922461    384.64733  0.025140348   0.02464788           11 
 1276000   0.73835695   -6.5830099    384.18009  0.025090131  0.024629869           15 
 1277000   0.73775928   -6.5564613    384.45914  0.025088694  0.024611827           27 
 1278000   0.72420754    -6.598111    384.82151  0.025092691  0.024593719            8 
 1279000   0.74512567   -6.5870905    383.99232  0.025019046  0.024575526           13 
 1280000   0.71754426   -6.6055025    383.85303  0.024990431  0.024557325            9 
 1281000   0.74667195   -6.6108907    383.32086  0.024936304  0.024539155            8 
 1282000   0.72455372   -6.6319339      383.489  0.024927782  0.024520925            9 
 1283000   0.73955752   -6.6193858     384.4907  0.024973415  0.024502751           20 
 1284000   0.73473255   -6.6478692    383.15609  0.024867347  0.024484465            9 
 1285000   0.73778398   -6.6563209    383.14766  0.024847449  0.024466187            9 
 1286000    0.7584241   -6.6388894    383.55551  0.024854556  0.024447852           12 
 1287000   0.73057642    -6.630361    383.64555  0.024841074  0.024429426            8 
 1288000   0.75925387   -6.6571234    383.65025  0.024822092  0.024411069           23 
 1289000   0.73345582   -6.6431231    383.27758  0.024778742  0.024392711           24 
 1290000   0.73222401   -6.6519956    382.86904  0.024733142  0.024374297           29 
 1291000   0.73026613    -6.613538    383.66641  0.024765454  0.024355972           22 
 1292000   0.73513136   -6.6263043    382.83009  0.024692343  0.024337819           14 
 1293000   0.74123896   -6.6489554    384.61878  0.024788527  0.024319611           21 
 1294000   0.73495025   -6.6246397    384.07118  0.024734105  0.024301473           15 
 1295000   0.74012362   -6.6154075    384.44382  0.024738985  0.024283403           26 
 1296000    0.7416431    -6.615728    384.90294  0.024749417  0.024265393           14 
 1297000   0.73503345     -6.63081     384.9495  0.024733327  0.024247377            7 
 1298000   0.72906348   -6.6311994    384.50086  0.024685469  0.024229369            8 
 1299000   0.72697422   -6.6012231    384.90958  0.024692686  0.024211453            5 
 1300000   0.73386704   -6.6310498    384.81192  0.024667431  0.024193637            9 
 1301000   0.73420435    -6.632528    385.27208  0.024677945  0.024175716           14 
 1302000   0.72580112   -6.6069692     385.4657  0.024671384  0.024157892            7 
 1303000   0.75716242    -6.629709    385.11158  0.024629802  0.024140095           20 
 1304000   0.74542502   -6.6106113    385.35921  0.024626739  0.024122335           17 
 1305000   0.73974681   -6.6288874    385.29982  0.024604075  0.024104507           10 
 1306000   0.71464876   -6.6101467    385.87893  0.024622188   0.02408664           10 
 1307000   0.72345663   -6.6674635    384.88394  0.024539909  0.024068719           28 
 1308000   0.73707908   -6.6330647    385.69712  0.024572956  0.024050817           23 
 1309000   0.73584501     -6.65068    385.47628  0.024540125  0.024032932           33 
 1310000   0.73047771   -6.6568449    385.25073  0.024507044  0.024015077            7 
 1311000   0.72385251   -6.6681489    385.29105  0.024490913  0.023997149           16 
 1312000   0.71439802   -6.6830456    384.64873  0.024431449  0.023979125           20 
 1313000   0.72392756   -6.6803023    384.64676  0.024412716  0.023961218           20 
 1314000   0.73576446   -6.6682162    385.32579  0.024437201  0.023943227           27 
 1315000   0.73678981   -6.6477562    384.91023  0.024392283  0.023925268           27 
 1316000   0.73175553   -6.6433328    385.00179  0.024379546  0.023907409           20 
 1317000   0.72833257   -6.6861111    384.20237  0.024310451  0.023889575           22 
 1318000   0.70736743   -6.6458945    386.05707  0.024409273  0.023871726            8 
 1319000   0.72926234    -6.644717    385.94763  0.024383853  0.023854012           10 
 1320000   0.73518789   -6.6545855    385.31271  0.024325297  0.023836215           12 
 1321000   0.70657198   -6.6540172    385.56529  0.024322816  0.023818396           11 
 1322000   0.72415668   -6.6645427    386.21478  0.024345359   0.02380058            5 
 1323000   0.73833166   -6.6534476    386.06723  0.024317664  0.023782874           10 
 1324000   0.71553663   -6.6736383    385.80789  0.024282974  0.023765139           18 
 1325000   0.73516185   -6.6752363     385.5647  0.024249352  0.023747464           21 
 1326000    0.7418359   -6.6362455    385.97611   0.02425692  0.023729665           10 
 1327000   0.71600002   -6.6384313    385.44527  0.024205305   0.02371198           11 
 1328000   0.72779941   -6.6795517    385.37533  0.024182689    0.0236942            7 
 1329000   0.71014637   -6.6649199    385.57972  0.024177309  0.023676386           13 
 1330000   0.73534424   -6.6845762    384.97747  0.024121395  0.023658721           13 
 1331000    0.7240475   -6.6880203     386.2521  0.024183077  0.023640972            7 
 1332000   0.71721035   -6.6610584    386.40321  0.024174375  0.023623235           12 
 1333000   0.70754111   -6.6608632    386.62262  0.024169956  0.023605599           31 
 1334000   0.72747213    -6.679746    385.85451  0.024103855  0.023587934           26 
 1335000   0.71952251   -6.6754164    385.77462  0.024080813  0.023570292           15 
 1336000   0.71919259   -6.6938459    385.38399  0.024038423   0.02355255           12 
 1337000   0.71333136   -6.6863727     385.7677  0.024044359  0.023534755           17 
 1338000   0.71768082   -6.6906614    385.16218  0.023988676  0.023516848           12 
 1339000   0.72176221    -6.680452    386.15556  0.024032584   0.02349895           30 
 1340000   0.71290581    -6.687496    386.42854  0.024031626  0.023481068           13 
 1341000    0.7220857   -6.6792992    385.35543  0.023947019  0.023463264           16 
 1342000   0.71304394   -6.6891144    385.42764  0.023933659  0.023445436           14 
 1343000   0.71824853   -6.6897548     385.6465  0.023929418  0.023427671           12 
 1344000   0.71592967   -6.6931347    386.53223  0.023966532  0.023409943           11 
 1345000   0.72087615   -6.6805886    386.65021  0.023956023   0.02339224           10 
 1346000   0.71686174   -6.6954738    386.36539  0.023920591  0.023374595           21 
 1347000   0.71259141   -6.6723105    385.77651  0.023866401   0.02335695           11 
 1348000   0.72227208   -6.6944263    385.98478  0.023861571  0.023339365            6 
 1349000   0.71479745   -6.6912369    386.32846  0.023865114  0.023321803           23 
 1350000   0.71979215   -6.7114094    385.48985   0.02379567  0.023304137           27 
 1351000   0.72303181   -6.7175838    386.11681  0.023816729  0.023286514           25 
 1352000   0.72188094   -6.7039118    386.41794  0.023817674  0.023268815           34 
 1353000   0.71541727   -6.7143094     385.7486  0.023758844  0.023251163           34 
 1354000   0.72753696   -6.7020843    387.12429  0.023825966  0.023233582           71 
 1355000    0.7120897   -6.6978794    386.66365  0.023780052  0.023216101           48 
 1356000   0.70171535   -6.7087687     386.6985  0.023764657  0.023198564           40 
 1357000   0.71426275   -6.7217187    385.62745  0.023681372  0.023180907           16 
 1358000   0.71018528    -6.711721    386.17453  0.023697504  0.023163251           30 
 1359000   0.72175547   -6.7313211    386.13534  0.023677664  0.023145569           38 
 1360000   0.72040113   -6.6934247    386.95178   0.02371028  0.023128018           30 
 1361000   0.70173708   -6.7012312    386.44786  0.023662004  0.023110416           37 
 1362000   0.71502334   -6.7153259    387.26007  0.023694326  0.023092888           19 
 1363000   0.71259115   -6.7104252    385.52678   0.02357097  0.023075332           17 
 1364000   0.69138097   -6.7082254    386.41683  0.023608066  0.023057806           15 
 1365000   0.70797381   -6.7295479    386.10715  0.023571865  0.023040306           36 
 1366000   0.70595672   -6.6820639    387.60146   0.02364577  0.023022849           32 
 1367000   0.71556254    -6.694894    387.22762  0.023605683  0.023005436           14 
 1368000   0.71171312   -6.7057224    387.68185  0.023616097  0.022988122           14 
 1369000   0.70535792   -6.7306652     386.9483  0.023554194  0.022970744           13 
 1370000   0.71230663   -6.7177754    386.38144  0.023502521  0.022953297           13 
 1371000   0.69584359   -6.7093449    386.46952  0.023490732  0.022935951           14 
 1372000   0.69359941   -6.6982064    387.85248  0.023557609  0.022918733            7 
 1373000   0.69763793   -6.7043323    387.33954  0.023509319  0.022901504           18 
 1374000   0.69599639   -6.7178687    386.89216  0.023465075  0.022884269           19 
 1375000    0.7040107   -6.6960192    387.72496  0.023498482  0.022867003            8 
 1376000   0.70194384   -6.7069429    387.91591  0.023492969  0.022849781           16 
 1377000   0.71918416    -6.723493    388.08544  0.023486168   0.02283258           14 
 1378000   0.69732362     -6.73621    387.22056  0.023416822  0.022815366           13 
 1379000   0.70458476   -6.7260111    387.86447  0.023438752  0.022798187           14 
 1380000    0.6966052   -6.7463548    387.45218  0.023396871  0.022780959           12 
 1381000   0.69987994    -6.732952    387.36534  0.023374689  0.022763772           33 
 1382000   0.69832574   -6.7456601     387.6517  0.023375042  0.022746567           18 
 1383000   0.70552807   -6.7404349    387.71344  0.023361861  0.022729404           15 
 1384000   0.71498315   -6.7236882    388.38706  0.023385541  0.022712297           12 
 1385000   0.70292925   -6.7358509    387.60278  0.023321467  0.022695245           12 
 1386000    0.6965251   -6.7114602    388.48961  0.023357961   0.02267821           20 
 1387000   0.71436488   -6.7359098    387.65417  0.023290926  0.022661171           26 
 1388000     0.702926   -6.7472078    388.25181  0.023310027  0.022644049           10 
 1389000   0.69537406   -6.7522877    387.81345  0.023266946  0.022627062           38 
 1390000    0.7008458   -6.7252067    388.33222  0.023281308   0.02261003           21 
 1391000   0.69790746   -6.7162697    388.45684  0.023272037  0.022592972           17 
 1392000   0.70867792   -6.7682217    387.38849  0.023191361  0.022575944            9 
 1393000   0.70398463   -6.7177259    388.61954  0.023248358  0.022558982           16 
 1394000   0.71530059   -6.7539884     388.1494  0.023203575  0.022542039           28 
 1395000   0.69885282   -6.7443108    387.30391  0.023136434  0.022525015           11 
 1396000   0.69620578   -6.7436374    388.06532  0.023165313   0.02250806           14 
 1397000   0.71029437   -6.7486512    387.98549  0.023143969  0.022491108           31 
 1398000   0.68590307   -6.7242186    388.37287  0.023150505  0.022474169           13 
 1399000   0.69239944   -6.7374874    388.42897  0.023137299  0.022457258           41 
 1400000   0.69041278   -6.7373283    387.84828  0.023086207  0.022440217           15 
 1401000   0.69837049   -6.7392311     388.4616   0.02310621  0.022423285           19 
 1402000   0.69973287   -6.7660003     388.5086  0.023092523   0.02240636           18 
 1403000   0.69678289   -6.7671159    387.34042  0.023006677  0.022389341           12 
 1404000   0.69015398   -6.7610813    387.72438  0.023013081  0.022372408           12 
 1405000   0.69505827   -6.7543033     388.3851  0.023035889  0.022355439           10 
 1406000    0.6824323   -6.7335613    387.82553   0.02298634  0.022338465           10 
 1407000   0.70229576   -6.7575979    387.97957  0.022979126  0.022321498           11 
 1408000   0.69012255    -6.779685    387.84213  0.022954671  0.022304525            6 
 1409000   0.67419413   -6.7619016    388.53195  0.022979179  0.022287583           10 
 1410000   0.68208329   -6.7613836    388.40855  0.022955588  0.022270682            8 
 1411000    0.6886236    -6.771822    387.87794  0.022907981  0.022253765           12 
 1412000   0.70535958   -6.7855094    388.24004  0.022913128  0.022236786           16 
 1413000   0.69824367   -6.7703363     387.2853  0.022840605  0.022219856           16 
 1414000   0.69111637   -6.7550188    389.02628  0.022927056  0.022203009           14 
 1415000   0.66701928   -6.7651147    387.91935  0.022845662  0.022186161           14 
 1416000   0.67115007   -6.7914227    387.93842  0.022830651  0.022169272           14 
 1417000   0.68469547   -6.7502052    388.97862  0.022875713  0.022152404           16 
 1418000    0.6716515   -6.7528532    388.48689  0.022830683  0.022135605           14 
 1419000   0.69542964   -6.7928364    389.31701  0.022863343  0.022118842           13 
 1420000     0.686334   -6.7972388    388.06193  0.022773587  0.022102073            8 
 1421000   0.69690846   -6.7931021    388.56945  0.022787324  0.022085268           18 
 1422000    0.6874608    -6.750516    388.64631  0.022775803  0.022068488           12 
 1423000   0.67809693   -6.7713364    388.42811   0.02274702  0.022051732           22 
 1424000   0.68968609   -6.7729908    388.85067  0.022755774  0.022034915           11 
 1425000   0.68513345   -6.7664545    389.33303  0.022768013  0.022018175           18 
 1426000     0.681139   -6.7869527    388.38267   0.02269651  0.022001427           19 
 1427000   0.68801494   -6.7571788    388.87397  0.022709295  0.021984709           26 
 1428000   0.69342885    -6.783494     388.8034  0.022689274  0.021968072           21 
 1429000   0.68175755   -6.7878356    388.66166  0.022665131  0.021951412           22 
 1430000    0.6879093   -6.7782761    389.19655  0.022680452  0.021934844           18 
 1431000   0.68879026   -6.7913656    388.54714  0.022626784  0.021918282           19 
 1432000   0.67168085   -6.7769373    389.76251  0.022681711  0.021901694           37 
 1433000   0.69082003   -6.7830398    389.27877  0.022637751   0.02188523           21 
 1434000   0.66997566   -6.7868695    388.88006  0.022598795  0.021868702           22 
 1435000   0.67183612   -6.7842587    389.64913  0.022627708  0.021852162           43 
 1436000   0.68190001   -6.7899846    389.97179  0.022630675  0.021835676           19 
 1437000   0.68027055   -6.8120312     388.7596   0.02254463  0.021819274           22 
 1438000   0.66152487   -6.7879786    389.55277  0.022574917  0.021802742           45 
 1439000   0.68767964    -6.802312    389.60889  0.022562479  0.021786236           17 
 1440000   0.66991299     -6.78395    389.48612  0.022539706  0.021769767           49 
 1441000   0.67147169   -6.7840652    389.60608  0.022531002  0.021753226           40 
 1442000   0.67836859   -6.7763355    389.61395  0.022515832  0.021736718           36 
 1443000   0.68162677   -6.7850827    390.61175  0.022557851   0.02172032           13 
 1444000    0.6851617   -6.8313149    389.83766  0.022497557  0.021703917           18 
 1445000   0.66017375    -6.810855      390.028  0.022492964  0.021687477           23 
 1446000   0.69238006   -6.7935938    389.59881  0.022452675  0.021671103           29 
 1447000   0.68014701   -6.7779972    390.27542  0.022476124  0.021654734           29 
 1448000   0.67181692   -6.7872597    389.40615  0.022410575   0.02163834           27 
 1449000   0.66790316   -6.8061582    389.55108  0.022403444  0.021621968           21 
 1450000   0.66598704   -6.8152021    388.63206  0.022335176  0.021605582           18 
 1451000    0.6688047   -6.7983646    388.81181  0.022330106  0.021589212           31 
 1452000   0.66925915   -6.7977438    390.52415  0.022413002  0.021572889           20 
 1453000   0.67760852   -6.7777374    390.45554  0.022393642  0.021556663           20 
 1454000   0.64968132   -6.8027761    390.23008  0.022365319  0.021540444           17 
 1455000   0.67478158   -6.8002247    390.28567  0.022353131  0.021524166           40 
 1456000   0.66216464   -6.8056545     389.7637  0.022307904  0.021507859           31 
 1457000    0.6741756   -6.8110377     390.0328  0.022307985  0.021491535           47 
 1458000   0.67113273   -6.8135411    390.23584  0.022304289  0.021475227           58 
 1459000    0.6622258   -6.8232485    390.28129  0.022291598  0.021458913           28 
 1460000   0.66390403   -6.8283009    389.51493  0.022232587  0.021442605           18 
 1461000   0.67820081   -6.8284481    389.34049   0.02220742   0.02142629           16 
 1462000   0.68150777   -6.7910996    390.27311  0.022245389  0.021409975           20 
 1463000   0.67434884   -6.8326424    389.51196  0.022186829  0.021393669           27 
 1464000   0.68770392   -6.8421274    389.42804  0.022166897  0.021377353           42 
 1465000   0.67298998   -6.8228135    389.29425  0.022144155  0.021361071           24 
 1466000   0.68588834   -6.8098246     389.8879  0.022162796  0.021344877           19 
 1467000   0.66518299   -6.8261069    389.52538  0.022127095  0.021328625           18 
 1468000   0.64802405    -6.838957    389.95746   0.02213655  0.021312336           28 
 1469000     0.672165   -6.8590687    389.38822  0.022089189  0.021296016           19 
 1470000   0.66570838   -6.8229236    390.54363  0.022139662  0.021279774           24 
 1471000   0.64270311   -6.7941233    390.25032  0.022107995  0.021263531           34 
 1472000    0.6596996   -6.8328989    389.86823  0.022071344  0.021247299           21 
 1473000   0.66917509   -6.8394689    389.65921  0.022044535  0.021231123           14 
 1474000   0.66317492   -6.8438199    389.74718  0.022034553  0.021214869           38 
 1475000   0.65298951   -6.8323586     390.2151  0.022046051  0.021198625           20 
 1476000   0.66138198   -6.8414846    389.26281  0.021977349  0.021182386           28 
 1477000   0.66793065    -6.827638    391.06458  0.022064126  0.021166139           13 
 1478000   0.64963513   -6.8576658    388.99247  0.021932367  0.021149882           21 
 1479000   0.66649633   -6.8409381    389.33933  0.021937082  0.021133655           16 
 1480000   0.66639239   -6.8219556     390.1887  0.021970084  0.021117454           18 
 1481000   0.66925563   -6.8423478    389.94956  0.021941794  0.021101292           19 
 1482000    0.6646458   -6.8329163    389.90617  0.021924549   0.02108516           13 
 1483000    0.6653739   -6.8472637    390.01514  0.021915888  0.021069022           37 
 1484000   0.66319372   -6.8419179    389.37781  0.021865331    0.0210529           21 
 1485000   0.66769593     -6.83599    388.82106  0.021819364  0.021036735           38 
 1486000   0.65502657    -6.855673    389.64598  0.021850941  0.021020578           35 
 1487000   0.66449886    -6.838208    389.82108  0.021846059   0.02100438           43 
 1488000   0.67775309   -6.8255607    390.41312  0.021864534  0.020988247           77 
 1489000   0.65430121   -6.8461149    389.90503  0.021821414   0.02097212           18 
 1490000   0.67565167    -6.833559    389.76678  0.021799037  0.020956074           63 
 1491000   0.66000897    -6.836025    390.08192   0.02180203   0.02093999           20 
 1492000   0.67258308    -6.860791    389.08579   0.02173178  0.020923917           65 
 1493000   0.66274784   -6.8249465    390.05411  0.021771272  0.020907874           23 
 1494000   0.65921033   -6.8399153    389.70029  0.021736964  0.020891827           19 
 1495000   0.64962625   -6.8398108    389.71749  0.021723383  0.020875745           51 
 1496000   0.65376381    -6.823918    389.92388  0.021720358  0.020859681           17 
 1497000   0.66346764   -6.8310257    390.15058  0.021718469  0.020843728           21 
 1498000   0.65992279   -6.8298366    389.48807  0.021667116  0.020827774           52 
 1499000   0.64611109    -6.854602     389.1449  0.021633584   0.02081177           55 
 1500000   0.65749312   -6.8337907    389.74413  0.021652452  0.020795722           21 
 1501000   0.63870368   -6.8523206     389.0976  0.021602132  0.020779637           90 
 1502000    0.6563191   -6.8749763    388.52682  0.021556082  0.020763505           65 
 1503000   0.65047548   -6.8509661    389.20453  0.021579315  0.020747382           21 
 1504000   0.65021898   -6.8691813    389.89096  0.021603001  0.020731309           45 
 1505000   0.65488533   -6.8742335    389.85507  0.021586659  0.020715228           49 
 1506000   0.67105473   -6.8577557    390.19101  0.021590915  0.020699227           29 
 1507000   0.64944732   -6.8613355    389.90095  0.021560548  0.020683238           37 
 1508000   0.65792441   -6.8663018    390.01449  0.021552525   0.02066728           36 
 1509000   0.63790482   -6.8710624    390.02765  0.021538969  0.020651316           44 
 1510000   0.64319677   -6.8758571    389.66757  0.021504833  0.020635369           44 
 1511000   0.64672487   -6.8544059     389.8962   0.02150321  0.020619361           53 
 1512000   0.64708425   -6.8850801    389.99725  0.021494558  0.020603438           40 
 1513000   0.65671849   -6.8705656    389.22669   0.02143791    0.0205875           39 
 1514000   0.64544266   -6.8744605    389.81612  0.021456193  0.020571522           30 
 1515000   0.65628673   -6.8528824    389.38171  0.021418136   0.02055559           28 
 1516000   0.65286687   -6.8730221    389.13596  0.021390499   0.02053966           21 
 1517000   0.64716101   -6.8891224    389.49881  0.021396331  0.020523706           43 
 1518000   0.64976006   -6.9018063    388.73894  0.021340522  0.020507742           50 
 1519000   0.65168711   -6.8816459    388.87237  0.021333793  0.020491771           24 
 1520000   0.65560509   -6.8801241    388.72549  0.021311704  0.020475796           30 
 1521000   0.63207714   -6.8892232    388.17598  0.021267586  0.020459831           42 
 1522000   0.65715606   -6.8680478    388.38041  0.021264806  0.020443881           44 
 1523000   0.65443327    -6.894462    389.80117  0.021328583  0.020427944           41 
 1524000   0.63382738   -6.8786651    389.44255  0.021294978  0.020411978           19 
 1525000   0.65591301   -6.8874842    389.88766  0.021305337  0.020396038           30 
 1526000   0.64525763   -6.8913721    388.67099  0.021224934  0.020380144           29 
 1527000   0.64064272   -6.8669723    390.44662  0.021307936  0.020364318           19 
 1528000   0.65552511   -6.8808806    389.97059  0.021268029  0.020348535           31 
 1529000   0.64843844   -6.8757737    389.62301  0.021235176   0.02033275           22 
 1530000   0.64234694   -6.8976485    389.58055  0.021218984  0.020316947           49 
 1531000    0.6331454   -6.8926098    388.96091  0.021171397  0.020301153           24 
 1532000   0.64835581   -6.9015566    389.62556  0.021193731  0.020285401           34 
 1533000    0.6403975   -6.8904807    390.04708   0.02120282  0.020269679           33 
 1534000   0.65151185   -6.9126936    389.45228  0.021156686  0.020253948           42 
 1535000   0.62559227   -6.8966726    389.91582  0.021168068  0.020238217           77 
 1536000   0.67003586   -6.9023955    389.32785  0.021122388  0.020222535           37 
 1537000   0.64734589   -6.9034661    389.51476  0.021118779  0.020206792           43 
 1538000   0.65574565    -6.920668    389.17017  0.021086377  0.020191051           41 
 1539000   0.64327659    -6.904306    389.04743  0.021066029  0.020175329           37 
 1540000   0.64683861   -6.9083074     389.0236  0.021051061  0.020159651           30 
 1541000   0.63735166    -6.894435    389.95002  0.021087499  0.020143943           34 
 1542000   0.63309911   -6.9135405    389.59372  0.021054567  0.020128245           30 
 1543000   0.63257983   -6.9127852     388.5194  0.020982901  0.020112567           25 
 1544000   0.63893314   -6.9148223    390.52269  0.021077434  0.020096851           20 
 1545000   0.63718787   -6.9464192    388.69658  0.020965295  0.020081143           31 
 1546000   0.63268579   -6.9435461    388.82285  0.020958541  0.020065424           31 
 1547000   0.62273885   -6.9284834    388.60033  0.020933006  0.020049719           52 
 1548000    0.6328194   -6.9101043    388.54425  0.020916465  0.020034051           23 
 1549000   0.64009702   -6.9163976    388.98084  0.020926449  0.020018355           21 
 1550000   0.61579007   -6.9314809    389.50851  0.020941318  0.020002642           44 
 1551000   0.62855402   -6.9148748    389.69355  0.020937758  0.019987007           32 
 1552000   0.63068706   -6.9305356    388.54006  0.020862331  0.019971387           55 
 1553000    0.6158776   -6.9290239    389.81677  0.020917406  0.019955716           30 
 1554000   0.63227449   -6.9156857    389.07493  0.020864164  0.019939998           58 
 1555000   0.63273018   -6.9370002     388.0455  0.020795579  0.019924329           44 
 1556000   0.64547657   -6.9560222    389.29754  0.020849268   0.01990861           38 
 1557000    0.6411408   -6.9396537    389.46032   0.02084459  0.019892907           49 
 1558000   0.63667995   -6.9224708    389.33115  0.020824302  0.019877289           37 
 1559000    0.6389535   -6.9146299    389.06608  0.020796776  0.019861682           28 
 1560000   0.63746032   -6.9041806    388.88095  0.020773555  0.019846099           20 
 1561000   0.62936653   -6.9101724    388.64706  0.020747761   0.01983048           30 
 1562000   0.63487534   -6.9467073    388.79252  0.020742238  0.019814903           23 
 1563000   0.62515599   -6.9109427    389.42932   0.02076292  0.019799282           26 
 1564000   0.62688214   -6.9176175    388.84419  0.020718467  0.019783702           24 
 1565000   0.62643405   -6.9336713    388.48171  0.020685927  0.019768107           32 
 1566000   0.63345466   -6.9276037     388.6319   0.02068071   0.01975254           67 
 1567000   0.60667883   -6.9459357    388.10464  0.020639472  0.019736951           64 
 1568000    0.6166167   -6.9362061    388.79817  0.020663168  0.019721343           51 
 1569000   0.63382875   -6.9351432    388.23179  0.020619917  0.019705808           76 
 1570000   0.62482074   -6.9331811    388.29254  0.020610008  0.019690291           78 
 1571000   0.63074349   -6.9384856    389.01191  0.020635047  0.019674726           46 
 1572000   0.61550134   -6.9431924    387.83409  0.020559483  0.019659203           56 
 1573000   0.61417693   -6.9371084    388.53628  0.020583613  0.019643713           48 
 1574000   0.62498261   -6.9309005     388.7376  0.020581194  0.019628257           65 
 1575000   0.63766747   -6.9487826    388.86168  0.020574692  0.019612821           89 
 1576000   0.63440225   -6.9401959    388.44547  0.020539629  0.019597369          108 
 1577000   0.62470796    -6.961314    388.42021   0.02052527  0.019581907           28 
 1578000   0.62454535   -6.9781108    388.39587  0.020510978  0.019566436           26 
 1579000   0.62192304   -6.9343662    388.28083  0.020491916  0.019550972           43 
 1580000   0.61360928   -6.9505321    389.39707   0.02053782  0.019535557           23 
 1581000   0.61550127   -6.9579074    388.17432   0.02046038  0.019520106           53 
 1582000   0.63095878   -6.9661653    388.49195  0.020464178  0.019504673           66 
 1583000   0.62053484   -6.9562135    387.97097  0.020423824  0.019489225           46 
 1584000   0.61412494   -6.9751873    389.02784  0.020466532  0.019473795           51 
 1585000   0.61178217   -6.9220092    388.93537  0.020448758  0.019458341           92 
 1586000   0.61977106   -6.9758349    388.96623  0.020437486  0.019442962           56 
 1587000   0.62358138   -6.9602151    388.82832  0.020417366    0.0194276           54 
 1588000   0.62160015   -6.9561174    388.82179  0.020404166  0.019412194           24 
 1589000   0.61560566    -6.960871    387.79466  0.020337459    0.0193968           47 
 1590000   0.61202075   -6.9440787    388.25739   0.02034892  0.019381434           52 
 1591000   0.62032051   -6.9706606    388.73197  0.020360987   0.01936602          107 
 1592000   0.61586774   -6.9756706    388.27304  0.020324175  0.019350648           33 
 1593000   0.61095501   -6.9650252    388.33739  0.020314783  0.019335295           58 
 1594000   0.61406022   -6.9642718    388.33545  0.020301937  0.019319942          123 
 1595000   0.61579358   -6.9555026    387.86601  0.020264682   0.01930463          133 
 1596000   0.61524802   -6.9716786    388.82213  0.020301908  0.019289377           97 
 1597000   0.63163479   -6.9301708     388.8012  0.020288103  0.019274151           86 
 1598000   0.61466143   -6.9756697    387.87266  0.020226985  0.019258911           92 
 1599000   0.61351508   -6.9849064    388.04258  0.020223191  0.019243645           65 
 1600000   0.62376234   -6.9853276    388.82074   0.02025108  0.019228376           97 
 1601000   0.60865496   -6.9903323    388.42378  0.020217769    0.0192131           98 
 1602000   0.61599675   -6.9971678    387.31232  0.020147332  0.019197791           41 
 1603000   0.60520265   -6.9982079    387.89962  0.020165295   0.01918247           72 
 1604000   0.60620904   -6.9841226    387.76841  0.020145907   0.01916718          150 
 1605000   0.61928815    -6.979244    389.11113   0.02020307  0.019151897           95 
 1606000   0.60939492   -7.0204657    388.51367  0.020159489  0.019136654           89 
 1607000   0.62040786    -6.980179    388.07867  0.020124386  0.019121417           61 
 1608000   0.61210155   -6.9735917    388.47825  0.020132579   0.01910615          220 
 1609000   0.61540658   -6.9854513    387.89239  0.020089724   0.01909089          117 
 1610000   0.61900133   -6.9884242    388.48057   0.02010769  0.019075691           22 
 1611000   0.60950746   -6.9762214    388.67401  0.020105215   0.01906052           63 
 1612000   0.61053279   -7.0020357    387.55588   0.02003494  0.019045333          249 
 1613000   0.60126492   -6.9927538    388.61036  0.020076997  0.019030166          105 
 1614000   0.62547031   -6.9849691    387.61507  0.020013169  0.019015016          119 
 1615000    0.6011613   -7.0227019    387.84091  0.020012431  0.018999865          138 
 1616000   0.61422761   -6.9918201    388.67689  0.020043157  0.018984722          111 
 1617000   0.61477756   -6.9875755       388.65  0.020029375  0.018969619           86 
 1618000   0.60365264   -6.9968222    388.31408  0.019999695  0.018954558           33 
 1619000   0.60599547   -6.9935854    387.90548  0.019966311  0.018939475           58 
 1620000   0.59289678   -6.9864697    387.71901  0.019944393  0.018924387          108 
 1621000   0.61149309   -6.9811998    388.46591  0.019970487  0.018909328           65 
 1622000   0.61722476   -6.9981832    388.54442  0.019962208  0.018894289           83 
 1623000   0.61012139    -7.000113    388.00157  0.019922036  0.018879265          156 
 1624000   0.61038592   -6.9755519    387.56865  0.019887554  0.018864241          160 
 1625000   0.60288651   -6.9957463    388.21992  0.019908714   0.01884924          239 
 1626000   0.61569928   -6.9901498    388.56034  0.019913917   0.01883421          221 
 1627000   0.60225411   -6.9992469    388.13181  0.019879728  0.018819183          162 
 1628000   0.58455003   -7.0027289    387.82999  0.019852067  0.018804143          152 
 1629000   0.60485983   -7.0057842    387.60807  0.019828528  0.018789097           95 
 1630000   0.61226214   -7.0105434    388.05942  0.019839439  0.018774084          212 
 1631000   0.60031404   -6.9933557    387.39549  0.019793352  0.018759058          128 
 1632000   0.60601552    -7.018195    387.22996  0.019772772  0.018744054           40 
 1633000   0.61560897   -7.0096692    387.67169  0.019783205    0.0187291           80 
 1634000   0.59665318   -7.0193661    387.89005  0.019782234  0.018714163           90 
 1635000   0.60857128   -7.0218342    387.71531  0.019761229  0.018699212           87 
 1636000   0.60013774   -7.0260916    387.05592  0.019715563  0.018684242           58 
 1637000   0.59806562     -7.02078     386.9979  0.019700565  0.018669295           87 
 1638000   0.59450431   -7.0328862      387.231  0.019700397  0.018654342           72 
 1639000   0.59306939   -7.0050641    389.00587  0.019778619  0.018639442           77 
 1640000   0.60299483   -7.0344757    387.95755   0.01971329  0.018624504           81 
 1641000   0.60247498   -7.0258188    387.57657   0.01968193  0.018609599          115 
 1642000   0.59658574   -7.0040857    387.81251  0.019681918  0.018594737          107 
 1643000   0.59665291   -7.0141788     388.4768  0.019703631  0.018579877          129 
 1644000   0.61113436   -7.0114338    388.87467  0.019711814  0.018565058          152 
 1645000   0.58972102    -7.016289    387.27781  0.019618937  0.018550244          114 
 1646000   0.58959835   -7.0335665    387.22457  0.019604322  0.018535391          102 
 1647000   0.60443761   -7.0095847    387.55986  0.019609384  0.018520575           97 
 1648000   0.59530107   -7.0291394    386.82722  0.019560438  0.018505746           49 
 1649000   0.59728075   -7.0267138    387.64615  0.019589961   0.01849091          134 
 1650000   0.57577702    -7.035901    387.64605  0.019578083  0.018476079           97 
 1651000   0.60414241   -7.0388218    388.42868  0.019605728  0.018461234           88 
 1652000   0.59484486   -7.0326525    386.34712  0.019488858  0.018446404           79 
 1653000   0.59303504   -7.0531851    386.40405  0.019479938  0.018431527           48 
 1654000   0.60641788   -7.0381975    387.76398  0.019536677  0.018416719          124 
 1655000   0.59327451   -7.0662801    386.92135  0.019482444  0.018401886           56 
 1656000   0.60221798   -7.0602143    387.14201  0.019481784  0.018387085          113 
 1657000    0.6084226   -7.0453221    387.34608   0.01948029  0.018372264          140 
 1658000   0.59158506    -7.043537    387.55985  0.019479285  0.018357499          149 
 1659000   0.59594516   -7.0334236    387.34773  0.019456888  0.018342728          104 
 1660000    0.5978664   -7.0426756    387.69008  0.019462354  0.018327959          140 
 1661000   0.60085623   -7.0559985    386.58616  0.019395252  0.018313187           88 
 1662000   0.58362803   -7.0377303     386.8317  0.019395893  0.018298418           52 
 1663000   0.58602567   -7.0415027    387.14881  0.019400121  0.018283665           54 
 1664000   0.59793269   -7.0503575    387.26352  0.019394206  0.018268897          143 
 1665000   0.59469173   -7.0492353    386.28552  0.019333609  0.018254154          134 
 1666000   0.58751015   -7.0579383    386.92058   0.01935377    0.0182394          201 
 1667000   0.60223294   -7.0730432    386.43901  0.019318087  0.018224677          107 
 1668000   0.59963109   -7.0534518    387.00074  0.019334569  0.018209953          124 
 1669000   0.58348326   -7.0392689    386.91234  0.019318571  0.018195243           69 
 1670000   0.57643508   -7.0588746    386.48202   0.01928553  0.018180577          185 
 1671000   0.57966519   -7.0460127    386.94064   0.01929686  0.018165863          122 
 1672000   0.58917296   -7.0634739    386.31801  0.019254287  0.018151162          166 
 1673000   0.59405005   -7.0835729    386.31637  0.019242696  0.018136489          166 
 1674000   0.58564669   -7.0500596     385.9426  0.019212595  0.018121851           84 
 1675000   0.57499327   -7.0535599    387.02158  0.019254805  0.018107174          201 
 1676000   0.59669382   -7.0695358    386.31633   0.01920825   0.01809252          136 
 1677000    0.5852297   -7.0605298    386.49337  0.019205594  0.018077896           61 
 1678000   0.59224647   -7.0652286    386.38169  0.019188602  0.018063265          118 
 1679000   0.58394259   -7.0605119    386.70649  0.019193294  0.018048627          103 
 1680000   0.58665512   -7.0744345    387.10696  0.019201734   0.01803399          211 
 1681000   0.57172667   -7.0640168    386.61272   0.01916581  0.018019372          240 
 1682000   0.57189394   -7.0810077    386.29353  0.019138601  0.018004773          236 
 1683000   0.57765804   -7.0709562    385.55064  0.019090446  0.017990167          240 
 1684000   0.57489213   -7.0868735    385.84794  0.019093821  0.017975545          215 
 1685000   0.58242291   -7.0751981    386.71793  0.019125516  0.017960981          180 
 1686000   0.58465345   -7.0690838    386.11948  0.019084593  0.017946426          191 
 1687000   0.57636711   -7.0881968    385.92066  0.019063459  0.017931878          188 
 1688000     0.590377   -7.0885843     386.5073  0.019081126  0.017917312          210 
 1689000   0.57749771   -7.0787952    386.26629  0.019057938  0.017902778          144 
 1690000   0.58372379   -7.0903959    386.50766  0.019058563  0.017888279          188 
 1691000    0.5884549   -7.0672168    387.24962  0.019083857  0.017873781          120 
 1692000   0.58271703   -7.0875906    386.58449  0.019039819  0.017859312          124 
 1693000   0.56934638    -7.087175    386.03131  0.019001344  0.017844825          117 
 1694000   0.58222261   -7.0890254    386.65626  0.019020871  0.017830362          203 
 1695000   0.58679258   -7.0826605    386.28618  0.018991454  0.017815915          217 
 1696000    0.5805053   -7.0774744    387.10942  0.019020707  0.017801495          131 
 1697000   0.57035723   -7.0898679    386.50653  0.018979892  0.017787107          210 
 1698000   0.57093658    -7.093541    386.32195  0.018959656  0.017772733          136 
 1699000   0.57985667    -7.088037    386.47138  0.018955826  0.017758367          305 
 1700000   0.58198119   -7.0909695    386.37621  0.018940011  0.017744011          180 
 1701000   0.56555257   -7.0865415    386.11265  0.018915964  0.017729626          159 
 1702000    0.5806365   -7.0817327    386.87443  0.018942148  0.017715285          157 
 1703000   0.57638014   -7.1143961    386.48823  0.018912127  0.017700934          316 
 1704000   0.57614911   -7.0918033    385.68259  0.018861629  0.017686563          148 
 1705000   0.56009147   -7.1220655    386.17803  0.018874781  0.017672204          260 
 1706000   0.55425236    -7.086275    387.16521  0.018911939  0.017657869          243 
 1707000   0.58402549   -7.0999188     386.0362  0.018845743  0.017643554          315 
 1708000   0.56545996   -7.1199058     386.0233   0.01883408  0.017629221          334 
 1709000   0.58052136   -7.1070716    385.52814  0.018798914   0.01761492          293 
 1710000   0.56746729   -7.1018093    385.90302   0.01880619  0.017600678          277 
 1711000      0.56588   -7.0946124    386.17829  0.018808605  0.017586437          166 
 1712000   0.56376748   -7.0930457    387.49876  0.018861894  0.017572216          271 
 1713000   0.57338208   -7.1288696    386.46907  0.018800791   0.01755802          256 
 1714000   0.56661797   -7.1238517    385.64541  0.018749777  0.017543846           68 
 1715000   0.56572813   -7.1078068    385.49556  0.018731563  0.017529639          270 
 1716000   0.56671339   -7.1120336    386.06207  0.018748158  0.017515467          283 
 1717000     0.569455   -7.0950395    386.29105  0.018748352  0.017501297          246 
 1718000   0.56328198   -7.1245353    385.43241   0.01869579  0.017487132          234 
 1719000    0.5693431   -7.1057531    385.64382  0.018695163  0.017472995          421 
 1720000   0.55395982   -7.0973233    385.53352  0.018678949  0.017458869          202 
 1721000   0.56959316   -7.1137104    386.56477  0.018718031  0.017444723          336 
 1722000   0.56363831   -7.1226843    385.33774  0.018647781   0.01743059          274 
 1723000   0.55943414   -7.1208784    385.91101  0.018664684  0.017416453          278 
 1724000   0.57295564   -7.1144812    385.79016  0.018648016  0.017402333          360 
 1725000    0.5715636   -7.1216961    386.88196   0.01868995  0.017388255          243 
 1726000   0.57351832   -7.1163487    385.25563    0.0186006   0.01737415          336 
 1727000   0.55971291   -7.1359267      385.693  0.018610934  0.017360094          309 
 1728000   0.57046072    -7.112736    385.95506  0.018612802  0.017346037          214 
 1729000   0.57276701    -7.119646    385.71991  0.018590703  0.017331986          238 
 1730000   0.56032288   -7.1257925    386.22716  0.018604391  0.017317953          361 
 1731000   0.55379866   -7.1194089     386.0574  0.018585471  0.017303933          321 
 1732000   0.56320938   -7.1348586    386.20633  0.018581906   0.01728994          361 
 1733000   0.55316944   -7.1426707    386.42392  0.018581646  0.017275947          400 
 1734000    0.5625466   -7.1141272    385.91267   0.01854636  0.017261967          461 
 1735000   0.55103229   -7.1393884    385.50786  0.018516228  0.017247975          370 
 1736000   0.57616435   -7.1195552    385.88246  0.018523544  0.017234008          353 
 1737000   0.54940945   -7.1356247    385.70093   0.01850417  0.017220059          418 
 1738000   0.56117347   -7.1414969    386.30652  0.018522561  0.017206117          419 
 1739000   0.56174161    -7.115556    385.98647  0.018496572  0.017192184          413 
 1740000   0.55390792   -7.1130884    385.82574  0.018478244  0.017178249          404 
 1741000   0.55501519   -7.1209727    385.49989  0.018452034  0.017164327          298 
 1742000   0.55444803   -7.1245342    385.20977  0.018427563  0.017150434          416 
 1743000   0.55411383   -7.1334639    386.00176  0.018454856  0.017136559          405 
 1744000   0.57463356   -7.1321241    385.37831  0.018414483  0.017122688          478 
 1745000   0.55486993     -7.13169    385.59006  0.018414043  0.017108823          441 
 1746000   0.56907925   -7.1449702    384.93966  0.018372454  0.017094957          389 
 1747000   0.55919267   -7.1299662    386.08971  0.018416796  0.017081139          338 
 1748000   0.55422556   -7.1201663    385.94028  0.018399136  0.017067338          473 
 1749000   0.55788357   -7.1433575    385.59988  0.018372397  0.017053551          380 
 1750000   0.54401671   -7.1391351    386.02022  0.018381915  0.017039771          343 
 1751000   0.55172638   -7.1258012    385.12302  0.018328718  0.017026004          354 
 1752000   0.55104274   -7.1420839    385.04411  0.018314503  0.017012252          286 
 1753000   0.56719958   -7.1553985    386.06744  0.018352702  0.016998539          425 
 1754000   0.55944832   -7.1145995    385.84936  0.018331878  0.016984831          452 
 1755000   0.54993282   -7.1396335    385.63081  0.018311055  0.016971119          419 
 1756000   0.54427312   -7.1381685    386.06227  0.018321102  0.016957428          383 
 1757000   0.55617212   -7.1307599    385.51881  0.018284899  0.016943734          442 
 1758000   0.53813117   -7.1303866    385.88088  0.018291661  0.016930095          455 
 1759000   0.55845432   -7.1522293    386.05556  0.018289538  0.016916434          413 
 1760000   0.55298136   -7.1333679     385.4642  0.018251146  0.016902763          418 
 1761000   0.54873512   -7.1613326    384.88278  0.018213268  0.016889108          467 
 1762000   0.55149754   -7.1490484    385.73602  0.018243285  0.016875459          479 
 1763000   0.55267435   -7.1708589    385.66884  0.018229762  0.016861833          489 
 1764000    0.5542615   -7.1416925    385.77287  0.018224342  0.016848199          527 
 1765000   0.55182118   -7.1506105    385.52037  0.018202095  0.016834586          439 
 1766000   0.56779028   -7.1525019    385.16863   0.01817519  0.016820993          485 
 1767000   0.54668515   -7.1450202    385.25985  0.018169206  0.016807431          322 
 1768000   0.55418814    -7.146609    385.31709  0.018161628  0.016793858          337 
 1769000   0.54309059   -7.1718619    385.18264  0.018145027  0.016780296          467 
 1770000   0.54765068   -7.1645023    386.09553  0.018177756  0.016766754          362 
 1771000   0.55113351   -7.1666518    385.56048  0.018142315  0.016753231          471 
 1772000   0.54869676   -7.1683949     385.5714   0.01813259  0.016739692          395 
 1773000   0.55364778   -7.1615224    385.23139  0.018106382  0.016726159          476 
 1774000   0.53975803   -7.1655879    384.47434  0.018060613  0.016712637          347 
 1775000   0.54069153   -7.1503322    385.81766  0.018113505  0.016699152          437 
 1776000    0.5292438   -7.1548837    385.13443  0.018071248  0.016685666          369 
 1777000    0.5440558   -7.1758655    385.11664  0.018060244  0.016672183          400 
 1778000   0.52982139   -7.1520673    385.56481  0.018071091  0.016658715          374 
 1779000   0.54366741   -7.1566371     385.4923  0.018057537  0.016645269          469 
 1780000   0.54383965    -7.166813    384.97917  0.018023369  0.016631816          410 
 1781000   0.54494903   -7.1695169    385.34479  0.018030357  0.016618386          401 
 1782000   0.53694619   -7.1661939    385.50694  0.018027822  0.016604948          264 
 1783000   0.53812781   -7.1667415    385.18421  0.018002627  0.016591538          447 
 1784000   0.54206596   -7.1667174    384.90766  0.017979618  0.016578155          361 
 1785000    0.5382632   -7.1689339    385.49436  0.017996936  0.016564758          238 
 1786000   0.54629808   -7.1609046    385.12238  0.017969502   0.01655134          275 
 1787000   0.53164719   -7.1560959    384.38395  0.017925012   0.01653797          473 
 1788000   0.54132837   -7.1630168    385.56371  0.017969971  0.016524604          421 
 1789000   0.54713503   -7.1567697    385.60639  0.017961915  0.016511262          453 
 1790000   0.53199647   -7.1623584     384.9981  0.017923562  0.016497921          423 
 1791000   0.55282295   -7.1851522    384.73357  0.017901246   0.01648459          468 
 1792000   0.53875722   -7.1714085    385.44385  0.017924286  0.016471273          382 
 1793000   0.53448668   -7.1637665    385.20516  0.017903196  0.016457954          264 
 1794000   0.53639685   -7.1634098    384.78719  0.017873801  0.016444651          451 
 1795000   0.53593909   -7.1570284    384.63126  0.017856604  0.016431359          426 
 1796000    0.5388125   -7.1969368    384.86798  0.017857646   0.01641806          490 
 1797000   0.52776411   -7.1746841    384.81635  0.017845314    0.0164048          431 
 1798000    0.5374893   -7.2059063    384.25026  0.017809152  0.016391505          478 
 1799000   0.52053434   -7.1845398    384.47094  0.017809475  0.016378241          412 
 1800000   0.54967567   -7.1700602    385.06657  0.017827156  0.016364992          350 
 1801000   0.54113116   -7.1722738     385.1801  0.017822511  0.016351773          528 
 1802000   0.53829843   -7.1746262     385.6484  0.017834277  0.016338565          475 
 1803000   0.52736403   -7.1816027    384.55389  0.017773798  0.016325372          415 
 1804000   0.52885125   -7.1962308     384.5406  0.017763331  0.016312161          282 
 1805000   0.54443694   -7.1937016    384.25241  0.017740185  0.016298984          411 
 1806000   0.52695588   -7.1869329    384.66466  0.017749384  0.016285788          477 
 1807000   0.53648921   -7.1945864    384.81611  0.017746546  0.016272618          420 
 1808000   0.53663865   -7.1831773     384.7361  0.017733043  0.016259466          312 
 1809000   0.53875909   -7.1904006    384.53572  0.017714009  0.016246318          330 
 1810000   0.52088117   -7.2053852    384.40237  0.017698083  0.016233187          439 
 1811000   0.53323097   -7.1799781    384.16272  0.017677283  0.016220038          495 
 1812000   0.52936314   -7.1851047    384.37849  0.017677451  0.016206939          477 
 1813000   0.51510523   -7.1935622    383.99813  0.017650217   0.01619383          421 
 1814000   0.51833542   -7.1903376    384.53757  0.017665269  0.016180737          354 
 1815000   0.52290036   -7.2143405    383.72411  0.017618187  0.016167638          553 
 1816000   0.53548077   -7.1868822    384.16388  0.017628666  0.016154557          348 
 1817000   0.53534943   -7.2198384    384.39468  0.017629549  0.016141484          579 
 1818000   0.54789985   -7.1885687    385.13252  0.017653673  0.016128437          459 
 1819000   0.52509113   -7.1929571    383.78144  0.017582071   0.01611542          243 
 1820000   0.52259648   -7.1924433    383.93605  0.017579489  0.016102414          499 
 1821000   0.52158517   -7.2049528    384.26851   0.01758505  0.016089395          435 
 1822000   0.52705058   -7.2098801    384.01528  0.017563816   0.01607639          385 
 1823000   0.52515405   -7.1947716    384.68356   0.01758473  0.016063405          471 
 1824000   0.52145939   -7.2009548    384.24142  0.017554889  0.016050444          234 
 1825000   0.52196316   -7.2119991    384.80963  0.017571216  0.016037496          566 
 1826000   0.52601061   -7.2003987    384.36757  0.017541419  0.016024528          502 
 1827000   0.52013331   -7.1955819    383.95419  0.017512962  0.016011589          536 
 1828000   0.52086756    -7.203787    384.23034  0.017515971  0.015998629          649 
 1829000   0.52361515   -7.2207451    383.86706  0.017489842   0.01598569          698 
 1830000   0.53530967   -7.2089063    383.72159  0.017473661  0.015972773          679 
 1831000   0.52951917   -7.2093581     383.7117  0.017463667  0.015959856          744 
 1832000   0.52785349   -7.2034803    384.45093  0.017487761  0.015946988          420 
 1833000   0.51684199   -7.2221502    384.12406   0.01746336  0.015934115          606 
 1834000   0.51856432   -7.2036643    384.43373  0.017467909  0.015921236          584 
 1835000   0.52528679   -7.2203411    384.06684  0.017441727  0.015908373          613 
 1836000   0.52468311   -7.2004366    384.72481  0.017462092   0.01589552          453 
 1837000   0.52847258    -7.207367     384.3952  0.017437634  0.015882708          508 
 1838000   0.52483967   -7.2118226    383.97669  0.017409171  0.015869907          491 
 1839000   0.51991485   -7.2069312    385.12558  0.017451767  0.015857119          453 
 1840000   0.51853538   -7.2163274    384.19508   0.01740014  0.015844343          556 
 1841000   0.51455401   -7.2004905    384.86983  0.017421231  0.015831576          389 
 1842000   0.53201209   -7.2020047    384.32563  0.017387153  0.015818835          493 
 1843000   0.51293667   -7.1862366     384.0991  0.017367476  0.015806112          505 
 1844000    0.5120166   -7.2156564    384.33905  0.017368901  0.015793412          544 
 1845000   0.51397144   -7.2149052    384.62981   0.01737262  0.015780705          520 
 1846000   0.51542853   -7.2189362    384.28032  0.017347432  0.015768021          620 
 1847000   0.51824517   -7.1950864     384.2016  0.017334488  0.015755332          636 
 1848000   0.51103468   -7.2266634    384.24225  0.017326941  0.015742672          603 
 1849000   0.51442422   -7.2296565    383.58918  0.017288137  0.015729975          531 
 1850000   0.50866439    -7.210241    383.48809  0.017274238  0.015717302          552 
 1851000   0.50883069   -7.2172024     384.5347  0.017312025  0.015704638          532 
 1852000   0.51270065   -7.2336484    384.17675  0.017286571  0.015692008          584 
 1853000   0.51867466   -7.2033113    384.63947  0.017298051  0.015679384          549 
 1854000   0.52805257     -7.20478    384.24718  0.017271089  0.015666771          545 
 1855000   0.50655332    -7.216645    384.35445  0.017266597  0.015654156          443 
 1856000    0.5238506   -7.2239864    383.72439  0.017229005  0.015641542          409 
 1857000   0.49942374     -7.22842    383.84615  0.017225191  0.015628949          561 
 1858000   0.51209436   -7.2189501    384.02747  0.017224052  0.015616386          584 
 1859000   0.52148066   -7.2057993    383.80311   0.01720473  0.015603827          541 
 1860000   0.51075717   -7.2202598    384.06003   0.01720699  0.015591291          450 
 1861000     0.504078   -7.2219482    383.94746  0.017192704  0.015578753          611 
 1862000   0.50992177   -7.2366376    384.30206   0.01719934  0.015566225          534 
 1863000   0.50914384   -7.2414776    384.13581  0.017182672  0.015553692          341 
 1864000   0.51913647   -7.2247744    383.75886  0.017156601  0.015541183          634 
 1865000    0.5140732   -7.2255016    383.73825  0.017146481  0.015528705          334 
 1866000   0.50419295   -7.2290626    384.47178  0.017170051  0.015516227          524 
 1867000   0.51105128   -7.2375099    383.67464  0.017125274  0.015503754          563 
 1868000   0.50669909   -7.2437385    383.87045  0.017124842  0.015491293          553 
 1869000   0.51365663   -7.2283953    384.65305  0.017150573  0.015478847          501 
 1870000   0.51358559   -7.2329455    384.00426  0.017112489  0.015466408          564 
 1871000   0.50910131   -7.2220458    384.36286  0.017119315  0.015454009          602 
 1872000   0.50876902   -7.2230818    384.05603  0.017096511  0.015441604          600 
 1873000   0.50401582   -7.2302423    384.12486  0.017090446    0.0154292          587 
 1874000   0.51155478   -7.2498781     384.4367  0.017095193  0.015416794          481 
 1875000   0.50661731     -7.24678    383.81104  0.017058269  0.015404416          618 
 1876000   0.50695881   -7.2367085    384.08682  0.017061426  0.015392054          595 
 1877000   0.50988643   -7.2289779    383.56218  0.017029044  0.015379698          522 
 1878000   0.50713831    -7.240469    384.32673  0.017053902  0.015367361          597 
 1879000   0.50920783   -7.2534542    383.67098  0.017015743  0.015355037          587 
 1880000   0.51716078   -7.2382536    383.59262  0.017003219  0.015342701          514 
 1881000   0.50347877   -7.2389304    383.97449  0.017011097  0.015330387          699 
 1882000   0.49841622    -7.240821    383.24507   0.01696976  0.015318096          701 
 1883000    0.5081024   -7.2577014    383.44381  0.016969544  0.015305799          726 
 1884000   0.51520511   -7.2358807    383.66159  0.016970169  0.015293533          647 
 1885000   0.49744873   -7.2452973    383.45512  0.016952039  0.015281253          782 
 1886000   0.49814396   -7.2479104    383.20508  0.016932002  0.015269003          697 
 1887000   0.49895265   -7.2608087    383.71634  0.016945608  0.015256749          714 
 1888000   0.50499801   -7.2450605    383.22387  0.016914895  0.015244498          742 
 1889000   0.50576725   -7.2353056    383.57999  0.016921651  0.015232241          750 
 1890000   0.50731329   -7.2563102    383.43588  0.016906344  0.015220007          707 
 1891000   0.49988609   -7.2512476     383.5409  0.016902032  0.015207777          745 
 1892000   0.49678292   -7.2668949    383.55589  0.016893758  0.015195565          777 
 1893000   0.48769172   -7.2560816    382.88783  0.016855425  0.015183346          810 
 1894000   0.49853214   -7.2611875     383.3695  0.016867718   0.01517115          801 
 1895000   0.48879391   -7.2520174    382.22723  0.016808585  0.015158967          671 
 1896000   0.49680418   -7.2659388    383.37875  0.016850332  0.015146791          807 
 1897000   0.50295354   -7.2666046    383.62591  0.016852307  0.015134615          770 
 1898000   0.50047454   -7.2533427    383.87936  0.016854555  0.015122454          792 
 1899000   0.49461007   -7.2560191    383.33222   0.01682167  0.015110316          751 
 1900000   0.49069019   -7.2609297    383.23267   0.01680845  0.015098166          827 
 1901000   0.49985206   -7.2618581    383.43619   0.01680853  0.015086038          735 
 1902000   0.49775578   -7.2469674    382.58969  0.016762605   0.01507392          773 
 1903000   0.49283817   -7.2615284    382.96199    0.0167701  0.015061823          767 
 1904000   0.49204848   -7.2506412     383.5148  0.016785487  0.015049717          807 
 1905000   0.49160659   -7.2516502    383.54388  0.016777948  0.015037637          761 
 1906000   0.50890787   -7.2737797    382.75946  0.016734849  0.015025561          874 
 1907000    0.5016853   -7.2668239    383.06155  0.016739274  0.015013492          822 
 1908000    0.4847627   -7.2560193    383.38246  0.016744517  0.015001438          732 
 1909000   0.48833709    -7.266844    382.75477  0.016708345   0.01498941          792 
 1910000   0.49401845   -7.2540921    383.38295  0.016727005  0.014977388          830 
 1911000   0.48845639   -7.2617239    384.09481  0.016749294  0.014965388          823 
 1912000   0.47905168   -7.2497643    383.11178  0.016697689   0.01495338          832 
 1913000   0.49721008   -7.2654498    382.93604  0.016681305  0.014941402          775 
 1914000   0.49350299    -7.266139    382.86917  0.016669678  0.014929422          809 
 1915000   0.48943392    -7.266788    383.07867   0.01667009  0.014917445          756 
 1916000   0.49639863   -7.2674829    383.71795  0.016689194  0.014905481          793 
 1917000   0.48696754    -7.260469     382.6198  0.016632751  0.014893524          817 
 1918000   0.49639815   -7.2641633    382.75827  0.016630095  0.014881585          748 
 1919000   0.48496958   -7.2699468    383.48372  0.016652932  0.014869663          835 
 1920000    0.4806064   -7.2878172    383.24421  0.016633863  0.014857743          834 
 1921000   0.47957067   -7.2819211    382.80368  0.016606094  0.014845837          779 
 1922000   0.48396583   -7.2747443    382.42517  0.016581043  0.014833931          837 
 1923000   0.49293928   -7.2653189    383.11387  0.016602265  0.014822054          738 
 1924000   0.47568168   -7.2615261    382.95873  0.016586916  0.014810192          917 
 1925000   0.48230601   -7.2632822    382.82382   0.01657246  0.014798322          778 
 1926000   0.48417774   -7.2552873    383.33561  0.016585999  0.014786475          882 
 1927000   0.48748559   -7.2706511    382.66579  0.016548425  0.014774638          951 
 1928000   0.48196796   -7.2812392    382.63498  0.016538511  0.014762811          834 
 1929000    0.4868038   -7.2799184    383.38224  0.016562219  0.014750986          812 
 1930000   0.48503472    -7.269784    382.90639  0.016533091  0.014739173          709 
 1931000   0.48579877    -7.277537    382.37394  0.016501551  0.014727391          765 
 1932000   0.48392394   -7.2894619    383.25697  0.016531098  0.014715612          807 
 1933000   0.48713205   -7.2644352    382.82386  0.016503874  0.014703839          877 
 1934000   0.49841357   -7.2775838    383.44335  0.016522033  0.014692078          855 
 1935000   0.48695141   -7.2754718    382.69279  0.016481171  0.014680324          823 
 1936000   0.48109806   -7.2682745    382.38451  0.016459389  0.014668582          747 
 1937000    0.4798145   -7.2845903    383.16446  0.016484446  0.014656856          724 
 1938000   0.47674932   -7.2772844    382.81904  0.016461087   0.01464514          629 
 1939000   0.47725175   -7.2815687    382.99477   0.01646015  0.014633431          745 
 1940000   0.48063442   -7.2730932    382.11652   0.01641394  0.014621726          707 
 1941000   0.47854931   -7.2787474    383.01336  0.016443988  0.014610043          713 
 1942000   0.48317763   -7.2780735    382.14882  0.016398422  0.014598374          670 
 1943000   0.49463255   -7.2872039    383.17636  0.016434052  0.014586709          658 
 1944000   0.48201819   -7.2911207    383.07726   0.01642135  0.014575074          697 
 1945000    0.4789498   -7.2788535    382.67317  0.016395594  0.014563442          774 
 1946000   0.47457935   -7.3122417    382.78481   0.01639195  0.014551806          791 
 1947000   0.47738793   -7.2959171    382.31582  0.016363458  0.014540183          819 
 1948000   0.48028999   -7.2961967    382.74565  0.016373445  0.014528572          767 
 1949000   0.46928407   -7.2710248    382.78076  0.016366545  0.014516973          841 
 1950000   0.46754239    -7.310343    382.18063  0.016332506  0.014505377          672 
 1951000   0.45992202   -7.2946609    382.63534  0.016343556   0.01449379          694 
 1952000   0.47776134   -7.2920494    382.72898  0.016339181  0.014482226          689 
 1953000   0.46822984   -7.2799995      382.018  0.016300478  0.014470679          736 
 1954000   0.47331515   -7.3036704    382.38208  0.016307663  0.014459136          763 
 1955000   0.47083687   -7.2985634    382.40369  0.016300243  0.014447608          754 
 1956000   0.48103661   -7.3004318    381.97951  0.016273837  0.014436082          728 
 1957000   0.46953947   -7.2725986      382.467   0.01628628  0.014424585          645 
 1958000   0.47506797   -7.2834857    382.98074  0.016299827  0.014413082          763 
 1959000   0.48106813   -7.3068202    381.87066  0.016244285  0.014401605          637 
 1960000   0.46429911   -7.3054726    382.17777  0.016249055  0.014390111          727 
 1961000   0.46596867    -7.297901    382.69195  0.016262619  0.014378638          841 
 1962000   0.47818957   -7.2892036    382.07077  0.016227946  0.014367186          757 
 1963000   0.46745826   -7.2996556    382.86426  0.016253365  0.014355742          707 
 1964000   0.47323837      -7.2987     381.6959  0.016195515  0.014344301          753 
 1965000   0.46304984    -7.293454    382.73409  0.016231301  0.014332872          804 
 1966000   0.46950364   -7.2921016    382.06416  0.016194649   0.01432145          769 
 1967000   0.46800604   -7.3104616    382.62674   0.01621025  0.014310023          721 
 1968000   0.46376064   -7.3110469    382.26042  0.016186501  0.014298617          827 
 1969000   0.46459582   -7.2886954    381.77589  0.016157774  0.014287212          843 
 1970000   0.46109524   -7.2985245    382.20428  0.016167694  0.014275819          818 
 1971000   0.45391822   -7.3148406    381.62749  0.016135104  0.014264445          784 
 1972000    0.4740151   -7.2991097    382.19346  0.016150839  0.014253088          828 
 1973000   0.46518784   -7.3139541    382.02793  0.016135662  0.014241738          770 
 1974000   0.46949604   -7.3007683    381.58758  0.016108898  0.014230393          816 
 1975000    0.4626674   -7.3067329    381.95228   0.01611613  0.014219067          785 
 1976000   0.46410273   -7.3021178     381.8765  0.016104778  0.014207739          868 
 1977000   0.46737793   -7.3071335    382.49497  0.016122702  0.014196438          773 
 1978000    0.4652622   -7.3073607    381.84744   0.01608727   0.01418513          723 
 1979000   0.46464346   -7.3098505    382.02378  0.016086566  0.014173851          773 
 1980000   0.46550145   -7.3029273    381.61064  0.016061054   0.01416256          838 
 1981000   0.46620511   -7.3217131    381.51409  0.016048885  0.014151291          840 
 1982000   0.45932697   -7.3091577    382.38339  0.016077337  0.014140026          694 
 1983000   0.46891765   -7.3124401    382.00467  0.016053315  0.014128768          762 
 1984000   0.46561482   -7.3073272    381.44686  0.016021793  0.014117519          733 
 1985000   0.46243565   -7.3286432    381.87301  0.016031613  0.014106295          760 
 1986000    0.4701273   -7.3145878    381.11572  0.015991764  0.014095071          802 
 1987000   0.46489505   -7.3206448    381.81707   0.01601313  0.014083874          863 
 1988000   0.46552337   -7.3132371    382.54192  0.016035459  0.014072673          802 
 1989000   0.46519698   -7.3245884    381.85063  0.015998434  0.014061483          835 
 1990000   0.45650807   -7.3126235    381.82421  0.015989289  0.014050303          780 
 1991000    0.4545354    -7.324609    381.94759  0.015986422   0.01403913          876 
 1992000   0.45506948   -7.3160506    381.84031  0.015973909   0.01402797          832 
 1993000   0.45335716   -7.3231578    381.58557  0.015955242  0.014016814          768 
 1994000   0.46760352   -7.3158953    381.55238  0.015945854  0.014005672          861 
 1995000    0.4576089   -7.3245526     382.3177  0.015969829  0.013994547          894 
 1996000   0.46071163   -7.3160529    381.93933  0.015946031  0.013983438          832 
 1997000   0.45246034    -7.316954    382.19023  0.015948516  0.013972322          833 
 1998000   0.45807435   -7.3276032     381.5378  0.015913322  0.013961223          832 
 1999000   0.45146603   -7.3100687    382.18498   0.01593234  0.013950128          886 
 2000000   0.45294818    -7.308544    381.19994  0.015883331  0.013939042          804 
 2001000   0.46229104   -7.3298587    381.37758  0.015882791  0.013927973          845 
 2002000   0.44451082    -7.315919    382.11064  0.015905371  0.013916922          859 
 2003000   0.44737212   -7.3271409    381.06117  0.015853768  0.013905879          886 
 2004000   0.44816993   -7.3397846    381.57389  0.015867178  0.013894848          840 
 2005000   0.45822324   -7.3140618    381.47884  0.015855313  0.013883838          846 
 2006000   0.44767734   -7.3226485    382.53606  0.015891328  0.013872824          879 
 2007000   0.45247742   -7.3328321    382.03828  0.015862742  0.013861815          855 
 2008000   0.46269224   -7.3327838    381.82283  0.015845901  0.013850823          855 
 2009000   0.45475156   -7.3359491    381.90427  0.015841392  0.013839853          813 
 2010000   0.45357747   -7.3367019    380.80724  0.015788028  0.013828888          811 
 2011000   0.44744923   -7.3480168    381.37615  0.015803752  0.013817922          843 
 2012000   0.45225301   -7.3365164    380.51544  0.015760249  0.013806969          918 
Loop time of 5223.38 on 48 procs for 2000000 steps with 4000 atoms

Performance: 66164.026 tau/day, 382.894 timesteps/s
99.4% CPU use with 48 MPI tasks x no OpenMP threads

MPI task timing breakdown:
Section |  min time  |  avg time  |  max time  |%varavg| %total
---------------------------------------------------------------
Pair    | 370.84     | 416.81     | 452.52     |  89.0 |  7.98
Neigh   | 36.292     | 37.39      | 38.694     |  10.0 |  0.72
Comm    | 336.05     | 370.37     | 415.1      |  92.9 |  7.09
Output  | 4.764      | 4.766      | 4.8165     |   0.3 |  0.09
Modify  | 4326.8     | 4345.3     | 4358.3     |  11.1 | 83.19
Other   |            | 48.74      |            |       |  0.93

Nlocal:        83.3333 ave          89 max          77 min
Histogram: 3 1 2 6 7 10 10 4 3 2
Nghost:        2413.83 ave        2426 max        2399 min
Histogram: 3 1 2 4 10 9 3 10 3 3
Neighs:        16759.2 ave       19000 max       13924 min
Histogram: 2 2 5 7 5 7 3 6 5 6
FullNghs:      33519.0 ave       35817 max       30795 min
Histogram: 2 2 2 6 8 7 11 3 5 2

Total # of neighbors = 1608913
Ave neighs/atom = 402.22825
Neighbor list builds = 106998
Dangerous builds = 0

#clear
#
#next RN
#
#jump SELF
Total wall time: 1:27:06
