
units lj                  # Use reduced LJ style units
atom_style atomic         # Uncharged point particles
atom_modify map hash      # Needed for indexing of clusters etc
                          # Used to be able to find where atoms are in relation to each other.

lattice fcc 1.0 spacing 1 1 1
Lattice spacing in x,y,z = 1.5874011 1.5874011 1.5874011
region box block 0 10 0 10 0 10 units lattice
create_box 2 box
Created orthogonal box = (0.0000000 0.0000000 0.0000000) to (15.874011 15.874011 15.874011)
  3 by 4 by 4 MPI processor grid
create_atoms 1 box
Created 4000 atoms
  using lattice units in orthogonal box = (0.0000000 0.0000000 0.0000000) to (15.874011 15.874011 15.874011)
  create_atoms CPU = 0.009 seconds
set type 1 type/fraction 2 0.08 78393
Setting atom values ...
  344 settings made for type/fraction
mass 1 1.0
mass 2 1.0
pair_style lj/cut  3.5
pair_modify tail  yes
pair_coeff 1  1  1.0  1.0   # Intearaction between 1 and 1 set with epsilon = 1 and sigma = 1
pair_coeff 1  2  1.5  0.8
pair_coeff 2  2  0.5  0.88

write_data data.0
System init for write_data ...
Neighbor list info ...
  update every 1 steps, delay 10 steps, check yes
  max neighbors/atom: 2000, page size: 100000
  master list distance cutoff = 3.8
  ghost atom cutoff = 3.8
  binsize = 1.9, bins = 9 9 9
  1 neighbor lists, perpetual/occasional/extra = 1 0 0
  (1) pair lj/cut, perpetual
      attributes: half, newton on
      pair build: half/bin/atomonly/newton
      stencil: half/bin/3d
      bin: standard
WARNING: Not all mixed pair coeffs generated from mixing. Use write_data with 'pair ij' option to store all pair coeffs. (../write_data.cpp:312)


#############################
#   M E L T   S Y S T E M   #
#############################

velocity all create 2.4 9580093 mom yes dist gaussian # Assign velocities
                                                    # Temperature 2.4, random number seed, zero linear momentum
                                                                                # Gaussian distribution

timestep 0.002   # simulation timestep
thermo 1000       # output thermodynamic data every 1000 steps bf 100

# Define a fix  in this case with index 1 applied to all
# particles in the simulation. This fix is for simulations
# in the anisotropic NPT ensemble. Note that we use the MTK
# correction.
fix 1 all npt temp 2.4 2.4 0.1 iso 5.68 5.68 0.5 mtk yes tchain 5 pchain 5 # Use NPT ensemble
                                                                         # Set temperature and pressure and damping
                                                                         # Numbers of thermostats in chain and in barostat
run 10000          # run for 10000 steps
Per MPI rank memory allocation (min/avg/max) = 3.642 | 3.644 | 3.648 Mbytes
Step Temp E_pair E_mol TotEng Press Volume 
       0          2.4   -7.8205278            0   -4.2214278   -2.8943486         4000 
    1000    2.3985212   -4.5279789            0  -0.93109657     5.892288    4899.6937 
    2000    2.4050278   -4.6531439            0   -1.0465041    5.2184932    4923.7545 
    3000    2.4123304   -4.5432688            0  -0.92567775    5.4774314    4949.1275 
    4000    2.4090931   -4.5826512            0  -0.96991496    5.4465645    4927.8883 
    5000    2.3677322   -4.5600688            0   -1.0093584    5.5443502    4918.1011 
    6000    2.4052653   -4.5165774            0  -0.90958137    5.8809047    4906.4528 
    7000    2.4210662   -4.5577329            0  -0.92704148    5.5313487     4939.765 
    8000      2.41728   -4.5472321            0  -0.92221852    5.5392109    4946.3341 
    9000     2.388292   -4.5992623            0   -1.0177199    5.4833358    4915.4652 
   10000    2.4191497   -4.5812034            0  -0.95338604    5.7231585    4900.4854 
Loop time of 2.22068 on 48 procs for 10000 steps with 4000 atoms

Performance: 778140.082 tau/day, 4503.125 timesteps/s
99.6% CPU use with 48 MPI tasks x no OpenMP threads

MPI task timing breakdown:
Section |  min time  |  avg time  |  max time  |%varavg| %total
---------------------------------------------------------------
Pair    | 0.91516    | 0.95596    | 1.0616     |   3.5 | 43.05
Neigh   | 0.18813    | 0.19903    | 0.2226     |   1.8 |  8.96
Comm    | 0.68726    | 0.77858    | 0.88806    |   5.6 | 35.06
Output  | 0.00024609 | 0.00025034 | 0.00030714 |   0.0 |  0.01
Modify  | 0.20967    | 0.27241    | 0.34208    |   8.0 | 12.27
Other   |            | 0.01445    |            |       |  0.65

Nlocal:        83.3333 ave          91 max          77 min
Histogram: 6 2 8 2 7 8 4 8 1 2
Nghost:        1429.25 ave        1466 max        1407 min
Histogram: 3 4 10 15 4 5 4 1 0 2
Neighs:        7761.98 ave        8655 max        6895 min
Histogram: 3 2 5 6 10 7 5 5 3 2

Total # of neighbors = 372575
Ave neighs/atom = 93.143750
Neighbor list builds = 908
Dangerous builds = 242

# Equilibrate just above the melting temperature to avoid step fn in T

fix 1 all npt temp 1.25 1.25 0.1 iso 5.68 5.68 0.5 mtk yes tchain 5 pchain 5
run 2000
Per MPI rank memory allocation (min/avg/max) = 3.642 | 3.644 | 3.648 Mbytes
Step Temp E_pair E_mol TotEng Press Volume 
   10000    2.4191497   -4.5812034            0  -0.95338604    5.7231585    4900.4854 
   11000    1.2464123   -6.0901406            0   -4.2209895    5.6536423    4068.9411 
   12000    1.2698747   -6.1378324            0   -4.2334966     5.742653    4046.0245 
Loop time of 0.47395 on 48 procs for 2000 steps with 4000 atoms

Performance: 729191.501 tau/day, 4219.858 timesteps/s
99.6% CPU use with 48 MPI tasks x no OpenMP threads

MPI task timing breakdown:
Section |  min time  |  avg time  |  max time  |%varavg| %total
---------------------------------------------------------------
Pair    | 0.21138    | 0.22255    | 0.23559    |   1.3 | 46.96
Neigh   | 0.031931   | 0.033245   | 0.036602   |   0.5 |  7.01
Comm    | 0.14443    | 0.16241    | 0.17754    |   1.8 | 34.27
Output  | 5.22e-05   | 5.3672e-05 | 6.6085e-05 |   0.0 |  0.01
Modify  | 0.046987   | 0.051173   | 0.056916   |   1.4 | 10.80
Other   |            | 0.004509   |            |       |  0.95

Nlocal:        83.3333 ave          92 max          76 min
Histogram: 2 7 6 4 6 7 9 3 2 2
Nghost:        1629.23 ave        1652 max        1604 min
Histogram: 1 2 2 10 5 10 6 9 1 2
Neighs:        9435.81 ave       10549 max        8280 min
Histogram: 1 3 4 9 6 5 13 3 1 3

Total # of neighbors = 452919
Ave neighs/atom = 113.22975
Neighbor list builds = 143
Dangerous builds = 8

#############################
# L I N E A R  Q U E N C H  #
#############################

# Define solid atoms. This closely follows ten Wolde  Ruiz-Montero and Frenkel  Faraday Discuss  1996  104  93-110
# Compute components of the per-atom q6 vector
compute q6 all orientorder/atom degrees 1 6 components 6 nnn NULL cutoff 1.3 # compute the Q6 parameter.
                                                                             # Use all neighbours within 1.3 unit cell.

# get number of connections
compute coord_number all coord/atom orientorder q6 0.5

# An atom is solid if it has 8 or more connections (of a possible 14)
variable is_solid atom c_coord_number>=8
group solid dynamic all var is_solid    # Must be dynamic to update
dynamic group solid defined

# do clustering
compute cluster solid cluster/atom 1.3 # Create a cluster where all atoms within are solid and max 1.3 units from another member

# define chunks one chunk per cluster
compute clus_chunks solid chunk/atom c_cluster nchunk every compress yes  # Says which atoms are in which chunk

# count the size of each chunk
compute size_chunks solid property/chunk clus_chunks count


# Find the maximum entry in the vector of chunk sizes
variable max_n equal max(c_size_chunks)


# Thermo style which includes this variable
# thermo_style custom step temp pe vol v_max_n

thermo ${N}  # Print the thermo information every 100 steps
thermo 1000  

# Reset the npt fix at a lower temperature (below freezing)
fix 1  all npt temp  ${temp} ${temp}  0.1  iso  5.68  5.68  0.5  mtk yes tchain  5  pchain  5
fix 1  all npt temp  0.45 ${temp}  0.1  iso  5.68  5.68  0.5  mtk yes tchain  5  pchain  5
fix 1  all npt temp  0.45 0.45  0.1  iso  5.68  5.68  0.5  mtk yes tchain  5  pchain  5

dump dmp2 all dcd ${N} traj.dcd
dump dmp2 all dcd 1000 traj.dcd


compute msd all msd com yes
variable twopoint equal c_msd[4]/6/(step*dt+1.0e-6)
fix 9 all vector 10 c_msd[4]
variable fit equal slope(f_9)/6/(10*dt)
thermo_style custom step temp pe c_msd[4] v_twopoint v_fit v_max_n

fix 1 all npt temp 1.25 ${temp} 0.1 iso 5.68 5.68 0.5 mtk yes tchain 5 pchain 5
fix 1 all npt temp 1.25 0.45 0.1 iso 5.68 5.68 0.5 mtk yes tchain 5 pchain 5
run 5000000 # 5000000  # Run for this many steps
Neighbor list info ...
  update every 1 steps, delay 10 steps, check yes
  max neighbors/atom: 2000, page size: 100000
  master list distance cutoff = 3.8
  ghost atom cutoff = 3.8
  binsize = 1.9, bins = 9 9 9
  4 neighbor lists, perpetual/occasional/extra = 1 3 0
  (1) pair lj/cut, perpetual
      attributes: half, newton on
      pair build: half/bin/atomonly/newton
      stencil: half/bin/3d
      bin: standard
  (2) compute orientorder/atom, occasional
      attributes: full, newton on
      pair build: full/bin/atomonly
      stencil: full/bin/3d
      bin: standard
  (3) compute coord/atom, occasional
      attributes: full, newton on
      pair build: full/bin/atomonly
      stencil: full/bin/3d
      bin: standard
  (4) compute cluster/atom, occasional
      attributes: full, newton on
      pair build: full/bin/atomonly
      stencil: full/bin/3d
      bin: standard
Per MPI rank memory allocation (min/avg/max) = 9.744 | 9.750 | 9.755 Mbytes
Step Temp PotEng c_msd[4] v_twopoint v_fit v_max_n 
   12000    1.2698747   -6.1378324 4.059281e-30 2.818945e-32 8.3333333e+20            2 
   13000    1.2511151   -6.1427462   0.57235049 0.0036689132  0.046253261            2 
   14000    1.2191038   -6.1505422    1.1105703 0.0066105375  0.046406431            2 
   15000    1.2237959   -6.1562989    1.6734201 0.0092967781  0.046059114            3 
   16000    1.2658829   -6.1123096    2.2225788  0.011575931  0.045937081            4 
   17000    1.2619923   -6.1745454    2.7963288  0.013707494  0.046169143            2 
   18000    1.2729152   -6.1529916    3.2999588  0.015277587  0.046177454            2 
   19000    1.2342485    -6.122662    3.8100003  0.016710527  0.045739196            2 
   20000    1.2333965   -6.1572551    4.3071041  0.017946267  0.045122527            7 
   21000    1.2737268   -6.1707764    4.9137419  0.019498975  0.044921728            3 
   22000    1.2531551   -6.1477283    5.4299055  0.020567824  0.044995929            4 
   23000    1.2255068   -6.1072477     6.013507  0.021788068  0.045109131            2 
   24000    1.2434987   -6.1338718    6.6428087  0.023065307  0.045406128            1 
   25000    1.2473458   -6.1482006    7.2902749  0.024300916  0.045740151            1 
   26000    1.2365514   -6.1254367    7.8199791  0.025064035   0.04609464            1 
   27000    1.2437359   -6.1522016    8.3339919  0.025722197  0.046246972            2 
   28000    1.2435669   -6.1224069    8.8342344  0.026292364  0.046248135            3 
   29000    1.2525959   -6.1450693    9.3502278   0.02686847  0.046152371            2 
   30000    1.2519668   -6.1488146    9.8820226  0.027450062  0.046018483            1 
   31000    1.2652096   -6.1640208     10.41799  0.028005349  0.045927411            4 
   32000    1.2484575   -6.1801887    10.953864  0.028525687  0.045847583            2 
   33000    1.2756248   -6.1691514    11.541249  0.029144568  0.045789235            3 
   34000     1.266273   -6.1529437    12.132431   0.02973635  0.045791402            3 
   35000    1.2149665   -6.1412658    12.750858  0.030359185  0.045839373            5 
   36000    1.2532761   -6.1484175    13.321038  0.030835736  0.045931306            3 
   37000    1.2364134   -6.1516674    13.811937  0.031107965   0.04597152            2 
   38000    1.2552979   -6.1716398    14.266519  0.031286225  0.045944686            2 
   39000    1.2349173   -6.1316151     14.74735  0.031511432  0.045862407            1 
   40000     1.232914   -6.1415942    15.302275  0.031879739  0.045785149            3 
   41000    1.2735816   -6.1461486    15.943082  0.032404637  0.045758836            1 
   42000    1.2275551   -6.1128527    16.381034  0.032502052  0.045710648            3 
   43000    1.2341116   -6.1016001    17.038544  0.033020433  0.045670406            3 
   44000    1.2500961   -6.1638147    17.529118  0.033199086  0.045673706            5 
   45000    1.2588972   -6.1559929    18.048566   0.03342327  0.045666865            3 
   46000    1.2102774   -6.1575437    18.582822  0.033664532  0.045637316            4 
   47000    1.2217683   -6.1726956    19.104389  0.033873029  0.045617811            6 
   48000    1.2684591   -6.1394972    19.796635  0.034369158  0.045605087            3 
   49000    1.2424813   -6.1131788    20.130082  0.034234833   0.04559109            1 
   50000    1.1963071   -6.1748373    20.591563  0.034319271  0.045531026            2 
   51000    1.2126972   -6.1574181    21.182037  0.034611171  0.045462724            2 
   52000    1.2577143   -6.1394937    21.458785  0.034389079  0.045385433            1 
   53000    1.2677274   -6.1001393    22.186856  0.034884993  0.045287979            2 
   54000    1.2558112   -6.1389927    22.596315  0.034870857  0.045207392            2 
   55000    1.2130051   -6.1415169    23.159927  0.035090799  0.045134957            6 
   56000     1.242032   -6.1344348    23.621042  0.035150359  0.045058638            2 
   57000    1.2591344   -6.1391048    24.033479  0.035136666  0.044981351            1 
   58000    1.2535504   -6.1353683    24.541063  0.035260147  0.044895007            3 
   59000    1.2457291   -6.1495956    25.187913  0.035576147  0.044827245            1 
   60000    1.2391025   -6.1533981    25.451385  0.035349145   0.04473893            1 
   61000    1.2352423   -6.1527015    26.000595  0.035519939  0.044640797            4 
   62000    1.2166488   -6.1749414    26.640841  0.035807581  0.044555084            6 
   63000    1.2077018   -6.1176012    27.263272  0.036062529  0.044502897            3 
   64000    1.2675647   -6.1630695    27.749058  0.036131586  0.044482591            2 
   65000    1.2372716   -6.1644014    28.241026  0.036206443  0.044437662            3 
   66000    1.2598394   -6.1469928     28.81401  0.036381325  0.044391013            2 
   67000    1.2269974   -6.1361477    29.327474  0.036476957  0.044350686            4 
   68000    1.2248559   -6.1621888    30.063771  0.036842856  0.044328674            4 
   69000    1.2658673    -6.169121    30.443681  0.036767731  0.044323878            2 
   70000     1.213405   -6.1810885    30.950846  0.036846245  0.044305434            5 
   71000     1.223344    -6.168832    31.554488  0.037035783  0.044289425            1 
   72000    1.2386456   -6.1573803    32.016349  0.037055959  0.044281019            2 
   73000    1.2317046   -6.1430682    32.688149  0.037315238  0.044287781            2 
   74000    1.2910811   -6.2170385    33.182411   0.03736758  0.044286641            4 
   75000    1.2799881   -6.1726225    33.584569  0.037316187  0.044274061            4 
   76000    1.2087829   -6.2015029    34.099293  0.037389575   0.04425138            3 
   77000    1.2385859   -6.1512821    34.737978  0.037595214  0.044220322            1 
   78000    1.2247982   -6.1605954    34.873161  0.037257651  0.044192699            2 
   79000      1.21174   -6.1661151    35.519289  0.037467604  0.044156074            2 
   80000    1.2651215   -6.1212514    36.049266  0.037551319  0.044128467            3 
   81000    1.2288763   -6.1771921    36.781503  0.037841053  0.044110925            3 
   82000    1.2443708   -6.1330931    37.106558  0.037709917  0.044084749            3 
   83000    1.2330511   -6.1422563    37.779984   0.03793171  0.044057299            3 
   84000    1.2151507   -6.1520021    38.179067  0.037876059  0.044036954            1 
   85000    1.2517746   -6.1137711    38.610309  0.037853244   0.04401453            4 
   86000    1.2614351   -6.1602175    39.316885  0.038097757  0.043999992            2 
   87000    1.2178476   -6.1503222    39.835192  0.038156314  0.043992121            2 
   88000    1.2222977   -6.1553078    40.536643  0.038386972  0.043985279            2 
   89000    1.2340978   -6.0834033    41.217996  0.038593629  0.043991257            2 
   90000    1.2483924   -6.1200475    41.647494  0.038562494  0.044004581            3 
   91000    1.2166828   -6.1498575    42.230641  0.038672748  0.044013307            4 
   92000    1.1999858   -6.1531761    42.876974  0.038837839  0.044031951            2 
   93000    1.2222105   -6.0808442    43.612975  0.039079727  0.044052859            3 
   94000    1.2551165   -6.1306753     44.06763  0.039067047  0.044073373            4 
   95000    1.2541829   -6.1624206    44.448102  0.038989563  0.044094251            2 
   96000    1.2360942   -6.1809502    44.908989  0.038983497  0.044109206            4 
   97000     1.272898   -6.1796565    45.635755  0.039205975   0.04412288            3 
   98000    1.2540855   -6.1943174    46.133025  0.039228763  0.044142096            4 
   99000    1.2291313   -6.1697686    46.612771  0.039236339   0.04415728            3 
  100000    1.2233144   -6.1423127    47.184384  0.039320319  0.044171561            2 
  101000    1.2148083   -6.1338842    47.558827  0.039239956  0.044186475            3 
  102000    1.2331275   -6.1968068    47.826873  0.039074243  0.044181094           10 
  103000    1.2745334    -6.175981    48.635398  0.039349028  0.044178292            3 
  104000    1.2399775     -6.17576    49.111721   0.03935234  0.044183335            5 
  105000     1.221703   -6.1711674    49.949227  0.039642244  0.044188983            2 
  106000     1.252555   -6.1704071    50.263127  0.039515037  0.044194852            3 
  107000    1.2246541   -6.1814581     50.70037  0.039486269  0.044200384            3 
  108000    1.2276524   -6.1995594    51.337294  0.039612109   0.04420798            3 
  109000     1.259383   -6.1937798    52.050367  0.039793858  0.044219091            2 
  110000    1.2343332   -6.1916509    52.443729  0.039730098  0.044228553            3 
  111000    1.2118944   -6.1119115    52.908942  0.039721428   0.04423596            3 
  112000    1.2284836    -6.155683    53.537091  0.039834145  0.044243683            2 
  113000     1.230129   -6.1039805    54.064279  0.039870412  0.044246238            2 
  114000    1.2282673   -6.1657302    54.389002  0.039758042   0.04425216            3 
  115000    1.2150905    -6.162546    55.204204  0.040003046  0.044256682            2 
  116000    1.2223786   -6.1576539    55.536894  0.039897194  0.044264001            3 
  117000    1.2372499   -6.1887242    56.430368  0.040192569  0.044272208            1 
  118000    1.2386358   -6.1734496    56.974434  0.040236182  0.044289361            4 
  119000    1.2233064   -6.1782571    57.422612  0.040211913  0.044303739            3 
  120000    1.2413556    -6.158312    58.107938  0.040352735   0.04432379            2 
  121000    1.2361277   -6.1650337    58.782824  0.040484039  0.044348671            7 
  122000     1.236251   -6.1803516    59.393912  0.040569612   0.04437939            3 
  123000    1.2510492   -6.1709063    60.154031  0.040754763  0.044406357            2 
  124000    1.2179317   -6.1667353    60.411088  0.040598849  0.044434115            2 
  125000     1.217665   -6.1555673    60.876578  0.040584385   0.04445355            3 
  126000    1.2206554   -6.1380339    61.492891  0.040669901  0.044468652            1 
  127000    1.2320181   -6.1818489    62.059562  0.040721497  0.044486756            4 
  128000    1.2183016   -6.1639874    62.633667  0.040777127  0.044502531            1 
  129000    1.2410448   -6.1662483    63.124389  0.040778029  0.044518692            3 
  130000    1.2473153   -6.1963221    63.541155  0.040731509  0.044533264            3 
  131000     1.223296    -6.171581    64.031262  0.040732355  0.044545672            2 
  132000    1.2312603   -6.1650983    64.501791  0.040720828   0.04455429            4 
  133000    1.2051172   -6.1651119    65.234379  0.040873671  0.044560776            3 
  134000     1.206764   -6.1959586    65.464512  0.040711761  0.044568412            3 
  135000    1.2412014   -6.1419878    66.059487  0.040777461  0.044575325            2 
  136000    1.2378322   -6.1771103    66.619113  0.040820535  0.044584135            3 
  137000     1.264866    -6.172637    67.172889  0.040859422  0.044592362            3 
  138000    1.2249228   -6.1640012    67.891696  0.040997401  0.044603066            3 
  139000    1.2273447   -6.1498174    68.772213  0.041230344  0.044617788            2 
  140000    1.2370294   -6.2007301    68.722613  0.040906317  0.044631048            2 
  141000    1.2193296   -6.1621651    69.697259  0.041192233  0.044643796            2 
  142000    1.2423083   -6.1356268    70.381607   0.04130376  0.044661664            4 
  143000     1.240538   -6.1920395    70.964777  0.041354765  0.044675218            4 
  144000    1.2302631   -6.1356023    71.069987  0.041128464  0.044688513            3 
  145000    1.2069592   -6.1482195     71.80243  0.041265764  0.044699037            2 
  146000    1.2373935   -6.1433825    72.253416  0.041240534  0.044703135            3 
  147000    1.2156651   -6.1778789    72.391154  0.041038069  0.044708209            2 
  148000    1.2418793   -6.1782818    73.141808   0.04118345  0.044710594            3 
  149000    1.2287524   -6.1177177    73.599152  0.041162836  0.044715583            3 
  150000    1.2254609    -6.189499    73.979368  0.041099649  0.044718646            2 
  151000    1.2350113   -6.2076358    75.027077  0.041405671  0.044721712            3 
  152000    1.2413363   -6.1434241     75.40418  0.041340011  0.044725667            2 
  153000    1.2306375   -6.1439839      75.5096  0.041127233  0.044725254            4 
  154000    1.2013822    -6.159722    76.047044  0.041150998  0.044721453            4 
  155000    1.2415027   -6.1666184    76.579402  0.041171722  0.044715454            3 
  156000    1.2231616   -6.2051725    77.467246  0.041382076  0.044717046            2 
  157000    1.2249424   -6.1330763    77.926954  0.041362502  0.044717545            2 
  158000    1.2168774   -6.1515453    78.201899  0.041245727  0.044716467            2 
  159000    1.2130226   -6.1887934    78.803798  0.041301781  0.044714963            2 
  160000    1.2217479   -6.1695242     79.58059  0.041448224  0.044715864            2 
  161000    1.2317324   -6.2039458    79.538804  0.041169153  0.044714348            2 
  162000    1.2128179   -6.2053354    80.353587   0.04133415  0.044707239            2 
  163000    1.2142584   -6.2024818    80.378558  0.041093332  0.044700119            4 
  164000    1.2041593   -6.1616874     81.29842  0.041310172   0.04469219            2 
  165000    1.2339158   -6.1913896    81.755813  0.041290815  0.044683269            2 
  166000    1.1898673   -6.1646321    82.326936  0.041328783  0.044676674            4 
  167000    1.2543363   -6.2094513     82.74272  0.041288782   0.04466898            2 
  168000    1.2234404   -6.1812837    83.188065  0.041263921  0.044660509            3 
  169000    1.2244307   -6.1914322     83.49384  0.041170533  0.044647962            2 
  170000    1.2211507   -6.1576634    84.168044  0.041258845  0.044635273           10 
  171000    1.2235088   -6.2110417    85.083568  0.041463727  0.044629848            2 
  172000    1.2153186   -6.2249884    85.199561  0.041278857  0.044624991            1 
  173000     1.240067     -6.20228    86.126864  0.041486929  0.044621226            3 
  174000    1.2218972   -6.1937067    86.766846  0.041555003  0.044620495            2 
  175000    1.2228617   -6.1738439       87.672  0.041748571  0.044625289            3 
  176000    1.2328391   -6.1722526    88.056282  0.041693315  0.044628444            2 
  177000    1.2257041   -6.1992071    88.164083  0.041508514   0.04462838            5 
  178000    1.2122478   -6.1913035    88.666435  0.041510503  0.044622323            3 
  179000    1.2517505   -6.1791475    88.801878  0.041341656  0.044613709            2 
  180000    1.2318359   -6.1572582    89.516503  0.041442826  0.044603989            3 
  181000     1.198956   -6.1744713     90.08697  0.041476505  0.044594884            1 
  182000    1.2251645   -6.1771947    90.816598  0.041582691  0.044586996            3 
  183000    1.2304321   -6.2253602    91.151619  0.041508023  0.044579009            2 
  184000    1.2135026    -6.173042    91.747081   0.04155212  0.044571557            2 
  185000    1.2468398   -6.2230736    91.802952  0.041352681  0.044559375            3 
  186000    1.2093616   -6.1533726    93.132819  0.041726173  0.044549382            2 
  187000    1.2198238   -6.1758789    93.025878  0.041455382  0.044542475            3 
  188000    1.2329066   -6.2065133    93.670892  0.041520785  0.044532151            4 
  189000    1.1992379   -6.1821088    94.400676  0.041622873  0.044519843            4 
  190000    1.2339709   -6.1596974    94.773733  0.041567427  0.044508236            1 
  191000    1.2128487   -6.1685886    95.001774   0.04144929  0.044496645            1 
  192000    1.2238104   -6.1726806    95.949229  0.041644631  0.044484715            1 
  193000    1.2007584   -6.2181052    96.093106  0.041490978  0.044476248            3 
  194000     1.224652   -6.1785641    96.778263  0.041571419  0.044467735            2 
  195000     1.231744   -6.1938385    97.231532  0.041551937   0.04446219            2 
  196000    1.2180539   -6.1715927    98.280344  0.041785861  0.044457422            2 
  197000    1.2168127   -6.1530881    98.252734   0.04156207  0.044450107            1 
  198000    1.2399871   -6.1715172    98.737707  0.041556274  0.044440802            2 
  199000    1.2366742   -6.1676478    99.471194  0.041654604  0.044433045            4 
  200000    1.2321636   -6.1755231    100.46191   0.04185913  0.044426361            2 
  201000    1.2115754   -6.2024578     100.5692  0.041695358  0.044421757            4 
  202000    1.2435063   -6.2007878     100.9829  0.041659611  0.044415022            1 
  203000    1.2015227   -6.1982112    101.63439  0.041721837  0.044410155            2 
  204000     1.226276    -6.198381    102.21771  0.041755601  0.044404401            3 
  205000    1.2067935    -6.182062    102.59223   0.04170416  0.044399666            2 
  206000    1.2251013    -6.206147    102.93215   0.04163922  0.044393023            2 
  207000    1.2111513   -6.2000977    103.73043  0.041759431  0.044386934            3 
  208000    1.2075373   -6.1892755    104.38741  0.041821878  0.044381706            5 
  209000    1.1741206   -6.2006205     104.5032  0.041667944  0.044372757            2 
  210000    1.2413144   -6.1936962    104.86795  0.041614264  0.044362138            2 
  211000    1.2148601   -6.2041236    105.41126  0.041631619   0.04435079            4 
  212000    1.2155117   -6.2189343    106.28381  0.041778225  0.044342612            3 
  213000    1.1998454   -6.1765102     106.7867  0.041778834  0.044334408            2 
  214000    1.1953302   -6.2156538    107.07578  0.041696175  0.044326868            4 
  215000    1.2083931   -6.1913752     107.7679  0.041770505  0.044317687            2 
  216000    1.1886964   -6.1929983    108.11851  0.041712389  0.044311367            5 
  217000     1.257084   -6.1640651    108.96244  0.041844255  0.044305132            2 
  218000    1.2328834   -6.1967018    109.22972  0.041754479   0.04429537            2 
  219000    1.2110168   -6.1964063    109.75081  0.041762104  0.044286031            2 
  220000     1.210847   -6.1934044    110.42342  0.041827052  0.044275269            3 
  221000    1.1905049   -6.2190013     110.4384  0.041643441  0.044266839            1 
  222000     1.224316   -6.2179081     111.2896  0.041775374  0.044260056            2 
  223000    1.2333269   -6.2160656    111.32067  0.041599654  0.044251402            7 
  224000    1.2117658   -6.1988526    112.07008  0.041692739    0.0442412            2 
  225000    1.2149344   -6.1813124    112.58672  0.041698786  0.044230904            1 
  226000    1.2268479   -6.2009211    112.99831  0.041666042  0.044221469            2 
  227000    1.2327263   -6.1963459    113.24907  0.041574549  0.044213311            3 
  228000    1.1995843   -6.2222805    114.11776  0.041709709  0.044204593            5 
  229000    1.2189629   -6.2268726    114.34283  0.041609471  0.044194932            1 
  230000    1.2291068   -6.1849873    114.85281  0.041613336  0.044185835            4 
  231000    1.1997711   -6.1808056    115.60267  0.041703706  0.044174736            3 
  232000    1.1900758   -6.1812962    115.83871  0.041608733   0.04416415            3 
  233000    1.2184043   -6.1996108    116.00559   0.04148984  0.044150591            2 
  234000     1.196954   -6.2246455    116.70529  0.041561714  0.044137432            4 
  235000    1.2502307   -6.2111968     116.9392    0.0414678  0.044121869            1 
  236000    1.2182602   -6.2082463    117.14419  0.041364473  0.044105429            2 
  237000    1.2370543   -6.1936373    117.58922  0.041346422  0.044088542            3 
  238000    1.2083038   -6.2411559    118.38321  0.041450703  0.044069957            2 
  239000    1.1701264   -6.1917983    118.90192   0.04145813  0.044053863            4 
  240000    1.1949816   -6.1791741    119.64115  0.041542066  0.044040587            5 
  241000    1.2113545   -6.2206959    119.47455  0.041312085  0.044024164            2 
  242000    1.1937267   -6.1983763    120.48539  0.041489461  0.044006859            1 
  243000    1.1896718   -6.1846228    121.02146  0.041502557  0.043990928            2 
  244000    1.2075702   -6.1860635    121.76897  0.041587762  0.043978018            3 
  245000    1.1933259   -6.1646035    122.19333  0.041562357  0.043964662            3 
  246000    1.1983266   -6.2168848    122.46118  0.041484138  0.043953272            4 
  247000    1.2464832   -6.1820038    123.02874  0.041507672  0.043937385            2 
  248000    1.2214628   -6.2008617    123.54449  0.041513607  0.043921759            2 
  249000    1.2410301   -6.2118399    124.08897  0.041529107  0.043906099            5 
  250000     1.231445   -6.2398896    124.15483  0.041384942    0.0438913            3 
  251000    1.2436434   -6.2220111    124.91943  0.041473916  0.043876914            3 
  252000    1.2213821   -6.1725765    125.65533  0.041552689  0.043864119            3 
  253000     1.229624   -6.2184667    126.49131  0.041663805  0.043852063            3 
  254000    1.1806592   -6.1997949    126.89339  0.041631689   0.04383965            2 
  255000    1.1994774   -6.2219168    127.32192  0.041608469  0.043827966            3 
  256000    1.2213418   -6.2397256    127.48723   0.04149975  0.043814595            4 
  257000    1.2208241   -6.2396805    127.84367  0.041453848  0.043802558            1 
  258000    1.2364698    -6.204439    128.69221   0.04156725  0.043789142            4 
  259000    1.2238744   -6.2024945    129.38576  0.041629909  0.043777356            2 
  260000    1.2203126   -6.2169582     129.8269  0.041611184   0.04376839            2 
  261000    1.1918199   -6.2039811    130.66807  0.041720329  0.043760695            3 
  262000    1.1872458   -6.2053956    131.25506  0.041747793  0.043753426            5 
  263000    1.2249861   -6.2097102    131.75393  0.041747126  0.043745141            5 
  264000    1.2081705   -6.2131668    132.44793  0.041808059  0.043737513            3 
  265000     1.218162   -6.1885685    132.36582  0.041624471  0.043728721            2 
  266000    1.2061377   -6.2154965    133.11008  0.041701153  0.043718848            3 
  267000    1.2418349   -6.2117496    133.33239  0.041614352  0.043709046            2 
  268000    1.2192326    -6.201638    134.09031  0.041694748  0.043699586            2 
  269000    1.1890673   -6.1985354    134.37586   0.04162821  0.043691346            3 
  270000    1.2046558   -6.1716246    134.90591  0.041637628  0.043682334            5 
  271000    1.1895802   -6.2228051    135.37977  0.041629695  0.043673841            3 
  272000    1.2134765   -6.1987707    136.76137  0.041899929  0.043666851            3 
  273000    1.2345893   -6.2209445    136.64845  0.041711982  0.043660494            2 
  274000    1.2083931   -6.2046146    137.60297  0.041850053   0.04365407            2 
  275000    1.2279211   -6.2241016    137.97389  0.041810268   0.04364764            4 
  276000    1.2368783   -6.2158827    138.47289  0.041809449  0.043641249            2 
  277000    1.1825411   -6.2228609    138.13736  0.041557569  0.043634039            2 
  278000     1.194027   -6.2107607    138.84494  0.041620185  0.043627116            2 
  279000    1.1730875   -6.1744003    139.53591  0.041677393  0.043619696            1 
  280000    1.1823828   -6.2191505    139.99662  0.041665659  0.043610477            2 
  281000     1.197736   -6.1917346    140.44017  0.041648924    0.0436004            2 
  282000    1.2196088     -6.20852    140.88614  0.041633019  0.043588705            3 
  283000    1.1986764   -6.2136373    141.18244  0.041573157  0.043578156            3 
  284000    1.2197747    -6.225991    141.95619  0.041653811   0.04356903            7 
  285000    1.2213578   -6.2125987    142.32033  0.041614131  0.043560783            6 
  286000    1.2123539   -6.2349995    142.49401  0.041519234  0.043552582            4 
  287000    1.2094689   -6.2143457    143.32204  0.041614995  0.043543667            3 
  288000     1.205612   -6.2328586    143.80118  0.041609137  0.043534054            2 
  289000    1.1994626   -6.1959002     143.8387   0.04147598  0.043523476            2 
  290000    1.2251836   -6.2580072     144.4258  0.041501668  0.043510806            5 
  291000    1.2316475   -6.1936688    145.05537  0.041539339  0.043497994            1 
  292000    1.2114338   -6.2369118    145.19584  0.041437168  0.043486419            2 
  293000    1.1975821   -6.2081458    146.37632   0.04163149  0.043475106            4 
  294000     1.199564    -6.231574    146.95984  0.041655284  0.043465505            2 
  295000    1.2262577   -6.2030843    146.98197   0.04152033   0.04345579            3 
  296000    1.2261116   -6.2219733    147.94669  0.041651659  0.043446611            3 
  297000    1.2188483   -6.1905085    148.47856  0.041660652   0.04343922            4 
  298000    1.1952672   -6.2260354    149.46819  0.041797593  0.043433121            2 
  299000    1.2048423   -6.2387501    150.07192  0.041826065  0.043429355            4 
  300000    1.2016174     -6.18761    150.51997  0.041811103   0.04342405            3 
  301000    1.2311698   -6.2314832    151.14145  0.041844254  0.043419317            5 
  302000    1.1947874   -6.2540929    151.25299  0.041736477  0.043413554            2 
  303000    1.2027299   -6.2215844    152.04247   0.04181586  0.043406526            2 
  304000    1.1987765   -6.2226874    152.58186  0.041826169  0.043401198            4 
  305000    1.2137736   -6.2488315    152.91003  0.041778696  0.043397038            1 
  306000    1.2114226     -6.27439    153.06628  0.041684717  0.043391481            3 
  307000    1.1876923   -6.2169316    153.72281  0.041727148   0.04338472            2 
  308000    1.2167445   -6.2559015    154.47799  0.041795992  0.043376739            1 
  309000    1.1954052   -6.2449518    155.06734  0.041819671  0.043369415            3 
  310000    1.1680084   -6.2390672    155.42098  0.041779833  0.043363675            5 
  311000    1.1984931   -6.2581998    155.59267  0.041691498  0.043357454            2 
  312000     1.195068   -6.1931529     156.4309  0.041781759  0.043352776            1 
  313000    1.1856644   -6.2134947    157.29832  0.041879211  0.043348753            4 
  314000    1.2136839   -6.2078567    157.88849  0.041902465  0.043346238            3 
  315000    1.1915162    -6.238328    158.03072  0.041807069  0.043343167            2 
  316000    1.1942826   -6.2191486    159.17761  0.041977217  0.043340788            3 
  317000    1.2051889   -6.2464358     159.2709  0.041869321  0.043337838            4 
  318000    1.1958441   -6.2057094    160.04533    0.0419406  0.043335463            3 
  319000    1.2000378    -6.243626    160.91224   0.04203559  0.043333885            5 
  320000    1.1975952   -6.2264336    161.08995  0.041950508  0.043330572            5 
  321000    1.2212891   -6.2176217    161.25022  0.041861428  0.043328383            2 
  322000    1.2221401    -6.206792    161.64606  0.041833868  0.043324485            5 
  323000    1.1902191   -6.2208085    162.03471  0.041804621   0.04332039            1 
  324000    1.1870073   -6.2688515    161.92727  0.041647961  0.043315123            3 
  325000    1.1897801   -6.2108833    162.78456   0.04173963   0.04330849            3 
  326000    1.2092348   -6.2280192    162.71725  0.041594389  0.043302697            5 
  327000    1.1922548   -6.2573049    163.37205   0.04163406  0.043296287            1 
  328000    1.1922878   -6.2745959    164.16598  0.041708837  0.043289577            4 
  329000     1.176553   -6.2769726    164.72353  0.041723285  0.043283193            3 
  330000    1.2066493    -6.239142    164.69682  0.041590107  0.043276031            2 
  331000    1.1827261     -6.23271    165.77375  0.041735588  0.043268959            2 
  332000    1.2097305   -6.2282837     166.0621  0.041682255  0.043262865            1 
  333000    1.2191367   -6.2133047    166.16875  0.041583771   0.04325588            5 
  334000    1.2041026   -6.2161017    166.89688  0.041640937  0.043248417            3 
  335000    1.2106334   -6.2318992    167.14374  0.041578045  0.043239695            4 
  336000    1.1925191   -6.2297755    167.63802   0.04157689  0.043231789            3 
  337000      1.20533   -6.2333346    168.76677  0.041732632  0.043224426            2 
  338000    1.2226287   -6.2279319    168.57263  0.041561299  0.043214925            3 
  339000    1.1789702   -6.2121343    169.42957  0.041649353  0.043206886            2 
  340000    1.2533287   -6.2164298    169.72707  0.041599772  0.043199523            3 
  341000    1.1834411   -6.2036226    170.55924  0.041681144    0.0431913            2 
  342000    1.2163367   -6.2418583    170.46298  0.041535815  0.043181187            3 
  343000    1.1895678   -6.1999041    171.05128  0.041557649  0.043171258            3 
  344000    1.2077283   -6.2341532     170.8909  0.041397989  0.043161684            2 
  345000    1.2076674   -6.2579756    171.24567  0.041363688  0.043151383            6 
  346000     1.173606   -6.2202585    171.53387  0.041313553  0.043139208            2 
  347000    1.1903217   -6.2412263    172.31478   0.04138203  0.043128105            4 
  348000    1.1871885   -6.1773163    173.07694  0.041445626  0.043117443            4 
  349000    1.2009903   -6.2393352    173.24153  0.041366171  0.043107607            2 
  350000    1.1829882   -6.2031701    174.04481   0.04143924  0.043097974            2 
  351000    1.2041127   -6.1953531    174.82987  0.041507566  0.043087796            3 
  352000    1.1753601   -6.1813134     174.3491  0.041275828  0.043077501            4 
  353000    1.1829724   -6.2346042    175.46727  0.041422868  0.043066418            4 
  354000    1.1716356   -6.2595926    175.44175  0.041299847   0.04305515            6 
  355000    1.2132741   -6.2196353    176.50332  0.041432704  0.043044049            4 
  356000    1.1919066   -6.2704898    176.57435  0.041332946  0.043032966            2 
  357000    1.2007777   -6.2412126     177.2024  0.041363773  0.043020793            4 
  358000     1.205882   -6.2170727    177.96368  0.041425437  0.043008027            2 
  359000    1.2001026   -6.2270669    178.03832  0.041327373  0.042997711            4 
  360000    1.1750979   -6.2455882    178.76005  0.041379641   0.04298647            2 
  361000    1.2113922   -6.2305036    179.06343  0.041335048  0.042975488            3 
  362000    1.1782241   -6.2803894    179.32608  0.041281327  0.042963439            3 
  363000    1.1946278   -6.2331701    179.85541   0.04128912  0.042951567            3 
  364000    1.1840627   -6.2484883    181.53124  0.041559351  0.042940444            2 
  365000    1.1753366   -6.1622121    181.70891  0.041486051  0.042931111            2 
  366000    1.2364291   -6.2088462    182.19804  0.041484072  0.042921333            4 
  367000    1.1671744   -6.2234663    182.29932  0.041394033   0.04291148            2 
  368000    1.1743233    -6.278753    182.05568  0.041226377  0.042900034            3 
  369000    1.1818079   -6.2394222    182.94911  0.041316421  0.042888439            3 
  370000    1.1975869   -6.2480787    182.83178  0.041178328  0.042875941            2 
  371000    1.1993438   -6.2116966    183.57861  0.041235088  0.042862823            3 
  372000     1.214174   -6.2634313    183.61336  0.041132026  0.042849887            3 
  373000    1.1982289   -6.2988165    184.03516  0.041115988  0.042836809            2 
  374000    1.1966946   -6.2595021     184.4267  0.041093294  0.042824486            2 
  375000    1.1888848   -6.2198073    185.34253  0.041187229  0.042811696            2 
  376000    1.1828257   -6.2244426    185.58656  0.041131772  0.042799948            2 
  377000    1.2027052    -6.275476    185.22574  0.040942914   0.04278663            2 
  378000    1.1903021    -6.259424    186.75747  0.041172281  0.042773597            2 
  379000    1.1970261   -6.2150683    186.81186  0.041075607   0.04276028            2 
  380000    1.1780551   -6.2526087    187.19687  0.041051946  0.042746271            3 
  381000    1.1895385   -6.2698237    187.14626  0.040933129  0.042732262            2 
  382000    1.1938793   -6.2584394    187.66229  0.040938545  0.042717081            4 
  383000    1.2021403   -6.2137123    187.33515  0.040760477  0.042701563            2 
  384000     1.185586   -6.2526045    188.21267  0.040844764  0.042684981            3 
  385000    1.1807223   -6.2653115    188.38428  0.040775819  0.042668381            4 
  386000    1.1797321   -6.2599707     188.7679     0.040753  0.042650788            5 
  387000    1.1910104   -6.1952767    189.80859  0.040871789  0.042634037            3 
  388000    1.1938939   -6.2434865    189.19462  0.040634584  0.042616902            4 
  389000    1.1810571   -6.2611831    190.19288  0.040743975  0.042598836            3 
  390000     1.173161   -6.2474201    190.70824  0.040749623  0.042580822            3 
  391000    1.1901648   -6.2835213    190.40069  0.040579856  0.042563786            3 
  392000    1.1899706   -6.2656472    191.17029  0.040639943  0.042547114            3 
  393000    1.1876777   -6.2601128    191.79981  0.040670018    0.0425306            7 
  394000    1.1831135   -6.2281735    192.86045  0.040791127  0.042515361            2 
  395000     1.181092   -6.3012776    192.99236  0.040715688  0.042500657            3 
  396000     1.192303    -6.223648    194.21179  0.040869483  0.042485836            2 
  397000    1.1923638   -6.2395744    193.85692  0.040692048  0.042471041            5 
  398000    1.1973013   -6.2631073    195.67024  0.040969481  0.042456838            3 
  399000    1.1791574   -6.2550646    195.91604  0.040918137   0.04244374            6 
  400000    1.1915044   -6.2460475    196.59951   0.04095823  0.042430773            4 
  401000      1.20376    -6.284369    196.50812    0.0408371  0.042418217            4 
  402000    1.1736075   -6.2527758    197.20782  0.040880561  0.042406223            2 
  403000    1.1943946   -6.2600035    198.14669   0.04097326  0.042394893            3 
  404000    1.1842115   -6.2557226    198.77138  0.041000696  0.042383866            3 
  405000     1.200331   -6.2401354    198.98097  0.040942586  0.042372923            2 
  406000    1.1933473   -6.2546763    200.32077  0.041116742  0.042363088            2 
  407000    1.1569313   -6.2690734    200.19683  0.040990341  0.042353549            2 
  408000    1.1883074   -6.2662216    200.71654  0.040996026  0.042343052            6 
  409000     1.181174   -6.2319662    201.15982  0.040986108  0.042333987            1 
  410000    1.2034065   -6.2599882    201.57933  0.040971409  0.042325369            3 
  411000    1.1758648   -6.2687706    202.03112  0.040963326  0.042316216            3 
  412000    1.1889614   -6.2499932    202.93632   0.04104699  0.042306758            4 
  413000    1.1845885   -6.2987455    203.26318  0.041013556  0.042298014            1 
  414000    1.1770976   -6.2483447    204.45182  0.041153749   0.04229037            1 
  415000    1.1756666   -6.2246032     204.6832  0.041101044  0.042282102            4 
  416000    1.1736932   -6.2287424    205.26495  0.041118781   0.04227352            3 
  417000     1.197043   -6.2033768    204.96413  0.040960058  0.042264389            1 
  418000    1.1789577    -6.256273    205.66665  0.041002123  0.042255726            2 
  419000    1.1961965   -6.2326127    206.75178  0.041120083  0.042247308            4 
  420000    1.2083291   -6.2416164    206.75635  0.041023085  0.042239853            3 
  421000    1.1736632    -6.284036    207.45878  0.041064683  0.042232007            3 
  422000    1.1694987   -6.2456905    207.93535  0.041061483  0.042224267            3 
  423000    1.1969728   -6.2380008    208.29149  0.041034573  0.042215664            1 
  424000     1.185752   -6.2880505    208.80326  0.041038376  0.042206805            2 
  425000    1.1440278   -6.2440467    209.55788  0.041089781  0.042198945            2 
  426000    1.1812788   -6.2177841    210.93381  0.041262483  0.042192238            3 
  427000    1.1925418   -6.2907714    210.37708  0.041057198  0.042185956            4 
  428000    1.1817824   -6.2821613     211.0731  0.041096788   0.04217919            3 
  429000    1.2046045    -6.246171    211.58822  0.041101053  0.042172233            3 
  430000    1.1762091   -6.2690314    211.70298   0.04102771  0.042165947            1 
  431000    1.1781282   -6.2426009    213.33712  0.041248476  0.042159343            5 
  432000    1.1423808   -6.2820891    213.03735  0.041095167    0.0421538            3 
  433000    1.1761718   -6.2588434    213.95238  0.041176362  0.042147432            3 
  434000    1.1943016   -6.2432072    214.16302  0.041121931  0.042140585            3 
  435000     1.189962   -6.2720421    214.57631  0.041106573  0.042134553            1 
  436000    1.1680274   -6.2391776    215.42625  0.041174741   0.04212932            4 
  437000    1.1868083   -6.2634709    216.57975  0.041300485  0.042124515            2 
  438000     1.171024   -6.2631577    216.94846  0.041276343  0.042120022            3 
  439000    1.1712032   -6.2504412    217.40768  0.041269491  0.042115458            4 
  440000    1.1716574   -6.2367602    218.98777  0.041474956  0.042111612            2 
  441000    1.1690879   -6.2704456    218.29187  0.041249408  0.042107959            2 
  442000    1.1565626   -6.2704929    219.07539  0.041303806  0.042103318            2 
  443000    1.1390585    -6.280324    219.00284  0.041196923  0.042098734            3 
  444000    1.1920156   -6.2932548    219.04112  0.041111321  0.042094018            3 
  445000    1.1943645   -6.2304558    220.60723  0.041312215  0.042090634            4 
  446000    1.1768897   -6.2844112    221.10749  0.041313058  0.042087744            2 
  447000    1.1744225   -6.2545733     220.8446  0.041171625  0.042084843            3 
  448000    1.1719845   -6.2348684    222.63405  0.041412583  0.042081519            3 
  449000    1.2011638   -6.2591347    222.79974  0.041351102  0.042077484            3 
  450000    1.1811129   -6.2726353    223.28454   0.04134899  0.042074723            2 
  451000    1.1836337   -6.2874284    223.86124  0.041363865  0.042071611            3 
  452000    1.1803558   -6.2682568    224.41158  0.041373816  0.042068482            4 
  453000    1.1662663    -6.272216    224.75361  0.041345404  0.042065229            2 
  454000    1.1771763    -6.222153    225.12641  0.041322763  0.042062464            5 
  455000    1.1925726   -6.2598292     225.8955  0.041372802  0.042059384            3 
  456000    1.1609595   -6.2733657    225.70509  0.041247274  0.042055923            2 
  457000    1.2084083   -6.2902802    226.16935  0.041241676  0.042052681            2 
  458000    1.1946917   -6.2890177    226.16012  0.041149949  0.042048184            3 
  459000    1.1726988   -6.2439463    228.13689  0.041419188  0.042044775            3 
  460000    1.1604841   -6.3299849    227.27784  0.041173522  0.042040806            2 
  461000    1.1420366   -6.2610878    229.06115  0.041406571  0.042037058            2 
  462000    1.1802672   -6.2464609    228.43845  0.041204627  0.042033961            3 
  463000    1.1787685   -6.2670442    228.99219  0.041215297  0.042030248            6 
  464000    1.1857302   -6.3036022    229.72684  0.041258413  0.042025492            3 
  465000    1.1519445   -6.2828391    229.64383  0.041154808  0.042020935            1 
  466000    1.1971593   -6.2959048    230.59991  0.041237466  0.042015866            2 
  467000    1.1731121   -6.2705976    230.21978  0.041081331  0.042011532            2 
  468000     1.194985   -6.2640599    231.09582  0.041149541  0.042007153            2 
  469000    1.1998813   -6.2780821    231.54603  0.041141796  0.042002233            2 
  470000     1.166162   -6.2787274    231.27267  0.041005792  0.041997028            4 
  471000    1.1582346   -6.2555103    231.43408  0.040947289  0.041991057            2 
  472000    1.1847239   -6.2943534    232.33116  0.041018919  0.041984501            5 
  473000    1.1691367   -6.2457751    232.66815   0.04099157  0.041978371            2 
  474000    1.1837441    -6.249431    233.31675   0.04101912  0.041971374            4 
  475000    1.2038223   -6.2660483    233.74658  0.041008171  0.041963792            2 
  476000    1.1917093   -6.2974258    233.26113  0.040837032  0.041956338            6 
  477000    1.1811329   -6.2717189     234.0077  0.040881848  0.041947442            3 
  478000    1.1538413    -6.246701    235.02008  0.040972818  0.041939161            5 
  479000    1.1610732   -6.2703098    235.02155  0.040887534  0.041931582            3 
  480000    1.1503074   -6.2729548    235.72369  0.040924253  0.041923984            3 
  481000    1.1833457   -6.2560042    235.33363  0.040771592  0.041916584            3 
  482000    1.2030772   -6.2935869    235.76173  0.040761018  0.041908798            3 
  483000    1.1749593   -6.2999067    236.71426  0.040840969  0.041900793            3 
  484000    1.1924093   -6.2598679    237.53493  0.040897888  0.041893351            5 
  485000    1.1910482   -6.2993929    238.28825  0.040942998  0.041886317            2 
  486000    1.1960943   -6.2517412    239.22908  0.041020075  0.041879672            2 
  487000    1.1899331   -6.2920963    238.84821  0.040870672  0.041872887            1 
  488000    1.1501671   -6.2303127    240.80056  0.041120314  0.041866512            7 
  489000    1.1939646   -6.2738473    240.32659  0.040955452  0.041859975            5 
  490000    1.1923696   -6.2822767    240.78568  0.040949946  0.041853937            3 
  491000    1.1587339   -6.2993052    241.86427  0.041049604  0.041848552            2 
  492000    1.1889554    -6.273941    242.57706    0.0410869  0.041843487            4 
  493000    1.1627567   -6.2591792    243.89539  0.041226402  0.041838432            1 
  494000    1.1549965   -6.2820825    243.17432  0.041021308   0.04183329            4 
  495000    1.1706724   -6.2866956    243.42895  0.040981305  0.041827994            4 
  496000    1.1508666   -6.3073153    244.72061  0.041115694  0.041822883            2 
  497000    1.1611403   -6.2491109    245.12456  0.041100698  0.041817815            2 
  498000     1.185359   -6.2940047    245.72214  0.041118162  0.041813012            2 
  499000    1.1675371   -6.2444943    245.67337  0.041027617  0.041808866            2 
  500000    1.1730853   -6.3158331    246.74201  0.041123668  0.041804384            2 
  501000    1.1802653   -6.2440714    247.22456  0.041121849   0.04180057            3 
  502000    1.2023777    -6.264889    248.09435  0.041184322  0.041797575            4 
  503000    1.1677588   -6.2538208    248.88129  0.041232818  0.041794718            3 
  504000      1.16671   -6.2979759    247.98582  0.041002946  0.041791315            3 
  505000    1.1584347    -6.292797    249.43626    0.0411611  0.041788571            5 
  506000    1.1876496   -6.3226145    249.42615  0.041078088  0.041785776            2 
  507000     1.177212    -6.261051    250.18002  0.041120976  0.041782145            5 
  508000    1.1652471    -6.267774    251.63138  0.041278114   0.04177917            3 
  509000    1.1419428   -6.3010125    251.02258  0.041097344  0.041775688            8 
  510000    1.1730637   -6.2770941    251.87501  0.041156047   0.04177209            5 
  511000    1.1724391   -6.2943665     252.6272  0.041198174  0.041768008            5 
  512000    1.1637941   -6.2690718     252.9928  0.041177214  0.041764737            4 
  513000    1.1527918    -6.238035    253.74854   0.04121971  0.041761135            3 
  514000    1.1725588   -6.2555502    254.12408  0.041200402  0.041757921            5 
  515000    1.1438417   -6.2938064    253.96294  0.041094327  0.041754398            2 
  516000     1.142973   -6.2688197    253.69492  0.040971403  0.041750913            6 
  517000    1.1561182    -6.288542    254.42319  0.041009541  0.041746463            7 
  518000    1.1672803   -6.2673007     255.1069  0.041040363  0.041741318            4 
  519000    1.1725132   -6.2773219    255.45697  0.041017496  0.041736741            3 
  520000    1.1613674   -6.2878259    254.90141  0.040849585  0.041731688            2 
  521000    1.1671986   -6.2800148     256.1103  0.040964539  0.041726778            3 
  522000    1.1893966   -6.2453647    256.66434  0.040974511  0.041722102            2 
  523000    1.1730693   -6.2512131    257.82353  0.041080869  0.041717226            3 
  524000    1.1578863   -6.2477014    257.93747   0.04102059  0.041713223            3 
  525000    1.1647981   -6.2652644     258.3415  0.041006587  0.041708136            4 
  526000    1.1731359   -6.2892955    257.87123  0.040854124  0.041703141            3 
  527000    1.1657568   -6.3030053    258.07209  0.040808363  0.041697325            2 
  528000    1.1642124   -6.2612364    258.51791  0.040801437  0.041691906            3 
  529000    1.1820744   -6.2750754    259.24485  0.040838823  0.041685784            6 
  530000    1.1769282   -6.3032151    259.63747  0.040823502  0.041680216            2 
  531000    1.1638762   -6.2847659    261.35169  0.041015645  0.041674856            2 
  532000    1.1607592   -6.3018343    261.49744  0.040961378   0.04166984            4 
  533000    1.1642394    -6.285637     261.4969  0.040884443  0.041664068            3 
  534000    1.1719913   -6.3037988    261.84408   0.04086206   0.04165795            5 
  535000     1.174139   -6.2853187    262.07992  0.040822418  0.041652367            2 
  536000    1.1543672   -6.2834439    263.14078  0.040911191  0.041646731            1 
  537000    1.1628281   -6.2668321    263.08381  0.040826166  0.041640366            2 
  538000    1.1829176   -6.2893169    263.88748  0.040874764  0.041634448            3 
  539000    1.1734823   -6.3067502    264.03281  0.040821399  0.041628511            2 
  540000    1.1452221   -6.2653536    264.63368   0.04083853  0.041623037            2 
  541000    1.1634323   -6.2874651    265.54818  0.040903909  0.041617435            5 
  542000    1.1788129   -6.2601217    266.30358  0.040944584  0.041612223            2 
  543000    1.1842331   -6.2872233    266.75786  0.040938898   0.04160772            4 
  544000    1.1786957   -6.2997285    267.02485  0.040904543  0.041602882            2 
  545000    1.1408534   -6.2667115    268.29557  0.041023787  0.041597803            2 
  546000     1.149173   -6.3098621    268.22898  0.040938489  0.041593156            1 
  547000     1.142715   -6.3139559    268.42276  0.040893168  0.041588548            3 
  548000    1.1535361   -6.2572998    269.02105  0.040909527  0.041584508            4 
  549000     1.177695   -6.2811107    269.71536  0.040940401  0.041580695            7 
  550000    1.1653983   -6.2862696    270.52202  0.040988184  0.041576569            3 
  551000    1.1468286   -6.3325353    270.72415  0.040944367  0.041572596            3 
  552000     1.178904   -6.3065252    270.91297  0.040898698  0.041569305            3 
  553000    1.1453546   -6.2804674    272.12412  0.041007251   0.04156584            3 
  554000    1.1567498   -6.2969954    272.39378  0.040973793  0.041562147            5 
  555000    1.1485661   -6.2891989    272.83591  0.040966353  0.041557849            2 
  556000    1.1738134   -6.2834778     273.0488   0.04092458  0.041554097            3 
  557000    1.1313202   -6.3146756    273.47451  0.040914798  0.041549751            3 
  558000    1.1666656   -6.2994919    274.44757  0.040986793  0.041545526            4 
  559000    1.1717859   -6.3228834     274.8065   0.04096698  0.041542076            3 
  560000    1.1750879   -6.2628411    274.54405  0.040854769  0.041538089            2 
  561000    1.1295971   -6.2570854    275.10984   0.04086599  0.041533856            5 
  562000    1.1610009   -6.3280646    275.97936  0.040922206  0.041530018            2 
  563000    1.1671182   -6.2710276    276.46571  0.040921508  0.041526226            2 
  564000    1.1565152   -6.2912438      276.319  0.040827275  0.041522847            2 
  565000    1.1768186   -6.2862424    277.33357  0.040904656  0.041519415            4 
  566000     1.161156   -6.2816139    277.31598  0.040829798  0.041515669            2 
  567000    1.1641258   -6.2769889    278.21724  0.040890247  0.041512229            1 
  568000    1.1562623   -6.3164731    277.87535  0.040768097  0.041508375            3 
  569000    1.1722025   -6.3046578    279.39767    0.0409194  0.041505016            4 
  570000    1.1701646   -6.2816335    280.12906  0.040954541  0.041501891            2 
  571000    1.1668187    -6.319402    279.97487  0.040860314  0.041498271            3 
  572000    1.1377878   -6.2932235     280.4042  0.040851427  0.041494432            3 
  573000    1.1538761   -6.2879057    280.96445  0.040861613  0.041490431            6 
  574000    1.1593356   -6.2856023    281.98623  0.040938767  0.041486531            3 
  575000    1.1605153   -6.2895103    281.62667   0.04081546  0.041482082            2 
  576000    1.1507563    -6.276987    282.39464  0.040855705   0.04147797            3 
  577000    1.1832918   -6.2703315    282.24103  0.040762714  0.041473218            4 
  578000    1.1607917   -6.3088287    282.68166  0.040755718  0.041468331            3 
  579000     1.184238   -6.3359262    282.59523  0.040672889  0.041463514            3 
  580000    1.1543338   -6.3063152    284.11581  0.040821236  0.041458573            4 
  581000    1.1787224   -6.2781201    284.48653   0.04080415  0.041454269            3 
  582000    1.1688546   -6.3135942    284.71487  0.040766734  0.041449413            3 
  583000    1.1483224   -6.3173181    284.74678   0.04070137  0.041444057            2 
  584000    1.1652278   -6.2620161    284.87715  0.040650278  0.041438474            2 
  585000    1.1889576   -6.3244493    286.46053  0.040806343  0.041433792            5 
  586000    1.1655225     -6.27177    287.05095   0.04082067  0.041428973            1 
  587000    1.1606528   -6.2933225    288.01801  0.040888417  0.041424616            7 
  588000    1.1675977    -6.297027    288.48253  0.040884712  0.041420715            3 
  589000    1.1955758   -6.3562463    288.17081  0.040771195  0.041416902            9 
  590000    1.1843417   -6.3249726    288.68298  0.040774433  0.041412551            5 
  591000    1.1814075   -6.3093035     289.1268  0.040768021  0.041408489            2 
  592000    1.1461128   -6.3000896    290.52962  0.040896624  0.041404886            3 
  593000    1.1774722    -6.292901     290.5347  0.040828373  0.041401124            2 
  594000    1.1694735   -6.2937444    291.25068  0.040860085  0.041397575            2 
  595000    1.1720788   -6.2918603    291.50277  0.040826718  0.041393865            3 
  596000    1.1383375   -6.3221733    292.14376  0.040847842  0.041390096            3 
  597000    1.1425991   -6.2730152    291.44275  0.040681568  0.041386065            3 
  598000    1.1362098   -6.2748234    293.18798  0.040856742  0.041382039            3 
  599000     1.148756   -6.2996919    293.47994  0.040829151  0.041378212            3 
  600000    1.1336324   -6.3651085    293.14487  0.040714566   0.04137382            5 
  601000    1.1477325   -6.3275426    294.12904  0.040783283  0.041369912            3 
  602000    1.1628556   -6.3267073    294.69356  0.040793682  0.041365803            5 
  603000    1.1636316    -6.264856    295.88158  0.040890213  0.041362599            2 
  604000    1.1443921   -6.2927784    296.56938  0.040917409  0.041359066            1 
  605000    1.1576367   -6.3082766    295.73747  0.040735189  0.041355055            3 
  606000    1.1794652   -6.3068411    296.12207  0.040720857   0.04134973            5 
  607000    1.1608629   -6.3335397    296.10736  0.040651751  0.041344527            3 
  608000    1.2078854    -6.312786    297.11165   0.04072254  0.041339988            3 
  609000    1.1509436    -6.286894    297.23576  0.040672655  0.041335276            4 
  610000    1.1697693   -6.2901402    298.79423  0.040818883  0.041330723            3 
  611000    1.1456541   -6.3107225    297.49925  0.040575457  0.041326087            3 
  612000    1.1655728   -6.3002531    299.42538   0.04077143  0.041321467            3 
  613000    1.1538407   -6.3374424    299.23609  0.040679185   0.04131653            2 
  614000    1.1814379   -6.3333899     298.6662  0.040535586  0.041311355            4 
  615000    1.1625943   -6.2886535    299.93778  0.040641975  0.041305726            1 
  616000      1.17938   -6.3031166      299.641  0.040535849  0.041300099            3 
  617000    1.1356701   -6.3504568    298.42619  0.040306076  0.041293468            2 
  618000    1.1480231   -6.3074475    300.92803  0.040578213  0.041287032            5 
  619000    1.1455689   -6.3212418    301.16071  0.040543984  0.041280877            2 
  620000     1.146436   -6.2723266     302.4303  0.040649233  0.041274954            2 
  621000    1.1519837   -6.2921643     301.8711  0.040508736  0.041269397            4 
  622000    1.1613191   -6.3052177    302.22504  0.040491029  0.041263798            3 
  623000    1.1320264   -6.3040041    302.04694  0.040402212  0.041257432            2 
  624000    1.1603202   -6.2940207     302.8792  0.040448611  0.041251244            8 
  625000    1.1366594   -6.2852082    303.61536  0.040482048  0.041245011            2 
  626000    1.1316225   -6.2863883    303.08834  0.040347223  0.041238482            4 
  627000    1.1634529   -6.2711193    305.27049  0.040572899  0.041231667            2 
  628000    1.1570045   -6.2727439    304.48604  0.040404198  0.041224789            1 
  629000    1.1254969   -6.3140728    304.49649  0.040341348  0.041217312            5 
  630000    1.1315773   -6.3284515     305.3589  0.040391388  0.041210085            4 
  631000    1.1249148   -6.3165099     305.1397  0.040298429  0.041202493            2 
  632000     1.148274   -6.3143908    306.43853  0.040405924  0.041195609            2 
  633000    1.1589824   -6.2840918    306.40504  0.040337683  0.041188984            2 
  634000    1.1673449   -6.3003962    308.53235  0.040553674  0.041182647            4 
  635000    1.1919467   -6.3004623    306.88827  0.040274051  0.041175553            2 
  636000    1.1558512   -6.3247909    306.73625  0.040190809  0.041167979            2 
  637000    1.1658661   -6.3260187     307.0635  0.040170525  0.041159883            2 
  638000    1.1401518   -6.3047535    308.51694  0.040297406   0.04115153            3 
  639000    1.1586251   -6.3364348    308.68336  0.040256046  0.041142936            3 
  640000     1.116662   -6.3187957    306.95035  0.039967493  0.041133314            2 
  641000    1.1444664     -6.30037     308.0091  0.040042785  0.041123606            4 
  642000    1.1562589   -6.3373492    309.10426  0.040122568  0.041114447            8 
  643000    1.1600956   -6.3233969    309.29798  0.040085275   0.04110521            2 
  644000    1.1458357   -6.3567384    310.47694  0.040175588  0.041096157            3 
  645000    1.1413121   -6.3578955    309.90428  0.040039313   0.04108751            2 
  646000     1.150196   -6.3242024    311.35201  0.040164088  0.041078315            3 
  647000    1.1718264   -6.2960818    311.43031  0.040112095  0.041069468            1 
  648000    1.1435996   -6.3210662    309.89182  0.039852343  0.041060093            2 
  649000    1.1381625     -6.30328    311.52638  0.040000819  0.041050322            2 
  650000    1.1502893    -6.310141    311.81184  0.039975877  0.041040873            3 
  651000    1.1428198    -6.343081    312.59282  0.040014442  0.041031463            3 
  652000    1.1455742   -6.3266796    312.91004  0.039993614  0.041021893            3 
  653000     1.163088   -6.2985581    313.60268  0.040020761  0.041012844            1 
  654000    1.1379888   -6.2879686    314.13739    0.0400277  0.041003744            6 
  655000    1.1332684   -6.3172225    313.56722  0.039894049  0.040994798            4 
  656000    1.1524083   -6.3014805      314.056  0.039895325  0.040985817            2 
  657000    1.1502984   -6.3159932    314.52246  0.039893767  0.040975982            2 
  658000    1.1806169   -6.3169481     314.8054  0.039868972  0.040965945            6 
  659000    1.1341591   -6.3105301    316.22202   0.03998761  0.040956419            3 
  660000     1.135094   -6.3286063     315.5627  0.039843775  0.040946832            4 
  661000    1.1604944   -6.3491971    315.62225  0.039791004  0.040937028            2 
  662000    1.1281903   -6.3310998    317.61285  0.039981477  0.040927332            2 
  663000       1.1501   -6.3620334    316.26358  0.039751582  0.040917545            4 
  664000    1.1437555   -6.3493984     317.8517  0.039891027  0.040907527            3 
  665000    1.1220583    -6.293976     318.4925   0.03991134  0.040898065            2 
  666000    1.1403385   -6.3132978    318.68449  0.039875436  0.040888536            4 
  667000    1.1569423   -6.3213465    318.50593  0.039793345  0.040879017            3 
  668000    1.1596165   -6.3028185    319.71535   0.03988465  0.040869548            7 
  669000    1.1383831   -6.3050434    320.72927  0.039951329  0.040860278            3 
  670000    1.1506926   -6.3453549    320.40344  0.039851174  0.040850918            4 
  671000    1.1435519   -6.3309889    320.80409  0.039841541  0.040841195            3 
  672000    1.1395252   -6.3409459    321.17731  0.039828536   0.04083112            1 
  673000    1.1406095   -6.2984212     321.9878  0.039869713  0.040821128            3 
  674000    1.1543696     -6.32064    321.01238  0.039689957  0.040811343            3 
  675000    1.1393416   -6.3618207    321.35105  0.039672969  0.040800888            6 
  676000    1.1383117   -6.3185726    321.92191  0.039684654  0.040789966            4 
  677000    1.1694607   -6.3355416     321.7549  0.039605478  0.040778915            3 
  678000    1.1492975   -6.3441054    322.02034  0.039579688  0.040767837            2 
  679000    1.1589665   -6.3283292    322.81683  0.039619149  0.040756756            5 
  680000    1.1279777   -6.3375904    322.51008  0.039523294  0.040745835            2 
  681000    1.1440917   -6.3911919    321.50811  0.039342647  0.040734318            2 
  682000    1.1342277    -6.334443    322.62258  0.039421136  0.040723017            3 
  683000    1.1355257   -6.3181679     324.1752  0.039552855   0.04071187            2 
  684000     1.137793   -6.3056067    325.07404  0.039604538  0.040700708            1 
  685000    1.1547231    -6.348106    324.38192  0.039462521  0.040689349            3 
  686000    1.1460339   -6.3318807    325.63793  0.039557572  0.040677868            4 
  687000    1.1335762    -6.327322    325.52334  0.039486092  0.040666475            2 
  688000    1.1186361   -6.3619336    326.43362  0.039538956  0.040655336            5 
  689000    1.1583575   -6.3443338    326.82145  0.039528477  0.040644193            6 
  690000    1.1470865   -6.3334865    327.95101   0.03960761  0.040633863            3 
  691000    1.1504704   -6.3380039    327.35503  0.039478417  0.040623049            1 
  692000    1.1706423   -6.3163192    327.80265  0.039475271  0.040612381            4 
  693000     1.110963   -6.3366384    328.95037  0.039556321  0.040602003            4 
  694000     1.140398   -6.3564967    328.73313  0.039473239  0.040591055            3 
  695000      1.14923   -6.3540604     327.9384  0.039321151  0.040580016            4 
  696000     1.160635   -6.3383235    329.68407  0.039473667  0.040569058            3 
  697000     1.119276   -6.3395775     329.9541  0.039449318  0.040558473            4 
  698000    1.1437215   -6.3330405    331.15926  0.039536683  0.040548327            2 
  699000    1.1332992   -6.3681983    332.09904  0.039592161    0.0405383            3 
  700000    1.1422271   -6.3277104    330.76387  0.039376651  0.040527965            7 
  701000    1.1417756   -6.3589351    331.51088  0.039409282  0.040517256            2 
  702000    1.1458917    -6.315871    332.47985  0.039468169  0.040506362            3 
  703000    1.1259795   -6.3165933    333.02274   0.03947638  0.040495865            5 
  704000    1.1526592   -6.3468764    333.33566  0.039457346  0.040485474            3 
  705000    1.1371032    -6.330473    334.01856  0.039482099  0.040475191            2 
  706000    1.1210955   -6.3279605    333.60438  0.039377287  0.040464498            2 
  707000    1.1118774   -6.3184535    333.93909  0.039361043  0.040454237            4 
  708000    1.1152865   -6.3155825    333.85471  0.039295516  0.040443588            4 
  709000    1.1347214   -6.3381319    335.48512  0.039431726  0.040432763            7 
  710000     1.127303   -6.3271484     334.9085  0.039308509  0.040421903            2 
  711000     1.125598   -6.3236656    334.12748  0.039161683  0.040410524            3 
  712000    1.1208269   -6.3225943    335.35145  0.039249936  0.040398935            3 
  713000     1.133089   -6.3339771    336.01846  0.039272844  0.040387707            3 
  714000    1.1608969    -6.297537    336.50243  0.039274327   0.04037634            3 
  715000     1.125115   -6.3489147    337.22279  0.039303356  0.040365253            3 
  716000    1.1135357   -6.3241858    337.84399  0.039320762  0.040354413            4 
  717000    1.1570636   -6.3188619    337.80378  0.039261248  0.040343798            3 
  718000    1.1328135    -6.359746    339.22938  0.039372027   0.04033324            1 
  719000    1.1329343   -6.3227691    338.74975  0.039261677  0.040322382            2 
  720000    1.1420108   -6.3302065    339.27357  0.039267775  0.040311712            2 
  721000    1.1426009   -6.3614948    338.61014  0.039136632  0.040301094            3 
  722000    1.1176913   -6.3840216    339.73929  0.039212753   0.04028996            3 
  723000    1.1175448   -6.3240259    340.34499   0.03922833  0.040278878            2 
  724000    1.1238412   -6.3639511    339.46619  0.039072996  0.040268227            2 
  725000    1.1110904   -6.3197245    342.06074  0.039317326  0.040257647            3 
  726000    1.1118643   -6.3321014    341.67293  0.039218656  0.040247318            3 
  727000    1.1607693   -6.3407163     342.2576  0.039231729  0.040237188            1 
  728000    1.1592147   -6.3421879    343.55067  0.039325855  0.040227282            4 
  729000     1.131978    -6.372625    343.45374   0.03926083  0.040218035            7 
  730000    1.1392879   -6.3357273    344.19879  0.039292099  0.040208554            5 
  731000    1.1032389   -6.3313406    344.59172  0.039283142  0.040199224            3 
  732000    1.1274012   -6.3388156    345.09523  0.039286797  0.040189468            3 
  733000    1.1148632   -6.3556156    346.90099  0.039438493  0.040180216            3 
  734000    1.1412979   -6.3232534    346.93904  0.039389082  0.040171015            2 
  735000    1.1348331   -6.3205681    347.11396  0.039355325  0.040162267            4 
  736000    1.1404651   -6.3068143    347.31863  0.039325026  0.040153472            2 
  737000    1.1094425   -6.3712403    347.19579  0.039257778  0.040144121            3 
  738000    1.1379061   -6.3275805    348.02426  0.039298132   0.04013501            4 
  739000    1.1558136   -6.3119348    348.53276  0.039302296  0.040126433            2 
  740000    1.0975714   -6.3328669    349.49739  0.039357814  0.040118053            3 
  741000    1.1330893   -6.3280906    349.55637  0.039311332  0.040109516            2 
  742000      1.13505   -6.3834439    348.91533  0.039186358  0.040101362            7 
  743000    1.1175855   -6.2902801    351.49475  0.039422919  0.040093239            4 
  744000    1.1571247   -6.3578068    351.63127  0.039385222  0.040085211            4 
  745000    1.1363451   -6.3431146    352.48132   0.03942744  0.040077299            3 
  746000    1.1310552   -6.3337178    353.24515  0.039459914  0.040069322            3 
  747000     1.130942   -6.3285867    354.03876  0.039495623  0.040061573            7 
  748000    1.1435018   -6.3554969    353.07346  0.039335278  0.040053888            3 
  749000    1.1124448   -6.3338581    353.88645  0.039373214  0.040046155            3 
  750000    1.1321553   -6.3626955    354.43212  0.039381346  0.040038419            2 
  751000    1.1410024   -6.3333086    354.22691  0.039306138  0.040030455            3 
  752000    1.1063195   -6.3722028    355.25065  0.039367315  0.040022083            2 
  753000    1.1229741   -6.3847292    354.64636  0.039248159  0.040013899            3 
  754000    1.1310198   -6.3301792    355.55473  0.039296499  0.040005443            4 
  755000    1.1321516   -6.3469972    354.13693  0.039087961  0.039996452            2 
  756000     1.133039   -6.3183483    356.00727  0.039242423  0.039987679            3 
  757000    1.1328149   -6.3575109    356.84133  0.039282401  0.039979034            1 
  758000    1.1054599   -6.3598059    355.55952  0.039089657  0.039970127            4 
  759000    1.1315582   -6.3807491     357.3097  0.039230314  0.039961542            3 
  760000    1.1374159   -6.3352744    357.49298  0.039198792  0.039953263            2 
  761000    1.1266722   -6.3004048    358.07521  0.039211039   0.03994513            4 
  762000     1.147718   -6.3336723    358.82637  0.039241729  0.039936805            2 
  763000    1.1154179   -6.3813773    358.31316  0.039134246  0.039928698            5 
  764000     1.124951   -6.3736982    360.68924  0.039342195  0.039920499            3 
  765000    1.1189672   -6.3473019    360.63044  0.039284362  0.039912704            2 
  766000    1.1221773   -6.3618626    359.39578  0.039098758  0.039904573            2 
  767000    1.1368748   -6.3642285    359.94776  0.039107753  0.039896281            4 
  768000    1.1355211   -6.3876904     361.4078  0.039215256   0.03988823            3 
  769000    1.1072005   -6.3406247    362.21073  0.039251271   0.03988018            5 
  770000    1.1244992   -6.3697051    361.98071  0.039175402  0.039871885            2 
  771000    1.1425393   -6.3733333    362.53385  0.039184376  0.039863376            8 
  772000    1.1323742   -6.3665691    363.10657  0.039195442  0.039855153            2 
  773000    1.1372615   -6.3592481    363.57283  0.039195001  0.039847326            4 
  774000    1.1350033   -6.3348867    362.81316  0.039062571  0.039839495            3 
  775000    1.1397427   -6.3558507    363.58834   0.03909552  0.039831218            3 
  776000    1.1250488    -6.375863    363.90843  0.039079513  0.039822913            5 
  777000     1.146168   -6.3516078    363.88939  0.039027176  0.039815026            4 
  778000    1.1208124   -6.3817405    365.16727  0.039113889  0.039806952            6 
  779000    1.1325806    -6.374511     365.7884  0.039130124  0.039798609            4 
  780000    1.1332814    -6.343329    365.03273  0.038999224  0.039790499            2 
  781000    1.1431664   -6.3384677    365.76314  0.039027223  0.039782237            2 
  782000       1.0995   -6.3709761    367.21584  0.039132122  0.039774297            3 
  783000    1.1485816   -6.3517932    367.71533  0.039135305  0.039766429            5 
  784000    1.1277574   -6.3613709    368.49187  0.039167928  0.039759287            3 
  785000     1.150622   -6.3692048    369.01162  0.039173208  0.039751946            2 
  786000    1.1199875   -6.3420563    370.38055  0.039268507  0.039744785            5 
  787000    1.1287003   -6.3631638    370.46104  0.039227132  0.039737342            7 
  788000    1.1107669   -6.3549717    370.25628  0.039155698  0.039730084            3 
  789000    1.1161239   -6.3389127    371.85816   0.03927526  0.039723164            2 
  790000    1.1478188   -6.4027912    370.15007  0.039045366  0.039716409            2 
  791000     1.131731   -6.3653822    371.29508  0.039116633  0.039709085            2 
  792000    1.1442534   -6.3092015    372.13988  0.039156132  0.039701901            3 
  793000    1.1103062   -6.3403264    372.84858  0.039181229  0.039694961            3 
  794000    1.1049875   -6.3656022    372.78266  0.039124964  0.039687885            2 
  795000    1.1307615   -6.3599461    373.64776  0.039166432  0.039681118            7 
  796000    1.1155096   -6.3336656    375.74182  0.039336455  0.039674561            2 
  797000    1.1097118   -6.3660385    374.92943  0.039202157  0.039668193            2 
  798000    1.1078213   -6.3734163    374.48724  0.039106855  0.039661381            6 
  799000    1.1143227   -6.3949634    375.53345  0.039167027  0.039654638            3 
  800000     1.131202   -6.3598425      376.463  0.039214895  0.039647958            4 
  801000    1.1123007   -6.3816122    375.60776  0.039076962  0.039641386            3 
  802000    1.1022406   -6.3852678    376.69836  0.039141558  0.039634596            4 
  803000     1.113463    -6.335229    377.55191  0.039181394  0.039628005            4 
  804000    1.1153653   -6.3717483    377.99524  0.039178611  0.039621477            5 
  805000    1.1361805   -6.3527928    378.28934  0.039160387   0.03961526            2 
  806000    1.1076135   -6.3659333    378.03077  0.039085067  0.039608463            2 
  807000    1.1268485   -6.3619765    377.42115  0.038973683  0.039601476            2 
  808000    1.0993493   -6.3689697    378.87532  0.039075425  0.039594481            5 
  809000    1.1332423   -6.4297408    378.98576    0.0390385   0.03958736            4 
  810000    1.0960579   -6.3887864    379.11087  0.039003176  0.039579994            4 
  811000    1.1286116   -6.3530313    379.67604  0.039013157  0.039572902            4 
  812000    1.1402217     -6.36256    380.53356  0.039053116  0.039565501            5 
  813000    1.1218218   -6.3561801    380.38607  0.038989962  0.039558145            3 
  814000    1.1238373   -6.3430825    381.08422  0.039013536  0.039550934            4 
  815000    1.1562327   -6.3561294    381.20014   0.03897752  0.039543716            5 
  816000    1.1102828   -6.3603534    381.66905   0.03897764  0.039536654            3 
  817000    1.1631416    -6.348473    381.00195  0.038861888  0.039529628            8 
  818000    1.1233634   -6.3305007    382.94038  0.039011856  0.039522456            2 
  819000    1.1498725   -6.3475206    382.91503  0.038961643   0.03951539            2 
  820000     1.148282   -6.4033595    382.29017  0.038850627  0.039507966            4 
  821000    1.1120021   -6.3421696    384.16622  0.038993729  0.039501039            3 
  822000    1.0997046    -6.369745    384.41927  0.038971945  0.039494352            3 
  823000     1.116526   -6.3784896    385.03603  0.038987042  0.039487417            3 
  824000    1.1187844   -6.3497654    385.85039  0.039022086  0.039480421            3 
  825000    1.0956817   -6.3454752    387.13831   0.03910488  0.039473613            2 
  826000    1.1049817   -6.3455956    385.98811  0.038941496  0.039466537            4 
  827000    1.1242242   -6.3430774    386.92597  0.038988913    0.0394595            3 
  828000    1.1265871   -6.4192307    385.93411     0.038842  0.039451975            3 
  829000    1.1409593   -6.3794675    387.05044  0.038907363  0.039444338            4 
  830000    1.1081574   -6.3469376    386.67005  0.038822294  0.039436744            5 
  831000     1.136794     -6.41927    388.00625  0.038909572  0.039429029            3 
  832000     1.117778   -6.3888921    387.33128    0.0387952  0.039421559            2 
  833000    1.1446675   -6.3954434    387.45581  0.038761085  0.039413966            3 
  834000    1.1159338   -6.3351034    388.14654  0.038783627  0.039406153            3 
  835000    1.0804691   -6.3507518    389.58555  0.038880794   0.03939838            6 
  836000    1.1063864   -6.3743899    389.11106  0.038786988  0.039390375            4 
  837000    1.1428679   -6.4075978    388.58492  0.038688263  0.039382397            6 
  838000    1.1356836   -6.4115385    388.98842  0.038682221  0.039374696            2 
  839000    1.1079915    -6.392179    391.44702  0.038880316  0.039367015            1 
  840000    1.1202569   -6.3824447    389.98091  0.038688582  0.039359156            2 
  841000     1.101675   -6.3769721     391.4259  0.038785761  0.039351213            2 
  842000    1.1441994   -6.3579389    392.67368   0.03886319  0.039343275            5 
  843000    1.1174394   -6.3752955    393.06651  0.038855922  0.039335744            5 
  844000    1.1171106   -6.3519864    392.59369    0.0387632  0.039328104            4 
  845000    1.1141748   -6.3575614    391.82116   0.03864114  0.039320244            4 
  846000    1.1302734    -6.378659    392.99083   0.03871068  0.039312576            6 
  847000    1.1170336   -6.3469667    393.05239  0.038671034  0.039304437            3 
  848000     1.112445   -6.3738219    393.61474  0.038680694  0.039296397            3 
  849000    1.0968919   -6.3779875    394.19798  0.038692381  0.039288406            4 
  850000    1.1402925    -6.411798    394.63231  0.038689442  0.039280605            2 
  851000    1.0811102   -6.4256837    393.78024  0.038560541  0.039272469            3 
  852000     1.100187   -6.3716948       393.76  0.038513302  0.039264116            4 
  853000    1.1229249   -6.3611729    394.53235  0.038543606  0.039255904            2 
  854000    1.1127105   -6.3754113    396.24188  0.038665289  0.039247561            4 
  855000    1.1362915   -6.3661248    396.03953  0.038600344  0.039239415            6 
  856000    1.0914081    -6.392339    397.07356  0.038655915  0.039231326            5 
  857000    1.1126181   -6.4111048    396.22484  0.038528281  0.039223451            4 
  858000    1.1104972   -6.3678698    397.88332  0.038644457  0.039215556            2 
  859000    1.1321764   -6.4022072    398.51268  0.038660524  0.039207521            2 
  860000    1.1278946   -6.3691151    397.64014  0.038531022  0.039199445            5 
  861000    1.1064457   -6.3733447    399.32972  0.038649798  0.039191752            2 
  862000    1.0698387     -6.38853     400.2865  0.038697458   0.03918416            3 
  863000    1.1143821   -6.3974569    399.50666  0.038577314  0.039176302            5 
  864000    1.0887385   -6.3793491    399.77401   0.03855845   0.03916819            2 
  865000    1.1195684   -6.3594919    400.92969  0.038625211  0.039160036            2 
  866000    1.1157379   -6.3936644     399.5484   0.03844769  0.039151682            5 
  867000    1.1114158   -6.4117479    399.74493  0.038422234  0.039143046            3 
  868000    1.1063221   -6.3648827    401.40825  0.038537659  0.039134651            3 
  869000    1.0898335   -6.3700738    401.32321  0.038485157  0.039126398            3 
  870000    1.1021616   -6.3720734     402.9582  0.038597529  0.039118167            5 
  871000    1.1091392   -6.4107864    402.10681  0.038471757  0.039110041            4 
  872000    1.1004607   -6.3907749    404.17673  0.038625452  0.039102039            5 
  873000    1.1368674   -6.3837768    405.10441  0.038669761  0.039094032            7 
  874000    1.1138765   -6.3758648    402.94084  0.038419226  0.039086498            3 
  875000     1.094799   -6.4082376    403.86494  0.038463328  0.039078905            5 
  876000    1.1005214   -6.4025277    404.38965  0.038469335  0.039071414            3 
  877000     1.118646   -6.3792699    406.45347  0.038621576  0.039063687            3 
  878000     1.103262    -6.396568    406.18642  0.038552242  0.039056239            7 
  879000    1.0904795   -6.3952518    406.66021    0.0385533  0.039048717            4 
  880000    1.1130408   -6.3667546    406.87455  0.038529787   0.03904121            7 
  881000    1.1008198   -6.3491237    406.87116  0.038485732  0.039033765            4 
  882000    1.1006059   -6.3966954    407.76097  0.038526169  0.039026157            2 
  883000    1.0956129   -6.4126968    409.11505  0.038610329  0.039018604            1 
  884000    1.0907804   -6.3881749    409.59714  0.038612098  0.039011337            4 
  885000    1.1243123   -6.4306954    407.81893  0.038401029  0.039003944            3 
  886000    1.1052827   -6.3861551    409.93671  0.038556877  0.038996723            4 
  887000    1.1101143   -6.3669035    410.24092  0.038541988  0.038989502            2 
  888000    1.0906568   -6.3630462    410.91235  0.038561594  0.038982479            5 
  889000    1.1008741   -6.3841065    410.10583  0.038442616  0.038975354            3 
  890000     1.123184   -6.3927408    412.81272  0.038652876  0.038968415            2 
  891000    1.1032122    -6.383681    411.64533  0.038500311  0.038961406            3 
  892000    1.0989744   -6.3992204    412.68358  0.038554146  0.038954654            6 
  893000    1.1194003   -6.3783902    412.31096    0.0384762  0.038947892            3 
  894000    1.1139481   -6.3696283    413.81434  0.038573298  0.038940805            3 
  895000    1.1317789   -6.3866448    413.40104  0.038491717  0.038933633            3 
  896000    1.1115244   -6.3690335     413.6308  0.038470127  0.038926208            4 
  897000     1.095631   -6.3802218    413.60239    0.0384246  0.038918793            3 
  898000    1.1027651   -6.3674535     413.7845  0.038398711  0.038911312            1 
  899000    1.1038924   -6.4144029    414.80914  0.038450977   0.03890363            4 
  900000    1.0770676   -6.3760936    413.59798  0.038296109  0.038895733            4 
  901000     1.110237   -6.4134654    415.90684  0.038467151  0.038888112            4 
  902000    1.1197903   -6.3926714    415.23089  0.038362055  0.038880516            2 
  903000    1.0952548   -6.4042579    415.67208  0.038360288  0.038872892            3 
  904000    1.1155881    -6.391292    416.49964   0.03839414  0.038865244            3 
  905000    1.1287401   -6.4025541    415.97474  0.038303383  0.038857527            2 
  906000    1.1028789   -6.4197128    416.17761  0.038279765  0.038849892            3 
  907000    1.1095447   -6.3709219    417.21984  0.038333319  0.038841924            3 
  908000    1.0774818   -6.4174849    416.25457  0.038202512  0.038833783            5 
  909000    1.0995821   -6.4247072    416.69071  0.038200468  0.038825352            4 
  910000    1.1113106   -6.4201604    416.75956  0.038164795  0.038817094            2 
  911000    1.0979305   -6.3984629    417.39259  0.038180807  0.038808883            4 
  912000    1.1210514   -6.3732575    417.96733  0.038191459  0.038800697            4 
  913000    1.1097501   -6.3674771    419.02252   0.03824594  0.038792384            3 
  914000    1.1263705    -6.395459    419.02917  0.038204702  0.038783974            4 
  915000     1.120021   -6.4143223    419.76616  0.038230069  0.038775626            3 
  916000    1.1037801   -6.3641328    420.20033  0.038227832  0.038767524            7 
  917000    1.1009898   -6.4023846    420.84412  0.038244649  0.038759518            4 
  918000     1.099136   -6.3980219    419.97013   0.03812365  0.038751301            2 
  919000    1.1061795   -6.3849459    420.40277  0.038121397  0.038743055            5 
  920000    1.1172853   -6.3989149    422.19051  0.038241894  0.038735007            4 
  921000    1.1226562    -6.420448    421.04848  0.038097039  0.038726727            3 
  922000    1.0738261   -6.3910099    423.66554  0.038292257   0.03871842            2 
  923000    1.0938141   -6.3889108    422.51592  0.038146978  0.038710253            2 
  924000    1.0921513   -6.4007497    423.21374  0.038168627  0.038702416            2 
  925000    1.1058602   -6.3832552    422.61067  0.038073034  0.038694516            5 
  926000    1.1031715   -6.3754762    424.79148  0.038228175  0.038686515            3 
  927000    1.0918222    -6.387315    425.27852  0.038230719  0.038678692            3 
  928000    1.0563652   -6.4376082     424.1114  0.038084717  0.038670626            5 
  929000    1.0996958   -6.4134689     425.4136  0.038160531  0.038662489            6 
  930000    1.0923342   -6.3876189    426.21037  0.038190893  0.038654536            5 
  931000    1.1005126   -6.4079751    424.19056   0.03796908  0.038646741            4 
  932000    1.0997588   -6.3726007    426.92131  0.038172506  0.038638726            3 
  933000    1.1014254   -6.4037114    426.29199  0.038075384  0.038630685            3 
  934000    1.1003034   -6.4225935    425.43401  0.037958066   0.03862257            5 
  935000    1.1029157   -6.3965879    426.58669  0.038020204  0.038614547            2 
  936000    1.1065012   -6.3767451    428.17023  0.038120569  0.038606273            3 
  937000    1.0984371   -6.3810058    427.23873  0.037997041   0.03859792            2 
  938000    1.1019716   -6.4161944    428.04146  0.038027849  0.038589559            2 
  939000    1.0967606   -6.3961574    427.07376   0.03790147  0.038581356            2 
  940000    1.1203709   -6.3986628    427.98599  0.037942021  0.038573091            2 
  941000    1.0972385    -6.374907    429.42035  0.038028723  0.038564829            3 
  942000    1.0876643   -6.4190399    428.29886  0.037889142  0.038556248            3 
  943000    1.1164974   -6.4027995    428.98258  0.037909383  0.038547898            6 
  944000     1.108748   -6.4097605    429.51188   0.03791595  0.038539467            6 
  945000    1.1041091    -6.409945    428.89061  0.037821041   0.03853109            2 
  946000    1.0884094   -6.3869882    430.45098  0.037918514  0.038522373            3 
  947000     1.099429   -6.3815197    430.02569  0.037841049  0.038513716            5 
  948000    1.1017392   -6.3860203    431.21412  0.037905601  0.038505003            2 
  949000     1.109933   -6.3890146    430.95908  0.037843263  0.038496449            3 
  950000    1.1136268   -6.4088246    432.38491  0.037928501  0.038487915            3 
  951000    1.0890895   -6.4357911    432.54772  0.037902884  0.038479714            2 
  952000    1.0941226   -6.3820442    434.05531  0.037995037  0.038471643            3 
  953000    1.0932415   -6.4050222    434.02851  0.037952825   0.03846401            4 
  954000    1.1023197   -6.3919322    434.04332  0.037914336  0.038456166            2 
  955000    1.0889248   -6.4504629    433.07338  0.037789998  0.038448101            4 
  956000    1.1031794   -6.3998637    435.00293  0.037918665  0.038439971            2 
  957000     1.082859   -6.4098667    436.01605  0.037967263  0.038431892            4 
  958000    1.0917759   -6.3931471    435.41883  0.037875681  0.038424162            4 
  959000    1.0778484    -6.392042    436.24905  0.037908329  0.038416543            2 
  960000    1.0993428    -6.393538    437.07053   0.03794015  0.038408959            3 
  961000    1.0907581   -6.4003105    436.64224  0.037863531  0.038401131            5 
  962000    1.0827806    -6.385943    437.90589  0.037933636  0.038393331            4 
  963000    1.1040581   -6.3921583    438.17555  0.037917579  0.038385432            4 
  964000    1.0845499   -6.3942919    439.97692  0.038033966  0.038377622            7 
  965000    1.0862938   -6.4231604     438.5079  0.037867694  0.038370057            5 
  966000    1.1054949   -6.4112372    440.13221  0.037968617  0.038362729            3 
  967000    1.1098609   -6.3965402     440.1977  0.037934997  0.038355272            5 
  968000    1.1129285   -6.4229071    439.25582  0.037814723  0.038347638            7 
  969000    1.1047334   -6.4403373    440.36434   0.03787103   0.03833999            4 
  970000     1.089127    -6.408787    440.83091  0.037872071  0.038332556            1 
  971000    1.1010951   -6.4432704    442.01043  0.037934297  0.038325186            3 
  972000    1.0961989   -6.3961186    440.64096   0.03777786  0.038317764            2 
  973000    1.0897488   -6.4305754     442.2091  0.037873339  0.038310278            3 
  974000    1.1005859   -6.4066903    442.69482  0.037876011  0.038302957            2 
  975000    1.1149548   -6.4355164    443.14786  0.037875885  0.038295623            5 
  976000    1.0816228   -6.4425433    443.46359  0.037864036  0.038288051            5 
  977000    1.0977912   -6.4297707    443.73996  0.037848854  0.038280354            4 
  978000    1.0965895   -6.4001825    443.34423  0.037776434  0.038272915            2 
  979000      1.09298   -6.4151031    442.97612  0.037706514  0.038265237            5 
  980000    1.1021652   -6.4316818    444.40691  0.037789703  0.038257382            3 
  981000    1.1232726   -6.3982686    444.65955  0.037772643  0.038249679            3 
  982000    1.0888958   -6.4174768    445.32586  0.037790721   0.03824214            4 
  983000    1.0775025   -6.4349613    445.35445  0.037754701  0.038234321            5 
  984000    1.0813733   -6.4380712    445.42228  0.037722076  0.038226659            4 
  985000    1.0989785   -6.4409519    446.39118  0.037765751  0.038219078            7 
  986000    1.0901941   -6.4150837    446.89174  0.037769754  0.038211162            5 
  987000    1.0963729   -6.4165722    445.67757  0.037628975  0.038203313            5 
  988000    1.0960444   -6.4063943    446.82547  0.037687708  0.038195459            7 
  989000    1.0947177   -6.3967958    447.21308  0.037682262  0.038187498            2 
  990000    1.0929784   -6.3725655     447.7487  0.037689284  0.038179725            3 
  991000    1.1094603   -6.4082367    448.22742  0.037691509  0.038171727            2 
  992000    1.0902934   -6.4370321    448.74507  0.037696999  0.038163771            2 
  993000    1.1335817   -6.3817876    448.63251   0.03764959  0.038155597            3 
  994000     1.096041   -6.3944734     448.3241  0.037585857  0.038147483            3 
  995000    1.0960132   -6.4322665    448.98943  0.037603805  0.038139285            2 
  996000     1.093049   -6.3793044    448.72313  0.037543769  0.038130982            3 
  997000    1.0714708   -6.3969334    449.56968  0.037576871  0.038122517            7 
  998000     1.109079   -6.3831996    450.69402  0.037633101  0.038114595            2 
  999000    1.0891535   -6.3976018    449.46188  0.037492649  0.038106558            3 
 1000000    1.0839514   -6.4043295    450.22896   0.03751908  0.038098243            6 
 1001000    1.0934105   -6.4851106    449.26639  0.037401464  0.038089665           12 
 1002000    1.0916435   -6.4345582    451.26195  0.037530103  0.038081024            3 
 1003000    1.1020677   -6.4297378    451.24709  0.037491449  0.038072626            3 
 1004000    1.1097554   -6.4501755    451.62552  0.037485518  0.038064131            3 
 1005000    1.0852906   -6.4174973    451.53095  0.037440377  0.038055612            4 
 1006000    1.0793639   -6.4496086    451.65173  0.037413165    0.0380472            3 
 1007000    1.0692239   -6.4187759    452.20813  0.037422057   0.03803871            3 
 1008000    1.0831143   -6.3966266    452.80175  0.037434007   0.03803039            2 
 1009000    1.0912532   -6.4312888    452.62361  0.037382195  0.038022147            4 
 1010000    1.1074428   -6.4192036    454.86393  0.037530028  0.038013815            3 
 1011000    1.0841794   -6.4526418    454.08794  0.037428943  0.038005656            6 
 1012000     1.101192    -6.409509    454.50387  0.037426208  0.037997317            5 
 1013000    1.0699381   -6.4391291    453.44644  0.037302273  0.037988862            2 
 1014000    1.0937608   -6.4056652    455.64656  0.037446299  0.037980233            6 
 1015000    1.0941695   -6.4396076    456.89121  0.037511593  0.037971891            2 
 1016000     1.075304   -6.4189018    455.94468  0.037397037  0.037963932            5 
 1017000    1.1120031   -6.4342659    455.92235  0.037358436  0.037955974            3 
 1018000    1.0779667   -6.4292136    458.90259    0.0375657  0.037948107            7 
 1019000    1.0720181   -6.4193969    459.88298  0.037609011  0.037940518            2 
 1020000    1.0777831   -6.4072649    459.68785  0.037556197  0.037933424            3 
 1021000    1.1053229   -6.4512025    458.07321  0.037387627  0.037925503            5 
 1022000    1.0934645   -6.4312757    460.47202  0.037546642  0.037917702            4 
 1023000    1.0754212   -6.4178502    460.20217  0.037487958  0.037910091            3 
 1024000    1.0859644   -6.3763752    458.84227  0.037340679  0.037902359            5 
 1025000    1.0801796    -6.426328    459.87304  0.037388052  0.037894633            4 
 1026000    1.0859074   -6.4153549    461.46228  0.037480692  0.037886821            2 
 1027000    1.0782009   -6.4206996    458.79424  0.037227705  0.037878826            2 
 1028000    1.0889557   -6.4704494    461.30459  0.037394989  0.037870757            4 
 1029000    1.0654545   -6.4631503    461.08573  0.037340924  0.037862577            3 
 1030000    1.0781034   -6.4223781    462.42544  0.037413062  0.037855008            4 
 1031000    1.0915268   -6.4467842    461.27799  0.037284027  0.037847266            3 
 1032000    1.0877135    -6.412509    462.04098  0.037309511  0.037839253            3 
 1033000    1.0955072   -6.4276389    463.14687  0.037362606  0.037831364            2 
 1034000    1.0788635    -6.426604    462.73777  0.037293502  0.037823372            4 
 1035000    1.1039859   -6.4298835    463.11833   0.03728811  0.037815627            4 
 1036000    1.0827026   -6.4346826    464.68321  0.037377993  0.037808013            2 
 1037000    1.0955444   -6.4102747    465.18413  0.037382203  0.037800212            3 
 1038000    1.0946932   -6.4514908    464.58938  0.037298441  0.037792548            3 
 1039000    1.0777346   -6.4646853    464.64251  0.037266804  0.037785064            4 
 1040000    1.1013035   -6.4310588    466.46942  0.037377357  0.037777576            3 
 1041000    1.0845606   -6.4218112    466.86926   0.03737346  0.037770174            4 
 1042000    1.0763588   -6.4356487    467.63714  0.037399004  0.037762725            5 
 1043000     1.072577   -6.4440606    466.42229  0.037266082  0.037755102            3 
 1044000    1.1023198   -6.4191524    466.90358  0.037268804  0.037747052            3 
 1045000    1.0736068   -6.4628908    465.91753  0.037154508  0.037739026            4 
 1046000    1.1018706   -6.4169989    467.85851  0.037273623  0.037730848            5 
 1047000    1.0981374   -6.4327802    467.13424  0.037180376  0.037722548            3 
 1048000     1.077207   -6.4030689    467.71905    0.0371914  0.037714267            2 
 1049000     1.073591    -6.460584    466.19817  0.037035126  0.037706017            3 
 1050000    1.0768857   -6.4481318    467.02744   0.03706567  0.037697579            4 
 1051000     1.083085   -6.4524705    467.06119  0.037033079  0.037688928            2 
 1052000    1.0849353   -6.4289909    468.58476  0.037118565  0.037680155            5 
 1053000    1.0684901    -6.408735    467.93801  0.037032131   0.03767159            6 
 1054000    1.0795792   -6.4042053    468.67352  0.037055149  0.037663095            3 
 1055000    1.0865326   -6.4270148    470.17137  0.037138339   0.03765492            6 
 1056000    1.0920498   -6.4133352    470.46617  0.037126434  0.037646694            6 
 1057000    1.1051301   -6.4101076    470.57539   0.03709992  0.037638461            5 
 1058000     1.095102   -6.4429875    470.23623   0.03703814  0.037630103            3 
 1059000    1.0993097   -6.4610157    471.31091  0.037087733  0.037621706            2 
 1060000    1.0804222    -6.464111    470.80925  0.037013306  0.037613376            2 
 1061000    1.0704747   -6.4674804    472.65347   0.03712327  0.037605141            8 
 1062000    1.0793187   -6.4618909    471.70156  0.037013619  0.037596932            5 
 1063000    1.0786438    -6.460193    472.98745  0.037079606    0.0375887            3 
 1064000    1.0638081   -6.4353074     472.9407  0.037041095  0.037580452            5 
 1065000    1.0846964   -6.4317625    474.73373  0.037146614  0.037572064            2 
 1066000     1.099683   -6.4482923    472.02385  0.036899926  0.037563471            4 
 1067000    1.0817312   -6.4523063      473.198  0.036957045  0.037554842            6 
 1068000    1.0703117   -6.4375716    475.71876  0.037119129  0.037546423            3 
 1069000    1.0520497   -6.4611793    474.79705  0.037012554    0.0375381            6 
 1070000    1.0723752   -6.4304471    474.95365   0.03699016  0.037529592            3 
 1071000    1.0561254   -6.4683726    475.07058   0.03696472   0.03752093            2 
 1072000    1.0956269   -6.4099628    475.16283  0.036937409  0.037512614            1 
 1073000    1.0979069   -6.4434979    476.33907  0.036994336  0.037504106            3 
 1074000    1.0517059   -6.4446559    476.48353  0.036971099  0.037495639            4 
 1075000    1.0811381   -6.4261513    478.25655  0.037074151  0.037487267            2 
 1076000    1.0614253   -6.4429985    477.35049  0.036969524   0.03747901            5 
 1077000    1.0960366   -6.4764583    477.39683  0.036938783  0.037470487            1 
 1078000    1.0822959   -6.4637555    477.56738  0.036917701  0.037462199            8 
 1079000    1.0801843   -6.4158715    479.44472  0.037028477  0.037453964            3 
 1080000    1.0857021   -6.4524227    479.11734  0.036968931   0.03744591            4 
 1081000     1.076927   -6.4339104    478.70511  0.036902953  0.037437862            2 
 1082000    1.0846073   -6.4520411    479.20922  0.036907673  0.037429812            4 
 1083000    1.0591469   -6.4189198    480.58007  0.036979076  0.037421591            5 
 1084000    1.0771008   -6.4919045    478.24755  0.036765648  0.037413709            2 
 1085000    1.0840939   -6.4929136    480.53574  0.036907507  0.037405526            6 
 1086000    1.0875324     -6.47919    481.14757  0.036920471  0.037397697            4 
 1087000    1.0527703   -6.4393931    483.28069  0.037050037  0.037389524            4 
 1088000    1.0937873     -6.46236     481.4903  0.036878853  0.037381876            4 
 1089000      1.06678   -6.4219981     484.6448  0.037086379  0.037374105            2 
 1090000    1.0825374   -6.4575743    483.24613  0.036945423  0.037366299            4 
 1091000    1.0785034   -6.4747853    483.74474  0.036949644  0.037358758            7 
 1092000    1.0958835   -6.4510901    485.27706  0.037032743  0.037351275            2 
 1093000    1.1082707   -6.4566067     483.6791  0.036877028  0.037343565            5 
 1094000    1.0790157   -6.4697168    485.37799  0.036972729  0.037335954            2 
 1095000    1.0602565   -6.4560228    485.94029  0.036981757  0.037328431            3 
 1096000    1.0972226   -6.4083317    487.22088  0.037045383  0.037321056            6 
 1097000    1.0768017   -6.4153402    487.36167  0.037022309   0.03731349            7 
 1098000    1.0886555   -6.4473624    486.37668  0.036913834  0.037305963            4 
 1099000    1.0703879   -6.4580666    487.12117  0.036936698  0.037298406            2 
 1100000    1.0874801   -6.4377517    487.36203  0.036921366  0.037290712            3 
 1101000    1.0901954    -6.411708    487.93471  0.036931177   0.03728315            4 
 1102000    1.0875858   -6.4493177     487.1557  0.036838755  0.037275515            6 
 1103000    1.0721232   -6.4275948    487.10908  0.036801835  0.037267898            5 
 1104000    1.0513477   -6.4580862    488.12825  0.036845429   0.03726046            3 
 1105000    1.0733864   -6.4247478    489.30271  0.036900657  0.037252853            5 
 1106000    1.0698218   -6.4489544     489.2334  0.036862071  0.037245215            8 
 1107000    1.0752412   -6.4479542    489.98094  0.036885045  0.037237739            3 
 1108000    1.0706086   -6.4590606    489.16717  0.036790551  0.037230342            4 
 1109000    1.0811342   -6.4423696    490.18753  0.036834049  0.037222902            4 
 1110000    1.0848866    -6.477983    490.91752   0.03685567  0.037215388           10 
 1111000    1.0903011   -6.4970888     489.7146  0.036732268  0.037207841            6 
 1112000     1.060666   -6.4996377    490.76984  0.036778316  0.037199922            4 
 1113000    1.0594028   -6.4452108    490.16315  0.036699846  0.037192175            2 
 1114000     1.059008   -6.4531448    492.48737  0.036840767  0.037184432            3 
 1115000    1.0851452   -6.4671992    492.14048  0.036781799  0.037176637            5 
 1116000    1.1084991   -6.4414732     492.4304   0.03677049  0.037169058            3 
 1117000     1.079004   -6.4486053    490.93297  0.036625856  0.037161398            3 
 1118000    1.0904986   -6.4423998    494.33278   0.03684651  0.037153705            3 
 1119000    1.0526528   -6.4470089    493.24855  0.036732838  0.037146119            3 
 1120000    1.0815971   -6.4424759     493.9766  0.036754211   0.03713837            5 
 1121000    1.0808241   -6.4573369    494.56189  0.036764934  0.037130744            4 
 1122000    1.0254102   -6.4576699    495.16442  0.036776917  0.037123358            2 
 1123000    1.0581609   -6.4434788    494.11305  0.036666151  0.037115864            5 
 1124000    1.0642484   -6.4642005    496.44762  0.036806615   0.03710848            3 
 1125000    1.0716701   -6.4398478    496.22395   0.03675733  0.037101031            3 
 1126000    1.0932041   -6.4368743    495.02373  0.036635859  0.037093502            5 
 1127000    1.0810391   -6.4114952    496.84759  0.036738213  0.037085958            4 
 1128000    1.0657204   -6.4288276    497.60769  0.036761797  0.037078324            3 
 1129000    1.0621925   -6.4048108    496.86442  0.036674374  0.037070906            2 
 1130000    1.0814963   -6.4685661    496.96109  0.036649048  0.037063283            7 
 1131000    1.0730233   -6.4560486    498.89774  0.036759338  0.037055723            2 
 1132000    1.0861631   -6.4464862    497.81937   0.03664748  0.037048114            4 
 1133000    1.0637687   -6.4760663    498.34471  0.036653774  0.037040578            4 
 1134000    1.0605347   -6.4731904    498.41254  0.036626436  0.037032928            9 
 1135000    1.0574834   -6.4686388    499.26204  0.036656538  0.037025348            6 
 1136000    1.0589065   -6.4449813    499.88836  0.036670214  0.037017842            2 
 1137000    1.0581907   -6.4154573     500.2548  0.036664819   0.03701026            2 
 1138000     1.051019   -6.4432724    500.03578  0.036616563  0.037002851            2 
 1139000    1.0583798   -6.4566449     501.1356  0.036664881  0.036995415            4 
 1140000    1.0747958   -6.4481196    501.92742  0.036690601  0.036987949            4 
 1141000    1.0699197   -6.4652164     501.5349  0.036629776  0.036980433            2 
 1142000    1.0482698   -6.4967881    502.98285   0.03670336  0.036972919            2 
 1143000    1.0828367   -6.4714558    502.35161  0.036625227  0.036965165            7 
 1144000    1.0899884   -6.4382348      502.161  0.036579327  0.036957594            2 
 1145000    1.0544165   -6.4665188    502.50217  0.036572211  0.036950088            4 
 1146000    1.0462628   -6.4753631    500.52831  0.036396765  0.036942243            7 
 1147000    1.0679904   -6.4318214    502.81674  0.036531295  0.036934383            4 
 1148000     1.058306     -6.49328    503.53453  0.036551577  0.036926666            8 
 1149000    1.0226899   -6.4839793    504.11344  0.036561752  0.036918941            4 
 1150000     1.065925   -6.4206763    505.50582  0.036630856  0.036911572            5 
 1151000    1.0554005   -6.4594236    506.90336  0.036700214  0.036904146            5 
 1152000    1.0681232   -6.4776906     505.1681  0.036542831  0.036896509            3 
 1153000    1.0627767   -6.4576257    505.48138   0.03653378  0.036888734            4 
 1154000     1.069719   -6.4847365    505.12718  0.036476544  0.036881114            3 
 1155000    1.0655093   -6.4467589    507.70031  0.036630614  0.036873609            4 
 1156000    1.0858596   -6.5181571    505.41844  0.036434432  0.036866167            4 
 1157000    1.0773676   -6.4859908    507.01009  0.036517581  0.036858743            6 
 1158000    1.0437469   -6.4779876    507.93562   0.03655265  0.036851245            5 
 1159000    1.0772818   -6.4644102    507.06264  0.036458343  0.036843727            4 
 1160000     1.051317   -6.4914092    506.84885  0.036411555  0.036836058            3 
 1161000    1.0571783   -6.4400356    508.45792  0.036495687  0.036828434            2 
 1162000    1.0631137   -6.4458924    508.84872  0.036492307  0.036821035            3 
 1163000    1.0377749   -6.4763359    507.63218  0.036373759  0.036813549            6 
 1164000    1.0601449   -6.4528388    509.69818  0.036490419    0.0368061            9 
 1165000    1.0812376   -6.4340808    509.90575  0.036473945  0.036798677            4 
 1166000    1.0593122   -6.4847026    508.83459  0.036366108  0.036791303            4 
 1167000    1.0755442   -6.5277384    510.09991    0.0364253  0.036783732            3 
 1168000    1.0620378   -6.4528413     509.8291  0.036374793  0.036776147            2 
 1169000    1.0603933   -6.5153895    510.00888  0.036356492  0.036768657            6 
 1170000    1.0739906    -6.463579    510.48816  0.036359556  0.036761329            2 
 1171000    1.0414348   -6.4730677    511.23274  0.036381493  0.036753813            4 
 1172000    1.0663549   -6.4752875    513.48433  0.036510547  0.036746226            3 
 1173000    1.0553999   -6.4568648    511.59425  0.036345145  0.036738636            3 
 1174000    1.0696981   -6.4569772    514.62335  0.036529199  0.036731139            5 
 1175000    1.0499288   -6.4310697      513.315  0.036405319  0.036723692            3 
 1176000    1.0596479   -6.4877017    512.23818  0.036298057  0.036716237            7 
 1177000    1.0713443   -6.4874406    514.15177  0.036402703  0.036708553            2 
 1178000    1.0766081    -6.505135    512.38471  0.036246796  0.036700855            4 
 1179000    1.0656045   -6.4592535    513.19906  0.036273612  0.036693027            8 
 1180000    1.0527412   -6.4890548    513.96299  0.036296821  0.036685136            3 
 1181000    1.0378235   -6.5074863    513.95792   0.03626573   0.03667716            3 
 1182000    1.0609395   -6.4779055    513.95686  0.036234973  0.036669029            4 
 1183000    1.0513081   -6.4446298    515.86052  0.036338441  0.036661103            2 
 1184000    1.0701244   -6.4608331    515.96355  0.036315002  0.036653253            4 
 1185000     1.070206   -6.4936879    514.57814   0.03618693  0.036645488            2 
 1186000    1.0840214   -6.4678184     515.1063  0.036193529  0.036637409            4 
 1187000    1.0774635   -6.4433643    515.75147  0.036208331   0.03662941            2 
 1188000    1.0806834   -6.5046358    514.17011  0.036066927  0.036621286            4 
 1189000    1.0747324   -6.4755248    515.80601  0.036151248  0.036613103            2 
 1190000    1.0598754   -6.4656501    516.17133  0.036146452  0.036605074            5 
 1191000    1.0771948   -6.4979398    517.21994  0.036189472  0.036596917            1 
 1192000    1.0452831   -6.4707997    515.55554  0.036042753    0.0365887            8 
 1193000    1.0685629   -6.4670674    516.72942  0.036094539  0.036580415            5 
 1194000    1.0557076   -6.4931995    516.34512  0.036037488   0.03657209            7 
 1195000    1.0347654   -6.4876148    517.37925  0.036079446  0.036563794            2 
 1196000    1.0344234   -6.4573578    516.55205  0.035991642  0.036555612            4 
 1197000    1.0569853   -6.4740283    517.63999  0.036037314  0.036547375            5 
 1198000    1.0473046   -6.4894156    517.17893  0.035975162   0.03653902            5 
 1199000    1.0605948   -6.4771973    519.46673  0.036104165  0.036530709            7 
 1200000    1.0450737   -6.4492985    518.07931   0.03597773  0.036522384            6 
 1201000    1.0613085    -6.486471    517.43976  0.035903397  0.036514053            4 
 1202000    1.0574211   -6.5045016    518.54413  0.035950092  0.036505417            2 
 1203000    1.0778638   -6.4354238    518.98869  0.035951003  0.036496838            4 
 1204000     1.075586   -6.4772223    520.20985  0.036005665  0.036488273            3 
 1205000    1.0539393   -6.4473302    520.54455  0.035998932  0.036479812            4 
 1206000    1.0457819   -6.4696188    521.09425  0.036007065  0.036471178            2 
 1207000    1.0581364   -6.5099473     519.3596   0.03585747  0.036462688            4 
 1208000    1.0525757   -6.4987058    520.90775  0.035934586   0.03645412            5 
 1209000    1.0684522   -6.5022825    521.21543   0.03592607  0.036445639            3 
 1210000    1.0552239   -6.4832439    522.54721    0.0359881  0.036437158            5 
 1211000    1.0696595   -6.4910675    522.11017  0.035928308  0.036428619            6 
 1212000    1.0509562   -6.4962199    520.88553  0.035814462  0.036420082            4 
 1213000    1.0478054   -6.4814053    521.91146  0.035855418  0.036411561            7 
 1214000    1.0623322   -6.4701492    521.33402  0.035786246  0.036403068            3 
 1215000    1.0598905   -6.4695954    523.27587  0.035889977  0.036394569            3 
 1216000    1.0530284   -6.4728589     522.4729  0.035805434  0.036386047            5 
 1217000    1.0727529   -6.4475953    524.12071  0.035888846  0.036377302            7 
 1218000     1.047874   -6.5045359    523.85048  0.035840892   0.03636861            2 
 1219000    1.0590852   -6.4469099    523.87078  0.035812878  0.036359976            2 
 1220000    1.0581669   -6.5115825    523.77686  0.035777108  0.036351097            6 
 1221000     1.035374   -6.4697905    522.51963     0.035662  0.036342286            3 
 1222000    1.0652009   -6.4664196    524.44507  0.035764121  0.036333693            8 
 1223000    1.0533458   -6.4603566    524.93572   0.03576831  0.036325231            2 
 1224000    1.0590972   -6.4791011    525.63186  0.035786483  0.036316516            4 
 1225000    1.0589152   -6.4833693    525.86315  0.035773004  0.036307758            4 
 1226000    1.0587893   -6.4746199    525.87085  0.035744348  0.036298998            3 
 1227000    1.0368701   -6.4884386    525.56899  0.035694715  0.036290135            2 
 1228000    1.0569177   -6.5151987    524.58736  0.035599033  0.036281178            6 
 1229000    1.0458062   -6.5387626    525.05341  0.035601669  0.036272137            3 
 1230000     1.056761   -6.4378486    528.90995  0.035834008  0.036263229            2 
 1231000    1.0363466   -6.4651285    528.10415  0.035750348  0.036254672            5 
 1232000    1.0482258   -6.4467634    528.83798  0.035770967  0.036246093            3 
 1233000    1.0562689   -6.4883941    528.71686   0.03573377  0.036237428            3 
 1234000    1.0519727   -6.5072788    529.67297   0.03576938  0.036228955            3 
 1235000     1.073159   -6.4861063    528.70712  0.035675244  0.036220201            5 
 1236000    1.0502867   -6.4739892    530.31442  0.035754748  0.036211455            3 
 1237000     1.035107   -6.4677156    529.74929  0.035687772   0.03620279            4 
 1238000    1.0355728   -6.5005192    530.32477  0.035697682  0.036193972            4 
 1239000    1.0724903   -6.4755397    527.39262  0.035471659  0.036185112            3 
 1240000    1.0394997   -6.4825841    529.33834  0.035573813  0.036176198            5 
 1241000    1.0492116   -6.5008784    530.54817  0.035626388  0.036167327            6 
 1242000    1.0334079   -6.4701519    530.09967  0.035567611   0.03615845            9 
 1243000    1.0743069   -6.4911171    532.12981  0.035675101  0.036149629            7 
 1244000    1.0716294   -6.5040303    531.66873  0.035615537  0.036140691            5 
 1245000     1.039657   -6.5049416    533.14766  0.035685921  0.036131677            5 
 1246000    1.0496045   -6.4860867    532.84485  0.035637029  0.036122738            3 
 1247000    1.0679414   -6.5140424    531.39454  0.035511531  0.036113899            4 
 1248000    1.0534101   -6.4674762    533.22736  0.035605459  0.036104902            6 
 1249000    1.0647468   -6.4736914    532.17635  0.035506829  0.036096173            2 
 1250000    1.0489123   -6.4960576     532.0229  0.035468193  0.036087268            5 
 1251000    1.0437787   -6.4811697    533.79314  0.035557763  0.036078193            5 
 1252000    1.0575191   -6.4974355    530.77286  0.035328332  0.036069322            5 
 1253000    1.0341986    -6.496562    532.78388  0.035433884   0.03606018            5 
 1254000    1.0383808   -6.4806907    533.56465  0.035457513  0.036051151            4 
 1255000    1.0529244   -6.4952284    534.13599  0.035467197  0.036042135            3 
 1256000    1.0544387   -6.4699736    535.23801  0.035512076   0.03603316            6 
 1257000     1.064574   -6.5049831     533.6107  0.035375942  0.036024117            7 
 1258000    1.0505019   -6.4910842     534.0088  0.035374192  0.036014945            4 
 1259000    1.0447983   -6.5004799     534.5952  0.035384909  0.036005739            6 
 1260000    1.0494617   -6.5146211     534.8565  0.035374107  0.035996463            4 
 1261000    1.0800919   -6.5212694    534.36266  0.035313419  0.035987281            3 
 1262000    1.0383514   -6.5259251    535.83536  0.035382684  0.035977897            3 
 1263000    1.0431002   -6.5029964    536.10284  0.035372317  0.035968834            5 
 1264000    1.0318311   -6.5372248    535.09217  0.035277701  0.035959811            3 
 1265000    1.0469252   -6.4876475    535.88615  0.035302118  0.035950922            5 
 1266000    1.0365966   -6.5037571    537.92693  0.035408566  0.035941864            6 
 1267000     1.036809   -6.4828977    538.93785  0.035447109  0.035932924            3 
 1268000    1.0518371   -6.4682771    537.31499  0.035312499  0.035923951            6 
 1269000    1.0553283    -6.520398    538.91273  0.035389594  0.035914942            3 
 1270000    1.0370921   -6.4981658    539.07999  0.035372703  0.035905996            4 
 1271000     1.035248   -6.4943737    538.14413  0.035283512    0.0358972            8 
 1272000    1.0335759   -6.4956746    537.82976  0.035235178  0.035888087            5 
 1273000    1.0528474   -6.5050418    539.49198  0.035316312  0.035879164            5 
 1274000    1.0478458   -6.5293807    537.93781  0.035186932  0.035870151            3 
 1275000    1.0596107    -6.524818    538.48427  0.035195051  0.035861285            7 
 1276000    1.0500988   -6.5279751    541.16562  0.035342582  0.035852527            5 
 1277000    1.0304676   -6.4689512     540.8678  0.035295471  0.035843877            4 
 1278000    1.0459152    -6.516203    540.52145  0.035245269  0.035835182            4 
 1279000    1.0347978   -6.5046002    541.09249  0.035254919  0.035826542            2 
 1280000    1.0663849   -6.4791011    542.38315  0.035311403  0.035818034            3 
 1281000    1.0616733   -6.4702042    543.47339  0.035354761  0.035809505            5 
 1282000    1.0492277   -6.4932071    543.85053  0.035351699  0.035801093            7 
 1283000    1.0617555   -6.5390503    543.66443  0.035312057  0.035792608            3 
 1284000    1.0659758   -6.4831244    545.00879  0.035371807  0.035784068            4 
 1285000     1.020774   -6.5223582    545.54842  0.035379275  0.035775332            4 
 1286000    1.0401751   -6.4940324    543.46383  0.035216682  0.035766737            4 
 1287000    1.0577256   -6.4902813    546.19338  0.035366057  0.035758243            1 
 1288000    1.0265835   -6.4655204    545.45396  0.035290758  0.035750031            2 
 1289000    1.0437772   -6.4845907    546.92723  0.035358626  0.035741765            4 
 1290000    1.0549047    -6.521688    544.13619  0.035150917   0.03573324            7 
 1291000    1.0347261   -6.4979724    545.39237  0.035204775  0.035724756            2 
 1292000    1.0374813   -6.5424202    545.56267  0.035188511  0.035716016            4 
 1293000    1.0345651   -6.5238471    546.96118  0.035251429  0.035707458            6 
 1294000    1.0380485   -6.4974411    546.83059  0.035215777  0.035699118            3 
 1295000    1.0612234   -6.4746592    547.92234  0.035258838  0.035690562            3 
 1296000    1.0576907   -6.5367704    546.89834  0.035165788  0.035682279            7 
 1297000    1.0752977   -6.5205754    545.47417  0.035047171  0.035673857            4 
 1298000    1.0633855   -6.5211854    547.29023  0.035136763  0.035665243            3 
 1299000    1.0546081   -6.5067293    548.71668  0.035201224  0.035656901            5 
 1300000    1.0481174   -6.5457665      547.792  0.035114872  0.035648288            4 
 1301000    1.0353942   -6.5299886    548.47322  0.035131515  0.035639733            5 
 1302000    1.0434449   -6.4975584    550.24647  0.035218028  0.035631132            2 
 1303000    1.0535132   -6.5323571    547.41865  0.035010147  0.035622578            5 
 1304000    1.0298137   -6.5180596    548.44951  0.035049176  0.035613763            4 
 1305000    1.0433392   -6.5091276    549.58272  0.035094682  0.035604974            4 
 1306000    1.0416426   -6.5458777    549.64864  0.035072017  0.035596196            2 
 1307000    1.0330233   -6.4902796    550.53171  0.035101486  0.035587459            5 
 1308000    1.0520798    -6.498815     550.6889  0.035084665  0.035578739            7 
 1309000    1.0331047    -6.497756    551.52239  0.035110923   0.03557003            4 
 1310000    1.0519047   -6.4976455    550.68357  0.035030762  0.035561303            5 
 1311000    1.0225837   -6.5129857    552.26601  0.035104628  0.035552504            5 
 1312000    1.0398465    -6.499072    550.85285  0.034988113  0.035543713            4 
 1313000    1.0372141   -6.5178606    551.18589  0.034982603  0.035534961            3 
 1314000    1.0418491   -6.5369127    551.02211  0.034945593  0.035526132            4 
 1315000    1.0168663   -6.5016268    553.19601  0.035056782   0.03551729            3 
 1316000    1.0286125   -6.5152783    552.60635  0.034992803  0.035508484            4 
 1317000    1.0380578   -6.5435247    551.72624  0.034910544  0.035499741            4 
 1318000    1.0666855   -6.5375932    552.98502  0.034963646  0.035490934            3 
 1319000    1.0350497   -6.5318217    554.07253  0.035005846  0.035482198            3 
 1320000    1.0415062   -6.5232753    555.31466  0.035057744  0.035473708            4 
 1321000    1.0373851   -6.5350474       554.51  0.034980444   0.03546523            5 
 1322000    1.0411684   -6.5280769     556.0696  0.035052294  0.035456702            4 
 1323000    1.0208865   -6.5157568    555.61377  0.034997088  0.035448297            3 
 1324000    1.0301781   -6.4714133    557.51573  0.035090366   0.03543995            3 
 1325000    1.0478266   -6.5417315     556.2568  0.034984704  0.035431545            4 
 1326000     1.061985   -6.5329962    556.96439   0.03500279  0.035423331            4 
 1327000    1.0239049   -6.5244341    557.26901  0.034995542  0.035414954           13 
 1328000    1.0291336   -6.5389424    555.32323   0.03484709   0.03540643            3 
 1329000     1.061013    -6.529586    558.61061  0.035027001  0.035398013            4 
 1330000    1.0268159   -6.5089268    558.57533  0.034998454  0.035389724            4 
 1331000    1.0480753   -6.5366144      559.867   0.03505303  0.035381338            2 
 1332000    1.0346577   -6.5171159     558.9052  0.034966542  0.035373059            5 
 1333000    1.0379798   -6.5065342    558.74234  0.034930129  0.035364659            4 
 1334000    1.0619886    -6.523456    558.17082  0.034868242  0.035356225            3 
 1335000    1.0031942   -6.5252443    558.70355  0.034875378  0.035347875            6 
 1336000    1.0389285   -6.5088223    561.73528  0.035038378  0.035339421            2 
 1337000    1.0435676   -6.5307952    559.93986  0.034900265  0.035331182            5 
 1338000    1.0046696    -6.504994    561.02076  0.034941502  0.035323092            4 
 1339000    1.0391317   -6.5502489    561.56267  0.034949133  0.035314833            5 
 1340000     1.038155   -6.5317499    559.69339  0.034806803  0.035306377            6 
 1341000    1.0373156     -6.52613    561.15002  0.034871366  0.035298163            3 
 1342000    1.0363774   -6.4794633    560.69493  0.034817122  0.035289761            5 
 1343000    1.0333873    -6.517097    560.86092  0.034801496    0.0352814            2 
 1344000     1.024959   -6.5016128    559.92663  0.034717673  0.035272944            3 
 1345000    1.0181376    -6.521635    561.34398  0.034779677  0.035264433            3 
 1346000     1.014006   -6.5344596    560.49094  0.034701024  0.035255905            8 
 1347000    1.0153278   -6.5158697    562.81352  0.034818951  0.035247351            3 
 1348000    1.0385531    -6.531301    563.89869  0.034860206  0.035238873            3 
 1349000    1.0538691   -6.5553817    561.82219   0.03470609  0.035230325            9 
 1350000    1.0448747   -6.5255649    564.66672   0.03485597  0.035221738            4 
 1351000    1.0260628   -6.4997967    564.41489  0.034814637   0.03521329            3 
 1352000    1.0515899   -6.4939456     563.8437  0.034753679  0.035204793            4 
 1353000    1.0555453   -6.5177562    565.31151  0.034818398  0.035196294            5 
 1354000    1.0278761   -6.5294514    563.44237  0.034677644  0.035187696            6 
 1355000    1.0410374   -6.5623747    562.60608   0.03460062  0.035178961            3 
 1356000    1.0260571   -6.5188019       564.51  0.034692109  0.035170325            2 
 1357000    1.0108076   -6.4972063    566.12475  0.034765705  0.035161759            8 
 1358000     1.034712   -6.5276711      566.706  0.034775773    0.0351534            3 
 1359000    1.0537492   -6.5342081    565.18271  0.034656776  0.035145033            3 
 1360000    1.0297905   -6.5342369    566.86833  0.034734579  0.035136543            8 
 1361000    1.0434485   -6.4923083     565.9959  0.034655639  0.035127996            5 
 1362000    1.0442939   -6.5221924    567.95945  0.034750333  0.035119457            2 
 1363000    1.0210868   -6.4920993     567.9056  0.034721546  0.035111038            3 
 1364000    1.0248992   -6.4866119    567.59945  0.034677386  0.035102606            7 
 1365000    1.0469321   -6.5568995     566.8981  0.034609164  0.035094276            4 
 1366000    1.0305064    -6.523293    568.59998  0.034687651   0.03508583            2 
 1367000    1.0190081   -6.5569231    566.95379  0.034561923  0.035077368            2 
 1368000    1.0537201   -6.5408108    566.95159  0.034536525  0.035068775            5 
 1369000    1.0231268   -6.5240751    567.72984   0.03455867  0.035060231            8 
 1370000    1.0351686    -6.567621    569.20988  0.034623472  0.035051719            5 
 1371000     1.007835   -6.5538448    569.53165  0.034617776  0.035043051            3 
 1372000    1.0434306    -6.519495    569.13886  0.034568687  0.035034257            4 
 1373000    1.0238283   -6.5488223    567.89171  0.034467815  0.035025458            4 
 1374000    1.0394385   -6.5469531    567.67252  0.034429435  0.035016515            3 
 1375000    1.0150169   -6.5102718    569.34589  0.034505812   0.03500753            3 
 1376000    1.0279661    -6.522503    569.33682  0.034480185  0.034998648            8 
 1377000    1.0357814   -6.5593663    567.61754  0.034351098   0.03498967            5 
 1378000    1.0302423   -6.5083304    571.93058  0.034586997   0.03498086            4 
 1379000    1.0261487   -6.5203774    571.13167  0.034513637  0.034972083            3 
 1380000    1.0307255   -6.5206249    570.41344  0.034445256  0.034963431            6 
 1381000    1.0346555   -6.5289323    572.05489  0.034519364  0.034954902            3 
 1382000    1.0519215   -6.5162999     572.9355  0.034547486  0.034946404            3 
 1383000    1.0592253   -6.5452701    570.57311  0.034380159  0.034937949            5 
 1384000    1.0364787   -6.5578418    573.27116  0.034517772  0.034929238            4 
 1385000     1.026186   -6.5139739    571.98167  0.034415263  0.034920761            8 
 1386000    1.0117621   -6.5452592    573.16833   0.03446178  0.034912094            8 
 1387000    1.0118444   -6.5104547    571.99214  0.034366267  0.034903216            6 
 1388000    1.0147185   -6.5388935    573.56426  0.034435894   0.03489443            5 
 1389000    1.0340362   -6.5080755    574.19901  0.034449185  0.034885692            5 
 1390000    1.0166229    -6.519755    572.06144  0.034296249  0.034876843            3 
 1391000    1.0447511   -6.5280157     573.3485    0.0343487  0.034867878            3 
 1392000    1.0285737   -6.4841765     575.0799  0.034427676  0.034858939            8 
 1393000    1.0174764   -6.5748209    572.41481  0.034243528  0.034850168            4 
 1394000    1.0362744   -6.5605177    574.20292  0.034325856  0.034841211            6 
 1395000    1.0417716   -6.5197196    574.08182  0.034294016  0.034832201            2 
 1396000    1.0298719   -6.5117062    575.92801  0.034379657  0.034823471            4 
 1397000    1.0337436   -6.5432099    575.17998  0.034310426  0.034814706            3 
 1398000    1.0107212   -6.5156415    575.65778  0.034314365  0.034805754            5 
 1399000     1.025318   -6.5481876    575.19809  0.034262455  0.034796701            3 
 1400000    1.0048063   -6.5718497    573.92127   0.03416198  0.034787586            9 
 1401000     1.047279   -6.5100144    577.32583  0.034340104  0.034778545            3 
 1402000    1.0468278   -6.5693124    575.80181  0.034225024  0.034769617            6 
 1403000    1.0316258   -6.5041616    577.08996  0.034277142  0.034760678            3 
 1404000    1.0108634   -6.5677568     577.5454   0.03427976  0.034751794            5 
 1405000    1.0104947   -6.5404762    577.48246  0.034251629  0.034742987            4 
 1406000    1.0346756    -6.549587    577.51704  0.034229317    0.0347341            3 
 1407000    1.0531359   -6.5135666     579.1674  0.034302736  0.034725242            4 
 1408000     1.051553   -6.5303286    578.30279  0.034227201  0.034716377            3 
 1409000     1.002703   -6.5341107    577.24501  0.034140349  0.034707456            5 
 1410000    1.0224022   -6.5466607    579.15071  0.034228765  0.034698581            3 
 1411000    1.0183716   -6.5439665    580.52638  0.034285754  0.034689649            5 
 1412000    1.0259468   -6.5615645    579.21573   0.03418412  0.034680748            4 
 1413000    1.0331737   -6.5399822    580.62136  0.034242826  0.034671814            3 
 1414000    1.0120904   -6.4922055    579.90626  0.034176465  0.034663107            3 
 1415000    1.0116786   -6.5376435    580.16164  0.034167352  0.034654424            5 
 1416000    1.0139319   -6.5566259    580.90076  0.034186721  0.034645619            7 
 1417000    1.0162471    -6.499695    580.81331  0.034157452  0.034636797            5 
 1418000    1.0217219   -6.5275045    581.58987  0.034179001  0.034628088            4 
 1419000    1.0204725   -6.5315653    584.23482  0.034310243  0.034619435            6 
 1420000    1.0227291    -6.569682    579.39509  0.034002059  0.034610554            6 
 1421000    1.0453985   -6.5714873    580.73587   0.03405676  0.034601622            4 
 1422000    1.0278133   -6.5659005    580.55841   0.03402241   0.03459264            7 
 1423000    1.0106608   -6.5255522    583.36469  0.034162842  0.034583881            6 
 1424000    1.0231993   -6.5182469    583.89878  0.034170106  0.034575105            2 
 1425000    1.0095028   -6.4919761     581.3869  0.033999234  0.034566287            5 
 1426000    1.0258207   -6.5271001    583.11893  0.034076609  0.034557321            5 
 1427000    1.0216019   -6.5609711    584.49428  0.034133046   0.03454822            4 
 1428000    1.0300705   -6.5596991    583.65389  0.034060101  0.034539293            6 
 1429000     1.013131   -6.5444393    583.77471  0.034043312  0.034530488            4 
 1430000    1.0408349   -6.5420494    584.45778  0.034059311  0.034521541            4 
 1431000    1.0444746   -6.5605589    585.73938  0.034110143  0.034512618            3 
 1432000    1.0279813   -6.5592152     585.1257  0.034050611  0.034503788            7 
 1433000    1.0048626   -6.5370655    583.58239  0.033937101  0.034495031            5 
 1434000    1.0250472   -6.5415877    584.72685  0.033979943  0.034486139            7 
 1435000    1.0329663   -6.5396833    584.95578  0.033969558  0.034477471            4 
 1436000    1.0214225   -6.5836728    585.72189   0.03399036  0.034468733            7 
 1437000    1.0011983   -6.5850771    586.90042  0.034035051  0.034459975            3 
 1438000   0.99651797   -6.5652114    585.42487  0.033925873  0.034451345            7 
 1439000    1.0389075    -6.523289    587.92327  0.034046981  0.034442901            3 
 1440000   0.99795015   -6.5504174    588.96698  0.034083737  0.034434302            3 
 1441000    1.0170871   -6.5403673    588.54143  0.034035475  0.034425804            4 
 1442000    1.0347552   -6.5461667    589.72298  0.034080153  0.034417309            4 
 1443000    1.0021629   -6.5756092    589.15432  0.034023696  0.034408848            2 
 1444000    1.0192912   -6.5513416     588.0385   0.03393574  0.034400156            3 
 1445000     1.017816    -6.560852    587.90639  0.033904636  0.034391385            5 
 1446000     1.018709   -6.5315897    588.66546  0.033924935  0.034382741            3 
 1447000    1.0312055    -6.536227    589.32547    0.0339395  0.034374126            5 
 1448000    1.0372491   -6.5757107    590.28042  0.033971019  0.034365473           10 
 1449000    1.0070158   -6.5365112    589.99565  0.033931197  0.034356827            3 
 1450000    1.0076985   -6.5450521    590.57134  0.033940881  0.034348214            8 
 1451000    1.0344435   -6.5527403    590.34606  0.033904552  0.034339775            5 
 1452000    1.0243143    -6.560515    591.97349  0.033974604  0.034331278            5 
 1453000    1.0020547   -6.5827924    589.94744  0.033835022  0.034322884            5 
 1454000    1.0269641   -6.5641203    592.84815     0.033978  0.034314349            4 
 1455000     1.014403   -6.6041511    590.54562  0.033822773  0.034305888            4 
 1456000   0.99305717   -6.5144439    592.71249  0.033923563  0.034297427            7 
 1457000    1.0164944   -6.5793488     591.4365  0.033827299  0.034288956            4 
 1458000    1.0197706   -6.5625386    592.88098  0.033886658  0.034280282            2 
 1459000    1.0240176   -6.5580414    592.44596  0.033838586  0.034271587            5 
 1460000    1.0262676   -6.5423609    594.01437   0.03390493  0.034263128            3 
 1461000   0.99192779   -6.5683773    592.87893  0.033816959  0.034254645            5 
 1462000    1.0107762   -6.5829633    594.02091  0.033858921  0.034246183            4 
 1463000    1.0079118   -6.5588185    592.99294  0.033777224  0.034237717            2 
 1464000    1.0068302   -6.5305664    594.15965  0.033820563  0.034229236            3 
 1465000    1.0118537   -6.5424207    594.37363  0.033809649  0.034221019            3 
 1466000    1.0158544   -6.5949882    593.86781  0.033757834  0.034212579            8 
 1467000    1.0306616   -6.5507153     596.7564  0.033898909  0.034204226            5 
 1468000    1.0364989   -6.5884527    595.10522  0.033782086  0.034195897            7 
 1469000    1.0306593   -6.5416287    595.89579  0.033803936  0.034187685            7 
 1470000    1.0300406   -6.5668239    596.58854  0.033820212  0.034179433            4 
 1471000    1.0154029    -6.537217    597.24161  0.033834218  0.034171349            8 
 1472000    1.0133285   -6.5620937    595.79282  0.033729213   0.03416325            6 
 1473000    1.0210679   -6.5468045    596.24818  0.033732076  0.034155184            2 
 1474000    1.0048224   -6.5663109    597.92868  0.033804199   0.03414695            3 
 1475000    1.0264961   -6.5501202    597.79889  0.033773949  0.034138621            4 
 1476000     1.032573   -6.6039784    597.01192  0.033706635  0.034130144            5 
 1477000    1.0072901   -6.6019088    597.91872  0.033734977   0.03412165            3 
 1478000    1.0129429   -6.5834534    598.69609  0.033755982  0.034113285            6 
 1479000   0.99457609   -6.5943993    598.16114  0.033703017  0.034104821            2 
 1480000    1.0081157   -6.5514052     599.3539  0.033747404  0.034096528            5 
 1481000   0.99443958    -6.556661    598.15345   0.03365707  0.034088309            5 
 1482000    1.0101214   -6.5885533    599.98928  0.033737589  0.034079992            8 
 1483000     1.003501   -6.5619877    600.76159  0.033758237  0.034071829            5 
 1484000    1.0202247   -6.5593703    601.14113  0.033756802    0.0340636            3 
 1485000     1.027051   -6.5670512    599.55104   0.03364484  0.034055336           12 
 1486000    1.0219001   -6.5523774    601.23773  0.033716786  0.034047077           10 
 1487000    1.0108359     -6.56054    601.49083  0.033708296  0.034038814           10 
 1488000    1.0329619    -6.549031    602.34377   0.03373341  0.034030477            3 
 1489000     1.004893   -6.5717681    603.19448  0.033758366  0.034022358            4 
 1490000    1.0090693   -6.5616999     601.4878  0.033640257  0.034014255            2 
 1491000    1.0130949   -6.5448458    603.52496  0.033731554  0.034006047            5 
 1492000   0.99600175   -6.5719419     605.1616  0.033800358  0.033997783            8 
 1493000    1.0131464   -6.5242294    603.58351  0.033689636  0.033989714            6 
 1494000   0.99828861   -6.5674788    603.97409  0.033688872  0.033981451            3 
 1495000    1.0059288   -6.5626657    604.11264   0.03367406  0.033973002            3 
 1496000    1.0095407   -6.5593069    602.83238  0.033580235  0.033964615            4 
 1497000    1.0257066   -6.5685924    601.02877  0.033457402  0.033955943            4 
 1498000    1.0041835   -6.5520844    602.87404  0.033537719  0.033947485            4 
 1499000    1.0239001   -6.5766407    602.85365  0.033514212  0.033938946            7 
 1500000    1.0215187   -6.5812883     602.3827  0.033465705  0.033930245            2 
 1501000    1.0180345   -6.5556792    605.34605  0.033607931  0.033921556            5 
 1502000    1.0014097   -6.5441983    604.20585  0.033522295  0.033912989           10 
 1503000   0.99860586   -6.5884084    602.76538  0.033420125  0.033904298            4 
 1504000     1.022048   -6.5691755    607.28669   0.03364842  0.033895695            4 
 1505000   0.99144669   -6.5721801    604.97991  0.033498334  0.033887123            6 
 1506000     1.012484   -6.5653279    604.99075   0.03347669  0.033878519            2 
 1507000    1.0186345   -6.5500938    604.49484  0.033427054  0.033869768            7 
 1508000    1.0131945   -6.5447046    607.24438  0.033556829  0.033861104            1 
 1509000    1.0076682   -6.5748724    603.86786  0.033348126  0.033852363            6 
 1510000   0.98493048   -6.6025024     605.0413    0.0333908  0.033843579           12 
 1511000    1.0110675   -6.5987786    607.28841  0.033492632  0.033834928            3 
 1512000    1.0219424   -6.5588391    606.18203  0.033409504  0.033826246            5 
 1513000    1.0210339   -6.5603506    606.62744  0.033411954  0.033817607            3 
 1514000   0.99084241   -6.5746943    605.55604  0.033330914  0.033808799            3 
 1515000    1.0193194   -6.5864223    606.24887  0.033347023  0.033800011            5 
 1516000   0.99774164   -6.5525841    605.96255  0.033309287  0.033791128            4 
 1517000    1.0030688   -6.5779745    606.99444  0.033344015  0.033782253            3 
 1518000   0.98510921   -6.5575117    605.09528  0.033217791  0.033773334            6 
 1519000    1.0111481   -6.5737749    606.60205  0.033278585  0.033764334            3 
 1520000    1.0105201   -6.5682273    607.11426  0.033284773  0.033755335            5 
 1521000    1.0131452   -6.5799196     605.0937  0.033152186  0.033746381            2 
 1522000   0.97075624   -6.5641372    607.79791  0.033278466  0.033737379            4 
 1523000    1.0081256   -6.5950914    605.95609  0.033155838  0.033728408           19 
 1524000    1.0199877   -6.5679528    608.44694  0.033270283  0.033719478            9 
 1525000    1.0058872    -6.586348    608.83464  0.033269653  0.033710584            3 
 1526000    1.0047494    -6.585349    607.08149  0.033152113  0.033701491            4 
 1527000   0.99586833   -6.5460495    609.73523  0.033275225  0.033692527            4 
 1528000     1.015631   -6.5722224    609.72137  0.033252692  0.033683605            5 
 1529000   0.99216707   -6.5545037    610.48704  0.033272675  0.033674561            5 
 1530000    0.9900107   -6.5745304    609.19664  0.033180645   0.03366558            5 
 1531000    1.0349008   -6.5686316    608.52306  0.033122309  0.033656727            6 
 1532000    0.9856366   -6.5606038    610.41392  0.033203542  0.033647872            5 
 1533000    1.0055782   -6.5499069    610.93975  0.033210467  0.033639101           10 
 1534000   0.99388045   -6.6006049    610.63615  0.033172325  0.033630326            4 
 1535000   0.99658568   -6.5945785    611.35228  0.033189592  0.033621588           16 
 1536000    1.0044748   -6.5593528    610.71755  0.033133547  0.033612698            5 
 1537000   0.99083687   -6.5734455    611.49397  0.033154086  0.033603915            3 
 1538000    1.0098036   -6.5565828    614.37901   0.03328885  0.033595238            3 
 1539000    1.0354671   -6.5922042    613.28827  0.033208158   0.03358668            6 
 1540000   0.99557196   -6.5504175    613.20319  0.033181991  0.033578029            5 
 1541000    1.0133708   -6.6094642    611.23811  0.033054192  0.033569303            5 
 1542000    1.0371877    -6.597024    612.62306  0.033107602  0.033560577            4 
 1543000   0.99768016   -6.6086854    612.70096  0.033090352  0.033551772            5 
 1544000    1.0134085    -6.602948    614.92654  0.033189041  0.033543102            4 
 1545000    1.0056412   -6.5661687    614.82265  0.033161955  0.033534379            3 
 1546000   0.99853487   -6.5807405    614.00073  0.033096202  0.033525784            4 
 1547000     1.013058   -6.5922598    616.44406  0.033206424  0.033517217            2 
 1548000   0.99454017   -6.5434897    614.65989  0.033088926  0.033508618            8 
 1549000    1.0128815   -6.5481567    617.17156  0.033202688  0.033500107            6 
 1550000    1.0103943   -6.5848904    615.77141   0.03310599  0.033491574           10 
 1551000    1.0174395   -6.5815269    616.90281  0.033145434  0.033483155            4 
 1552000    1.0103893   -6.6070268    616.70114  0.033113248  0.033474737            4 
 1553000    1.0181686   -6.5876931    618.30212  0.033177834  0.033466279            4 
 1554000    1.0243489   -6.6147739    616.97809  0.033085483  0.033457842            3 
 1555000    1.0061643   -6.6068318    618.33173  0.033136748  0.033449424            3 
 1556000   0.98008982    -6.589227    617.59826  0.033076171  0.033440984            5 
 1557000   0.98900564   -6.5882285     617.0865  0.033027537  0.033432556           11 
 1558000    1.0100678   -6.5935569    619.13654  0.033115989  0.033424183            2 
 1559000    1.0055794   -6.5872833    617.55684  0.033010308  0.033415665            4 
 1560000   0.99641702   -6.6148821    618.12407  0.033019448  0.033407202            4 
 1561000    0.9995911   -6.5515875     622.4746  0.033230546  0.033398919            8 
 1562000    1.0007921   -6.5498607    620.70956  0.033115107  0.033390594            2 
 1563000    1.0129894   -6.5740442    620.70439  0.033093644  0.033382282            3 
 1564000    1.0019238   -6.5802107    621.37927  0.033108444  0.033373991            4 
 1565000   0.98497101   -6.5680332     621.4181  0.033089356  0.033365935            4 
 1566000   0.97456779   -6.5622467    622.35656  0.033118165  0.033357799            4 
 1567000    1.0005499   -6.6088892    621.68794  0.033061473  0.033349694            4 
 1568000   0.99450749   -6.5701769    621.75334  0.033043864  0.033341511            4 
 1569000   0.99570837    -6.573157    621.95736  0.033033639  0.033333462            5 
 1570000   0.99665452   -6.5515834    624.04928  0.033123635  0.033325426            7 
 1571000    1.0013501   -6.6053302    624.30927  0.033116342  0.033317356           11 
 1572000   0.99225359   -6.5937651    624.68337  0.033115107  0.033309391            3 
 1573000      1.01471   -6.5985111    626.24574  0.033176824  0.033301524            3 
 1574000   0.98437311    -6.598497    623.44076   0.03300724  0.033293529            6 
 1575000    1.0113331   -6.6079747      624.715  0.033053704   0.03328547            4 
 1576000   0.98404384   -6.5792067    625.35663  0.033066658   0.03327749            9 
 1577000    1.0012791   -6.6119757    624.67191  0.033009507  0.033269458            6 
 1578000    1.0017651   -6.6241742     625.9652  0.033056886  0.033261434            6 
 1579000   0.99247227   -6.5836812     626.3468   0.03305609  0.033253524            9 
 1580000    1.0027787   -6.5785264    627.55499  0.033098892  0.033245622            6 
 1581000    1.0039916   -6.5901002    626.44634   0.03301952  0.033237772            6 
 1582000   0.99950511   -6.6055632    627.91286  0.033075899  0.033229876            5 
 1583000    1.0051204     -6.59191    628.47598  0.033084648  0.033222005            4 
 1584000   0.99380211   -6.6190865    627.89085  0.033032978  0.033214193            3 
 1585000    0.9990503   -6.5940747    627.22126  0.032976933  0.033206218            5 
 1586000   0.98526868   -6.5902543    627.81737  0.032987462  0.033198176            3 
 1587000    0.9897358   -6.5752658    627.31465  0.032940278  0.033190132            2 
 1588000   0.99970144   -6.5788539    629.92877  0.033056715  0.033182146            4 
 1589000    1.0000487   -6.6127389    627.55669  0.032911511   0.03317417            2 
 1590000    1.0127844   -6.5823649    628.68274  0.032949829  0.033166099            4 
 1591000    1.0041898   -6.6054322    627.24708  0.032853922  0.033158188            6 
 1592000    1.0006133   -6.5776708    629.45657  0.032948941  0.033150174            6 
 1593000     1.005299    -6.614248    628.65595  0.032886375  0.033142324            3 
 1594000   0.99136729   -6.5973756    628.61206  0.032863449  0.033134405            4 
 1595000   0.99787013   -6.5746864    629.39621  0.032883815  0.033126456            4 
 1596000   0.99918271   -6.6107181    630.50907  0.032921317  0.033118564            8 
 1597000    1.0073155   -6.5936734    627.98184  0.032768829  0.033110486            2 
 1598000    1.0007348   -6.6004425    630.57474  0.032883539  0.033102282            3 
 1599000    1.0043092   -6.5699322    629.30846  0.032796981  0.033094128            6 
 1600000    1.0119507   -6.6129879    629.69001  0.032796355  0.033086042            9 
 1601000   0.99348956   -6.6082394    631.70825  0.032880921  0.033077945            7 
 1602000   0.97918712    -6.598127     630.8941  0.032818045  0.033069845            2 
 1603000    1.0307833   -6.6046274    632.49429   0.03288076  0.033061674            7 
 1604000    1.0027454   -6.5919622    632.49094  0.032860086  0.033053626            4 
 1605000    1.0007438   -6.5941065    631.10376  0.032767589  0.033045426            3 
 1606000   0.99895355   -6.5758643    633.98825  0.032896858  0.033037321            3 
 1607000   0.98750501   -6.6272312    630.97338  0.032720047  0.033029113            9 
 1608000   0.96519161   -6.5935019     633.2526  0.032817817  0.033020885            3 
 1609000   0.97777603   -6.6116398    631.01803  0.032681688  0.033012661            4 
 1610000   0.98666992   -6.6330591    632.83334  0.032755349   0.03300445            5 
 1611000   0.98028541   -6.6121885     631.6425  0.032673417  0.032996184            5 
 1612000   0.99449786   -6.6043939    632.30205  0.032687244  0.032988033            7 
 1613000    1.0113082   -6.6070816    634.11461  0.032760623   0.03297991            4 
 1614000   0.99210724   -6.5905019     634.7015  0.032770627   0.03297182            6 
 1615000    1.0014986   -6.5796287    634.04154  0.032716282  0.032963631            8 
 1616000   0.98290503   -6.5856695    634.76385  0.032733284  0.032955482            4 
 1617000    0.9858361   -6.6070976    632.43765  0.032593159  0.032947377            5 
 1618000   0.99712456   -6.5847283    636.44144  0.032779225  0.032939129            3 
 1619000    1.0145337   -6.6187737    636.23352  0.032748277  0.032931101            3 
 1620000    1.0214013   -6.5971798    635.51705  0.032691206  0.032923014            9 
 1621000   0.98313436   -6.6331211    632.93965  0.032538538  0.032914722            5 
 1622000   0.97028063   -6.6093759    635.60506  0.032655418  0.032906464            9 
 1623000   0.99988785   -6.5989678    635.68169  0.032639233  0.032898234            4 
 1624000    0.9943379   -6.6136727    636.38216  0.032655078  0.032890057            5 
 1625000   0.98660109   -6.6022366    636.20596  0.032625947   0.03288193            9 
 1626000     1.008485   -6.6085168    635.52015  0.032570733  0.032873679            6 
 1627000   0.98919056   -6.6404686    635.63359  0.032556525  0.032865357            4 
 1628000    1.0132228   -6.6129861    635.80887  0.032545499  0.032857045            8 
 1629000    1.0013258   -6.6048129    635.47287  0.032508332  0.032848604            5 
 1630000   0.98774078   -6.6362424    635.03784  0.032466147  0.032840277            5 
 1631000    1.0161565   -6.6081574    636.35135  0.032513353  0.032831784            5 
 1632000   0.97753784    -6.616271    635.55503  0.032452769  0.032823337            9 
 1633000    1.0003516   -6.5973669    636.79927  0.032496391  0.032814848            4 
 1634000    0.9714282    -6.604207    636.11736  0.032441726  0.032806493            5 
 1635000   0.99179959   -6.6153754     637.5304  0.032493904  0.032798122            5 
 1636000   0.97452881   -6.6357199    635.52908    0.0323721  0.032789697            7 
 1637000    0.9893624   -6.6634318    635.62765  0.032357343  0.032781082            4 
 1638000   0.99941059   -6.6524567    637.48963  0.032432317  0.032772577            2 
 1639000    1.0204615   -6.6198682    639.21532   0.03250027  0.032764214            6 
 1640000   0.99318512   -6.6263369    637.44964  0.032390734  0.032755735            4 
 1641000   0.98858757   -6.6302776    636.58913  0.032327297  0.032747245            6 
 1642000   0.98749981   -6.5925325    637.39436  0.032348475  0.032738694            4 
 1643000   0.95881904   -6.6669997    638.92265  0.032406302  0.032730201            3 
 1644000   0.98538405   -6.5724747    638.54445  0.032367419  0.032721691            9 
 1645000   0.99415708   -6.6172406    638.91337  0.032366432  0.032713242            3 
 1646000   0.99188784   -6.6048889     638.7933  0.032340689  0.032704783            4 
 1647000   0.99263765   -6.5948374    639.63193  0.032363486   0.03269637            4 
 1648000   0.97808294   -6.6076049    639.49306  0.032336825  0.032687993            6 
 1649000    1.0148207    -6.615842    640.35139  0.032360592  0.032679571            9 
 1650000   0.99125005   -6.5934907    641.06121  0.032376829  0.032671128            3 
 1651000   0.96940653   -6.6178961    640.15501  0.032311478  0.032662686            4 
 1652000   0.99229469    -6.612519    640.39447  0.032303998  0.032654228            4 
 1653000   0.98307294   -6.5666935    643.50407  0.032441222  0.032645766            7 
 1654000   0.98845893    -6.637083     639.9975  0.032244937  0.032637349           10 
 1655000   0.98256343   -6.5756292    641.93295  0.032322908  0.032628868            8 
 1656000   0.97566525   -6.6178702     640.4757  0.032230058  0.032620328            3 
 1657000   0.99351195   -6.6444873    640.17331  0.032195399  0.032611691            3 
 1658000   0.97636768   -6.6144524    641.71116  0.032253275  0.032603219            4 
 1659000   0.99889869   -6.6404004    640.36192   0.03216606  0.032594509            5 
 1660000    1.0045251   -6.6485166    641.03939  0.032180692  0.032585902            4 
 1661000   0.99739423   -6.6128347    641.44755  0.032181796  0.032577331            3 
 1662000   0.99528457   -6.6437809    641.41109  0.032160604  0.032568868            7 
 1663000    0.9912099   -6.5833086    641.46993  0.032144214  0.032560316            3 
 1664000   0.96413866   -6.6099882    642.45386  0.032174172   0.03255193            4 
 1665000   0.99110612   -6.6258048    643.81671  0.032223058  0.032543604            3 
 1666000   0.98677239   -6.6106422    644.59677  0.032242736  0.032535112            7 
 1667000   0.98215495   -6.6343865    642.75125  0.032131136  0.032526656            5 
 1668000   0.96958341   -6.6086837    643.69105  0.032158826   0.03251827            3 
 1669000   0.98669271   -6.6317901    645.95444  0.032252568  0.032509765            4 
 1670000    1.0066664   -6.6237259     645.3216  0.032201677   0.03250136            4 
 1671000   0.99094504   -6.6256787    643.69461  0.032101267  0.032492885            4 
 1672000   0.99414616   -6.6303444     645.9907  0.032196506  0.032484512            9 
 1673000     0.997894   -6.6237788    644.78691    0.0321173  0.032476085            5 
 1674000   0.98472863   -6.6125123    647.12101  0.032214307  0.032467666            2 
 1675000    1.0127412   -6.6057393    646.03126  0.032140859  0.032459274            6 
 1676000   0.98943603    -6.619749    648.59391  0.032249101  0.032450832            2 
 1677000   0.98368169   -6.6031312    645.52101  0.032077172  0.032442337            3 
 1678000    1.0008223   -6.6180907    646.04176  0.032083917   0.03243393            7 
 1679000   0.98571799    -6.626546    647.61888  0.032143085  0.032425551            6 
 1680000   0.98267502   -6.5847041    647.69182  0.032127571  0.032417222           10 
 1681000   0.97313344   -6.6346793    647.10999  0.032079615  0.032408866            2 
 1682000   0.99645707   -6.6233069    648.75192  0.032141891  0.032400619            5 
 1683000   0.96042776   -6.6599244    646.71502  0.032021936  0.032392253            6 
 1684000   0.98077589    -6.612662    648.15167  0.032074014  0.032383879            2 
 1685000   0.96862245   -6.6755201     646.5949  0.031977987  0.032375448            8 
 1686000   0.99385447   -6.6205372    649.14259  0.032084944  0.032366945            3 
 1687000   0.98774614   -6.5977698    649.21499  0.032069502  0.032358618            3 
 1688000   0.96574676   -6.6451511    648.94995  0.032037419  0.032350318            2 
 1689000   0.97506589   -6.6142369    650.99441  0.032119322  0.032341953            2 
 1690000    1.0034872   -6.5927879    651.83907  0.032141966  0.032333696           10 
 1691000   0.97472033   -6.6426326    649.43202  0.032004338  0.032325466            3 
 1692000   0.97446807   -6.6218998    649.70564  0.031998899  0.032317194            3 
 1693000    1.0152602   -6.6417064    651.14039   0.03205062  0.032308957            6 
 1694000   0.98714485   -6.6427425    651.89129  0.032068639  0.032300755            3 
 1695000   0.97354867   -6.6172241    652.33823  0.032071693  0.032292528           10 
 1696000   0.98181332   -6.6025483    652.96013   0.03208334  0.032284327            4 
 1697000    0.9657406   -6.6137977    651.47104   0.03199131  0.032275972            6 
 1698000   0.96811825   -6.6414008    650.90451  0.031944666  0.032267676            4 
 1699000   0.96647611   -6.6349679    652.22483  0.031990623  0.032259255            4 
 1700000   0.97316147   -6.6112065    652.26685  0.031973865  0.032250948            4 
 1701000   0.98354714   -6.6385114    651.66857  0.031925758  0.032242579           15 
 1702000   0.97148051   -6.6654533    650.48791  0.031849193  0.032234165            5 
 1703000   0.96747185   -6.6309388    652.48805  0.031928364  0.032225658            6 
 1704000   0.96471333   -6.6715988    651.56718  0.031864592   0.03221713            3 
 1705000   0.98760587   -6.6154311    653.88349  0.031959115  0.032208703            9 
 1706000   0.98236906   -6.5955175    653.89683  0.031941033  0.032200413            4 
 1707000   0.97618874   -6.6243034    653.46347  0.031901165  0.032192223            6 
 1708000   0.97112924   -6.6476688    655.83805  0.031998343  0.032184077            8 
 1709000   0.97417932   -6.6277012    654.09209  0.031894485   0.03217587            6 
 1710000   0.98920091   -6.6234183    655.00251    0.0319202  0.032167663            3 
 1711000   0.97360766   -6.6648252    654.55518  0.031879757  0.032159443            6 
 1712000    1.0034224   -6.6289532    655.55429  0.031909769  0.032151311            5 
 1713000   0.98208367   -6.6103924    655.31842  0.031879666  0.032143107            5 
 1714000   0.98394849   -6.6218082    657.12504  0.031948903  0.032134901            6 
 1715000   0.98211741   -6.6354571    655.99301  0.031875268  0.032126779            4 
 1716000   0.95668983   -6.6108685    656.72665   0.03189232  0.032118729            3 
 1717000   0.96510044   -6.6702195    654.83404  0.031781889  0.032110512            2 
 1718000   0.98703835   -6.6447078    657.46378  0.031890948   0.03210234            8 
 1719000   0.96274338   -6.6540735    657.08354  0.031853963  0.032094071            4 
 1720000   0.96779852     -6.58816    657.45317  0.031853351  0.032085865            4 
 1721000   0.98114345   -6.6542272    655.99029  0.031764008  0.032077647            4 
 1722000   0.98988178   -6.6641401    657.01526  0.031795164  0.032069355            3 
 1723000   0.98160933    -6.692478    656.35811  0.031744927  0.032061015            3 
 1724000   0.97477838   -6.6407965    655.98869  0.031708657  0.032052786            6 
 1725000   0.97321645   -6.6314129     658.6578  0.031819217  0.032044472            7 
 1726000    0.9585483   -6.6649214    658.09561  0.031773639  0.032036134            8 
 1727000   0.96108717   -6.6538503    656.77075  0.031691312  0.032027918            9 
 1728000   0.98838121    -6.629079    659.31755  0.031795792  0.032019648            4 
 1729000   0.98143858    -6.656094    657.47861   0.03168877  0.032011411            7 
 1730000   0.98122217   -6.5888125    660.14589  0.031798935  0.032003195            5 
 1731000   0.99014798   -6.6572502    659.90957  0.031769188  0.031995068            6 
 1732000   0.98848158   -6.6303947    659.82195   0.03174663  0.031986932            6 
 1733000   0.97138746    -6.636591    661.41535  0.031804931  0.031978752            3 
 1734000   0.97549939   -6.6505561    660.79028  0.031756549  0.031970602            7 
 1735000   0.97083811   -6.6695787    660.97281  0.031747013  0.031962392            5 
 1736000   0.97881188   -6.6266415    659.64375  0.031664927    0.0319542            5 
 1737000   0.98078658   -6.6484262    660.58774  0.031691985  0.031946025            8 
 1738000    1.0010016   -6.6118464    661.03396  0.031695146   0.03193781            5 
 1739000   0.96845529   -6.6563987    662.41473  0.031743086  0.031929635            7 
 1740000   0.98511178   -6.6469737    661.74589  0.031692811  0.031921437            4 
 1741000   0.96595646   -6.6604318    663.77552  0.031771756  0.031913352            6 
 1742000   0.96010787   -6.7073879    662.37369  0.031686457  0.031905352            7 
 1743000   0.98025313   -6.6789269    664.17841  0.031754562   0.03189736            6 
 1744000   0.97548791   -6.6671948    662.54755  0.031658427  0.031889448           10 
 1745000   0.97136427   -6.6209424    666.55401  0.031831615  0.031881541           10 
 1746000    0.9878824   -6.6647615    664.17961  0.031700058  0.031873686            3 
 1747000   0.97320551   -6.6314055    665.27015  0.031733932   0.03186584            4 
 1748000   0.99479909   -6.6492609    665.66817  0.031734752  0.031858109            7 
 1749000   0.96780617   -6.6337092    666.14218  0.031739193  0.031850337            6 
 1750000   0.98605792   -6.6527747    665.26916  0.031679484  0.031842348            4 
 1751000   0.97176292   -6.6068733    665.72743  0.031683201  0.031834451            8 
 1752000   0.96155495   -6.6349101    667.10832  0.031730799  0.031826635            5 
 1753000   0.97164392   -6.6269623    665.82767  0.031651819  0.031818782            5 
 1754000   0.95453652   -6.6351792    665.29177  0.031608313  0.031810895            7 
 1755000   0.96941506   -6.6508754    668.15417  0.031726219  0.031802958           12 
 1756000    0.9545991   -6.6666881     665.9453  0.031603327  0.031795001            5 
 1757000   0.98303038   -6.6505523    665.83023  0.031579882   0.03178707            7 
 1758000   0.97840484   -6.6903379    666.24981  0.031581807  0.031779071            6 
 1759000   0.96878114    -6.644634    667.05189  0.031601852  0.031771001            6 
 1760000   0.97591435   -6.6705992    666.91372  0.031577354  0.031763078            6 
 1761000    0.9454508   -6.6603778    667.29632  0.031577528  0.031755089            3 
 1762000   0.98069338   -6.6218831    667.55896  0.031572028  0.031747132            7 
 1763000   0.97893881   -6.6435856    669.21603  0.031632446  0.031739258            4 
 1764000   0.96989693   -6.6580623    667.57286  0.031536889   0.03173137           11 
 1765000   0.99356468   -6.6336276    670.66538  0.031665032  0.031723467            3 
 1766000    0.9848127   -6.6167929    670.11025  0.031620906  0.031715596            2 
 1767000   0.95678124   -6.6448496    668.59383  0.031531495   0.03170765            5 
 1768000   0.96839458   -6.6359156    667.77201  0.031474925  0.031699736            6 
 1769000   0.95986553   -6.6334007    670.09986  0.031566792  0.031691821            3 
 1770000   0.96980616   -6.6712445    670.04574   0.03154641  0.031683694            6 
 1771000   0.96485256   -6.6547848    667.66063  0.031416367  0.031675651            3 
 1772000   0.96673587   -6.6435302    668.19575  0.031423803  0.031667698            9 
 1773000   0.98335168   -6.6668949      668.939  0.031441013  0.031659764            4 
 1774000   0.98894949   -6.6194308    669.58419  0.031453598  0.031651892            4 
 1775000   0.96131598    -6.637093    671.46113  0.031523997  0.031644062            5 
 1776000   0.96571956   -6.6273475    671.97195  0.031530215  0.031636307           10 
 1777000   0.97856339    -6.680647     670.1928  0.031429038   0.03162847            2 
 1778000   0.96609953   -6.6611007    671.95142  0.031493786  0.031620677            6 
 1779000   0.96348113   -6.6824109     671.2859  0.031444908  0.031612788            5 
 1780000   0.98951017   -6.6765855     673.7234  0.031541358  0.031604929            6 
 1781000   0.98298681    -6.654711    672.55895  0.031469163  0.031597052            3 
 1782000   0.97547706   -6.6701966    671.54712  0.031404186   0.03158918            3 
 1783000   0.97918137   -6.6647685    673.25754  0.031466514  0.031581299            7 
 1784000   0.95508048   -6.6642515    672.87913    0.0314312  0.031573422            6 
 1785000    0.9600271   -6.6612746    673.12771  0.031425196  0.031565546            6 
 1786000   0.96070664   -6.6651473    670.68829   0.03129378   0.03155761            7 
 1787000   0.94825431   -6.6903704    673.19852  0.031393328  0.031549592            5 
 1788000   0.95797562   -6.6755122    673.19039  0.031375391  0.031541674            3 
 1789000    0.9429553   -6.6405574    674.81908  0.031433719  0.031533803            3 
 1790000   0.96790972    -6.663722    672.65254  0.031315295  0.031525974            6 
 1791000   0.97992609   -6.6289745    674.88749    0.0314018  0.031518099            5 
 1792000   0.94936562   -6.6566265     674.5168  0.031367039  0.031510236            6 
 1793000   0.98155396   -6.6563298    674.98294  0.031371209  0.031502412            9 
 1794000   0.96467055   -6.6702945    674.84491  0.031347311  0.031494461            2 
 1795000    0.9234017    -6.673235    676.43721   0.03140377  0.031486526            8 
 1796000   0.97067114   -6.6709815    675.28968   0.03133304  0.031478631            4 
 1797000   0.95641301   -6.6517046    677.21677   0.03140497  0.031470796            3 
 1798000    0.9565333   -6.6398613    678.39131  0.031441941  0.031462951            5 
 1799000    0.9497546   -6.6830701     676.6902  0.031345664  0.031455136            2 
 1800000   0.93647703   -6.6783014    675.76245  0.031285298  0.031447281            4 
 1801000   0.96402951    -6.667253    675.75788  0.031267716  0.031439372            7 
 1802000   0.94680635    -6.658651    675.83692   0.03125402  0.031431483            4 
 1803000   0.95087433   -6.6170293    677.23158  0.031301145  0.031423557            3 
 1804000   0.96511331   -6.6591803    676.11147  0.031232052  0.031415607            5 
 1805000   0.97461858   -6.6925672     677.0654   0.03125879  0.031407661            6 
 1806000   0.95684691   -6.6333583    677.80617  0.031275663    0.0313997            4 
 1807000   0.97510414   -6.6370913    676.66696  0.031205818  0.031391832            5 
 1808000   0.97671371   -6.6447931    677.42682  0.031223581  0.031383892            4 
 1809000   0.97101602   -6.6558382    676.67925  0.031171884  0.031375838            2 
 1810000   0.96341715   -6.7081322    677.18822  0.031178095  0.031367793           10 
 1811000    0.9495173   -6.6977344    676.03802  0.031107952  0.031359673            4 
 1812000   0.96284555    -6.654215    676.54873  0.031114272  0.031351478            3 
 1813000   0.94920114   -6.6894279    675.50843  0.031049294  0.031343246            9 
 1814000   0.96186199   -6.6715026    676.91575  0.031096828  0.031335046           11 
 1815000   0.98481786   -6.6117587    680.21244  0.031231058  0.031326963            9 
 1816000   0.96995923   -6.6393107    679.06008   0.03116098  0.031318854            4 
 1817000   0.97120908   -6.6729714    678.69296  0.031126993  0.031310736            7 
 1818000   0.98297737   -6.6671669    677.54255  0.031057139  0.031302572            6 
 1819000    0.9574895   -6.6762432    677.37207  0.031032255  0.031294462            5 
 1820000   0.94472647   -6.6605473    679.85897  0.031129074   0.03128649            2 
 1821000   0.96695443   -6.6562732    677.78569  0.031017101  0.031278434            9 
 1822000   0.95109832   -6.7078944      679.022  0.031056623  0.031270358            7 
 1823000   0.97504145   -6.6797581    679.23268  0.031049217  0.031262258            3 
 1824000    0.9557313   -6.6833067    680.24506  0.031078448  0.031254179            6 
 1825000   0.96357247   -6.6526807    679.69996  0.031036528  0.031246113            6 
 1826000   0.95128275   -6.6506299    680.95297  0.031076715  0.031237938            6 
 1827000    0.9297331   -6.6685428    678.90692   0.03096638  0.031229729            2 
 1828000   0.95521821    -6.686077    678.48163  0.030930053  0.031221498            7 
 1829000   0.96705637   -6.6765843    680.52023  0.031006025  0.031213281           12 
 1830000   0.97896267   -6.6515874     680.1995  0.030974476  0.031204989            2 
 1831000   0.94389084   -6.6672195    680.75403  0.030982797  0.031196759            3 
 1832000   0.96978022   -6.7056624    680.03053  0.030932975  0.031188476            3 
 1833000   0.95560696   -6.6573763    681.37432  0.030977192  0.031180121           10 
 1834000   0.94905895   -6.6375669    680.95022  0.030941032  0.031171836            3 
 1835000   0.93788353   -6.7009982    678.33616  0.030805457  0.031163466            5 
 1836000   0.94055951   -6.6737333    680.04249  0.030866126   0.03115509            4 
 1837000   0.95871609   -6.6874641    680.39649  0.030865382  0.031146725            5 
 1838000   0.93831456   -6.6548535    680.68617  0.030861723  0.031138347           10 
 1839000   0.94369101   -6.6759989    682.05355  0.030906904  0.031130003            6 
 1840000   0.97469782   -6.6694378    682.34856  0.030903468  0.031121594            4 
 1841000   0.95394741   -6.6522568    683.10141  0.030920759  0.031113304            3 
 1842000   0.97279668   -6.6810692    681.55855  0.030834172  0.031104933            5 
 1843000   0.93963754   -6.6634085    681.18738  0.030800659  0.031096536            9 
 1844000   0.93582857   -6.6767959    681.23578  0.030786143  0.031088153            4 
 1845000   0.94616641   -6.6985551    682.99071  0.030848722  0.031079675            8 
 1846000   0.95793956   -6.6574154    683.92288  0.030874092  0.031071358            4 
 1847000   0.95633568    -6.660194    681.57821  0.030751589  0.031063049            8 
 1848000   0.97030703   -6.7117903    681.60562  0.030736184  0.031054675            7 
 1849000   0.97119385   -6.6849701    682.37679  0.030754317  0.031046227           10 
 1850000   0.92959144    -6.677025    683.12485   0.03077139  0.031037753            4 
 1851000   0.94633484   -6.6908747    683.04995  0.030751394  0.031029328            4 
 1852000   0.93935286   -6.7149746    681.28013  0.030655153   0.03102092            6 
 1853000   0.97133093   -6.6969775    683.02259  0.030716972  0.031012454            7 
 1854000   0.94737472   -6.7090797     684.1601  0.030751533  0.031003877            6 
 1855000   0.94156929   -6.6962951    683.05088  0.030685125  0.030995459            5 
 1856000   0.97161385   -6.6434665    684.11233   0.03071625  0.030987065            6 
 1857000   0.96002982   -6.6792371    685.37589  0.030756412  0.030978745            7 
 1858000   0.95503541   -6.6816592    683.99644  0.030677989  0.030970377            7 
 1859000   0.96475321   -6.6681846    685.68964  0.030737388   0.03096188            8 
 1860000   0.98157519   -6.6766476    684.47738  0.030666549  0.030953444            3 
 1861000   0.95329052   -6.7028632    683.97823  0.030627719  0.030944992            3 
 1862000   0.95828205   -6.6948344    685.20343  0.030666104  0.030936505            2 
 1863000   0.97771142   -6.6835143    684.53139  0.030619583   0.03092805            6 
 1864000    0.9517439   -6.6835881    685.00748   0.03062444   0.03091969            6 
 1865000     0.954478   -6.7249059     683.4011  0.030536242  0.030911192            8 
 1866000   0.94398797   -6.6713419    686.08457  0.030639718  0.030902697            7 
 1867000   0.96227722   -6.6947049    684.85811  0.030568564  0.030894296            7 
 1868000   0.96208165   -6.6462628     688.3562  0.030708253  0.030885813            5 
 1869000   0.94632338   -6.6874995     685.9156  0.030583003  0.030877359            7 
 1870000   0.94803799   -6.7086117    684.25653  0.030492715  0.030868844            4 
 1871000   0.94613539   -6.6747491    686.79751  0.030589591  0.030860332            5 
 1872000   0.95939657   -6.7032227    686.34678  0.030553187  0.030851796            4 
 1873000   0.94552668   -6.6980838    685.90329  0.030517142  0.030843298            5 
 1874000   0.96590265   -6.6671176    686.81559  0.030541426  0.030834789            6 
 1875000   0.95588931   -6.6945592    687.48852  0.030555045  0.030826235            5 
 1876000   0.96528814   -6.6534525    688.11869  0.030566751  0.030817697            6 
 1877000   0.93921876   -6.6718853     688.1437  0.030551576  0.030809259            3 
 1878000   0.95749324   -6.7006554    687.73134   0.03051701  0.030800818            7 
 1879000   0.95593203    -6.687899    688.93327  0.030554074  0.030792341            4 
 1880000    0.9528704   -6.6927632    687.55644  0.030476792  0.030783892            3 
 1881000   0.95674288   -6.7181835    687.42277  0.030454668  0.030775401            4 
 1882000   0.95605651   -6.6694978    690.14444  0.030558999  0.030766994            5 
 1883000   0.94322092   -6.7237465    687.66572  0.030433073  0.030758587            5 
 1884000   0.93852894   -6.7067394    689.68017  0.030506023  0.030750118            5 
 1885000   0.92566889   -6.6693827    689.55997  0.030484526  0.030741648            8 
 1886000   0.95307328   -6.7005698    689.47241  0.030464493  0.030733184            7 
 1887000   0.93858178   -6.7629614    687.35873  0.030355005  0.030724621            5 
 1888000     0.935356   -6.6714626     688.4672  0.030387853  0.030716053            4 
 1889000   0.94411403    -6.655916    688.26495  0.030362844  0.030707608            8 
 1890000   0.91821933   -6.6977595    690.06491  0.030426143   0.03069913            5 
 1891000   0.93974629   -6.6980345    689.41918  0.030381596   0.03069065           10 
 1892000    0.9430909   -6.6746529    688.93484  0.030344205  0.030682209            5 
 1893000    0.9507367   -6.6771129    690.87587  0.030413624  0.030673863            5 
 1894000   0.95661038   -6.6904464    691.99649  0.030446871   0.03066553            3 
 1895000   0.93053216   -6.7031675    691.13795   0.03039305  0.030657168            5 
 1896000   0.94766331   -6.7058287    687.90179  0.030234783  0.030648709            6 
 1897000   0.94609705   -6.6790394    692.30229  0.030412155  0.030640333            5 
 1898000   0.95481085   -6.6979944    693.91251   0.03046683  0.030631983            7 
 1899000   0.94862596   -6.7236932    692.47779  0.030387826   0.03062362            6 
 1900000   0.92781899   -6.7136561    693.00286  0.030394862  0.030615214            6 
 1901000   0.95459443   -6.7160272    691.93768   0.03033218  0.030606868            6 
 1902000    0.9311385    -6.702218    693.63833  0.030390744  0.030598512            3 
 1903000   0.95752667   -6.6424778    694.98979  0.030433955  0.030590184            3 
 1904000   0.96467152   -6.6891091    693.94506  0.030372245  0.030581963            4 
 1905000   0.93309016   -6.6881504    691.32213  0.030241563  0.030573692            4 
 1906000   0.94179944   -6.7017197    692.81557  0.030290992  0.030565328            9 
 1907000   0.92064118   -6.6936788     693.2411  0.030293703  0.030556958            8 
 1908000   0.93489582   -6.6928636    694.64379  0.030339089  0.030548628            7 
 1909000   0.92693179   -6.6937194    694.67532  0.030324573  0.030540381            9 
 1910000   0.95763629   -6.6954514     693.7848  0.030269843  0.030532019            5 
 1911000   0.94777069   -6.7019561    692.30475  0.030189462  0.030523665            6 
 1912000   0.94752115    -6.697796    693.57815  0.030229173  0.030515272            3 
 1913000   0.94999145   -6.6996657    693.91858  0.030228201  0.030506909            9 
 1914000   0.94692055   -6.7261021    693.47832  0.030193239  0.030498467            8 
 1915000   0.93106339   -6.6897428    694.44265  0.030219437  0.030490006           11 
 1916000   0.94221158   -6.7069669    694.20194  0.030193195  0.030481513            4 
 1917000   0.95511914   -6.7255862     693.9258  0.030165441  0.030473148            3 
 1918000   0.94620861    -6.712472    695.97224  0.030238627  0.030464811            3 
 1919000   0.91903052   -6.7078846    694.70126  0.030167677  0.030456416            4 
 1920000   0.92810949   -6.6900885    697.38875  0.030268609  0.030448035            3 
 1921000   0.94643586     -6.74211    695.27699  0.030161244  0.030439704            7 
 1922000   0.94446531   -6.7039798    696.85416  0.030213933   0.03043125            6 
 1923000   0.95497273   -6.6847258    696.70135    0.0301916  0.030422973           20 
 1924000   0.96552745   -6.6689537    697.36457  0.030204633  0.030414722            7 
 1925000   0.94530537    -6.705078    697.55611  0.030197234  0.030406372            5 
 1926000   0.95580954   -6.6996872    697.02339  0.030158506  0.030397968            6 
 1927000   0.92737046   -6.7254503    695.93594  0.030095828  0.030389561            5 
 1928000   0.95982877   -6.7213044    696.04098  0.030084759  0.030381111            6 
 1929000   0.93877438   -6.6937956    697.06784  0.030113523  0.030372738            6 
 1930000   0.92847645    -6.717031     696.3647   0.03006756  0.030364389            7 
 1931000   0.93855055   -6.7202652    694.59605  0.029975663   0.03035608            7 
 1932000   0.92813706    -6.688721    700.12518  0.030198636  0.030347849            5 
 1933000   0.94783608   -6.6943618    700.89824  0.030216341  0.030339703            6 
 1934000   0.94971723   -6.7077922    696.10549  0.029994204  0.030331448            9 
 1935000   0.93774672   -6.6811439    699.45799  0.030123083  0.030323271            4 
 1936000   0.96358417   -6.6987535    700.55371  0.030154688  0.030315112            7 
 1937000   0.92584615   -6.7022208     698.8439  0.030065561    0.0303069            2 
 1938000   0.94637236   -6.7153414     698.7083  0.030044217  0.030298673            6 
 1939000   0.94335119   -6.6935488    700.49553  0.030105532  0.030290423            9 
 1940000   0.94535621   -6.7079172    699.07559   0.03002902  0.030282261            6 
 1941000   0.92999998   -6.7101444    700.08578   0.03005692  0.030274098            4 
 1942000   0.94758926   -6.7478041    700.94262  0.030078211  0.030265932            4 
 1943000   0.95738023   -6.7303026    700.34006  0.030036887   0.03025774            8 
 1944000   0.94362676   -6.6942442    700.83774   0.03004277  0.030249555           10 
 1945000   0.95130104   -6.6452688    701.73299  0.030065681  0.030241404            5 
 1946000   0.92579722   -6.7179893    700.17151  0.029983364  0.030233281            3 
 1947000   0.94242009   -6.6997872    703.94588   0.03012951  0.030225194            9 
 1948000   0.94589572   -6.7127352    703.95058  0.030114244  0.030217127            5 
 1949000   0.91438792   -6.7001194    702.40163  0.030032565  0.030209103           11 
 1950000   0.93409487    -6.725623    701.90356  0.029995879  0.030201059            3 
 1951000    0.9325725   -6.7252693    702.58959  0.030009806  0.030192929            3 
 1952000   0.93899235   -6.7077484    703.53668  0.030034865  0.030184869            6 
 1953000   0.93900234   -6.7533742    701.33689  0.029925623  0.030176811            4 
 1954000   0.94976001   -6.7258689    702.64164  0.029965952  0.030168768            5 
 1955000   0.94604507   -6.6762965    704.18602  0.030016454  0.030160809            4 
 1956000   0.93247229   -6.7343096    705.48243  0.030056341  0.030152837            8 
 1957000   0.95074863   -6.7255632    705.58036  0.030045152  0.030144893            6 
 1958000   0.95189361   -6.6833176    706.20345  0.030056327  0.030137024            3 
 1959000   0.92777396   -6.6785124     706.2615  0.030043453  0.030129155            4 
 1960000   0.94705973   -6.7004965    706.62685  0.030043659  0.030121267            7 
 1961000   0.93013725   -6.7095679     707.7419  0.030075723  0.030113397           10 
 1962000   0.94218351   -6.7387558     705.8019  0.029977994  0.030105399            4 
 1963000   0.95938874   -6.6963425     706.4392  0.029989778  0.030097435            8 
 1964000   0.93612028   -6.7049042    706.53526  0.029978584  0.030089501            9 
 1965000   0.93387038   -6.6966302     705.2481   0.02990874  0.030081566            3 
 1966000    0.9466561   -6.7015271    704.24502   0.02985101  0.030073654            4 
 1967000   0.93505281   -6.7141538    706.89911  0.029948276  0.030065752            5 
 1968000   0.94839569    -6.696814    706.27271  0.029906534  0.030057876            6 
 1969000   0.92704833   -6.6991082    709.08141  0.030010217  0.030049973            6 
 1970000   0.95291062   -6.7136989    707.51904  0.029928894  0.030042064            2 
 1971000   0.94649322   -6.7238348    708.06335  0.029936722  0.030034241           12 
 1972000   0.91724797   -6.6993386    711.40697  0.030062837  0.030026435            5 
 1973000   0.93579135   -6.6909906    709.19242  0.029954064  0.030018706            6 
 1974000   0.94470347   -6.7261332    709.79217  0.029964208  0.030010998            5 
 1975000   0.92789573   -6.7117068    710.49789  0.029978814  0.030003225            3 
 1976000   0.94758689   -6.7329417    708.05374  0.029860566  0.029995438            3 
 1977000   0.95175371   -6.7283112     708.0102  0.029843627  0.029987532            4 
 1978000   0.96102832   -6.7087452    709.04021  0.029871933  0.029979638            7 
 1979000   0.93106083   -6.7215141     711.0053  0.029939586  0.029971767            5 
 1980000   0.92974107   -6.7175316    708.14703  0.029804168  0.029963854            4 
 1981000   0.94078647   -6.7084523    710.37094  0.029882674  0.029955919            6 
 1982000   0.92920082   -6.7341362    709.67199   0.02983821  0.029948036            6 
 1983000   0.92494205   -6.7280839    710.28148  0.029848776  0.029940059            4 
 1984000   0.92884579   -6.7218681    710.61145  0.029847591   0.02993214            5 
 1985000   0.93271847   -6.7205441    710.82965  0.029841715  0.029924195            6 
 1986000   0.93183414   -6.7024341    711.22288  0.029843189  0.029916306            9 
 1987000   0.95939951   -6.7468066    711.23282  0.029828586  0.029908357            3 
 1988000   0.95348932   -6.7357586    710.44146   0.02978041  0.029900438            6 
 1989000   0.93236155    -6.703653    711.65566  0.029816309  0.029892476            6 
 1990000   0.93216343   -6.7317485    710.31115  0.029745023  0.029884478            3 
 1991000   0.91243212    -6.743186    709.29424   0.02968752  0.029876479            4 
 1992000    0.9312477   -6.7255639     710.1414  0.029708057  0.029868454            6 
 1993000   0.93630796   -6.7253391    711.71663  0.029759016  0.029860567            4 
 1994000    0.9499426   -6.6898105    713.41212   0.02981495  0.029852655            4 
 1995000   0.94449956   -6.7271864    710.08978  0.029661227  0.029844715            3 
 1996000   0.93015071   -6.6981786     713.1758  0.029775209  0.029836764            5 
 1997000   0.92256737   -6.7105254    712.49306  0.029731809    0.0298289            4 
 1998000   0.92812753    -6.764588    709.58791  0.029595759  0.029820891            6 
 1999000   0.92360844   -6.7034583    711.99584  0.029681334  0.029812909            5 
 2000000   0.93887633   -6.7321993    712.11234  0.029671348   0.02980496            5 
 2001000   0.91337273   -6.7117597    714.48278  0.029755238  0.029797015            8 
 2002000   0.92280386   -6.7482697    712.04033  0.029638708  0.029789108            5 
 2003000   0.91559293   -6.7197235    711.98071  0.029621431  0.029781102           13 
 2004000   0.93665358   -6.7440583    710.90441  0.029561893  0.029773032            4 
 2005000   0.92585608   -6.7294166    712.32745  0.029606295  0.029764925            3 
 2006000   0.95019438   -6.7291146    713.40231  0.029636188  0.029756765            5 
 2007000   0.95256017   -6.7196149    713.56887  0.029628337  0.029748656            4 
 2008000   0.93227096    -6.742305    712.76125  0.029580065  0.029740585            5 
 2009000   0.93773029   -6.7005513    712.15955  0.029540383  0.029732518            6 
 2010000   0.91990089   -6.7156676    712.98646  0.029559969  0.029724557            3 
 2011000   0.92780772   -6.7297371    715.86983  0.029664753  0.029716533            2 
 2012000   0.92112398   -6.7320866    712.50602  0.029510687  0.029708485            7 
 2013000   0.92278954   -6.7179816    712.51126  0.029496244  0.029700441            5 
 2014000   0.93291015   -6.7185872    715.45156  0.029603259  0.029692523            4 
 2015000   0.92151045   -6.7388448    715.76431  0.029601502  0.029684564            2 
 2016000   0.90835336   -6.7114894    718.46579  0.029698487  0.029676682            5 
 2017000   0.94386795   -6.7560642    716.25943  0.029592606  0.029668876            2 
 2018000   0.92777289   -6.7297323    717.26274  0.029619373   0.02966106            4 
 2019000    0.9353092   -6.7156686     716.5413  0.029574926  0.029653247            6 
 2020000   0.93854783   -6.7633997    716.21062  0.029546643   0.02964532            3 
 2021000   0.93969207   -6.7301683    716.27397  0.029534635  0.029637403            4 
 2022000   0.92221749   -6.6912604    718.36433  0.029606179  0.029629523           10 
 2023000   0.91945365   -6.7194333    717.66163  0.029562598   0.02962164            5 
 2024000   0.91707495   -6.7590887    716.47706   0.02949922  0.029613776            3 
 2025000   0.94911188   -6.7434655    715.78392  0.029456128  0.029605803           13 
 2026000   0.91579841   -6.7364017    717.77962  0.029523676  0.029597923            9 
 2027000   0.93228068   -6.7533634    715.45702  0.029413625  0.029590007            3 
 2028000   0.92409052   -6.7411113    716.87192  0.029457262  0.029582027            7 
 2029000   0.92728204   -6.7385076    717.21523  0.029456844  0.029574027            8 
 2030000   0.94490628   -6.7590606    718.18993  0.029482345  0.029566007            3 
 2031000   0.92707339   -6.7208585    717.95849  0.029458333  0.029558123            5 
 2032000   0.93522067   -6.7370687    716.42661  0.029381013  0.029550184            4 
 2033000   0.91906131   -6.7784974    717.40911  0.029406833  0.029542187            7 
 2034000   0.92580038    -6.760747    716.60057   0.02935925  0.029534202            5 
 2035000   0.93553437   -6.6970915    718.22527  0.029411354    0.0295263           12 
 2036000   0.93406624   -6.7370421    719.99321   0.02946927  0.029518431            6 
 2037000   0.93080024    -6.766625    718.81457  0.029406585  0.029510564            4 
 2038000   0.90434989   -6.7449037    720.62388  0.029466138  0.029502652            4 
 2039000   0.91221212   -6.7228298    718.81954  0.029377944  0.029494718            6 
 2040000   0.93378857   -6.7359796    719.04189  0.029372626  0.029486791            5 
 2041000   0.93522608   -6.7439963    720.24593  0.029407395  0.029478877           10 
 2042000   0.93807407   -6.7441779    720.49475  0.029403149  0.029470993           11 
 2043000    0.9107693   -6.7538527    718.95632  0.029326004  0.029463164            7 
 2044000   0.94212685   -6.7592915    719.17876  0.029320726  0.029455311            4 
 2045000   0.91610571   -6.7189226    720.61179  0.029364784  0.029447435            7 
 2046000   0.92283591   -6.7564337    719.03109   0.02928605  0.029439555           11 
 2047000   0.92873185   -6.7436086    719.94942  0.029309128  0.029431654            6 
 2048000   0.93498627    -6.725656    721.95198  0.029376301  0.029423787            5 
 2049000   0.91808618   -6.7314369    719.95651  0.029280808   0.02941593            8 
 2050000   0.92145804    -6.751497    721.95709  0.029347849  0.029408102            4 
 2051000   0.92065492   -6.7124624    723.73773  0.029405889  0.029400322            8 
 2052000   0.93578745   -6.7072437    721.99425  0.029320754  0.029392569            7 
 2053000    0.9125432   -6.7813374    720.34278  0.029239438  0.029384602            3 
 2054000       0.9116   -6.7501875    721.05451  0.029254078  0.029376681            6 
 2055000   0.92150897   -6.7461843    719.99718  0.029196966  0.029368839            3 
 2056000   0.93148941   -6.7535939    723.78038  0.029336105  0.029360977            5 
 2057000   0.92459602   -6.7692842    720.07008  0.029171531  0.029353121            6 
 2058000   0.94326004   -6.7823114    722.31986  0.029248456  0.029345237            9 
 2059000   0.91044181   -6.7161295    721.95502  0.029219484  0.029337454            4 
 2060000   0.92042844   -6.7039944    722.12221  0.029212064  0.029329655            8 
 2061000   0.90067429   -6.7364577    722.84669  0.029227183   0.02932184            8 
 2062000   0.91161522   -6.7472151    721.20711  0.029146747  0.029313938            5 
 2063000   0.92311444   -6.7561237    723.87309  0.029240309  0.029306074            8 
 2064000   0.91135163   -6.7412779    722.92284  0.029187776  0.029298187            5 
 2065000   0.90080484   -6.7834486    723.33734  0.029190369  0.029290269            4 
 2066000   0.92584485   -6.7342208    724.98041  0.029242514  0.029282388            3 
 2067000   0.93338015   -6.7863542     721.8619  0.029102641  0.029274544            6 
 2068000   0.92285815   -6.7443321     724.1075  0.029179058  0.029266596            4 
 2069000   0.90954583   -6.7584168    722.67725  0.029107349  0.029258704            7 
 2070000   0.91713507   -6.7365546    723.19529  0.029114142  0.029250757           10 
 2071000   0.91772449   -6.7753458    725.63233  0.029198146  0.029242852            3 
 2072000   0.93255794   -6.7961868    722.33051  0.029051259  0.029234874            5 
 2073000   0.91134573   -6.7685533    724.91067  0.029140966  0.029226831            5 
 2074000   0.91560409   -6.7369375    724.31468  0.029102968  0.029218851            3 
 2075000   0.91379548   -6.7112211    727.39514  0.029212656  0.029211016           15 
 2076000   0.90519605   -6.7460668    724.08411  0.029065675  0.029203064           11 
 2077000   0.91596627   -6.7807638    724.21737  0.029057028  0.029195071           11 
 2078000   0.92221348   -6.7747585    724.72733  0.029063496  0.029187026            8 
 2079000   0.92544524   -6.7739337    724.15595  0.029026613  0.029178926            5 
 2080000   0.93510511   -6.7985375    723.62465  0.028991372  0.029170799            5 
 2081000   0.91645642   -6.7402971    725.22758   0.02904163   0.02916275            5 
 2082000   0.90571174   -6.7610726    724.93136  0.029015824  0.029154705           10 
 2083000   0.92843047   -6.7627133     725.3198  0.029017435  0.029146733            5 
 2084000   0.91222218    -6.762991    724.49035  0.028970344  0.029138769            6 
 2085000   0.94623184    -6.761293    728.60162  0.029120768  0.029130853            4 
 2086000   0.91060967   -6.7536486     726.2901  0.029014465   0.02912296           11 
 2087000   0.92018134   -6.7574514    725.89133   0.02898464  0.029115084           13 
 2088000   0.91122346   -6.7445744    726.35042  0.028989081  0.029107131           12 
 2089000   0.93200919   -6.7468555    727.06624  0.029003759   0.02909921            5 
 2090000   0.91577088   -6.7723212    726.96022  0.028985655  0.029091296            8 
 2091000   0.93203441   -6.7347922    725.57188  0.028916463  0.029083375            3 
 2092000   0.90480851   -6.7641482    726.14744  0.028925567  0.029075455            7 
 2093000   0.92798715   -6.7634082    727.99252   0.02898521  0.029067535            9 
 2094000   0.90297241   -6.7403347    726.74484  0.028921714  0.029059595            5 
 2095000   0.92743769   -6.7703521    726.61356  0.028902687  0.029051679            5 
 2096000   0.92187816   -6.7608808    726.46095  0.028882831  0.029043748            7 
 2097000   0.90456469   -6.7786033     727.7711  0.028921121  0.029035851            4 
 2098000   0.91834882   -6.7516231    727.52778  0.028897672  0.029028012           12 
 2099000   0.92786555   -6.7809344    728.47354  0.028921452   0.02902009            3 
 2100000   0.92146969     -6.75799    729.38814  0.028943974  0.029012238            5 
 2101000    0.9377143   -6.7415658    730.07747  0.028957539  0.029004441            6 
 2102000   0.91212205   -6.7477543    730.88313  0.028975703   0.02899662            7 
 2103000   0.91610948   -6.7666117    729.78518  0.028918417  0.028988756            3 
 2104000   0.91480412   -6.7849181    729.45328  0.028891527  0.028980914            7 
 2105000   0.93261743   -6.7445816    729.44881  0.028877625  0.028973002            7 
 2106000   0.91577954   -6.7380676     730.3091  0.028897954  0.028965086            8 
 2107000   0.91397492   -6.7457819     729.0247   0.02883344  0.028957234            9 
 2108000   0.90171377   -6.7452875    729.21487   0.02882728  0.028949339            3 
 2109000   0.92688699   -6.7256013    732.30043  0.028935531  0.028941514            4 
 2110000   0.92941372    -6.742882     731.5085  0.028890541   0.02893361            4 
 2111000   0.90974018   -6.7915282    732.60114  0.028919988  0.028925721            7 
 2112000   0.92620668   -6.7691824     729.9466  0.028801554  0.028917884            4 
 2113000   0.91151373   -6.7500369    730.77096  0.028820435  0.028910011            4 
 2114000   0.93219359   -6.7482297    729.16767  0.028743601  0.028902126            6 
 2115000   0.91997763   -6.7634611    729.76135  0.028753402  0.028894241           13 
 2116000   0.93455021   -6.7274439    731.12395  0.028793476  0.028886424            7 
 2117000   0.91973496   -6.7479816     731.6789   0.02880172  0.028878529            3 
 2118000   0.90562531    -6.741583    729.88729   0.02871763  0.028870577            3 
 2119000   0.92078031   -6.7798064    728.81529   0.02866192  0.028862639            9 
 2120000    0.9147776   -6.7590674    732.30782  0.028785685  0.028854759            3 
 2121000   0.90070513   -6.7737942    733.96023  0.028837036  0.028846856            6 
 2122000   0.91796632   -6.7820146    732.23356  0.028755638  0.028839057           13 
 2123000   0.90197485   -6.7812424    734.46893  0.028829837  0.028831222            4 
 2124000   0.89494128   -6.7630388    733.34983  0.028772357   0.02882336            2 
 2125000   0.90791552   -6.7870855    732.72289  0.028734231  0.028815566            8 
 2126000    0.9242175   -6.7659257    732.48944  0.028711565   0.02880767            4 
 2127000   0.91895177   -6.7570933    732.96113  0.028716546  0.028799903            4 
 2128000   0.91669478    -6.748149    734.40737  0.028759687  0.028792138            9 
 2129000   0.92113531   -6.7350941    735.04499  0.028771136  0.028784309            6 
 2130000   0.92550669    -6.768929    733.85282  0.028710987  0.028776493            8 
 2131000   0.92381265   -6.7905142     733.6052   0.02868783   0.02876873            5 
 2132000   0.92524225   -6.7715405     733.0938  0.028654386  0.028760913            6 
 2133000   0.91390154   -6.7664514    734.91079  0.028711939   0.02875314            4 
 2134000   0.93181931   -6.7769432    735.97638  0.028740096  0.028745348            4 
 2135000   0.90667594   -6.8006842    733.97784  0.028648628   0.02873755            8 
 2136000   0.91690655   -6.7674773    732.87229  0.028592084  0.028729677            7 
 2137000   0.89033259   -6.7567556    734.44319  0.028639962  0.028721839           10 
 2138000   0.91086984   -6.7628239    734.22299  0.028617984  0.028714001            8 
 2139000   0.89989721   -6.7648762    735.67747   0.02866127  0.028706224            5 
 2140000   0.89659971   -6.7647005    737.49108    0.0287185  0.028698406            8 
 2141000   0.90445664   -6.7801133    735.17898  0.028615093  0.028690522           21 
 2142000   0.91405335   -6.7624934    736.05428  0.028635787  0.028682689           11 
 2143000   0.91551532   -6.7995544    735.54537  0.028602635  0.028674956            5 
 2144000   0.91312117    -6.766277    734.86923  0.028563014   0.02866718           11 
 2145000   0.90061029   -6.7646382    736.86786  0.028627345  0.028659353            5 
 2146000   0.91420696    -6.773921    737.86437  0.028652702  0.028651641            6 
 2147000    0.8986647    -6.763063    739.22966  0.028692348  0.028644015            9 
 2148000    0.8961044   -6.7677106    735.96294  0.028552256  0.028636415            6 
 2149000   0.90972646   -6.7615555    739.28655  0.028667851  0.028628783            7 
 2150000   0.92441607   -6.7983541     735.9734  0.028526101  0.028621157            3 
 2151000   0.90651354   -6.7205947    737.78216  0.028582913  0.028613475            9 
 2152000   0.87936937   -6.7482934    738.98331  0.028616144  0.028605832            6 
 2153000   0.90734393   -6.7611404    741.32693  0.028693564   0.02859827            9 
 2154000   0.90965226   -6.8204429    739.31473  0.028602396  0.028590679            8 
 2155000   0.91205543   -6.7733569    742.05494  0.028695087  0.028582997            3 
 2156000   0.90713822   -6.8148695    738.95136  0.028561818  0.028575362            6 
 2157000    0.8888205   -6.7843872     739.5325  0.028571028   0.02856764            4 
 2158000   0.91102647   -6.7794295    737.68093  0.028486289  0.028559962           12 
 2159000   0.89668177    -6.775371    737.46157  0.028464628  0.028552202            9 
 2160000   0.90217218   -6.7754532    739.84358  0.028543348  0.028544519            4 
 2161000   0.91453782   -6.7993307    739.28582  0.028508631  0.028536835            5 
 2162000   0.88728751   -6.7690443    739.94807  0.028520971  0.028529142            8 
 2163000    0.9018591   -6.7729186    739.88017  0.028505169  0.028521427            4 
 2164000   0.91556365   -6.7506397    739.11961  0.028462708  0.028513696            6 
 2165000   0.90170221    -6.760844    738.33013  0.028419174  0.028505987            6 
 2166000   0.90789167   -6.7935723    739.28852  0.028442926  0.028498225            3 
 2167000   0.92534741   -6.7785366    738.99697  0.028418588  0.028490471            5 
 2168000   0.91850409   -6.7941147    738.88873  0.028401319  0.028482754            7 
 2169000   0.89598833   -6.7883275    740.17471  0.028437633  0.028474977            7 
 2170000   0.91017716   -6.7765096    741.13909  0.028461562  0.028467196            6 
 2171000    0.9063012   -6.7976396    740.26758     0.028415  0.028459385            9 
 2172000   0.91255608   -6.7875471    738.96837  0.028352071  0.028451574           11 
 2173000   0.88812552   -6.7788408    740.62487  0.028402549  0.028443722            8 
 2174000   0.90539153   -6.8070066    737.17756  0.028257343  0.028435948            8 
 2175000   0.93057346   -6.7921735     741.6687  0.028416425  0.028428188            6 
 2176000   0.91500107    -6.783775    741.16403  0.028384039  0.028420505            4 
 2177000   0.92494566    -6.774642    742.05933  0.028405272  0.028412799            7 
 2178000   0.91010447   -6.7843173    742.83664  0.028421971  0.028405104            3 
 2179000   0.87340535   -6.7993493    742.48363  0.028395427  0.028397418            5 
 2180000   0.90193825   -6.7659104    743.09018  0.028405588  0.028389679           14 
 2181000    0.9111467   -6.7930394    741.52328  0.028332694  0.028381952            8 
 2182000   0.91930848   -6.7654207    743.00822  0.028376422  0.028374266            6 
 2183000   0.88052294   -6.7783493    744.61048  0.028424587  0.028366588            9 
 2184000   0.89888014   -6.7999049    741.76851  0.028303133  0.028358822            4 
 2185000   0.90853464   -6.7481028    741.82803   0.02829245  0.028351084            4 
 2186000   0.90351674    -6.798894    742.65483  0.028311026  0.028343364            7 
 2187000   0.88448992   -6.7621632     742.1672    0.0282795  0.028335645           26 
 2188000   0.91851856   -6.7928138    743.21948  0.028306653  0.028327861            4 
 2189000   0.89047786   -6.7541959     741.4977  0.028228175  0.028320057            6 
 2190000   0.90051637   -6.7886643    743.83283  0.028304141  0.028312366            4 
 2191000   0.90172314   -6.7742716    742.91799  0.028256427  0.028304619            4 
 2192000   0.91202775   -6.8110913    743.00456  0.028246828   0.02829685            6 
 2193000   0.89503411   -6.8058394    742.87148   0.02822889  0.028289058            7 
 2194000   0.89809544   -6.7711477    746.00265  0.028334953  0.028281331            4 
 2195000   0.88892985    -6.782544    745.13651  0.028289161   0.02827357            4 
 2196000   0.90358111   -6.8120392    742.99063  0.028194848  0.028265804            6 
 2197000   0.91638827   -6.8059777    744.17767  0.028227039  0.028258009            9 
 2198000    0.9143155   -6.7771125    745.04427  0.028247053  0.028250222           17 
 2199000   0.92101916   -6.7878848    743.25435  0.028166377  0.028242474           11 
 2200000   0.89234188   -6.7986442    744.26532  0.028191868  0.028234669            7 
 2201000    0.8979692   -6.7452271    746.39244  0.028259596  0.028226917            6 
 2202000   0.91299484   -6.8022153    745.07756  0.028197001  0.028219115           12 
 2203000   0.90368743   -6.8011021    745.67286   0.02820672  0.028211292            9 
 2204000   0.89214148   -6.7899802    746.16129   0.02821239  0.028203563           18 
 2205000   0.88795233   -6.7955723    743.59117  0.028102463  0.028195853           10 
 2206000   0.91062021    -6.775109    744.82883  0.028136477  0.028188047            6 
 2207000   0.86692289   -6.7783003     744.8202  0.028123403  0.028180294            7 
 2208000   0.88175505   -6.7714603    745.74007  0.028145383  0.028172575            6 
 2209000   0.91636322    -6.796993    745.77494  0.028133957  0.028164812           13 
 2210000   0.90598509   -6.7582915    745.30855  0.028103641  0.028157094            4 
 2211000   0.90545203   -6.8327895    747.04332  0.028156314  0.028149328            4 
 2212000   0.91294578   -6.7778615     746.3744  0.028118384  0.028141574            6 
 2213000   0.89606785   -6.7794588    747.19101  0.028136429  0.028133878            7 
 2214000   0.87049727   -6.8038038    747.03289  0.028117769  0.028126219           14 
 2215000   0.88635915   -6.7963836    747.09417   0.02810738   0.02811852           12 
 2216000   0.89737813   -6.7948771    746.27338   0.02806383  0.028110821            6 
 2217000   0.89125118   -6.8299415    744.52405  0.027985418  0.028103039            4 
 2218000   0.89191474   -6.7718291     745.2886  0.028001526   0.02809523            8 
 2219000   0.89166623   -6.7824016    747.66058  0.028077985  0.028087472            3 
 2220000   0.89318367   -6.8013505    747.21746  0.028048704  0.028079678            7 
 2221000   0.89146844    -6.792637    746.95905  0.028026379  0.028071979            8 
 2222000   0.87559872   -6.8096154    745.34758   0.02795333  0.028064227            6 
 2223000   0.90280666   -6.8082674    747.74189   0.02803051  0.028056475           11 
 2224000   0.90417817   -6.7760761    748.37896  0.028041778  0.028048736            4 
 2225000   0.89530647   -6.8013184    749.22252  0.028060768  0.028041051            8 
 2226000   0.89961916   -6.8028591    749.57605  0.028061398  0.028033247            8 
 2227000   0.89648485    -6.784095    748.93532  0.028024821  0.028025503            5 
 2228000   0.89763984   -6.7894478    748.07793  0.027980174  0.028017796            6 
 2229000   0.88060502   -6.7961158    748.08631  0.027967934  0.028010098            8 
 2230000   0.91887696   -6.8166665    748.98725   0.02798906  0.028002378            6 
 2231000   0.92027318   -6.7940187    748.94834  0.027975061  0.027994552            4 
 2232000   0.92631962   -6.8136456     747.9687  0.027925952  0.027986723            4 
 2233000   0.88597031   -6.7851046    749.21886  0.027960101  0.027978901            7 
 2234000   0.89463165   -6.8003236    750.74377  0.028004468  0.027971163            5 
 2235000   0.90422719   -6.7496488    749.96052  0.027962734  0.027963507            6 
 2236000   0.89600408   -6.7799815    749.14925  0.027919993   0.02795581            5 
 2237000   0.91226434    -6.814552    748.93183  0.027899413  0.027947995            7 
 2238000   0.88147701   -6.8068803    749.73741  0.027916943  0.027940264            4 
 2239000   0.89100042   -6.8173658    748.34523  0.027852658  0.027932488            8 
 2240000   0.88542856   -6.8052228    750.67122  0.027926757  0.027924791            8 
 2241000   0.88197998   -6.8152374    749.85782  0.027884048  0.027917031           11 
 2242000    0.8910887   -6.8228497    749.25597  0.027849241  0.027909302           10 
 2243000   0.88942088   -6.7898057    749.82053  0.027857799  0.027901511            4 
 2244000   0.88745814   -6.7936195     751.8647  0.027921297  0.027893761            4 
 2245000    0.9119473   -6.8268291    748.53843  0.027785391  0.027885973            6 
 2246000    0.8686932   -6.8273647    748.75643  0.027781108  0.027878175            8 
 2247000   0.87861341   -6.8196332      750.426  0.027830663  0.027870409            6 
 2248000   0.87907897   -6.7988141    751.55842  0.027860262  0.027862679           13 
 2249000   0.88338816   -6.7925707    751.61928  0.027850129  0.027854964            8 
 2250000   0.89059609   -6.8286715    750.36932  0.027791456   0.02784733           15 
 2251000   0.87384465   -6.8049085    753.03697  0.027877868  0.027839611            5 
 2252000   0.89524797   -6.7811766    750.63817  0.027776723  0.027831936            8 
 2253000   0.87373571   -6.8343023    751.89199  0.027810771  0.027824165            4 
 2254000    0.8964123   -6.8068363    750.41339  0.027743766  0.027816482            8 
 2255000   0.88904893   -6.7998505    750.73469  0.027743336  0.027808742            6 
 2256000   0.89751525   -6.8030318    751.58385  0.027762406  0.027801033            4 
 2257000   0.89145535   -6.8217992     751.0859   0.02773172  0.027793355            8 
 2258000   0.88375792   -6.7857733    753.49041  0.027808179  0.027785725            4 
 2259000   0.87131232   -6.7843481    753.37609  0.027791651  0.027778114            3 
 2260000   0.89579721   -6.8344784    751.76895  0.027720094  0.027770494            4 
 2261000   0.89676778    -6.823659    752.45003  0.027732937  0.027762798            4 
 2262000    0.9074076   -6.8118341    754.41546  0.027793084  0.027755108            8 
 2263000   0.87034249   -6.8258225     751.5634  0.027675777  0.027747427           10 
 2264000   0.90840555   -6.8131102     753.5405  0.027736326  0.027739693            8 
 2265000   0.87572724   -6.8405304    751.66928  0.027655235  0.027732004            6 
 2266000   0.87881891   -6.8391247    752.85892   0.02768678   0.02772428            8 
 2267000   0.88597117   -6.8028072    754.05382  0.027718491  0.027716517            6 
 2268000   0.89102901    -6.821861    753.75223  0.027695188  0.027708849            5 
 2269000   0.86414855   -6.7801847    755.78116  0.027757498  0.027701115            6 
 2270000   0.87792377    -6.816233    754.46149  0.027696824  0.027693433           12 
 2271000    0.8765436   -6.7969331    753.09351  0.027634431  0.027685687            6 
 2272000   0.89273907   -6.8098702    753.00597  0.027619057  0.027677906            7 
 2273000   0.88642171   -6.8101397    753.30443  0.027617848  0.027670179           10 
 2274000   0.89593902   -6.7943342    753.45585  0.027611252  0.027662458            9 
 2275000   0.88435991   -6.8266549    753.97696  0.027618204  0.027654741            4 
 2276000   0.87712232   -6.7972426    753.27036  0.027580198  0.027647051           10 
 2277000   0.88157548   -6.8253506    756.89449  0.027700721  0.027639354           11 
 2278000   0.88339383   -6.7922164    757.17854  0.027698952   0.02763168            8 
 2279000   0.88780771   -6.8019079      755.012  0.027607577   0.02762401            5 
 2280000   0.89749147   -6.8191573    755.41365  0.027610148   0.02761636            8 
 2281000   0.87160353   -6.7982691    757.12077  0.027660411  0.027608727            7 
 2282000   0.90390581   -6.8096974    755.05434  0.027572829  0.027601102            7 
 2283000   0.87356897   -6.8327338    756.32028   0.02760696  0.027593488           11 
 2284000   0.88439433   -6.8452078    756.30519  0.027594322  0.027585883            5 
 2285000   0.89431066   -6.8045133    757.53771  0.027627196  0.027578326           14 
 2286000   0.89199557     -6.84896    754.84022  0.027516777  0.027570682            6 
 2287000   0.87815848   -6.7823074    755.70733   0.02753634  0.027563011            5 
 2288000    0.8994096   -6.8039065    758.68787  0.027632863   0.02755539           16 
 2289000   0.87607438   -6.8336596    756.54318  0.027542711  0.027547722            4 
 2290000   0.88583678   -6.8103424     755.9262  0.027508231  0.027540063            5 
 2291000   0.89294153   -6.8318163    758.96969  0.027606929  0.027532395           10 
 2292000   0.87838798   -6.8588326    756.63541  0.027510014  0.027524763            4 
 2293000   0.89899207   -6.7860652    757.52103  0.027530202  0.027517162            2 
 2294000   0.88320707   -6.8313634    759.21513  0.027579742  0.027509596            4 
 2295000   0.88696791   -6.8464281    757.93752  0.027521333  0.027501974            5 
 2296000   0.87921162   -6.8295318    757.05859  0.027477446  0.027494393            3 
 2297000   0.88180025   -6.8179859    756.42074  0.027442343  0.027486801           12 
 2298000   0.89037405   -6.8057153     759.6089  0.027546015  0.027479201            5 
 2299000   0.88865263    -6.819338    758.69752  0.027500997  0.027471631            5 
 2300000   0.90276509   -6.8404356    758.82022  0.027493486  0.027464007            7 
 2301000   0.86135808   -6.8394801    759.27447  0.027497989  0.027456423            6 
 2302000   0.88737154   -6.8200082    759.51996  0.027494931  0.027448796            4 
 2303000   0.87061876    -6.814782    760.93377   0.02753415   0.02744129            3 
 2304000   0.88619809    -6.835193    759.05029  0.027454076  0.027433719            8 
 2305000    0.8789015   -6.8300448    760.10052  0.027480134  0.027426119            8 
 2306000   0.87195174   -6.8093668    761.31167  0.027511986  0.027418546            6 
 2307000    0.8877231   -6.7963101    763.05406  0.027562999  0.027411054            6 
 2308000   0.87021179   -6.8270461    760.90325  0.027473399  0.027403544           11 
 2309000   0.87753579   -6.8341153    761.02663  0.027465953  0.027396061            7 
 2310000   0.88810553   -6.8211588    761.69823  0.027478291  0.027388536           10 
 2311000    0.8558642   -6.8430989    759.96634   0.02740395   0.02738104            9 
 2312000   0.87840189   -6.8267523    761.21978  0.027437276   0.02737353            4 
 2313000   0.87446695   -6.8321742    762.76269  0.027481002  0.027366082            8 
 2314000   0.87543549   -6.8400644    762.67363  0.027465919  0.027358571            7 
 2315000   0.87910865   -6.8245838    760.86762  0.027389043  0.027351093            9 
 2316000   0.87455944    -6.805561    762.18936  0.027424776  0.027343587            6 
 2317000   0.87064454   -6.8101463    762.14316  0.027411277  0.027336184            4 
 2318000     0.879522   -6.8373911    761.86564  0.027389475  0.027328792           14 
 2319000   0.89554328   -6.7956849    761.27112    0.0273563  0.027321338            5 
 2320000   0.89283726   -6.8158277    763.09615  0.027410063  0.027313856            9 
 2321000   0.88472528   -6.8017454    763.91053  0.027427493  0.027306358           12 
 2322000   0.90330987   -6.7785066    763.83773  0.027413068   0.02729889            5 
 2323000   0.87636384   -6.8203271    762.40286  0.027349794  0.027291415            4 
 2324000   0.87106816   -6.8290746    762.50901  0.027341832  0.027283882            5 
 2325000    0.8793828   -6.8439604    761.63932    0.0272989   0.02727639           15 
 2326000   0.87841818    -6.838562    760.49305  0.027246097  0.027268829           16 
 2327000   0.88083616   -6.7977587    763.59324  0.027345411  0.027261325            6 
 2328000   0.88193675   -6.8164382    764.73449  0.027374516  0.027253872            4 
 2329000   0.88529212   -6.8126748    763.58906  0.027321778  0.027246431            6 
 2330000    0.8740592   -6.8169808    762.57351  0.027273731  0.027238915            5 
 2331000   0.86435454   -6.8017587    763.34763  0.027289705  0.027231464            4 
 2332000   0.87699481   -6.8279008     762.6351  0.027252541  0.027223969            7 
 2333000   0.89957957   -6.8330986      763.657  0.027277361  0.027216501            6 
 2334000   0.87668464   -6.8469578    763.30143  0.027252979  0.027209081            8 
 2335000   0.87072064    -6.815298    766.33088  0.027349425  0.027201642            7 
 2336000    0.9045003   -6.8016137    765.83257   0.02731994   0.02719424            7 
 2337000   0.86462862   -6.8387102    763.91268   0.02723979  0.027186823            5 
 2338000   0.84282216   -6.8548231    763.65558  0.027218976  0.027179341            7 
 2339000   0.88865837   -6.8501718    763.77248  0.027211503  0.027171822            6 
 2340000   0.86795741   -6.8260601    764.92715  0.027240995  0.027164404            5 
 2341000   0.85931578      -6.8419    765.79827  0.027260368  0.027156964            6 
 2342000    0.8772984   -6.8093052    766.75061  0.027282615  0.027149591           21 
 2343000   0.88310132   -6.8519771    765.86657  0.027239528  0.027142116           15 
 2344000   0.86675917   -6.8260704    765.15074  0.027202458  0.027134649            8 
 2345000   0.89607466   -6.8293411    767.13298    0.0272613  0.027127241            3 
 2346000   0.88900896   -6.8292641    766.74208  0.027235794  0.027119832            6 
 2347000   0.87569775   -6.8288656    767.80176  0.027261815  0.027112469           13 
 2348000   0.87320518   -6.8140938    767.13183  0.027226428  0.027105143            4 
 2349000   0.88881715   -6.8370068    767.76717  0.027237376  0.027097811           10 
 2350000   0.88627012   -6.8352138    767.12148  0.027202889  0.027090481            7 
 2351000   0.88894704    -6.820318    767.94154  0.027220386  0.027083176            7 
 2352000   0.87839051   -6.8494407    768.21039  0.027218339  0.027075816           14 
 2353000   0.86425301   -6.8562821    768.21142  0.027206807  0.027068454            6 
 2354000    0.8675236   -6.8732896    766.16203    0.0271227  0.027061053            7 
 2355000    0.8882776   -6.8380331    765.26303  0.027079371   0.02705367            5 
 2356000   0.87806526   -6.8085502    767.91611  0.027161719  0.027046217            6 
 2357000   0.89819633   -6.8352152    768.36966   0.02716623  0.027038827            7 
 2358000   0.88033057   -6.8278474    770.68542   0.02723655  0.027031492            4 
 2359000   0.86563766   -6.8518259    766.88516  0.027090757  0.027024153            6 
 2360000   0.88250635    -6.816965    768.76632  0.027145703  0.027016827            6 
 2361000   0.88719155   -6.8240298      768.336  0.027119017  0.027009491           13 
 2362000   0.86728375   -6.8230676    770.04644  0.027167882  0.027002158            7 
 2363000   0.87527213   -6.8689038    769.03746  0.027120802  0.026994834            6 
 2364000   0.86915052   -6.8284667    770.46808   0.02715976  0.026987465           11 
 2365000   0.88141755   -6.8389623    767.94212  0.027059271  0.026980087            5 
 2366000   0.88021576   -6.8534107     767.2815  0.027024567  0.026972618            5 
 2367000   0.86444566   -6.8486427    769.06472   0.02707593  0.026965247            5 
 2368000   0.89353667   -6.8611409    769.01381  0.027062705  0.026957869            7 
 2369000   0.86604811   -6.8324307    768.84841  0.027045463  0.026950457            9 
 2370000   0.87868341   -6.8371628    769.91179  0.027071441  0.026943016           12 
 2371000   0.86892819   -6.8429024    770.39986  0.027077178   0.02693564           11 
 2372000   0.86287045   -6.8568709    768.32766  0.026992962  0.026928286            8 
 2373000   0.88197218   -6.8343601    770.27701  0.027050042  0.026920873            5 
 2374000   0.88789499   -6.8739483    770.20672  0.027036181  0.026913451            5 
 2375000   0.87407385    -6.839673    771.34277  0.027064658  0.026906035            4 
 2376000   0.86505835    -6.805928    770.78062  0.027033552  0.026898675           11 
 2377000   0.89452105   -6.8003544    771.16203   0.02703555  0.026891298            9 
 2378000   0.86857793   -6.8010421    769.30853  0.026959228  0.026883968            4 
 2379000   0.88513863   -6.8321203    770.72779  0.026997611  0.026876502            6 
 2380000    0.8721297   -6.8323842    771.40127  0.027009849  0.026869076            9 
 2381000   0.86215545   -6.8652298    768.69073  0.026903638  0.026861658           13 
 2382000    0.8722798   -6.8584459    769.60443  0.026924308  0.026854233            5 
 2383000     0.863244   -6.8415194    771.10372   0.02696544  0.026846899            4 
 2384000   0.87883985   -6.8485363    772.64024  0.027007838  0.026839489            9 
 2385000   0.87253154   -6.8398607    771.13506  0.026943922  0.026832105           10 
 2386000   0.87524983   -6.8689809    770.51965  0.026911136  0.026824726            9 
 2387000   0.87297341   -6.8737276    771.23659  0.026924892  0.026817338           11 
 2388000   0.85796032    -6.838952    771.24002  0.026913736  0.026809945            6 
 2389000   0.86010866   -6.8564494    769.94479   0.02685729  0.026802584            4 
 2390000    0.8574634    -6.833571    774.68315  0.027011268  0.026795221            6 
 2391000   0.86544662   -6.8440059    769.96721  0.026835606  0.026787816            4 
 2392000   0.86621543   -6.8206789    772.13513  0.026899914  0.026780453            3 
 2393000   0.86062859   -6.8575643    770.72476  0.026839558  0.026773089            9 
 2394000   0.86862657   -6.8335055    771.78747  0.026865339  0.026765695            9 
 2395000   0.86661837   -6.8385589    772.51193  0.026879329  0.026758337            4 
 2396000   0.88143379   -6.8639698    774.06618  0.026922168   0.02675092            6 
 2397000   0.86629631   -6.8325713    773.07843  0.026876597  0.026743546            6 
 2398000    0.8727329    -6.832764    774.02068  0.026898133  0.026736203            6 
 2399000    0.8692197    -6.851367    775.71362  0.026945728  0.026728848            4 
 2400000   0.85828602   -6.8608358    772.52253  0.026823699   0.02672147           14 
 2401000   0.87413006   -6.8390581    774.02959  0.026864834  0.026714058            6 
 2402000   0.85145578   -6.8464935    772.21941  0.026790848  0.026706704            4 
 2403000   0.85642032   -6.8278911    773.74999  0.026832778  0.026699291            6 
 2404000   0.86141885    -6.842679    774.91794  0.026862103  0.026691928            5 
 2405000   0.86774821   -6.8605205    772.45939  0.026765745  0.026684542            3 
 2406000   0.85996432    -6.866597    772.99354  0.026773121  0.026677146           22 
 2407000    0.8591205   -6.8549096    771.49451  0.026710099  0.026669691           13 
 2408000   0.87664939   -6.8821498     772.2947  0.026726699  0.026662254           10 
 2409000   0.85752318   -6.8453306    774.24484  0.026783065  0.026654829            6 
 2410000   0.87352049   -6.8430082    774.32187  0.026774615  0.026647451            4 
 2411000   0.86493602   -6.8881589    773.87338  0.026748009  0.026640063           11 
 2412000   0.85400071   -6.8860595    773.94307  0.026739326    0.0266327            7 
 2413000   0.87449162   -6.8554771    773.64692  0.026718018  0.026625307            9 
 2414000   0.86807398   -6.8653389    774.86661  0.026749054  0.026618017            8 
 2415000   0.86550398   -6.8622991    776.41897  0.026791545   0.02661073            9 
 2416000   0.85699628   -6.8736844    775.12962  0.026735983  0.026603404            4 
 2417000   0.86410304   -6.8563909    777.76064  0.026815634  0.026596075            6 
 2418000   0.85650352   -6.8255094    774.87803  0.026705198  0.026588779           12 
 2419000   0.87891902   -6.8493097    776.72808  0.026757892  0.026581486            6 
 2420000   0.85389108   -6.8388124    776.13765  0.026726503  0.026574195           15 
 2421000   0.86069363   -6.8456929    775.74511  0.026701952  0.026566898            8 
 2422000   0.86828108   -6.8730818    775.60271  0.026686028  0.026559614            7 
 2423000   0.85159106   -6.8865051    775.31974  0.026665282  0.026552288            8 
 2424000   0.88158875   -6.8881924    775.02412  0.026644118  0.026544986           21 
 2425000   0.84430243   -6.8871774    778.29603  0.026745568  0.026537691            5 
 2426000   0.86077786   -6.8523554    777.50178  0.026707261  0.026530468            8 
 2427000   0.87391467   -6.8442012    776.28588  0.026654508  0.026523215            4 
 2428000   0.84243785   -6.8576081    775.64953  0.026621689  0.026515903            7 
 2429000   0.84156897   -6.8483545    778.17701  0.026697441  0.026508622            5 
 2430000    0.8721397   -6.8880154    776.44636  0.026627104  0.026501337            8 
 2431000   0.86463533   -6.8874617    778.26974  0.026678656  0.026494077            9 
 2432000   0.88468372   -6.8611959    778.25791   0.02666728  0.026486787            7 
 2433000   0.88908697   -6.8611717    776.39489  0.026592509  0.026479458            9 
 2434000   0.86047235    -6.887329      775.563  0.026553102  0.026472107            9 
 2435000   0.87788174   -6.8720023    777.55925  0.026610515  0.026464771           11 
 2436000   0.86736425   -6.8653751    775.82853  0.026540385  0.026457451            7 
 2437000   0.86270529   -6.8402122    780.24898  0.026680652  0.026450129           14 
 2438000   0.86649531   -6.9054888    777.41131  0.026572714  0.026442762            5 
 2439000    0.8823039   -6.8345647    777.36482   0.02656023  0.026435387           13 
 2440000   0.87032338   -6.8525899    777.51189  0.026554368  0.026428074            7 
 2441000   0.83980237   -6.8517257    776.82963  0.026520198  0.026420763           10 
 2442000    0.8541217   -6.8824151    777.18407  0.026521433  0.026413433           12 
 2443000   0.84987962   -6.8611949    778.99532  0.026572361  0.026406097            9 
 2444000   0.85141464    -6.886537    777.70298  0.026517423  0.026398742            6 
 2445000   0.84739203   -6.8513614    775.99814  0.026448471  0.026391383           11 
 2446000   0.84514059   -6.8849238     778.0776  0.026508504  0.026384057            8 
 2447000   0.86017392   -6.8703643    778.22923  0.026502835  0.026376673            7 
 2448000   0.85660081   -6.8451079    778.17866  0.026490287    0.0263693            8 
 2449000   0.86244498   -6.8861227    778.50029  0.026490414  0.026362011            8 
 2450000   0.83713065   -6.8412163    779.57782  0.026516252  0.026354723            8 
 2451000   0.87121333   -6.8741433    780.21845  0.026527215  0.026347407           11 
 2452000   0.86898418   -6.8821745    777.80194  0.026434269  0.026340059            6 
 2453000   0.86181678   -6.8863006     778.5208  0.026447914  0.026332668           11 
 2454000   0.86489914   -6.9352975    778.50955  0.026436754   0.02632529            7 
 2455000   0.86644789   -6.8784069     778.5913  0.026428761  0.026317895           11 
 2456000   0.87218825   -6.8855056    779.47223  0.026447891   0.02631049            9 
 2457000   0.87235464   -6.8762138    778.76484  0.026413134  0.026303154            7 
 2458000   0.85205171   -6.8537326    780.12419  0.026448474  0.026295831            8 
 2459000   0.83673045   -6.9138809    778.99124  0.026399323  0.026288419            9 
 2460000   0.88882147   -6.8568293     779.6317  0.026410288  0.026281063            6 
 2461000   0.87325897   -6.8749954    781.49602  0.026462685  0.026273767            9 
 2462000   0.84058012   -6.8913225    780.63161  0.026422678   0.02626649            6 
 2463000   0.84734039   -6.8911733    780.40499  0.026404283  0.026259178            4 
 2464000   0.85493838   -6.8810968    781.37522   0.02642638   0.02625191           12 
 2465000    0.8625127   -6.8880816    781.27291  0.026412201  0.026244657            4 
 2466000   0.84894863   -6.8413021     782.6603  0.026448375  0.026237439            5 
 2467000   0.84481436    -6.874223    782.11953  0.026419387  0.026230209            7 
 2468000   0.85732266   -6.8561134    782.19703  0.026411299  0.026222974            5 
 2469000   0.85352622   -6.9032315    781.06304  0.026362328  0.026215764            6 
 2470000   0.86528331    -6.869282    782.35516  0.026395248  0.026208538            5 
 2471000   0.85647973   -6.8687331    781.70414  0.026362611  0.026201341            8 
 2472000   0.84068647   -6.8775202    783.61319  0.026416302    0.0261941            5 
 2473000   0.84143151   -6.9036772    782.59358  0.026371262  0.026186874            9 
 2474000   0.85160526   -6.8836275    782.62841  0.026361776  0.026179608            8 
 2475000   0.85674302   -6.9039597     780.1721  0.026268421  0.026172397            4 
 2476000   0.85350521   -6.8604003    783.17479  0.026358872  0.026165176            6 
 2477000   0.85366164    -6.892224    784.28168  0.026385469  0.026157969            6 
 2478000    0.8693534   -6.8965753      781.741   0.02628938  0.026150718            5 
 2479000   0.84330456   -6.8806201    784.94671  0.026386537  0.026143497            5 
 2480000   0.85435464   -6.8621903    782.43965  0.026291655  0.026136252            6 
 2481000   0.86187972   -6.8752282    783.89201  0.026329841  0.026129026            7 
 2482000   0.86212256   -6.8622104     781.8841  0.026251817  0.026121809           10 
 2483000   0.84263642   -6.8641294    781.67617  0.026234265  0.026114588            5 
 2484000   0.87206226   -6.9032869    785.81934  0.026362699  0.026107374            5 
 2485000   0.86390232   -6.8777914    783.99527  0.026290921  0.026100195            7 
 2486000    0.8534462    -6.868754    783.71557   0.02627097  0.026093063            6 
 2487000   0.84572351   -6.8487451    786.13784  0.026341571  0.026085962           12 
 2488000    0.8457022   -6.9034322    785.65092  0.026314674  0.026078868            5 
 2489000   0.83897859   -6.8514561    786.37035  0.026328189  0.026071819           16 
 2490000   0.85016097   -6.8948309    785.51993  0.026289154  0.026064773            6 
 2491000   0.86192852   -6.8941829    786.88253  0.026324185  0.026057726            9 
 2492000   0.85161067   -6.8841161    786.79258  0.026310613  0.026050688            5 
 2493000   0.86333287   -6.8995056    785.70313  0.026263643  0.026043521            5 
 2494000   0.87179685    -6.856594    786.39512  0.026276233  0.026036418            9 
 2495000   0.83514656   -6.8526571     785.6787  0.026241774  0.026029325            5 
 2496000   0.85033718   -6.8997586    784.83228  0.026203001  0.026022205           16 
 2497000   0.83210818    -6.894942    786.11978  0.026235475  0.026015066            3 
 2498000   0.85710366    -6.878661    787.11779  0.026258266  0.026007905            5 
 2499000   0.83859067   -6.8970108    785.46802  0.026192744   0.02600076            6 
 2500000   0.84733579   -6.8792167    786.02358  0.026200786  0.025993608            5 
 2501000   0.86309909   -6.8697147    788.01773  0.026256755  0.025986442            6 
 2502000   0.87293212   -6.8747759    785.84346  0.026173843   0.02597934            7 
 2503000   0.85461955   -6.8760231    786.49639  0.026185124  0.025972186            5 
 2504000   0.83738908    -6.901841    786.93557  0.026189283  0.025965056            5 
 2505000   0.85177639   -6.8947536    784.26579  0.026090013  0.025957903            9 
 2506000   0.83585333   -6.8632466    787.28465   0.02617999  0.025950748            9 
 2507000   0.82521514   -6.8765766    787.64985  0.026181686  0.025943676            8 
 2508000   0.85319901   -6.8719156    785.61509  0.026103638  0.025936544            4 
 2509000   0.84778631   -6.8556893    788.87205   0.02620141   0.02592947            7 
 2510000   0.84750056   -6.8820266    788.30719  0.026172217  0.025922345           11 
 2511000    0.8325141   -6.8827057    788.25067  0.026159919  0.025915237            9 
 2512000   0.85545296   -6.8827497    787.19386  0.026114446  0.025908165            8 
 2513000   0.85023655   -6.8768643    786.32652  0.026075293  0.025901097            6 
 2514000   0.87094537   -6.8693413    786.73029  0.026078304  0.025894022            9 
 2515000   0.84580897   -6.8710307    789.22667  0.026150652   0.02588695            4 
 2516000   0.85369848    -6.878592    788.05467   0.02610144  0.025879838           10 
 2517000   0.85711551   -6.8956244    787.96179  0.026087995   0.02587276           10 
 2518000   0.85088193   -6.8872998    787.67053  0.026067995  0.025865704           11 
 2519000   0.85916503   -6.8878433    789.52755   0.02611908  0.025858609            9 
 2520000   0.85758329   -6.9206582     787.6713  0.026047331  0.025851521            9 
 2521000   0.85957739   -6.8782582    790.88592  0.026143261   0.02584441            9 
 2522000   0.85177435   -6.9086468     786.7325  0.025995655  0.025837307            9 
 2523000   0.82770458   -6.9022605    786.70455  0.025984428  0.025830154           12 
 2524000   0.84515958   -6.8787228    788.49918  0.026033385  0.025823011           14 
 2525000   0.85607503   -6.8990287    788.30128  0.026016544  0.025815877           14 
 2526000   0.83443093   -6.8692182    789.79589  0.026055552  0.025808728            9 
 2527000   0.84214698   -6.9044042    789.02827  0.026019927  0.025801652            5 
 2528000   0.84499822   -6.9296271    788.61626  0.025996053  0.025794548           19 
 2529000   0.83178747   -6.8819856    789.07617  0.026000928  0.025787495            8 
 2530000   0.84750886    -6.905327    788.26484  0.025963927  0.025780396            9 
 2531000   0.85801344   -6.8866487    788.89161  0.025974306  0.025773306            7 
 2532000   0.84063765   -6.8737101    789.80055  0.025993962  0.025766217           13 
 2533000   0.84483284   -6.8867384    791.16101  0.026028458  0.025759105            8 
 2534000   0.86103421   -6.8933371    787.97491  0.025913408   0.02575201           10 
 2535000    0.8525537    -6.882143    790.76175  0.025994798  0.025744903            5 
 2536000   0.84933954   -6.8823413    787.60982  0.025880975  0.025737786            7 
 2537000   0.85835709   -6.9015131    788.11919  0.025887505  0.025730661            4 
 2538000   0.84292633   -6.9241704    791.82323  0.025998924  0.025723464            6 
 2539000     0.833338    -6.908123    790.26619   0.02593758  0.025716324            7 
 2540000    0.8368912   -6.8862129    790.88344   0.02594762  0.025709207            7 
 2541000   0.83370405   -6.9128616    790.19187  0.025914728  0.025702088            6 
 2542000   0.84936822   -6.9265478    790.24912   0.02590641  0.025694944           13 
 2543000   0.83725483   -6.9165963    790.32217  0.025898616  0.025687817            7 
 2544000   0.84611769   -6.9272477    790.89077  0.025907061   0.02568067           10 
 2545000   0.84238382   -6.8757116    791.40827  0.025913827  0.025673501           10 
 2546000   0.84849934   -6.9113889    791.19062  0.025896525  0.025666371           24 
 2547000   0.84388198   -6.8852749    791.34294  0.025891341   0.02565928           11 
 2548000   0.83305158   -6.9259228    790.75756  0.025862034  0.025652121           10 
 2549000   0.83756913   -6.9239292    788.94231  0.025792543   0.02564496            8 
 2550000   0.85873507   -6.8978362     788.8702  0.025780072  0.025637782            7 
 2551000   0.84096277   -6.9083218    791.81721  0.025866236  0.025630639           13 
 2552000   0.83910294    -6.904148    791.57796  0.025848287  0.025623555            5 
 2553000   0.85794042   -6.9070834    790.43298  0.025800789  0.025616398           11 
 2554000   0.83089806   -6.9137753    790.82206  0.025803382  0.025609263            7 
 2555000   0.84429576   -6.9140356    790.29751  0.025776175  0.025602089            8 
 2556000   0.86342473   -6.9017376    790.84295  0.025783873  0.025594945            7 
 2557000     0.836888   -6.9157834    790.02316  0.025747072  0.025587777            3 
 2558000   0.85436469   -6.9102369     791.4162  0.025782389  0.025580573           12 
 2559000   0.82283626   -6.9354475    792.48839  0.025807229  0.025573411            8 
 2560000   0.85522094   -6.8860867    792.49559  0.025797383  0.025566288            9 
 2561000   0.86280698   -6.8860466    792.91751  0.025801038  0.025559206            7 
 2562000   0.81913956   -6.8851493     791.5429  0.025746256  0.025552059            9 
 2563000   0.84586268    -6.923045     792.6792  0.025773156  0.025544929           10 
 2564000   0.85237628   -6.9221967    793.06609  0.025775679  0.025537755            8 
 2565000   0.82891931   -6.9210649    790.92208  0.025695974  0.025530567           12 
 2566000   0.86764148   -6.9404717     792.1699  0.025726484  0.025523403            7 
 2567000   0.84423862   -6.9351123    790.44098  0.025660336  0.025516265            4 
 2568000   0.84839069   -6.9220714    792.21893  0.025708039  0.025509105            5 
 2569000   0.85529927   -6.8829325    793.26481  0.025731958  0.025502029            4 
 2570000   0.83963746   -6.8641989    793.97118   0.02574485  0.025494977           12 
 2571000   0.84870213   -6.9170038      794.077  0.025738267  0.025487885            6 
 2572000   0.83039729   -6.9123732    793.95403  0.025724275  0.025480813           18 
 2573000   0.83909616   -6.9094908    792.59164  0.025670153  0.025473739            3 
 2574000   0.83373426   -6.9007369     793.6644  0.025694911  0.025466674            6 
 2575000    0.8240343   -6.8944905    794.58432  0.025714703  0.025459524           11 
 2576000   0.84230971   -6.9083466     793.2558  0.025661743  0.025452424           10 
 2577000   0.82744515    -6.875549    795.18589  0.025714199  0.025445308            6 
 2578000   0.83695512   -6.8838795    793.67017  0.025655229  0.025438179           11 
 2579000   0.83377589   -6.9143972    794.21331  0.025662832  0.025431113           13 
 2580000   0.83766335   -6.9085147    793.82543  0.025640356  0.025424003            4 
 2581000   0.83334435   -6.8880753    793.41879  0.025617293  0.025416921            6 
 2582000   0.83217487   -6.8977436    793.56111  0.025611964  0.025409887           11 
 2583000   0.84420393   -6.9012622    796.08181  0.025683372  0.025402902           10 
 2584000   0.83659232   -6.9268029    794.70879  0.025629153  0.025395909           13 
 2585000   0.84559431   -6.9079895    794.27918  0.025605389  0.025388832            5 
 2586000   0.85122748    -6.921647    793.81654  0.025580579  0.025381762            7 
 2587000   0.85252546   -6.9002683    795.04727  0.025610336  0.025374741            5 
 2588000    0.8510559   -6.8962171    797.67999  0.025685214  0.025367688            7 
 2589000   0.85910823   -6.9135621    796.06003   0.02562315  0.025360655           19 
 2590000   0.85148897   -6.9332571    795.14781  0.025583906  0.025353583            6 
 2591000   0.84835986   -6.9196821    796.37879  0.025613624  0.025346555           15 
 2592000   0.84191758   -6.9199204    797.25324  0.025631856  0.025339531            6 
 2593000   0.84672748   -6.8798214    796.07517   0.02558411  0.025332521            9 
 2594000   0.83882762   -6.9010503    796.53205  0.025588925  0.025325491            5 
 2595000   0.84583916   -6.9362052    796.70627  0.025584659  0.025318453           10 
 2596000   0.83088401   -6.9134801    796.89143  0.025580747   0.02531138           11 
 2597000   0.83810403   -6.9045998    795.02119  0.025510884  0.025304313            8 
 2598000   0.82912917   -6.9220602    794.08476  0.025471028  0.025297186           24 
 2599000   0.85325535   -6.9234358    795.23775  0.025498196  0.025290082            5 
 2600000   0.82999683   -6.9647711    795.16469  0.025486048  0.025282952            9 
 2601000   0.83630076   -6.9439432    796.05135  0.025504657  0.025275895            9 
 2602000   0.82664267   -6.9171799    798.20094  0.025563699  0.025268784           13 
 2603000   0.82366642    -6.939897    795.53107  0.025468404  0.025261703           11 
 2604000   0.82772493    -6.930142    796.97787  0.025504924  0.025254594           12 
 2605000    0.8408083   -6.9072845    795.70343  0.025454364  0.025247498           14 
 2606000   0.83817311   -6.9303119    796.00559  0.025454259  0.025240491           13 
 2607000   0.81757808   -6.9052633    796.72096  0.025467362    0.0252335            5 
 2608000   0.82733574   -6.9405132    797.50627   0.02548269  0.025226493            6 
 2609000   0.83046769    -6.932689    796.66034  0.025445903  0.025219435            8 
 2610000   0.83584282   -6.9418353    795.99255  0.025414832  0.025212362            9 
 2611000   0.82259529    -6.901319    796.48256  0.025420738  0.025205301            7 
 2612000   0.82634387   -6.9197578     797.4798  0.025442822  0.025198277            4 
 2613000   0.83957782    -6.918333    798.57136  0.025467897  0.025191284           12 
 2614000   0.83221916   -6.9359918    797.39128  0.025420533  0.025184243           19 
 2615000   0.82897294   -6.9318085     798.2775  0.025439054   0.02517719            7 
 2616000   0.81770662   -6.9433358    797.73635  0.025412091  0.025170159           20 
 2617000   0.85317079   -6.9322801    797.19452  0.025385127  0.025163154            5 
 2618000   0.84025698   -6.9374742     799.0826   0.02543553  0.025156143            6 
 2619000   0.83564382   -6.9076563    798.64792  0.025411987  0.025149126           15 
 2620000    0.8299638   -6.9442258    798.98141  0.025412895  0.025142118           17 
 2621000   0.81924892   -6.9390603    799.17709   0.02540942   0.02513506            5 
 2622000   0.82238698   -6.9087718    799.17032  0.025399515  0.025128018            9 
 2623000   0.82730671   -6.9180816    797.76131  0.025345066  0.025120957            8 
 2624000   0.85484373   -6.9176922    796.98937  0.025310892  0.025113898            5 
 2625000   0.82450132    -6.935252    798.99349  0.025364873  0.025106849            6 
 2626000   0.83338737   -6.9073547    797.33599  0.025302615  0.025099812           11 
 2627000   0.83453388   -6.8967226     800.4862  0.025392913  0.025092751            7 
 2628000   0.83868577   -6.9381675    798.45777   0.02531893   0.02508567           11 
 2629000   0.82501398   -6.9408876    798.64268   0.02531516  0.025078621           18 
 2630000   0.83182484   -6.9437962    797.73584  0.025276801  0.025071594            9 
 2631000   0.81826284   -6.9709513    800.11022  0.025342399  0.025064546            5 
 2632000   0.81847496   -6.9093554    799.77282  0.025322088  0.025057498            9 
 2633000   0.83776673   -6.9154738    799.71909   0.02531077  0.025050428            5 
 2634000   0.84026812   -6.9116547    801.14675  0.025346329  0.025043385            7 
 2635000   0.81437369   -6.9309494    797.89364  0.025233828  0.025036313            5 
 2636000   0.84624563   -6.9334731    799.32663  0.025269557  0.025029256           18 
 2637000   0.82422979   -6.9625857      799.126  0.025253634  0.025022193           22 
 2638000   0.82526205   -6.9427878    798.34673  0.025219444  0.025015114           11 
 2639000   0.82326313   -6.9241199    798.32768  0.025209286  0.025008055            8 
 2640000   0.82017845   -6.9288358    800.57427  0.025270652  0.025000998            8 
 2641000   0.83030492   -6.9043051    800.70318  0.025265151  0.024994002            6 
 2642000   0.82300596   -6.9490796    800.22784  0.025240596  0.024986986            6 
 2643000   0.84056571   -6.9241457    800.09032   0.02522671   0.02497994           11 
 2644000   0.84807328    -6.943141     798.7425  0.025174688  0.024972916            9 
 2645000   0.83200316   -6.9286797    800.23944  0.025212333  0.024965851           14 
 2646000   0.82721581   -6.9582059    800.94481  0.025225019   0.02495883            8 
 2647000   0.84594316   -6.9537383    801.75481   0.02524099   0.02495182            4 
 2648000   0.82367822   -6.9413537    801.50906  0.025223724  0.024944857           10 
 2649000   0.84221021   -6.9315432    801.68213  0.025219647  0.024937926           22 
 2650000   0.82435971   -6.9821778    801.29163   0.02519785   0.02493093            9 
 2651000   0.81275245   -6.9239209    801.64269  0.025199381  0.024923965           15 
 2652000   0.81910628   -6.9407018    801.36369  0.025181111  0.024917019            7 
 2653000   0.83317299   -6.9306038    802.98727  0.025222618  0.024910072           10 
 2654000   0.81015721   -6.9483306    802.17207  0.025187518  0.024903149            6 
 2655000   0.84080702   -6.8875064    802.33871  0.025183261  0.024896251            9 
 2656000   0.83046985   -6.9091547    803.07385  0.025196845  0.024889369            7 
 2657000   0.82541942   -6.9330688    802.70432  0.025175772  0.024882459           16 
 2658000   0.82966048    -6.939409    801.98732  0.025143821  0.024875548            7 
 2659000    0.8189842   -6.9423836    804.47394  0.025212296  0.024868702           11 
 2660000   0.84112543   -6.9497912    803.85431  0.025183406  0.024861791            7 
 2661000   0.82344051    -6.926031    802.62423   0.02513542  0.024854879           12 
 2662000   0.82513698   -6.9498192    804.22741  0.025176165  0.024848018            6 
 2663000   0.82177768   -6.9585942    804.01278  0.025159994  0.024841202           19 
 2664000   0.81029112   -6.9667016    804.65897  0.025170763   0.02483433            7 
 2665000   0.83000761   -6.9269352    805.08508  0.025174643  0.024827466            7 
 2666000   0.81731095   -6.9491837     804.7936  0.025156089  0.024820652            4 
 2667000   0.83402806   -6.9294763    805.91906  0.025181823  0.024813823            7 
 2668000   0.83548983   -6.9791822    804.97195  0.025142802  0.024806979            3 
 2669000   0.81515147   -6.9374648    805.61413  0.025153432   0.02480015            7 
 2670000   0.82250861   -6.9180158    806.94744  0.025185626  0.024793393            9 
 2671000   0.81365272    -6.929533    805.25605  0.025123426  0.024786662            7 
 2672000   0.83388676   -6.9528956    805.91303  0.025134513  0.024779898            5 
 2673000    0.8133203   -6.9099352    806.38501  0.025139824  0.024773159            4 
 2674000   0.81899661   -6.9330936    806.49024  0.025133702   0.02476641            4 
 2675000   0.81089954   -6.9320695    804.43596   0.02506031  0.024759676           10 
 2676000   0.83385334   -6.9418658     805.6165  0.025087709   0.02475296           12 
 2677000   0.81865232   -6.9454685     807.7055  0.025143366  0.024746273            9 
 2678000   0.82837363   -6.9360216    807.09954  0.025115121  0.024739563           14 
 2679000   0.83579428   -6.9288109    808.61972  0.025153033  0.024732911           11 
 2680000   0.82740328   -6.9364488    807.07363  0.025095573  0.024726256           15 
 2681000   0.82848438   -6.9342294    808.86324  0.025141839  0.024719581           10 
 2682000   0.81755273   -6.9548539    807.30887  0.025084168  0.024712878            5 
 2683000   0.82826427   -6.9589375    808.46725  0.025110798  0.024706164            4 
 2684000   0.79755424    -6.950487    807.55965  0.025073263   0.02469944            8 
 2685000   0.83483751   -6.9515349    806.21665  0.025022242  0.024692688            6 
 2686000   0.81591997   -6.9190724    807.46579  0.025051681   0.02468597            6 
 2687000   0.80485396   -6.9128027    809.24976  0.025097685  0.024679241            9 
 2688000   0.81824819   -6.9550007    806.02283  0.024988307  0.024672512           10 
 2689000   0.82511771   -6.9305832    807.02201  0.025009979  0.024665737            9 
 2690000   0.80771772   -6.9472717    807.75539  0.025023401  0.024658981           11 
 2691000   0.82149948    -6.951901    809.35467  0.025063628  0.024652179           12 
 2692000   0.80497646   -6.9411188    807.70166  0.025003147  0.024645392           11 
 2693000   0.82690158   -6.9605112    807.63764  0.024991882  0.024638602           17 
 2694000   0.82249371   -6.9879581    808.59876  0.025012335  0.024631861            6 
 2695000    0.8448764   -6.9257826    808.86488  0.025011283   0.02462511            9 
 2696000   0.82074264   -6.9579321    809.37499  0.025017773  0.024618344           10 
 2697000   0.82236572   -6.9724454    808.50544  0.024981629   0.02461158           15 
 2698000   0.83064185   -6.9741893    810.87252  0.025045482  0.024604811            5 
 2699000   0.82326776   -6.9372926    808.58849  0.024965681  0.024598079            7 
 2700000   0.82311463   -6.9323098    810.90585  0.025027958  0.024591368            7 
 2701000   0.81706276   -6.9809126    807.23197  0.024905343  0.024584662            4 
 2702000   0.81842646   -6.9517294    809.14239  0.024955045  0.024577916            8 
 2703000   0.82120532   -6.9380948    809.42303  0.024954465  0.024571183            7 
 2704000    0.8287148   -6.9499317    808.89563  0.024928983  0.024564466           10 
 2705000   0.81744537   -6.9588509    809.44092  0.024936566  0.024557709            6 
 2706000   0.81697431   -6.9691582    807.76845  0.024875845  0.024550945            7 
 2707000   0.82810034   -6.9149253    811.59563  0.024984473  0.024544224            7 
 2708000    0.8222848   -6.9568978     810.9327  0.024954847  0.024537554           15 
 2709000   0.80895456   -6.9777603    808.31524  0.024865117  0.024530835            9 
 2710000   0.81476193   -6.9356071    811.75005  0.024961564  0.024524163           16 
 2711000   0.81562362   -6.9588334     812.0677  0.024962121  0.024517553           13 
 2712000   0.82356634   -6.9396814    811.04413  0.024921464  0.024510913            5 
 2713000   0.83074876   -6.9279148    811.46366  0.024925165  0.024504254            8 
 2714000   0.81901885    -6.936008    811.16026  0.024906665  0.024497599            6 
 2715000   0.80925081   -6.9665869    810.98626   0.02489215  0.024490909            4 
 2716000   0.83659371   -6.9580156    808.51509  0.024807164  0.024484233            7 
 2717000   0.79716995   -6.9296505     810.5449   0.02486029  0.024477538            7 
 2718000   0.81591504   -6.9655769    811.13524  0.024869243  0.024470812            6 
 2719000   0.80664214   -6.9705164    810.44059  0.024838807  0.024464076           18 
 2720000   0.80287437   -6.9753211    810.22028  0.024822925  0.024457362           20 
 2721000   0.81515805   -6.9591462    810.36193  0.024818141   0.02445064           10 
 2722000   0.80607766   -6.9502678    811.11564  0.024832098  0.024443922            7 
 2723000   0.81787035   -6.9560332    812.46128   0.02486416  0.024437188           14 
 2724000   0.82351355   -6.9671777    810.42707  0.024792801  0.024430455           10 
 2725000   0.82638853   -6.9502167    811.51128  0.024816859  0.024423762            8 
 2726000   0.80604829   -6.9718036    811.51324  0.024807815  0.024417057           11 
 2727000   0.79759754    -6.974528    811.70632  0.024804618  0.024410338            6 
 2728000   0.81090414   -6.9792044    810.17594  0.024748776  0.024403574           11 
 2729000   0.81524717   -6.9494408    812.75424  0.024818439   0.02439683            4 
 2730000   0.80550021   -6.9608785    810.00126  0.024725313  0.024390053           14 
 2731000    0.8303527   -6.9823788    809.40789  0.024698154    0.0243833           10 
 2732000   0.81356716   -6.9485666     811.5801  0.024755372  0.024376548            7 
 2733000   0.81006242   -6.9809259    811.03197    0.0247296  0.024369807            8 
 2734000   0.79667983   -6.9736608    810.37146  0.024700423  0.024363042           14 
 2735000   0.81349561   -6.9829231    811.97462  0.024740238  0.024356295           10 
 2736000   0.81908349   -6.9854779    809.60638  0.024659064  0.024349524            5 
 2737000   0.80310779   -6.9681037    810.37288  0.024673392   0.02434276           19 
 2738000   0.80617493   -6.9379355    811.20768  0.024689788  0.024336015            4 
 2739000   0.81588911   -6.9518331    812.13716  0.024709053  0.024329291            4 
 2740000   0.84097142   -6.9566611    811.92461  0.024693571  0.024322517            6 
 2741000   0.81503311   -6.9750068    812.36657  0.024697998  0.024315755            5 
 2742000   0.82653955   -6.9460911    812.17014  0.024683022  0.024309023            6 
 2743000   0.78779696   -6.9563808    810.75305  0.024630971  0.024302253            3 
 2744000   0.79559618   -6.9830013    810.63838  0.024618513  0.024295491            7 
 2745000    0.8119518   -6.9608976    812.07939  0.024653291  0.024288751           25 
 2746000   0.81152133   -6.9559096    812.19281  0.024647754  0.024282004           20 
 2747000   0.83141058   -6.9529574    812.73598   0.02465526  0.024275263           14 
 2748000   0.81492924   -6.9682735    811.30163  0.024602791  0.024268514            9 
 2749000   0.82450521   -6.9643291    811.81231  0.024609322   0.02426175           17 
 2750000   0.82423018   -6.9746521    811.95294  0.024604635  0.024254945           10 
 2751000   0.80363484   -6.9774787    812.63337  0.024616302  0.024248227           10 
 2752000   0.83244817   -6.9790262    812.43263  0.024601279  0.024241464            9 
 2753000   0.81509674   -6.9506286    811.97071   0.02457836  0.024234712            6 
 2754000    0.8215949   -6.9601943    811.56681  0.024557214  0.024227965           15 
 2755000   0.80261008   -6.9857383    814.56033  0.024638848  0.024221227            6 
 2756000   0.82544219   -6.9656469    812.65068  0.024572166   0.02421449            8 
 2757000   0.81991169    -6.955215    813.23764  0.024580995  0.024207791            8 
 2758000   0.79841162   -6.9752816    814.83305  0.024620288  0.024201016            9 
 2759000   0.79149942   -6.9347582    811.62493  0.024514466  0.024194275           13 
 2760000   0.81080215   -6.9624182    813.31524   0.02455662  0.024187518           10 
 2761000   0.79697032   -6.9541653    812.39379  0.024519914  0.024180766           10 
 2762000   0.81648168   -6.9495535     812.4116  0.024511574  0.024174006           13 
 2763000    0.8047783   -6.9735649    812.64942  0.024509875  0.024167228            8 
 2764000   0.81412584   -6.9771018    812.86139  0.024507398  0.024160425           11 
 2765000   0.81991974   -6.9682105    812.18728  0.024478218  0.024153652            7 
 2766000   0.80954193   -6.9681252    813.85439  0.024519595  0.024146877            9 
 2767000    0.8174312   -6.9907457    813.61258  0.024503451  0.024140108           14 
 2768000   0.82102207   -6.9791737    813.83142  0.024501187  0.024133317            6 
 2769000   0.80306132   -6.9663963    812.21358  0.024443649  0.024126536           10 
 2770000   0.80677544   -6.9742944    813.45808  0.024472265  0.024119763            9 
 2771000   0.81288973   -6.9626804     814.5349  0.024495817  0.024113006           11 
 2772000   0.82216178    -6.980102    814.30604    0.0244801  0.024106268           11 
 2773000   0.81496998   -6.9698237    814.25114  0.024469622  0.024099519           11 
 2774000   0.82589151   -6.9712447    813.25615   0.02443091  0.024092815           11 
 2775000    0.8213894   -6.9879175    812.29617  0.024393278  0.024086119            8 
 2776000    0.8091867   -6.9831006    813.79232  0.024429404  0.024079392            6 
 2777000   0.80388512   -6.9621365    814.02591  0.024427617  0.024072664           14 
 2778000   0.78941561   -6.9837164    814.44519  0.024431401  0.024065944           11 
 2779000   0.80575095   -6.9563489     815.3159   0.02444872   0.02405926            6 
 2780000   0.79035983   -6.9652234    814.24219  0.024407739  0.024052572            8 
 2781000   0.81405925   -6.9939998    813.96565  0.024390676  0.024045882           10 
 2782000    0.8107494   -6.9973912    815.09919  0.024415864  0.024039159            4 
 2783000   0.82197976   -6.9850485    814.00896  0.024374445  0.024032385            9 
 2784000   0.79997216   -6.9966492    814.29555  0.024374268   0.02402568            7 
 2785000   0.83081521   -6.9765091    815.12021  0.024390192  0.024018984           19 
 2786000   0.81955727   -6.9789346     815.2928    0.0243866  0.024012279           12 
 2787000   0.80940544   -6.9855373    814.77447  0.024362351  0.024005581           18 
 2788000   0.78101512   -6.9662938    815.06485  0.024362292  0.023998836           10 
 2789000   0.80854102    -6.994952    814.17298  0.024326909  0.023992095           12 
 2790000   0.80844785   -6.9891099    813.62541  0.024301834   0.02398535           11 
 2791000   0.80107007   -6.9668724    815.10636  0.024337345  0.023978609            9 
 2792000   0.82691902   -6.9850907    815.59541  0.024343225  0.023971905           18 
 2793000   0.81237305   -6.9889796    815.66845  0.024336688  0.023965211            8 
 2794000   0.79393943   -7.0052907    813.20412  0.024254477  0.023958472           15 
 2795000    0.8043441   -6.9823524    815.36537  0.024310238  0.023951713           10 
 2796000   0.78429559   -7.0026804    816.05189  0.024322004   0.02394496           10 
 2797000   0.79677167   -6.9682864    814.70329  0.024273129  0.023938223           10 
 2798000   0.81349413   -6.9559927    818.15692  0.024367314  0.023931516            8 
 2799000   0.80410811   -6.9759719    817.84075  0.024349195  0.023924826            9 
 2800000   0.80438053   -6.9909511    817.24064  0.024322638  0.023918164            7 
 2801000   0.80898266   -6.9799591    815.77497  0.024270349  0.023911475            5 
 2802000   0.82558727   -6.9807787    816.83187   0.02429312  0.023904798            7 
 2803000   0.80747519    -7.005832     816.2718  0.024267802  0.023898095           12 
 2804000   0.80942334   -6.9831395    816.17444  0.024256254  0.023891391            9 
 2805000   0.80306242   -6.9932686    817.37773  0.024283355  0.023884719            8 
 2806000   0.80300243   -6.9974832    814.90733  0.024201334  0.023878051           13 
 2807000   0.79656837    -6.987572    817.11026  0.024258113  0.023871339           11 
 2808000   0.81556568   -6.9933907    816.20811    0.0242227  0.023864665            7 
 2809000   0.80721637   -6.9755419    816.88579  0.024234181  0.023857998           21 
 2810000   0.81002632    -6.982625     818.3915  0.024270211  0.023851348            9 
 2811000    0.8014047   -6.9814028    815.63711  0.024179922  0.023844711           21 
 2812000   0.81026256   -6.9669652    817.43882  0.024224716  0.023838054           11 
 2813000   0.81389673   -6.9792602    818.37826  0.024243935  0.023831442            6 
 2814000   0.80220366    -6.992515    818.62757  0.024242702  0.023824808            7 
 2815000   0.78438561   -6.9927649    818.28444  0.024223932  0.023818191            6 
 2816000   0.80589826   -6.9879764    818.48566  0.024221285  0.023811578            5 
 2817000   0.81163617   -6.9685935    819.60657  0.024245846  0.023804999            5 
 2818000   0.78544804   -6.9859688    819.13615  0.024223331  0.023798383            7 
 2819000   0.78936183    -6.996759      818.792  0.024204564   0.02379176           19 
 2820000   0.78866274   -7.0042925    818.51064  0.024187667  0.023785086           11 
 2821000   0.81525595   -6.9812012    817.46259  0.024148133  0.023778398            9 
 2822000   0.81290057   -7.0052037     820.2889  0.024223036  0.023771733            5 
 2823000   0.80552671   -6.9947357    818.64892  0.024166044  0.023765086            8 
 2824000   0.80274767   -7.0028192    819.79593  0.024191334  0.023758401           12 
 2825000   0.77859509   -6.9729298    818.04223  0.024131039  0.023751742            7 
 2826000    0.7974342   -6.9857171    818.45928  0.024134798  0.023745042            4 
 2827000   0.79397242   -6.9982721    817.49056  0.024097706  0.023738351           12 
 2828000   0.79613243   -6.9802633    818.16549  0.024109073  0.023731676            6 
 2829000   0.80250688   -7.0073531    817.70161  0.024086886  0.023724988            7 
 2830000    0.7920601   -7.0300522    818.42815  0.024099769  0.023718251            9 
 2831000   0.79554909   -6.9978183    817.35898  0.024059784  0.023711525           11 
 2832000   0.79977914   -6.9877199    820.08501  0.024131503  0.023704826           11 
 2833000   0.79244724   -7.0142677    817.44405  0.024045301  0.023698132            8 
 2834000   0.81340571   -7.0052599    818.40696  0.024065131  0.023691434            9 
 2835000   0.80119553   -6.9970967    818.92642  0.024071911  0.023684732            6 
 2836000   0.81090948   -7.0004935     819.4755  0.024079558  0.023678078            9 
 2837000   0.80947936   -6.9541749    819.21818  0.024063511  0.023671402           23 
 2838000   0.79379871    -7.005527    819.41103  0.024060695  0.023664727            3 
 2839000   0.81297511   -6.9883214    819.24705  0.024047407   0.02365804            6 
 2840000   0.78177001   -6.9925028    818.79633  0.024025714  0.023651359            7 
 2841000   0.80231169   -7.0025836     818.3948  0.024005479  0.023644666            7 
 2842000   0.81068761   -6.9929256    817.40854  0.023968113  0.023637962            5 
 2843000   0.78474593   -7.0025534    819.79866  0.024029741   0.02363125           11 
 2844000   0.78802247   -7.0133865    820.14861  0.024031546  0.023624566           15 
 2845000   0.82956425   -6.9903076    820.64183  0.024037546  0.023617878           16 
 2846000   0.79246353   -7.0133893    818.89985  0.023978094  0.023611191            5 
 2847000   0.80502467   -7.0288769     819.1312  0.023976443  0.023604528            7 
 2848000   0.79833218   -7.0140088    820.30256  0.024002299  0.023597813           10 
 2849000    0.7853785   -6.9993592    822.06253  0.024045353  0.023591151           35 
 2850000    0.8042273   -6.9879434     820.4083  0.023988547  0.023584514           16 
 2851000   0.80857862   -7.0070752    819.20628  0.023944998  0.023577869            7 
 2852000   0.80272629   -6.9819346     821.1388  0.023993069  0.023571251            9 
 2853000   0.78736191      -7.0166    820.22904  0.023958086  0.023564624           10 
 2854000   0.79031611   -6.9871591    821.30178  0.023981014  0.023557944           15 
 2855000   0.77665626   -6.9814407    820.72667  0.023955828  0.023551325           10 
 2856000   0.78631456   -7.0133876    820.09314  0.023928955  0.023544693           14 
 2857000   0.80066991   -7.0126286     820.9964  0.023946926  0.023538109           12 
 2858000   0.79026438   -7.0149019    820.34231  0.023919475  0.023531464           10 
 2859000   0.77857902   -6.9814083    821.38731  0.023941568  0.023524801            8 
 2860000   0.79504276   -6.9717543    821.52073  0.023937084  0.023518194            4 
 2861000   0.77786829   -7.0128817    821.46888  0.023927207  0.023511596           11 
 2862000   0.79167039   -7.0087138    821.28045   0.02391336  0.023504967            9 
 2863000   0.78489768   -7.0091197    820.77911  0.023890415  0.023498342           12 
 2864000   0.78416546   -6.9860162    820.91003  0.023885883  0.023491721           14 
 2865000   0.78824563    -7.009448    820.45861  0.023864416  0.023485077           16 
 2866000   0.78986569   -7.0081592    820.02398  0.023843451  0.023478455            8 
 2867000   0.79176537   -6.9937554    819.90401  0.023831648  0.023471796            4 
 2868000    0.7817801   -7.0042957    819.35138  0.023807281  0.023465175           19 
 2869000   0.81229715   -7.0397956    821.66757  0.023866259  0.023458552            7 
 2870000   0.78189482   -6.9777202    820.46222  0.023822945  0.023451915            3 
 2871000   0.80832581   -7.0068325    821.34594  0.023840298  0.023445313            8 
 2872000   0.79662673   -7.0093609    821.74178  0.023843483  0.023438656            4 
 2873000    0.7929396   -6.9920049    822.87515  0.023868057  0.023431979           17 
 2874000   0.78774076   -7.0184624    821.64151  0.023823983  0.023425326           11 
 2875000   0.79134171   -7.0163491    821.19877  0.023802863  0.023418702           10 
 2876000   0.77342998   -7.0217012    821.58243  0.023805703   0.02341207           10 
 2877000   0.77898769   -6.9787466    822.63674  0.023827967  0.023405467           13 
 2878000   0.79492666   -7.0177087    819.68651  0.023734263  0.023398823           11 
 2879000    0.8049334    -7.010806    821.08177  0.023766405  0.023392195            6 
 2880000   0.80657186   -7.0193198    820.29945  0.023735516  0.023385522           11 
 2881000   0.78243596   -7.0322991    820.50351   0.02373318  0.023378844           10 
 2882000   0.80893772   -6.9989573    823.80089  0.023820289  0.023372209            4 
 2883000   0.80219009   -7.0070358    821.22558  0.023737588  0.023365586           22 
 2884000   0.78955534   -7.0352927    819.69481  0.023685125  0.023358972           32 
 2885000   0.79380877   -7.0171574    819.27713  0.023664851  0.023352277           15 
 2886000   0.77405389   -7.0341381    821.01417  0.023706808  0.023345599           19 
 2887000   0.78900724   -7.0250868    822.57422  0.023743627  0.023338918           13 
 2888000   0.79935612   -7.0265442    823.09933  0.023750558  0.023332283           10 
 2889000   0.81558714   -6.9974712    821.50917  0.023696469   0.02332566           13 
 2890000   0.78671115    -7.018206    821.38897  0.023684803  0.023319053           14 
 2891000   0.78201369   -7.0216476    823.22697  0.023729591  0.023312412           13 
 2892000   0.79840541   -7.0271013    820.10373  0.023631389  0.023305768            5 
 2893000   0.77932083   -7.0265236    821.00704  0.023649241  0.023299106            9 
 2894000   0.78023916   -7.0245381    822.38484  0.023680743  0.023292457            5 
 2895000   0.79073103   -7.0308455    821.56761  0.023649039  0.023285776            8 
 2896000   0.76155603   -6.9891267    823.35208  0.023692222   0.02327916            3 
 2897000   0.81198023   -7.0116995    822.31894  0.023654325  0.023272553            6 
 2898000   0.78698478    -7.016853    822.45341  0.023650029  0.023265946            8 
 2899000   0.79850797   -7.0390301    823.62765  0.023675625  0.023259314           11 
 2900000   0.77657763   -7.0133025    821.73922  0.023613196  0.023252701           11 
 2901000   0.79279268   -7.0439823    821.96365  0.023611503    0.0232461            8 
 2902000   0.78961389    -7.028768     821.9139  0.023601938   0.02323945            7 
 2903000   0.79777269   -7.0306827    822.46059  0.023609501  0.023232795            8 
 2904000   0.78757805   -7.0227038    823.81968  0.023640372  0.023226153            7 
 2905000   0.79045436    -7.012176    821.47116  0.023564864  0.023219508            6 
 2906000   0.77553867   -6.9828516    824.46389  0.023642575  0.023212919           11 
 2907000   0.77677119   -7.0224156    823.06997  0.023594484  0.023206293            7 
 2908000   0.80631442   -7.0109137     823.3459  0.023594277  0.023199686           18 
 2909000   0.77673883   -6.9996182     823.3515  0.023586327  0.023193074            4 
 2910000   0.77721199   -7.0191734    825.92686  0.023651972  0.023186463            8 
 2911000   0.77800092   -7.0475027    823.56521   0.02357624  0.023179843           12 
 2912000   0.77694044   -7.0101763    826.56379  0.023653955  0.023173253            9 
 2913000   0.78273277   -7.0153269    823.14282  0.023547969  0.023166673            3 
 2914000   0.77577119   -7.0288215    822.70637  0.023527407  0.023160025            4 
 2915000    0.7645552   -7.0430514    821.74303  0.023491796  0.023153382            6 
 2916000   0.79247798    -7.056157    823.55266  0.023535456   0.02314674            9 
 2917000   0.77527785   -7.0386437    823.31152  0.023520498  0.023140076            8 
 2918000    0.7807556   -7.0506209    822.77252  0.023497045  0.023133422           15 
 2919000   0.77600561   -7.0143484    823.53894  0.023510875  0.023126776            9 
 2920000   0.79000888   -7.0180345    825.22555  0.023550957   0.02312016           19 
 2921000   0.79063312   -7.0119765     826.9688  0.023592628  0.023113565           11 
 2922000   0.78741806    -7.040501    825.44961  0.023541228  0.023106959            9 
 2923000   0.77632536   -7.0387142    824.48426  0.023505652  0.023100359           16 
 2924000     0.788386   -6.9952863    823.42039  0.023467293  0.023093762           12 
 2925000   0.78876259   -7.0250782    823.61114  0.023464705  0.023087177            9 
 2926000   0.77868398    -7.034684    823.59638  0.023456265  0.023080606            5 
 2927000   0.77907156   -7.0365823    827.49149  0.023559147  0.023074052            5 
 2928000     0.780304   -7.0558719     824.9475  0.023478697  0.023067502            8 
 2929000   0.79149452   -7.0458684    824.04797  0.023445088  0.023060944            8 
 2930000   0.77577576    -7.043309    825.71683  0.023484552  0.023054375           10 
 2931000   0.78761475   -7.0411046     825.9415  0.023482927  0.023047777            9 
 2932000   0.78294275   -7.0245753    824.99137  0.023447913  0.023041197           17 
 2933000   0.79144011   -7.0192046    824.22136  0.023418041  0.023034601           16 
 2934000   0.79422645   -7.0180456    824.82364  0.023427165  0.023028012           12 
 2935000   0.77558055   -7.0345683    826.15047  0.023456856  0.023021463           17 
 2936000   0.78825297   -7.0052324    824.56376  0.023403831  0.023014917           11 
 2937000    0.7814516    -7.035327    828.84926  0.023517457  0.023008372            7 
 2938000   0.79673801   -6.9857473    826.96937  0.023456131  0.023001818            4 
 2939000   0.76634071   -7.0437771    825.84024  0.023416135  0.022995278            7 
 2940000   0.77679005   -7.0440061    825.73033  0.023405055  0.022988727           10 
 2941000   0.79201202    -7.056457    824.86511  0.023372581  0.022982135           14 
 2942000   0.77760576    -7.017863    826.30723  0.023405485  0.022975574           15 
 2943000   0.78354525   -7.0354322    827.29928  0.023425622  0.022969021            6 
 2944000   0.77140832     -7.05433    825.85613  0.023376815  0.022962463           11 
 2945000   0.75706967    -7.049702    826.10645  0.023375961  0.022955923            9 
 2946000   0.79102355   -7.0346382    826.87615  0.023389798  0.022949387           10 
 2947000   0.79109055   -7.0224439    827.71505  0.023405583  0.022942866            9 
 2948000   0.78055245   -7.0128618    827.76689  0.023399109  0.022936403            5 
 2949000   0.77772326   -7.0407945    827.32973  0.023378821   0.02292991            9 
 2950000   0.78446523   -7.0241108     826.9165  0.023359223  0.022923408            5 
 2951000   0.76854262   -7.0678318    826.79608  0.023347907  0.022916865           16 
 2952000      0.77901   -7.0116051    829.09344  0.023404851  0.022910394           20 
 2953000   0.74959855   -7.0364991    827.65218  0.023356253  0.022903923            7 
 2954000   0.76988747   -7.0505494    827.61559  0.023347314  0.022897424            7 
 2955000   0.77018989   -7.0477977    828.10877  0.023353321  0.022890962            8 
 2956000   0.77489482   -7.0264972    828.19787  0.023347933  0.022884509           13 
 2957000   0.77158816   -7.0612155    828.78116  0.023356475  0.022878065           20 
 2958000   0.77382457   -7.0722822    828.28312  0.023334548  0.022871578            9 
 2959000   0.79186174   -7.0380413    829.63268  0.023364669  0.022865134           25 
 2960000   0.79639468   -7.0289736    828.83877  0.023334425  0.022858698           14 
 2961000   0.76524551   -6.9845982    828.01073   0.02330324  0.022852266            7 
 2962000   0.76063521    -7.030848    828.93359  0.023321337  0.022845799            8 
 2963000     0.779317   -7.0293963    827.87568  0.023283713  0.022839348            9 
 2964000   0.78446716   -7.0525707    830.37556  0.023346141  0.022832917            9 
 2965000   0.77223258   -7.0260176    829.38069  0.023310306   0.02282651            9 
 2966000   0.78396308   -7.0253657    829.92789  0.023317821  0.022820121            7 
 2967000   0.79332372   -7.0386226    826.78279  0.023221626  0.022813694            4 
 2968000   0.77685199   -7.0420767    829.71869  0.023296235  0.022807303            8 
 2969000    0.7864293   -7.0289282    829.80752  0.023290881  0.022800897           10 
 2970000   0.78110318   -7.0187064    831.36084  0.023326623  0.022794513            5 
 2971000    0.7961943   -7.0374599    829.51125  0.023266892  0.022788098            8 
 2972000   0.76839036   -7.0371254    831.25998  0.023308097  0.022781681            9 
 2973000   0.79090718   -7.0530642    830.20505  0.023270688  0.022775314           12 
 2974000    0.7694303   -7.0203879     830.1132  0.023260289  0.022768934           11 
 2975000   0.77535184   -7.0251484    831.61808  0.023294624  0.022762581            6 
 2976000   0.77178346   -7.0574969    830.73692  0.023262122  0.022756229            5 
 2977000   0.79052162    -7.046813     830.3548  0.023243612  0.022749866            9 
 2978000   0.77441284   -7.0808625    828.38139  0.023180585  0.022743477           15 
 2979000     0.779584   -7.0643615    831.38288  0.023256766  0.022737065            8 
 2980000   0.77220112   -7.0634257    830.22383   0.02321655  0.022730661           11 
 2981000   0.78189788   -7.0462439    830.30147  0.023210932  0.022724243            5 
 2982000   0.78791799    -7.034371    831.07581  0.023224788  0.022717851            7 
 2983000   0.77897298   -7.0489692    831.01334  0.023215257  0.022711479            6 
 2984000   0.76961083   -7.0305629    832.47329  0.023248249  0.022705109            9 
 2985000   0.75783456   -7.0507415    831.55738  0.023214891  0.022698768           12 
 2986000   0.77890847   -7.0615218    828.85203  0.023131615  0.022692387           10 
 2987000   0.77161025   -7.0306845    830.96109  0.023182711  0.022686006           16 
 2988000   0.77063977   -7.0308153    831.90498  0.023201277  0.022679637           12 
 2989000   0.76861806   -7.0642844    831.86842  0.023192495  0.022673303            6 
 2990000    0.7736116   -7.0495765    831.26306  0.023167867  0.022666973           13 
 2991000   0.78316461   -7.0326891      833.073  0.023210548  0.022660629            5 
 2992000   0.76560745   -7.0492594    832.25268  0.023179943  0.022654277           10 
 2993000   0.76256397   -7.0392037     834.3228  0.023229836  0.022647924            9 
 2994000   0.77214624   -7.0313732    832.56297  0.023173095  0.022641616           10 
 2995000   0.75894399   -7.0615919    835.15851  0.023237577  0.022635285            4 
 2996000   0.76119059   -7.0484036    832.97636  0.023169124  0.022628946           14 
 2997000   0.76184853    -7.064019    832.42422  0.023146041  0.022622605           14 
 2998000   0.77176997   -7.0520351     832.8369  0.023149791   0.02261625           15 
 2999000   0.76849561   -7.0855301    830.71693  0.023083165  0.022609919           14 
 3000000   0.78646368   -7.0860511    831.43567  0.023095435  0.022603547            7 
 3001000   0.76102698    -7.062892    831.69767  0.023095015  0.022597211           18 
 3002000   0.75992527   -7.0733539    831.95804  0.023094549  0.022590866           10 
 3003000   0.77105206   -7.0344659    834.39348  0.023154442  0.022584576           12 
 3004000   0.76213388   -7.0311964     834.8105  0.023158303  0.022578268           18 
 3005000   0.76307961    -7.043185     833.2189  0.023106459   0.02257195           17 
 3006000   0.77855093   -7.0306651     834.3114  0.023129059  0.022565641           18 
 3007000   0.76124458   -7.0626807    832.27277   0.02306487  0.022559315            6 
 3008000   0.76985284   -7.0694752    832.64809    0.0230676  0.022552983            9 
 3009000   0.77273959   -7.0651281    834.36626  0.023107518  0.022546665            8 
 3010000   0.77007613    -7.044799    832.68982  0.023053428  0.022540365            7 
 3011000   0.77901687   -7.0538416    834.34778  0.023091658  0.022534088           10 
 3012000   0.76759287   -7.0466453    836.33039  0.023138844  0.022527838           11 
 3013000   0.78101584    -7.039441    833.51166  0.023053204  0.022521565           13 
 3014000   0.78035064   -7.0447483    835.44155  0.023098915  0.022515291            6 
 3015000   0.77807294   -7.0559158    836.06153  0.023108389  0.022509022            8 
 3016000   0.76883886   -7.0535805    836.01105  0.023099333  0.022502756           11 
 3017000   0.79719702   -7.0662742    831.85637  0.022976919  0.022496467           14 
 3018000   0.77196704   -7.0642845    834.56617  0.023044129  0.022490171           18 
 3019000   0.76831454   -7.0456938    833.14722  0.022997329  0.022483875            9 
 3020000   0.78624871    -7.063328    835.98266  0.023067954  0.022477599            7 
 3021000   0.77725467   -7.0381715    836.29944  0.023069057  0.022471323           10 
 3022000   0.76412478   -7.0494816    835.59463  0.023041987  0.022465075           12 
 3023000   0.74763256   -7.0518324    834.67877  0.023009118  0.022458812           10 
 3024000   0.75840195   -7.0644699      835.364  0.023020393   0.02245249           10 
 3025000   0.77750855   -7.0554987    834.44288  0.022987407   0.02244617           13 
 3026000   0.76158944   -7.0687846    834.60843   0.02298437  0.022439868           19 
 3027000   0.76541294    -7.086048    834.20894  0.022965779  0.022433575           20 
 3028000   0.77820895   -7.0498687    832.91806  0.022922668  0.022427268           26 
 3029000   0.77284594   -7.0676345    835.72527  0.022992332  0.022420968           23 
 3030000   0.75420283    -7.076922    835.30206  0.022973104  0.022414689            7 
 3031000   0.76327451   -7.0506599    833.70115   0.02292151  0.022408415            5 
 3032000   0.76685816   -7.0680949    835.79235  0.022971426  0.022402148            9 
 3033000   0.75561664   -7.0640388     835.6894  0.022961023  0.022395874           12 
 3034000   0.76390897   -7.0357631    836.24946  0.022968838  0.022389586            4 
 3035000   0.75149579   -7.0487018    834.97368   0.02292624  0.022383305            7 
 3036000     0.753221   -7.0772567    834.83752  0.022914952  0.022377034            6 
 3037000   0.75731455   -7.0606515    835.45469  0.022924341  0.022370729           20 
 3038000   0.76245973   -7.0649864    834.42689  0.022888602  0.022364433           13 
 3039000   0.76343704   -7.0618093    835.69159   0.02291575  0.022358117            5 
 3040000   0.76560637   -7.0580111    834.49724  0.022875473   0.02235179           28 
 3041000   0.76538325   -7.0730611    833.51434  0.022841016  0.022345472           13 
 3042000   0.77582536   -7.0506657    834.51507  0.022860921  0.022339166            8 
 3043000   0.75115891   -7.0646809    835.05945  0.022868317  0.022332868           11 
 3044000    0.7667381   -7.0739396     834.2462   0.02283854  0.022326543           18 
 3045000   0.76678603    -7.059609    835.83638  0.022874559  0.022320273           16 
 3046000   0.76892784   -7.0868599    835.75088   0.02286471  0.022313958           11 
 3047000   0.76201097   -7.0812599     835.6561  0.022854614  0.022307667           24 
 3048000   0.76120541   -7.0716965    834.59342  0.022818062  0.022301365           12 
 3049000   0.76958538   -7.0655751    834.13749  0.022798116  0.022295062            7 
 3050000   0.77490297   -7.0636333    835.98777  0.022841196  0.022288817           11 
 3051000   0.76929632    -7.089649    836.55453   0.02284919  0.022282532           11 
 3052000   0.76317035    -7.084437    834.82785  0.022794557  0.022276264           21 
 3053000   0.75482097   -7.0652483    836.14376  0.022823009  0.022269987           24 
 3054000   0.76803953   -7.0829355    835.74868  0.022804755  0.022263722           14 
 3055000   0.77053574   -7.0285763    837.45209  0.022843756  0.022257449           12 
 3056000   0.76621283   -7.0486146    836.33975  0.022805949  0.022251227            5 
 3057000    0.7426103   -7.0710086     836.0193  0.022789753  0.022244994           14 
 3058000    0.7667822   -7.0582378    836.70454  0.022800974  0.022238736           10 
 3059000   0.77099017   -7.0839397    837.44369  0.022813656  0.022232453           12 
 3060000   0.75405495   -7.0483359    835.71542  0.022759135  0.022226193            3 
 3061000   0.74847818   -7.0803239    837.81771  0.022808933  0.022219885            7 
 3062000   0.75504619   -7.0828041    836.65896  0.022769948  0.022213606            8 
 3063000   0.75386871    -7.067727    836.60079  0.022760931  0.022207341           12 
 3064000   0.75133455   -7.0957985    837.69559  0.022783279  0.022201068           14 
 3065000   0.74729668   -7.0929019    836.20637  0.022735355  0.022194765           17 
 3066000   0.75388079   -7.0836733    834.97968  0.022694599  0.022188457           22 
 3067000   0.76928665   -7.0543145    835.76059  0.022708417  0.022182144           11 
 3068000   0.76610812   -7.0783695    836.37756  0.022717774  0.022175836           10 
 3069000   0.76104485    -7.086717    838.69399   0.02277327   0.02216953           10 
 3070000   0.75225606   -7.0629829    836.07472  0.022694753  0.022163238           14 
 3071000   0.76236067   -7.0842802     834.6088  0.022647585  0.022156951           16 
 3072000   0.75641514   -7.0745031    837.92164  0.022730079  0.022150689           11 
 3073000   0.75288207   -7.0671605    838.03712  0.022725814  0.022144426           11 
 3074000   0.75405388   -7.0736632    836.34987  0.022672681   0.02213817            9 
 3075000   0.75076944   -7.0651477    836.79691  0.022677423  0.022131914           10 
 3076000   0.76719954    -7.048596    837.08104  0.022677748  0.022125684            8 
 3077000   0.76534313   -7.0766355    836.46001  0.022653559  0.022119462           10 
 3078000   0.77248853   -7.0681264    837.00497  0.022660953  0.022113227           19 
 3079000   0.77113051   -7.0659409    836.55448  0.022641401     0.022107            5 
 3080000   0.75709845   -7.0674603    835.57814  0.022607634  0.022100751           14 
 3081000   0.75278419   -7.0732367    838.45922  0.022678222  0.022094473           14 
 3082000   0.77748079   -7.0957318    837.06016  0.022633035  0.022088184           10 
 3083000     0.768709   -7.0895785    837.81599  0.022646124    0.0220819           15 
 3084000   0.75610475   -7.1005826    836.24008  0.022596198   0.02207561            8 
 3085000   0.76974077   -7.0911861    838.46645  0.022649013  0.022069322           16 
 3086000   0.75201398   -7.0909389    835.25434  0.022554935  0.022063072           13 
 3087000   0.76612914   -7.0667359    839.50736  0.022662438  0.022056834           13 
 3088000   0.76667295   -7.0669066    837.82372  0.022609664  0.022050604           10 
 3089000   0.76660213   -7.0486606    839.50953  0.022647824  0.022044385           10 
 3090000   0.76483013   -7.0611969    839.24063  0.022633242   0.02203819           18 
 3091000   0.75695402    -7.062627     838.6545  0.022610118  0.022031993           10 
 3092000   0.75897878   -7.0838557    838.19375  0.022590388  0.022025792            9 
 3093000   0.75814326   -7.1018168    838.42134  0.022589216  0.022019588            7 
 3094000   0.74706418   -7.0834635     837.6854  0.022562093   0.02201337           12 
 3095000   0.75420997   -7.0864737    837.03116  0.022537188  0.022007151           20 
 3096000   0.74944822   -7.0688748    838.81548  0.022577936  0.022000901           19 
 3097000   0.77397577   -7.1013701    836.86403  0.022518137  0.021994629           13 
 3098000   0.76165459   -7.1177183    839.39685  0.022578999  0.021988359           15 
 3099000   0.75157147   -7.0868768    837.94863   0.02253277  0.021982106            9 
 3100000   0.74131929   -7.0976942    838.58174   0.02254252  0.021975859           24 
 3101000    0.7555555   -7.0920197    837.41736   0.02250396  0.021969597           17 
 3102000   0.75150675    -7.104005    839.22799  0.022545347  0.021963341           13 
 3103000   0.74409465   -7.0999875    838.61506  0.022521621  0.021957114           15 
 3104000   0.74411345   -7.0538998    839.27372  0.022532048  0.021950912           20 
 3105000   0.76402544   -7.0700729    839.70269  0.022536304  0.021944716           44 
 3106000   0.76663168   -7.0984086    841.19564  0.022569104  0.021938532           15 
 3107000   0.73695578   -7.0909861    840.45148  0.022541881  0.021932349           22 
 3108000   0.76708044   -7.0911978    840.51939  0.022536449  0.021926179           40 
 3109000   0.78454882   -7.1051516    839.38949  0.022498914  0.021919981           18 
 3110000   0.74783204   -7.1051108    838.36969  0.022464354  0.021913795           25 
 3111000   0.76181067   -7.0885221    839.66292  0.022491774  0.021907593           31 
 3112000    0.7535833   -7.0870525     839.4967  0.022480096  0.021901392           20 
 3113000   0.75529614   -7.0965611    839.95611  0.022485173  0.021895196           19 
 3114000   0.75646217   -7.0926824    840.53024  0.022493316  0.021889008           32 
 3115000   0.74957836   -7.0899132    838.91197  0.022442803  0.021882817            6 
 3116000   0.75120089   -7.0754333     839.8591   0.02246093  0.021876627            8 
 3117000   0.76127817   -7.0779038    838.89585  0.022427972  0.021870455           10 
 3118000   0.75399166   -7.0827759    839.05097  0.022424924  0.021864285           13 
 3119000   0.73610547   -7.0871131    837.90694  0.022387168  0.021858104           11 
 3120000   0.74425899    -7.072053    841.48693  0.022475613  0.021851904            9 
 3121000   0.75683801   -7.0585424    842.19611  0.022487347  0.021845761            9 
 3122000   0.73438378   -7.0933738    840.71889  0.022440714  0.021839604           14 
 3123000   0.75371706   -7.0831372    841.94715  0.022466302  0.021833479           12 
 3124000   0.73376154   -7.1097381    840.19079   0.02241226  0.021827326           12 
 3125000   0.73884063   -7.0911312    842.24294  0.022459812  0.021821152            9 
 3126000   0.74008178   -7.0963037    842.77697  0.022466863  0.021814979           10 
 3127000   0.75200728   -7.1014697    842.04723  0.022440231  0.021808804           12 
 3128000   0.74587019   -7.0948489    839.96138  0.022377488  0.021802608           17 
 3129000   0.74896186   -7.1006973    840.08837  0.022373718  0.021796394            6 
 3130000   0.75803634    -7.074013    841.31393  0.022399199   0.02179022           14 
 3131000   0.75138967   -7.0941259    840.90343   0.02238112  0.021784071           13 
 3132000   0.75109328   -7.0923102    840.18212  0.022354782  0.021777919            6 
 3133000    0.7699808   -7.0817834    840.54762  0.022357368  0.021771759           14 
 3134000   0.77338775   -7.0647971    842.55801  0.022403691  0.021765598            9 
 3135000    0.7603826   -7.0638154    840.75652  0.022348658  0.021759427           11 
 3136000   0.74844468   -7.1088604    839.38715  0.022305143  0.021753238            9 
 3137000   0.76000083    -7.104852    840.54671  0.022328836  0.021747037            8 
 3138000   0.74614812   -7.1029527    840.28112  0.022314667  0.021740835            8 
 3139000   0.73321551    -7.084853    841.45559  0.022338738  0.021734642            9 
 3140000   0.73999551   -7.0748233    840.95484  0.022318335  0.021728456           49 
 3141000   0.74526378   -7.1108611    843.66711  0.022383188  0.021722254           17 
 3142000   0.75717738   -7.1088633    839.80791  0.022273708  0.021716082           13 
 3143000   0.74787563   -7.0910018    841.01039  0.022298504  0.021709865            5 
 3144000   0.74903238        -7.13    841.93807     0.022316  0.021703684            9 
 3145000    0.7381236   -7.0823977    841.80641  0.022305416  0.021697526           21 
 3146000   0.75772577    -7.090058    840.77674  0.022271052  0.021691398           17 
 3147000   0.74946428   -7.1069756    840.35189  0.022252725  0.021685219            7 
 3148000    0.7639676   -7.0867507    841.87919  0.022286086   0.02167907            9 
 3149000   0.75975565   -7.0963859     841.0014   0.02225578  0.021672922           11 
 3150000   0.74685315   -7.1019048    842.59633  0.022290908  0.021666734           28 
 3151000    0.7555362   -7.1009014    840.80337  0.022236416  0.021660554           22 
 3152000   0.75459176   -7.0984154    840.97713  0.022233955  0.021654405           16 
 3153000   0.74412449   -7.0942916     840.3902  0.022211391  0.021648233           11 
 3154000   0.74424377   -7.1114413    839.77187  0.022188012  0.021642027           16 
 3155000   0.73961043   -7.1011589    840.01176  0.022187315  0.021635823           17 
 3156000   0.74412126   -7.0987363    840.80446  0.022201216  0.021629624           29 
 3157000   0.74828799   -7.1029156    842.41508  0.022236698  0.021623431           51 
 3158000   0.74880086   -7.1020549    840.80408  0.022187146  0.021617233           14 
 3159000   0.74150581   -7.1160477    839.72973  0.022151781  0.021611051           24 
 3160000   0.74197914   -7.1047952    841.22572  0.022184223  0.021604868           15 
 3161000   0.73658942   -7.1066764    841.73353  0.022190592  0.021598688           10 
 3162000   0.76241924   -7.0836049    841.03618  0.022165195  0.021592526           23 
 3163000   0.75134657   -7.0992905    843.63597  0.022226683  0.021586385           12 
 3164000   0.74256198   -7.1090699     842.3798  0.022186573  0.021580213           12 
 3165000   0.73555835   -7.0951934    842.09435  0.022172047  0.021574081           10 
 3166000   0.74642728   -7.1085251    843.14072  0.022192586  0.021567982            6 
 3167000   0.75105211   -7.0905842    841.64443  0.022146206  0.021561882           11 
 3168000    0.7596771    -7.131987    843.19813  0.022180086  0.021555792           15 
 3169000   0.73738078   -7.0915121    841.99758  0.022141516  0.021549707            9 
 3170000   0.74375382   -7.0893103    844.44603  0.022198897  0.021543607            9 
 3171000   0.75040557   -7.1082132    842.41315  0.022138472  0.021537503           20 
 3172000   0.73465504    -7.094892    842.72849  0.022139778  0.021531383           17 
 3173000   0.73001885   -7.1199428    842.99568  0.022139817  0.021525254           32 
 3174000   0.74097508   -7.1150083    843.61102  0.022148998  0.021519139           30 
 3175000   0.72159258   -7.1106556    843.51494    0.0221395  0.021513017           44 
 3176000   0.75342878   -7.1198939    842.37956  0.022102738  0.021506879           16 
 3177000    0.7609336   -7.1006905    842.61259  0.022101894  0.021500755           25 
 3178000   0.75550161   -7.1186529     840.7201  0.022045314  0.021494611           22 
 3179000   0.72973394   -7.1304671    841.58537  0.022061061  0.021488458           18 
 3180000   0.75574541   -7.1527741    842.56678  0.022079842  0.021482313           23 
 3181000   0.74659088   -7.0872913    842.72249   0.02207698  0.021476176           25 
 3182000   0.73326168   -7.1158296    843.65022  0.022094339  0.021470036           15 
 3183000   0.74450326   -7.1158927    844.00339  0.022096643  0.021463922           22 
 3184000   0.74330396   -7.1076027    842.49983  0.022050351  0.021457797           37 
 3185000   0.74535333   -7.1216809    843.04236  0.022057623  0.021451679           26 
 3186000   0.74639962   -7.0938388    842.20861  0.022028892  0.021445583           23 
 3187000   0.73663298   -7.0946219    840.22688  0.021970162  0.021439476           25 
 3188000   0.74910896   -7.1198353    842.68041  0.022027405  0.021433375           23 
 3189000   0.72601634   -7.1281692     845.1292  0.022084488  0.021427256            9 
 3190000   0.73219081   -7.0840938    844.08938  0.022050402  0.021421173            8 
 3191000   0.75905669   -7.0971224    842.73689  0.022008171  0.021415106           12 
 3192000   0.73773983   -7.1172393    844.15866  0.022038394  0.021409037           12 
 3193000   0.73820444    -7.116455    845.34891  0.022062556  0.021402964            9 
 3194000   0.75025052   -7.1212696    846.12787  0.022075972  0.021396887            8 
 3195000   0.73300163   -7.0947844    845.33066   0.02204827  0.021390803            6 
 3196000   0.74136051   -7.1405912    844.11153  0.022009583  0.021384714            8 
 3197000   0.73921427   -7.1197326    843.40196  0.021984203  0.021378617           13 
 3198000   0.74456772   -7.1293951    843.32427  0.021975304  0.021372527           40 
 3199000     0.738904    -7.116001    843.90573  0.021983582  0.021366446           16 
 3200000   0.74360117    -7.121386     844.6449  0.021995961  0.021360385           16 
 3201000   0.76077448   -7.1062436    843.41064  0.021956957  0.021354306           18 
 3202000   0.74909755   -7.1078539    844.60495  0.021981182  0.021348249           28 
 3203000    0.7398677   -7.1032704    844.69195  0.021976583  0.021342177           22 
 3204000   0.74903126   -7.0842644    846.01896  0.022004238  0.021336137            8 
 3205000   0.73595879   -7.1052017     847.4157   0.02203369  0.021330097            8 
 3206000   0.75146315   -7.1058001    843.68665  0.021929888  0.021324056            8 
 3207000   0.72624398   -7.1022989    843.22774  0.021911125   0.02131801            7 
 3208000   0.73874331    -7.132841    843.02976  0.021899152  0.021311948           13 
 3209000    0.7402556   -7.1266072    844.27997  0.021924794  0.021305882           11 
 3210000   0.73870774   -7.1182196    844.08803  0.021912981  0.021299805           28 
 3211000   0.73628155    -7.119809    845.63623  0.021946336  0.021293733           20 
 3212000   0.73012486   -7.1276584    846.28567  0.021956353  0.021287665           25 
 3213000   0.73922868   -7.1354008    845.90206   0.02193957  0.021281599           19 
 3214000   0.73776812   -7.1541399    845.35093  0.021918454  0.021275533           43 
 3215000   0.74675477   -7.1345815    844.80555    0.0218975  0.021269472           18 
 3216000   0.71249265   -7.1297317    843.89626  0.021867129  0.021263395            8 
 3217000   0.73439621   -7.1376869    842.86855   0.02183371  0.021257301           26 
 3218000   0.72207826   -7.1137104    843.80384  0.021851146  0.021251198           11 
 3219000   0.74156452   -7.1288385    842.81102  0.021818655  0.021245084           28 
 3220000   0.75323766   -7.1045972     845.9282  0.021892552  0.021238994           17 
 3221000   0.72842293   -7.1399552    844.84061  0.021857617  0.021232894           23 
 3222000   0.74026926   -7.1219748    844.64206  0.021845698  0.021226786           11 
 3223000   0.72292285   -7.1507335    843.90968  0.021819984  0.021220695           22 
 3224000   0.74472545   -7.1288683    843.38491  0.021799651  0.021214574           22 
 3225000    0.7271117   -7.0980116    843.82699  0.021804315  0.021208466           21 
 3226000   0.73537315   -7.1246208    845.51427  0.021841142  0.021202385           15 
 3227000   0.72647022   -7.1492014    843.99162  0.021795053  0.021196299           14 
 3228000   0.72717834   -7.1191505    843.99597  0.021788413   0.02119021           10 
 3229000   0.73805644   -7.1059384    845.14368  0.021811285  0.021184128           14 
 3230000    0.7360517   -7.1335042    845.49967  0.021813717  0.021178039           13 
 3231000   0.74485812   -7.1539186    844.61568  0.021784166  0.021171936           14 
 3232000   0.72808325   -7.1132777    847.08707  0.021841148  0.021165862           22 
 3233000   0.73783941   -7.1497414    845.47086  0.021792733  0.021159793           14 
 3234000   0.72806992   -7.1158788    847.53661  0.021839224  0.021153728           16 
 3235000   0.71211334   -7.1204489    845.24652  0.021773481  0.021147675            8 
 3236000   0.73895094   -7.1282796    844.79429  0.021755106  0.021141621           13 
 3237000   0.74292136   -7.1515151    844.97452  0.021753025  0.021135552           21 
 3238000   0.72261817   -7.1144335    847.48887  0.021811017  0.021129473            9 
 3239000   0.72934409   -7.1129938    847.84759  0.021813512  0.021123417           12 
 3240000   0.73295759   -7.1589437    845.99388  0.021759102   0.02111737           10 
 3241000    0.7358037   -7.1437179    846.69677  0.021770461  0.021111312           13 
 3242000   0.72001541   -7.1467725    845.41946  0.021730913   0.02110524           23 
 3243000   0.71868935   -7.1455803    845.75423  0.021732815   0.02109918           33 
 3244000   0.73201258   -7.1399245    844.84051  0.021702643  0.021093143           20 
 3245000   0.73199045   -7.1575378    846.94023  0.021749878  0.021087111           12 
 3246000   0.72779524   -7.1447676    844.74066  0.021686708   0.02108107           29 
 3247000   0.73146444   -7.1375711    845.80448  0.021707332  0.021075019           21 
 3248000    0.7311744   -7.1318312    844.46253  0.021666218  0.021068978           13 
 3249000   0.72059507   -7.1539119    846.27182  0.021705956  0.021062912           22 
 3250000   0.73001967   -7.1304378     846.9146  0.021715759  0.021056848           20 
 3251000   0.74288986    -7.114668    846.95338  0.021710073  0.021050794           22 
 3252000     0.733084   -7.1354385    848.17403  0.021734677  0.021044762           15 
 3253000   0.72769072   -7.1373645    846.69968  0.021690227  0.021038742           18 
 3254000   0.73219097   -7.1312849    846.81403  0.021686489   0.02103272           18 
 3255000   0.73135448   -7.1158849    846.08865  0.021661256  0.021026683           20 
 3256000      0.73965   -7.1227158    845.68902  0.021644375  0.021020656           28 
 3257000   0.73583287   -7.1243302    846.25198  0.021652133  0.021014624           19 
 3258000   0.72711621    -7.108173    847.56609    0.0216791  0.021008627           30 
 3259000   0.74859142   -7.1390594    847.64262  0.021674405  0.021002594           19 
 3260000   0.72463477   -7.1312302    844.57337  0.021589299   0.02099656            9 
 3261000   0.72606876   -7.1374905    845.74003  0.021612492  0.020990518           17 
 3262000   0.73599165   -7.1351336    846.54927   0.02162654   0.02098449           25 
 3263000   0.73424522   -7.1461842    844.79404  0.021575085  0.020978452           21 
 3264000   0.72770546   -7.1342926    845.79118  0.021593933  0.020972426           21 
 3265000   0.74410691   -7.0935781    847.40963  0.021628628  0.020966402           17 
 3266000   0.73731726   -7.1209303    847.30255  0.021619273  0.020960387           12 
 3267000   0.72493928   -7.1208163    848.25804  0.021637028   0.02095439           11 
 3268000   0.74727471   -7.1094509    846.32912   0.02158122  0.020948433           12 
 3269000   0.73905043   -7.1614294    847.63172  0.021607824  0.020942436           15 
 3270000   0.73213725   -7.1421905    846.39819   0.02156978  0.020936441           46 
 3271000   0.74069179   -7.1301917    847.93219  0.021602267  0.020930457           14 
 3272000    0.7258554   -7.1034916    847.34169  0.021580626  0.020924458           15 
 3273000   0.73017583   -7.1159313    849.05132  0.021617561   0.02091846           11 
 3274000   0.72316567   -7.1423164    847.71952   0.02157706  0.020912476           17 
 3275000   0.73669701   -7.1688679    846.92664  0.021550296  0.020906472           10 
 3276000   0.72303115   -7.1379938    846.42386  0.021530928  0.020900479            9 
 3277000   0.73318957    -7.158542    847.17167  0.021543375  0.020894462           11 
 3278000   0.73870884   -7.1618906    848.53905  0.021571564  0.020888449            9 
 3279000     0.727357   -7.1486053    848.46999   0.02156323  0.020882439           27 
 3280000   0.72950331   -7.1139572     848.3685  0.021554078  0.020876451           13 
 3281000   0.71670629   -7.1576021    848.47433  0.021550196  0.020870463           14 
 3282000   0.73016692   -7.1513429    848.19218  0.021536466  0.020864497           23 
 3283000   0.72035079   -7.1439767    848.24282  0.021531191  0.020858512           14 
 3284000   0.72197607   -7.1654986    847.36678  0.021502405  0.020852525           22 
 3285000   0.71538953   -7.1547591    846.63287  0.021477242  0.020846497           33 
 3286000   0.72348142   -7.1880833    846.86031  0.021476474   0.02084048           16 
 3287000   0.73681009   -7.1685011    847.55068  0.021487442   0.02083446           19 
 3288000   0.71819018   -7.1549764    848.50426  0.021505076   0.02082847           26 
 3289000   0.72604997   -7.1441819    848.01419   0.02148612   0.02082248           21 
 3290000   0.72494554    -7.146911    846.03614  0.021429487   0.02081647           28 
 3291000   0.73765711   -7.1346056    848.51284  0.021485689  0.020810485           28 
 3292000   0.72026915   -7.1688608     847.6215  0.021456599  0.020804496           17 
 3293000   0.72938548   -7.1516522    848.34582  0.021468413  0.020798495           13 
 3294000   0.72421081     -7.16254    847.93815  0.021451582  0.020792508            9 
 3295000   0.72059274    -7.133941    847.72052  0.021439568  0.020786521           24 
 3296000    0.7169268   -7.1476783    848.73423  0.021458693  0.020780541            9 
 3297000    0.7344438   -7.1514209    848.28145   0.02144074  0.020774545           13 
 3298000   0.73095285   -7.1606963    848.19637  0.021432089  0.020768532           28 
 3299000   0.71602283   -7.1480895    848.27034  0.021427461  0.020762506           12 
 3300000   0.71919636   -7.1817705    847.64105  0.021405077  0.020756499            9 
 3301000    0.7089754   -7.1588853    847.80534   0.02140274  0.020750471            8 
 3302000   0.70868884   -7.1471616    849.16186  0.021430493  0.020744471           18 
 3303000   0.71959006   -7.1316371    848.67289  0.021411668  0.020738479           15 
 3304000    0.7267157   -7.1622562    847.13624  0.021366431  0.020732487           14 
 3305000   0.72390632   -7.1603314    847.94189   0.02138028  0.020726508           19 
 3306000   0.72335416   -7.1545199    849.78044  0.021420156  0.020720514           11 
 3307000   0.73994236   -7.1453142    849.23336  0.021399893  0.020714528            9 
 3308000   0.71769948   -7.1614554    847.47819  0.021349209  0.020708533           15 
 3309000   0.72683881   -7.1506614    848.52609  0.021369147  0.020702524           12 
 3310000   0.72714252   -7.1608482    848.30775  0.021357194   0.02069653           25 
 3311000   0.73058064   -7.1469189    847.28259  0.021324942  0.020690553           27 
 3312000   0.71385728    -7.144219    848.57879  0.021351117  0.020684573           27 
 3313000    0.7091984   -7.1580341    850.70182  0.021398074  0.020678582           13 
 3314000   0.72039208   -7.1687142    848.04646  0.021324846  0.020672592           14 
 3315000   0.71594053   -7.1622928    848.58528  0.021331958  0.020666607           18 
 3316000   0.72115349   -7.1481887    847.56306  0.021299836  0.020660613           24 
 3317000   0.71970075   -7.1674465    848.14757  0.021308099   0.02065463           13 
 3318000   0.72540463   -7.1453273    847.44965  0.021284148  0.020648625           20 
 3319000   0.72495617     -7.15366    848.67828  0.021308584  0.020642612            6 
 3320000   0.71910223   -7.1313805    848.68254  0.021302273  0.020636612           12 
 3321000   0.72226007   -7.1442127    847.34644  0.021262332  0.020630604           13 
 3322000   0.73138137   -7.1163037    848.16535  0.021276474  0.020624613            9 
 3323000   0.71916103    -7.158096    847.85508   0.02126229  0.020618603            7 
 3324000   0.72063308   -7.1679066    847.46588  0.021246136  0.020612593           10 
 3325000   0.72384301   -7.1307941    849.24933  0.021284444  0.020606584            9 
 3326000   0.72041531   -7.1701834     847.6792  0.021238705  0.020600583           27 
 3327000   0.71736641   -7.1596529    846.63534  0.021206175  0.020594575           13 
 3328000   0.71520519   -7.1448648    847.23285  0.021214765  0.020588556           32 
 3329000   0.70753621   -7.1384803    848.75539  0.021246505   0.02058253            9 
 3330000   0.72544416     -7.17783    845.62458  0.021161776  0.020576513           36 
 3331000   0.72918215   -7.1414877    846.88078   0.02118685  0.020570499           13 
 3332000   0.70913919   -7.1513519    848.65259  0.021224805   0.02056451           45 
 3333000   0.72817727   -7.1920761    847.84634  0.021198278  0.020558515           15 
 3334000   0.72255198   -7.1356165      846.791  0.021165542  0.020552487           11 
 3335000   0.72097601   -7.1518578    847.35047  0.021173175  0.020546465            9 
 3336000   0.72303573   -7.1296405    848.98612  0.021207687  0.020540466           10 
 3337000   0.71271113   -7.1251946    848.94491  0.021200302  0.020534497           17 
 3338000    0.7213414     -7.14521    849.96033  0.021219301  0.020528537           13 
 3339000   0.72951969   -7.1350779    848.23933  0.021169994  0.020522566           21 
 3340000    0.7112215   -7.1434115    845.62996  0.021098552  0.020516564           15 
 3341000   0.71286756   -7.1832807      847.455  0.021137758  0.020510559            9 
 3342000    0.7125967   -7.1780343     846.8876  0.021117285  0.020504554           10 
 3343000   0.71631248   -7.1464198    849.93593  0.021186956   0.02049857           11 
 3344000   0.72685751    -7.170886    848.65044  0.021148585  0.020492596           10 
 3345000   0.72106291   -7.1660196     849.1919  0.021155752  0.020486607           19 
 3346000   0.71090538   -7.1720109    849.23604  0.021150529  0.020480626           14 
 3347000   0.70602667    -7.172234    847.25399  0.021094861  0.020474658           17 
 3348000   0.71084245   -7.1769986    848.97919  0.021131501  0.020468666           17 
 3349000   0.69837538   -7.1533697    848.33759  0.021109226  0.020462683           14 
 3350000   0.71829742   -7.1424679    849.93854   0.02114275  0.020456715           28 
 3351000   0.71567899   -7.1387963    850.04192  0.021139011  0.020450746           18 
 3352000   0.71563548   -7.1549155    849.82352  0.021127275  0.020444787           25 
 3353000   0.71837539   -7.1450923    848.47936  0.021087567  0.020438825           15 
 3354000   0.72756554   -7.1573529    847.32046  0.021052486   0.02043285            7 
 3355000   0.72399289   -7.1586035    848.32123  0.021071069  0.020426856           25 
 3356000   0.71899904   -7.1980749     847.6498  0.021048118  0.020420855           12 
 3357000   0.72597195    -7.165952    848.12745  0.021053705  0.020414867           11 
 3358000   0.71456407   -7.1780337    847.19391  0.021024268  0.020408849           20 
 3359000   0.71638158    -7.197294    847.81907  0.021033519  0.020402817           15 
 3360000   0.70429406   -7.1931641     847.0064  0.021007103  0.020396776           26 
 3361000   0.69290268   -7.1654556    848.30889  0.021033147  0.020390773           17 
 3362000   0.71603383   -7.1882558    846.70952  0.020987248  0.020384762           13 
 3363000   0.71455436    -7.210043     847.5307  0.021001356  0.020378758           16 
 3364000   0.71086529   -7.1835953    847.97973  0.021006236  0.020372758           31 
 3365000   0.71935311   -7.1852713    848.07558  0.021002367  0.020366762           36 
 3366000    0.7065683     -7.18488    843.89266  0.020892569  0.020360761           25 
 3367000   0.71021611   -7.2017761    848.48981  0.021000144  0.020354756           14 
 3368000   0.71653605    -7.151259    849.41509  0.021016803  0.020348777           24 
 3369000   0.70278155   -7.1595039    849.05297  0.021001607  0.020342815           31 
 3370000   0.70505198   -7.1893843    847.04894   0.02094582  0.020336841           11 
 3371000   0.71149762   -7.1828244    848.12671  0.020966249   0.02033083           25 
 3372000   0.69339913   -7.1786927    848.73389  0.020975037  0.020324843           32 
 3373000   0.71929654   -7.1850318    847.65857  0.020942251  0.020318864           15 
 3374000    0.7155027   -7.1785943     848.8383  0.020965182  0.020312893            8 
 3375000   0.71644221   -7.1828253    849.35469  0.020971721  0.020306932           14 
 3376000   0.73086127   -7.1579205    849.29811  0.020964112  0.020300982           26 
 3377000    0.7027979   -7.1685552    848.48198  0.020937765  0.020295014           27 
 3378000   0.70898673   -7.1717781    848.37171  0.020928846  0.020289048           69 
 3379000   0.70444995   -7.1720424    850.02139  0.020963337  0.020283055           14 
 3380000    0.7146656   -7.2047559    847.99247  0.020907112  0.020277068           34 
 3381000   0.72613963    -7.192076    848.04221  0.020902155  0.020271055           16 
 3382000   0.70844228    -7.207353    848.11827  0.020897848  0.020265046           20 
 3383000   0.71629458    -7.160539     848.1622  0.020892753  0.020259022           14 
 3384000   0.70215344   -7.1740083     849.1455  0.020910793  0.020253032           27 
 3385000   0.71374564   -7.2011508    847.79389  0.020871341  0.020247019           22 
 3386000   0.71427123   -7.1911953    847.42208  0.020856027  0.020241016           27 
 3387000   0.71210934   -7.1701661    847.45866  0.020850769   0.02023504           26 
 3388000   0.71698017   -7.1957479    848.54141  0.020871247  0.020229054           43 
 3389000   0.70450712   -7.1783899    848.26433  0.020858275  0.020223069           40 
 3390000   0.70592445   -7.1800518    847.60851  0.020836001  0.020217051           39 
 3391000   0.70606706   -7.1955433    847.38153  0.020824278  0.020211056           36 
 3392000   0.70111529   -7.1847851    849.16297  0.020861905  0.020205029           38 
 3393000   0.71419717   -7.1633206    846.93556   0.02080105  0.020199034           32 
 3394000   0.70785522   -7.1748442    849.70574  0.020862938  0.020193053           19 
 3395000   0.71713531   -7.1889702    846.88297  0.020787505  0.020187065           22 
 3396000   0.71624531   -7.1843852    847.33465  0.020792468  0.020181077           29 
 3397000   0.70343153   -7.1949566    849.59693  0.020841844  0.020175091           28 
 3398000   0.71668895   -7.1865734    847.73985  0.020790167  0.020169085           25 
 3399000   0.70962722   -7.1995212    848.52978  0.020803417  0.020163077           11 
 3400000   0.70170289   -7.1743061    847.32828   0.02076785  0.020157081           11 
 3401000   0.70658271   -7.1989767    848.51314  0.020790776   0.02015112           24 
 3402000   0.70350273   -7.1887293    849.08033  0.020798558  0.020145155            8 
 3403000   0.71016381   -7.1750927    846.64595  0.020732833  0.020139187            7 
 3404000   0.70305872   -7.1880532    848.71516  0.020777398  0.020133216            7 
 3405000   0.70995191   -7.1941973    847.94371  0.020752416  0.020127259           14 
 3406000   0.70604269   -7.2262886    849.11626  0.020775011  0.020121298           10 
 3407000   0.71489003   -7.1706359    848.84277  0.020762224   0.02011534           10 
 3408000   0.71464959   -7.1980526    851.71693  0.020826412  0.020109422           16 
 3409000   0.70631814   -7.1642144    850.13384  0.020781604  0.020103502            7 
 3410000    0.6912765   -7.1675079    850.83499  0.020792644  0.020097581            8 
 3411000   0.70352622   -7.1735689    850.19579  0.020770932  0.020091675           17 
 3412000   0.72351611   -7.1751887    850.22147  0.020765472  0.020085775           14 
 3413000   0.70023378   -7.1888453    849.70489  0.020746774  0.020079858           16 
 3414000   0.70444035   -7.1414152    851.42013  0.020782565  0.020073954           10 
 3415000   0.68764963   -7.1916039    850.27368  0.020748504  0.020068045           13 
 3416000   0.71185703   -7.1598435    851.90112  0.020782131  0.020062133           21 
 3417000   0.69615811   -7.1920825    849.65125   0.02072118  0.020056234           14 
 3418000   0.70703071   -7.1721052    848.48978    0.0206868  0.020050336           38 
 3419000   0.70389567   -7.1900028    851.33787  0.020750167  0.020044454           51 
 3420000   0.70983921   -7.1747742     850.3409  0.020719807  0.020038602           55 
 3421000   0.70411326   -7.1825305    848.88932  0.020678391   0.02003273           60 
 3422000   0.69428708   -7.2030386    851.40738  0.020733669  0.020026851           56 
 3423000   0.70698741   -7.1954317    852.06744  0.020743681  0.020020977           23 
 3424000   0.70690025   -7.2102307    850.88296  0.020708795  0.020015093           27 
 3425000   0.71154049   -7.1855497    850.63621  0.020696745  0.020009227           26 
 3426000   0.70030888   -7.1623131    852.61659  0.020738874   0.02000335           61 
 3427000   0.69603115   -7.1824193    851.95492  0.020716733  0.019997481           69 
 3428000   0.71703293   -7.1824136    851.70942  0.020704721  0.019991615           18 
 3429000   0.69171138   -7.1802003    850.71563  0.020674532  0.019985771           21 
 3430000   0.69005332   -7.1983328    851.56711  0.020689191  0.019979929           25 
 3431000   0.69182725   -7.2054114    850.60403  0.020659769   0.01997408           31 
 3432000   0.71025678   -7.1933959    851.82395  0.020683371  0.019968216           20 
 3433000   0.71453455   -7.1699735    851.76899  0.020676012  0.019962352           20 
 3434000    0.7019758   -7.1816298    852.29572  0.020682773  0.019956494           17 
 3435000   0.69566594   -7.2027681    851.98136  0.020669126  0.019950641           19 
 3436000   0.69642836   -7.1745185    851.24736  0.020645308  0.019944783           18 
 3437000   0.68928455   -7.1814661    852.61115  0.020672368  0.019938944           17 
 3438000   0.69672923   -7.1958468     852.5676  0.020665299  0.019933118           19 
 3439000   0.70314146    -7.208343    851.72928  0.020638976  0.019927289           24 
 3440000   0.69367107   -7.1951848    853.29659  0.020670945  0.019921468           24 
 3441000    0.7021825   -7.1928535    851.53753  0.020622337  0.019915662           20 
 3442000    0.6913095   -7.2160431    850.34373  0.020587443  0.019909841           36 
 3443000   0.70414963   -7.2030336    853.50749  0.020658038     0.019904           13 
 3444000   0.72014321   -7.2099172    850.99099  0.020591149  0.019898166           17 
 3445000   0.69752578   -7.2006954    853.87114  0.020654841  0.019892341           15 
 3446000   0.69694912   -7.2032996     852.3113  0.020611126  0.019886515           23 
 3447000   0.69644453   -7.1951883    854.83408  0.020666137  0.019880709           22 
 3448000   0.69285618   -7.1917377    852.90529  0.020613527  0.019874914           11 
 3449000   0.70133478   -7.1988035    851.80059  0.020580859  0.019869113           13 
 3450000   0.70144587   -7.2037638    852.73098  0.020597367  0.019863322           20 
 3451000   0.69084597   -7.2252454    851.87108  0.020570634  0.019857524           30 
 3452000   0.70077008   -7.1984079    854.28726  0.020623003  0.019851739           27 
 3453000   0.70683399   -7.1917684    854.41841  0.020620195  0.019845958           34 
 3454000   0.69893375   -7.2025535    853.12394  0.020582994  0.019840182           16 
 3455000   0.70116941    -7.219907    851.18888  0.020530364  0.019834364           38 
 3456000   0.69247237   -7.2188752    852.84803   0.02056443  0.019828566           33 
 3457000   0.69649149   -7.2001228    853.03518  0.020562992  0.019822744           23 
 3458000   0.69732875   -7.1859894    854.25156  0.020586359  0.019816923           21 
 3459000   0.71030257   -7.2125512    853.68578  0.020566777  0.019811099           18 
 3460000   0.67520679   -7.2190785    851.56836  0.020509835  0.019805295           21 
 3461000   0.67886021   -7.2338552    852.25163  0.020520361  0.019799478           22 
 3462000     0.693344   -7.2217854    851.76125   0.02050263  0.019793673           26 
 3463000   0.69844729   -7.1882162    853.65774  0.020542346   0.01978788           38 
 3464000   0.69161998   -7.2170927    852.64037  0.020511941  0.019782079           39 
 3465000   0.69389188   -7.2449364    852.03462  0.020491453  0.019776278           24 
 3466000   0.69538679   -7.2410395    852.56344  0.020498256  0.019770461           23 
 3467000   0.70174224    -7.213856    851.81253  0.020474294  0.019764674           41 
 3468000   0.69213388   -7.2113927    855.28819  0.020551908  0.019758894           47 
 3469000   0.69702386   -7.1940498    854.40924  0.020524869  0.019753127           20 
 3470000   0.69686524   -7.2128913    854.69741  0.020525874  0.019747347           18 
 3471000   0.70256697    -7.210842    853.72601  0.020496639  0.019741556           33 
 3472000   0.68426222    -7.213409    853.24364  0.020479158  0.019735764           20 
 3473000   0.69939805   -7.2137235    853.33094  0.020475356  0.019729988           18 
 3474000   0.68783916   -7.2183882    853.34336   0.02046976  0.019724215            7 
 3475000   0.69285254   -7.2298288    852.19821  0.020436408  0.019718437           17 
 3476000   0.70300892   -7.1992809    853.98143  0.020473279  0.019712662           12 
 3477000   0.69463546     -7.19924     854.0953   0.02047012  0.019706894           10 
 3478000   0.69002849   -7.1977309    855.52335  0.020498451  0.019701119           14 
 3479000   0.71222366   -7.2224309    852.83579  0.020428183  0.019695364           18 
 3480000   0.68308423   -7.2243826    853.87875  0.020447288  0.019689589            7 
 3481000   0.69391078   -7.1839729    854.08468  0.020446344  0.019683834            9 
 3482000   0.69604697   -7.2130877    853.46136  0.020425554  0.019678075            7 
 3483000   0.68897663   -7.2058212    852.75681  0.020402833  0.019672323           20 
 3484000   0.69154121   -7.2146211    853.69818  0.020419493  0.019666563           19 
 3485000   0.69191771   -7.2121787    854.60006    0.0204352  0.019660793           12 
 3486000   0.68350966   -7.2072484    854.48477  0.020426582  0.019655022           14 
 3487000    0.6873198   -7.2282504    854.41232  0.020418992  0.019649263           12 
 3488000   0.69305166   -7.2287354    852.16022  0.020359333  0.019643488           33 
 3489000   0.68310342   -7.2415226    855.33931  0.020429428  0.019637693           21 
 3490000   0.69835641   -7.2178336     854.1506  0.020395191  0.019631913           23 
 3491000   0.69926197   -7.2360033    853.14181  0.020365268  0.019626144           16 
 3492000   0.69346427   -7.2052369    854.03024  0.020380638  0.019620369            6 
 3493000   0.69124925   -7.2369336    853.76929  0.020368577  0.019614607           21 
 3494000   0.68401693   -7.2091335    853.52912   0.02035702  0.019608865           19 
 3495000   0.69607644    -7.205732    853.75343  0.020356543  0.019603119           20 
 3496000   0.70050071   -7.2241819      853.077  0.020334597  0.019597383           45 
 3497000   0.69643867   -7.2088265    852.75602  0.020321133  0.019591655           21 
 3498000   0.68551916   -7.2277632    852.77984  0.020315891   0.01958592           23 
 3499000   0.68864338   -7.2255242    856.42151  0.020396816  0.019580187            9 
 3500000   0.69117578   -7.2184814    854.13906  0.020336644  0.019574447           12 
 3501000   0.70059566   -7.2215983    853.05473  0.020305025    0.0195687           13 
 3502000    0.7126268   -7.2358741    853.22173  0.020303201  0.019562952           25 
 3503000   0.69647807   -7.2072757    855.26299  0.020345965  0.019557207           30 
 3504000   0.68506343   -7.2332427    855.08243  0.020335864  0.019551483           23 
 3505000   0.68188094   -7.2127849    854.48132  0.020315771  0.019545742           16 
 3506000   0.67927396   -7.1793006    856.50043  0.020357968  0.019540022           12 
 3507000   0.69370959   -7.2221656     854.7609  0.020310828  0.019534299           20 
 3508000   0.69166937   -7.2209044    852.84672  0.020259567  0.019528564           22 
 3509000   0.69974946    -7.245091    851.06296  0.020211432  0.019522815           27 
 3510000   0.70108327   -7.2241808    853.95706  0.020274384  0.019517048           33 
 3511000   0.69073886   -7.2236687    855.37837  0.020302344  0.019511303           31 
 3512000   0.69681176   -7.1994797    853.95789  0.020262858  0.019505555           13 
 3513000   0.68089848   -7.2192241    854.24986  0.020264016  0.019499814           20 
 3514000   0.69066384   -7.2161794    852.44671  0.020215488  0.019494075           11 
 3515000   0.69653624   -7.2397961    855.47558  0.020281545  0.019488335           17 
 3516000   0.67268659   -7.2081906    852.43958   0.02020382  0.019482601           37 
 3517000    0.6936192    -7.224254    856.44848  0.020293064  0.019476864           58 
 3518000   0.68263539     -7.22134    854.95665  0.020251958   0.01947115           20 
 3519000   0.68172157   -7.2028608    853.19744  0.020204543  0.019465428           25 
 3520000   0.70296771   -7.2262946    855.27597  0.020248011  0.019459714           13 
 3521000   0.67850306   -7.2203177     854.6199  0.020226732     0.019454           14 
 3522000   0.68182829   -7.2145515    854.43129  0.020216527  0.019448288           25 
 3523000   0.68457125   -7.2263856    856.43366  0.020258153   0.01944257           25 
 3524000   0.70073753   -7.2031109    855.41934  0.020228418  0.019436868           15 
 3525000   0.68445001   -7.2298011    854.20081  0.020193872  0.019431153           29 
 3526000   0.68521571   -7.2058845    854.44833  0.020193995  0.019425442           19 
 3527000   0.69558988   -7.2381222    854.03602  0.020178528  0.019419726           26 
 3528000    0.7062234    -7.217282    856.11794  0.020221984   0.01941401           21 
 3529000   0.68878379   -7.2310111    855.11926  0.020192672   0.01940832           33 
 3530000   0.69145005   -7.2143425    856.67504  0.020223679  0.019402623           27 
 3531000   0.68831927    -7.244809    853.47495  0.020142428  0.019396912           28 
 3532000   0.67772595   -7.2341632    853.72001  0.020142507  0.019391177           23 
 3533000   0.68003263   -7.2491979     855.6487  0.020182298  0.019385454           14 
 3534000   0.67964972    -7.224427    855.13716  0.020164525  0.019379734           13 
 3535000   0.68956529    -7.229081    853.87922  0.020129166  0.019374045           16 
 3536000   0.67885685   -7.2420869    853.44844  0.020113321  0.019368349           19 
 3537000   0.67758249   -7.2210149     855.4008  0.020153633  0.019362656           15 
 3538000   0.68563638   -7.2342873    853.14198  0.020094733  0.019356969           33 
 3539000   0.69676084   -7.2207158    855.15224  0.020136391  0.019351281           17 
 3540000   0.68383479   -7.2359702    854.76725   0.02012164  0.019345589           12 
 3541000   0.67321314   -7.2442878    855.90935  0.020142835   0.01933989           20 
 3542000   0.66419983   -7.2472225    854.42802  0.020102297  0.019334198           18 
 3543000   0.66702247   -7.2206073    856.71865    0.0201505  0.019328526           22 
 3544000   0.68732353    -7.238939    856.02055  0.020128399  0.019322852           16 
 3545000   0.69132483   -7.2188211    854.55499   0.02008827  0.019317177           16 
 3546000   0.68178817   -7.2282315    855.21798  0.020098185  0.019311507           10 
 3547000   0.68462654   -7.2113201    855.62688  0.020102126   0.01930584           13 
 3548000   0.67553466   -7.2380182    858.13925  0.020155469  0.019300192           16 
 3549000   0.68615182   -7.2624552    854.56342  0.020065826  0.019294525           10 
 3550000   0.67500069   -7.2291558    855.77455  0.020088604  0.019288864           19 
 3551000   0.68710999   -7.2400639    856.30647   0.02009543  0.019283203           16 
 3552000   0.67350253   -7.2029983    856.36561   0.02009116  0.019277548           10 
 3553000   0.67461414   -7.2321188    856.00345  0.020077011  0.019271899           10 
 3554000   0.69258756   -7.2161072    855.83505  0.020067413  0.019266245            8 
 3555000   0.69284336   -7.2391464    856.17488  0.020069735  0.019260605           29 
 3556000    0.6790847   -7.2420802    855.95168   0.02005886  0.019254957           16 
 3557000   0.67549146   -7.2321936    855.73585  0.020048164  0.019249314           25 
 3558000   0.68723198   -7.2316212     855.4314  0.020035399  0.019243678           36 
 3559000   0.69376825   -7.2164039    855.52341  0.020031924  0.019238042           29 
 3560000   0.70096818   -7.2227215    857.05609  0.020062174  0.019232419           46 
 3561000   0.69639342   -7.2169045    857.62506  0.020069855   0.01922679           34 
 3562000   0.67452317   -7.2228752    857.06612  0.020051144  0.019221152           51 
 3563000    0.6780208   -7.2493776    854.86821  0.019994111  0.019215511           33 
 3564000   0.68472957   -7.2316985    855.67171  0.020007288  0.019209878           24 
 3565000    0.7028094   -7.2249066    854.98223  0.019985559  0.019204242           19 
 3566000   0.69490614   -7.2356565    855.41886  0.019990158  0.019198607           22 
 3567000   0.67645516   -7.2342959    855.21442  0.019979778  0.019192959           34 
 3568000   0.67185136   -7.2483899    856.02367  0.019993079  0.019187312           18 
 3569000   0.68913124   -7.2649382    855.27861  0.019970081  0.019181671           20 
 3570000    0.6876002   -7.2351805    855.56053  0.019971067   0.01917603           14 
 3571000   0.67685751   -7.2560377    854.83782   0.01994861  0.019170395           17 
 3572000   0.67769641   -7.2470361    855.71498  0.019963489  0.019164751           15 
 3573000    0.6805052    -7.226768    856.01927  0.019964998  0.019159111           23 
 3574000   0.69423636   -7.2611799    854.73874  0.019929555  0.019153477           20 
 3575000   0.68898278    -7.230756    855.20513  0.019934851  0.019147834           15 
 3576000   0.67213334   -7.2317269    855.50073  0.019936165  0.019142201           15 
 3577000   0.67271413   -7.2343839    856.68336  0.019958144  0.019136585           14 
 3578000   0.67981862   -7.2444759    857.20719  0.019964766  0.019130962           14 
 3579000   0.66746688   -7.2377328    855.42455  0.019917681  0.019125337           17 
 3580000   0.67578052   -7.2374953    853.88341  0.019876243  0.019119705           17 
 3581000   0.68822345   -7.2478192    855.34351  0.019904671  0.019114048           23 
 3582000   0.69468841   -7.2323734    855.24971  0.019896932  0.019108415           16 
 3583000   0.67670954   -7.2332578    855.31261  0.019892842  0.019102784           32 
 3584000   0.66207851   -7.2532183    856.22556  0.019908518  0.019097148           12 
 3585000   0.67555193   -7.2391859    857.18678  0.019925309  0.019091496           24 
 3586000     0.672253   -7.2440898    856.40356  0.019901551  0.019085855           24 
 3587000   0.66766383   -7.2499697    855.51182  0.019875286   0.01908022           20 
 3588000   0.68894546   -7.2577086     856.5402  0.019893632  0.019074566           26 
 3589000   0.68292436   -7.2558371    856.89503  0.019896327   0.01906892           19 
 3590000   0.68044802   -7.2477429    855.62986  0.019861417  0.019063288           54 
 3591000   0.66762906   -7.2592866    854.35557  0.019826315  0.019057661           30 
 3592000   0.67309699    -7.228913    855.93794  0.019857506  0.019052024           17 
 3593000   0.67447705   -7.2519248    856.91373  0.019874611  0.019046387           34 
 3594000   0.68417496   -7.2558985    858.14385  0.019897604  0.019040751           38 
 3595000   0.68030122   -7.2453891    855.52288  0.019831314  0.019035124           16 
 3596000    0.6961563   -7.2235527    856.73326  0.019853848  0.019029501           29 
 3597000   0.66497748   -7.2606857    856.45364  0.019841851  0.019023882           15 
 3598000   0.67829763   -7.2439604    856.77881  0.019843867  0.019018238           19 
 3599000   0.68310833   -7.2600748     854.7553    0.0197915  0.019012581           14 
 3600000    0.6901122   -7.2612407    856.81299  0.019833634  0.019006938           20 
 3601000   0.68328299    -7.263975    855.77741  0.019804161  0.019001319           39 
 3602000   0.68323837   -7.2517645    856.63985  0.019818616  0.018995694           18 
 3603000   0.68066114    -7.251032     857.6157  0.019835685  0.018990071           13 
 3604000   0.66580986   -7.2633409    856.93275   0.01981439  0.018984458           34 
 3605000   0.67380648   -7.2545231    858.30713  0.019840664  0.018978832           23 
 3606000    0.6623182   -7.2455495    855.34063  0.019766607  0.018973222           37 
 3607000   0.68394184   -7.2667509    856.20838  0.019781175  0.018967583           37 
 3608000   0.67284056   -7.2637021    856.81875   0.01978979  0.018961973           58 
 3609000   0.66920717   -7.2608607    856.78725  0.019783579  0.018956353           80 
 3610000   0.68637114   -7.2600252    857.15413  0.019786568  0.018950739           49 
 3611000   0.67691042   -7.2419018    855.43785  0.019741481  0.018945113           49 
 3612000   0.69046554   -7.2541366    857.77709  0.019789985  0.018939503           59 
 3613000   0.66732925   -7.2747857    855.43272  0.019730435  0.018933894           21 
 3614000   0.69477151   -7.2818843    854.46784  0.019702726  0.018928264           59 
 3615000   0.66706765   -7.2317388    857.09096  0.019757745  0.018922643           27 
 3616000   0.67756454   -7.2663499    855.73065  0.019720931  0.018917036           48 
 3617000   0.66977064   -7.2647117    855.70326  0.019714848  0.018911415           61 
 3618000   0.67531365   -7.2651574    855.90503  0.019714046  0.018905813           22 
 3619000   0.67745935   -7.2737159    855.56297  0.019700722  0.018900216           38 
 3620000   0.67843867   -7.2705324    854.97093  0.019681651  0.018894619           16 
 3621000   0.67187247   -7.2512683    856.71033  0.019716246  0.018889031           43 
 3622000   0.67678529   -7.2659938    855.95148  0.019693344  0.018883434           18 
 3623000   0.68948081   -7.2566327     856.7183  0.019705546  0.018877832           14 
 3624000    0.6776917   -7.2580856    856.81365  0.019702301  0.018872239           25 
 3625000   0.67987153   -7.2568486     856.9728  0.019700524  0.018866632           18 
 3626000   0.67773042   -7.2518206    857.83467  0.019714899  0.018861037           26 
 3627000   0.65077365   -7.2308569    858.33491  0.019720957  0.018855445           23 
 3628000   0.66223642   -7.2696687    857.83347  0.019704003  0.018849862           37 
 3629000   0.67276075   -7.2545161    859.03757  0.019726223  0.018844269           18 
 3630000    0.6755367   -7.2526058    855.99845   0.01965102  0.018838679           34 
 3631000   0.68252576   -7.2619548    857.35418  0.019676723  0.018833083           14 
 3632000   0.66920001   -7.2419003    855.56601  0.019630277  0.018827488           37 
 3633000   0.66208214   -7.2707197     856.1699  0.019638726  0.018821897           43 
 3634000   0.67011049   -7.2979914    856.01353  0.019629736  0.018816283           42 
 3635000   0.67267749   -7.2491031    856.09631  0.019626233  0.018810669           49 
 3636000   0.66544155   -7.2618206    856.53758  0.019630949  0.018805066           36 
 3637000   0.65626935   -7.2455093    856.87034  0.019633176   0.01879946           43 
 3638000   0.66178266   -7.2906507    856.11072  0.019610379  0.018793836           41 
 3639000   0.68392213   -7.2691395    857.71531  0.019641736  0.018788214           38 
 3640000   0.67275305   -7.2678676     856.2282  0.019602294  0.018782604           56 
 3641000   0.65329964   -7.2442042    858.36571  0.019645832  0.018777018           44 
 3642000     0.670195   -7.2486648    858.17296  0.019636028  0.018771424           54 
 3643000   0.67774636    -7.273364    856.09272  0.019583052  0.018765832           53 
 3644000   0.66182934   -7.2572936    856.65519  0.019590541  0.018760247           69 
 3645000   0.64988982   -7.2714122    854.41726  0.019534002  0.018754659           90 
 3646000    0.6666728   -7.2714497    856.73643  0.019581652   0.01874906          101 
 3647000   0.66510261   -7.2653446    856.41346  0.019568903  0.018743474           95 
 3648000   0.66016522   -7.2405551    856.09124  0.019556178  0.018737913           90 
 3649000   0.66211388   -7.2783399    856.75889  0.019566066  0.018732338           65 
 3650000   0.65913965   -7.2443553    857.42231  0.019575852  0.018726751           83 
 3651000   0.67361467   -7.2839361    857.73988  0.019577739  0.018721173           51 
 3652000   0.68435317   -7.2766101    858.24913  0.019583998  0.018715589           57 
 3653000   0.66091043   -7.2684045    855.74675  0.019521552   0.01871002           59 
 3654000   0.66497465   -7.2729952    855.31913  0.019506457  0.018704439           36 
 3655000   0.66663505    -7.263746    856.69454  0.019532479  0.018698858           89 
 3656000   0.67237031    -7.264749    854.61084  0.019479642  0.018693267           85 
 3657000   0.67734146   -7.2861737    856.29635  0.019512723  0.018687663           24 
 3658000   0.66780519   -7.2675271    855.66903  0.019493098  0.018682066           31 
 3659000   0.66295522   -7.2836602    856.03729  0.019496158  0.018676478           26 
 3660000   0.66299046   -7.2652758    856.85563  0.019509463  0.018670871           23 
 3661000   0.67419164    -7.299775    857.27415  0.019513661  0.018665274           25 
 3662000   0.66346987   -7.2661148     855.9124  0.019477344  0.018659694           24 
 3663000    0.6710776   -7.2754943    856.60841  0.019487861  0.018654112           76 
 3664000   0.65665305   -7.2787222    856.82788  0.019487534   0.01864852           35 
 3665000    0.6545711   -7.2859225    856.91387  0.019484172  0.018642925           24 
 3666000   0.64230439   -7.2965624    856.78416  0.019475908   0.01863733           20 
 3667000   0.65384496   -7.3064073    855.10099  0.019432347  0.018631744           42 
 3668000    0.6659903   -7.2914816    856.08523   0.01944941  0.018626152           20 
 3669000   0.67776511     -7.25489    855.22411  0.019424551   0.01862057           29 
 3670000   0.65477165   -7.2829535    856.34146  0.019444629   0.01861499           20 
 3671000   0.67199932   -7.2949253     855.3846  0.019417611  0.018609398           35 
 3672000   0.66695783   -7.2948946    856.17475  0.019430255  0.018603802           36 
 3673000   0.66964364   -7.2897525    857.19708  0.019448159  0.018598205           28 
 3674000   0.65307327   -7.2904939     853.8971  0.019368016    0.0185926           24 
 3675000   0.67418216   -7.2712771    854.48015  0.019375967  0.018586993           40 
 3676000   0.67014443   -7.2939968    854.56038  0.019372515  0.018581383           71 
 3677000   0.67701217   -7.2923945    856.38297  0.019408552  0.018575789           49 
 3678000   0.65484512   -7.2891992    855.75694  0.019389092   0.01857019           54 
 3679000   0.67297515   -7.2821253    855.42206  0.019376236  0.018564607           40 
 3680000   0.65896667   -7.2888949    856.22657  0.019389189  0.018559008           49 
 3681000   0.67721507   -7.2726852    856.04476  0.019379805  0.018553398           42 
 3682000   0.65618105   -7.2933714     853.3978  0.019314634  0.018547788           79 
 3683000   0.67917275   -7.2840227    854.22344  0.019328071  0.018542192           86 
 3684000   0.65765426    -7.264374    854.73055  0.019334296  0.018536595          106 
 3685000   0.66484333   -7.2885512    856.11248    0.0193603  0.018531016           95 
 3686000   0.66244113    -7.271847     856.6128  0.019366359  0.018525439          104 
 3687000   0.67597608   -7.2916343    855.96442  0.019346452  0.018519859          149 
 3688000   0.66522482    -7.269471    857.08674  0.019366566   0.01851428          160 
 3689000   0.64782264   -7.2888405    856.37014  0.019345128   0.01850872          141 
 3690000   0.65800616   -7.2743744    856.83923  0.019350479  0.018503161          136 
 3691000   0.67926677   -7.2988736    856.06385  0.019327731  0.018497586          173 
 3692000   0.65923653   -7.3029644     855.7493  0.019315396  0.018492003          168 
 3693000   0.67214549   -7.2732425    855.54776  0.019305618  0.018486426          166 
 3694000   0.67706866   -7.2919923    855.40764  0.019297231  0.018480862          179 
 3695000    0.6566767   -7.2679553    856.33822  0.019312996   0.01847531          176 
 3696000   0.66923781   -7.2845612    855.56301  0.019290292  0.018469765          181 
 3697000   0.65257664   -7.2767539    856.47963  0.019305735  0.018464206          184 
 3698000   0.66535895   -7.2995128    855.10766  0.019269597  0.018458644          185 
 3699000   0.66002446   -7.2822914    857.09554  0.019309172  0.018453079          143 
 3700000   0.67398203   -7.2940462     855.5939  0.019270133  0.018447516          140 
 3701000   0.65889315   -7.2950304    856.31964  0.019281267  0.018441951          140 
 3702000   0.65391465   -7.3101449    854.76857  0.019241144  0.018436387          163 
 3703000   0.64153477   -7.2986029    854.83155  0.019237365  0.018430825          141 
 3704000    0.6647264   -7.2637558    855.97626  0.019257925  0.018425281          157 
 3705000    0.6665593   -7.2977565    855.17248  0.019234649  0.018419736          108 
 3706000    0.6658048   -7.3114929    855.52679  0.019237426  0.018414193          140 
 3707000    0.6673599   -7.2757211    857.37801  0.019273852  0.018408646          124 
 3708000   0.67134221   -7.3005571    857.34606  0.019267935  0.018403109          105 
 3709000   0.65445827   -7.3096725    855.27186  0.019216138  0.018397554          136 
 3710000   0.66277775   -7.3023121    855.44432  0.019214832  0.018392001           95 
 3711000   0.65147508   -7.2814782    856.62714  0.019236215  0.018386454           74 
 3712000   0.66266934   -7.2862745    856.78396  0.019234554  0.018380928           86 
 3713000   0.65695708   -7.3010857    857.08742  0.019236184   0.01837539           83 
 3714000   0.66726469   -7.2990789    857.11037   0.01923152  0.018369858          114 
 3715000   0.66168081   -7.2838783    855.56851  0.019191757  0.018364317           90 
 3716000   0.65844966    -7.282066    856.67009  0.019211295  0.018358781           74 
 3717000    0.6656668   -7.3056366    855.76557  0.019185848  0.018353235          110 
 3718000   0.65105841   -7.3057905    854.64842  0.019155649  0.018347686           83 
 3719000   0.66278141   -7.2991902    856.11096   0.01918327  0.018342141           84 
 3720000   0.65181627   -7.3003852    853.90798  0.019128763  0.018336592           91 
 3721000   0.65106053   -7.3289002    855.53537  0.019160068  0.018331047          132 
 3722000   0.67141456   -7.3140408     855.1116  0.019145433  0.018325512          107 
 3723000    0.6617264   -7.3134529    854.88977  0.019135325  0.018319986          101 
 3724000   0.65179849   -7.2887627    856.27856  0.019161264  0.018314473          118 
 3725000   0.65652217   -7.3026556    857.57605  0.019185147  0.018308956           96 
 3726000   0.65573645   -7.3006349    856.07902  0.019146516  0.018303438          130 
 3727000   0.64304633   -7.3130297    856.47858  0.019150312  0.018297928          116 
 3728000   0.66725786   -7.3010317    855.50472  0.019123407  0.018292395          131 
 3729000   0.65470337   -7.2919687    857.26496  0.019157615  0.018286893          123 
 3730000   0.65904637   -7.3096473    855.59354  0.019115137   0.01828139           97 
 3731000    0.6541432   -7.2902663     856.6334  0.019133239  0.018275882          119 
 3732000   0.65150879   -7.2727989     857.2359  0.019141566  0.018270388          118 
 3733000   0.65756309   -7.3084722    854.79032  0.019081845  0.018264899          116 
 3734000   0.64938182   -7.2989263     856.7322  0.019120072  0.018259398          111 
 3735000   0.65174712   -7.3055618     858.4277  0.019152782  0.018253898          131 
 3736000   0.65439972   -7.3057105    856.73649  0.019109932  0.018248408           97 
 3737000   0.66737113   -7.2990663    857.83377  0.019129288    0.0182429          155 
 3738000    0.6507274    -7.312931    855.61311  0.019074664  0.018237388          125 
 3739000   0.66265559   -7.3168546     856.2442  0.019083627   0.01823187          144 
 3740000   0.66323781   -7.3128883    856.97633  0.019094838  0.018226362          124 
 3741000   0.63079849   -7.2961419    856.45904  0.019078211  0.018220856          119 
 3742000   0.64222077   -7.3161659    856.64054  0.019077154  0.018215353          100 
 3743000   0.66348694   -7.3140348    857.38836  0.019088707  0.018209836          125 
 3744000    0.6591377   -7.3261768    856.42268  0.019062114  0.018204331          123 
 3745000   0.65876767   -7.2920392    856.66519  0.019062421  0.018198825           87 
 3746000   0.64357312   -7.3123364    856.59248  0.019055714  0.018193321           76 
 3747000   0.64164582   -7.3319915    856.29362  0.019043982  0.018187818           91 
 3748000   0.65547021   -7.3174882    856.12916  0.019035245   0.01818231          124 
 3749000   0.64901582   -7.3096873    856.74324  0.019043817  0.018176813          118 
 3750000   0.65665452   -7.3090551    855.53992  0.019011998   0.01817131          121 
 3751000   0.65023311   -7.3024299    856.50652  0.019028404  0.018165836          122 
 3752000   0.64239204   -7.3099861    857.31895  0.019041377  0.018160361           51 
 3753000   0.63457142   -7.3086111     856.5394  0.019018994  0.018154887           86 
 3754000   0.65490226   -7.3331372    856.68802  0.019017226  0.018149416          117 
 3755000   0.65729169    -7.316146    856.57063  0.019009557  0.018143927           65 
 3756000   0.65313633   -7.3273515    857.39709  0.019022832  0.018138457          114 
 3757000   0.65500054   -7.3066625    857.07599  0.019010647  0.018132987          108 
 3758000   0.64429002   -7.3061271     856.9003  0.019001692  0.018127524          120 
 3759000   0.64892755   -7.3076102    857.11221  0.019001335  0.018122072           90 
 3760000   0.65850841   -7.3229323    856.43037  0.018981169   0.01811661          110 
 3761000    0.6466617   -7.2708411    856.50314  0.018977735  0.018111146          117 
 3762000   0.63539841    -7.299221    856.50351  0.018972699  0.018105685          127 
 3763000   0.66103268   -7.2852549    856.82083  0.018974684  0.018100232          142 
 3764000   0.64955936   -7.2874261    856.23407  0.018956652   0.01809478          113 
 3765000   0.65700668   -7.3045385    855.79763  0.018941957   0.01808932          149 
 3766000   0.65155939   -7.3051559    856.61098  0.018954925  0.018083855          150 
 3767000   0.64437797   -7.2992639     856.2884  0.018942757   0.01807839          156 
 3768000   0.64324787   -7.3106996     857.5339  0.018965276  0.018072926          105 
 3769000   0.64962645   -7.3309571      856.383  0.018934797  0.018067451          112 
 3770000   0.66129459   -7.3276065    855.91918  0.018919522  0.018061995          162 
 3771000   0.64777539   -7.3299204    855.37343  0.018902445  0.018056521          205 
 3772000   0.66055219   -7.3272894    857.06328  0.018934767  0.018051047          120 
 3773000   0.64900615   -7.3251898    857.47221   0.01893878  0.018045572          174 
 3774000    0.6443468   -7.3280438    857.27716  0.018929455    0.0180401          101 
 3775000   0.65607053   -7.3192165    856.72643  0.018912283  0.018034635          163 
 3776000    0.6661257   -7.3370948    854.73011  0.018863217  0.018029163          147 
 3777000   0.65583458   -7.3410333    856.48554  0.018896954  0.018023697          154 
 3778000   0.64469368   -7.3139774     856.3573  0.018889124  0.018018246          231 
 3779000   0.64868487   -7.3473082    855.37224  0.018862403  0.018012779          110 
 3780000   0.66536971   -7.3129902    856.85308  0.018890059  0.018007333          228 
 3781000    0.6443125   -7.3215197    857.66022  0.018902852  0.018001878          146 
 3782000   0.65503171   -7.3180026    857.12444  0.018886049  0.017996428          149 
 3783000   0.62945206   -7.3327034    857.17746  0.018882224   0.01799098          170 
 3784000   0.64603046     -7.32923    858.19259   0.01889959  0.017985548          178 
 3785000   0.65527685   -7.3454242    857.59726   0.01888149  0.017980109          154 
 3786000   0.66329238   -7.3205232    856.49447  0.018852229  0.017974674          152 
 3787000    0.6457037   -7.3124951    858.59108  0.018893387  0.017969252          149 
 3788000   0.63880074   -7.3387195    857.48204  0.018864001  0.017963824          181 
 3789000    0.6432436   -7.3140402    857.54561  0.018860421  0.017958399          142 
 3790000   0.66596245   -7.3461608    858.64591  0.018879637  0.017952972          221 
 3791000   0.64061134   -7.3328845    857.19238  0.018842706  0.017947557          211 
 3792000   0.65326141     -7.32297    855.67521  0.018804395  0.017942137          145 
 3793000   0.62711227   -7.3346146    857.81174  0.018846378  0.017936713          134 
 3794000    0.6382967   -7.3328737     858.3678  0.018853624    0.0179313           89 
 3795000   0.64726671    -7.327781     858.1923  0.018844802  0.017925882           87 
 3796000   0.64645501   -7.3443952    858.19539  0.018839906  0.017920462          123 
 3797000   0.65165154   -7.3135015    857.29924  0.018815276  0.017915044          168 
 3798000   0.63256089   -7.3098579    858.14541  0.018828888  0.017909638          197 
 3799000   0.63527385   -7.3241447    856.88678  0.018796323  0.017904228          132 
 3800000    0.6478942   -7.3203728    857.38663  0.018802338  0.017898809          212 
 3801000   0.64862682   -7.3411031    857.02144  0.018789385  0.017893387          132 
 3802000    0.6456567   -7.3332796    856.27212  0.018768019  0.017887965          203 
 3803000   0.63672716   -7.3614409      857.647  0.018793212  0.017882547          181 
 3804000   0.63634103   -7.3313258    856.90147  0.018771939  0.017877123          186 
 3805000   0.64595639   -7.3308585     856.5061  0.018758347  0.017871692          122 
 3806000   0.64826921   -7.3649288    857.29774  0.018770751  0.017866269          212 
 3807000   0.63440243   -7.3472121    855.37369  0.018723704  0.017860844          133 
 3808000   0.64036088   -7.3278674    858.75201  0.018792717  0.017855426          228 
 3809000   0.64198105   -7.3375514    857.41064  0.018758437  0.017850011          233 
 3810000   0.64245849      -7.3381    856.77713  0.018739657  0.017844605          175 
 3811000   0.64834222   -7.3516598     858.0697  0.018763004   0.01783919          206 
 3812000   0.63912213   -7.3354734    857.39705  0.018743377  0.017833774          173 
 3813000   0.63506449   -7.3521379    856.19524  0.018712196  0.017828364          218 
 3814000   0.64477371   -7.3437178    856.80975  0.018720717  0.017822941          184 
 3815000   0.64801486   -7.3516229    856.78195  0.018715202  0.017817525          202 
 3816000   0.64245179    -7.327405    855.53639  0.018683097  0.017812104          230 
 3817000   0.64388951   -7.3453207    855.62003  0.018680029  0.017806697          276 
 3818000    0.6362216   -7.3557869    856.60532  0.018696641  0.017801282          206 
 3819000      0.63548   -7.3585826    858.16964   0.01872588  0.017795881           87 
 3820000   0.64633342   -7.3304473    858.43743   0.01872682  0.017790486          185 
 3821000   0.63402168   -7.3544462    857.01535  0.018690904  0.017785087          153 
 3822000   0.63606394   -7.3677138    857.33766  0.018693041   0.01777967          262 
 3823000   0.65393141   -7.3496786    855.43715  0.018646725  0.017774262          222 
 3824000    0.6320702   -7.3525797     856.7123  0.018669637  0.017768852          189 
 3825000   0.63687814    -7.349368    857.32624  0.018678132  0.017763455          264 
 3826000   0.63845702   -7.3511726    855.80572  0.018640132  0.017758045          407 
 3827000    0.6350238   -7.3424313     855.7874  0.018634862  0.017752647          288 
 3828000   0.63911188   -7.3515263     856.1153  0.018637132  0.017747239          324 
 3829000   0.65326758   -7.3681464    853.79445  0.018581754  0.017741837          345 
 3830000   0.62876803   -7.3549194    856.36282  0.018632786  0.017736422          336 
 3831000    0.6312437   -7.3497655    856.81788   0.01863782  0.017731009          424 
 3832000   0.63288489    -7.338502    856.00491  0.018615277    0.0177256          434 
 3833000    0.6568404   -7.3584503    856.05946  0.018611607  0.017720188          378 
 3834000   0.63327771   -7.3698652    853.74236  0.018556389  0.017714764          349 
 3835000   0.64192097   -7.3895415     855.7994  0.018596249  0.017709339          371 
 3836000   0.64472869   -7.3711803    856.35422  0.018603454  0.017703925          519 
 3837000   0.65296378    -7.357925    856.10347   0.01859316  0.017698508          461 
 3838000   0.62846259   -7.3650058     855.6168  0.018577749  0.017693111          557 
 3839000   0.64125981   -7.3485756    856.90727  0.018600922  0.017687702          526 
 3840000   0.63586757   -7.3640095    857.48128  0.018608535  0.017682295          514 
 3841000   0.64686458     -7.36274    855.74276  0.018565971  0.017676895          509 
 3842000   0.65110188    -7.379863    857.06292  0.018589774  0.017671497          539 
 3843000   0.63624447   -7.3723702    856.73022  0.018577722  0.017666103          530 
 3844000   0.63825323   -7.3692935    855.23267  0.018540424  0.017660707          471 
 3845000   0.64612393   -7.3545773     855.3417  0.018537965  0.017655303          448 
 3846000   0.63697187   -7.3761332    855.32235  0.018532726  0.017649902          458 
 3847000   0.64127614   -7.3800273    854.42031  0.018508368    0.0176445          452 
 3848000   0.63651696    -7.371847    854.45285  0.018504263  0.017639098          509 
 3849000   0.63783933   -7.3879625    855.38001  0.018519529  0.017633687          478 
 3850000   0.62716352   -7.3512393    855.39743  0.018515096  0.017628274          506 
 3851000    0.6305859   -7.3577006    856.26336  0.018529026  0.017622879          540 
 3852000    0.6300205   -7.3875197    856.29888  0.018524984  0.017617472          523 
 3853000    0.6321269    -7.401527    855.05723  0.018493322  0.017612058          592 
 3854000   0.62638587   -7.3782571    856.24502  0.018514206  0.017606635          502 
 3855000   0.63001169   -7.4011448    853.97698  0.018460376  0.017601216          586 
 3856000   0.63617561   -7.4107005    855.88111  0.018496739  0.017595802          512 
 3857000   0.62132182   -7.3687016    855.70635  0.018488168  0.017590397          564 
 3858000   0.63738175   -7.3592269    855.15212  0.018471404  0.017584993          568 
 3859000   0.63314634    -7.373713    856.30794  0.018491577  0.017579597          422 
 3860000   0.63637453   -7.3655553    856.41627  0.018489125  0.017574209          542 
 3861000   0.63850033   -7.3736447    855.68222  0.018468493   0.01756883          595 
 3862000   0.64769526   -7.3816258     856.6459  0.018484505  0.017563451          553 
 3863000   0.62071884   -7.3586496    853.55881  0.018413125  0.017558056          557 
 3864000   0.61967551   -7.3844468    854.85992   0.01843642  0.017552667          589 
 3865000   0.63265432   -7.3792886     855.0007  0.018434685  0.017547274          551 
 3866000   0.64836882   -7.3876708    855.40563  0.018438645  0.017541878          635 
 3867000   0.63234187    -7.370008    855.59909  0.018438046  0.017536486          602 
 3868000   0.62773537    -7.350462    855.31424  0.018427142  0.017531105          495 
 3869000   0.64182949   -7.3593235    855.99041  0.018436944  0.017525731          577 
 3870000   0.63694624     -7.40134    856.62432  0.018445829   0.01752035          502 
 3871000   0.63599104   -7.3844671    855.82471  0.018423851  0.017514969          618 
 3872000   0.62442997   -7.3871241    854.26169  0.018385453  0.017509586          583 
 3873000   0.61740595   -7.3887048    856.43892  0.018427552  0.017504204          623 
 3874000   0.62993201   -7.3837808    858.19621  0.018460596  0.017498832          624 
 3875000    0.6280923   -7.3999825    855.74495  0.018403117  0.017493459          585 
 3876000   0.62753781   -7.3894285    856.33692  0.018411097  0.017488082          652 
 3877000    0.6468926   -7.3589981    855.75911  0.018393928   0.01748271          616 
 3878000    0.6412094   -7.4056437    855.28809  0.018379063  0.017477329          690 
 3879000   0.61802526   -7.3955091    855.20493  0.018372539  0.017471944          640 
 3880000   0.63719938   -7.3943446    855.12584  0.018366105  0.017466558          662 
 3881000   0.63450838   -7.3883978    857.57893  0.018414046  0.017461177          647 
 3882000   0.61586935   -7.3838874    854.30136  0.018338944  0.017455803          420 
 3883000   0.63193551   -7.3964019    856.23923   0.01837581  0.017450432          570 
 3884000   0.63166506   -7.3889964    855.26899  0.018350261  0.017445068          305 
 3885000     0.637019   -7.3957341    854.63176   0.01833187  0.017439699          683 
 3886000   0.61731723   -7.3875815    856.22977  0.018361421  0.017434327          726 
 3887000    0.6431833   -7.4019532     855.6268   0.01834377  0.017428966          709 
 3888000   0.62069471   -7.3871804    855.45284  0.018335323  0.017423615          742 
 3889000   0.63668611   -7.3879179    855.03677  0.018321693  0.017418254          708 
 3890000    0.6300655   -7.3830432    855.71944  0.018331608  0.017412904          729 
 3891000   0.62812148   -7.3931877    856.32958  0.018339964  0.017407558          714 
 3892000   0.63623827   -7.4077281    855.25712  0.018312289  0.017402201          711 
 3893000    0.6295433   -7.3945278    856.26856  0.018329235  0.017396844          730 
 3894000   0.63595169   -7.4134498    856.22346  0.018323563  0.017391503          668 
 3895000   0.63148387   -7.3849588    856.25226  0.018319475  0.017386157          720 
 3896000    0.6278574    -7.399488    855.78438  0.018304765  0.017380811          712 
 3897000   0.62101088   -7.3739322    855.40073  0.018291864  0.017375453          781 
 3898000   0.61792903   -7.4072452    854.53448  0.018268652  0.017370104          739 
 3899000   0.62872512   -7.3740211    855.60039  0.018286748  0.017364757          755 
 3900000   0.61864335   -7.3963761    855.37577   0.01827726  0.017359406          762 
 3901000   0.62519523   -7.4163106    855.70176  0.018279539   0.01735405          678 
 3902000   0.63887644   -7.4297778    855.52427  0.018271063  0.017348696          806 
 3903000   0.63728754   -7.4179278     854.6354  0.018247404  0.017343345          777 
 3904000   0.63176034   -7.4203429    855.70995  0.018265667  0.017337985          740 
 3905000   0.64449498   -7.4035584    856.23373  0.018272167  0.017332639          795 
 3906000   0.62866428   -7.4210773    855.88231  0.018259991  0.017327289          825 
 3907000   0.62983052   -7.4271381    855.33732  0.018243693  0.017321934          786 
 3908000   0.61241957   -7.4092978    854.07028  0.018212007  0.017316583          801 
 3909000    0.6394261   -7.4276581    854.57342  0.018218074  0.017311233          791 
 3910000   0.62456317   -7.3884792    853.63134  0.018193336  0.017305887          749 
 3911000   0.62528664    -7.410501     854.7554  0.018212635  0.017300551          726 
 3912000   0.61909009    -7.411538    855.96276  0.018233699  0.017295209          793 
 3913000   0.62972523   -7.4120693    857.08459   0.01825293  0.017289872          770 
 3914000   0.62687956   -7.4125336    854.92754  0.018202341  0.017284534          852 
 3915000   0.63036201   -7.4166216    854.63553  0.018191476  0.017279203          804 
 3916000    0.6292997   -7.4196139    854.54512  0.018184906  0.017273877          858 
 3917000   0.62640248   -7.4131092    855.63235  0.018203394  0.017268543          812 
 3918000   0.61537946   -7.4216927    853.95204  0.018163009  0.017263214          776 
 3919000   0.63496454   -7.4269837    854.23216  0.018164331  0.017257894          891 
 3920000   0.62633009    -7.427557    854.64322  0.018168436  0.017252573          794 
 3921000   0.61891299   -7.4343716    854.70354  0.018165084  0.017247239          884 
 3922000    0.6260392   -7.4070876    855.25442  0.018172158  0.017241913          886 
 3923000   0.61719267   -7.4253694    854.45677  0.018150581   0.01723659          822 
 3924000   0.63805905   -7.4202676    854.82755   0.01815383   0.01723127          867 
 3925000   0.62308616   -7.4244705    855.70861  0.018167911  0.017225956          797 
 3926000   0.62179088   -7.4120607    855.94996  0.018168406  0.017220643          801 
 3927000   0.62437496   -7.4155149    854.48339  0.018132658  0.017215318          869 
 3928000   0.63296743   -7.4042811     855.8016  0.018156008  0.017209989          804 
 3929000     0.613837   -7.4147547    854.40493  0.018121764   0.01720467          774 
 3930000   0.61585623   -7.4255249    856.23575  0.018155974  0.017199356          848 
 3931000    0.6126939   -7.4120898    854.86143  0.018122221  0.017194043          859 
 3932000   0.63019242   -7.4287407    855.92265  0.018140104  0.017188731          764 
 3933000   0.61897406   -7.4083053    854.11713  0.018097235  0.017183413          906 
 3934000   0.62578972   -7.4289178    855.33035  0.018118335  0.017178095          891 
 3935000   0.63417512   -7.4172747    855.54845  0.018118349  0.017172783          902 
 3936000   0.61327338   -7.4085836    855.13977  0.018105093  0.017167475          766 
 3937000   0.61972042   -7.4499742    854.82561  0.018093845  0.017162164          825 
 3938000   0.62035652   -7.4166883    855.62953  0.018106262  0.017156851          808 
 3939000   0.62925495   -7.4346895    854.56719  0.018079191  0.017151541          863 
 3940000   0.61061896   -7.4412002    855.25574  0.018089165  0.017146231          925 
 3941000   0.62554634   -7.4301527    857.05102  0.018122537  0.017140923          887 
 3942000   0.62137708   -7.4362552     853.0396  0.018033139  0.017135628          839 
 3943000   0.62225053   -7.4147032     855.5743  0.018082135  0.017130333          887 
 3944000   0.62808602   -7.4353799    855.56319  0.018077315  0.017125055          843 
 3945000   0.61352217   -7.4290617    854.48118  0.018049877  0.017119761          839 
 3946000    0.6183115   -7.4047492    855.37599    0.0180642   0.01711447          845 
 3947000   0.61786419   -7.4213636     856.0523  0.018073902  0.017109177          884 
 3948000    0.6166637   -7.4437577    854.78797  0.018042637  0.017103873          914 
 3949000   0.62648073   -7.4250864    856.26936  0.018069329  0.017098584          847 
 3950000   0.61732235   -7.4260717    855.18581  0.018041895    0.0170933          909 
 3951000   0.61906326   -7.4146908    853.73662  0.018006762  0.017088002          839 
 3952000   0.63277929   -7.4371108    854.29274  0.018013933  0.017082708          822 
 3953000   0.62884509   -7.4503634    855.54211  0.018035714  0.017077412          901 
 3954000   0.62597192   -7.4253409    855.91118  0.018038931   0.01707211          898 
 3955000   0.63471565   -7.4530728    854.80953  0.018011157  0.017066819          936 
 3956000   0.61485463   -7.3966516     854.4795  0.017999652  0.017061519          893 
 3957000   0.62802986   -7.4371439    853.98029   0.01798459  0.017056227          919 
 3958000   0.62012588    -7.445501    852.73715  0.017953873  0.017050932          937 
 3959000   0.61757971   -7.4330605    856.15427  0.018021265  0.017045634          945 
 3960000   0.61102685   -7.4291807    855.27955  0.017998307  0.017040346          857 
 3961000    0.6168855   -7.4455259    855.54862  0.017999424  0.017035065          901 
 3962000   0.60826801   -7.4203253    854.05908  0.017963551  0.017029778          974 
 3963000   0.62569115   -7.4531073    854.04079  0.017958634  0.017024504          936 
 3964000   0.62567609   -7.4470517    856.20764  0.017999656  0.017019217          913 
 3965000   0.62466896   -7.4553585    854.83334  0.017966233  0.017013937          938 
 3966000   0.61883112   -7.4308243     856.2307  0.017991064  0.017008654          914 
 3967000   0.61350466   -7.4455529    852.78807   0.01791421  0.017003376          916 
 3968000   0.61358783   -7.4420522    854.17873  0.017938902  0.016998097          893 
 3969000   0.61407662   -7.4317209    854.72004  0.017945747  0.016992826          885 
 3970000   0.60661281   -7.4353096    855.86252  0.017965208  0.016987557          955 
 3971000   0.61647924    -7.442499    854.52394  0.017932593  0.016982291          905 
 3972000   0.60742453    -7.434712    854.69052  0.017931573  0.016977041          882 
 3973000   0.61482337   -7.4260179    855.40083  0.017941959   0.01697178          804 
 3974000   0.61720795   -7.4560513    855.56698  0.017940928  0.016966531          934 
 3975000   0.60873989   -7.4278996    856.02621  0.017946042  0.016961277          960 
 3976000   0.62287481   -7.4192857    853.42157  0.017886938  0.016956026          921 
 3977000   0.61873543   -7.4174291    854.64109  0.017907994  0.016950765          939 
 3978000   0.61604058   -7.4398304    854.91082  0.017909142  0.016945503          938 
 3979000   0.62646093   -7.4236272    854.53573  0.017896786  0.016940244          932 
 3980000   0.59628401    -7.417666    853.97362   0.01788052  0.016934989          961 
 3981000   0.61312189   -7.4436368    853.99024  0.017876376  0.016929725          948 
 3982000   0.60648526   -7.4385955    854.54422   0.01788348  0.016924457          963 
 3983000   0.61086991   -7.4641125    854.03053  0.017868243  0.016919189          981 
 3984000   0.61615925   -7.4515642    854.87662  0.017881455  0.016913917          977 
 3985000   0.62160603   -7.4247384    854.58622  0.017870896  0.016908644          968 
 3986000   0.61893711   -7.4542409    853.76735  0.017849292   0.01690338         1018 
 3987000    0.6079073   -7.4473117    853.61261  0.017841581  0.016898117         1049 
 3988000   0.61865191   -7.4545382    853.54551  0.017835705  0.016892852          969 
 3989000   0.61105392   -7.4341355     854.2654  0.017846273  0.016887584         1018 
 3990000   0.61713896   -7.4458082    853.06511  0.017816732  0.016882321         1040 
 3991000   0.60984267   -7.4345357    854.17853  0.017835516  0.016877066          988 
 3992000    0.6218697   -7.4592707    853.30031  0.017812715  0.016871811         1099 
 3993000   0.60146497   -7.4480928    853.94306  0.017821668  0.016866547         1066 
 3994000   0.60139238   -7.4469054    854.58389  0.017830577  0.016861287          966 
 3995000   0.60981121   -7.4624375    855.09628  0.017836802  0.016856025         1063 
 3996000   0.61037818   -7.4524123    853.44078  0.017797814  0.016850765         1069 
 3997000   0.61493861   -7.4571306    854.19363  0.017809057  0.016845506         1122 
 3998000   0.61134075   -7.4642246    853.49175  0.017789973  0.016840239         1114 
 3999000   0.61034427   -7.4611614    853.03112  0.017775926  0.016834972         1114 
 4000000   0.62140941   -7.4482806    852.82338  0.017767154  0.016829713         1038 
 4001000   0.60273093   -7.4747974    853.42225  0.017775186  0.016824462         1073 
 4002000    0.6086528   -7.4555637     853.0633   0.01776327  0.016819212         1081 
 4003000   0.60944511    -7.458325    852.90981  0.017755638  0.016813961         1118 
 4004000   0.61101633   -7.4513968    853.79273  0.017769579  0.016808707         1105 
 4005000   0.60489216   -7.4510637    854.95372  0.017789299  0.016803456         1107 
 4006000   0.61213871   -7.4564448    855.75654  0.017801559  0.016798205         1110 
 4007000   0.59705033    -7.470043     854.3669  0.017768216  0.016792949         1112 
 4008000   0.62053016   -7.4549422    854.64347  0.017769533  0.016787693         1145 
 4009000   0.60998872   -7.4881571    853.55384  0.017742451  0.016782442         1131 
 4010000   0.60314629   -7.4614069    852.75907   0.01772151  0.016777194         1100 
 4011000    0.5999381    -7.459207    853.50052  0.017732497  0.016771946         1125 
 4012000   0.59533515   -7.4745836    854.05436   0.01773958  0.016766703         1126 
 4013000   0.60902878    -7.476304    852.79052  0.017708915  0.016761456         1158 
 4014000   0.60967888   -7.4857088    852.67186   0.01770204  0.016756212         1126 
 4015000   0.60320676   -7.4803051    852.36283  0.017691217  0.016750978         1026 
 4016000   0.60249102   -7.4741471    852.37073  0.017686976  0.016745736         1072 
 4017000   0.60546467   -7.4590508    853.62013  0.017708492  0.016740499         1135 
 4018000    0.6020894   -7.4625669    854.37536  0.017719748  0.016735268         1048 
 4019000   0.60624776   -7.4958875    853.12697  0.017689454  0.016730031         1097 
 4020000   0.60827435   -7.4835176     853.2835  0.017688298  0.016724794         1151 
 4021000   0.59573681   -7.4871344     851.7769  0.017652676  0.016719551         1137 
 4022000   0.60403542   -7.4853387    854.69736  0.017708797  0.016714311         1097 
 4023000   0.60661279   -7.4816392    853.89122  0.017687696  0.016709066         1144 
 4024000   0.60407742   -7.4683898     853.7041  0.017679426  0.016703825         1106 
 4025000   0.60146276   -7.4699658    853.14488  0.017663455  0.016698597         1121 
 4026000   0.60377842    -7.475373    852.43954  0.017644468  0.016693364         1121 
 4027000   0.60403468   -7.4779844    852.62625   0.01764395  0.016688131         1091 
 4028000     0.612111   -7.4799378    852.05617  0.017627776  0.016682896         1110 
 4029000   0.61541057   -7.4886698    852.48492  0.017632269  0.016677662         1132 
 4030000   0.59519616    -7.501661    852.92344  0.017636961  0.016672423         1167 
 4031000   0.60338292   -7.4837888    852.26454  0.017618964   0.01666719         1158 
 4032000   0.60116669   -7.4772588    853.19189  0.017633761  0.016661951         1074 
 4033000     0.606487   -7.5012583    853.39502  0.017633586   0.01665671         1131 
 4034000   0.61376861   -7.4891245    852.67149  0.017614268  0.016651478         1127 
 4035000   0.60345691   -7.4855364    853.59412  0.017628957  0.016646253         1150 
 4036000   0.60243198   -7.4921171    852.45532  0.017601076  0.016641024         1130 
 4037000   0.60618575   -7.4865627     854.0329  0.017629281  0.016635798         1140 
 4038000   0.62247309   -7.4721504    852.18188  0.017586715  0.016630578         1153 
 4039000    0.5966808   -7.4976679    852.42433  0.017587363  0.016625353         1231 
 4040000   0.59380376   -7.4982093    849.84523  0.017529811  0.016620133         1153 
 4041000    0.5986258   -7.4836357    851.89103  0.017567661  0.016614917         1234 
 4042000   0.60277551   -7.4874219    854.02066  0.017607221  0.016609704         1212 
 4043000   0.60406956    -7.516646     851.0366   0.01754136  0.016604492         1224 
 4044000    0.6062311    -7.497789    852.33916  0.017563863  0.016599276         1174 
 4045000   0.61343236   -7.5076361    852.06586  0.017553891  0.016594067         1191 
 4046000   0.60127309   -7.5032471    852.82995   0.01756529  0.016588866         1219 
 4047000   0.60176801   -7.4941045     853.1855  0.017568271  0.016583663         1176 
 4048000   0.60485186   -7.4736049    852.79522  0.017555896  0.016578463         1243 
 4049000   0.60246676   -7.4905989    853.25054  0.017560932  0.016573272         1188 
 4050000   0.60392524   -7.4960335     852.8804  0.017548979  0.016568078         1233 
 4051000    0.5916575   -7.4791054    853.25228  0.017552297  0.016562873         1187 
 4052000   0.59223892   -7.4907866    852.38937  0.017530219  0.016557674         1239 
 4053000   0.59648121   -7.4897782    853.03675  0.017539205  0.016552474         1191 
 4054000    0.5987735   -7.5090533    852.96462  0.017533395  0.016547283         1271 
 4055000   0.62314557   -7.5005737    851.16371  0.017492061  0.016542096         1184 
 4056000   0.60180519   -7.4990954    853.07681  0.017527055  0.016536904         1203 
 4057000    0.6131408   -7.4901184    854.32093  0.017548289  0.016531715         1155 
 4058000   0.61247908   -7.4898843    852.81691  0.017513079  0.016526523         1311 
 4059000   0.59843656   -7.4757945     852.8782  0.017510023  0.016521336         1243 
 4060000   0.60896615   -7.4915444    853.73562  0.017523309  0.016516151         1244 
 4061000   0.61083273   -7.4900708     853.6699  0.017517645  0.016510967         1218 
 4062000   0.58795095   -7.4936113    853.02905  0.017500186  0.016505781         1251 
 4063000   0.60752599   -7.4946579    851.42202  0.017462918  0.016500595         1259 
 4064000   0.60344417   -7.5146254    853.13039  0.017493651   0.01649541         1279 
 4065000   0.60054953   -7.5054891    852.50668  0.017476562  0.016490223         1355 
 4066000    0.5955032   -7.4945045    851.15822  0.017444627   0.01648504         1284 
 4067000   0.59938294   -7.4943766    852.85823  0.017475171  0.016479859         1283 
 4068000   0.59327479   -7.5093632    852.00262  0.017453348  0.016474681         1236 
 4069000   0.59727967   -7.5284485    852.66034  0.017462528  0.016469496         1340 
 4070000   0.59140824   -7.5005918     851.8731  0.017442119  0.016464313         1284 
 4071000   0.59507179   -7.5166255    853.03421  0.017461602  0.016459128         1250 
 4072000   0.60540786   -7.5116632    852.20499  0.017440344   0.01645395         1284 
 4073000   0.59886202   -7.5117859    851.50245  0.017421688  0.016448779         1279 
 4074000   0.59855509   -7.5196429    851.94184    0.0174264  0.016443597         1358 
 4075000   0.59169906   -7.5045595    851.21257   0.01740721  0.016438423         1308 
 4076000   0.60256818   -7.5093712    852.60668  0.017431442   0.01643325         1281 
 4077000   0.60115527   -7.4958626    851.53324  0.017405225  0.016428071         1275 
 4078000   0.58638184   -7.5164342    851.97367  0.017409957  0.016422894         1331 
 4079000   0.58500009   -7.5211449    852.98498   0.01742635  0.016417717         1341 
 4080000   0.60500871   -7.5175947    852.38476   0.01740982  0.016412546         1317 
 4081000   0.60380811   -7.4922494    852.54197  0.017408764  0.016407378         1364 
 4082000   0.59809308   -7.5140109    852.03341  0.017394117  0.016402207         1279 
 4083000   0.59749171   -7.5143204    852.38057  0.017396942  0.016397044         1323 
 4084000   0.59243333   -7.5404956    852.55023  0.017396144  0.016391884         1337 
 4085000   0.59604589   -7.5251717    852.94824  0.017400005   0.01638673         1321 
 4086000   0.60712407   -7.5234241    851.73727  0.017371049  0.016381573         1260 
 4087000   0.59529563   -7.5252593    851.82911  0.017368671  0.016376413         1363 
 4088000   0.58700167   -7.5247554    850.49575  0.017337242  0.016371254         1368 
 4089000   0.59696299    -7.510703    852.08043  0.017365298  0.016366102         1327 
 4090000   0.58807022    -7.507962     852.5978  0.017371593  0.016360953         1392 
 4091000   0.59216743   -7.5222386    852.64153  0.017368238  0.016355812         1369 
 4092000   0.59009128   -7.4961086    853.35994  0.017378624  0.016350679         1341 
 4093000   0.59717166   -7.5025539    854.48166  0.017397216  0.016345538         1345 
 4094000   0.59865595   -7.4947602     853.2286   0.01736746    0.0163404         1266 
 4095000    0.5954646   -7.5295102     853.6459  0.017371711  0.016335261         1398 
 4096000   0.60374999    -7.523141    853.19793  0.017358356  0.016330117         1374 
 4097000   0.58827778   -7.4968539    851.29715  0.017315458  0.016324971         1370 
 4098000   0.59039795   -7.5159701    851.80413  0.017321542  0.016319823         1436 
 4099000   0.58436083   -7.4998156    852.44271  0.017330298  0.016314683         1453 
 4100000   0.58729627   -7.5163177    852.87943  0.017334948  0.016309541         1410 
 4101000   0.60301837   -7.5261487    852.54402  0.017323905  0.016304398         1440 
 4102000   0.59200557   -7.5070018    852.68345  0.017322514  0.016299253         1391 
 4103000   0.59515962   -7.5316918    852.69065  0.017318439  0.016294113         1387 
 4104000   0.60921968    -7.536555    852.26199  0.017305515  0.016288974         1459 
 4105000   0.59845754   -7.5075638    851.37936  0.017283381  0.016283842         1389 
 4106000   0.58662682   -7.5390065    852.02587  0.017292293  0.016278705         1382 
 4107000   0.58338616    -7.505972    852.34063  0.017294469  0.016273569         1436 
 4108000   0.58247353   -7.5246047    854.57147  0.017335513  0.016268442         1445 
 4109000   0.58893897    -7.512995    851.97266  0.017278589  0.016263313         1448 
 4110000    0.5994479   -7.5183921    852.58873  0.017286876  0.016258192         1430 
 4111000   0.58292308   -7.5205588     852.2072  0.017274937   0.01625307         1427 
 4112000   0.59266664   -7.5261675    852.97772  0.017286351  0.016247941         1396 
 4113000   0.59679435   -7.5404381    853.51379   0.01729301   0.01624282         1399 
 4114000   0.59129703   -7.5328009    851.51437  0.017248306    0.0162377         1474 
 4115000   0.59305233   -7.5477407    851.66831  0.017247232  0.016232571         1456 
 4116000   0.58481045   -7.5351101    850.76453  0.017224744  0.016227448         1467 
 4117000   0.59179803   -7.5238706    850.89909  0.017223283  0.016222324         1483 
 4118000   0.59070675   -7.5308644    851.01523  0.017221451  0.016217195         1387 
 4119000   0.59148435   -7.5132271    851.39573  0.017224968  0.016212074         1467 
 4120000   0.59435841    -7.531256    851.73795  0.017227709  0.016206946         1471 
 4121000   0.59511753   -7.5158482    851.36196  0.017215926  0.016201825         1470 
 4122000   0.59939169   -7.5366369    852.98328  0.017244527  0.016196706         1384 
 4123000   0.59965474   -7.5397357    851.51222  0.017210612   0.01619159         1460 
 4124000   0.59219035   -7.5394598    853.95772  0.017255854  0.016186468         1477 
 4125000   0.58800997   -7.5438809    851.17309  0.017195416  0.016181351         1449 
 4126000   0.59416328   -7.5314875    851.26697  0.017193144   0.01617624         1436 
 4127000   0.59849172   -7.5340468    851.37644  0.017191189  0.016171131         1460 
 4128000   0.59022127   -7.5200712    851.63435  0.017192231  0.016166021         1413 
 4129000   0.59110947    -7.517602    852.50679  0.017205675  0.016160913         1398 
 4130000   0.59376302   -7.5185889     851.2409  0.017175967  0.016155805         1363 
 4131000   0.58856175   -7.5251685    851.23731  0.017171736  0.016150699         1436 
 4132000   0.59922826   -7.5130119    854.60627  0.017235525  0.016145602         1407 
 4133000    0.5889964   -7.5182819    851.15957  0.017161859  0.016140503         1322 
 4134000   0.59292641    -7.532297    853.38246  0.017202517  0.016135401         1383 
 4135000   0.58422485   -7.5369369    849.79025  0.017125962    0.0161303         1531 
 4136000   0.58751572   -7.5085877    851.36697   0.01715359  0.016125196         1444 
 4137000   0.59284836   -7.5393038    850.55847  0.017133157  0.016120098         1476 
 4138000   0.58993486   -7.5265621    852.03028  0.017158657  0.016114996         1525 
 4139000   0.59994474   -7.5356667    851.42024  0.017142229  0.016109906         1426 
 4140000   0.58439155   -7.5383009    851.45462  0.017138781  0.016104812         1421 
 4141000   0.58584008   -7.5411128    851.12038  0.017127915   0.01609972         1397 
 4142000    0.5835695   -7.5432287    850.41637  0.017109616  0.016094627         1436 
 4143000    0.5872437   -7.5268175    850.88921  0.017114997  0.016089539         1467 
 4144000   0.59238158   -7.5200058    852.33805  0.017140003  0.016084456         1452 
 4145000   0.57551802   -7.5393266    851.57805  0.017120588  0.016079374         1465 
 4146000   0.58925617   -7.5361351    851.63413  0.017117586   0.01607429         1455 
 4147000   0.58818856   -7.5342435     851.2034  0.017104803   0.01606921         1466 
 4148000   0.59266792   -7.5548544    851.03971  0.017097391  0.016064124         1449 
 4149000   0.59267334   -7.5409871    851.06973  0.017093873   0.01605904         1472 
 4150000    0.6000649   -7.5225687    851.36896  0.017095762   0.01605397         1420 
 4151000   0.59970567     -7.52631    850.36914  0.017071572  0.016048896         1417 
 4152000   0.57791936   -7.5454881    850.51164   0.01707032  0.016043823         1440 
 4153000   0.59018806   -7.5195383    851.19449  0.017079912  0.016038757         1485 
 4154000   0.58401068   -7.5377508    851.14315   0.01707477   0.01603368         1393 
 4155000   0.59340952   -7.5405475    852.17149  0.017091285  0.016028609         1487 
 4156000   0.57873161   -7.5397522    852.43223  0.017092401   0.01602354         1455 
 4157000   0.60328269   -7.5280897    850.58338  0.017051226  0.016018472         1454 
 4158000   0.58705255   -7.5447417    851.90671  0.017073647  0.016013406         1509 
 4159000   0.59060012   -7.5374968    852.37641  0.017078953  0.016008341         1493 
 4160000   0.59314669   -7.5348514    851.98663   0.01706704  0.016003275         1442 
 4161000   0.58980694   -7.5350924    850.41833   0.01703153  0.015998208         1401 
 4162000   0.59405881   -7.5300323    851.26953   0.01704448  0.015993137         1437 
 4163000   0.57838585   -7.5248365    852.18288  0.017058669  0.015988078         1450 
 4164000   0.58932735    -7.541295    852.62174  0.017063355  0.015983021         1481 
 4165000   0.58738807    -7.536679    851.76947  0.017042206  0.015977965         1456 
 4166000   0.58995935   -7.5552588    851.80406  0.017038807  0.015972915         1434 
 4167000   0.56373152   -7.5377505    851.07663  0.017020171  0.015967867         1519 
 4168000   0.57698468    -7.543446    852.78202  0.017050184  0.015962816         1530 
 4169000   0.58018969   -7.5417546    852.65788  0.017043613  0.015957763         1507 
 4170000   0.59497621   -7.5315339    851.16673  0.017009727  0.015952715         1471 
 4171000   0.57922696   -7.5435356    851.68699  0.017016043  0.015947666         1496 
 4172000   0.58580687   -7.5382778    850.34449  0.016985149  0.015942615         1467 
 4173000   0.58249936   -7.5317455    851.57233  0.017005598  0.015937569         1464 
 4174000   0.59422401   -7.5514918    850.55004  0.016981114  0.015932536         1475 
 4175000   0.58458058   -7.5378624    851.24723  0.016990963   0.01592749         1382 
 4176000   0.57229623   -7.5544416    851.54465  0.016992829  0.015922444         1471 
 4177000   0.56973162   -7.5539948    850.81266  0.016974157  0.015917406         1401 
 4178000   0.58898044   -7.5260764    850.58001  0.016965454  0.015912363         1477 
 4179000   0.56212768   -7.5440622    851.77522  0.016985228  0.015907333         1379 
 4180000   0.56425819   -7.5254494    850.77857  0.016961295  0.015902302         1379 
 4181000   0.58244462   -7.5277509    849.87056  0.016939141  0.015897274         1429 
 4182000   0.57737995    -7.560014    851.57547  0.016969063  0.015892245         1437 
 4183000   0.58953375   -7.5468753    851.04689  0.016954476  0.015887216         1421 
 4184000    0.5880425   -7.5467796    851.18611  0.016953197  0.015882184         1514 
 4185000   0.57259038   -7.5484138    850.44362  0.016934361  0.015877154         1468 
 4186000   0.57920613    -7.550615    850.64346  0.016934294  0.015872123         1529 
 4187000   0.57871948   -7.5582561    850.07693  0.016918974  0.015867095         1502 
 4188000   0.58009695   -7.5406287    850.55093  0.016924366   0.01586207         1437 
 4189000   0.58577703   -7.5597587    850.38235  0.016916972   0.01585704         1485 
 4190000   0.58355782   -7.5531991    851.67777  0.016938699  0.015852012         1498 
 4191000     0.574342    -7.536978    850.88797  0.016918953  0.015846988         1454 
 4192000   0.57608655   -7.5380298    851.05679  0.016918273   0.01584196         1494 
 4193000   0.56614409   -7.5586426    849.34563  0.016880229  0.015836943         1517 
 4194000   0.58706953   -7.5251877    849.13517  0.016872023  0.015831921         1454 
 4195000    0.5716667   -7.5588663    850.60806   0.01689726  0.015826903         1520 
 4196000   0.57210607   -7.5354388    851.07074  0.016902422  0.015821883         1501 
 4197000   0.58725781   -7.5407656    850.71677  0.016891366  0.015816871         1520 
 4198000   0.57931156   -7.5536828    851.44766  0.016901851  0.015811858         1443 
 4199000   0.57880253   -7.5227477    850.07608  0.016870606  0.015806854         1507 
 4200000   0.58138782    -7.542119    850.57739  0.016876536  0.015801844         1459 
 4201000   0.59361484   -7.5513879    851.12531  0.016883387   0.01579684         1480 
 4202000   0.58222084   -7.5454622    851.08523  0.016878574  0.015791836         1489 
 4203000   0.57643583   -7.5446932    852.23696  0.016897394  0.015786832         1463 
 4204000   0.58634554   -7.5506009    851.29234   0.01687465   0.01578183         1461 
 4205000   0.57669207   -7.5619759    850.82552  0.016861386  0.015776834         1426 
 4206000   0.57369188    -7.554949    851.75041  0.016875702  0.015771834         1452 
 4207000   0.58061776   -7.5684969    852.37217  0.016884006  0.015766841         1484 
 4208000   0.58234909   -7.5372113     851.0721  0.016854248  0.015761853         1433 
 4209000   0.57474099   -7.5546337    850.63184  0.016841527   0.01575686         1443 
 4210000   0.58391234   -7.5572971    849.87875   0.01682262  0.015751872         1518 
 4211000   0.57700857    -7.562312    849.92493  0.016819539  0.015746882         1548 
 4212000   0.58073436    -7.548958    850.92354  0.016835303  0.015741889         1611 
 4213000   0.58393917   -7.5569293    850.58389  0.016824588  0.015736898         1487 
 4214000   0.57306343    -7.558302    850.41485  0.016817253  0.015731908         1573 
 4215000   0.58287198   -7.5523235    849.68075  0.016798749  0.015726921         1516 
 4216000   0.58197685   -7.5597885    849.35819  0.016788389  0.015721934         1580 
 4217000   0.55563709   -7.5610827     849.1159   0.01677962  0.015716945         1532 
 4218000   0.58341262   -7.5414552    852.33658  0.016839272  0.015711966         1503 
 4219000    0.5716804   -7.5507915    850.70254  0.016803005  0.015706988         1543 
 4220000   0.57981306   -7.5721035    850.67409  0.016798461  0.015702011         1594 
 4221000   0.58105484   -7.5505951    849.91086  0.016779414  0.015697034         1511 
 4222000   0.57437943   -7.5602352    850.12582  0.016779682   0.01569206         1519 
 4223000   0.56543127   -7.5699577    850.51587  0.016783406  0.015687088         1504 
 4224000   0.57964933   -7.5628441     850.6637  0.016782349  0.015682115         1531 
 4225000   0.58134613    -7.540776    850.14132  0.016768073   0.01567714         1546 
 4226000   0.57250173   -7.5654512    849.92359  0.016759812  0.015672169         1534 
 4227000   0.57022525   -7.5684793    850.19794  0.016761256    0.0156672         1501 
 4228000   0.58156113    -7.555611    850.58305  0.016764882  0.015662231         1529 
 4229000   0.57757742   -7.5525407    848.68789  0.016723573  0.015657271         1512 
 4230000   0.56647612   -7.5557491    851.45828  0.016774198  0.015652306         1556 
 4231000   0.57569089   -7.5551272    851.13144  0.016763796  0.015647344         1506 
 4232000   0.58140843   -7.5621196    851.07799  0.016758782  0.015642385         1553 
 4233000   0.57442924   -7.5633557    848.27986  0.016699737  0.015637417         1608 
 4234000   0.57395847   -7.5600636    850.76481  0.016744702  0.015632455         1603 
 4235000   0.58350487   -7.5617601     850.3798  0.016733172  0.015627494         1527 
 4236000   0.57063776   -7.5675149    850.73468  0.016736203  0.015622531         1505 
 4237000   0.56634518   -7.5549943    850.84794  0.016734481  0.015617572         1562 
 4238000    0.5695874   -7.5583689    850.19453  0.016717684  0.015612618         1546 
 4239000   0.57468857   -7.5656591    850.88628  0.016727339  0.015607658         1524 
 4240000   0.55046375   -7.5548708    851.27795  0.016731092  0.015602707         1623 
 4241000   0.57018778   -7.5539075    850.87755  0.016719279  0.015597753         1573 
 4242000   0.57173907    -7.559806    850.17324  0.016701502  0.015592802         1592 
 4243000    0.5815677   -7.5631421    849.43875   0.01668314  0.015587852         1545 
 4244000   0.57197237   -7.5530094    850.11849  0.016692556    0.0155829         1548 
 4245000   0.56990846   -7.5641113    852.20435  0.016729571  0.015577945         1607 
 4246000   0.56625871   -7.5630037    849.22722  0.016667201  0.015573004         1566 
 4247000   0.57031387   -7.5744251    851.22038  0.016702386  0.015568068         1569 
 4248000   0.56290736   -7.5548087    851.88676  0.016711526  0.015563127         1587 
 4249000   0.57550615   -7.5611072    850.03129  0.016671203  0.015558187         1562 
 4250000   0.56688959   -7.5526568    849.76842  0.016662126  0.015553252         1561 
 4251000   0.57086115   -7.5726977    849.22889   0.01664763  0.015548313         1623 
 4252000   0.56906253   -7.5770573    849.94662  0.016657781  0.015543375         1618 
 4253000   0.56939221   -7.5746221    850.60316  0.016666729  0.015538442         1628 
 4254000   0.57218375   -7.5762117    849.94225  0.016649864  0.015533512         1568 
 4255000   0.57884191   -7.5736747    850.07417  0.016648535  0.015528581         1590 
 4256000   0.58547115   -7.5777553     850.0025  0.016643219  0.015523655         1576 
 4257000   0.56643008   -7.5540273    849.98016  0.016638872  0.015518733         1591 
 4258000    0.5690501   -7.5706388    848.43854  0.016604794  0.015513805         1705 
 4259000   0.57775676   -7.5803193    850.18533  0.016635073  0.015508881         1562 
 4260000   0.56755592   -7.5599474    850.50533  0.016637428  0.015503957         1632 
 4261000   0.57801921   -7.5411167    850.51113  0.016633637  0.015499034         1551 
 4262000   0.55527008   -7.5745761     850.1254  0.016622192  0.015494114         1637 
 4263000   0.57636549   -7.5636913    850.16044  0.016618978  0.015489198         1662 
 4264000   0.56467214   -7.5547113    849.67973  0.016605686   0.01548428         1659 
 4265000   0.55371135   -7.5812567    850.77355  0.016623164  0.015479361         1631 
 4266000   0.56674544   -7.5680156    849.22342  0.016588987  0.015474446         1663 
 4267000   0.57784655   -7.5828304    848.82511   0.01657732  0.015469527         1643 
 4268000    0.5724828   -7.5674772    849.53911  0.016587377  0.015464609         1654 
 4269000   0.56011199   -7.5671506    848.82991  0.016569648  0.015459692         1632 
 4270000   0.58430514   -7.5865482    849.57495  0.016580307  0.015454779         1598 
 4271000   0.56390454   -7.5805731    847.76483  0.016541107  0.015449866         1568 
 4272000   0.57360183   -7.5859863    849.17924  0.016564826  0.015444958         1660 
 4273000   0.56058253   -7.5807662    851.44961  0.016605227  0.015440048         1619 
 4274000   0.57912509   -7.5882175    849.04812  0.016554518  0.015435135         1647 
 4275000   0.56812276   -7.5909534    848.02687  0.016530738  0.015430227         1638 
 4276000   0.57660504   -7.5853393    849.06514  0.016547107  0.015425326         1603 
 4277000   0.57206435   -7.5568571    848.78814  0.016537841  0.015420427         1587 
 4278000    0.5620366   -7.5813198    848.72907  0.016532824   0.01541553         1586 
 4279000   0.57918007   -7.5613627    850.88758  0.016570997  0.015410643         1665 
 4280000   0.57849074   -7.5937564    849.71933   0.01654438  0.015405761         1595 
 4281000   0.56009964   -7.5746682    849.20873  0.016530576  0.015400871         1673 
 4282000   0.57970307   -7.5853155    849.28344  0.016528169  0.015395979         1655 
 4283000   0.57244418   -7.5744592    849.73526  0.016533101  0.015391093         1646 
 4284000   0.56677744   -7.5508936    849.93106   0.01653305  0.015386203         1644 
 4285000   0.56442437   -7.5746789    849.68953  0.016524495  0.015381317         1655 
 4286000   0.57943761   -7.5700853     850.6286  0.016538898  0.015376437         1626 
 4287000   0.56174162   -7.5927868     848.3137  0.016490042  0.015371556         1694 
 4288000   0.55959591     -7.57359    847.67385  0.016473761  0.015366667         1681 
 4289000   0.56227743    -7.568452    849.30938  0.016501698  0.015361785         1705 
 4290000   0.56349714   -7.5757996    849.86443  0.016508633  0.015356904         1615 
 4291000   0.57557361    -7.578873    849.00662  0.016488127   0.01535203         1667 
 4292000   0.56341442   -7.5911525    850.31686  0.016509725  0.015347159         1658 
 4293000   0.56702782   -7.5706846    849.94916  0.016498741  0.015342288         1715 
 4294000   0.56633913   -7.5728791    849.47004  0.016485601  0.015337416         1669 
 4295000   0.55786115   -7.5663932    849.97532  0.016491566  0.015332541         1623 
 4296000   0.57147291   -7.5732535    849.42428  0.016477038  0.015327672         1681 
 4297000   0.55712972   -7.5768776    850.20348  0.016488315  0.015322803         1616 
 4298000   0.57125123   -7.5741355     851.6163  0.016511872  0.015317947         1607 
 4299000   0.56132514   -7.5736668    850.42036  0.016484848  0.015313095         1624 
 4300000   0.55962081   -7.5788054    849.33135   0.01645991  0.015308235         1663 
 4301000    0.5609678   -7.5851238    848.83392  0.016446445  0.015303374         1709 
 4302000   0.55827187   -7.5695037    848.73105  0.016440629  0.015298516         1699 
 4303000   0.56611845   -7.5856833    850.17869  0.016464844  0.015293659         1624 
 4304000   0.56377706    -7.573333    848.42792   0.01642712  0.015288801         1686 
 4305000   0.56245797   -7.5875028      849.827  0.016450387  0.015283952         1722 
 4306000   0.54518213   -7.5934095    850.22026  0.016454178    0.0152791         1636 
 4307000   0.55659212    -7.588772    850.14597   0.01644892  0.015274251         1665 
 4308000   0.56804646   -7.5844432    849.31735  0.016429073  0.015269402         1677 
 4309000    0.5594164   -7.5843325    849.48382   0.01642848  0.015264559         1590 
 4310000   0.57611072   -7.5760214    850.96731  0.016453351  0.015259715         1720 
 4311000   0.55690368   -7.5793643    849.26871    0.0164167  0.015254873         1642 
 4312000   0.56123186   -7.6052299    850.31027  0.016433022  0.015250031         1696 
 4313000   0.55673275   -7.5871083     849.7285  0.016417971  0.015245192         1635 
 4314000   0.55882732   -7.5763177    850.20629  0.016423395  0.015240353         1619 
 4315000   0.55068715   -7.5735999     850.5647   0.01642651  0.015235508         1681 
 4316000   0.54623583   -7.5962897    851.05525  0.016432176  0.015230667         1704 
 4317000    0.5696701   -7.5972643    847.19287  0.016353812  0.015225818         1719 
 4318000   0.56263286   -7.6076675    849.87747  0.016401835  0.015220982         1730 
 4319000   0.56034184   -7.5906427    848.57256   0.01637286  0.015216141         1769 
 4320000   0.55483259   -7.5964217    849.68911  0.016390608  0.015211294         1715 
 4321000   0.56533703   -7.5796647     850.3569  0.016399693  0.015206454         1693 
 4322000   0.56520732   -7.6045762    850.69297  0.016402379  0.015201621         1714 
 4323000   0.56370261   -7.5966993    849.78728  0.016381126  0.015196786         1723 
 4324000   0.55497641   -7.5895557    850.30655  0.016387345   0.01519195         1734 
 4325000   0.55811257   -7.5936492    849.27568  0.016363693  0.015187117         1767 
 4326000   0.55612752   -7.5856859    849.71716  0.016368415  0.015182282         1709 
 4327000   0.56131195   -7.6115009    849.25999  0.016355828  0.015177455         1705 
 4328000   0.53831946   -7.5950205    848.58681  0.016339087  0.015172619         1714 
 4329000   0.55418333   -7.5939411    848.13953  0.016326702  0.015167791         1666 
 4330000   0.56700172   -7.5958295    849.37641  0.016346736  0.015162968         1661 
 4331000   0.55564898   -7.6032029    849.23138  0.016340171  0.015158141         1660 
 4332000   0.56028461   -7.6125878    850.70322  0.016364713  0.015153316         1687 
 4333000   0.55703799   -7.6110711    847.59803  0.016301216  0.015148494         1684 
 4334000   0.55932725    -7.590062    849.76069  0.016339038  0.015143676         1676 
 4335000   0.56196782   -7.5982522    849.09284  0.016322431   0.01513886         1749 
 4336000   0.55265662   -7.5964483    848.33132  0.016304031  0.015134043         1711 
 4337000   0.56338983    -7.596523    848.42333  0.016302039  0.015129231         1687 
 4338000   0.55908392    -7.598795    848.31138  0.016296131  0.015124418         1672 
 4339000   0.55894897   -7.6109925    850.17363  0.016328141  0.015119609         1640 
 4340000   0.56575344   -7.5938935    848.43476   0.01629099  0.015114799         1697 
 4341000   0.55862647   -7.5838371    847.70247   0.01627318  0.015109988         1667 
 4342000   0.54700115   -7.6004579    847.91654   0.01627354  0.015105181         1622 
 4343000   0.55739359   -7.5918041    849.95445  0.016308897  0.015100376         1640 
 4344000   0.56835427   -7.6074844    850.02141  0.016306427  0.015095574         1664 
 4345000   0.56012132   -7.5876389    848.96615  0.016282435  0.015090772         1654 
 4346000    0.5744198   -7.6146291    849.11068   0.01628146  0.015085969         1677 
 4347000   0.56018855   -7.6053197    849.58211  0.016286752  0.015081173         1665 
 4348000   0.55312344   -7.5785493    849.49754  0.016281385  0.015076373         1666 
 4349000   0.55586979   -7.5890218    849.53337  0.016278328  0.015071579         1669 
 4350000    0.5598796   -7.5956951    848.27698  0.016250517  0.015066788         1672 
 4351000    0.5688475    -7.591351    847.89488  0.016239464  0.015061995         1631 
 4352000   0.55929418   -7.6002543     848.4379   0.01624613  0.015057208         1642 
 4353000   0.54923348   -7.5965627    849.13038  0.016255655  0.015052422         1645 
 4354000   0.55605724   -7.5772644    849.28365  0.016254855  0.015047636         1643 
 4355000   0.54532976   -7.6013448    848.69963  0.016239947  0.015042854         1688 
 4356000   0.55623718   -7.6265946    849.10504  0.016243975   0.01503807         1694 
 4357000   0.55727185    -7.595966    848.89573  0.016236243  0.015033284         1708 
 4358000   0.54966274   -7.6062789    848.44067  0.016223816    0.0150285         1688 
 4359000   0.55252655   -7.6059719    848.63166  0.016223745  0.015023716         1701 
 4360000   0.55576722   -7.5797911     848.7841  0.016222938  0.015018936         1667 
 4361000   0.55683476   -7.5898096    847.10741  0.016187178   0.01501416         1715 
 4362000    0.5491319   -7.6031769    848.31087  0.016206459  0.015009377         1728 
 4363000   0.53758694   -7.6081791     847.8552  0.016194041  0.015004601         1716 
 4364000   0.54532217   -7.6016845    849.16351  0.016215313  0.014999823         1649 
 4365000   0.55295944   -7.6106549    848.39509  0.016196928  0.014995055         1631 
 4366000   0.56449974   -7.6047456    848.38218  0.016192972  0.014990277         1684 
 4367000   0.54620036    -7.595008    848.93721  0.016199855  0.014985506         1732 
 4368000   0.55714857   -7.6142792    849.51199  0.016207112  0.014980744         1644 
 4369000   0.53960723   -7.6173142    847.88773  0.016172422  0.014975977         1770 
 4370000   0.54816945   -7.6152757    847.85668  0.016168129  0.014971212         1728 
 4371000   0.55255541   -7.5986181    848.55463  0.016177736  0.014966452         1662 
 4372000   0.54772134       -7.583    849.17326  0.016185828  0.014961693         1671 
 4373000   0.54493254   -7.6030718    849.74253  0.016192974  0.014956936         1727 
 4374000   0.56063929   -7.5939916     848.9648  0.016174455  0.014952178         1666 
 4375000   0.55435631   -7.6018806    847.85862  0.016149688  0.014947425         1765 
 4376000   0.54503074   -7.6145005    848.28655  0.016154147   0.01494267         1726 
 4377000   0.55888191   -7.5933618    848.81213  0.016160463  0.014937918         1761 
 4378000   0.55845337   -7.6037709    848.14692  0.016144109  0.014933172         1767 
 4379000     0.560189   -7.5919705    846.86695  0.016116064  0.014928426         1746 
 4380000   0.56181592   -7.6004896    848.26698  0.016139022  0.014923676         1781 
 4381000   0.54501739   -7.5982042    846.35832  0.016099032   0.01491893         1723 
 4382000   0.56474932   -7.6028893    848.91348   0.01614395  0.014914188         1757 
 4383000   0.53575609     -7.62865    849.06701  0.016143186  0.014909445         1738 
 4384000   0.55959161   -7.6049423    847.89931  0.016117307  0.014904696         1763 
 4385000   0.55408061   -7.6125004    849.02569  0.016135038  0.014899954         1719 
 4386000   0.54599362   -7.6056993     848.2123  0.016115905  0.014895211         1788 
 4387000   0.54827367   -7.6207111    848.39992  0.016115795  0.014890471         1784 
 4388000   0.55711669   -7.5934884    847.48982  0.016094839  0.014885731         1835 
 4389000   0.56463967   -7.5969935    846.75407  0.016077202   0.01488099         1800 
 4390000   0.53953391   -7.6123775    847.75782  0.016092593  0.014876252         1839 
 4391000   0.54006745   -7.6223637    849.46612  0.016121349  0.014871519         1757 
 4392000   0.54987945    -7.604224    847.38116  0.016078119  0.014866785         1737 
 4393000   0.54242419   -7.6142979    847.65345  0.016079624  0.014862056         1747 
 4394000   0.53758851   -7.6345162    848.93412  0.016100253  0.014857319         1780 
 4395000   0.53851768   -7.6374045    849.17429  0.016101143  0.014852584         1785 
 4396000   0.54590894   -7.6195012    847.34044  0.016062717   0.01484785         1820 
 4397000   0.54909024   -7.6028297     847.1567  0.016055582  0.014843121         1847 
 4398000   0.55685501   -7.6240611    848.27783  0.016073174  0.014838394         1752 
 4399000   0.55183224   -7.6200108    849.20495  0.016087083  0.014833672         1801 
 4400000   0.54966773   -7.6262157    847.94632  0.016059589   0.01482895         1819 
 4401000   0.54034052    -7.645916    847.59513   0.01604929  0.014824225         1761 
 4402000   0.54352086   -7.6230089    846.49124  0.016024747  0.014819502         1795 
 4403000   0.54865787   -7.6370498    848.67448  0.016062429  0.014814778         1771 
 4404000   0.54133098   -7.6436229    846.73074  0.016022002  0.014810058         1833 
 4405000    0.5503228   -7.6371826    847.96188  0.016041655  0.014805335         1810 
 4406000   0.55620554   -7.6205589    848.51986  0.016048568  0.014800614         1803 
 4407000   0.54659678   -7.6189374    848.14094  0.016037761  0.014795901         1773 
 4408000   0.54996813   -7.6319741    847.76434  0.016027003  0.014791179         1821 
 4409000   0.54064849   -7.6243895    845.98381  0.015989714   0.01478646         1734 
 4410000   0.54315735   -7.6247461    847.86241  0.016021588  0.014781745         1750 
 4411000   0.53613249   -7.6179601    845.64921  0.015976143  0.014777032         1801 
 4412000   0.55136769   -7.6348018    847.80568  0.016013253  0.014772324         1813 
 4413000   0.55167888   -7.6207778    846.52589  0.015985457  0.014767614         1779 
 4414000   0.55118194   -7.6239227    848.53208  0.016019711  0.014762904         1734 
 4415000   0.54665815   -7.6383032    847.83902  0.016003002  0.014758197         1754 
 4416000   0.55146054   -7.6370541    846.91453  0.015981932   0.01475349         1803 
 4417000   0.54254237   -7.6196017    846.48176  0.015970149  0.014748789         1765 
 4418000   0.53826464   -7.6305373    847.80195  0.015991436   0.01474409         1785 
 4419000   0.55544671   -7.6296561    848.39059  0.015998917  0.014739393         1795 
 4420000   0.54800018   -7.6084779    847.52432  0.015978965  0.014734694         1782 
 4421000   0.55348778   -7.6308332    847.92439  0.015982892  0.014729997         1782 
 4422000   0.55460191   -7.6473627    846.95722  0.015961051  0.014725301         1780 
 4423000   0.54142943   -7.6086871    848.20553  0.015980962  0.014720605         1765 
 4424000   0.54770424   -7.6255399    847.21806  0.015958749  0.014715916         1729 
 4425000   0.54347284   -7.6184935    846.56219  0.015942791  0.014711224         1769 
 4426000   0.57091549   -7.6307004    846.54003  0.015938772  0.014706535         1746 
 4427000   0.54838042   -7.6291163    847.77712  0.015958458  0.014701846         1760 
 4428000   0.54019347    -7.627682    847.59038   0.01595134  0.014697154         1831 
 4429000   0.54808183   -7.6227005    847.12619  0.015939004  0.014692459         1841 
 4430000   0.54056881   -7.6317482    846.89594  0.015931075  0.014687774         1818 
 4431000   0.53486316   -7.6328255     848.4959   0.01595757  0.014683092         1792 
 4432000   0.53270362   -7.6367499     846.8168  0.015922398  0.014678406         1798 
 4433000   0.52686878   -7.6204011    847.81816   0.01593763  0.014673721         1818 
 4434000   0.53793416   -7.6352766    847.89026  0.015935391   0.01466904         1817 
 4435000    0.5412399   -7.6128974    847.80092  0.015930119  0.014664365         1787 
 4436000   0.55378684   -7.6507265    846.92254  0.015910027  0.014659687         1856 
 4437000   0.53957054   -7.6234946    847.44267   0.01591621  0.014655006         1879 
 4438000   0.54108656   -7.6525564    847.09895  0.015906169  0.014650329         1791 
 4439000   0.53561628   -7.6296504    848.07244  0.015920861  0.014645654         1796 
 4440000   0.53020494   -7.6489124    845.64289  0.015871676  0.014640984         1845 
 4441000   0.54069648   -7.6307287    848.31425  0.015918229  0.014636312         1826 
 4442000   0.54781612     -7.63793    847.90554  0.015906978  0.014631646         1816 
 4443000   0.53039603   -7.6451618    846.63709  0.015879606  0.014626978         1788 
 4444000   0.54363535    -7.655705    847.36879  0.015889754   0.01462231         1776 
 4445000   0.53631817   -7.6203675    846.40121  0.015868039  0.014617647         1845 
 4446000   0.53529863   -7.6375275    846.58019  0.015867825  0.014612981         1812 
 4447000   0.54237167   -7.6590646    846.98982  0.015871933  0.014608315         1857 
 4448000   0.54133156   -7.6307141    846.74275  0.015863736  0.014603653         1842 
 4449000   0.54396806   -7.6420827    846.28963  0.015851683  0.014598989         1844 
 4450000   0.53895199   -7.6250235    846.14889  0.015845485  0.014594325         1850 
 4451000   0.52667644   -7.6311847    848.46928  0.015885368  0.014589662         1815 
 4452000     0.531352   -7.6433238    846.07682  0.015837018  0.014585003         1861 
 4453000   0.54377177   -7.6497769    846.60723  0.015843387  0.014580344         1847 
 4454000   0.54440394   -7.6433463     846.0734  0.015829842  0.014575692         1860 
 4455000   0.53073629   -7.6405265    845.97846  0.015824513  0.014571032         1803 
 4456000   0.54995071   -7.6508735    847.63941  0.015852024  0.014566377         1907 
 4457000   0.54127231   -7.6344423    847.03976  0.015837255  0.014561724         1851 
 4458000   0.54603123   -7.6412594    846.09953  0.015816127  0.014557079         1794 
 4459000   0.53374876   -7.6192446    847.01486  0.015829686  0.014552432         1819 
 4460000   0.52107467   -7.6494683    846.85306  0.015823114  0.014547787         1829 
 4461000   0.53878042   -7.6694248     845.4482  0.015793324  0.014543136         1936 
 4462000    0.5489688   -7.6389031    847.47573  0.015827651  0.014538486         1879 
 4463000   0.54354311   -7.6435378    847.40898  0.015822858  0.014533841         1858 
 4464000   0.53746008   -7.6378352    847.79442  0.015826509  0.014529198         1893 
 4465000   0.53138013   -7.6568434    846.02816  0.015789999  0.014524556         1853 
 4466000   0.54090375   -7.6477573    847.50736  0.015814065  0.014519915         1825 
 4467000   0.52776845   -7.6494841    847.03093  0.015801637  0.014515273         1886 
 4468000   0.54271427   -7.6331865    845.90189  0.015777042  0.014510628         1830 
 4469000   0.53689991   -7.6505845    846.23236  0.015779674  0.014505986         1904 
 4470000   0.53118203    -7.658836    845.75372  0.015767221  0.014501349         1925 
 4471000   0.55701507   -7.6656765    846.22701  0.015772516  0.014496711         1866 
 4472000   0.53324831   -7.6483841    847.15486  0.015786279  0.014492073         1877 
 4473000   0.53171746   -7.6409237     845.5373  0.015752614   0.01448744         1876 
 4474000   0.53414414   -7.6494777    846.10581  0.015759682  0.014482807         1886 
 4475000   0.53909003   -7.6372953    846.25777   0.01575899  0.014478181         1838 
 4476000   0.53838468   -7.6680404    845.95096  0.015749757  0.014473552         1872 
 4477000    0.5254721   -7.6550674    845.38416  0.015735689  0.014468921         1899 
 4478000   0.53261909   -7.6386044    846.68919  0.015756461  0.014464295         1833 
 4479000   0.53868591   -7.6560001     845.8273  0.015736907  0.014459668         1860 
 4480000   0.53926116   -7.6428491    846.41643  0.015744353  0.014455043         1815 
 4481000     0.537841   -7.6466994    847.40511  0.015759226  0.014450425         1803 
 4482000   0.53858413   -7.6422128    845.98358   0.01572928  0.014445804         1850 
 4483000   0.53269072   -7.6701893    846.65462  0.015738245  0.014441185         1815 
 4484000   0.52929441   -7.6531301    846.28254   0.01572782  0.014436566         1782 
 4485000   0.53082182   -7.6450584    845.97588  0.015718615  0.014431949         1835 
 4486000    0.5390921   -7.6549476    847.18688  0.015737607  0.014427334         1844 
 4487000   0.53712684   -7.6595897    845.91507   0.01571048  0.014422727         1854 
 4488000   0.53596031   -7.6419651     846.7914  0.015723251  0.014418121         1851 
 4489000   0.54207442   -7.6398883    846.25593  0.015709808  0.014413511         1854 
 4490000   0.52367672    -7.646173    846.10159  0.015703445  0.014408901         1839 
 4491000   0.53424437   -7.6752852    847.51902  0.015726249  0.014404293         1827 
 4492000   0.52613751   -7.6768889     846.3276  0.015700646  0.014399686         1888 
 4493000   0.54764478   -7.6467834    845.13137  0.015674964  0.014395082         1871 
 4494000   0.52547301   -7.6582982    844.90437  0.015667267  0.014390477         1886 
 4495000   0.52550707   -7.6512076    845.83665  0.015681065  0.014385876         1877 
 4496000   0.53732366   -7.6633357     845.6652  0.015674399  0.014381278         1927 
 4497000   0.53532259   -7.6654668    845.95009  0.015676193  0.014376684         1865 
 4498000   0.52913324   -7.6532535    845.70252  0.015668121  0.014372091         1876 
 4499000   0.53386819   -7.6651225    844.64102  0.015644977  0.014367492         1879 
 4500000   0.52015737   -7.6504948    844.78259  0.015644122  0.014362896         1892 
 4501000   0.52282529   -7.6690716    845.78913  0.015659282  0.014358304         1892 
 4502000   0.52418747   -7.6719055    845.82104  0.015656394  0.014353711         1850 
 4503000   0.52659865   -7.6566436    845.34671  0.015644139  0.014349119         1867 
 4504000   0.53540898   -7.6599009    845.53653  0.015644178   0.01434453         1835 
 4505000   0.53330729   -7.6771525    844.37463  0.015619212  0.014339941         1877 
 4506000   0.54583268     -7.65869    845.27005  0.015632306  0.014335356         1865 
 4507000   0.52528861   -7.6742348    845.05203  0.015624806  0.014330771         1880 
 4508000   0.52567352   -7.6790743    845.53493  0.015630267  0.014326184         1925 
 4509000   0.54421646   -7.6562716    845.53461  0.015626795  0.014321603         1904 
 4510000   0.53674627   -7.6640912    845.91598  0.015630377  0.014317023         1892 
 4511000   0.53219054   -7.6692015    844.48298  0.015600439  0.014312442         1879 
 4512000   0.52465827   -7.6766691    845.40785  0.015614063  0.014307861         1871 
 4513000   0.53323945   -7.6601755    845.00597  0.015603183  0.014303285         1904 
 4514000   0.51795222   -7.6730796    846.03727  0.015618765  0.014298712         1895 
 4515000   0.53878675   -7.6603096    845.56031  0.015606503   0.01429414         1836 
 4516000   0.52877675   -7.6711827    846.10324  0.015613065  0.014289571         1899 
 4517000   0.53180524   -7.6616844    844.87182  0.015586891  0.014285004         1882 
 4518000   0.52619825   -7.6749745    845.39014  0.015593001  0.014280439         1876 
 4519000   0.53475918   -7.6734875    846.15946  0.015603737  0.014275865         1885 
 4520000   0.52421623   -7.6876557    845.72439  0.015592264    0.0142713         1925 
 4521000   0.53288579   -7.6663195    844.85028  0.015572703  0.014266733         1939 
 4522000   0.52553752   -7.6551147    845.74567   0.01558576  0.014262172         1905 
 4523000   0.52580344   -7.6654682     844.9963  0.015568507   0.01425761         1831 
 4524000   0.52196238   -7.6724146    847.09864  0.015603792  0.014253046         1880 
 4525000   0.52105411   -7.6739724    844.90577  0.015559959  0.014248494         1955 
 4526000   0.52267481   -7.6725457    844.96296  0.015557574  0.014243939         1900 
 4527000    0.5219524    -7.689504    845.38868  0.015561974  0.014239384         1899 
 4528000   0.52652622   -7.6729269    845.13816  0.015553927  0.014234826         1975 
 4529000   0.52919725   -7.6517671    845.87692  0.015564086  0.014230271         1937 
 4530000   0.52741821   -7.6804842    846.50775  0.015572254  0.014225721         1892 
 4531000   0.53068265   -7.6803449    846.60484  0.015570603  0.014221173         1892 
 4532000    0.5249485   -7.6677834    844.74341   0.01553294   0.01421663         1861 
 4533000   0.51655248   -7.6626938    846.13442  0.015555085  0.014212083         1872 
 4534000   0.52309168   -7.6715373    846.12125  0.015551413  0.014207538         1916 
 4535000   0.52139644   -7.6880199    845.65136  0.015539349  0.014202994         1933 
 4536000    0.5304402    -7.666451    845.68462  0.015536534  0.014198453         1886 
 4537000   0.53717401   -7.6904884    844.49939   0.01551134  0.014193912         1921 
 4538000   0.53119655    -7.676573    844.77503  0.015512983  0.014189377         1863 
 4539000   0.53709942   -7.6707275    845.61623   0.01552501  0.014184842         1955 
 4540000    0.5146069   -7.6697245    844.33579  0.015498087  0.014180307         1889 
 4541000   0.52947986   -7.6599209     844.3014  0.015494043  0.014175779         1885 
 4542000   0.53195279   -7.6831747    844.80872   0.01549994  0.014171251         1904 
 4543000   0.52501642   -7.6749662    845.12162  0.015502268  0.014166723         1936 
 4544000    0.5335399   -7.6657663    844.74069   0.01549187  0.014162195         1976 
 4545000   0.53019401   -7.6657568    845.06033  0.015494322  0.014157669         2012 
 4546000   0.52219605   -7.6773869    844.70918  0.015484477  0.014153149         2019 
 4547000   0.52626662   -7.6845546    846.05811  0.015505793  0.014148629         1958 
 4548000    0.5257713   -7.6737549    845.31812  0.015488825  0.014144109         1961 
 4549000    0.5182806   -7.6646764     845.1362  0.015482088  0.014139596         1990 
 4550000   0.53713715   -7.6708988    844.42023  0.015465572  0.014135078         1980 
 4551000   0.52684987   -7.6866814    844.81522  0.015469406  0.014130569         2042 
 4552000   0.53118561   -7.6842602      845.204  0.015473125  0.014126055         2003 
 4553000   0.53405584   -7.6704885    844.58409  0.015458381  0.014121545         2001 
 4554000   0.52612494   -7.6886482    844.55251  0.015454408  0.014117036         1967 
 4555000   0.52749638   -7.6631172    844.50708  0.015450184  0.014112525         1972 
 4556000   0.52787248   -7.6866357    844.98976  0.015455622  0.014108018         1951 
 4557000   0.51746146   -7.6650473    845.46045  0.015460838   0.01410351         1968 
 4558000   0.52357553   -7.6823587    844.54887  0.015440779   0.01409901         1953 
 4559000   0.52730738   -7.6667365    844.80318  0.015442041  0.014094506         1952 
 4560000   0.51638799   -7.6915398    845.54186  0.015452154  0.014090001         2023 
 4561000   0.51652395   -7.6788457    845.41081  0.015446372  0.014085499         1982 
 4562000   0.52622391   -7.6906019    845.03706  0.015436158  0.014080999         1992 
 4563000   0.52247403   -7.6890292    845.19741  0.015435704  0.014076498         2008 
 4564000   0.52785225   -7.6938983    844.46932  0.015419028  0.014072001         1989 
 4565000   0.50328829   -7.6772728    845.12751  0.015427665  0.014067508         1941 
 4566000   0.51987056    -7.672527    844.50238  0.015412877  0.014063016         1896 
 4567000   0.51997083   -7.6882034    844.36722  0.015407036  0.014058523         1973 
 4568000   0.51661576    -7.686448    845.40402  0.015422578  0.014054034         1968 
 4569000   0.51911834   -7.6726286      846.232  0.015434304  0.014049549         2010 
 4570000   0.51522221   -7.6787022    845.51637  0.015417877  0.014045064         1929 
 4571000   0.51229138   -7.6821045    844.64826  0.015398678  0.014040584         1948 
 4572000    0.5146596   -7.6841865    843.35231  0.015371688  0.014036101         1977 
 4573000   0.51947031   -7.6725534    844.98994  0.015398169  0.014031621         1989 
 4574000   0.50043369   -7.6912522    845.14987  0.015397717  0.014027141         1977 
 4575000   0.51851658   -7.6934714    844.47344   0.01538203  0.014022663         1975 
 4576000   0.51463351    -7.681131    844.94061  0.015387176  0.014018186         2016 
 4577000   0.52058518   -7.6966555     844.9735  0.015384413  0.014013708         1990 
 4578000   0.53354131   -7.6866565    844.14636  0.015365996  0.014009234         1993 
 4579000   0.51042793   -7.6834462    844.72853  0.015373235  0.014004763         1927 
 4580000   0.53138477   -7.6889504    843.99226  0.015356482  0.014000289         1998 
 4581000   0.52219534   -7.6923515    842.91145  0.015333469   0.01399582         2015 
 4582000   0.51795625   -7.7037603    846.34457  0.015392561  0.013991354         2029 
 4583000   0.50741685   -7.6824351    845.17507  0.015367937  0.013986884         2012 
 4584000   0.51397447    -7.708371    844.41645  0.015350794  0.013982421         2019 
 4585000   0.51984329    -7.695639    844.22387  0.015343945  0.013977957         2069 
 4586000     0.517633   -7.6841963    845.24889  0.015359225  0.013973498         2036 
 4587000   0.50880559     -7.67748    844.99769  0.015351313  0.013969036         2067 
 4588000   0.52861082   -7.6961465    846.03846  0.015366871  0.013964578         2021 
 4589000   0.52918927   -7.6891816    842.91051  0.015306721  0.013960117         2063 
 4590000   0.51604712   -7.6991888    843.59487  0.015315811  0.013955659         2025 
 4591000   0.51656906   -7.6927809    844.31418  0.015325531  0.013951205         2037 
 4592000   0.52050082   -7.6890168    844.31995  0.015322299   0.01394675         2090 
 4593000   0.51772119   -7.6937205    844.97879  0.015330916  0.013942293         2044 
 4594000   0.51076201   -7.7015871     843.6699  0.015303837  0.013937838         2028 
 4595000    0.5158613   -7.6834917    844.23477   0.01531075  0.013933388         2017 
 4596000   0.52748823   -7.6880341    843.98556    0.0153029  0.013928943         2045 
 4597000   0.51898276   -7.6883239    844.15171  0.015302583  0.013924495         2002 
 4598000   0.52865492   -7.6997205    844.58527  0.015307113  0.013920048         2051 
 4599000   0.52387296   -7.7031218     844.2445   0.01529761  0.013915607         2016 
 4600000   0.49888058   -7.6741906    843.63852  0.015283306  0.013911165         2072 
 4601000   0.52527715    -7.686127    845.36933  0.015311333  0.013906724         2053 
 4602000   0.51241485   -7.6956729    845.25811  0.015305992  0.013902285         2036 
 4603000   0.50438222   -7.6947469    844.08332  0.015281398  0.013897845         2085 
 4604000   0.52037723   -7.6941873    844.70843  0.015289394  0.013893407         2003 
 4605000   0.51603554   -7.6875103    844.03951  0.015273969   0.01388897         2027 
 4606000   0.51132922   -7.7010837     844.0286  0.015270455  0.013884529         2017 
 4607000   0.52321055   -7.7030569    843.62424  0.015259826  0.013880099         2064 
 4608000   0.50480672     -7.69927    844.50614  0.015272463   0.01387567         2108 
 4609000   0.51546153   -7.6944763    843.96235  0.015259318  0.013871241         2049 
 4610000   0.50051122   -7.6970403    844.66151  0.015268646  0.013866812         2040 
 4611000   0.51462486   -7.7025444    843.92468  0.015252018  0.013862384         2085 
 4612000   0.50907899   -7.7205411    844.04438  0.015250874  0.013857957         2060 
 4613000   0.51752112    -7.698395    845.20858  0.015268599  0.013853532         2099 
 4614000   0.52278108    -7.708205    843.38291  0.015232317  0.013849109         2047 
 4615000   0.52283526   -7.7030056    843.90987  0.015238531  0.013844689         2031 
 4616000   0.52026254   -7.7018739    843.40694  0.015226151  0.013840268         2096 
 4617000    0.4996875   -7.7053859     843.7065   0.01522826  0.013835843         2083 
 4618000   0.50978277   -7.7034011    843.95987  0.015229534  0.013831421         2070 
 4619000   0.51268023   -7.7014354     845.3811  0.015251878  0.013827005         2124 
 4620000   0.51392552   -7.7076523    844.09715  0.015225418   0.01382259         2070 
 4621000   0.50112504   -7.6994929    842.83124  0.015199294  0.013818172         2016 
 4622000   0.51720161    -7.727618    844.77161   0.01523099  0.013813758         2109 
 4623000    0.5061393   -7.7274322    844.60307  0.015224657  0.013809341         2020 
 4624000   0.50899599   -7.7187195    843.61473  0.015203553   0.01380493         2038 
 4625000   0.50251318   -7.7002816    842.90552  0.015187487  0.013800515         2064 
 4626000   0.50231813   -7.7161028    843.59106  0.015196553  0.013796105         2012 
 4627000   0.51505128   -7.7019212    844.24532  0.015205052  0.013791693         2039 
 4628000   0.50424638   -7.7245041     843.7445  0.015192749  0.013787285         2042 
 4629000   0.50941708   -7.7184016    844.41259  0.015201494  0.013782877         2059 
 4630000   0.50698793   -7.7103152    842.68593  0.015167133   0.01377847         2074 
 4631000   0.51387767   -7.7293607     844.1293  0.015189831  0.013774065         2064 
 4632000   0.50796305   -7.7066896    844.48119  0.015192883  0.013769664         2082 
 4633000   0.51487001   -7.7198136    843.63798  0.015174437  0.013765264         2068 
 4634000   0.50015341   -7.7148897    841.48453  0.015132437  0.013760866         2112 
 4635000   0.51454541   -7.7124151    843.79165  0.015170652  0.013756471         2087 
 4636000    0.5134255   -7.7118003    844.57495  0.015181459  0.013752076         2082 
 4637000   0.50560604   -7.7109508    842.72508  0.015144941  0.013747682         2130 
 4638000   0.51492956   -7.7135942    842.84655  0.015143858  0.013743289         2111 
 4639000   0.50148875   -7.7136287    843.45016  0.015151436    0.0137389         2070 
 4640000   0.51039707   -7.7100316    844.04052  0.015158774  0.013734511         2090 
 4641000   0.51226836    -7.709692    843.25535  0.015141409   0.01373012         2090 
 4642000   0.51487974   -7.7011905    842.89637  0.015131703  0.013725732         2082 
 4643000   0.50658393     -7.72177    844.08659  0.015149806  0.013721351         2132 
 4644000   0.51529618   -7.7107078    844.39561  0.015152089  0.013716968         2084 
 4645000    0.5055566   -7.7232519    842.58319  0.015116311  0.013712588         2097 
 4646000    0.4987268   -7.7244657    841.93975  0.015101517  0.013708208         2099 
 4647000   0.51633672   -7.7127957     844.5067  0.015144299   0.01370383         2136 
 4648000   0.51266864   -7.6968601    843.90111  0.015130183  0.013699457         2134 
 4649000    0.5160783    -7.717631    843.76723  0.015124529  0.013695083         2092 
 4650000    0.5102887   -7.7246381     842.6894  0.015101961  0.013690711         2125 
 4651000   0.52143943   -7.7057517    843.86941  0.015119856  0.013686341         2100 
 4652000   0.50532566      -7.7067    843.75919  0.015114631  0.013681975         2136 
 4653000   0.50427572    -7.703496    843.43794   0.01510563  0.013677605         2080 
 4654000   0.51995975   -7.7164184     843.9859  0.015112196  0.013673238         2051 
 4655000   0.50582437   -7.7194906    843.46668  0.015099654  0.013668875         2097 
 4656000   0.51093462   -7.7253687    843.38668  0.015094979   0.01366451         2143 
 4657000   0.51361312   -7.7213554    844.79256  0.015116895   0.01366015         2122 
 4658000   0.50030952   -7.7244812     843.2368  0.015085816   0.01365579         2148 
 4659000   0.50978938   -7.7353216    844.32159  0.015101982  0.013651429         2112 
 4660000   0.50299502   -7.7193003    843.31778   0.01508079  0.013647073         2148 
 4661000   0.50107249     -7.72707    842.39088  0.015060983  0.013642718         2122 
 4662000   0.50002252   -7.6927577     843.0031  0.015068695  0.013638363         2090 
 4663000   0.51376158   -7.7409172    843.07767  0.015066797   0.01363401         2101 
 4664000   0.50907162   -7.7305655    843.48475   0.01507084  0.013629658         2093 
 4665000   0.51181562   -7.7060663    841.77724  0.015037107  0.013625308         2093 
 4666000   0.49473717   -7.7127648    843.39701  0.015062813  0.013620964         2098 
 4667000   0.50529575   -7.7223143    843.37265   0.01505915  0.013616617         2136 
 4668000   0.49911274   -7.7167245    843.23907   0.01505354  0.013612271         2074 
 4669000   0.50097566      -7.7259    843.24213   0.01505037  0.013607928         2032 
 4670000   0.49642352   -7.7329578    843.79098  0.015056941  0.013603589         2022 
 4671000   0.50589568   -7.7265566     843.0699  0.015040853  0.013599251         2099 
 4672000    0.5052814   -7.7151036    842.95018  0.015035498  0.013594917         2056 
 4673000   0.50691695   -7.7193593    842.39767  0.015022428   0.01359058         2120 
 4674000    0.5134099   -7.7192744    843.62252  0.015041052  0.013586249         2066 
 4675000    0.5085738   -7.7255814    843.46406   0.01503501  0.013581919         2060 
 4676000    0.4977371   -7.7271527    843.40209   0.01503069  0.013577588         2039 
 4677000   0.51103659   -7.7248467    843.18578  0.015023622  0.013573264         2055 
 4678000   0.50663053   -7.7096572    843.80696  0.015031476  0.013568938         2028 
 4679000   0.51403712   -7.7176507    843.54381  0.015023577  0.013564616         2063 
 4680000   0.50843545   -7.7077894    842.25287   0.01499738  0.013560296         2077 
 4681000   0.50733607   -7.7356757    843.60036  0.015018165  0.013555974         2069 
 4682000   0.50762768   -7.7295898    844.67874  0.015034151  0.013551658         2104 
 4683000   0.49914656   -7.7284866    843.25838  0.015005665  0.013547342         2064 
 4684000   0.49647552   -7.7461152    844.01082  0.015015849  0.013543026         2042 
 4685000   0.49068487   -7.7263189    841.86037  0.014974393  0.013538711         2040 
 4686000   0.48871344   -7.7231715    842.21724  0.014977544  0.013534396         2055 
 4687000   0.50831321   -7.7153896    843.07436  0.014989587  0.013530083         2093 
 4688000   0.50683564   -7.7084078    842.09508  0.014968983  0.013525774         2093 
 4689000   0.50585269   -7.7283735    843.07318  0.014983173  0.013521469         2046 
 4690000   0.50830306   -7.7382841    841.81572  0.014957635  0.013517159         2094 
 4691000   0.49772644    -7.732386    843.73565  0.014988553  0.013512854         2109 
 4692000   0.50504636   -7.7087146    842.76613  0.014968139  0.013508546         2161 
 4693000   0.51307571   -7.7304362    843.33772    0.0149751   0.01350424         2145 
 4694000   0.50356485   -7.7317014     842.7078  0.014960726  0.013499935         2126 
 4695000   0.50162068   -7.7360169    842.82665   0.01495965   0.01349563         2162 
 4696000   0.49662537   -7.7275104    843.97454  0.014976834  0.013491331         2079 
 4697000   0.50469277   -7.7397001    842.39852  0.014945684  0.013487031         2180 
 4698000   0.49501554   -7.7214695    842.53948  0.014945003  0.013482735         2173 
 4699000   0.50389932   -7.7206202    843.36741  0.014956505  0.013478444         2124 
 4700000    0.4926308    -7.727328    843.80032  0.014960999  0.013474151         2155 
 4701000   0.49469607   -7.7342822    843.33227  0.014949519  0.013469862         2089 
 4702000   0.49783167   -7.7411739    843.92627  0.014956867  0.013465575         2158 
 4703000   0.50307817   -7.7341952    843.38039  0.014944014  0.013461288         2163 
 4704000   0.49767743    -7.716013     841.8972  0.014914562  0.013456997         2126 
 4705000   0.49573567   -7.7415535    842.92969  0.014929679  0.013452713         2111 
 4706000   0.49156231   -7.7212674    843.07627  0.014929102  0.013448428         2109 
 4707000   0.49403287   -7.7098288    842.44141  0.014914691  0.013444145         2062 
 4708000   0.49814021    -7.725043    841.49775   0.01489482  0.013439866         2107 
 4709000    0.4921246   -7.7323278    842.78252  0.014914393  0.013435588         2099 
 4710000   0.48824767   -7.7260412     843.3454  0.014921185  0.013431311         2102 
 4711000   0.49985453   -7.7296032    843.13466   0.01491429  0.013427034         2154 
 4712000    0.5021263   -7.7314432    841.77438  0.014887068  0.013422757         2136 
 4713000   0.50202547   -7.7437567    844.17668  0.014926386  0.013418483         2155 
 4714000   0.49385478   -7.7343599    842.47258  0.014893095  0.013414211         2146 
 4715000   0.49415822   -7.7346997    841.62248  0.014874911   0.01340994         2170 
 4716000   0.50183819   -7.7337706    842.18001  0.014881609   0.01340567         2140 
 4717000    0.4882402   -7.7459795    842.71484  0.014887903  0.013401404         2148 
 4718000    0.4848803   -7.7530221    843.33257  0.014895658  0.013397139         2128 
 4719000   0.48713149   -7.7365819    843.43476  0.014894306  0.013392874         2138 
 4720000   0.48659393   -7.7301931    842.20088  0.014869366  0.013388615         2131 
 4721000   0.49431247   -7.7336784    841.71002  0.014857552  0.013384354         2121 
 4722000   0.50540896   -7.7298956    842.01656  0.014859815  0.013380092         2175 
 4723000   0.49480026   -7.7413354    842.79483  0.014870401  0.013375835         2106 
 4724000   0.49755272   -7.7152187    842.78897   0.01486715  0.013371581         2132 
 4725000   0.48329624   -7.7302207    843.61329  0.014878541  0.013367326         2137 
 4726000   0.50183505    -7.734732    841.80409  0.014843491  0.013363075         2129 
 4727000   0.48724695   -7.7487257    843.91915  0.014877638  0.013358823         2141 
 4728000   0.49781992   -7.7387559    841.38971  0.014829909  0.013354575         2111 
 4729000   0.49872999   -7.7333778    842.71767  0.014850174  0.013350324         2149 
 4730000   0.50718583   -7.7416959    842.10277  0.014836201  0.013346081         2141 
 4731000   0.49456827   -7.7424441    842.60485  0.014841909  0.013341836         2114 
 4732000   0.49729866    -7.741629    843.04378  0.014846502  0.013337591         2193 
 4733000   0.50068246    -7.727486    842.20349  0.014828571  0.013333348         2111 
 4734000   0.50105044   -7.7256001    841.35616  0.014810522  0.013329105         2126 
 4735000   0.49714627     -7.73662    842.70467  0.014831128  0.013324866         2107 
 4736000   0.49421682   -7.7417774     842.2149  0.014819378  0.013320628         2180 
 4737000   0.49436992   -7.7388381    842.31766  0.014818058  0.013316392         2130 
 4738000   0.48757322    -7.750539    841.99454  0.014809247  0.013312158         2188 
 4739000    0.4971999   -7.7453191    842.08034  0.014807631  0.013307922         2138 
 4740000   0.49677221   -7.7548104    842.74286  0.014816154  0.013303691         2142 
 4741000    0.4881056   -7.7314177    842.69522  0.014812192  0.013299455         2162 
 4742000    0.4953934   -7.7310869    841.85728  0.014794343  0.013295229         2128 
 4743000   0.49981384   -7.7401587    842.58722  0.014804048  0.013290999         2174 
 4744000   0.49424785    -7.724639    842.98745  0.014807958  0.013286774         2134 
 4745000   0.49521151   -7.7470516    842.46406  0.014795646  0.013282551         2163 
 4746000   0.50526945   -7.7598258    843.40176  0.014808993  0.013278325         2128 
 4747000   0.50032803   -7.7326579    842.77425  0.014794857  0.013274106         2148 
 4748000   0.49284113   -7.7569151     841.0545  0.014761557  0.013269886         2149 
 4749000   0.49225418   -7.7418529    843.35041  0.014798737  0.013265668         2147 
 4750000   0.48549167   -7.7313991    841.56566   0.01476431  0.013261452         2179 
 4751000   0.47352719   -7.7415321    841.17894  0.014754419  0.013257239         2117 
 4752000   0.49659621   -7.7511109    842.31964  0.014771318  0.013253023         2166 
 4753000    0.4856317   -7.7481793    842.72808  0.014775371  0.013248812         2167 
 4754000   0.49068969   -7.7277477    842.78933  0.014773337  0.013244602         2232 
 4755000   0.49731415   -7.7324766    843.74789  0.014787029  0.013240395         2172 
 4756000   0.49667933   -7.7377364    842.44513  0.014761094  0.013236187         2171 
 4757000   0.48969164    -7.741824    842.36452  0.014756578  0.013231983         2223 
 4758000   0.49214198   -7.7524191    841.67483  0.014741397  0.013227776         2166 
 4759000   0.49768341   -7.7570876    842.39363  0.014750887  0.013223574         2187 
 4760000   0.48706536   -7.7433808    843.09639  0.014760091  0.013219372         2180 
 4761000   0.50161208   -7.7496181    841.95402  0.014736995  0.013215171         2148 
 4762000   0.48613601   -7.7428703    841.89127  0.014732803  0.013210972         2144 
 4763000   0.48312393   -7.7488668    844.23461  0.014770708  0.013206774         2161 
 4764000   0.48353516   -7.7421105    841.40166  0.014718053  0.013202578         2171 
 4765000    0.4895954     -7.73552    842.68786  0.014737458  0.013198389         2152 
 4766000   0.48835736   -7.7284823    842.45758  0.014730339  0.013194196         2104 
 4767000   0.49692732   -7.7480059    840.50998  0.014693203  0.013190003         2187 
 4768000   0.50029318   -7.7442333    843.00306  0.014733694  0.013185813         2154 
 4769000   0.48930741   -7.7390423    843.18551  0.014733793  0.013181623         2155 
 4770000   0.48438249    -7.745696    842.40469  0.014717063  0.013177437         2228 
 4771000   0.48374938   -7.7604385    841.73449  0.014702272  0.013173255         2188 
 4772000   0.49363337   -7.7438972    841.45146  0.014694249  0.013169069         2179 
 4773000   0.47874923   -7.7291237    843.23354  0.014722284  0.013164889         2168 
 4774000    0.4868963   -7.7479058    842.84596  0.014712435  0.013160712         2222 
 4775000    0.4836541   -7.7468613    842.35986   0.01470087  0.013156535         2168 
 4776000   0.47744234   -7.7431061    842.52988  0.014700759  0.013152359         2177 
 4777000   0.48804178   -7.7572952    842.72267  0.014701044   0.01314819         2209 
 4778000   0.48803875    -7.742153    842.33036  0.014691125  0.013144018         2163 
 4779000   0.48271243   -7.7373868    842.47576  0.014690587  0.013139846         2216 
 4780000   0.48322019   -7.7481089    842.51771  0.014688245  0.013135679         2138 
 4781000   0.48562036   -7.7541814    842.05279  0.014677069  0.013131514         2203 
 4782000   0.49073387   -7.7520906    841.53848  0.014665037  0.013127346         2255 
 4783000   0.47987729   -7.7614102    841.76898  0.014665987  0.013123182         2193 
 4784000   0.48290492   -7.7518563    841.94774  0.014666035  0.013119015         2186 
 4785000   0.49260142   -7.7531671    842.57307   0.01467386  0.013114852         2216 
 4786000   0.48612496   -7.7469786    841.01238   0.01464362  0.013110689         2195 
 4787000   0.49107388   -7.7557846    842.06447  0.014658876  0.013106529         2207 
 4788000   0.49922427   -7.7478596    841.99413   0.01465459  0.013102368         2149 
 4789000   0.49119027   -7.7591422     841.1487  0.014636819  0.013098209         2219 
 4790000   0.48952389   -7.7629146    842.75355  0.014661683  0.013094049         2208 
 4791000   0.48329417    -7.753438    841.52996   0.01463734  0.013089894         2157 
 4792000   0.47624762   -7.7471652    840.46965  0.014615847  0.013085741         2231 
 4793000   0.49339766    -7.767275     841.8513  0.014636819  0.013081589         2184 
 4794000   0.49479659   -7.7339752     841.1452  0.014621492  0.013077439         2179 
 4795000   0.48335824   -7.7374414    841.22446   0.01461982  0.013073289         2192 
 4796000   0.48430024   -7.7532275    841.47344  0.014621098   0.01306914         2240 
 4797000   0.47341134   -7.7488956    840.83697  0.014606993  0.013064994         2170 
 4798000   0.48418476   -7.7501056    841.87833  0.014622036  0.013060851         2165 
 4799000   0.47564517   -7.7616674    841.00794  0.014603875  0.013056707         2203 
 4800000   0.48914418   -7.7501412    841.52697  0.014609843  0.013052565         2207 
 4801000   0.48927719   -7.7544451    842.80802  0.014629036  0.013048424         2160 
 4802000   0.48091638   -7.7530062    841.64476  0.014605802  0.013044282         2224 
 4803000   0.48867127    -7.752826    841.73473  0.014604323  0.013040145         2213 
 4804000    0.4890077   -7.7589267    842.61304  0.014616518  0.013036011         2177 
 4805000   0.49369733   -7.7594916    841.02927  0.014586009  0.013031876         2166 
 4806000   0.47631823   -7.7617625    840.80829  0.014579142  0.013027739         2173 
 4807000   0.48367106   -7.7683867    842.64749  0.014607993  0.013023605         2208 
 4808000    0.4797732   -7.7517415    842.15024  0.014596337  0.013019473         2185 
 4809000   0.48780966   -7.7502942    842.28894  0.014595705  0.013015343         2232 
 4810000   0.49007181   -7.7541663    841.19079  0.014573645  0.013011214         2226 
 4811000   0.48095835   -7.7447708    841.82106  0.014581533   0.01300709         2208 
 4812000   0.47381177   -7.7647493    841.16734  0.014567182  0.013002966         2258 
 4813000   0.47767396   -7.7788327    842.66191  0.014590032  0.012998842         2245 
 4814000   0.48383418   -7.7506403     841.8488  0.014572926  0.012994718         2203 
 4815000   0.48259776   -7.7664179    841.69564  0.014567249  0.012990601         2232 
 4816000   0.48320925   -7.7626368    840.06621  0.014536029  0.012986485         2245 
 4817000   0.49058763   -7.7635117    842.55264  0.014576027   0.01298237         2226 
 4818000   0.48301243   -7.7679227    841.88544  0.014561461  0.012978253         2243 
 4819000   0.49554037   -7.7753651    840.99964  0.014543122  0.012974141         2230 
 4820000   0.48167981   -7.7564479    842.00927   0.01455756  0.012970028         2213 
 4821000   0.47899169    -7.773961    842.16325  0.014557202  0.012965919         2167 
 4822000   0.47224814   -7.7682141    841.17076  0.014537031  0.012961808         2165 
 4823000   0.48497192   -7.7664292    841.89166  0.014546473  0.012957698         2182 
 4824000   0.48633815   -7.7593638    841.33322   0.01453381  0.012953588         2167 
 4825000   0.47342255   -7.7705608    842.14575  0.014544832  0.012949482         2166 
 4826000   0.47654516   -7.7655695    840.81717  0.014518876  0.012945378         2238 
 4827000   0.48668132   -7.7648408    841.94725  0.014535378  0.012941276         2250 
 4828000   0.46898146   -7.7642587    841.77897  0.014529463  0.012937173         2252 
 4829000   0.47843714   -7.7706706    841.73604  0.014525713  0.012933073         2204 
 4830000   0.48396663   -7.7635145    840.77465  0.014506119  0.012928975         2227 
 4831000   0.48581978   -7.7629606    841.81169  0.014521005  0.012924875         2245 
 4832000   0.47451408   -7.7603862    841.46682  0.014512052   0.01292078         2210 
 4833000   0.46769623   -7.7580134    842.34673  0.014524221  0.012916686         2219 
 4834000   0.47388624   -7.7746384    843.14714  0.014535015  0.012912596         2179 
 4835000   0.48216402   -7.7571436    841.81912   0.01450912  0.012908505         2246 
 4836000   0.48634183   -7.7695122    841.47741  0.014500231  0.012904417         2236 
 4837000   0.48467477   -7.7547044    840.76583  0.014484974   0.01290033         2221 
 4838000   0.49197956   -7.7696748    841.27188  0.014490697  0.012896243         2249 
 4839000   0.48639491   -7.7695057    841.58301   0.01449306  0.012892158         2191 
 4840000   0.46994459   -7.7609954    840.25826  0.014467257  0.012888074         2193 
 4841000   0.47817439   -7.7727529    840.38396  0.014466432  0.012883991         2151 
 4842000   0.47278662   -7.7679035    841.52792  0.014483132  0.012879916         2208 
 4843000   0.47767532   -7.7720479    841.26316  0.014475586   0.01287584         2179 
 4844000   0.47974465   -7.7785226    841.74969  0.014480968  0.012871765         2213 
 4845000   0.48149348   -7.7747309    840.91411  0.014463607  0.012867692         2226 
 4846000   0.47996924   -7.7631462    841.82176  0.014476231  0.012863621         2205 
 4847000   0.48013742    -7.771481    841.63186  0.014469979  0.012859548         2248 
 4848000   0.47748222   -7.7591736    841.00799   0.01445627  0.012855475         2272 
 4849000   0.47900856   -7.7631058    840.36152  0.014442179  0.012851407         2193 
 4850000   0.47112328   -7.7717688    841.94196  0.014466357   0.01284734         2198 
 4851000   0.46869117   -7.7621977    841.91678  0.014462942  0.012843275         2225 
 4852000   0.46507548   -7.7660252    841.54881  0.014453641   0.01283921         2229 
 4853000    0.4775563   -7.7670283    841.43236  0.014448663  0.012835147         2207 
 4854000   0.47336959    -7.771082    840.26209  0.014425596  0.012831084         2173 
 4855000   0.46649151    -7.773433    840.78182  0.014431545  0.012827019         2143 
 4856000   0.46407211   -7.7709295    839.42362  0.014405265  0.012822958         2197 
 4857000   0.47387643   -7.7681672     841.4431  0.014436948  0.012818901         2261 
 4858000   0.48076588   -7.7840687    840.33588  0.014414984  0.012814846         2243 
 4859000   0.47044861   -7.7689552    840.55264  0.014415734  0.012810793         2203 
 4860000    0.4762319   -7.7731522     841.6868  0.014432215  0.012806741         2233 
 4861000   0.47222886   -7.7604295    840.66165  0.014411672  0.012802688         2220 
 4862000   0.47429905   -7.7684276    841.71558  0.014426772  0.012798638         2240 
 4863000    0.4821829   -7.7622753    840.50311  0.014403028  0.012794593         2198 
 4864000   0.48483689   -7.7844428    840.31347  0.014396818  0.012790545         2253 
 4865000   0.48324539     -7.78234    841.29462  0.014410665  0.012786498         2205 
 4866000   0.47260279   -7.7731963    841.97576  0.014419368  0.012782453         2269 
 4867000   0.47724626   -7.7811692    841.47533  0.014407837   0.01277841         2211 
 4868000   0.47175195   -7.7677285    840.79896  0.014393299  0.012774367         2225 
 4869000   0.47033477   -7.7647642    839.94847  0.014375787  0.012770327         2243 
 4870000   0.47694501   -7.7835663    841.86067  0.014405556  0.012766288         2260 
 4871000   0.46729915   -7.7711936    841.10245  0.014389627   0.01276225         2206 
 4872000   0.47081454   -7.7734497    842.00995  0.014402195  0.012758218         2249 
 4873000   0.47993803   -7.7766148    840.78198   0.01437824  0.012754185         2266 
 4874000   0.47217494   -7.7652985    840.17136   0.01436485  0.012750152         2277 
 4875000   0.46562622   -7.7712846    841.35581  0.014382151   0.01274612         2211 
 4876000   0.47538507   -7.7568071    839.64217  0.014349914  0.012742091         2224 
 4877000   0.46928639   -7.7762333    840.78395  0.014366481  0.012738064         2254 
 4878000      0.46822   -7.7546883    840.12254  0.014352237  0.012734039         2246 
 4879000   0.46255029   -7.7855111    841.65677    0.0143755  0.012730016         2257 
 4880000   0.47909769   -7.7724332    842.19495  0.014381744   0.01272599         2246 
 4881000   0.46645316   -7.7802519    840.92876   0.01435718   0.01272197         2250 
 4882000   0.46859533   -7.7838678    840.74259  0.014351062   0.01271795         2228 
 4883000   0.46399428   -7.7784811     840.4258  0.014342716  0.012713932         2235 
 4884000   0.47347947   -7.7935698    841.37333  0.014355947  0.012709914         2224 
 4885000   0.47578044   -7.7606241    841.19609  0.014349985  0.012705901         2198 
 4886000     0.473564   -7.7895609    840.59429  0.014336784  0.012701887         2238 
 4887000   0.46621368   -7.7811696    839.79613   0.01432024  0.012697879         2256 
 4888000   0.46364543   -7.7571642      841.175  0.014340818  0.012693873         2162 
 4889000   0.46289119   -7.7798386    840.06199  0.014318913  0.012689866         2244 
 4890000   0.46513568   -7.7813687    841.23776  0.014336022  0.012685858         2196 
 4891000   0.46343518   -7.7726705    840.13696  0.014314335  0.012681853         2217 
 4892000   0.46991943   -7.7863069     841.1814  0.014329201  0.012677851         2221 
 4893000   0.46408622   -7.7855853    839.92657  0.014304901  0.012673846         2211 
 4894000   0.46231754   -7.7812083    841.30649  0.014325475  0.012669847         2231 
 4895000   0.46575743    -7.777155    841.24022   0.01432142  0.012665848         2195 
 4896000   0.46589802   -7.7882686    840.91893  0.014313026  0.012661851         2235 
 4897000   0.47041687   -7.7919508    840.99619  0.014311418  0.012657856         2201 
 4898000   0.46597383   -7.7917476    840.53553  0.014300659  0.012653861         2241 
 4899000   0.46798858   -7.7885521    839.35138  0.014277597   0.01264987         2233 
 4900000   0.46036639   -7.7769703    840.26288  0.014290185  0.012645879         2231 
 4901000   0.47337266   -7.7794754    839.64636  0.014276786   0.01264189         2214 
 4902000   0.46687891   -7.7965932    840.17694  0.014282894  0.012637899         2239 
 4903000   0.46941046   -7.7764747    839.96499  0.014276378  0.012633913         2219 
 4904000   0.46826777   -7.7832801    840.86293  0.014288726   0.01262993         2250 
 4905000   0.47694916   -7.7777209    839.74497  0.014266819  0.012625944         2224 
 4906000   0.46136519    -7.772073    840.86351  0.014282911  0.012621959         2237 
 4907000   0.47038996   -7.7821137    842.22722  0.014303159  0.012617981         2249 
 4908000    0.4633955    -7.778692      840.253  0.014266724  0.012614004         2189 
 4909000   0.46048923   -7.7811795     840.4628   0.01426738  0.012610027         2189 
 4910000   0.46850459   -7.7875666    840.77788  0.014269821  0.012606053         2237 
 4911000   0.46586412   -7.7997231    841.09448  0.014272288   0.01260208         2240 
 4912000   0.47255137   -7.7904456    841.59018  0.014277792  0.012598109         2180 
 4913000   0.45870966   -7.7892898    840.10399  0.014249678  0.012594137         2220 
 4914000   0.47542651   -7.7918109    840.69837  0.014256857  0.012590168         2197 
 4915000   0.46194592   -7.7781583    840.93767  0.014258014    0.0125862         2217 
 4916000   0.47460549   -7.7811035    839.84055  0.014236516  0.012582231         2243 
 4917000    0.4579742   -7.7869306    841.67729   0.01426475  0.012578267         2218 
 4918000   0.46402208   -7.7841093    840.20222  0.014236855  0.012574301         2201 
 4919000   0.47013644   -7.7974028     840.4214  0.014237674   0.01257034         2257 
 4920000   0.45655653   -7.7859771    839.04481  0.014211464  0.012566374         2224 
 4921000   0.46022044   -7.7965758    840.36866  0.014230994  0.012562411         2213 
 4922000   0.45613808    -7.802102    841.64384  0.014249693  0.012558452         2260 
 4923000   0.46037879     -7.78954    839.99345  0.014218861  0.012554496         2217 
 4924000    0.4646766   -7.8056657    841.43695  0.014240403  0.012550544         2201 
 4925000   0.45695249   -7.8040208    840.85673  0.014227694  0.012546592         2250 
 4926000   0.47134267   -7.7877019    839.61782  0.014203847  0.012542641         2229 
 4927000   0.46599589   -7.7793993     840.1334  0.014209685  0.012538691         2194 
 4928000    0.4698939   -7.7870635    841.53916  0.014230573  0.012534743         2230 
 4929000   0.47031278    -7.792606    839.96595  0.014201088  0.012530793         2294 
 4930000   0.45870126   -7.7876438    839.78332   0.01419512  0.012526847         2238 
 4931000   0.46071854   -7.7898347    840.31282   0.01420119  0.012522904         2242 
 4932000   0.46847268   -7.7945176    840.92608  0.014208673  0.012518962         2228 
 4933000   0.46926818   -7.7871212    840.17112  0.014193039   0.01251502         2191 
 4934000   0.46971041   -7.7981148    840.88265   0.01420218  0.012511083         2224 
 4935000   0.46628538   -7.8082051    840.94375  0.014200333  0.012507145         2236 
 4936000   0.46934713   -7.7906347    840.60404  0.014191721  0.012503209         2225 
 4937000   0.45539381   -7.8044921    840.52508  0.014187514  0.012499273         2241 
 4938000   0.45644457   -7.8112897    840.60989  0.014186072  0.012495337         2218 
 4939000   0.45779799   -7.7920053    839.37928  0.014162436  0.012491405         2278 
 4940000   0.45762083   -7.8019546    839.97171  0.014169563  0.012487475         2202 
 4941000    0.4555778   -7.7776116    838.73978  0.014145918  0.012483544         2243 
 4942000    0.4554184   -7.7928241      840.696  0.014176042  0.012479619         2216 
 4943000    0.4676735   -7.8031809    839.46367  0.014152399  0.012475689         2231 
 4944000   0.45712192   -7.8049594    839.43048  0.014148977  0.012471766         2221 
 4945000   0.45711651   -7.7979568    840.76094  0.014168536  0.012467844         2207 
 4946000   0.46586366   -7.7880873    841.07834  0.014171019  0.012463926         2234 
 4947000   0.46278888   -7.7894092    839.73825  0.014145581  0.012460002         2271 
 4948000   0.46450236   -7.7989164     838.9105  0.014128781  0.012456081         2256 
 4949000   0.45770836   -7.7974199    840.35587  0.014150264  0.012452162         2282 
 4950000   0.45878523   -7.8033957    839.64028  0.014135358  0.012448244         2246 
 4951000   0.45353485   -7.7957511    839.70346  0.014133567  0.012444329         2226 
 4952000   0.45479657   -7.7953473    840.05509   0.01413663  0.012440413         2236 
 4953000   0.46618588    -7.796096    839.56361  0.014125507  0.012436498         2244 
 4954000   0.45108333   -7.7983331    841.36641  0.014152981  0.012432586         2211 
 4955000   0.45151008   -7.7993369    841.03515  0.014144554  0.012428677         2218 
 4956000   0.45896526   -7.8039148    840.50551  0.014132794  0.012424766         2259 
 4957000   0.46683651   -7.7927061    839.80208  0.014118117  0.012420862         2186 
 4958000   0.45935894   -7.8000381    840.02504  0.014119017  0.012416954         2261 
 4959000   0.45865481   -7.8031357    839.25814  0.014103283  0.012413052         2248 
 4960000    0.4515489   -7.8029106    839.99795  0.014112869  0.012409149         2249 
 4961000   0.44720603   -7.7952947    839.28515  0.014098051  0.012405244         2258 
 4962000   0.45839102   -7.7968712     839.1032  0.014092154  0.012401342         2265 
 4963000   0.44384492   -7.8060302    840.51867  0.014113081  0.012397446         2250 
 4964000   0.45963967   -7.8045887    839.07503  0.014086003  0.012393549         2273 
 4965000   0.45879847    -7.797366    839.80489  0.014095416  0.012389654         2248 
 4966000   0.46168946   -7.8053346    840.30795  0.014101019  0.012385758         2178 
 4967000   0.46612129   -7.7931136    839.27515  0.014080853  0.012381866         2269 
 4968000   0.46567084    -7.794494    839.86148  0.014087854  0.012377974         2255 
 4969000   0.45346707   -7.7906547    839.20946  0.014074084  0.012374086         2296 
 4970000   0.44487651   -7.8063087    840.33766  0.014090169    0.0123702         2261 
 4971000   0.44739113    -7.799252    839.57596  0.014074565  0.012366313         2257 
 4972000   0.45452696   -7.8038305    840.50572  0.014087318  0.012362429         2228 
 4973000   0.45537459   -7.7932686    839.65496  0.014070229  0.012358546         2219 
 4974000   0.46907476   -7.8085591    838.28979  0.014044528  0.012354659         2270 
 4975000   0.45323809   -7.8003084    839.49135  0.014061832  0.012350777         2265 
 4976000    0.4571917   -7.8183556    839.90803  0.014065984  0.012346896         2280 
 4977000   0.44898584   -7.8057187    840.04857  0.014065511  0.012343019         2290 
 4978000   0.46421828    -7.789633     839.5489  0.014054321  0.012339143         2257 
 4979000   0.46170246   -7.8049636    840.87181  0.014073639  0.012335267         2259 
 4980000   0.46051357   -7.7973053     839.5456  0.014048621  0.012331391         2271 
 4981000   0.46353094     -7.82388    839.35028  0.014042533  0.012327517         2245 
 4982000   0.44478684   -7.8081761    840.09796  0.014052221  0.012323642         2282 
 4983000   0.45997119   -7.7828408    840.27702  0.014052395  0.012319773         2220 
 4984000   0.46045696   -7.7985429    840.07062  0.014046125  0.012315905         2275 
 4985000   0.45345521   -7.8065272    840.49717  0.014050437  0.012312036         2253 
 4986000   0.44669332   -7.8050078    839.73369  0.014034859   0.01230817         2279 
 4987000   0.46362249   -7.7886009    841.13503  0.014055461  0.012304305         2235 
 4988000   0.46413472   -7.8007793    840.23986  0.014037688  0.012300447         2264 
 4989000   0.45753306   -7.7992119    838.40752  0.014004268  0.012296586         2266 
 4990000   0.45390833   -7.8181411    840.49098  0.014036256  0.012292725         2278 
 4991000   0.45606248   -7.7964459     839.2264  0.014012329  0.012288865         2282 
 4992000   0.45286989    -7.797258    839.27016  0.014010252  0.012285009         2288 
 4993000   0.45784551   -7.8076481     839.8625  0.014017333  0.012281157         2267 
 4994000   0.44240706   -7.8061754    840.93364    0.0140324  0.012277304         2254 
 4995000   0.45247947   -7.8097419    838.87011  0.013995164  0.012273454         2265 
 4996000   0.45424663   -7.8163108    839.97474  0.014010788  0.012269602         2244 
 4997000   0.44850569   -7.7996624    838.20996  0.013978553  0.012265753         2270 
 4998000   0.45877127   -7.8030828    839.87304  0.014003485  0.012261907         2279 
 4999000   0.45072327   -7.8113196    839.06006  0.013987132  0.012258063         2264 
 5000000     0.454511   -7.8270757    839.30715  0.013988453  0.012254218         2281 
 5001000   0.45657476   -7.8064041     839.7367  0.013992813  0.012250372         2276 
 5002000   0.44332808   -7.7886313    840.21772  0.013998029  0.012246531         2246 
 5003000   0.45045057   -7.8109391    839.48844  0.013983084   0.01224269         2278 
 5004000   0.44199945   -7.8180934    840.08546  0.013990232   0.01223885         2266 
 5005000   0.45612985   -7.8011021    839.90201  0.013984383  0.012235014         2286 
 5006000   0.44250541   -7.8109447    840.08451  0.013984627   0.01223118         2252 
 5007000   0.45355488   -7.8113186    839.57904  0.013973421  0.012227344         2270 
 5008000   0.45739787   -7.8289534    839.23361  0.013964883  0.012223511         2233 
 5009000   0.45171412   -7.8046715    839.34415  0.013963934  0.012219678         2294 
 5010000   0.46858896   -7.8235171    838.93376  0.013954321  0.012215847         2267 
 5011000   0.44337166   -7.8213542    839.74609  0.013965045  0.012212018         2269 
 5012000   0.44998445   -7.8377813    838.86045  0.013947533  0.012208192         2294 
Loop time of 10843 on 48 procs for 5000000 steps with 4000 atoms

Performance: 79682.997 tau/day, 461.128 timesteps/s
99.4% CPU use with 48 MPI tasks x no OpenMP threads

MPI task timing breakdown:
Section |  min time  |  avg time  |  max time  |%varavg| %total
---------------------------------------------------------------
Pair    | 704.76     | 735.36     | 764.91     |  60.4 |  6.78
Neigh   | 68.069     | 69.086     | 71.051     |   7.4 |  0.64
Comm    | 597.49     | 635.22     | 672.6      |  63.4 |  5.86
Output  | 14.775     | 14.78      | 14.872     |   0.3 |  0.14
Modify  | 9229.9     | 9266.2     | 9305.8     |  19.6 | 85.46
Other   |            | 122.3      |            |       |  1.13

Nlocal:        83.3333 ave          92 max          78 min
Histogram: 6 4 12 7 5 5 1 4 3 1
Nghost:        1808.67 ave        1831 max        1792 min
Histogram: 4 5 9 4 8 5 6 3 1 3
Neighs:        11081.8 ave       13061 max        9912 min
Histogram: 5 4 6 13 12 2 3 2 0 1
FullNghs:      22164.3 ave       24818 max       20527 min
Histogram: 3 10 7 11 5 4 1 3 2 2

Total # of neighbors = 1063885
Ave neighs/atom = 265.97125
Neighbor list builds = 269553
Dangerous builds = 0

#clear
#
#next RN
#
#jump SELF
Total wall time: 3:00:45
