
units lj                  # Use reduced LJ style units
atom_style atomic         # Uncharged point particles
atom_modify map hash      # Needed for indexing of clusters etc
                          # Used to be able to find where atoms are in relation to each other.

lattice fcc 1.0 spacing 1 1 1
Lattice spacing in x,y,z = 1.5874011 1.5874011 1.5874011
region box block 0 10 0 10 0 10 units lattice
create_box 2 box
Created orthogonal box = (0.0000000 0.0000000 0.0000000) to (15.874011 15.874011 15.874011)
  3 by 4 by 4 MPI processor grid
create_atoms 1 box
Created 4000 atoms
  using lattice units in orthogonal box = (0.0000000 0.0000000 0.0000000) to (15.874011 15.874011 15.874011)
  create_atoms CPU = 0.002 seconds
set type 1 type/fraction 2 0.07 78393
Setting atom values ...
  309 settings made for type/fraction
mass 1 1.0
mass 2 1.0
pair_style lj/cut  3.5
pair_modify tail  yes
pair_coeff 1  1  1.0  1.0   # Intearaction between 1 and 1 set with epsilon = 1 and sigma = 1
pair_coeff 1  2  1.5  0.8
pair_coeff 2  2  0.5  0.88

write_data data.0
System init for write_data ...
Neighbor list info ...
  update every 1 steps, delay 10 steps, check yes
  max neighbors/atom: 2000, page size: 100000
  master list distance cutoff = 3.8
  ghost atom cutoff = 3.8
  binsize = 1.9, bins = 9 9 9
  1 neighbor lists, perpetual/occasional/extra = 1 0 0
  (1) pair lj/cut, perpetual
      attributes: half, newton on
      pair build: half/bin/atomonly/newton
      stencil: half/bin/3d
      bin: standard
WARNING: Not all mixed pair coeffs generated from mixing. Use write_data with 'pair ij' option to store all pair coeffs. (../write_data.cpp:312)


#############################
#   M E L T   S Y S T E M   #
#############################

velocity all create 2.4 6229865 mom yes dist gaussian # Assign velocities
                                                    # Temperature 2.4, random number seed, zero linear momentum
                                                                                # Gaussian distribution

timestep 0.002   # simulation timestep
thermo 1000       # output thermodynamic data every 1000 steps bf 100

# Define a fix  in this case with index 1 applied to all
# particles in the simulation. This fix is for simulations
# in the anisotropic NPT ensemble. Note that we use the MTK
# correction.
fix 1 all npt temp 2.4 2.4 0.1 iso 5.68 5.68 0.5 mtk yes tchain 5 pchain 5 # Use NPT ensemble
                                                                         # Set temperature and pressure and damping
                                                                         # Numbers of thermostats in chain and in barostat
run 10000          # run for 10000 steps
Per MPI rank memory allocation (min/avg/max) = 3.642 | 3.644 | 3.648 Mbytes
Step Temp E_pair E_mol TotEng Press Volume 
       0          2.4   -7.8774228            0   -4.2783228   -2.8368304         4000 
    1000    2.4173309   -4.5473337            0  -0.92224384    5.5938424     4960.625 
    2000    2.3975586     -4.54503            0  -0.94959123    5.9766152    4903.5838 
    3000    2.3977539   -4.5258939            0  -0.93016218    5.6851741    4950.6201 
    4000     2.453718    -4.579257            0  -0.89960008    5.9392072    4902.0521 
    5000    2.3834814   -4.5507066            0  -0.97637826    5.5199542    4954.1926 
    6000    2.4577935   -4.5093318            0  -0.82356315     5.878384    4952.8686 
    7000    2.3563941    -4.564522            0   -1.0308145    5.5299446    4949.4822 
    8000    2.3951362   -4.4917098            0  -0.89990369    5.6745977    4984.4977 
    9000    2.3998464   -4.5482989            0  -0.94942918    5.7941488    4923.1811 
   10000    2.3718421   -4.5099609            0  -0.95308724    5.5551189    4972.8499 
Loop time of 2.29869 on 48 procs for 10000 steps with 4000 atoms

Performance: 751733.850 tau/day, 4350.312 timesteps/s
99.5% CPU use with 48 MPI tasks x no OpenMP threads

MPI task timing breakdown:
Section |  min time  |  avg time  |  max time  |%varavg| %total
---------------------------------------------------------------
Pair    | 0.89557    | 0.95104    | 1.0063     |   2.7 | 41.37
Neigh   | 0.1881     | 0.19764    | 0.20499    |   0.8 |  8.60
Comm    | 0.69478    | 0.80228    | 0.88005    |   4.8 | 34.90
Output  | 0.00025457 | 0.00026094 | 0.00034271 |   0.0 |  0.01
Modify  | 0.27668    | 0.33285    | 0.39353    |   5.1 | 14.48
Other   |            | 0.01461    |            |       |  0.64

Nlocal:        83.3333 ave          95 max          73 min
Histogram: 2 2 6 4 10 15 3 3 2 1
Nghost:        1422.85 ave        1441 max        1400 min
Histogram: 1 3 3 8 6 5 7 6 4 5
Neighs:        7650.88 ave        8963 max        6563 min
Histogram: 1 6 4 9 13 3 5 4 2 1

Total # of neighbors = 367242
Ave neighs/atom = 91.810500
Neighbor list builds = 903
Dangerous builds = 210

# Equilibrate just above the melting temperature to avoid step fn in T

fix 1 all npt temp 1.25 1.25 0.1 iso 5.68 5.68 0.5 mtk yes tchain 5 pchain 5
run 2000
Per MPI rank memory allocation (min/avg/max) = 3.643 | 3.645 | 3.649 Mbytes
Step Temp E_pair E_mol TotEng Press Volume 
   10000    2.3718421   -4.5099609            0  -0.95308724    5.5551189    4972.8499 
   11000    1.2587108   -6.0394452            0   -4.1518511    5.8101928     4098.084 
   12000     1.217872   -6.1109761            0   -4.2846248    5.6979472    4074.0681 
Loop time of 0.468495 on 48 procs for 2000 steps with 4000 atoms

Performance: 737680.541 tau/day, 4268.985 timesteps/s
99.6% CPU use with 48 MPI tasks x no OpenMP threads

MPI task timing breakdown:
Section |  min time  |  avg time  |  max time  |%varavg| %total
---------------------------------------------------------------
Pair    | 0.20771    | 0.22334    | 0.24409    |   1.6 | 47.67
Neigh   | 0.032341   | 0.033854   | 0.036753   |   0.5 |  7.23
Comm    | 0.13786    | 0.15951    | 0.17691    |   2.2 | 34.05
Output  | 5.3009e-05 | 5.4128e-05 | 6.9632e-05 |   0.0 |  0.01
Modify  | 0.041415   | 0.047317   | 0.051703   |   1.4 | 10.10
Other   |            | 0.004422   |            |       |  0.94

Nlocal:        83.3333 ave          93 max          72 min
Histogram: 1 0 4 5 7 15 9 5 1 1
Nghost:        1611.04 ave        1635 max        1593 min
Histogram: 4 4 6 5 10 8 8 2 0 1
Neighs:        9373.85 ave       10339 max        7922 min
Histogram: 1 0 3 4 7 7 11 8 3 4

Total # of neighbors = 449945
Ave neighs/atom = 112.48625
Neighbor list builds = 144
Dangerous builds = 14

#############################
# L I N E A R  Q U E N C H  #
#############################

# Define solid atoms. This closely follows ten Wolde  Ruiz-Montero and Frenkel  Faraday Discuss  1996  104  93-110
# Compute components of the per-atom q6 vector
compute q6 all orientorder/atom degrees 1 6 components 6 nnn NULL cutoff 1.3 # compute the Q6 parameter.
                                                                             # Use all neighbours within 1.3 unit cell.

# get number of connections
compute coord_number all coord/atom orientorder q6 0.5

# An atom is solid if it has 8 or more connections (of a possible 14)
variable is_solid atom c_coord_number>=8
group solid dynamic all var is_solid    # Must be dynamic to update
dynamic group solid defined

# do clustering
compute cluster solid cluster/atom 1.3 # Create a cluster where all atoms within are solid and max 1.3 units from another member

# define chunks one chunk per cluster
compute clus_chunks solid chunk/atom c_cluster nchunk every compress yes  # Says which atoms are in which chunk

# count the size of each chunk
compute size_chunks solid property/chunk clus_chunks count


# Find the maximum entry in the vector of chunk sizes
variable max_n equal max(c_size_chunks)


# Thermo style which includes this variable
# thermo_style custom step temp pe vol v_max_n

thermo ${N}  # Print the thermo information every 100 steps
thermo 1000  

# Reset the npt fix at a lower temperature (below freezing)
fix 1  all npt temp  ${temp} ${temp}  0.1  iso  5.68  5.68  0.5  mtk yes tchain  5  pchain  5
fix 1  all npt temp  0.45 ${temp}  0.1  iso  5.68  5.68  0.5  mtk yes tchain  5  pchain  5
fix 1  all npt temp  0.45 0.45  0.1  iso  5.68  5.68  0.5  mtk yes tchain  5  pchain  5

dump dmp2 all dcd ${N} traj.dcd
dump dmp2 all dcd 1000 traj.dcd


compute msd all msd com yes
variable twopoint equal c_msd[4]/6/(step*dt+1.0e-6)
fix 9 all vector 10 c_msd[4]
variable fit equal slope(f_9)/6/(10*dt)
thermo_style custom step temp pe c_msd[4] v_twopoint v_fit v_max_n

fix 1 all npt temp 1.25 ${temp} 0.1 iso 5.68 5.68 0.5 mtk yes tchain 5 pchain 5
fix 1 all npt temp 1.25 0.45 0.1 iso 5.68 5.68 0.5 mtk yes tchain 5 pchain 5
run 2000000 # 5000000  # Run for this many steps
Neighbor list info ...
  update every 1 steps, delay 10 steps, check yes
  max neighbors/atom: 2000, page size: 100000
  master list distance cutoff = 3.8
  ghost atom cutoff = 3.8
  binsize = 1.9, bins = 9 9 9
  4 neighbor lists, perpetual/occasional/extra = 1 3 0
  (1) pair lj/cut, perpetual
      attributes: half, newton on
      pair build: half/bin/atomonly/newton
      stencil: half/bin/3d
      bin: standard
  (2) compute orientorder/atom, occasional
      attributes: full, newton on
      pair build: full/bin/atomonly
      stencil: full/bin/3d
      bin: standard
  (3) compute coord/atom, occasional
      attributes: full, newton on
      pair build: full/bin/atomonly
      stencil: full/bin/3d
      bin: standard
  (4) compute cluster/atom, occasional
      attributes: full, newton on
      pair build: full/bin/atomonly
      stencil: full/bin/3d
      bin: standard
Per MPI rank memory allocation (min/avg/max) = 9.742 | 9.746 | 9.751 Mbytes
Step Temp PotEng c_msd[4] v_twopoint v_fit v_max_n 
   12000     1.217872   -6.1109761  4.10326e-30 2.849486e-32 8.3333333e+20            3 
   13000     1.280396    -6.147374   0.56491371 0.0036212416  0.046270944            3 
   14000    1.2363398     -6.08109    1.0991414 0.0065425082   0.04457548            5 
   15000    1.2264478   -6.1124845    1.6732092 0.0092956062  0.045581899            2 
   16000    1.2624107   -6.1229615    2.2170196  0.011546977  0.045918471            4 
   17000    1.2527209   -6.1007646    2.6998209  0.013234416  0.045494612            2 
   18000    1.2437926   -6.0998327    3.1951476   0.01479235  0.044945449            6 
   19000    1.2736759   -6.1044683    3.6908914   0.01618812  0.044179582            2 
   20000    1.2551735   -6.1062551    4.2834118  0.017847549  0.043873527            5 
   21000    1.2454746   -6.1476849    4.8193138  0.019124261  0.043901971            3 
   22000      1.25744   -6.0994687    5.3805929  0.020381033   0.04419561            2 
   23000    1.2543168   -6.1166337    5.9297619  0.021484644  0.044365123            3 
   24000    1.2845887   -6.1235011     6.467695  0.022457274  0.044496343            5 
   25000    1.2564528   -6.1052108    6.9843508  0.023281169  0.044594698            4 
   26000    1.2428544   -6.0891654    7.5189337  0.024099146  0.044530842            3 
   27000    1.2254798   -6.1183468    8.0326834  0.024792232  0.044524339            5 
   28000    1.2418178   -6.1162989    8.5526703  0.025454375  0.044519199            4 
   29000    1.2454972   -6.1209933      9.01753  0.025912442  0.044455171            3 
   30000    1.2316534   -6.1047966    9.6460696  0.026794637   0.04438638            3 
   31000    1.2542313   -6.1377289    10.090633  0.027125357   0.04436296            2 
   32000    1.2742847   -6.1105318    10.538282  0.027443443   0.04425258            1 
   33000    1.2391667   -6.1238636    11.073834  0.027964227  0.044096958            2 
   34000    1.2544044   -6.0962014    11.789282  0.028895298  0.044067945            2 
   35000    1.2448204   -6.1409316    12.381202  0.029479053  0.044153358            2 
   36000    1.2816325   -6.1233388    12.872358  0.029797124  0.044269333            2 
   37000    1.2582186   -6.1188082    13.336797   0.03003783  0.044304314            3 
   38000    1.2585675   -6.1202443     13.81565  0.030297478  0.044294062            2 
   39000    1.2296275   -6.1347472    14.286563  0.030526844  0.044256719            2 
   40000    1.2443341   -6.0973415    14.828952  0.030893649  0.044172416            4 
   41000    1.2416679   -6.1122227    15.297942  0.031093378  0.044094925            2 
   42000    1.2428685    -6.106364    15.929339  0.031605831  0.044060321            2 
   43000    1.2398436   -6.1128444    16.355822  0.031697328  0.044018853            2 
   44000    1.2385085   -6.1187885    16.923478  0.032052042  0.043984983            2 
   45000    1.2578627   -6.1680186    17.471418  0.032354477  0.043984112            1 
   46000    1.2405088   -6.1531156     18.05364  0.032705869  0.044003738            7 
   47000    1.2592463   -6.1221673    18.504193  0.032808853  0.044013747            3 
   48000    1.2463682   -6.1431545    18.958857  0.032914681   0.04394499            3 
   49000     1.229918   -6.1570773    19.414069  0.033017124  0.043887289            2 
   50000    1.2655184   -6.1470675    20.025339  0.033375564  0.043845357            3 
   51000    1.2396127   -6.1159363    20.643058  0.033730487  0.043821949            2 
   52000    1.2240253   -6.1281055    21.332433  0.034186591  0.043834138            4 
   53000    1.2270949    -6.158314     21.81888  0.034306415  0.043884419            5 
   54000    1.2381791   -6.1551113    22.442536  0.034633543  0.043954189            2 
   55000    1.2429498   -6.1300773    23.066093  0.034948625  0.044029213            2 
   56000    1.2238306   -6.1228388    23.644745  0.035185632  0.044100716            3 
   57000    1.2333724   -6.1741532    24.212049  0.035397733  0.044168312            3 
   58000    1.2506622   -6.1406501    24.852675  0.035707866  0.044241749            5 
   59000     1.245153   -6.1583494    25.584761  0.036136668  0.044348223            3 
   60000    1.2582888   -6.1629202    26.123411  0.036282515  0.044465394            2 
   61000    1.2517649   -6.1234525    26.614025  0.036357957  0.044563502            1 
   62000    1.2291553    -6.160309     27.02285  0.036321035  0.044640191            2 
   63000     1.204619   -6.1549544    27.688023  0.036624369  0.044709578            3 
   64000     1.215426    -6.172691    28.077527  0.036559279  0.044775805            3 
   65000     1.197801   -6.1593613    28.784049  0.036902626   0.04483307            3 
   66000    1.2057477   -6.1597281    29.420949  0.037147662  0.044909174            7 
   67000    1.2055877   -6.1252896    29.883657  0.037168727  0.044973464            5 
   68000    1.2199083   -6.1289486    30.429473  0.037291021  0.045023398            2 
   69000    1.2250462    -6.145936    30.790558  0.037186664  0.045060161            2 
   70000    1.2180315   -6.1516457    31.123586  0.037051887  0.045052179            4 
   71000    1.2392611   -6.1439982    31.479433  0.036947691  0.045022145            4 
   72000    1.2076536   -6.1494801     31.75874    0.0367578  0.044967652            2 
   73000    1.2187641   -6.1618362    32.147736  0.036698328  0.044887877            3 
   74000    1.2059087   -6.1124743    32.496972  0.036595689  0.044792826            4 
   75000    1.2449392   -6.1362451     32.71732  0.036352577  0.044676299            4 
   76000    1.2307564   -6.1433856    33.192794  0.036395607  0.044549803            3 
   77000    1.2264974   -6.1495877    33.749141  0.036525044  0.044434452            1 
   78000    1.2137643   -6.1533504    34.224119  0.036564229  0.044322185            3 
   79000    1.2353107   -6.1346189    34.745658  0.036651538  0.044215173            3 
   80000    1.2186671    -6.165938    35.093304  0.036555525  0.044117396            5 
   81000    1.2180339   -6.1600837     35.59115  0.036616409  0.044013411            3 
   82000     1.227988    -6.161151    36.059894  0.036646234  0.043914036            3 
   83000     1.232708   -6.1609244    36.807752  0.036955574  0.043834008            7 
   84000    1.2036253   -6.1613486    37.205616  0.036910333  0.043761523            4 
   85000    1.2189157   -6.1848038    37.537122    0.0368011  0.043680102            2 
   86000     1.235156   -6.1260915    38.122006  0.036939928  0.043595738            2 
   87000    1.2359836   -6.1528688    38.529537  0.036905687  0.043509943            3 
   88000    1.2291744   -6.1086666    39.103203  0.037029548  0.043426311            4 
   89000    1.2320179   -6.1697303    39.369802   0.03686311  0.043348794            4 
   90000    1.2155122   -6.1559377    39.911489  0.036955083  0.043272859            5 
   91000    1.2008029   -6.1893051    40.409155  0.037004721  0.043200634            4 
   92000     1.216398    -6.110191    41.020499  0.037156248  0.043137205            3 
   93000    1.2381163   -6.1627267    41.610277  0.037285194  0.043081215            2 
   94000    1.2110863   -6.1828525    42.133357  0.037352267  0.043037509            2 
   95000    1.2026623   -6.1407667    42.679458  0.037438121  0.042990125            4 
   96000    1.2036695   -6.1439625    43.165694   0.03747022  0.042952478            1 
   97000    1.2149516   -6.1115939    44.016415  0.037814789  0.042917081            2 
   98000    1.1943343   -6.1761991    44.437291  0.037786812  0.042889079            3 
   99000    1.2033809   -6.1441698    44.925676  0.037816226  0.042862395            2 
  100000    1.2205648   -6.1721536    45.377708  0.037814756  0.042836822            2 
  101000      1.20105   -6.2099243    46.006161  0.037958879  0.042817124            1 
  102000    1.2263147   -6.1474783    46.550712  0.038031627  0.042803477            2 
  103000    1.1964558   -6.1520435    47.043591  0.038061158  0.042788701            2 
  104000    1.2051317   -6.1959657    47.506187  0.038065855  0.042774654            3 
  105000    1.2011901   -6.1822561    48.015542  0.038107573  0.042761544            5 
  106000    1.2151838   -6.1671623    48.494813  0.038124853  0.042749895            6 
  107000    1.2426395   -6.1948407    49.199069  0.038317032  0.042742611            2 
  108000    1.2206724   -6.1558785    49.828883  0.038448212  0.042738592            5 
  109000    1.2104729   -6.1333933    50.122484  0.038319942  0.042732246            2 
  110000    1.2277113   -6.1820849    50.834502  0.038510986  0.042727986            3 
  111000    1.2225191   -6.1762452    51.096505  0.038360739  0.042726875            2 
  112000    1.2288374   -6.1949947    51.422944  0.038261119  0.042713285            4 
  113000    1.2300355   -6.1093863    51.990473  0.038341056  0.042701901            2 
  114000    1.2072039   -6.1569983    52.445697  0.038337497  0.042680935            3 
  115000    1.2257237   -6.2044167    53.113911  0.038488341  0.042668601            2 
  116000    1.2228527   -6.1608191    53.855793  0.038689507  0.042657612            3 
  117000    1.1762197   -6.1966089    54.077477  0.038516721  0.042650688            2 
  118000    1.2099853   -6.2061991    54.321422  0.038362586  0.042634131            2 
  119000    1.1847951   -6.2097143    54.940389  0.038473662  0.042613893            2 
  120000     1.226334   -6.1710105    55.102307  0.038265491   0.04259523            3 
  121000    1.2267399   -6.2346911    55.574454  0.038274417   0.04257207            2 
  122000    1.2114232    -6.189761    56.039526  0.038278365  0.042544162            4 
  123000    1.2049231   -6.1991583    56.733199  0.038437126  0.042518544            2 
  124000    1.1980599   -6.1806128    57.272206  0.038489386  0.042499098            4 
  125000    1.1899462   -6.2015241    57.687384  0.038458256  0.042481215            2 
  126000    1.2117248   -6.2136515    58.259634  0.038531504   0.04246124            3 
  127000    1.2118071   -6.2176099    58.556013   0.03842258  0.042439005            3 
  128000    1.2013506   -6.1291341    59.207287  0.038546411  0.042418195            3 
  129000    1.1856935   -6.1805647    59.561263  0.038476268  0.042396136            3 
  130000    1.1986164   -6.2327256    60.021416  0.038475267   0.04237663            4 
  131000    1.2161468   -6.2082374    60.440898  0.038448408  0.042358503            4 
  132000    1.2135301   -6.2163955    61.165728  0.038614727  0.042343924            5 
  133000    1.1951599   -6.2190946    61.394786  0.038467911  0.042327253            3 
  134000    1.1954266   -6.2165133    61.951626  0.038527131  0.042308062            2 
  135000    1.1753308   -6.1745527    62.733704  0.038724509  0.042291785            4 
  136000    1.2204744   -6.1792592    63.076048  0.038649539  0.042276108            3 
  137000    1.2245373   -6.1683154    63.654164  0.038719078   0.04226081            5 
  138000    1.1942812   -6.1963664    64.108115  0.038712629    0.0422442            2 
  139000    1.2178328   -6.1756218     64.33562  0.038570516  0.042223303            2 
  140000    1.2261424   -6.1932581    64.779469  0.038559208  0.042200817            5 
  141000    1.1996764   -6.1910815    65.198935  0.038533649  0.042177655            2 
  142000    1.1959623   -6.2162755    65.708006  0.038561036  0.042155165            4 
  143000    1.2221256   -6.2077982    66.397157  0.038692982  0.042135374            2 
  144000    1.1896006   -6.1956983    66.662042   0.03857757  0.042114259            5 
  145000    1.1933184   -6.2129515     67.00299  0.038507466  0.042089881            3 
  146000    1.2059145   -6.1822806     67.32913  0.038429869  0.042058385            3 
  147000    1.2068786    -6.206792    67.933421  0.038511009  0.042030842            4 
  148000    1.1824593   -6.1494707    68.479336  0.038558184  0.042000111            3 
  149000    1.1859899   -6.2160564    68.939627  0.038556838  0.041974137            1 
  150000    1.2013612   -6.2003167     69.47515  0.038597305  0.041950597            2 
  151000     1.211198   -6.2134421    70.197591  0.038740393  0.041931868            3 
  152000    1.1955062   -6.1776997    70.538403   0.03867237  0.041913081            3 
  153000     1.200661   -6.2021316    70.804348   0.03856446  0.041892161            3 
  154000    1.1856325    -6.178285    71.439617  0.038657801  0.041868599            4 
  155000     1.181096   -6.2323906    71.714244  0.038556045   0.04184416            2 
  156000    1.1882647   -6.2294651      72.2557   0.03859813  0.041816891            4 
  157000    1.2152392   -6.2178671    72.325659  0.038389415  0.041788115            3 
  158000    1.1957257    -6.217486    73.104256  0.038557097   0.04175933            3 
  159000    1.2071753   -6.2539986    73.034974  0.038278288   0.04172859            2 
  160000    1.1998235   -6.2116906    73.750126  0.038411524   0.04169559            3 
  161000    1.2092859   -6.1851599    73.891295  0.038246012  0.041661445            2 
  162000     1.223013   -6.2269022    74.789386  0.038471906  0.041629642            3 
  163000    1.1891824   -6.2330003    75.011521  0.038349448  0.041595773            2 
  164000    1.1910469   -6.1849863    75.507758  0.038367763  0.041564285            2 
  165000    1.1920255   -6.1653202     76.00323   0.03838547  0.041533616            5 
  166000    1.1972466   -6.2239322    76.815239  0.038561867  0.041506258            3 
  167000    1.1720504   -6.2039575    76.880418  0.038363482   0.04147913            2 
  168000    1.1718595   -6.2310442    77.491387  0.038438188  0.041449349            5 
  169000    1.1907294   -6.2235668    78.045496  0.038483973  0.041422918            2 
  170000    1.1724772   -6.1925546     78.89862  0.038675794  0.041398306            5 
  171000    1.1886778    -6.245323     79.09511  0.038545375  0.041376995            4 
  172000    1.1893433   -6.2175643     79.88084  0.038701957  0.041359289            2 
  173000    1.1777213   -6.2182502    79.963821  0.038518218  0.041338142            1 
  174000    1.2004647   -6.2301161     80.64624  0.038623678  0.041323337            3 
  175000    1.1799432    -6.223773    81.217489  0.038674994  0.041311857            3 
  176000    1.1799659   -6.2212183    82.061097  0.038854686  0.041300809            2 
  177000    1.2086125   -6.2247618     82.29592  0.038745725  0.041289853            4 
  178000    1.1825116   -6.2003893    82.764849  0.038747588  0.041275091            6 
  179000    1.1679288   -6.2433088    82.795465  0.038545375  0.041255792            5 
  180000    1.1648246   -6.2364367    83.435819  0.038627694  0.041236989            4 
  181000    1.1854245   -6.2239323    84.233409  0.038781496   0.04122065            3 
  182000    1.1798174   -6.2375122    84.628551  0.038749336  0.041205589            2 
  183000    1.1741206   -6.2566322    84.861763   0.03864379  0.041192385            3 
  184000    1.1698658   -6.2346227    85.572062  0.038755463  0.041177836            4 
  185000    1.1844116   -6.2142627    86.121132  0.038793303  0.041164121            1 
  186000    1.2035088   -6.2490891    86.507107  0.038757664  0.041149798            4 
  187000    1.1722704   -6.2246837    87.224151  0.038869942  0.041135635            2 
  188000    1.1742462   -6.2142092    87.342712  0.038715741  0.041119707            3 
  189000     1.175091    -6.260325    87.897565   0.03875554  0.041103514            2 
  190000    1.1540449   -6.2818504    88.059819  0.038622727  0.041086348            4 
  191000    1.1792975   -6.2202616     88.39878  0.038568403  0.041065842            4 
  192000    1.1665851   -6.2575497    89.072026  0.038659733  0.041046227            5 
  193000    1.1736981   -6.2211661    89.596916   0.03868606  0.041026698            2 
  194000    1.1615349   -6.2338475    89.657098  0.038512499  0.041007764            4 
  195000    1.1635291   -6.2600513    90.278594  0.038580596  0.040988269            3 
  196000    1.1819614   -6.2288743    90.196795  0.038348977  0.040965267            3 
  197000    1.1623268   -6.2243545    91.232084  0.038592252  0.040941888            7 
  198000    1.1788234   -6.2547681    90.961685  0.038283537  0.040918235            3 
  199000    1.1647987   -6.2676906    91.792805  0.038439198  0.040895316            4 
  200000    1.1847577   -6.2158338    92.111208   0.03837967  0.040871824            4 
  201000    1.1911015    -6.264726    92.927091  0.038526986  0.040851766            6 
  202000    1.1632962   -6.2137443    93.738292  0.038670912  0.040832937            5 
  203000    1.1807654   -6.2696532    93.657396  0.038447207  0.040814312            2 
  204000    1.1617738   -6.2690016    93.983806  0.038392078  0.040793001            1 
  205000     1.165975   -6.2490252    94.259818  0.038316999  0.040769304            2 
  206000    1.1884031   -6.2484736     94.76474  0.038335251  0.040745634            3 
  207000    1.1788657   -6.2854701     94.87657  0.038195077  0.040719981            3 
  208000    1.1617668   -6.2502145    95.490641  0.038257468  0.040693841            3 
  209000    1.1774511   -6.2641837    96.003796  0.038279025   0.04067114            9 
  210000    1.1878568   -6.2661263    96.519424  0.038301358  0.040648888            3 
  211000    1.1785269   -6.2213069    96.848638  0.038249857  0.040625172            5 
  212000    1.1556195   -6.1729948    97.362869  0.038271568  0.040599751            2 
  213000     1.181895    -6.248136    97.587462  0.038179758  0.040574365            7 
  214000    1.1948019   -6.2514377    98.498928   0.03835628  0.040549816            2 
  215000    1.1630134   -6.3050699    98.563832  0.038203036  0.040524293            2 
  216000    1.1932455   -6.2435872    98.613331  0.038045266  0.040498069            3 
  217000    1.1677289   -6.2325066    98.609043  0.037868296  0.040468456            1 
  218000     1.174676   -6.2393954    99.423281  0.038005841  0.040438094            3 
  219000    1.1787688   -6.2949755    99.832221  0.037987907  0.040410244            3 
  220000    1.1527987   -6.2372493    100.22181  0.037962808  0.040381924            4 
  221000    1.1752222   -6.2487187    100.63492  0.037946803  0.040354116            4 
  222000    1.1457288   -6.2455108    101.24962  0.038006615  0.040326343            4 
  223000    1.1640524   -6.2078835    101.63578  0.037980485  0.040297803            4 
  224000    1.1822279   -6.2578988    102.25983   0.03804309  0.040271729            3 
  225000    1.1855474   -6.2613393    102.98126  0.038141207  0.040245832            3 
  226000    1.1571799   -6.2513576    102.91249  0.037947084  0.040217634            6 
  227000    1.1475529    -6.267089    102.87055  0.037764518  0.040188954            4 
  228000    1.1816873   -6.2895662      103.269  0.037744518   0.04016161            5 
  229000    1.1722624   -6.2511473    104.21587   0.03792426  0.040132926            5 
  230000    1.1517735   -6.2477409    104.42049   0.03783351  0.040105272            5 
  231000    1.1505928   -6.2411604    105.18912  0.037947012  0.040078229            2 
  232000    1.1596404   -6.2231771    105.54483  0.037911218  0.040051807            3 
  233000    1.1504309   -6.2369479    105.93242  0.037887131  0.040025952            4 
  234000    1.1794921   -6.2575515    106.40314  0.037892857  0.039999434            3 
  235000    1.1704459   -6.2562857    106.54033  0.037780259   0.03997151            2 
  236000    1.1585661   -6.2440037    107.04545  0.037798534  0.039943891            1 
  237000    1.1958175   -6.2456022     107.2892  0.037724753  0.039917151            3 
  238000    1.1369151   -6.2465682    107.99442  0.037813173  0.039889848            3 
  239000    1.1471801   -6.2867358    108.30423   0.03776298   0.03986342            1 
  240000    1.1858192   -6.3063801    108.34486  0.037619744  0.039835104            8 
  241000    1.1557911    -6.263992    109.06149  0.037711441  0.039805976            4 
  242000    1.1441966   -6.2333938    109.23824  0.037616473  0.039776383            3 
  243000    1.1507868   -6.2945365    109.34912  0.037499698  0.039747664            2 
  244000    1.1349919    -6.270338    110.06179   0.03758941  0.039717481            1 
  245000    1.1543169    -6.309652    110.38465    0.0375458  0.039687714            4 
  246000    1.1561981   -6.2270072    111.25804  0.037689038  0.039658852            7 
  247000    1.1706192   -6.2365347    111.48288  0.037612309  0.039631274            3 
  248000    1.1435675   -6.2854115    111.47571  0.037458234  0.039602792            2 
  249000    1.1879457   -6.2458529    112.05906  0.037503031  0.039572857            5 
  250000    1.1358739    -6.290509    112.20707  0.037402358  0.039543779            3 
  251000    1.1608413   -6.2546149    113.08083  0.037543435  0.039515096            4 
  252000    1.1491373     -6.27724    113.24783  0.037449678  0.039486834            4 
  253000    1.1652197    -6.246815    113.59591  0.037416307  0.039458777            3 
  254000    1.1373326   -6.2857612    113.90624  0.037370815  0.039430586            3 
  255000    1.1617285   -6.2821345    114.76739  0.037505684  0.039402987            4 
  256000    1.1610053   -6.2757094    115.10519  0.037469138  0.039376245            1 
  257000    1.1259547   -6.2471366    115.83475  0.037559907  0.039350668            5 
  258000      1.15338   -6.2535136     115.9079  0.037437953  0.039325225            3 
  259000    1.1679385   -6.2736075    116.36022  0.037438938  0.039299854            5 
  260000    1.1393047   -6.2932543     117.0586  0.037518781  0.039272978            3 
  261000    1.1311371   -6.2727499    117.06242   0.03737625  0.039246171            3 
  262000    1.1582589   -6.2682783    117.50603  0.037374691  0.039219723            5 
  263000    1.1386142   -6.2955154    117.41729  0.037204465  0.039191796            9 
  264000    1.1435375   -6.2995085    117.92128  0.037222625  0.039165208            4 
  265000    1.1642318   -6.3134433    118.84225  0.037371777  0.039138429            4 
  266000    1.1489655   -6.3069877    119.20353  0.037344463  0.039113401            4 
  267000    1.1654665   -6.2942639    119.30859  0.037237388  0.039089235            5 
  268000    1.1649481    -6.354392    119.99857  0.037312987  0.039064556            2 
  269000    1.1471659   -6.3046936    120.17111   0.03722773  0.039039199            5 
  270000    1.1338798   -6.2747729    120.77177  0.037275238  0.039016383            4 
  271000    1.1468506   -6.2511035    121.72549  0.037430961  0.038994969            5 
  272000    1.1723579   -6.2858734    122.00093  0.037377736  0.038974867            2 
  273000    1.1395022   -6.3035165    122.68001   0.03744811  0.038954803            4 
  274000    1.1308019   -6.3117047     123.0688  0.037429683  0.038934152            3 
  275000    1.1665156   -6.3012827    123.59556  0.037453199  0.038914544            7 
  276000    1.1673531   -6.2886763    124.47015  0.037581568   0.03889726            3 
  277000    1.1522016   -6.3035609     124.6167  0.037489981  0.038880639            2 
  278000    1.1313268   -6.2900733    124.84053   0.03742222  0.038861476            5 
  279000    1.1469361   -6.2693009    125.32377  0.037432429  0.038842169            2 
  280000    1.1454085   -6.2780718    125.97511  0.037492591  0.038824573            5 
  281000    1.1431785   -6.2985456    126.35637  0.037472232  0.038807264            4 
  282000     1.149552   -6.3101185    126.90806  0.037502382  0.038790286            2 
  283000    1.1337882   -6.3062206    127.04535   0.03741029  0.038774307            3 
  284000    1.1349541   -6.3134334    127.12343  0.037301477  0.038756984            5 
  285000    1.1557295   -6.3118654    127.93411  0.037407634  0.038740188            4 
  286000    1.1346194   -6.3152981    128.47099  0.037433272    0.0387224            5 
  287000    1.1406542   -6.2891948    128.31909  0.037258737  0.038703456            3 
  288000    1.1432689   -6.3114776    129.13962  0.037366788  0.038684433            5 
  289000    1.1287783   -6.3012603    129.18201  0.037249713   0.03866581            4 
  290000    1.1214459   -6.2959744    129.66894   0.03726119  0.038646762            4 
  291000    1.1487229   -6.2715628    130.39658  0.037341517  0.038628366            3 
  292000    1.1571031   -6.2933906    130.39349  0.037212754  0.038609193            2 
  293000    1.1286708   -6.3227902     130.6716  0.037164847  0.038590107            4 
  294000    1.1225903   -6.2974594     131.2322  0.037197337  0.038569737            3 
  295000    1.1326317    -6.310159    130.91942  0.036982888  0.038548958            3 
  296000    1.1419256   -6.3094598    131.25001  0.036951017  0.038527041            5 
  297000    1.1411424   -6.3234261    131.66318  0.036942532  0.038504241            3 
  298000    1.1406163   -6.3439859    131.58859  0.036797703  0.038480348            2 
  299000    1.1153947   -6.3267014    132.46176  0.036917992  0.038455686            5 
  300000    1.1439567   -6.3270915    132.76423  0.036878953  0.038430158            6 
  301000    1.1323597   -6.2947944    132.38577  0.036651654  0.038404269            3 
  302000    1.1322583   -6.3362154    132.89504  0.036670818  0.038377403            4 
  303000    1.1583916    -6.315513    133.37023  0.036680482  0.038350453            2 
  304000    1.1377313    -6.347479    133.91464  0.036709057  0.038323386            3 
  305000    1.1726932   -6.2977622    134.27777  0.036687916  0.038297754            5 
  306000    1.1256046   -6.3020587    134.97547  0.036758026  0.038272824            3 
  307000    1.1276663   -6.2929002    135.91753   0.03689401  0.038249489            6 
  308000    1.1273827   -6.3379982    134.89771  0.036498299  0.038226111            3 
  309000    1.1409072   -6.3592445    135.65632  0.036584769   0.03820083            3 
  310000    1.1463274   -6.2981467    135.92498  0.036538973  0.038174806            2 
  311000    1.1250813   -6.3118912    136.51527  0.036579654   0.03814957            3 
  312000    1.1165319   -6.3040234    137.18358  0.036640914  0.038125664            6 
  313000    1.1242762   -6.2912184    137.75086  0.036674882  0.038101567            2 
  314000    1.1242986   -6.2955533    138.31585  0.036708028  0.038077814            6 
  315000    1.1375643    -6.318237    138.52202  0.036646037  0.038056376            4 
  316000    1.1416383   -6.3343658    138.69465  0.036575593  0.038034406            8 
  317000     1.116796   -6.3562758    139.17623   0.03658681  0.038011271            4 
  318000    1.1186958   -6.3183532    139.90974  0.036663978  0.037987798           10 
  319000    1.0990698   -6.3459506    139.52514  0.036448573  0.037964493            5 
  320000    1.1000701   -6.3071422     139.9835  0.036454036  0.037940561            4 
  321000    1.1245849    -6.320692    140.93507  0.036587504  0.037918179            3 
  322000    1.1476284    -6.322254     141.1328  0.036525053  0.037895725            3 
  323000    1.1270425   -6.3180119    141.69695   0.03655752  0.037872549            7 
  324000    1.1140074   -6.3426945    142.63887  0.036686952  0.037850092            2 
  325000    1.1500585   -6.3379489    142.35457  0.036501171  0.037828762            4 
  326000    1.1184389   -6.3330402    142.51533    0.0364303  0.037807267            2 
  327000    1.1457906   -6.3227869    143.71545  0.036624733  0.037786473            6 
  328000    1.1298277   -6.3467512    143.81607  0.036538634  0.037766059            3 
  329000    1.1532736   -6.3637223    143.91347  0.036452248  0.037744614            2 
  330000    1.1143747   -6.3017709    144.81175  0.036568625  0.037722863            2 
  331000    1.1311566   -6.3410659    144.64773   0.03641685  0.037701254            2 
  332000    1.1289844   -6.3267072    144.94581  0.036381981  0.037680179            4 
  333000    1.1327788   -6.3111018    146.03731  0.036545874  0.037659603            9 
  334000    1.0923826   -6.3405829    145.67414  0.036345843  0.037638939            4 
  335000    1.1147352   -6.3624911    146.61693  0.036471874  0.037619226            6 
  336000    1.1334489   -6.3781689    146.41069  0.036312174  0.037597957            5 
  337000    1.1055035   -6.3236824    146.77556  0.036294648  0.037577382            3 
  338000    1.1268763   -6.3377215    147.53126  0.036373585  0.037556453            3 
  339000    1.1225343   -6.3187802    148.29041  0.036452904  0.037536416            4 
  340000    1.1341994   -6.2853333    149.09699   0.03654338   0.03751704            3 
  341000    1.1294356   -6.3178391    148.68752  0.036336149  0.037497562            3 
  342000    1.1259332   -6.3508304    149.36867  0.036395875  0.037478238            4 
  343000    1.1123887   -6.3397408    149.67449  0.036364064  0.037459017            4 
  344000    1.1214529   -6.3181137    150.43964  0.036443712  0.037440146            5 
  345000    1.1002559   -6.3464646    150.50203  0.036353148  0.037422299            3 
  346000    1.1279373   -6.3269891    151.73816  0.036545801  0.037403628            3 
  347000    1.1335971   -6.3477482    151.70024  0.036431373  0.037385162            3 
  348000    1.0985649   -6.3821529    151.41698  0.036258856  0.037366341            7 
  349000     1.116241   -6.3503689     152.1987   0.03634162  0.037346857            5 
  350000    1.1122823   -6.3380456    152.43937  0.036295087  0.037327734            3 
  351000    1.1213622   -6.3513315     152.5572  0.036219658  0.037308277            4 
  352000    1.1276644   -6.3428586    152.69317  0.036148952  0.037288421            4 
  353000    1.1063703   -6.3112299    153.45714  0.036226898  0.037268279            3 
  354000    1.1188653   -6.3528154    153.61102  0.036160785  0.037248083            4 
  355000    1.1161123   -6.3676362    153.20154  0.035962802  0.037226919            5 
  356000    1.1346216   -6.3762008    153.89655  0.036024472  0.037206084            4 
  357000    1.1016769   -6.3470967    153.85151  0.035913052  0.037184677            3 
  358000    1.0933308   -6.3538193     154.5908  0.035984822  0.037162606            8 
  359000    1.1207204   -6.3457689    154.75446  0.035922577  0.037141172            4 
  360000    1.1116512   -6.3624914    155.11522  0.035906301  0.037118402            2 
  361000    1.1151858   -6.3064689    156.41008  0.036105744  0.037096934            3 
  362000    1.1475394   -6.3294205    156.98921   0.03613932  0.037077091            2 
  363000    1.1219931   -6.3557142    157.44542  0.036144496  0.037057677            3 
  364000    1.1167914   -6.3126172    157.60479  0.036081683   0.03703926            4 
  365000    1.0821841   -6.3979288    157.63126  0.035988872  0.037020516            3 
  366000    1.1213144   -6.3723742    158.51944  0.036092769  0.037002638            7 
  367000    1.1119503   -6.3835783    158.94681  0.036091465  0.036984708            2 
  368000    1.1114025   -6.3571738    159.29387  0.036071981  0.036967817            2 
  369000    1.1277386   -6.3675175    159.66409  0.036057835  0.036950999            8 
  370000    1.1070592   -6.3570373     159.6919  0.035966643  0.036933295            3 
  371000    1.1130429   -6.3573807    160.68314   0.03609235  0.036916522            5 
  372000    1.1044901   -6.3710386      160.871  0.036037411  0.036898712            3 
  373000     1.122551    -6.358328    160.73751  0.035910972  0.036880955            7 
  374000    1.0945403   -6.3195144    162.27987  0.036158616   0.03686347            5 
  375000    1.0948813   -6.3860585     161.5671  0.035903801  0.036846307            3 
  376000    1.1331613   -6.3336888     162.3282  0.035976996  0.036829389            2 
  377000    1.1060774   -6.3980765    162.50283  0.035920166  0.036811753            4 
  378000    1.1069765   -6.3551492    162.48995  0.035822299  0.036794103            2 
  379000    1.1056583   -6.3579308    163.50354  0.035950647  0.036777048            2 
  380000    1.0983586   -6.3782926    163.95613  0.035955293  0.036760941            3 
  381000    1.0731291   -6.3360369    165.02321  0.036094314  0.036744759            3 
  382000     1.107769   -6.3659826    164.43432   0.03587136  0.036728458            2 
  383000    1.0843464   -6.3459179     165.0426  0.035910053  0.036711695            4 
  384000    1.0881628   -6.3616428    165.72557   0.03596475  0.036695784            5 
  385000    1.0943191   -6.4091396      165.119  0.035740044  0.036679079            6 
  386000    1.1079475   -6.3575564    166.27744  0.035897547   0.03666213            3 
  387000       1.0851   -6.3325182    165.54168  0.035646356    0.0366442            3 
  388000    1.1137838    -6.347498    166.23095  0.035702523  0.036625694            3 
  389000     1.081146   -6.3679026    166.13014  0.035589148  0.036607823            3 
  390000    1.0965321    -6.394861    166.78521  0.035637865  0.036589867            2 
  391000    1.0691729   -6.4221239    166.94404   0.03558057  0.036570662            4 
  392000    1.0797002    -6.402691    167.84183  0.035680661  0.036551381            2 
  393000    1.0924613   -6.3359491    167.98317  0.035619841  0.036532903            5 
  394000    1.0849912   -6.3695152    168.65986   0.03567256  0.036514508            2 
  395000    1.1298426   -6.3584782    169.12091  0.035679518  0.036497522            6 
  396000    1.0598147   -6.3430797    169.83626  0.035739954  0.036481191            2 
  397000    1.1021046   -6.4019409    169.48168  0.035575499  0.036463958            3 
  398000    1.1043531   -6.4163412    170.15257  0.035626585  0.036446052            4 
  399000    1.1083222   -6.3591569     170.7091  0.035653529  0.036429127            3 
  400000    1.1049557   -6.3777728    170.15898  0.035449788   0.03641137            6 
  401000    1.0759587   -6.3941181    170.92851  0.035521304  0.036394033            3 
  402000    1.1131166    -6.367038    172.34113  0.035725773  0.036377262            3 
  403000    1.0714973   -6.4142488    171.95902  0.035558111  0.036360423            3 
  404000    1.1064298   -6.4145512    172.02923  0.035484576  0.036342327            2 
  405000    1.0858277    -6.411821    171.96786  0.035384333  0.036323488            2 
  406000    1.0850155   -6.3790783    173.14709  0.035539223  0.036305516            2 
  407000    1.0831988   -6.3778734    173.25093  0.035473164   0.03628751            4 
  408000    1.0899887   -6.3448174    173.73458  0.035485004  0.036269714            7 
  409000    1.0827806   -6.3699514    174.23315  0.035499826  0.036251714            5 
  410000    1.0872669   -6.4073041    174.00103  0.035366063  0.036233896            2 
  411000    1.0755234   -6.3740699    174.32551  0.035345805  0.036215584            5 
  412000    1.0964959    -6.397203    174.52644  0.035300655  0.036197432            4 
  413000    1.0650315   -6.3947259     175.3978     0.035391  0.036178458            3 
  414000    1.0710431   -6.3666911    174.99876  0.035225192  0.036159973            4 
  415000    1.0660691   -6.3879138    175.46206  0.035233346  0.036141261            5 
  416000    1.0946176   -6.3755056    175.84277  0.035224914  0.036122111            4 
  417000    1.1111934   -6.4281402     175.6291  0.035097741  0.036102056            4 
  418000    1.1217519   -6.4136537    176.39552   0.03516657  0.036081703            3 
  419000    1.0818107   -6.4073951    176.60425  0.035124155  0.036061934            7 
  420000    1.0654821    -6.416816    177.35305  0.035189097  0.036041993            4 
  421000    1.0832725   -6.3843514     177.2985  0.035094714  0.036022151            6 
  422000    1.0953198   -6.4115292    177.68567  0.035088007  0.036003106            3 
  423000    1.0893516   -6.3712294    178.85515  0.035235451  0.035984474            5 
  424000    1.0935858   -6.4144052    179.10182   0.03520083  0.035966677            3 
  425000    1.0770177   -6.3635325    179.58246  0.035212247  0.035948882            6 
  426000    1.0560233   -6.4367051    179.84184  0.035180329  0.035930711            4 
  427000    1.0784829   -6.4398474    179.87727  0.035104853  0.035911576            4 
  428000    1.0843721   -6.4112222     180.9155   0.03522498  0.035893083            3 
  429000    1.0966283   -6.3758659    181.01767  0.035162718  0.035874412            4 
  430000     1.088523   -6.3609921    181.54551  0.035183238  0.035856542            3 
  431000    1.1043425   -6.3902376    181.52322  0.035097298  0.035838078           10 
  432000     1.073167   -6.4057346    180.76633  0.034870048  0.035818834            4 
  433000    1.0633754   -6.4272227    181.07723  0.034849351  0.035799108            3 
  434000    1.0895871   -6.3963343    181.72138  0.034892738  0.035779084            4 
  435000    1.0959698   -6.4189704    182.36721  0.034936247  0.035759264            3 
  436000     1.088542   -6.4173863    182.51884  0.034885099  0.035739642            7 
  437000    1.0844833    -6.388538    182.56284  0.034813661  0.035720127            5 
  438000    1.0703664   -6.4274343    183.03241  0.034823518  0.035700427            7 
  439000    1.0712926   -6.4379736    183.27623  0.034790477   0.03568074            4 
  440000    1.0820733   -6.4092876    183.61419  0.034775414  0.035661002            4 
  441000    1.0843207   -6.4503923    184.41408   0.03484771  0.035641937            4 
  442000    1.0594285   -6.4196007    184.13385  0.034716036  0.035621814            3 
  443000    1.0729075   -6.3957065    184.77225   0.03475776  0.035602193            3 
  444000    1.0944074   -6.4237811    185.34551  0.034787071  0.035582214            3 
  445000    1.0741201   -6.4038318    185.31337  0.034702878  0.035561868            4 
  446000    1.0873441    -6.407527    185.38467  0.034638392  0.035541607            6 
  447000     1.079502    -6.402581    186.37854  0.034746185  0.035522203            3 
  448000    1.0895806   -6.4099131    186.90969  0.034767427   0.03550337            3 
  449000    1.0678736   -6.4056168     186.6279  0.034637695  0.035484446            4 
  450000    1.0677225   -6.3940291    187.44433  0.034711913   0.03546544            4 
  451000    1.0954964   -6.4439131    187.46823  0.034639362  0.035446618            5 
  452000    1.0728768   -6.4344305     188.5609  0.034764178  0.035428341            5 
  453000    1.0851754   -6.4059157    188.21505  0.034623814  0.035409793            8 
  454000    1.0540566   -6.4368022    188.18677   0.03454236  0.035391271            5 
  455000    1.0561684   -6.3889098    189.17536  0.034647502  0.035372545            3 
  456000    1.0673127   -6.4098632    189.47099  0.034625547  0.035353298            5 
  457000    1.0626059   -6.4282739     190.1536  0.034674252  0.035334722            5 
  458000    1.0732673   -6.4142426    190.36353  0.034636742  0.035315878            3 
  459000    1.0881157   -6.4531936    190.32535  0.034554349  0.035297197            6 
  460000     1.078145   -6.4469474    191.00741  0.034602791  0.035278592            3 
  461000      1.05781   -6.3811063      192.116  0.034728128  0.035260771            3 
  462000    1.0757831   -6.4320681    192.27702  0.034682002  0.035243829            5 
  463000    1.0614957   -6.4477248    191.53859  0.034474188  0.035226464            4 
  464000    1.0695577   -6.4092567    192.65466  0.034600335  0.035209221            3 
  465000    1.0804268   -6.4392504    192.98767  0.034585604  0.035192335            3 
  466000    1.0697681   -6.4462822    192.87837   0.03449184   0.03517453            6 
  467000    1.0706856   -6.4488606    193.28208  0.034490022  0.035156953            2 
  468000    1.0806556   -6.4559795    193.74533  0.034498812  0.035138708            5 
  469000    1.0660828   -6.4493414     193.9979  0.034470131  0.035120796            4 
  470000    1.0472711    -6.435658    194.68224  0.034518127  0.035102981            5 
  471000     1.064671   -6.4373701    194.06571  0.034335759  0.035085055            3 
  472000    1.0886864   -6.4470221     194.6048  0.034358193  0.035067226            3 
  473000    1.0529025   -6.4263086    194.82746  0.034324781  0.035048921            4 
  474000     1.060406   -6.4407901    195.56432  0.034381912  0.035030706            4 
  475000    1.0529765   -6.4366757    195.89407  0.034367381  0.035012117            8 
  476000     1.089304   -6.4655932     195.3592   0.03420154  0.034993122            2 
  477000    1.0559063    -6.409126     195.7984  0.034206568  0.034974043            6 
  478000    1.0713624   -6.3891028    196.99852  0.034344233  0.034955412            4 
  479000    1.0507717    -6.408599    197.04046   0.03427983   0.03493721            3 
  480000    1.0370744   -6.4397334    197.82428  0.034344493  0.034919603            3 
  481000    1.0648221   -6.4315215    198.24282  0.034345603  0.034901838            3 
  482000    1.0651095   -6.4883906    197.42094  0.034132251  0.034883759            7 
  483000    1.0614424   -6.4658716    198.43797  0.034237054  0.034865651            3 
  484000    1.0697538   -6.4338546    198.82141  0.034232336  0.034847956            3 
  485000    1.0764999   -6.4264615    198.73788  0.034147403  0.034829917            3 
  486000    1.0646202   -6.4213227    199.40251  0.034191103  0.034812048            2 
  487000    1.0669548   -6.4391452    199.05459   0.03406136  0.034793381            4 
  488000    1.0618986     -6.45419    200.02174  0.034156718  0.034775277            2 
  489000     1.057165   -6.4769247    199.78693  0.034046852  0.034756916            3 
  490000    1.0444871   -6.4405911    200.69751  0.034132229   0.03473864            3 
  491000     1.074259   -6.4410757    200.89262  0.034095828  0.034720536            4 
  492000    1.0359857   -6.4417253    201.18879  0.034076692  0.034702436            4 
  493000    1.0537587   -6.4942498    201.13579  0.033998612  0.034684498            2 
  494000    1.0466475   -6.4791407    201.62281  0.034011945  0.034666047            6 
  495000    1.0568585   -6.4417251    202.32091  0.034060759  0.034648166            7 
  496000    1.0416257   -6.4312738    202.16078  0.033965185  0.034630486            5 
  497000    1.0353964   -6.4872833    202.10746  0.033887904  0.034612276            2 
  498000    1.0455845   -6.4549112    203.03797  0.033975564  0.034593908            2 
  499000     1.066685   -6.4788532    203.26289  0.033945038  0.034575809            7 
  500000    1.0703388   -6.4332921    203.07003  0.033845004  0.034557304            2 
  501000    1.0699657   -6.4249553     203.8379  0.033905172  0.034538713            3 
  502000    1.0535661   -6.4592435    204.33382  0.033919957  0.034520798            7 
  503000    1.0441956   -6.4789577    205.05531  0.033972052  0.034502693            5 
  504000    1.0476214   -6.4819275    204.85416  0.033871388  0.034485591           10 
  505000     1.048365   -6.4617831     205.1978  0.033861023  0.034468177            3 
  506000    1.0338002    -6.468879    206.43977  0.033998644  0.034451139            3 
  507000    1.0683332   -6.4873736    206.45059  0.033933365  0.034434706           12 
  508000    1.0586722   -6.5023968    206.34432  0.033849133  0.034417986            2 
  509000    1.0354838   -6.5145336    206.48332  0.033805389  0.034401399            3 
  510000    1.0445609   -6.4497523    207.52363   0.03390909  0.034384917            5 
  511000     1.037516   -6.4540611    207.54549  0.033846297  0.034368307            3 
  512000    1.0561279    -6.427154    208.74619  0.033975617  0.034351742            2 
  513000    1.0403444   -6.4519424    208.90958  0.033935929  0.034335597            3 
  514000     1.032445   -6.4236133    208.88724  0.033866284  0.034319341            2 
  515000    1.0534748   -6.4873473    208.19107  0.033687876   0.03430266            4 
  516000    1.0383507   -6.4650171    209.46269  0.033827954   0.03428583            6 
  517000    1.0572509   -6.4381757    210.28847  0.033895627  0.034269258            6 
  518000    1.0787379   -6.4681965    209.45395  0.033695938   0.03425269            4 
  519000    1.0491745   -6.4405345    210.51997  0.033802179  0.034235846            5 
  520000    1.0534837   -6.4846753    210.63443  0.033755518  0.034219229            4 
  521000    1.0442419   -6.4621144    210.46086  0.033662965  0.034202334            7 
  522000    1.0514677   -6.4519852    210.85277  0.033661043   0.03418527            4 
  523000    1.0740439   -6.4654413    212.09089  0.033793959  0.034168573            5 
  524000     1.040537   -6.4950552    211.49024  0.033633944  0.034151747            4 
  525000    1.0615408   -6.4490548    212.06237  0.033660693  0.034134561            6 
  526000    1.0257416   -6.4905545    211.49744  0.033507198  0.034117381            3 
  527000    1.0349667   -6.4805063    212.17207  0.033550296  0.034099748            2 
  528000     1.037212   -6.4511413    212.37228  0.033518352  0.034081728            3 
  529000    1.0565186   -6.4835022    212.34307  0.033450388   0.03406377            5 
  530000    1.0120559   -6.4947891    213.54346  0.033576015  0.034046206            3 
  531000      1.02711   -6.4788259    213.60991  0.033523213  0.034028477            4 
  532000    1.0562275   -6.4758739    213.99181  0.033520021  0.034010659            4 
  533000    1.0455835   -6.4648912    213.84852  0.033434728  0.033992701            2 
  534000    1.0287146   -6.4878636    213.84913  0.033372211   0.03397461            5 
  535000    1.0258942   -6.4635867    214.09759  0.033348534  0.033956543            3 
  536000    1.0514417   -6.4795564     214.8019  0.033395817  0.033938726            1 
  537000    1.0557109   -6.4803212    215.35914  0.033420103  0.033921195            2 
  538000    1.0351311   -6.4833175    214.47266  0.033220672  0.033903004            4 
  539000    1.0258002   -6.4949674     215.6109  0.033335018  0.033884659            5 
  540000    1.0391512   -6.5050254    215.44531  0.033247734  0.033866305           10 
  541000    1.0303285   -6.4587735    215.55632  0.033203376  0.033847795            5 
  542000    1.0481813    -6.489537    216.38087  0.033268892  0.033829401            6 
  543000    1.0662227   -6.4858847    216.73449  0.033261892  0.033810914            3 
  544000     1.025317   -6.4611778    217.10702  0.033257815  0.033792425            3 
  545000    1.0364824   -6.5069973    216.64564  0.033126245  0.033773876            2 
  546000    1.0433801   -6.4313291    218.44502  0.033340204  0.033755546            4 
  547000    1.0461157   -6.4600078    217.35826   0.03311369   0.03373736            1 
  548000    1.0518207   -6.4571254    218.40182  0.033211955  0.033718758            2 
  549000    1.0452258   -6.4945766    218.03824  0.033096272  0.033700144            3 
  550000    1.0486361   -6.5110551    218.42304    0.0330944  0.033681353            5 
  551000     1.015788   -6.5129266    218.54781  0.033053207  0.033661983            4 
  552000    1.0205756   -6.5277051    217.83445  0.032885636  0.033642518            3 
  553000    1.0245075   -6.4999303    218.51575  0.032928836  0.033623103           15 
  554000    1.0455312   -6.4783016    219.73223  0.033052381  0.033603793            4 
  555000    1.0447501    -6.501826    218.73538   0.03284315  0.033583864            7 
  556000    1.0334827   -6.4979434    219.24635  0.032860664  0.033564177            6 
  557000    1.0368055   -6.4769047    219.87731  0.032896066  0.033544567            6 
  558000    1.0608463   -6.4954502    219.63345  0.032800694  0.033524801            4 
  559000    1.0248416   -6.4950723    220.25455  0.032834608  0.033504303            3 
  560000    1.0167196   -6.5032291    220.20867  0.032769147  0.033484025            8 
  561000    1.0050688    -6.522891    220.74064  0.032789756  0.033463688            4 
  562000     1.019018   -6.5090961    221.03159  0.032774553  0.033443605            3 
  563000    1.0101551    -6.549422    220.28669  0.032606082   0.03342349            3 
  564000    1.0423619   -6.4976663    221.05822  0.032662267  0.033403326            4 
  565000    1.0555332   -6.4907764    221.63769  0.032689925  0.033383186            5 
  566000    1.0334143   -6.4936072    221.81445  0.032658193   0.03336354            6 
  567000    1.0229629   -6.5371637    221.77803  0.032595242  0.033343604            7 
  568000    1.0056545    -6.514978    222.62567  0.032662217  0.033323828            5 
  569000    1.0255858   -6.5048278    222.52699  0.032590362  0.033304298            4 
  570000    1.0216747    -6.525929    223.37033  0.032656481  0.033285291            4 
  571000    1.0191789   -6.5263023    223.61527  0.032635036   0.03326596            5 
  572000    1.0124391   -6.4941834    224.87814  0.032761966   0.03324716            3 
  573000    1.0277191   -6.5042877    224.65148  0.032671827  0.033228049            4 
  574000    1.0059935   -6.5263024    224.72131  0.032625045  0.033208857            3 
  575000    1.0279546    -6.512548    224.41875  0.032524457  0.033189608            5 
  576000    1.0232075   -6.5003155    225.57778  0.032635673  0.033171094            4 
  577000     1.036819   -6.5460044    226.73694  0.032746525  0.033153154            2 
  578000    1.0394383   -6.4986378    226.92566  0.032717079  0.033135396            2 
  579000    1.0244108   -6.5063092    226.93566  0.032662012  0.033118103            4 
  580000   0.99888863   -6.5293743    226.97757   0.03261172  0.033100644            4 
  581000    1.0210096   -6.4692794    227.69939  0.032659121  0.033082918            5 
  582000    1.0051177   -6.5102129    227.30654  0.032546756  0.033065241            3 
  583000    1.0173669   -6.4845167     228.3862  0.032645255  0.033048079            4 
  584000    1.0315708    -6.519861    228.90825  0.032663848  0.033030827            3 
  585000   0.99189325   -6.5336355    228.83885  0.032598127  0.033013461            2 
  586000     1.030319   -6.4784786    229.37949  0.032619382  0.032996712            3 
  587000    1.0237726   -6.5254531    229.67757  0.032606129  0.032979839            4 
  588000    1.0093413   -6.5322618    229.68458   0.03255167   0.03296286            4 
  589000     1.034799   -6.5436055    230.17443  0.032565709  0.032945519            4 
  590000    1.0050369   -6.5442367     229.8197   0.03246041  0.032927647            3 
  591000    1.0437096    -6.512955    229.46469  0.032355427  0.032909903            5 
  592000    1.0145076   -6.5201385    230.27439  0.032414751  0.032892093            6 
  593000    1.0410335   -6.5189173    229.97583  0.032318133  0.032873797            5 
  594000    1.0143062   -6.5150366    230.34493  0.032315507  0.032855284            6 
  595000    1.0202578   -6.5209535    230.57987    0.0322941    0.0328367            3 
  596000    1.0306815   -6.5143028    230.16425  0.032181803  0.032817971            5 
  597000    1.0188287   -6.5548826    230.69849  0.032202469  0.032798958            7 
  598000    1.0255359   -6.5216809    231.21334  0.032220366  0.032780058           10 
  599000    1.0219908   -6.5174832    231.17844   0.03216172  0.032761187           15 
  600000    1.0111171   -6.5668091    231.01076  0.032084828  0.032742252            9 
  601000     1.003634   -6.4850073    232.31527  0.032212322  0.032722991            3 
  602000    1.0265666   -6.5571999    231.60755  0.032060845  0.032704131           10 
  603000    1.0058522   -6.5439465      232.097  0.032075317   0.03268452            6 
  604000    1.0241902   -6.5022284    232.63962  0.032097078  0.032665228            5 
  605000    1.0291251   -6.5363611    232.40021  0.032011048  0.032646288            6 
  606000    1.0143359   -6.5149524    233.01094  0.032042208  0.032627073            4 
  607000   0.98642626    -6.523909    233.35734  0.032036977  0.032608358            4 
  608000    1.0064105   -6.5390638    233.75138  0.032038292  0.032589347            6 
  609000   0.99516758   -6.5675873    234.53968  0.032093552  0.032570433            6 
  610000   0.99777824   -6.5424494    234.85115   0.03208349  0.032551985            4 
  611000    1.0200654   -6.5230515    235.16403  0.032073653   0.03253375            4 
  612000   0.99821797   -6.5118164    235.62277   0.03208371  0.032515536            6 
  613000    1.0110891   -6.5397432    235.76426  0.032050607  0.032497529            6 
  614000    1.0081417   -6.5508286    235.30046  0.031935459  0.032478993            4 
  615000    1.0231479   -6.5352469    235.79741  0.031950869  0.032460405            3 
  616000    1.0057779   -6.5037791    235.92288  0.031915974  0.032441864            7 
  617000    1.0316479   -6.5686851     235.6557  0.031828161  0.032422796            6 
  618000    1.0025755   -6.5538251    236.72158  0.031920386  0.032403883            5 
  619000    1.0127213   -6.5424067    237.05791  0.031914096  0.032385311            9 
  620000    1.0008138   -6.5564143    236.76826   0.03182369  0.032366888            6 
  621000    1.0086941   -6.5666129     237.4273  0.031860883  0.032348198            6 
  622000     1.007367   -6.5580759     237.7372  0.031851179   0.03232975            4 
  623000    1.0187519   -6.5747162    238.35395  0.031882551  0.032311397            6 
  624000    1.0007844    -6.570284    238.28074  0.031821681  0.032293294            3 
  625000    1.0151331   -6.5732395    238.78197  0.031837596   0.03227515            4 
  626000   0.99276002   -6.5293735    239.47052  0.031878397   0.03225764            3 
  627000    1.0146835   -6.5440309    239.77609  0.031868167  0.032239995            7 
  628000   0.98479704   -6.5670701    238.99472  0.031713736  0.032222159            4 
  629000    1.0002995   -6.5736943    240.18508  0.031821023  0.032203811            3 
  630000   0.99555923   -6.5197328    240.37077  0.031795076  0.032185719            5 
  631000     1.010127   -6.5704704    239.97232  0.031692066  0.032167391            5 
  632000   0.98823963   -6.5181545    240.47714  0.031708484  0.032149064            6 
  633000    1.0065096   -6.5754554    240.39484  0.031647557  0.032130725            8 
  634000     1.017874   -6.5690026    240.63471  0.031629168  0.032112722            8 
  635000   0.97996095   -6.5591168    240.93737  0.031619077  0.032094597            4 
  636000   0.99254272   -6.5301079    242.42412  0.031764166  0.032076584            4 
  637000   0.96632602   -6.5367048    241.56333  0.031601691  0.032058701            8 
  638000    1.0251776   -6.5632321    242.83116  0.031717758  0.032040986            3 
  639000    1.0036361   -6.5444437    242.39041  0.031610642  0.032023375            8 
  640000    1.0026635   -6.5593139    243.02967  0.031644488  0.032005864            4 
  641000   0.98588203   -6.5480181    243.85302  0.031702161  0.031988412            8 
  642000   0.97806054    -6.588292     243.3578    0.0315885  0.031970897            4 
  643000    1.0148575   -6.5340339    243.98902  0.031621179  0.031953307            4 
  644000   0.99201436     -6.57734    244.29041  0.031611078  0.031935747            5 
  645000   0.97999994   -6.5482834    244.10648  0.031538305  0.031917915            4 
  646000   0.99174282   -6.5430271    244.48311  0.031538068  0.031899883            3 
  647000    1.0004094   -6.5903179    244.01913  0.031429563  0.031881933            9 
  648000   0.98780991   -6.6080034    243.95846  0.031373258  0.031863663            6 
  649000   0.99217078   -6.5771337    245.14463  0.031477226  0.031845607            9 
  650000    0.9885434   -6.5687917     244.2574  0.031315051  0.031827834           13 
  651000   0.98593849   -6.6046103    245.36436  0.031408648  0.031810126            3 
  652000    0.9979474   -6.5887942    245.60091   0.03139071  0.031791723            5 
  653000    1.0016892    -6.577154    246.01618  0.031395634  0.031773541            6 
  654000   0.99416037   -6.5680633    245.62113   0.03129729   0.03175548            2 
  655000   0.99179438   -6.5829948    245.79563  0.031271709  0.031737445            4 
  656000   0.98198393   -6.5837769     246.3583  0.031295516  0.031719136            3 
  657000    0.9657836   -6.5657769    247.01455   0.03133112  0.031700784            6 
  658000   0.98372365   -6.5521245    246.64916  0.031237229  0.031682345            6 
  659000   0.98021791   -6.6180438    246.49619  0.031170484  0.031663954            6 
  660000   0.95415653   -6.6161725    246.91041  0.031175557  0.031645454            5 
  661000    1.0060915   -6.5810994    247.39489  0.031189472  0.031626719            6 
  662000   0.98128037   -6.5923568    247.25171  0.031124334  0.031608004            7 
  663000    1.0047253   -6.5796559    247.38057  0.031093586   0.03158925           11 
  664000   0.99615067    -6.596533    247.39892  0.031049061  0.031570568            6 
  665000    0.9766049    -6.575904    248.05199  0.031084209  0.031551699            6 
  666000    0.9981864   -6.5938546    248.05037  0.031037333  0.031533242            5 
  667000    1.0007762   -6.5858397     248.4064  0.031035282  0.031514606            7 
  668000   0.97893877   -6.5898587    249.01933  0.031065286  0.031496145            3 
  669000   0.99913358     -6.55756    249.16186  0.031036604  0.031477983            6 
  670000   0.97352384   -6.5795968    249.34205  0.031012693  0.031459636            3 
  671000   0.99392983   -6.6107668    249.15906  0.030943748  0.031441227            4 
  672000   0.98361306   -6.5730809    250.12376  0.031017331  0.031422818            8 
  673000   0.97492019    -6.580498    249.76719  0.030927092  0.031404292            7 
  674000   0.95258598    -6.602202    250.35973  0.030954467  0.031385803            6 
  675000   0.98362943   -6.5639992    250.42419  0.030916567  0.031367041            5 
  676000   0.98379817   -6.5657949     250.6644  0.030900443  0.031348338            6 
  677000   0.98121948   -6.6036371    250.56469  0.030842527  0.031329356            4 
  678000   0.99905019   -6.5755809    251.09535  0.030862261   0.03131084           10 
  679000   0.99714689   -6.6144838    251.73906   0.03089581  0.031292538            3 
  680000   0.99712296   -6.6191768    251.56075  0.030828523  0.031273719            6 
  681000   0.96349448   -6.5867212    251.58958  0.030786781  0.031254896            5 
  682000   0.98606984   -6.6007395     251.9036  0.030780009  0.031236447           12 
  683000   0.96024747   -6.6188951    252.01243  0.030748223  0.031217732            5 
  684000    0.9825137   -6.6044457    252.37839  0.030747855  0.031199022            6 
  685000    1.0006784   -6.5918638    252.39439  0.030704913  0.031180468            3 
  686000   0.98543587   -6.5941382     253.6576  0.030813606  0.031162008            4 
  687000   0.98698958   -6.6092907    253.04762  0.030694762  0.031143552            5 
  688000   0.95999965   -6.6201347    252.75102  0.030614222  0.031124659            5 
  689000   0.97940557   -6.6157349    253.08175  0.030609791  0.031105867            4 
  690000   0.96602137   -6.6003337    253.76866  0.030648389  0.031087188            4 
  691000   0.99697068   -6.6029199    254.61588  0.030706208  0.031068838           11 
  692000   0.99929276   -6.6157402    254.39481  0.030635213  0.031050216            5 
  693000   0.98218328   -6.5905392    254.30523  0.030580235  0.031031802            5 
  694000     0.980303   -6.6309595    255.14498  0.030637006  0.031013497            5 
  695000   0.98166049   -6.5966588    255.31544  0.030613362   0.03099526            3 
  696000   0.99144578    -6.613872    255.57585  0.030600557  0.030977251            5 
  697000   0.98059419   -6.6448555    256.09124  0.030618273  0.030959098            5 
  698000    0.9899151   -6.6122534     255.6204  0.030518194  0.030940688            9 
  699000   0.98421477   -6.6116414    256.78279  0.030613112  0.030922553            5 
  700000   0.96883445    -6.590704    257.65022  0.030672645  0.030904925            4 
  701000   0.97942979   -6.6395421    256.41693  0.030482279  0.030887168            6 
  702000   0.98281736    -6.594278    257.30832  0.030544673  0.030869041            6 
  703000   0.99941825   -6.6248044    256.80282  0.030441301  0.030851278            4 
  704000    0.9784453    -6.610235    258.22946  0.030566934  0.030833736            6 
  705000   0.94897248   -6.6135183       257.34   0.03041844  0.030815938            6 
  706000   0.97876744   -6.6140634    257.57989   0.03040367  0.030798059            2 
  707000   0.98976559   -6.5711555    259.10628   0.03054058  0.030780177            7 
  708000   0.98790101      -6.6201    258.16496  0.030386648   0.03076227           16 
  709000   0.97108619   -6.6005934    258.83454   0.03042249  0.030744394            3 
  710000   0.97352968   -6.6036495    258.15203  0.030299534  0.030726289            5 
  711000   0.95362522   -6.6104377    259.32138  0.030393973  0.030708245            5 
  712000   0.98077342   -6.5988503    259.07041  0.030321911  0.030690233            6 
  713000   0.97437351   -6.6018991    259.63969  0.030345919  0.030672277            4 
  714000   0.97263101   -6.5970276    259.58292  0.030296793  0.030654088           12 
  715000   0.96394538   -6.6360439    259.58732  0.030254932  0.030635995            7 
  716000   0.97367117    -6.575513     259.9033  0.030249453  0.030618198            2 
  717000   0.95972746   -6.6378168     260.7616   0.03030702  0.030600465           10 
  718000   0.96841954   -6.6162309    261.10907  0.030305138  0.030582621            3 
  719000   0.99459989   -6.6587237    260.69994  0.030215571  0.030564968            4 
  720000   0.97283438   -6.5964579    261.59413  0.030277099  0.030547421            7 
  721000   0.97588269   -6.6102816    261.74221  0.030252221  0.030529748            6 
  722000   0.95050413   -6.6309392    260.83899   0.03010607  0.030511735            5 
  723000   0.94116951   -6.6411691    261.38327  0.030127164  0.030493944            4 
  724000   0.98795616   -6.6387316    262.44848  0.030208158  0.030475996            4 
  725000   0.97419226   -6.5900348    262.30711  0.030150242  0.030458133            3 
  726000   0.95858601   -6.6124049    262.13652  0.030089132  0.030439955            7 
  727000   0.98181618   -6.6225226    262.63794   0.03010522  0.030421786           18 
  728000   0.96024871   -6.6413195    262.80679  0.030083195  0.030403502            8 
  729000   0.95216331   -6.6488926    261.53464  0.029896506  0.030385168            5 
  730000   0.94606035   -6.6449181    262.31909  0.029945102  0.030366826           13 
  731000   0.97886829   -6.6569757    262.73204  0.029951212  0.030348471            7 
  732000   0.97093998   -6.6530571    263.01256  0.029942231  0.030330096            2 
  733000     0.997012   -6.6291315    263.62509  0.029971019  0.030311977            6 
  734000   0.97607894   -6.6473474    263.62243  0.029929885  0.030293883           12 
  735000   0.96565831   -6.6280461    263.47263   0.02987218  0.030275613            4 
  736000   0.95671911   -6.6078868    264.95371  0.029999287  0.030257563            5 
  737000   0.94743402   -6.6474726    264.57466  0.029915724  0.030239452            5 
  738000   0.95287822    -6.654762    264.27622  0.029841489  0.030220972            5 
  739000   0.93168837   -6.6307235    264.33152  0.029807343  0.030202799            7 
  740000   0.94724531   -6.6200695    264.58361  0.029795452  0.030184661            5 
  741000   0.95915998   -6.6361035    265.03865  0.029806416  0.030166336            4 
  742000   0.97848639   -6.6177603    264.73208  0.029731815  0.030147738            5 
  743000   0.94614082   -6.6369482    265.06951  0.029729644  0.030129205           10 
  744000   0.93278469   -6.6642992    265.01225  0.029683272  0.030110602            7 
  745000   0.95207086   -6.6408645    265.80316  0.029731897   0.03009217            8 
  746000   0.92690306   -6.6606678    265.43647   0.02965108  0.030073582            2 
  747000   0.95015334   -6.6693929    266.16495  0.029692654  0.030055077            4 
  748000   0.96112673   -6.6083021    266.35177  0.029673772  0.030036779            6 
  749000   0.96568774   -6.6391499    267.05363  0.029712241  0.030018663            3 
  750000   0.95727384   -6.6633634    266.01991  0.029557767  0.030000508            8 
  751000   0.95806367   -6.6636855    266.38458  0.029558875  0.029982107            7 
  752000   0.95298685    -6.633069    267.20969  0.029611003  0.029963608            3 
  753000   0.93468846    -6.652083     267.1197   0.02956172  0.029945144            9 
  754000    0.9555586   -6.6904302    266.46459   0.02945011  0.029926229            4 
  755000   0.95988346   -6.6646042    266.79054  0.029447079   0.02990722            3 
  756000   0.96683999   -6.6625672    267.88438  0.029528702  0.029888272            7 
  757000   0.95244376   -6.6518275    267.10308  0.029403685  0.029869557            5 
  758000   0.92279676   -6.6542026    267.73545  0.029434416  0.029850768           11 
  759000   0.95895711   -6.6584132    267.80177  0.029402917  0.029832006            4 
  760000    0.9397145   -6.6972321    268.21491   0.02940953  0.029812907            6 
  761000   0.96256303   -6.6464362    268.09344  0.029357582  0.029793811            3 
  762000   0.95709548   -6.6651188    268.35988  0.029348193  0.029774801            4 
  763000   0.95182812   -6.6443046    268.50771  0.029325875  0.029755849            3 
  764000   0.95254996   -6.6612886    268.24128  0.029258429  0.029737033            4 
  765000   0.96445072   -6.6861417    269.16225  0.029320506  0.029718345            5 
  766000   0.95634881   -6.6980667    268.67851  0.029229603  0.029699248            4 
  767000    0.9622539    -6.663979    270.17478  0.029354061  0.029680471            6 
  768000    0.9488338   -6.6886958    269.87816  0.029283655  0.029661766            6 
  769000   0.94188956   -6.6320213     269.9061  0.029248602  0.029643193            7 
  770000   0.94306603   -6.6954732    270.48812  0.029273606  0.029624804            5 
  771000    0.9456754   -6.6407391    271.24219  0.029317141  0.029606456            6 
  772000   0.94259631   -6.6713444     271.4954  0.029306498  0.029588473           14 
  773000   0.93732994   -6.6552281     271.1745  0.029233991  0.029570329            6 
  774000    0.9364434   -6.6667904    271.94513  0.029279192  0.029552185            6 
  775000   0.94795917   -6.6646163    271.17745  0.029158865  0.029533926            4 
  776000   0.96015625    -6.630858    271.46838  0.029152532  0.029515511            4 
  777000   0.94872115   -6.6692139    271.44461  0.029112463  0.029496871            4 
  778000   0.95961081   -6.6392212    271.75073  0.029107833  0.029477947            6 
  779000   0.93928646   -6.6485036    271.73047    0.0290683  0.029459159            6 
  780000   0.94901244   -6.6777525    271.56259  0.029013097  0.029440532            8 
  781000   0.93658563   -6.6447206    272.54048  0.029080291  0.029421848            4 
  782000   0.96300484   -6.6849559    273.06395  0.029098887  0.029403141            5 
  783000   0.93871233   -6.6434812    273.08845   0.02906433  0.029384345           12 
  784000   0.94138759   -6.6607752    272.89374  0.029006563  0.029365778            9 
  785000   0.91812314   -6.6851819     273.2789  0.029010499  0.029347653            6 
  786000   0.91392581   -6.6420943    273.91183  0.029040695  0.029329516            6 
  787000    0.9611928   -6.6730381    274.33132  0.029048212  0.029311297            6 
  788000   0.95015245   -6.6845286    274.57155  0.029036755  0.029292888            7 
  789000   0.94721597    -6.689014    273.93142  0.028932342  0.029274736           10 
  790000   0.94160236   -6.6888459    274.15236  0.028919025  0.029256694            7 
  791000   0.92671571    -6.665808    275.50172  0.029024623  0.029238876            3 
  792000   0.96010432   -6.6828906    275.74567  0.029013644  0.029220844            3 
  793000   0.93445689    -6.663894    275.06612  0.028905646  0.029202801            4 
  794000   0.94275291   -6.6583636    275.32514  0.028896426  0.029184664            5 
  795000   0.93598069   -6.7301816    275.89044  0.028919333  0.029166583            7 
  796000    0.9250521   -6.7129915    274.93454  0.028782929  0.029148329           10 
  797000   0.93497621   -6.7132845     275.6039  0.028816803  0.029130129            5 
  798000   0.92542415   -6.7161809     275.6581  0.028786352  0.029112032            5 
  799000   0.93608838   -6.6926644    275.33494  0.028716619  0.029093795            7 
  800000   0.93054379   -6.6885611    275.20995  0.028667703  0.029075325            5 
  801000   0.94395714   -6.7099333    275.77048  0.028690229  0.029056692            6 
  802000   0.92558567   -6.7183151    275.80442  0.028657983  0.029037925            7 
  803000   0.94862228   -6.6753384    275.75285  0.028616942  0.029019015           10 
  804000    0.9212783    -6.682416    276.10144  0.028617479  0.029000043            3 
  805000   0.94363413   -6.6987915    276.63597  0.028637264  0.028981319            3 
  806000   0.94056244   -6.7219406    277.01446  0.028640866  0.028962504            5 
  807000   0.92862032   -6.6709837    276.95492  0.028599228  0.028943853            4 
  808000   0.93313424    -6.715115    276.51512  0.028518474  0.028925087            6 
  809000   0.93572834   -6.7360945    275.69661  0.028398909   0.02890608            4 
  810000    0.9343626   -6.7082183    276.96434  0.028494274  0.028886758            4 
  811000   0.92911923   -6.6918613    276.82378  0.028444696  0.028867516            9 
  812000   0.94437858   -6.6942751    277.07288   0.02843523  0.028848512            4 
  813000   0.92664366   -6.7157674    277.16673  0.028409874  0.028829316            5 
  814000   0.93359514   -6.6950578    277.68631  0.028428165  0.028810141            5 
  815000   0.93029577   -6.6927449    277.56582  0.028380963  0.028791023            8 
  816000   0.91186725   -6.7150115    276.98769  0.028287142  0.028771775            7 
  817000    0.9172364   -6.6643131    277.66751  0.028321859   0.02875263            5 
  818000   0.91419061   -6.6917768    278.38458  0.028360287  0.028733682            4 
  819000   0.92701707    -6.726359    278.65166  0.028352834  0.028714797           11 
  820000   0.91700835   -6.7109659    278.73259  0.028326483  0.028695793           11 
  821000   0.92863442   -6.7073326    278.51868  0.028270268  0.028676956            7 
  822000   0.91897389   -6.6959446    278.32808  0.028216553  0.028658119            4 
  823000   0.92136944    -6.725788    279.30257  0.028280941  0.028639248            6 
  824000   0.92782662   -6.7229069    279.67881   0.02828467  0.028620549            3 
  825000   0.92924334   -6.6697518    279.88179  0.028270888  0.028601864            6 
  826000    0.9182993   -6.6927056    281.37726  0.028387536  0.028583398            4 
  827000    0.9291245   -6.6659485     280.6964  0.028284603  0.028564947            4 
  828000   0.91977811   -6.7152681    280.09724  0.028190141  0.028546544           10 
  829000   0.93866777   -6.7187337    280.48134  0.028194746  0.028527947            6 
  830000   0.92042916   -6.7380387    281.25635  0.028238589  0.028509387            4 
  831000   0.93260281   -6.7167621    280.43894  0.028122638  0.028490794            9 
  832000   0.91309806   -6.7146738    281.23657  0.028168727  0.028472382           11 
  833000   0.92243587   -6.7102365    281.16821  0.028128072  0.028454019           14 
  834000   0.90890671   -6.7481052    281.68305  0.028145788  0.028435716            6 
  835000   0.92628605   -6.7237965    282.03893  0.028147598  0.028417339            6 
  836000   0.92459568   -6.7220676    282.16158  0.028126154  0.028399093            3 
  837000   0.92620877   -6.7260358    281.62455  0.028039083  0.028380998            6 
  838000   0.89350278   -6.7379663    282.52971  0.028095635  0.028362639            4 
  839000   0.90931221    -6.710875    282.88831  0.028097766  0.028344191           11 
  840000   0.91685517   -6.7013026    282.27128  0.028003103  0.028325876           10 
  841000   0.90485666    -6.715142    282.97033  0.028039074  0.028307564            5 
  842000   0.89759541   -6.7150662    282.60388  0.027969505  0.028289033            5 
  843000   0.91871741    -6.706844    282.83963  0.027959631  0.028270572            4 
  844000   0.90208834   -6.7294132    282.44413  0.027887453  0.028252067            4 
  845000   0.91322621   -6.6970219     283.1039  0.027919516  0.028233569            7 
  846000   0.91963247   -6.7073772    283.92498  0.027967394  0.028215139            6 
  847000   0.91872826   -6.7081546    283.42224  0.027884911  0.028196968            5 
  848000   0.90446018   -6.6905582    283.82739  0.027891842  0.028178728           11 
  849000    0.9169494   -6.7297563    283.62231   0.02783886  0.028160434           11 
  850000   0.92021778   -6.7016961    285.03171  0.027944285  0.028142245            3 
  851000      0.91885   -6.7051941    285.30752  0.027938457  0.028124396            3 
  852000   0.89476247    -6.723256    284.80611  0.027856622  0.028106688           15 
  853000   0.91811683   -6.7419744    285.05052  0.027847843  0.028088883           12 
  854000   0.88680772    -6.736793     284.7357  0.027784514  0.028070973            4 
  855000   0.90449029   -6.7536259    284.77652  0.027755996  0.028052927            6 
  856000   0.91586373   -6.7368431    285.68406  0.027811921   0.02803487            7 
  857000   0.91228769   -6.7530308    284.80097  0.027693598  0.028016529            7 
  858000   0.91444258   -6.7540979    285.41384  0.027720847  0.027997974            9 
  859000   0.90116842   -6.7331164     284.9701  0.027645528  0.027979421            6 
  860000   0.90071923   -6.7342289    285.45717  0.027660578  0.027960822            5 
  861000   0.91739661    -6.731759     285.7039  0.027652332   0.02794221            4 
  862000   0.90012237   -6.7125712    286.36042  0.027683722  0.027923621            6 
  863000   0.92411383   -6.7464967    285.83755  0.027601154   0.02790507            6 
  864000   0.91192021   -6.7411897    286.68428  0.027650876  0.027886291            3 
  865000   0.89737137   -6.7367344    285.83569  0.027537157  0.027867613            4 
  866000   0.90231329   -6.7653253    286.71862  0.027590322  0.027849174           10 
  867000   0.88633803   -6.7386757    286.66816  0.027553649  0.027830711            4 
  868000   0.90255014   -6.7410905    286.71229  0.027526142  0.027812405            8 
  869000   0.92204791   -6.7261877    287.42678  0.027562982  0.027794233           10 
  870000   0.91674309   -6.7321205    287.30612  0.027519743  0.027775942            5 
  871000   0.92785875   -6.7444031    287.78748  0.027534202  0.027757781            5 
  872000   0.91823774   -6.7453943    287.29145  0.027455222  0.027739683            3 
  873000   0.88638011   -6.7303163    287.53875   0.02744738  0.027721519            3 
  874000   0.89150079   -6.7286307    288.56151  0.027513493  0.027703521            6 
  875000   0.89496097   -6.7367785    289.19815  0.027542681  0.027685589            7 
  876000   0.90631005   -6.7919674    288.09115  0.027405931  0.027667547            6 
  877000   0.88899427   -6.6915025     288.5288  0.027416268  0.027649532            7 
  878000   0.90235026   -6.7371996    289.33877  0.027461918  0.027631556           18 
  879000   0.89143848    -6.736814    289.71951  0.027466772  0.027613653            7 
  880000   0.90743908   -6.7350423    289.71477  0.027435111   0.02759579            7 
  881000   0.90611308   -6.7426076    290.43211  0.027471823  0.027578157            9 
  882000   0.89490707   -6.7488799    289.07728  0.027312668  0.027560265            6 
  883000   0.90060483   -6.7448132    290.09232  0.027377531  0.027542333            6 
  884000   0.88104512   -6.7550993    290.16157  0.027353089  0.027524323            6 
  885000   0.89938362   -6.7711432     289.9365  0.027300989  0.027506294            9 
  886000   0.88973827    -6.711221    290.16049  0.027291242  0.027488541            4 
  887000   0.88065211    -6.761074    290.81401  0.027321873  0.027470888            7 
  888000   0.89229003   -6.7939092    290.64309  0.027275065  0.027453159            6 
  889000   0.90452997   -6.7329153    290.81836  0.027260813  0.027435603            4 
  890000    0.8830763   -6.7335036    291.54314  0.027298046  0.027418041            4 
  891000   0.91237945   -6.7831062    291.63097  0.027275624  0.027400469            9 
  892000   0.89445914   -6.7588461    290.89344  0.027176144  0.027382721            4 
  893000   0.89377555   -6.7703639    291.84689  0.027234686  0.027365128            5 
  894000    0.8917088   -6.7954638    291.41402  0.027163872  0.027347427            5 
  895000   0.91453391   -6.7872708    292.45285  0.027230246  0.027329805            3 
  896000   0.90868999   -6.7463042    292.64362  0.027217599  0.027312369            3 
  897000    0.8860091   -6.7392392    293.28779    0.0272471  0.027295285            5 
  898000   0.89822567   -6.7398632    293.21234  0.027209757  0.027278302            5 
  899000   0.88203677   -6.7548473    293.01772   0.02716145  0.027261113            7 
  900000    0.9119722    -6.766044    293.39891  0.027166566  0.027243908            7 
  901000   0.89021886   -6.7844829    293.17199  0.027115426  0.027226698            6 
  902000   0.88584524   -6.7478591    292.90464  0.027060665  0.027209605            7 
  903000   0.91652701   -6.7982731    293.89456  0.027122052  0.027192592            5 
  904000   0.90218116   -6.7847328    293.48712  0.027054491  0.027175493           12 
  905000   0.90651218   -6.7882003    294.11702  0.027082598  0.027158568            5 
  906000   0.87688295   -6.7861882    294.38965  0.027077782  0.027141643            8 
  907000   0.88059534   -6.7701053    294.51577  0.027059516  0.027124897            4 
  908000   0.91180078   -6.7957153    294.33502  0.027013126  0.027108078           15 
  909000   0.87581873   -6.7792227    295.31798  0.027073522  0.027091223            3 
  910000   0.89942602   -6.7461922    295.42074  0.027053181  0.027074391           17 
  911000   0.86560834   -6.7551683    294.77687  0.026964588  0.027057577            8 
  912000   0.90558888   -6.8044936    295.54886  0.027005561  0.027040827            5 
  913000   0.87437991   -6.7709768    295.18769  0.026943017  0.027024073            6 
  914000   0.87780234   -6.7964838    295.65147  0.026955823   0.02700736            5 
  915000   0.88528379   -6.7689752    295.72123  0.026932717  0.026990542            6 
  916000   0.88291858   -6.7794257    296.12969  0.026940474  0.026973748           11 
  917000   0.90707495   -6.7547119    296.58632  0.026952592   0.02695698           12 
  918000   0.91291382   -6.7806791    295.98987  0.026869088  0.026940093           10 
  919000   0.88358698   -6.7838344    295.96972  0.026838024  0.026923303            7 
  920000   0.89755063    -6.786953    295.86725  0.026799569  0.026906576            4 
  921000   0.89411869   -6.7755126    296.68515  0.026844476   0.02688975            6 
  922000   0.87445898   -6.7687958    296.80181  0.026825905  0.026872945           12 
  923000   0.90869025   -6.7736865     296.9444  0.026809715  0.026856014            8 
  924000    0.8764024   -6.7565612    297.65723  0.026844988  0.026839385            6 
  925000   0.87788804   -6.8245732    297.17804  0.026772796  0.026822633            7 
  926000   0.87595676   -6.8000656    297.98739   0.02681672  0.026805724            8 
  927000   0.88566057   -6.7820939    298.72561  0.026854154  0.026788954            8 
  928000   0.89283607   -6.7998914    298.32889  0.026789591  0.026772253            7 
  929000    0.8856127   -6.8009356    298.35879  0.026763437  0.026755599           13 
  930000    0.8746402   -6.7526559    298.14068  0.026715114  0.026738709            5 
  931000   0.87628873   -6.8087626    298.31736  0.026702234  0.026722064            8 
  932000   0.86934857   -6.8085575    298.52585  0.026692225  0.026705215           11 
  933000   0.89429947   -6.8166986    297.75913  0.026595135  0.026688503            7 
  934000   0.87630041   -6.8006014    298.41044  0.026624772  0.026671788            6 
  935000   0.88456764   -6.7931695    298.47238  0.026601816  0.026654955            7 
  936000   0.86595697   -6.7944693    298.57683  0.026582695  0.026638196            8 
  937000   0.88575951   -6.7948404    299.38464  0.026626168  0.026621368            7 
  938000   0.86996729   -6.7954486    298.49222  0.026518499  0.026604582           10 
  939000   0.89549989   -6.7748422    299.73402  0.026600463  0.026587985            5 
  940000   0.89465984   -6.7716532    298.86495   0.02649512  0.026571288            5 
  941000    0.8591475   -6.7889659    300.04773  0.026571708  0.026554557            3 
  942000   0.85067689   -6.7734239    299.68856  0.026511726  0.026537773            6 
  943000   0.88142223   -6.7620494    299.73008  0.026487281  0.026520975            8 
  944000   0.87629508   -6.8091787    299.87645  0.026472144  0.026504133            8 
  945000   0.87636926   -6.8009896    300.26747  0.026478613  0.026487179           20 
  946000   0.87750908   -6.7827455    300.20269  0.026444917  0.026470165           10 
  947000   0.88280534   -6.7843702    300.23518   0.02641985   0.02645325            3 
  948000   0.86042702   -6.8224325    300.49101   0.02641447   0.02643618           15 
  949000   0.87504583   -6.7724255    300.29235  0.026369191  0.026419008            9 
  950000   0.86684465   -6.7861275     300.1783   0.02633143   0.02640202            5 
  951000    0.8658998   -6.8008342    300.86281  0.026363723   0.02638501            6 
  952000   0.88535721   -6.8117144       300.84  0.026334034  0.026368001            7 
  953000   0.87994236   -6.8110054    301.06759  0.026326302  0.026351044           12 
  954000   0.86837314   -6.8038625    301.30593  0.026319526  0.026334184           13 
  955000   0.88390932   -6.8008887    300.57678  0.026228341  0.026317387            4 
  956000   0.87975482   -6.8087547    300.88207  0.026227517  0.026300527            7 
  957000   0.88368657   -6.8368112    300.69717   0.02618401  0.026283419           18 
  958000   0.89705259   -6.8335559    300.88576  0.026173083  0.026266294           10 
  959000   0.87720034   -6.8562078    301.30245     0.026182  0.026249263           13 
  960000   0.85271211   -6.8115721      301.907  0.026207205  0.026232213            8 
  961000   0.87600075   -6.8214603    302.41868  0.026224305  0.026215389            4 
  962000   0.88108086   -6.7986786    302.11993  0.026171165  0.026198545            6 
  963000   0.86512288   -6.7904799    303.09905  0.026228716  0.026181754            3 
  964000   0.88590547   -6.7840828    302.07906  0.026113335  0.026164837            4 
  965000   0.85974936   -6.7825744    301.19162  0.026009639  0.026147843           12 
  966000    0.8558613   -6.7939639    302.61109  0.026105166  0.026130902            6 
  967000   0.86930829   -6.7992106    302.54573  0.026072538  0.026113861            7 
  968000   0.86348959   -6.8140576    302.45833  0.026038079  0.026097077            4 
  969000   0.86789716   -6.8122855    302.48132  0.026013185  0.026080186            9 
  970000   0.86536791   -6.8211217    302.87789  0.026020437  0.026063312            8 
  971000   0.87160699   -6.8310839    302.88745   0.02599446  0.026046533            4 
  972000   0.85746699   -6.8225446    302.92594  0.025971017   0.02602966           14 
  973000   0.86732679   -6.8622371    303.55713  0.025998384  0.026012645           15 
  974000   0.86966995   -6.8285166    303.32135  0.025951519  0.025995662            6 
  975000   0.86679587   -6.8296672    304.21115  0.026000953  0.025978739            7 
  976000   0.87222511   -6.8634985    303.48314  0.025912153  0.025961819            5 
  977000   0.88119365   -6.8178596    303.58574  0.025894382   0.02594492            6 
  978000   0.88057332   -6.8124551    303.64472  0.025872931  0.025928071            6 
  979000   0.86048672   -6.8049741    304.40825  0.025911496  0.025911297            8 
  980000   0.86283462    -6.833386    303.70743  0.025825462   0.02589456            7 
  981000   0.84830828   -6.8447771    304.47868  0.025864651  0.025877702            8 
  982000   0.85283323   -6.8174211    304.68362  0.025855704  0.025860921           15 
  983000   0.86924464   -6.8171704    304.91437  0.025848963  0.025844265            5 
  984000   0.86445943   -6.8064335    305.34928  0.025859526  0.025827603           10 
  985000   0.85369907   -6.8037118    305.98004  0.025886636  0.025810899            8 
  986000   0.86357556   -6.8468058    305.69812  0.025836555  0.025794345            9 
  987000   0.86065893   -6.8537368    304.91727  0.025744451  0.025777697            7 
  988000   0.87489152   -6.8291172      305.054  0.025729926  0.025760931           12 
  989000   0.87529054   -6.8321438     305.6977  0.025758148  0.025744153            9 
  990000   0.84952761   -6.8404257    304.59368  0.025639198  0.025727415            7 
  991000   0.84483022      -6.8324      306.143  0.025743609  0.025710494           10 
  992000   0.85376693   -6.8213602    305.21751  0.025639912  0.025693605           10 
  993000   0.85659747   -6.8216736    305.58254  0.025644724  0.025676762            6 
  994000   0.86165996   -6.8233921    305.71192  0.025629772  0.025659883            9 
  995000   0.87132242   -6.8368322    306.07112  0.025634097  0.025643233            7 
  996000   0.85229502   -6.8155955    306.10231   0.02561097  0.025626411            9 
  997000    0.8505473   -6.8421656    305.71573   0.02555297  0.025609699            7 
  998000   0.87431358   -6.8299723    306.58464   0.02559992  0.025593035            6 
  999000   0.86357535   -6.8469948     306.2063  0.025542734   0.02557627            6 
 1000000    0.8643915   -6.8487874    306.80851  0.025567375  0.025559517            7 
 1001000   0.85410554   -6.8586717     307.1288  0.025568498  0.025542764           16 
 1002000   0.85572636   -6.8665172    306.43795  0.025485525  0.025525838           11 
 1003000   0.86988733   -6.8420233    305.62893  0.025392899  0.025508808            8 
 1004000   0.86412352   -6.8501469    306.93923  0.025476364  0.025492015            8 
 1005000   0.86268675    -6.855408    306.36286  0.025403222  0.025475057            9 
 1006000   0.84386355   -6.8407073    307.91277  0.025506359   0.02545818            9 
 1007000   0.82954879   -6.8430492    307.00445  0.025405863  0.025441261            4 
 1008000   0.84030492   -6.8239382    307.22948  0.025399263  0.025424308            9 
 1009000   0.86509236   -6.8416799    307.21763  0.025373111  0.025407435            4 
 1010000   0.85360311   -6.8676332    307.16312  0.025343492   0.02539033            8 
 1011000   0.84704162   -6.8590698    306.66707  0.025277536   0.02537326            5 
 1012000   0.85577378   -6.8870125    307.49861  0.025321032  0.025356321           10 
 1013000   0.84417093   -6.8455685    308.09591  0.025345172  0.025339465            5 
 1014000    0.8523446   -6.8710126    308.15949  0.025325402  0.025322671            8 
 1015000    0.8550121   -6.8705914    307.97537  0.025285334  0.025305761            6 
 1016000   0.86560178    -6.870646    307.60717  0.025230247   0.02528872            8 
 1017000   0.84376453   -6.8365184    307.47784  0.025194841  0.025271738            9 
 1018000   0.84587825   -6.8566155    308.22593   0.02523133  0.025254744            6 
 1019000   0.84340933   -6.8562578    308.27504  0.025210585  0.025237799            7 
 1020000   0.84479894   -6.8645177     308.2798  0.025186259  0.025220899            5 
 1021000   0.85416294    -6.871508    308.65033  0.025191832  0.025203954            4 
 1022000   0.83877305   -6.8477608     307.9829  0.025112761  0.025186859            8 
 1023000    0.8443101   -6.8555808    309.36064  0.025200443   0.02516997           12 
 1024000   0.84874204   -6.9015189    308.30971  0.025090308  0.025153093           32 
 1025000   0.83944962   -6.8699073    308.87837  0.025112062  0.025136081           10 
 1026000   0.84059515   -6.8530859    309.08696  0.025104529  0.025119093            9 
 1027000   0.83480437   -6.8700247    309.43031  0.025107944  0.025102073            9 
 1028000    0.8549698   -6.8600308    308.72979  0.025026734  0.025085238           11 
 1029000   0.85574995   -6.8684526    308.96602  0.025021544  0.025068386            8 
 1030000   0.84318218    -6.896156    308.11652  0.024928521  0.025051483           15 
 1031000   0.82236398    -6.840833    309.90833   0.02504917   0.02503446            6 
 1032000   0.83538282   -6.8824273    309.66986  0.025005642  0.025017545            7 
 1033000   0.82001822   -6.8610827     309.9419   0.02500338  0.025000607           14 
 1034000   0.83296945   -6.8527573     310.4805  0.025022607  0.024983722            6 
 1035000   0.84186587    -6.880742    309.35826  0.024908072  0.024966923           18 
 1036000   0.85893801   -6.8604249    309.84049  0.024922819  0.024950201            5 
 1037000   0.83885375   -6.8631334    310.43957  0.024946928  0.024933586            4 
 1038000   0.85116881   -6.8600473    311.07351  0.024973788  0.024916988            6 
 1039000   0.83349549   -6.8617705    311.36394  0.024973046  0.024900438            6 
 1040000   0.82280111   -6.8898115    310.83637  0.024906761  0.024883938            7 
 1041000   0.83525845   -6.8875295     310.7304  0.024874352  0.024867267            8 
 1042000   0.83094068   -6.8544065    310.44932     0.024828  0.024850604            8 
 1043000    0.8188195   -6.8892076    310.86151  0.024837129  0.024833852            8 
 1044000   0.82295512    -6.886811    310.62476  0.024794442  0.024817084            6 
 1045000   0.82986598   -6.8539429    311.00387  0.024800947  0.024800347            6 
 1046000   0.83602273   -6.9129835    310.56655  0.024742395  0.024783584           12 
 1047000    0.8215851   -6.9060623    311.10743  0.024761814  0.024766791            7 
 1048000   0.83177808   -6.8756468     311.4365  0.024764352   0.02475022            8 
 1049000   0.82697888   -6.8897635    312.20273  0.024801615  0.024733786            5 
 1050000   0.84283265   -6.8838024    312.60769  0.024810134  0.024717452            9 
 1051000    0.8453863   -6.9005889    312.21343  0.024755268  0.024701012            8 
 1052000   0.80859735    -6.903198    312.57231  0.024760164  0.024684477            7 
 1053000   0.84615649   -6.9359444    310.70735  0.024589059  0.024667814            6 
 1054000   0.83281527   -6.9258043    311.92406  0.024661928  0.024651125           14 
 1055000   0.82516155   -6.9002248    311.55776  0.024609618  0.024634418           16 
 1056000   0.83330345   -6.8925053    312.48291   0.02465932  0.024617845            9 
 1057000   0.84082453   -6.8941147    313.06666  0.024682014  0.024601378           10 
 1058000   0.84297925    -6.893146    312.73068  0.024632221  0.024584974           13 
 1059000   0.82741186   -6.8770645    312.94326   0.02462569  0.024568368           15 
 1060000   0.83960952    -6.896889    313.17907  0.024620996  0.024551794           14 
 1061000   0.82140544   -6.8852773    312.73257  0.024562721  0.024535139            8 
 1062000   0.82051783   -6.9077358    312.99748   0.02456038  0.024518449            6 
 1063000   0.83145195   -6.9041298    312.57419  0.024504091  0.024501894           13 
 1064000   0.81094693   -6.8526457    313.63855  0.024564423  0.024485483            9 
 1065000    0.8177019   -6.8962114     313.5653  0.024535626  0.024469195           13 
 1066000    0.8103296   -6.8661303    313.71086  0.024523988  0.024452718           13 
 1067000   0.83150919   -6.8806412     313.0586  0.024450062  0.024436096           13 
 1068000   0.83376583   -6.8551987    314.09438  0.024507988  0.024419552            8 
 1069000   0.82017974   -6.8778975    313.66221  0.024451372  0.024403031            6 
 1070000   0.83078555   -6.8850097    313.81992  0.024440804  0.024386484            7 
 1071000   0.83166332     -6.88842    313.96907  0.024429588  0.024369914            8 
 1072000   0.80613961    -6.903719    313.07352  0.024337183  0.024353357            9 
 1073000   0.82421427   -6.8817491    314.18844   0.02440109  0.024336825            8 
 1074000   0.81022107   -6.9378171    313.36752  0.024314674  0.024320199            8 
 1075000    0.8289914   -6.9088348    313.34874    0.0242906  0.024303538            9 
 1076000   0.80450504   -6.9112724    313.88147  0.024309284  0.024286766           10 
 1077000    0.8216998   -6.9127517    313.90002  0.024288148  0.024269942            9 
 1078000   0.83163804   -6.9168424    313.46623  0.024232083  0.024253124           17 
 1079000   0.82340728   -6.9141394    313.99735  0.024250645  0.024236288           15 
 1080000   0.82590681   -6.9146175    314.34784  0.024255234  0.024219466            6 
 1081000   0.81078942    -6.900835    313.46336  0.024164613  0.024202789            9 
 1082000   0.82070778   -6.8918876     313.7953  0.024167845  0.024186078           19 
 1083000   0.81466413   -6.9140022     313.9078  0.024154186  0.024169341            4 
 1084000   0.82052365   -6.9207458    314.81469  0.024201621  0.024152705            9 
 1085000   0.81986463   -6.8942059    314.38146  0.024146042  0.024136099            6 
 1086000   0.81978952   -6.9103882    315.81371   0.02423371  0.024119459            6 
 1087000    0.8118223   -6.9000577    314.58989  0.024117593  0.024102957           16 
 1088000   0.80888675   -6.8991103    315.64864   0.02417652  0.024086539           11 
 1089000   0.83143095   -6.9072792      315.951  0.024177456  0.024070098           11 
 1090000   0.82781433   -6.9146908    315.30551  0.024105926   0.02405376            5 
 1091000   0.81570214   -6.9108732    315.33937  0.024086417   0.02403738           10 
 1092000   0.81413669    -6.903252    315.12766  0.024048204  0.024020802           10 
 1093000   0.81219172   -6.9382217    314.41024  0.023971504  0.024004228           12 
 1094000   0.80878083   -6.8951024    314.94649  0.023990439  0.023987602           19 
 1095000   0.82005357   -6.9254327    316.16613  0.024061349  0.023971126            7 
 1096000   0.81298166   -6.9077616     316.1778  0.024040283  0.023954685            8 
 1097000   0.80156456   -6.9231359    316.37247  0.024033157  0.023938238           27 
 1098000   0.81433247   -6.9056405    316.61777  0.024029886  0.023921692           11 
 1099000    0.8188063   -6.9259066    315.47926  0.023921691  0.023905237            7 
 1100000   0.80483548   -6.9156944    316.31306  0.023963111  0.023888872           10 
 1101000   0.80692733   -6.9374163    316.69601  0.023970331  0.023872495           11 
 1102000   0.83221055    -6.922459    316.86398  0.023961281  0.023856192           10 
 1103000   0.81287019   -6.9486502    317.60769  0.023995746  0.023839935           11 
 1104000    0.8180159   -6.9076102    316.92393  0.023922398  0.023823636           11 
 1105000    0.8204196   -6.9413739    317.13055  0.023916331  0.023807395           12 
 1106000   0.80009946   -6.9232261    317.50351  0.023922808  0.023791244           12 
 1107000   0.83245384   -6.8968799     317.3848  0.023892261  0.023775218           23 
 1108000   0.81362333   -6.9277373    316.58023  0.023810186  0.023759025            6 
 1109000   0.82633268   -6.9179222    317.75698   0.02387714    0.0237428            7 
 1110000   0.80426333   -6.9188806    317.82245  0.023860545   0.02372658            6 
 1111000   0.81712749   -6.8874672    317.49083  0.023814193   0.02371032           12 
 1112000   0.80352693   -6.9026213    317.25961   0.02377545  0.023694061            7 
 1113000   0.81576195   -6.9406525    317.74107  0.023790137  0.023677762            5 
 1114000   0.79326493   -6.9563668    317.70989  0.023766449  0.023661421           28 
 1115000    0.8144236   -6.9579922    317.85991  0.023756346   0.02364505           27 
 1116000   0.82421116   -6.9543134    317.20778  0.023686364  0.023628718           11 
 1117000   0.80772738   -6.9357833     317.8765  0.023715047  0.023612428           12 
 1118000   0.80757824   -6.9041081    318.33147  0.023727748  0.023596159           10 
 1119000   0.82258101    -6.914845    317.93799  0.023677241  0.023579963            9 
 1120000   0.81318572   -6.9369473    317.95526  0.023657385  0.023563751           19 
 1121000   0.81863817    -6.947122    318.44717  0.023672849  0.023547528            9 
 1122000    0.8079318   -6.9051093    318.30742  0.023641371  0.023531331           10 
 1123000   0.80804938   -6.9441601    317.82728   0.02358469  0.023515197            6 
 1124000   0.80996039   -6.9419603    318.00056  0.023576554  0.023499022           17 
 1125000   0.79173702   -6.9676828    318.11841  0.023564327   0.02348274           11 
 1126000   0.82491339   -6.9305981    318.74376   0.02358968  0.023466457           16 
 1127000    0.8100566   -6.9563617    318.43415  0.023545856   0.02345019           11 
 1128000   0.82573308   -6.9549131     318.5728  0.023535224  0.023433899            8 
 1129000    0.8277924   -6.9138455    319.00155  0.023546025  0.023417611            7 
 1130000   0.80261383   -6.9491676    318.93998  0.023520647  0.023401423            5 
 1131000   0.80127572   -6.9625269     319.1992   0.02351895  0.023385267           12 
 1132000   0.79831465   -6.9527177    319.12973   0.02349306  0.023369048           11 
 1133000   0.80476237   -6.9576412    319.35093  0.023488594  0.023352803           12 
 1134000   0.78215012   -6.9504555    318.68941  0.023419269   0.02333661            6 
 1135000   0.80710184    -6.943644    319.21382  0.023437138    0.0233204           16 
 1136000   0.78885709   -6.9745845    319.59858  0.023444732  0.023304234           13 
 1137000   0.81604591   -6.9404824     320.0606  0.023457974  0.023288117           10 
 1138000    0.8029188    -6.933132    319.44519  0.023392296  0.023272113            3 
 1139000   0.80806817   -6.9481287    319.53926   0.02337864  0.023255979            7 
 1140000   0.77895866   -6.9353188    319.82728  0.023379187  0.023239804           17 
 1141000   0.80261597   -6.9326887    318.82261   0.02328532  0.023223682            8 
 1142000   0.80927121   -6.9203597    320.36556  0.023377522  0.023207474           23 
 1143000   0.79671277   -6.9476523    319.62646  0.023303183  0.023191238           10 
 1144000   0.82360995   -6.9689164    318.83699  0.023225306  0.023174928           18 
 1145000   0.79791331   -6.9774331    318.90011  0.023209615  0.023158676           11 
 1146000   0.80194365   -6.9559954    319.94649  0.023265451  0.023142417            6 
 1147000   0.81385321   -6.9536195    320.13854  0.023259121   0.02312621            8 
 1148000   0.79545033   -6.9350095    320.62512  0.023274181  0.023110146            5 
 1149000   0.80947215   -6.9484335    319.69301  0.023186322  0.023094029           10 
 1150000   0.79631524   -6.9611872    320.05884  0.023192669   0.02307793           10 
 1151000   0.79636731   -6.9647969     319.3081  0.023118166   0.02306165           15 
 1152000   0.79664471   -6.9765047    320.45124   0.02318079  0.023045273           32 
 1153000   0.78439857   -6.9504818    319.91169  0.023121689  0.023028942           13 
 1154000   0.80013625   -6.9647445    320.17862  0.023120929  0.023012781            7 
 1155000   0.79569672   -6.9767254    320.25313  0.023106287  0.022996594            8 
 1156000   0.79451213   -6.9479283    321.00295  0.023140351  0.022980504            8 
 1157000   0.79086754   -6.9480717    320.47556  0.023082365  0.022964429           21 
 1158000   0.80258244   -6.9682978    319.75638  0.023010678  0.022948437           10 
 1159000   0.79436042   -6.9974749    320.34123  0.023032875  0.022932285            4 
 1160000    0.7788121   -6.9924581     321.0438  0.023063491  0.022916148            6 
 1161000   0.80871892   -6.9777064    321.37958  0.023067727  0.022900131            7 
 1162000   0.77978858   -6.9635313    321.05849  0.023024849  0.022883952            7 
 1163000   0.79552124   -6.9723232     320.5836  0.022971023  0.022867808           21 
 1164000   0.78852924   -6.9702309    320.75836    0.0229638   0.02285157            9 
 1165000   0.78493567   -6.9702169    321.49584  0.022996841  0.022835421           18 
 1166000    0.7851336    -6.968701     320.7437  0.022923364   0.02281926           14 
 1167000   0.80094708   -6.9903403    321.03572  0.022924573  0.022803093           14 
 1168000   0.77353765   -6.9748673    320.28586  0.022851445  0.022786885           17 
 1169000    0.7879764   -6.9785112    320.55846   0.02285133  0.022770517            9 
 1170000   0.77778347   -6.9863521    321.21677  0.022878687  0.022754222           15 
 1171000    0.7904741   -6.9922062    321.33334  0.022867445   0.02273802            7 
 1172000   0.78173873   -7.0081912    321.16179  0.022835736  0.022721815           11 
 1173000   0.78441082   -6.9716954    322.20443  0.022890341    0.0227056            9 
 1174000   0.76883699   -6.9776018    320.94038  0.022781117  0.022689345            8 
 1175000   0.78728023   -7.0176158    321.06153  0.022770321  0.022673109            6 
 1176000   0.79567183    -6.972095    321.41993  0.022776356  0.022656923            6 
 1177000   0.76618509   -6.9956786    321.30269  0.022748704  0.022640755            8 
 1178000   0.78590317   -6.9844525    321.01406  0.022708974  0.022624566            6 
 1179000   0.79504662   -7.0001301     321.1252  0.022697568   0.02260835           13 
 1180000   0.77601842    -7.002897    321.67741  0.022717331   0.02259213           12 
 1181000   0.76714675   -6.9876438    322.20188  0.022735103  0.022576003            8 
 1182000   0.78837467   -6.9694486    322.17563  0.022714018  0.022559828           17 
 1183000   0.79095688    -6.960373    322.70573  0.022732159  0.022543781           17 
 1184000   0.79464848   -6.9938468    321.40371   0.02262132  0.022527679           12 
 1185000   0.78716798   -6.9804267    323.22691  0.022730444  0.022511629           13 
 1186000   0.75963555   -7.0305924    322.20621   0.02263956  0.022495466           14 
 1187000   0.78150535   -7.0180532    321.64268  0.022580924  0.022479261           11 
 1188000   0.76766171   -6.9956855    321.84727  0.022576268  0.022463163           20 
 1189000   0.77372356    -7.013292    321.25267  0.022515606  0.022447078           10 
 1190000   0.77251404   -6.9869066    322.53627  0.022586574  0.022430918            9 
 1191000   0.78228728   -7.0127241    322.43815  0.022560744  0.022414804           13 
 1192000   0.78295619   -6.9978494    322.32078  0.022533611   0.02239863            7 
 1193000   0.76462059   -7.0191673    322.71898  0.022542539  0.022382585            6 
 1194000   0.77999685   -6.9899098    322.84364  0.022532359  0.022366559            8 
 1195000   0.79241881   -7.0013914    323.01598  0.022525522  0.022350622            9 
 1196000   0.77446023   -6.9898238    323.51161  0.022541221  0.022334668            9 
 1197000   0.77620001   -7.0257576    321.87554  0.022408489  0.022318684           14 
 1198000    0.7663666   -7.0048936    323.26534  0.022486459  0.022302702            9 
 1199000   0.77048858   -6.9843832    322.42074  0.022409003  0.022286774            7 
 1200000   0.78777437   -7.0311498    322.24157  0.022377887  0.022270791            7 
 1201000   0.75736164   -7.0165013    322.61616  0.022385246  0.022254724            9 
 1202000   0.77046865   -7.0367637    322.66558  0.022370049  0.022238721           17 
 1203000   0.77833231   -7.0322013    323.57501  0.022414451  0.022222907           10 
 1204000   0.77630342   -6.9796196    323.74141  0.022407351  0.022207105           27 
 1205000   0.77879225   -7.0211508    323.48713  0.022371171  0.022191311           27 
 1206000   0.78332552    -7.003477    323.96965  0.022385962  0.022175425            6 
 1207000   0.77334045   -7.0309388     323.7675  0.022353459  0.022159648            8 
 1208000   0.78226155   -7.0382465    323.27171  0.022300753  0.022143783           23 
 1209000   0.76535481   -7.0157565    324.33579  0.022355651  0.022127848           15 
 1210000   0.77687096   -7.0191471    323.83687  0.022302815  0.022111977            5 
 1211000    0.7636347   -7.0453721    324.18771   0.02230854   0.02209607           10 
 1212000   0.77018965   -7.0421213     323.9042  0.022270641  0.022080233           21 
 1213000   0.76932634   -7.0453939    323.92733   0.02225387  0.022064401           11 
 1214000   0.77226485     -6.99569    324.75397  0.022292283  0.022048677            8 
 1215000   0.78344405   -7.0530599    323.14648  0.022163682  0.022032805           17 
 1216000   0.76461332   -7.0006209    323.70083  0.022183445  0.022016903           11 
 1217000   0.76731852    -7.032384    323.93023  0.022180925   0.02200111            9 
 1218000    0.7741179   -7.0308718    323.86157  0.022158016  0.021985294            8 
 1219000   0.75297655   -7.0570598    324.10387  0.022156404  0.021969401           19 
 1220000   0.77900603   -7.0350502    324.03339  0.022133429  0.021953549           10 
 1221000   0.77284651   -7.0350503    324.18929  0.022125941   0.02193778           16 
 1222000   0.78834892   -7.0397527    324.75623  0.022146497  0.021921974           13 
 1223000   0.75328887   -7.0485003    323.92583  0.022071806  0.021906146           22 
 1224000   0.75436077   -7.0230764    323.91428  0.022052987  0.021890295           13 
 1225000   0.78647087   -7.0322613    323.89469  0.022033652  0.021874412            7 
 1226000   0.76354712   -7.0438412    324.16255  0.022033887  0.021858573           11 
 1227000   0.77855536    -7.015117    324.58273  0.022044467  0.021842857            8 
 1228000   0.75815529   -7.0020526    324.32356  0.022008928  0.021827141           12 
 1229000   0.76292742   -7.0079389    324.72052  0.022017936  0.021811497           16 
 1230000   0.75653434   -7.0284892    324.86789   0.02201002  0.021795884           11 
 1231000   0.76289258   -7.0278141    325.50588  0.022035329  0.021780354           13 
 1232000   0.76937236   -7.0251803    324.82512  0.021971396  0.021764708            9 
 1233000   0.76397429   -7.0171335    325.23369   0.02198119  0.021749033           11 
 1234000   0.75083098   -7.0346561    325.15016  0.021957736  0.021733287           14 
 1235000   0.76627685   -7.0549002    324.12801  0.021870986   0.02171747           20 
 1236000   0.76610182   -7.0353044    324.72891  0.021893805  0.021701637           13 
 1237000   0.75869728   -7.0162535    325.22002   0.02190919  0.021685898           19 
 1238000    0.7508804   -7.0403352    324.71857  0.021857739  0.021670101           18 
 1239000    0.7710722   -7.0454479    325.55198  0.021896151  0.021654337           29 
 1240000   0.73123383   -7.0462177    325.32757  0.021863412  0.021638675           20 
 1241000   0.76331274   -7.0470716    324.81191  0.021811168  0.021622944            9 
 1242000   0.75635825   -7.0475646    325.65123  0.021849921  0.021607186           12 
 1243000   0.75833508   -7.0242192    326.30804  0.021876377  0.021591449            6 
 1244000   0.73630459    -7.017977    325.35167  0.021794726  0.021575801           10 
 1245000   0.75471687   -7.0476032    325.38499  0.021779451  0.021560142            7 
 1246000   0.76013151   -7.0294688     325.5447  0.021772652  0.021544418            6 
 1247000    0.7602567   -7.0339147    325.33908  0.021741451  0.021528787           19 
 1248000   0.74682607   -7.0375767    325.09148  0.021707497  0.021513085           12 
 1249000   0.74345673   -7.0409343    325.61583  0.021725102   0.02149738            5 
 1250000   0.74554074   -7.0465088    325.10264  0.021673509  0.021481703           13 
 1251000   0.76864726   -7.0560416    325.33924  0.021671945  0.021466052            8 
 1252000   0.76006421   -7.0415515    325.66848  0.021676549  0.021450449            9 
 1253000   0.75074215   -7.0393375    325.82535  0.021669683  0.021434806           18 
 1254000   0.73559666   -7.0465264    326.38444  0.021689556  0.021419166           18 
 1255000   0.75626885    -7.041004    326.32873  0.021668575  0.021403545           10 
 1256000   0.74714281   -7.0545512    326.38265    0.0216549  0.021388029            9 
 1257000   0.76107196   -7.0805656    325.98759  0.021611481   0.02137248           33 
 1258000   0.76152117   -7.0468345    325.97409  0.021593408  0.021356897            8 
 1259000   0.77819094   -7.0517075    325.70815  0.021558655  0.021341316           24 
 1260000   0.75701729   -7.0649691    325.35803  0.021518388  0.021325626           14 
 1261000   0.74028595   -7.0804921    326.20711  0.021557435  0.021309985           11 
 1262000   0.75912363   -7.0729547    325.65157  0.021503669  0.021294288           35 
 1263000   0.74538061   -7.1004108    325.42784  0.021471882  0.021278586           19 
 1264000   0.75276817   -7.0718048    325.81306  0.021480291  0.021262887           29 
 1265000     0.748396   -7.0663143    326.17026  0.021486842  0.021247296           23 
 1266000   0.71999958   -7.0601878    326.60473  0.021498468  0.021231823           58 
 1267000   0.75020722    -7.050797     327.0108  0.021508208    0.0212164           27 
 1268000   0.73744495   -7.0689417    326.69184  0.021470284  0.021200921           14 
 1269000   0.75153774    -7.077032    327.20965  0.021487369  0.021185379           63 
 1270000   0.74567304   -7.0776882    326.32951  0.021412698  0.021169818           41 
 1271000   0.73685931    -7.096935    326.66507  0.021417852   0.02115426           54 
 1272000   0.72920335   -7.1069582    325.86852  0.021348829  0.021138609           54 
 1273000   0.75094835   -7.0922649    325.98935  0.021339968  0.021123043           22 
 1274000   0.74215695   -7.0593076    326.91249  0.021383601  0.021107488           20 
 1275000   0.73531877   -7.0842809    326.33661   0.02132919  0.021091929           20 
 1276000   0.76189616   -7.0765056    325.90333  0.021284178  0.021076337           31 
 1277000     0.750603   -7.0778003    326.18903  0.021286154  0.021060688           40 
 1278000   0.74356992   -7.0628826    325.88449  0.021249641  0.021045069           25 
 1279000   0.74119653   -7.1125794    326.51192  0.021273907  0.021029443           35 
 1280000   0.72746028   -7.0832144    325.87134  0.021215582  0.021013894           31 
 1281000   0.74457052   -7.0719296    326.01158  0.021208143  0.020998375           19 
 1282000   0.74839195   -7.0685069    326.95733  0.021253077  0.020982948           14 
 1283000   0.73419657    -7.084293    327.20399  0.021252533  0.020967506           15 
 1284000   0.72260026   -7.0808974    327.64632  0.021264689   0.02095204           13 
 1285000   0.74675277   -7.0765102    327.48481  0.021237666   0.02093666           10 
 1286000   0.73158878   -7.0872161    327.41398  0.021216562  0.020921288            9 
 1287000   0.74470756   -7.0970858    326.85079   0.02116361  0.020905901           18 
 1288000   0.73874723   -7.0798975    327.27985  0.021174939  0.020890482           23 
 1289000   0.72385869   -7.0891632    327.66003   0.02118309  0.020875048           16 
 1290000   0.73148053    -7.098723    326.84276  0.021113874  0.020859731           33 
 1291000   0.72857438   -7.1040296     326.9051  0.021101543  0.020844357           35 
 1292000    0.7432726   -7.1099549      327.315  0.021111649  0.020828901           13 
 1293000   0.73275399   -7.0916239    327.79891  0.021126509  0.020813492           21 
 1294000   0.73044749   -7.0797702    328.17659  0.021134505    0.0207982           10 
 1295000   0.71666404    -7.084272      327.608  0.021081596  0.020782904           27 
 1296000   0.74731236   -7.0978061    327.36072  0.021049429  0.020767654           12 
 1297000   0.72320356   -7.1065038    327.89731  0.021067676  0.020752456           30 
 1298000   0.72510802   -7.0852734    328.00048  0.021058069  0.020737232           29 
 1299000   0.72725653   -7.1085043    327.57058  0.021014279  0.020722012           12 
 1300000   0.76533123   -7.0717527    328.05922  0.021029437  0.020706848           22 
 1301000   0.75018431   -7.1153478    327.24658  0.020961221  0.020691693           13 
 1302000   0.73644555   -7.0742396    328.26252  0.021010146  0.020676459           15 
 1303000   0.73546743   -7.1182351    327.75701  0.020961692  0.020661215           36 
 1304000   0.74396413   -7.0763909    327.62272  0.020937035  0.020645998           26 
 1305000    0.7312079   -7.1071094    327.39895  0.020906702   0.02063081           17 
 1306000    0.7405237   -7.0975093    328.44443  0.020957404  0.020615618           12 
 1307000   0.75373738   -7.1008917    328.38434  0.020937538  0.020600485           19 
 1308000   0.73603624   -7.0963883     327.9302  0.020892597  0.020585374           52 
 1309000   0.72671187   -7.0911666    328.49277   0.02091245  0.020570244           18 
 1310000   0.73799526   -7.1186703    328.23871  0.020880325  0.020555092           56 
 1311000    0.7208509   -7.1155204    328.09579  0.020855313  0.020539999           44 
 1312000   0.73000988   -7.0883052    328.61331  0.020872289  0.020524961           17 
 1313000   0.71946517   -7.0897301    328.74254  0.020864594  0.020509939           10 
 1314000   0.72282499   -7.1208457    328.27759  0.020819228  0.020494877           13 
 1315000   0.74877694   -7.0942601    328.56704  0.020821739  0.020479803           14 
 1316000   0.71995515   -7.1088456    328.23027  0.020784592  0.020464801           17 
 1317000   0.73356695   -7.1110977    329.04205  0.020820175   0.02044973           23 
 1318000    0.7348762    -7.130516    328.97016  0.020799833  0.020434662           14 
 1319000   0.73143212   -7.1186612    328.60933  0.020761267  0.020419627           10 
 1320000   0.72382809   -7.1101764    328.76911  0.020755626  0.020404673           16 
 1321000   0.73342232   -7.0971211    328.68479  0.020734594  0.020389659           12 
 1322000   0.73263815   -7.0955698    329.35406  0.020761098  0.020374759            9 
 1323000   0.72490655   -7.0973185     329.0559  0.020726625  0.020359874           34 
 1324000   0.72116961   -7.0912871    329.40267  0.020732796  0.020344972           15 
 1325000   0.72564563   -7.1075119    329.61206  0.020730318  0.020330156           13 
 1326000   0.72138524   -7.1056594    329.44036  0.020703894  0.020315403            9 
 1327000    0.7310793   -7.1239974    329.60023  0.020698331  0.020300582           15 
 1328000   0.70835324   -7.1269003    329.69563  0.020688732  0.020285785           19 
 1329000   0.72955717   -7.1402235    329.74731  0.020676405  0.020270945           12 
 1330000   0.71448276   -7.1053457     328.4169    0.0205775  0.020256151           22 
 1331000    0.7214495   -7.1128493    329.87584  0.020653384  0.020241348           14 
 1332000   0.72057453   -7.1068112    329.90982  0.020640004  0.020226547           31 
 1333000   0.70862053   -7.1273246    329.49654  0.020598684  0.020211686           17 
 1334000   0.73195336   -7.1096665    330.22693  0.020628868  0.020196883           17 
 1335000   0.72385135   -7.0989019    329.86762  0.020590987  0.020182085           20 
 1336000   0.71727379   -7.1014334    329.90777  0.020578079  0.020167365           45 
 1337000   0.71440655   -7.0949462     329.7767  0.020554519  0.020152621           34 
 1338000   0.72333229   -7.0973952    329.39551  0.020515415  0.020137874           64 
 1339000   0.72508333   -7.1109997    330.38119  0.020561438  0.020123196           31 
 1340000    0.7057941   -7.1367949     330.4581  0.020550877   0.02010846           18 
 1341000   0.72674427   -7.1272577    330.02676  0.020508747  0.020093703           20 
 1342000   0.70820857   -7.1673962    330.16941  0.020502323  0.020078877           48 
 1343000    0.7186506    -7.151718    329.35071  0.020436256  0.020064138           20 
 1344000   0.70633316    -7.145681    330.11182  0.020468243   0.02004942           33 
 1345000    0.7073743   -7.1664176     330.9456  0.020504684  0.020034763           26 
 1346000   0.72587436   -7.1324933     330.7611  0.020478027  0.020020147           34 
 1347000   0.72285187   -7.1387997    330.77745  0.020463836  0.020005563           16 
 1348000   0.71053403   -7.1091915    330.06727  0.020404752  0.019990982           17 
 1349000   0.72351904   -7.1162086    330.96934  0.020445351  0.019976412           22 
 1350000    0.7303157   -7.1518064    331.06775  0.020436281  0.019961877           13 
 1351000   0.71002425   -7.1372376     330.6267  0.020393949  0.019947315           20 
 1352000   0.72212471   -7.1118782    330.64504  0.020379995  0.019932771           15 
 1353000   0.72855717   -7.1271044    330.72697  0.020369978  0.019918261           19 
 1354000   0.71192931    -7.133991    330.72464   0.02035479  0.019903775           17 
 1355000   0.69838703   -7.1420943    331.07058  0.020361044  0.019889214           13 
 1356000    0.7116796   -7.1425078    330.46146  0.020308595  0.019874665           16 
 1357000     0.712971   -7.1424679    330.16005   0.02027512  0.019860164           16 
 1358000   0.70930863   -7.1445711    331.19568  0.020323741  0.019845687           17 
 1359000   0.69715494   -7.1424925     331.1839  0.020308063  0.019831207           32 
 1360000   0.69634615   -7.1376439    330.75042   0.02026657  0.019816694           10 
 1361000   0.71540981   -7.1003457    329.96581  0.020203638  0.019802184           21 
 1362000   0.72943834   -7.1524099    330.86249  0.020243667  0.019787668           16 
 1363000   0.71766233   -7.1597962    331.22854  0.020251195  0.019773084           17 
 1364000   0.70333909   -7.1459376    330.71815  0.020205166  0.019758536           11 
 1365000   0.70506923   -7.1809112     331.3424  0.020228473  0.019744029           49 
 1366000   0.71695747   -7.1471069    330.76212  0.020178265  0.019729479           19 
 1367000   0.71009679    -7.139065    330.94001  0.020174349  0.019714948           17 
 1368000   0.70417235   -7.1727853    331.25029  0.020178502  0.019700462           28 
 1369000   0.71309471   -7.1439916    330.81768  0.020137429  0.019686001           24 
 1370000   0.71545265   -7.1578344    331.31976   0.02015327  0.019671582           26 
 1371000   0.70890881   -7.1228824    331.93399  0.020175905  0.019657223           14 
 1372000   0.68901715   -7.1505361    330.77557  0.020090839  0.019642911           19 
 1373000   0.71621193   -7.1456756    331.60071  0.020126287  0.019628553           15 
 1374000   0.69351221   -7.1474549    331.05512  0.020078549  0.019614165           25 
 1375000   0.72481403   -7.1561904    330.98708  0.020059823  0.019599763           13 
 1376000   0.70659826   -7.1481349    331.48861  0.020075618  0.019585383           20 
 1377000   0.69456335   -7.1766016     331.8575  0.020083364   0.01957102           18 
 1378000   0.70460887   -7.1660114    331.78359  0.020064319  0.019556707           14 
 1379000   0.70038493   -7.1307956    332.17418  0.020073373  0.019542407           15 
 1380000   0.69841956   -7.1736114    331.57159  0.020022439  0.019528107           19 
 1381000   0.72159954   -7.1544005    331.27112  0.019989809  0.019513762           13 
 1382000   0.69861887   -7.1560682    331.55826  0.019992659  0.019499468           22 
 1383000    0.6925371   -7.1577154    331.53786  0.019976974  0.019485219           25 
 1384000    0.7179003   -7.1430419    332.32474  0.020009919  0.019470943           22 
 1385000   0.69676359   -7.1635722    331.82531  0.019965422  0.019456632           28 
 1386000    0.6910035   -7.1862375    331.62972  0.019939257  0.019442321           18 
 1387000   0.69592332   -7.1406974    331.95074  0.019944169  0.019428046           13 
 1388000   0.70338797   -7.1351578    332.00272   0.01993292  0.019413865           21 
 1389000   0.69528836   -7.1481238    331.49954  0.019888382   0.01939965           21 
 1390000   0.69674892   -7.1536114    332.09026  0.019909488  0.019385453           20 
 1391000   0.68670461   -7.1610568    332.15265  0.019898913  0.019371225           16 
 1392000   0.69884474   -7.1422566     332.3032   0.01989363  0.019357043           16 
 1393000   0.68876202   -7.1620425    331.85389   0.01985247  0.019342796           30 
 1394000   0.69789271   -7.1768256    331.27005  0.019803327  0.019328493           17 
 1395000   0.70236328   -7.1522931    331.69398  0.019814455  0.019314212           24 
 1396000    0.6826094   -7.1771264    331.71025  0.019801233  0.019299945           27 
 1397000   0.69442348   -7.1890683    331.75521  0.019789741  0.019285673           26 
 1398000   0.70508415   -7.1643771    332.44598  0.019816761  0.019271453           19 
 1399000   0.70531488   -7.1996558    332.02516  0.019777529  0.019257266           21 
 1400000   0.70461591   -7.1790689    331.89633  0.019755734  0.019243074           22 
 1401000   0.68276091   -7.1678533    332.25913  0.019763212  0.019228894           24 
 1402000   0.68496996   -7.1990412    331.60801  0.019710414  0.019214699           22 
 1403000   0.67846431   -7.1880266    332.08665  0.019724795   0.01920049           18 
 1404000   0.69649649    -7.178646    331.98475  0.019704698  0.019186339           17 
 1405000     0.691743   -7.1778945    331.87584  0.019684213  0.019172145           16 
 1406000   0.70114455   -7.1939252    331.77184  0.019664049   0.01915793           10 
 1407000   0.67346972   -7.1612822    331.80801  0.019652216  0.019143756           20 
 1408000    0.7008645    -7.205285    331.36541  0.019612063  0.019129531           15 
 1409000   0.70540663   -7.1852246    331.83494  0.019625913  0.019115353           11 
 1410000   0.68647546   -7.1670324    331.93308  0.019617794  0.019101202           13 
 1411000   0.69768839   -7.1663931    331.99053  0.019607284  0.019087038           17 
 1412000   0.69934075   -7.1878589    331.70744   0.01957669  0.019072879           23 
 1413000   0.68010522   -7.2012158    332.50966  0.019610147  0.019058713           25 
 1414000   0.67945769   -7.1969082    332.00362  0.019566456  0.019044571           18 
 1415000    0.6805676   -7.1825219    331.97388  0.019550876   0.01903045           22 
 1416000   0.68260101   -7.1798859    332.16563  0.019548354  0.019016336           18 
 1417000   0.68660529   -7.1754756    332.13169  0.019532563  0.019002213           23 
 1418000   0.70714555   -7.2027222     332.0164  0.019512012  0.018988119           52 
 1419000   0.68546922    -7.196912    332.25266  0.019512136  0.018974025           28 
 1420000   0.69284751   -7.1847043    332.30579  0.019501514   0.01895992           17 
 1421000   0.68637838   -7.1923995    332.06039  0.019473398  0.018945862           21 
 1422000   0.69100074   -7.1897589    332.38985  0.019479012  0.018931813           13 
 1423000   0.69709118   -7.2115177    333.07436  0.019505409  0.018917799           23 
 1424000    0.6878969   -7.2069342     333.0209  0.019488583  0.018903759           26 
 1425000   0.68148143   -7.1616967     333.3504  0.019494175  0.018889779           10 
 1426000   0.68604896   -7.1835155    332.82791  0.019449971  0.018875777           29 
 1427000   0.67646971   -7.1868911    332.03164  0.019389841  0.018861801           21 
 1428000   0.66745095   -7.1889649    332.65522  0.019412653  0.018847851           21 
 1429000   0.67981093   -7.1872188    333.14548  0.019427658  0.018833928           19 
 1430000   0.66698284   -7.2058112     332.4287  0.019372302  0.018819937           31 
 1431000   0.67863074   -7.2088232     332.5359  0.019365007  0.018805934           29 
 1432000   0.67951328      -7.2146    332.64053  0.019357573  0.018791973           32 
 1433000   0.68075268   -7.2127591    332.44542  0.019332718  0.018777982           14 
 1434000   0.66831597   -7.2093346    332.85355  0.019342954  0.018763993           16 
 1435000   0.67794925   -7.1841934    332.61057  0.019315364  0.018749969           12 
 1436000   0.66256304   -7.2165165    332.15509  0.019275481  0.018735978           29 
 1437000   0.68109926    -7.219445    331.61259  0.019230607  0.018722003           59 
 1438000   0.67488764   -7.2269431    332.18405  0.019250351  0.018708055           24 
 1439000   0.68704903   -7.2021685    333.59104  0.019318452   0.01869417           53 
 1440000   0.67056943   -7.2372438    332.22448  0.019225954  0.018680217           18 
 1441000   0.66888914   -7.2135993    332.76235  0.019243717  0.018666281           55 
 1442000   0.67805409   -7.1945005    332.44571  0.019212073  0.018652354           26 
 1443000   0.66926699   -7.2117587    332.04454  0.019175591  0.018638402           43 
 1444000   0.67341301   -7.2077779     332.1356  0.019167567  0.018624462           34 
 1445000    0.6746003   -7.2212075    332.57484  0.019179633  0.018610557           37 
 1446000   0.66937409   -7.2055543      332.908  0.019185569  0.018596677           22 
 1447000   0.68033891    -7.209683    332.83348  0.019168019  0.018582814           27 
 1448000   0.68506416   -7.2101568    332.62993  0.019143067   0.01856898           21 
 1449000   0.66934998   -7.2013763    333.05341   0.01915421  0.018555162           48 
 1450000   0.68550917   -7.2085442    332.72881  0.019122345  0.018541349           27 
 1451000   0.67735807   -7.2122232    332.31811  0.019085579  0.018527524           66 
 1452000   0.67141902   -7.2248689    332.40765  0.019077574  0.018513659           56 
 1453000   0.65642059   -7.2258502    332.62534  0.019076929  0.018499771           51 
 1454000   0.68005194    -7.228333     332.9377  0.019081711  0.018485944           48 
 1455000   0.67313638   -7.2114394    333.70278  0.019112416  0.018472127           58 
 1456000   0.66430902   -7.2203535    332.69328  0.019041511  0.018458342           43 
 1457000   0.67776772    -7.219213    332.42066  0.019012849  0.018444539           28 
 1458000   0.67687126   -7.2002554    333.48014  0.019060364    0.0184308           24 
 1459000   0.67437193   -7.2046748    333.02429  0.019021264  0.018417034           63 
 1460000   0.66619077   -7.2140248    333.64491  0.019043659  0.018403298           35 
 1461000   0.66524056   -7.2185492    333.80224  0.019039598  0.018389567           62 
 1462000   0.67156911   -7.2162853    333.29895  0.018997888  0.018375822           45 
 1463000   0.66912845    -7.215866     333.0359  0.018969919   0.01836209           59 
 1464000   0.67068357   -7.2337239    333.23815  0.018968474  0.018348377           51 
 1465000   0.67814138    -7.240293    332.15364  0.018893836  0.018334627           64 
 1466000   0.66312098   -7.2450547    332.62628  0.018907815  0.018320833           44 
 1467000   0.67704079   -7.2204471    333.33493  0.018935181  0.018307061           36 
 1468000   0.67259968   -7.2294901    332.91259  0.018898308   0.01829328           74 
 1469000   0.67824347   -7.2403855     333.2084  0.018902224  0.018279533           73 
 1470000   0.68477209   -7.2405949    333.14395  0.018885711  0.018265835           84 
 1471000   0.66814907   -7.2275473    332.62675  0.018843573  0.018252135           81 
 1472000   0.66995877   -7.2371531    333.63292  0.018887733  0.018238487           86 
 1473000    0.6596773    -7.245857    332.81108  0.018828416   0.01822479          204 
 1474000   0.65631576   -7.2504827    332.56272  0.018801601  0.018211112           80 
 1475000   0.65983677   -7.2607936    332.91873  0.018808968  0.018197398           69 
 1476000   0.66397194   -7.2449029    334.06681  0.018861044  0.018183738          106 
 1477000   0.66793494   -7.2573284    332.93848  0.018784613  0.018170067          108 
 1478000    0.6652318   -7.2658833    333.52597  0.018805028  0.018156432           98 
 1479000   0.65524213   -7.2564752    332.56731  0.018738298   0.01814279          146 
 1480000   0.67806033   -7.2359853    333.18831  0.018760603  0.018129178          164 
 1481000   0.66403906   -7.2480767    334.02928  0.018795255  0.018115584          140 
 1482000   0.66519884   -7.2649311    333.35721  0.018744782  0.018101954          185 
 1483000   0.66032503   -7.2595523    332.96525  0.018710117  0.018088313           79 
 1484000   0.65034057   -7.2340466    332.42263  0.018667039  0.018074675           75 
 1485000   0.66448167   -7.2502419    333.12861  0.018694086  0.018061046           74 
 1486000   0.65588868   -7.2584205    333.07229  0.018678347   0.01804742           87 
 1487000   0.66313818   -7.2492977    332.49462  0.018633413  0.018033845           84 
 1488000   0.66406925    -7.251734    332.46234  0.018619083  0.018020265          160 
 1489000    0.6620684   -7.2487127    332.87748  0.018629812  0.018006674           44 
 1490000   0.63870655   -7.2516201    333.51007  0.018652689   0.01799309           75 
 1491000   0.65928347   -7.2513175    333.59564  0.018644961  0.017979542           28 
 1492000   0.66006492   -7.2305494    333.21021  0.018610937  0.017965988           34 
 1493000   0.66532167   -7.2427722    333.45077  0.018611898  0.017952437           57 
 1494000   0.64375567   -7.2289795    333.82256  0.018620178  0.017938893           39 
 1495000   0.65979019   -7.2714153    333.26493   0.01857664  0.017925401           18 
 1496000   0.64898278   -7.2591679    333.20748  0.018561023   0.01791193           23 
 1497000   0.65783833   -7.2862708     333.2883  0.018553123  0.017898454           23 
 1498000   0.66572499    -7.250768    333.56138  0.018555929  0.017884996           20 
 1499000   0.66313784   -7.2642058    332.89217  0.018506347  0.017871554           40 
 1500000   0.65662392   -7.2828896     333.5343  0.018529683  0.017858073          138 
 1501000   0.66242981   -7.2833624    333.46816  0.018513666  0.017844582           81 
 1502000   0.64982023   -7.2670264    332.98401  0.018474479  0.017831102           84 
 1503000    0.6569651   -7.2515297    333.47948  0.018489659  0.017817684           54 
 1504000   0.65186751   -7.2735432    333.68339  0.018488663  0.017804279           65 
 1505000    0.6568287   -7.2530767    334.42295  0.018517329  0.017790897           31 
 1506000   0.65302289   -7.2430748    334.21054  0.018493279  0.017777575           61 
 1507000   0.65411048   -7.2290562    333.84572  0.018460834  0.017764261           51 
 1508000   0.65209132   -7.2710954    333.47611  0.018428167  0.017750946          114 
 1509000   0.65475346   -7.2629361     334.4708  0.018470886  0.017737637           97 
 1510000   0.65667657   -7.2576437    333.30973  0.018394577   0.01772434           43 
 1511000   0.65496406   -7.2709327    333.53372  0.018394756  0.017711023           82 
 1512000   0.64087517   -7.2641842    333.55214  0.018383606  0.017697693           90 
 1513000   0.66553575    -7.278786    333.53373  0.018370441  0.017684383           33 
 1514000   0.64377231   -7.2687488    333.54977   0.01835919  0.017671066           53 
 1515000   0.65447876   -7.2724805    333.61525  0.018350674  0.017657763           73 
 1516000   0.66107122   -7.2563761    334.20264  0.018370857  0.017644463           96 
 1517000   0.64628092   -7.2723757    334.22623  0.018360043  0.017631165           40 
 1518000   0.65310277   -7.2533433    334.32861  0.018353569  0.017617864           39 
 1519000   0.64215881   -7.2602975      334.191  0.018333937   0.01760459           50 
 1520000   0.66405276   -7.2788083    333.60497  0.018289746  0.017591297           34 
 1521000   0.63918864   -7.2770724    333.22766  0.018257049  0.017578002           40 
 1522000   0.64793935   -7.2767377    333.17915  0.018242398    0.0175647           44 
 1523000   0.65243929   -7.2714924    333.49733  0.018247829  0.017551435           43 
 1524000   0.64686909   -7.2674751    333.40837  0.018230991    0.0175382           62 
 1525000   0.65172481   -7.2812478    334.12331  0.018258104  0.017524979           70 
 1526000   0.65088828   -7.2990696    333.70932  0.018223532  0.017511764           80 
 1527000   0.64662982   -7.2750097    333.43688   0.01819673  0.017498537           95 
 1528000   0.63112407   -7.3047725    333.66237  0.018197119  0.017485321          114 
 1529000   0.64779342   -7.2934755    333.77746   0.01819149  0.017472092          114 
 1530000   0.65695175   -7.2737854    333.94403  0.018188673  0.017458904          103 
 1531000   0.63793265   -7.3034917    333.93985  0.018176565  0.017445681           66 
 1532000    0.6511924   -7.3000115    333.91809  0.018163516  0.017432493          133 
 1533000    0.6475503   -7.3156347    333.84131  0.018147494  0.017419299          115 
 1534000   0.63835619   -7.2835413    333.46323  0.018115126  0.017406126           95 
 1535000   0.63111668   -7.3072613    333.66494  0.018114274  0.017392957          107 
 1536000   0.64151973   -7.3051761    333.30877  0.018083158  0.017379781          102 
 1537000   0.63613921   -7.3201947      333.186  0.018064736  0.017366595           99 
 1538000   0.64499648   -7.3052054    333.34989  0.018061871  0.017353397          141 
 1539000   0.63821522    -7.306812    332.76089  0.018018242  0.017340189          163 
 1540000   0.62944349   -7.3141937    332.91535    0.0180149  0.017327012          211 
 1541000   0.63666601   -7.3092529    334.47691  0.018087655  0.017313864          222 
 1542000   0.63726046   -7.3267332    333.80707  0.018039725  0.017300738          169 
 1543000   0.62620707   -7.2928479    333.63747  0.018018874  0.017287619          137 
 1544000   0.64414703   -7.3049469    333.72398  0.018011873  0.017274509          138 
 1545000   0.65359877   -7.3174803    333.60463  0.017993777  0.017261388          133 
 1546000   0.62510139   -7.2966309    333.18804  0.017959683  0.017248273          152 
 1547000   0.64438439   -7.2959411    334.21978  0.018003651  0.017235181           81 
 1548000   0.64408654   -7.2929688    333.26874  0.017940824  0.017222116          148 
 1549000   0.62367117    -7.310259    333.69288  0.017952059  0.017209081          171 
 1550000   0.63013844    -7.302091    333.80806   0.01794667  0.017196042          167 
 1551000   0.63351416   -7.2998281    334.10504  0.017951055  0.017183005           95 
 1552000   0.63821596     -7.31797    334.11927  0.017940253   0.01716996          277 
 1553000   0.62928976   -7.3119465    334.39178  0.017943323  0.017156946          169 
 1554000   0.62511126   -7.3246551    333.69115  0.017894206  0.017143913          187 
 1555000   0.63599787   -7.3181404    333.69864    0.0178831  0.017130909          184 
 1556000   0.63932254    -7.318336    333.40784  0.017856033  0.017117867          212 
 1557000   0.62574553   -7.3446342    333.29131  0.017838328  0.017104833          197 
 1558000   0.62581912   -7.3278396    333.41489  0.017833488  0.017091797          298 
 1559000   0.63032821   -7.3184079    333.13155  0.017806903  0.017078794          143 
 1560000     0.610795   -7.3306981    333.33164  0.017806177  0.017065823          129 
 1561000   0.62941616   -7.3457043    333.65746  0.017812164   0.01705284          128 
 1562000   0.63138198   -7.3252017    333.99086  0.017818548   0.01703988          178 
 1563000   0.63360167   -7.3409627    333.49505  0.017780713  0.017026959          283 
 1564000   0.63249973   -7.3281249    334.18205  0.017805949   0.01701403          176 
 1565000   0.62162035    -7.330405    334.34787  0.017803401  0.017001099          336 
 1566000   0.62756204   -7.3224086    333.81755  0.017763812  0.016988179          278 
 1567000   0.62758101   -7.3687908    333.80955   0.01775205  0.016975279          111 
 1568000   0.62887921   -7.3305792    334.58825  0.017782114  0.016962394          152 
 1569000   0.61774413   -7.3251006     333.8846  0.017733407  0.016949513          168 
 1570000   0.62991563   -7.3454373    333.51107  0.017702286  0.016936654          289 
 1571000   0.62614324   -7.3513103    333.71388  0.017701776  0.016923805          220 
 1572000   0.63061487   -7.3395575    333.54831  0.017681738  0.016910953          172 
 1573000   0.63121706   -7.3523993    334.31498  0.017711114  0.016898097          132 
 1574000   0.61476985    -7.361507    333.97595  0.017681912  0.016885236          157 
 1575000   0.60764999   -7.3548129    333.10935  0.017624833  0.016872395          144 
 1576000   0.62510972   -7.3506935    333.69786  0.017644768  0.016859552          155 
 1577000   0.61960768   -7.3711754    334.22662  0.017661521  0.016846724          379 
 1578000   0.63081496   -7.3584188    333.39754  0.017606545  0.016833901          369 
 1579000   0.63215949   -7.3779199    333.70292  0.017611512  0.016821065          330 
 1580000   0.61776806   -7.3565244    334.08678  0.017620611  0.016808261          190 
 1581000     0.622215   -7.3550692    334.04536  0.017607282  0.016795462          402 
 1582000   0.60895266   -7.3577238    334.59008  0.017624846  0.016782691          462 
 1583000   0.62434322   -7.3627848    334.55167   0.01761169  0.016769915          173 
 1584000    0.6156254   -7.3403369    333.87313  0.017564874  0.016757148          262 
 1585000   0.61978581   -7.3499823    333.83556  0.017551817  0.016744375          224 
 1586000   0.61555699   -7.3556353    334.10381  0.017554845  0.016731617          364 
 1587000   0.61331636   -7.3504096      333.619  0.017518326  0.016718863          502 
 1588000   0.61458999   -7.3589978    334.31356  0.017543743  0.016706105          253 
 1589000   0.62237764   -7.3365654    333.38197  0.017483846  0.016693384          235 
 1590000   0.62372473   -7.3480924    334.24873  0.017518277  0.016680652          483 
 1591000   0.63714268   -7.3476365    333.42297  0.017464015  0.016667909          429 
 1592000   0.61756265   -7.3329513    333.67107  0.017466032  0.016655164          480 
 1593000   0.62033935   -7.3415589    334.21616  0.017483582  0.016642432          409 
 1594000   0.61063451   -7.3512735    333.93207  0.017457762  0.016629721          473 
 1595000   0.62089791   -7.3732623    334.03089   0.01745198  0.016617003          503 
 1596000   0.62598278   -7.3552022     333.7048  0.017424018  0.016604305          257 
 1597000   0.61491627   -7.3681467    333.36543  0.017395399  0.016591588          515 
 1598000   0.62684947   -7.3642974    333.48819  0.017390915  0.016578874          553 
 1599000   0.62974521   -7.3475994    333.24397  0.017367311  0.016566169          508 
 1600000     0.599505   -7.3831264    333.08186  0.017348014  0.016553479          561 
 1601000   0.60644924   -7.3611658    333.95026  0.017382379  0.016540786          542 
 1602000   0.61447599   -7.3779912    333.82857  0.017365198  0.016528138          437 
 1603000   0.61396835    -7.362542    333.46155  0.017335285  0.016515482          504 
 1604000   0.61209621   -7.3561624    333.85501  0.017344919  0.016502831          515 
 1605000   0.61399351   -7.3893509    333.54562  0.017318049    0.0164902          556 
 1606000   0.62893263   -7.3861745    333.49712  0.017304749  0.016477559          605 
 1607000    0.6043283   -7.3719534    333.36757  0.017287262  0.016464926          647 
 1608000   0.59728606   -7.3771496    334.16765  0.017317975  0.016452306          607 
 1609000   0.62879524   -7.3954203    333.69352  0.017282656  0.016439702          668 
 1610000   0.60075545   -7.3862825    333.81788  0.017278358  0.016427098          606 
 1611000   0.60898012   -7.3970066    333.62537  0.017257675  0.016414492          604 
 1612000    0.6128562    -7.377662    333.58007  0.017244627  0.016401909          651 
 1613000   0.62431609   -7.3827861    334.18904  0.017265398  0.016389332          653 
 1614000   0.59827647   -7.4087372     333.9002  0.017239787  0.016376766          735 
 1615000   0.62642403   -7.3973306    333.13327  0.017189539  0.016364198          611 
 1616000   0.61192127   -7.3910468    333.82884  0.017214771    0.0163516          720 
 1617000   0.59809377   -7.3872062     333.4241  0.017183266  0.016339014          672 
 1618000   0.61457516    -7.388728    332.88103  0.017144676  0.016326447          617 
 1619000   0.60649856   -7.3876353    333.72101  0.017177322  0.016313899          666 
 1620000   0.60384916   -7.3924062    333.71131   0.01716622  0.016301347          699 
 1621000   0.60540127   -7.3984645    333.75304  0.017157775  0.016288809          654 
 1622000   0.60111402   -7.3890516    333.89529  0.017154505  0.016276278          699 
 1623000   0.61604997   -7.4039872    333.33899  0.017115372  0.016263731          686 
 1624000   0.61003587   -7.3793237    333.16965  0.017096144  0.016251191          683 
 1625000   0.60032607   -7.4099107     332.9989  0.017076867  0.016238656          698 
 1626000   0.60195563   -7.4108467    333.03671  0.017068302  0.016226128          747 
 1627000   0.61423532   -7.4249579    333.51337  0.017082226  0.016213635          773 
 1628000    0.6021451   -7.4019532    333.13949  0.017052595  0.016201134          739 
 1629000   0.61262399   -7.4185979    333.46826  0.017058945  0.016188667          770 
 1630000   0.58907778   -7.4161364    333.94585  0.017072896  0.016176194          756 
 1631000   0.60074694   -7.3996426     333.4294  0.017036041  0.016163726          723 
 1632000   0.58872234   -7.4136818    333.07451  0.017007481   0.01615127          685 
 1633000   0.60154462    -7.424929    333.33681  0.017010452  0.016138816          770 
 1634000   0.62162451   -7.4041271     332.8602  0.016975735  0.016126383          749 
 1635000   0.60917733   -7.4060419    332.70893  0.016957642  0.016113936          820 
 1636000   0.60855413   -7.4119838     333.1406  0.016969264  0.016101494          767 
 1637000   0.59379537   -7.4169993    333.38666  0.016971425  0.016089057          785 
 1638000    0.6011373   -7.4242617    333.33374  0.016958371  0.016076628          842 
 1639000   0.59847867   -7.4074614    333.09451  0.016935861  0.016064227          772 
 1640000   0.60463541   -7.4259708    333.29255  0.016935597   0.01605185          827 
 1641000   0.58999771   -7.4338099    332.66941  0.016893632  0.016039453          798 
 1642000   0.59556717   -7.4269907    333.60671  0.016930913  0.016027076          755 
 1643000   0.59852715   -7.4076127    333.26164  0.016903106  0.016014707          766 
 1644000   0.58986473   -7.4098988    333.81444  0.016920845  0.016002344          832 
 1645000   0.60060794   -7.4183932    332.90576  0.016864527  0.015989981          846 
 1646000   0.60774251   -7.4144795    333.10925  0.016864584   0.01597764          803 
 1647000   0.59369128   -7.4357884    332.74112  0.016835718  0.015965298          779 
 1648000   0.59153146   -7.4407753    333.14582  0.016845966   0.01595295          868 
 1649000   0.58767786   -7.4237186    333.43996  0.016850614  0.015940608          887 
 1650000   0.59351656   -7.4439062    333.32751  0.016834723  0.015928253          922 
 1651000   0.59551367   -7.4303264    333.02096  0.016809053  0.015915918          856 
 1652000   0.60986023   -7.4412382    333.19436  0.016807625  0.015903601          843 
 1653000    0.5838604   -7.4155979    333.24071  0.016799794  0.015891301          854 
 1654000   0.59482883   -7.4053692    333.04671  0.016779863  0.015878998          845 
 1655000   0.59044541   -7.4405022    333.34442  0.016784714  0.015866714          914 
 1656000    0.6054907   -7.4372476    332.96488  0.016755479  0.015854416          886 
 1657000   0.59201111   -7.4352815    333.84615  0.016789688  0.015842129          867 
 1658000    0.5873421   -7.4175994    333.63827  0.016769113  0.015829851          837 
 1659000   0.58800226   -7.4039869    333.10732  0.016732335  0.015817604          908 
 1660000   0.59704454   -7.4245385    333.17431  0.016725618  0.015805368          821 
 1661000   0.58609642   -7.4444427    332.99933   0.01670677  0.015793137          778 
 1662000   0.58514921   -7.4253513    332.70244  0.016681831   0.01578091          877 
 1663000   0.57988828   -7.4305075    332.98991  0.016686205  0.015768664          854 
 1664000   0.57095879   -7.4634408    332.91725  0.016672538  0.015756437          834 
 1665000   0.57539863   -7.4339741    332.76921  0.016655115  0.015744199          853 
 1666000   0.58368105   -7.4603551    333.04977  0.016659152  0.015731979          893 
 1667000    0.5762892   -7.4409563    332.07266  0.016600313  0.015719759          906 
 1668000   0.58533139   -7.4463993    332.60553  0.016616983  0.015707531          961 
 1669000   0.59066982   -7.4203976    332.22366   0.01658796  0.015695312          925 
 1670000    0.5743427   -7.4197533    332.29464  0.016581569    0.0156831          882 
 1671000   0.58802962   -7.4293153    332.80655  0.016597175  0.015670875          901 
 1672000   0.58845144   -7.4449587    332.82275  0.016588056  0.015658663          896 
 1673000   0.58249708   -7.4512885    332.58721  0.016566408  0.015646483          901 
 1674000   0.58122631   -7.4479617    332.45923  0.016550141   0.01563429          873 
 1675000   0.56735826   -7.4344122     332.5757  0.016546055  0.015622103          910 
 1676000   0.57722946   -7.4329393    332.08459  0.016511764  0.015609907          878 
 1677000   0.57984753   -7.4461775    332.06908  0.016501147  0.015597732          953 
 1678000   0.58621244   -7.4605368    332.53677   0.01651454  0.015585569          933 
 1679000   0.57211823   -7.4500703    332.09949     0.016483  0.015573436         1005 
 1680000   0.58251029   -7.4561853    332.48412  0.016492268  0.015561305          989 
 1681000   0.57407583   -7.4346374    332.73063  0.016494677  0.015549179          939 
 1682000   0.59209773   -7.4402925    332.97711  0.016497082   0.01553707         1023 
 1683000   0.58941404   -7.4518702    331.88686  0.016433297  0.015524959          992 
 1684000   0.59130745   -7.4308928    331.82269  0.016420363  0.015512862         1017 
 1685000   0.58062076   -7.4753332    332.44908  0.016441597  0.015500763          986 
 1686000   0.57702736   -7.4818391    332.55525  0.016437092  0.015488638         1065 
 1687000   0.58024281    -7.461022    332.03052  0.016401428  0.015476521         1093 
 1688000   0.58155775   -7.4741615    332.52053  0.016415903  0.015464417         1099 
 1689000   0.59465319   -7.4592174    332.15246  0.016388024  0.015452323         1009 
 1690000    0.5737523   -7.4759783    332.30906  0.016386048  0.015440226          981 
 1691000   0.58721076   -7.4821772    332.68093  0.016394684   0.01542816         1044 
 1692000   0.58122065    -7.465221     332.9542  0.016398453  0.015416107         1045 
 1693000   0.57824247   -7.4524794    332.42986  0.016362958  0.015404063         1074 
 1694000   0.57575438   -7.4723336    331.32242   0.01629882  0.015391995         1034 
 1695000   0.57696534    -7.486803    331.96998  0.016321041  0.015379942         1125 
 1696000   0.58589593    -7.456701    333.04394  0.016364187  0.015367922         1074 
 1697000   0.58673265   -7.4781108    331.55642  0.016281498  0.015355915         1150 
 1698000   0.59446201    -7.470957    332.22921  0.016304928  0.015343936         1177 
 1699000    0.5829943   -7.4685865    332.10865  0.016289418  0.015331936         1129 
 1700000   0.58431763   -7.4673404    332.47161  0.016297628  0.015319951         1131 
 1701000   0.57391291    -7.484267    332.20091  0.016274785  0.015307956         1143 
 1702000   0.57238427   -7.4691396     332.0948  0.016260028  0.015295977         1185 
 1703000   0.56851861    -7.481947     332.3285  0.016261915  0.015284008         1150 
 1704000    0.5702899    -7.478242    331.95706  0.016234207  0.015272045         1170 
 1705000   0.57657796   -7.5018853    331.68451  0.016211364  0.015260079         1151 
 1706000    0.5770741   -7.4786517    332.09318  0.016221824  0.015248117         1121 
 1707000   0.55200848   -7.4730693    332.03943  0.016209697  0.015236159         1077 
 1708000   0.57015231   -7.4746188    331.72999  0.016185109  0.015224224         1133 
 1709000   0.56198198    -7.480042     332.0401   0.01619076  0.015212299         1206 
 1710000   0.56009499   -7.4803091    332.15922  0.016187097  0.015200383         1108 
 1711000   0.56922274   -7.5148243    331.94612  0.016167257  0.015188454         1161 
 1712000   0.56482099   -7.4735535    331.91003  0.016156057  0.015176565         1176 
 1713000   0.57044078   -7.5059689     332.4624  0.016173497  0.015164675         1180 
 1714000   0.56188031    -7.502323    332.48988  0.016165397  0.015152806         1130 
 1715000   0.57323687   -7.4840521    331.90918  0.016127754  0.015140954         1189 
 1716000   0.56368634   -7.4986677    332.14534  0.016129824  0.015129102         1216 
 1717000   0.56948019   -7.4830977    331.44506  0.016086442  0.015117263         1140 
 1718000   0.56856244   -7.5047735    332.17407   0.01611244  0.015105432         1170 
 1719000   0.57032828   -7.5073517    332.16866  0.016102805  0.015093614         1243 
 1720000   0.56459786   -7.4921811    332.46208  0.016107659  0.015081805         1193 
 1721000   0.56986882   -7.4909618    332.09153  0.016080357  0.015069997         1226 
 1722000   0.55513102   -7.4954452    332.18665  0.016075622  0.015058195         1244 
 1723000     0.568413    -7.485373    331.52252  0.016034171  0.015046394         1235 
 1724000   0.58482229   -7.5005053     332.6083  0.016077354  0.015034613         1187 
 1725000   0.56738789   -7.4980386    331.99445  0.016038379  0.015022825         1271 
 1726000   0.54685052   -7.5169842    332.30087  0.016043881  0.015011069         1285 
 1727000   0.55592474   -7.4941813    331.92388    0.0160164   0.01499931         1195 
 1728000   0.56544635   -7.5098019    332.08241  0.016014777  0.014987563         1240 
 1729000   0.56157739   -7.4923436    331.64858  0.015984605  0.014975815         1299 
 1730000   0.56867969   -7.4996887    331.66709  0.015976257  0.014964089         1291 
 1731000   0.55913999   -7.4895735    332.28528  0.015996788  0.014952388         1261 
 1732000    0.5660472    -7.508673      332.306  0.015988549  0.014940679         1288 
 1733000   0.55458181   -7.5122629    331.96641  0.015962993  0.014928969         1384 
 1734000   0.56994191   -7.5044313    332.26461  0.015968119  0.014917277         1378 
 1735000   0.56813984   -7.4965767     332.0011  0.015946258  0.014905608         1258 
 1736000   0.56062336   -7.5025577    332.29298  0.015951084  0.014893934         1295 
 1737000   0.55828744   -7.4956685    331.78403  0.015917484  0.014882287         1354 
 1738000   0.56344031   -7.4842748    331.98914   0.01591816  0.014870649         1349 
 1739000   0.56138927   -7.5216288    331.58822  0.015889794  0.014859009         1292 
 1740000   0.54934018   -7.5115553    331.75188    0.0158885  0.014847382         1341 
 1741000   0.55481132   -7.5074723    331.54792  0.015869611  0.014835757         1352 
 1742000   0.54959835   -7.5002807    332.01548  0.015882868  0.014824134         1286 
 1743000   0.54672442   -7.5102502    332.11773  0.015878645  0.014812525         1334 
 1744000   0.54931555    -7.514335    332.39686  0.015882878  0.014800911         1329 
 1745000   0.56042299   -7.5291499    331.93548  0.015851742  0.014789304         1424 
 1746000   0.55935731   -7.5216117    331.98202  0.015844884  0.014777698         1298 
 1747000   0.54903824   -7.5192646     332.0166  0.015837464  0.014766108         1360 
 1748000   0.56521012   -7.5070259    331.52006  0.015804732  0.014754531         1366 
 1749000   0.55382667    -7.498653    331.38418  0.015789221   0.01474296         1376 
 1750000   0.54468356   -7.5353211    331.61226   0.01579106  0.014731384         1366 
 1751000   0.53751245   -7.5151774    331.42156  0.015772966  0.014719827         1325 
 1752000   0.55687477   -7.5195015    331.47872  0.015766682  0.014708284         1358 
 1753000   0.55753436   -7.4997668    331.66162  0.015766382  0.014696755         1336 
 1754000   0.55157296    -7.515816    331.57021  0.015753051  0.014685213         1374 
 1755000   0.56621229   -7.5100012    331.69404  0.015749955  0.014673716         1344 
 1756000   0.54576255   -7.5237076    331.36431  0.015725337  0.014662207         1306 
 1757000   0.55217686   -7.5200332    331.88975  0.015741309  0.014650708         1363 
 1758000    0.5507893   -7.5388024    331.82271  0.015729177  0.014639219         1349 
 1759000   0.56069058   -7.5137145    331.59248  0.015709327  0.014627742         1312 
 1760000   0.54815165   -7.5217601    331.31757  0.015687385  0.014616274         1386 
 1761000   0.55215803   -7.5175067    331.66429  0.015694884  0.014604814         1314 
 1762000    0.5476636   -7.5295035    331.58263  0.015682115  0.014593371         1317 
 1763000   0.54513196   -7.5364061    331.63136  0.015675523  0.014581943         1305 
 1764000   0.55580519   -7.5263066    332.42536  0.015704146  0.014570535         1320 
 1765000   0.54617497   -7.5107745    331.70683  0.015661324  0.014559146         1309 
 1766000   0.56045252   -7.5182425    331.40517   0.01563822  0.014547755         1360 
 1767000   0.54347684   -7.5517163    331.75002  0.015645634  0.014536388         1315 
 1768000   0.53825016   -7.5338805    331.68269  0.015633611   0.01452501         1344 
 1769000   0.56362171   -7.5444265    331.66909  0.015624133  0.014513635         1363 
 1770000   0.53916415   -7.5335566    331.24008  0.015595107  0.014502261         1407 
 1771000   0.54377811    -7.529803    331.36936  0.015592385  0.014490898         1377 
 1772000   0.54580845   -7.5264328    331.53492  0.015591372  0.014479539         1337 
 1773000   0.55090707   -7.5119293    330.76888  0.015546573  0.014468191         1296 
 1774000   0.55649397   -7.5301141    331.04698  0.015550873  0.014456856         1323 
 1775000   0.54790302   -7.5386467    330.87476  0.015534026  0.014445518         1368 
 1776000   0.53875212   -7.5443398    331.64763  0.015561544  0.014434186         1367 
 1777000   0.54884337   -7.5278697    331.11962  0.015528025  0.014422868         1321 
 1778000   0.53476843   -7.5279152    331.45815  0.015535159  0.014411566         1361 
 1779000   0.53485731   -7.5458179    331.80212  0.015542539  0.014400275         1347 
 1780000   0.54005874   -7.5551764    331.54586   0.01552181  0.014388979         1298 
 1781000   0.54184084   -7.5380515    332.10671  0.015539337  0.014377712         1357 
 1782000   0.54694984   -7.5412504    331.21963  0.015489134   0.01436643         1355 
 1783000   0.55420244   -7.5516229    331.27143  0.015482867  0.014355155         1309 
 1784000   0.55041941   -7.5538548    331.19226   0.01547049  0.014343897         1303 
 1785000   0.52602322   -7.5385522    331.59472  0.015480612  0.014332638         1338 
 1786000   0.55826918   -7.5390854    330.94819  0.015441778  0.014321388         1400 
 1787000   0.54087786   -7.5500662    331.13056  0.015441641  0.014310145         1327 
 1788000   0.53154447    -7.555462    331.09921  0.015431544  0.014298918         1382 
 1789000   0.54152314   -7.5505006    331.30433  0.015432473  0.014287713         1298 
 1790000    0.5434005   -7.5443045    331.33964  0.015425495  0.014276502         1351 
 1791000   0.52834024   -7.5594153     331.2585  0.015413107  0.014265298         1312 
 1792000   0.53509932   -7.5536967    330.88879  0.015387313  0.014254105         1380 
 1793000   0.52674085   -7.5490556    331.09126  0.015388142  0.014242932         1370 
 1794000   0.54794822   -7.5452875    330.92416  0.015371802  0.014231762         1307 
 1795000   0.53008209   -7.5546912    330.87238  0.015360835  0.014220597         1345 
 1796000   0.52979427   -7.5560995    331.39252  0.015376416  0.014209443         1345 
 1797000   0.53916985   -7.5631558    331.00079  0.015349694   0.01419829         1389 
 1798000   0.54140637   -7.5622566    331.40247  0.015359773  0.014187148         1361 
 1799000   0.54390936     -7.58296    331.34467  0.015348558  0.014176018         1401 
 1800000   0.53422703   -7.5730146    331.21752  0.015334145  0.014164914         1352 
 1801000    0.5363103   -7.5544914    331.07165  0.015318881  0.014153793         1375 
 1802000    0.5427099   -7.5456561    330.39718  0.015279189  0.014142684         1394 
 1803000   0.53849128   -7.5547934    331.03675  0.015300275   0.01413159         1387 
 1804000   0.53822349   -7.5720805    331.56986   0.01531642  0.014120503         1381 
 1805000   0.52507449   -7.5669746    331.17592  0.015289747  0.014109419         1425 
 1806000    0.5313899   -7.5611676     331.0934  0.015277473  0.014098344         1387 
 1807000    0.5263141   -7.5684596    331.00865   0.01526511  0.014087287         1370 
 1808000   0.51697026   -7.5723405    331.30552   0.01527035  0.014076237         1368 
 1809000   0.53092465   -7.5645145    331.25552  0.015259606  0.014065201         1332 
 1810000   0.53984063    -7.579703    331.07041  0.015242652  0.014054169         1406 
 1811000   0.51723613   -7.5845926    330.99623  0.015230822  0.014043143         1368 
 1812000   0.53151115   -7.5662833    330.81911  0.015214271  0.014032129         1386 
 1813000   0.51548468   -7.5844614    331.38886  0.015232068  0.014021123         1363 
 1814000   0.53943164   -7.5745244    331.25052  0.015217315  0.014010138         1326 
 1815000    0.5255169   -7.5895363    331.47357  0.015219172  0.013999157         1339 
 1816000      0.51449   -7.5550275    331.72876  0.015222502  0.013988182         1320 
 1817000   0.52271998    -7.568794    331.07272  0.015184036  0.013977222         1360 
 1818000    0.5280889   -7.5695307    330.68588  0.015157952  0.013966261         1442 
 1819000   0.52960301   -7.5680445    331.20249  0.015173286  0.013955323         1299 
 1820000   0.51535983   -7.5665982    331.00613  0.015155958  0.013944377         1402 
 1821000    0.5312111   -7.5796401    331.36265  0.015163951  0.013933445         1278 
 1822000   0.51990299   -7.5735009    330.40562  0.015111856  0.013922537         1380 
 1823000   0.53514234    -7.585619    330.63569  0.015114083  0.013911622         1417 
 1824000   0.52793154   -7.5702461    330.36863  0.015093596  0.013900708         1418 
 1825000    0.5288318   -7.5700724    330.12265  0.015074094  0.013889805         1441 
 1826000   0.52573177   -7.5764392    330.96757  0.015104398  0.013878905         1387 
 1827000   0.51989841   -7.5768031    330.81705  0.015089265  0.013868022         1396 
 1828000   0.52967675   -7.5731774    330.77858  0.015079257   0.01385715         1346 
 1829000    0.5264443   -7.5787421    331.17728  0.015089178  0.013846295         1374 
 1830000   0.52572982   -7.5798491    330.98466  0.015072161  0.013835438         1350 
 1831000   0.51694914   -7.5800427    330.74733  0.015053128    0.0138246         1335 
 1832000   0.52181391   -7.5758517    330.92787  0.015053123  0.013813769         1355 
 1833000   0.52667686   -7.5919166    330.56691  0.015028501  0.013802947         1368 
 1834000   0.52230623   -7.5803818    330.46022  0.015015459  0.013792131         1387 
 1835000   0.52594343   -7.5937012    330.32598   0.01500118   0.01378133         1412 
 1836000   0.52383727   -7.5775663    330.32888  0.014993141  0.013770545         1367 
 1837000   0.51848898   -7.6003777    330.65863  0.014999938  0.013759759         1427 
 1838000   0.51496178   -7.5973378     331.3464   0.01502296  0.013748989         1420 
 1839000   0.51509413    -7.592133    331.17601   0.01500707  0.013738211         1385 
 1840000   0.50965981   -7.5749817    330.84736  0.014984029  0.013727464         1425 
 1841000   0.52387206   -7.5811298    331.24568   0.01499392  0.013716726         1377 
 1842000   0.51202028   -7.5905164    330.63006  0.014957929  0.013706006         1393 
 1843000   0.51732065   -7.5897573    330.44781  0.014941572  0.013695289         1426 
 1844000   0.50686052   -7.5915795    330.92122  0.014954864  0.013684572         1412 
 1845000   0.52168722   -7.5876081    330.45114  0.014925526  0.013673863         1418 
 1846000   0.53062819   -7.5868718    330.28241  0.014909823  0.013663171         1367 
 1847000   0.52842257   -7.6154221    330.56672  0.014914578  0.013652488         1420 
 1848000   0.51843043   -7.5836291    330.28963  0.014894013  0.013641816         1458 
 1849000   0.52310833   -7.6006307    330.38014  0.014890037  0.013631147         1431 
 1850000   0.52038469   -7.5957031    331.38313  0.014927168  0.013620478         1469 
 1851000   0.51519731   -7.5960856    331.07747  0.014905343  0.013609829         1430 
 1852000    0.5041953   -7.6001995    330.33014  0.014863667  0.013599188         1427 
 1853000     0.512536    -7.580649    330.18209  0.014848988   0.01358855         1393 
 1854000   0.51170541   -7.5786768    330.86542  0.014871693  0.013577925         1372 
 1855000    0.5071286   -7.5986137    330.40632  0.014843051  0.013567303         1401 
 1856000   0.52124617   -7.6067549    330.32134  0.014831238  0.013556693         1360 
 1857000   0.50486468   -7.5947338    331.07689  0.014857157  0.013546088         1392 
 1858000    0.5125107   -7.5956711    329.97178  0.014799596  0.013535512         1449 
 1859000   0.51927996   -7.5952302    330.49307  0.014815002  0.013524931         1490 
 1860000   0.50107199    -7.599821     330.5567  0.014809888  0.013514354         1519 
 1861000   0.50406794   -7.5887609    330.18591  0.014785326  0.013503776         1468 
 1862000   0.51362842   -7.6018637    330.02833  0.014770333  0.013493214         1435 
 1863000   0.51049446   -7.5956635    330.68661  0.014791851  0.013482658         1409 
 1864000   0.49884273   -7.6060458    330.57296  0.014778834  0.013472117         1487 
 1865000   0.50975416   -7.6133852    329.93702  0.014742494  0.013461574         1462 
 1866000   0.50595311   -7.6112944    330.28071  0.014749942  0.013451034         1524 
 1867000   0.50171577   -7.6033419     330.3712  0.014746081  0.013440502         1521 
 1868000   0.49884707   -7.6135009    330.48592  0.014743305   0.01342998         1433 
 1869000   0.50838399   -7.6079107    330.70781   0.01474531  0.013419463         1513 
 1870000   0.50214706   -7.5881309    330.08284  0.014709574  0.013408951         1489 
 1871000   0.51641251   -7.6165847    330.51401  0.014720916  0.013398462         1461 
 1872000   0.49952596   -7.5968644     330.3935  0.014707688  0.013387969         1469 
 1873000   0.51239757    -7.596196    329.58966  0.014664071  0.013377504         1480 
 1874000   0.49853401   -7.6167817     330.4438  0.014694228  0.013367045         1455 
 1875000   0.50586488   -7.6018877    330.49041  0.014688463  0.013356601         1436 
 1876000   0.50731682   -7.5929227    329.45857  0.014634798  0.013346162         1468 
 1877000   0.50770059   -7.6120516    330.26498  0.014662803  0.013335735         1451 
 1878000   0.49884169   -7.5977621    330.04495  0.014645232  0.013325304         1362 
 1879000    0.5039291   -7.6115358     330.2564  0.014646816  0.013314878         1518 
 1880000    0.5013065   -7.6267088    329.93402  0.014624735  0.013304469         1458 
 1881000   0.49838747   -7.6185596     330.5288   0.01464331  0.013294059         1432 
 1882000   0.50441904   -7.6258387    330.06482  0.014614985  0.013283664         1420 
 1883000   0.50761675   -7.6297978    330.21413  0.014613831  0.013273275         1512 
 1884000   0.50102783   -7.6023119    330.01418   0.01459723  0.013262902         1480 
 1885000    0.4950983   -7.6026919    330.25691  0.014600217  0.013252534         1468 
 1886000   0.49533709   -7.6036929    329.97003    0.0145798  0.013242188         1472 
 1887000   0.49699525   -7.6310299    329.94628  0.014571025  0.013231838         1512 
 1888000   0.50231044   -7.6382547    330.83364  0.014602473  0.013221509         1529 
 1889000   0.50371501   -7.6242377    329.82074  0.014550059  0.013211188         1447 
 1890000   0.50650641   -7.6034179     329.6874  0.014536482  0.013200871         1463 
 1891000   0.50104161   -7.6371053    330.00085  0.014542608  0.013190564         1496 
 1892000   0.49215601   -7.6191991    330.08127  0.014538463   0.01318027         1485 
 1893000   0.48467641   -7.6266843    330.35922  0.014543019  0.013169977         1486 
 1894000   0.49237787    -7.607925    330.19231  0.014527997  0.013159694         1455 
 1895000   0.48956408   -7.6173473    330.28635  0.014524466  0.013149415         1397 
 1896000   0.49517721   -7.6113553    330.39195  0.014521446  0.013139159         1504 
 1897000   0.49643445   -7.6244527    330.00746  0.014496901  0.013128911         1439 
 1898000   0.50241448   -7.6215094    329.92694  0.014485728  0.013118665         1512 
 1899000   0.49133054   -7.6296888    330.16274  0.014488447  0.013108419         1480 
 1900000   0.48995963   -7.6176363    330.32264  0.014487835  0.013098196         1479 
 1901000   0.50204981   -7.6279324    329.99259  0.014465746  0.013087977         1519 
 1902000   0.48244514   -7.6206156    329.61134  0.014441436  0.013077771         1448 
 1903000   0.48882482    -7.636429     329.8376  0.014443755  0.013067571         1497 
 1904000   0.48680588   -7.6298267    329.62374  0.014426809  0.013057387         1481 
 1905000   0.49212368   -7.6373437     329.2749  0.014403976  0.013047208         1545 
 1906000   0.49056048   -7.6480591     330.1025  0.014432603  0.013037029         1515 
 1907000   0.49609927   -7.6365439    330.23176  0.014430683  0.013026862         1454 
 1908000   0.49355977   -7.6226339    329.67174  0.014398661    0.0130167         1492 
 1909000   0.49621004    -7.618469    329.97892  0.014404528  0.013006551         1472 
 1910000   0.48486364   -7.6317465     329.9881  0.014397386  0.012996412         1451 
 1911000    0.4835902   -7.6299875    330.28364   0.01440274  0.012986287         1518 
 1912000    0.4965518   -7.6268011    330.39843  0.014400211  0.012976165         1473 
 1913000   0.48003957   -7.6305746    330.04157  0.014377137  0.012966054         1447 
 1914000    0.4899236   -7.6198176    329.66557  0.014353255  0.012955945         1503 
 1915000   0.49210868   -7.6265652    329.66798  0.014345865  0.012945856         1432 
 1916000    0.4918817   -7.6388308    330.04674  0.014354851  0.012935781         1459 
 1917000   0.48609384   -7.6384441    330.15349  0.014352004  0.012925719         1488 
 1918000   0.48487149   -7.6355921    329.71636  0.014325528  0.012915659         1427 
 1919000   0.48388391   -7.6336045    330.18024  0.014338207  0.012905599         1497 
 1920000   0.48561727   -7.6560865    329.87048  0.014317295  0.012895561         1504 
 1921000   0.48223182   -7.6280892    329.81498  0.014307434  0.012885522         1475 
 1922000   0.49423823   -7.6398915    329.69687  0.014294869  0.012875496         1521 
 1923000   0.48070943   -7.6375857    329.58572  0.014282619  0.012865475         1570 
 1924000   0.47721922   -7.6391539    329.66593   0.01427867  0.012855461         1469 
 1925000   0.48639744   -7.6313782    330.13418  0.014291523  0.012845463         1443 
 1926000   0.49499823   -7.6295371    329.79934  0.014269615  0.012835477         1429 
 1927000   0.47755827   -7.6418953    329.61883  0.014254404  0.012825505         1431 
 1928000    0.4846889   -7.6461397    329.89633  0.014259005  0.012815529         1457 
 1929000   0.49073086   -7.6346495    329.40051  0.014230193   0.01280556         1411 
 1930000   0.47630487   -7.6378572    329.94569   0.01424636  0.012795594         1445 
 1931000    0.4766186   -7.6443776    329.52039  0.014220628  0.012785646         1489 
 1932000   0.47700759   -7.6476009    329.55649  0.014214824  0.012775699         1424 
 1933000   0.49310363   -7.6399193    329.80003   0.01421797  0.012765761         1487 
 1934000   0.48539618   -7.6397164    330.17922  0.014226957   0.01275584         1431 
 1935000    0.4736466    -7.647088    329.47424  0.014189244  0.012745918         1457 
 1936000   0.47120719    -7.633882    328.90551  0.014157434  0.012735998         1507 
 1937000   0.47140706   -7.6475795    329.40735  0.014171715   0.01272609         1472 
 1938000   0.48696779    -7.638172    329.43985    0.0141658  0.012716192         1469 
 1939000   0.47711763   -7.6258753     329.5751  0.014164307  0.012706307         1425 
 1940000   0.48060486   -7.6495474    329.35626  0.014147606  0.012696437         1427 
 1941000    0.4860207   -7.6623228     329.4295  0.014143461  0.012686575         1508 
 1942000   0.47893965   -7.6722494    329.33772   0.01413224  0.012676707         1402 
 1943000    0.4789358   -7.6508854    329.45938  0.014130185  0.012666847         1469 
 1944000   0.48660413   -7.6570333    329.48223  0.014123895  0.012656999         1545 
 1945000   0.47763758   -7.6600828    329.69397  0.014125706   0.01264716         1503 
 1946000   0.47500849   -7.6476764    329.67011  0.014117425  0.012637333         1456 
 1947000   0.47213161   -7.6439044    329.01163  0.014081991  0.012627508         1480 
 1948000   0.48407122   -7.6532054    329.71075  0.014104669    0.0126177         1521 
 1949000   0.47986997   -7.6520991     329.9115  0.014106016  0.012607905         1441 
 1950000   0.47707588   -7.6795118    329.37315  0.014075776  0.012598105         1454 
 1951000     0.489486   -7.6611597    329.30663   0.01406572  0.012588319         1536 
 1952000   0.47121388   -7.6457848    329.24936  0.014056069  0.012578545         1516 
 1953000   0.47183961    -7.648004    329.54213  0.014061364  0.012568785         1498 
 1954000   0.48269778   -7.6447378    328.90853  0.014027147  0.012559023         1451 
 1955000   0.47862776   -7.6612794    329.49986  0.014045178  0.012549279         1508 
 1956000   0.46811005    -7.662377    329.51261   0.01403854  0.012539538         1543 
 1957000   0.47902526    -7.677352    329.68095  0.014038535  0.012529803         1575 
 1958000   0.47367881   -7.6445053    329.03606  0.014003918  0.012520071         1531 
 1959000   0.47533691   -7.6668221       329.82  0.014030117  0.012510345         1538 
 1960000   0.47165513   -7.6469502    329.23242  0.013997977  0.012500635         1530 
 1961000   0.46578131   -7.6555808    329.28252  0.013992968  0.012490937         1533 
 1962000   0.47070294    -7.657318    328.91564  0.013970253  0.012481245         1531 
 1963000   0.47296269   -7.6574541    329.63687  0.013993754  0.012471561         1548 
 1964000   0.47063244   -7.6549446    329.21588  0.013968766  0.012461887         1479 
 1965000   0.45519563   -7.6536253    328.87039  0.013947006  0.012452233         1526 
 1966000   0.46123892    -7.668819     329.1306  0.013950941   0.01244258         1527 
 1967000   0.46818739   -7.6682217    329.74922  0.013970057  0.012432932         1568 
 1968000    0.4655114   -7.6483394    329.39481  0.013947951  0.012423302         1512 
 1969000    0.4729235   -7.6712023    328.94261  0.013921729  0.012413679         1591 
 1970000   0.45578325   -7.6680147    329.32715  0.013930929  0.012404069         1495 
 1971000   0.47278554   -7.6882996    329.10275  0.013914373  0.012394462         1562 
 1972000   0.46277384   -7.6709667    329.31371  0.013916232  0.012384867         1447 
 1973000   0.47072024   -7.6658141    328.94174  0.013893468  0.012375283         1535 
 1974000   0.46921724   -7.6687689    329.55279  0.013912225  0.012365723         1551 
 1975000     0.462941   -7.6752052    329.21736  0.013891028  0.012356153         1542 
 1976000   0.46699633   -7.6563579    328.83678  0.013867948   0.01234659         1541 
 1977000    0.4679494   -7.6622383    328.96248  0.013866232   0.01233704         1486 
 1978000   0.46348518   -7.6743751    329.37232  0.013876488  0.012327497         1497 
 1979000    0.4683381   -7.6747343    328.86081  0.013847937  0.012317959         1523 
 1980000   0.45863153   -7.6637943    329.06191  0.013849407  0.012308428         1478 
 1981000   0.46730038   -7.6605974    329.14129  0.013845755  0.012298911         1430 
 1982000   0.45635382   -7.6743823    329.10134   0.01383709  0.012289402         1540 
 1983000   0.45839749   -7.6655051    329.39292  0.013842365   0.01227991         1514 
 1984000   0.46038529   -7.6685232    329.15386  0.013825347  0.012270418         1562 
 1985000   0.45966602   -7.6709359    329.18351  0.013819627  0.012260938         1533 
 1986000   0.46159705   -7.6754015    329.32987  0.013818809  0.012251464         1543 
 1987000   0.45670376    -7.674369    329.00387  0.013798183  0.012242009         1569 
 1988000   0.46192966   -7.6815959    329.61501   0.01381686  0.012232567         1538 
 1989000   0.45161829   -7.6577756    329.06859   0.01378702   0.01222313         1561 
 1990000   0.45774091   -7.6593599    329.29644  0.013789633  0.012213708         1533 
 1991000   0.46298551    -7.669822     329.1649  0.013777202  0.012204296         1558 
 1992000   0.47241074   -7.6885531    328.97542  0.013762359  0.012194887         1559 
 1993000   0.46323959   -7.6736944    328.84221  0.013749883   0.01218548         1526 
 1994000   0.45841086    -7.678062    328.56242  0.013731295  0.012176074         1579 
 1995000   0.44975794   -7.7001785    329.13766   0.01374844  0.012166683         1561 
 1996000   0.45789156   -7.6747259    328.68733  0.013722751  0.012157291         1607 
 1997000   0.46752333   -7.6806044     329.0635  0.013731577  0.012147922         1502 
 1998000   0.44649696    -7.670911    328.82921  0.013714932  0.012138546         1531 
 1999000   0.44438434   -7.6847076    329.04904  0.013717235    0.0121292         1507 
 2000000   0.45687962   -7.6838186    328.81735  0.013700723  0.012119841         1557 
 2001000   0.45796831   -7.6784154     328.6392  0.013686457  0.012110499         1612 
 2002000   0.44937925   -7.6880717    329.00847  0.013694991  0.012101164         1558 
 2003000   0.45512538   -7.6756886    329.05121  0.013689932  0.012091837         1601 
 2004000   0.45094308   -7.6866531    328.75521  0.013670792  0.012082514         1525 
 2005000   0.45345218   -7.6862443    328.42143  0.013650101  0.012073202         1536 
 2006000   0.44844983   -7.6958821    328.65427  0.013652969    0.0120639         1620 
 2007000   0.45167706   -7.6730342    329.23465  0.013670264  0.012054619         1549 
 2008000   0.44977853   -7.6939835    329.36782  0.013668983  0.012045333         1552 
 2009000   0.44901592    -7.696558    329.11735   0.01365179  0.012036068         1509 
 2010000   0.44662826   -7.6830321    328.84382  0.013633657  0.012026813         1469 
 2011000    0.4483374   -7.6702181    328.66506   0.01361947   0.01201756         1519 
 2012000   0.44057839   -7.6842293    328.61804  0.013610754  0.012008318         1498 
Loop time of 4359.33 on 48 procs for 2000000 steps with 4000 atoms

Performance: 79278.152 tau/day, 458.786 timesteps/s
99.4% CPU use with 48 MPI tasks x no OpenMP threads

MPI task timing breakdown:
Section |  min time  |  avg time  |  max time  |%varavg| %total
---------------------------------------------------------------
Pair    | 256.59     | 275.25     | 290.14     |  42.9 |  6.31
Neigh   | 26.211     | 26.896     | 27.701     |   7.6 |  0.62
Comm    | 221.92     | 248.15     | 268.58     |  59.4 |  5.69
Output  | 4.437      | 4.439      | 4.4873     |   0.3 |  0.10
Modify  | 3725       | 3751       | 3778.7     |  20.4 | 86.04
Other   |            | 53.63      |            |       |  1.23

Nlocal:        83.3333 ave          94 max          77 min
Histogram: 2 9 9 7 11 5 1 2 0 2
Nghost:        1787.10 ave        1806 max        1767 min
Histogram: 1 7 6 0 7 8 7 6 3 3
Neighs:        10934.2 ave       12553 max       10074 min
Histogram: 5 10 6 11 7 4 0 3 1 1
FullNghs:      21867.8 ave       24929 max       20299 min
Histogram: 6 8 9 9 7 5 0 2 0 2

Total # of neighbors = 1049656
Ave neighs/atom = 262.41400
Neighbor list builds = 107860
Dangerous builds = 0

#clear
#
#next RN
#
#jump SELF
Total wall time: 1:12:42
