
units lj                  # Use reduced LJ style units
atom_style atomic         # Uncharged point particles
atom_modify map hash      # Needed for indexing of clusters etc
                          # Used to be able to find where atoms are in relation to each other.

lattice fcc 1.0 spacing 1 1 1
Lattice spacing in x,y,z = 1.5874011 1.5874011 1.5874011
region box block 0 10 0 10 0 10 units lattice
create_box 2 box
Created orthogonal box = (0.0000000 0.0000000 0.0000000) to (15.874011 15.874011 15.874011)
  3 by 4 by 4 MPI processor grid
create_atoms 1 box
Created 4000 atoms
  using lattice units in orthogonal box = (0.0000000 0.0000000 0.0000000) to (15.874011 15.874011 15.874011)
  create_atoms CPU = 0.015 seconds
set type 1 type/fraction 2 0.19 78393
Setting atom values ...
  784 settings made for type/fraction
mass 1 1.0
mass 2 1.0
pair_style lj/cut  3.5
pair_modify tail  yes
pair_coeff 1  1  1.0  1.0   # Intearaction between 1 and 1 set with epsilon = 1 and sigma = 1
pair_coeff 1  2  1.5  0.8
pair_coeff 2  2  0.5  0.88

write_data data.0
System init for write_data ...
Neighbor list info ...
  update every 1 steps, delay 10 steps, check yes
  max neighbors/atom: 2000, page size: 100000
  master list distance cutoff = 3.8
  ghost atom cutoff = 3.8
  binsize = 1.9, bins = 9 9 9
  1 neighbor lists, perpetual/occasional/extra = 1 0 0
  (1) pair lj/cut, perpetual
      attributes: half, newton on
      pair build: half/bin/atomonly/newton
      stencil: half/bin/3d
      bin: standard
WARNING: Not all mixed pair coeffs generated from mixing. Use write_data with 'pair ij' option to store all pair coeffs. (../write_data.cpp:312)


#############################
#   M E L T   S Y S T E M   #
#############################

velocity all create 2.4 5300450 mom yes dist gaussian # Assign velocities
                                                    # Temperature 2.4, random number seed, zero linear momentum
                                                                                # Gaussian distribution

timestep 0.002   # simulation timestep
thermo 1000       # output thermodynamic data every 1000 steps bf 100

# Define a fix  in this case with index 1 applied to all
# particles in the simulation. This fix is for simulations
# in the anisotropic NPT ensemble. Note that we use the MTK
# correction.
fix 1 all npt temp 2.4 2.4 0.1 iso 5.68 5.68 0.5 mtk yes tchain 5 pchain 5 # Use NPT ensemble
                                                                         # Set temperature and pressure and damping
                                                                         # Numbers of thermostats in chain and in barostat
run 10000          # run for 10000 steps
Per MPI rank memory allocation (min/avg/max) = 3.642 | 3.644 | 3.648 Mbytes
Step Temp E_pair E_mol TotEng Press Volume 
       0          2.4   -7.1181064            0   -3.5190064   -3.5570023         4000 
    1000    2.4115333   -4.8677912            0   -1.2513955     5.828096    4467.1308 
    2000    2.3994104   -4.8640788            0    -1.265863    5.6193908    4494.8432 
    3000    2.4021383   -4.7922583            0   -1.1899517    5.8013363    4517.9523 
    4000     2.387266   -4.7726249            0   -1.1926211    5.5476429    4537.8852 
    5000    2.3503647    -4.783998            0   -1.2593323    5.6226194    4530.4919 
    6000    2.4185215   -4.7639787            0   -1.1371035    5.6773718    4537.9889 
    7000    2.4424197   -4.7933612            0   -1.1306476    5.8185385    4511.6109 
    8000    2.4088327   -4.8663701            0   -1.2540243    5.3243615    4526.3318 
    9000    2.3543629   -4.7843159            0   -1.2536544    5.7218067    4518.1652 
   10000    2.3749316   -4.8260456            0   -1.2645387    5.8276182    4487.8534 
Loop time of 2.31585 on 48 procs for 10000 steps with 4000 atoms

Performance: 746162.445 tau/day, 4318.070 timesteps/s
99.6% CPU use with 48 MPI tasks x no OpenMP threads

MPI task timing breakdown:
Section |  min time  |  avg time  |  max time  |%varavg| %total
---------------------------------------------------------------
Pair    | 0.94361    | 1.0337     | 1.1926     |   4.8 | 44.64
Neigh   | 0.19659    | 0.2061     | 0.23814    |   1.8 |  8.90
Comm    | 0.64058    | 0.81528    | 0.90775    |   6.0 | 35.20
Output  | 0.00023948 | 0.00024345 | 0.00030912 |   0.0 |  0.01
Modify  | 0.19135    | 0.24589    | 0.29991    |   6.8 | 10.62
Other   |            | 0.0146     |            |       |  0.63

Nlocal:        83.3333 ave          93 max          73 min
Histogram: 1 2 2 7 8 9 7 7 4 1
Nghost:        1525.40 ave        1546 max        1499 min
Histogram: 2 3 1 6 4 13 3 6 7 3
Neighs:        8500.23 ave        9637 max        7334 min
Histogram: 2 4 1 7 8 10 8 5 0 3

Total # of neighbors = 408011
Ave neighs/atom = 102.00275
Neighbor list builds = 912
Dangerous builds = 250

# Equilibrate just above the melting temperature to avoid step fn in T

fix 1 all npt temp 1.25 1.25 0.1 iso 5.68 5.68 0.5 mtk yes tchain 5 pchain 5
run 2000
Per MPI rank memory allocation (min/avg/max) = 3.642 | 3.645 | 3.649 Mbytes
Step Temp E_pair E_mol TotEng Press Volume 
   10000    2.3749316   -4.8260456            0   -1.2645387    5.8276182    4487.8534 
   11000    1.2262436   -6.4721973            0   -4.6332917    5.8800558    3685.4423 
   12000    1.2412693   -6.5525938            0   -4.6911554    5.3266281    3693.9126 
Loop time of 0.502744 on 48 procs for 2000 steps with 4000 atoms

Performance: 687427.771 tau/day, 3978.170 timesteps/s
99.6% CPU use with 48 MPI tasks x no OpenMP threads

MPI task timing breakdown:
Section |  min time  |  avg time  |  max time  |%varavg| %total
---------------------------------------------------------------
Pair    | 0.22283    | 0.24385    | 0.28044    |   2.0 | 48.50
Neigh   | 0.031801   | 0.034241   | 0.039619   |   0.6 |  6.81
Comm    | 0.13275    | 0.17053    | 0.18625    |   2.6 | 33.92
Output  | 5.2885e-05 | 5.4038e-05 | 6.8355e-05 |   0.0 |  0.01
Modify  | 0.04191    | 0.049472   | 0.05833    |   2.2 |  9.84
Other   |            | 0.004597   |            |       |  0.91

Nlocal:        83.3333 ave          93 max          76 min
Histogram: 2 4 11 2 15 4 2 6 1 1
Nghost:        1737.50 ave        1758 max        1707 min
Histogram: 2 1 1 5 6 8 10 5 4 6
Neighs:        10336.4 ave       11978 max        9214 min
Histogram: 2 5 7 8 10 10 3 1 1 1

Total # of neighbors = 496147
Ave neighs/atom = 124.03675
Neighbor list builds = 142
Dangerous builds = 4

#############################
# L I N E A R  Q U E N C H  #
#############################

# Define solid atoms. This closely follows ten Wolde  Ruiz-Montero and Frenkel  Faraday Discuss  1996  104  93-110
# Compute components of the per-atom q6 vector
compute q6 all orientorder/atom degrees 1 6 components 6 nnn NULL cutoff 1.3 # compute the Q6 parameter.
                                                                             # Use all neighbours within 1.3 unit cell.

# get number of connections
compute coord_number all coord/atom orientorder q6 0.5

# An atom is solid if it has 8 or more connections (of a possible 14)
variable is_solid atom c_coord_number>=8
group solid dynamic all var is_solid    # Must be dynamic to update
dynamic group solid defined

# do clustering
compute cluster solid cluster/atom 1.3 # Create a cluster where all atoms within are solid and max 1.3 units from another member

# define chunks one chunk per cluster
compute clus_chunks solid chunk/atom c_cluster nchunk every compress yes  # Says which atoms are in which chunk

# count the size of each chunk
compute size_chunks solid property/chunk clus_chunks count


# Find the maximum entry in the vector of chunk sizes
variable max_n equal max(c_size_chunks)


# Thermo style which includes this variable
# thermo_style custom step temp pe vol v_max_n

thermo ${N}  # Print the thermo information every 100 steps
thermo 1000  

# Reset the npt fix at a lower temperature (below freezing)
fix 1  all npt temp  ${temp} ${temp}  0.1  iso  5.68  5.68  0.5  mtk yes tchain  5  pchain  5
fix 1  all npt temp  0.45 ${temp}  0.1  iso  5.68  5.68  0.5  mtk yes tchain  5  pchain  5
fix 1  all npt temp  0.45 0.45  0.1  iso  5.68  5.68  0.5  mtk yes tchain  5  pchain  5

dump dmp2 all dcd ${N} traj.dcd
dump dmp2 all dcd 1000 traj.dcd


compute msd all msd com yes
variable twopoint equal c_msd[4]/6/(step*dt+1.0e-6)
fix 9 all vector 10 c_msd[4]
variable fit equal slope(f_9)/6/(10*dt)
thermo_style custom step temp pe c_msd[4] v_twopoint v_fit v_max_n

fix 1 all npt temp 1.25 ${temp} 0.1 iso 5.68 5.68 0.5 mtk yes tchain 5 pchain 5
fix 1 all npt temp 1.25 0.45 0.1 iso 5.68 5.68 0.5 mtk yes tchain 5 pchain 5
run 2000000 # 5000000  # Run for this many steps
Neighbor list info ...
  update every 1 steps, delay 10 steps, check yes
  max neighbors/atom: 2000, page size: 100000
  master list distance cutoff = 3.8
  ghost atom cutoff = 3.8
  binsize = 1.9, bins = 9 9 9
  4 neighbor lists, perpetual/occasional/extra = 1 3 0
  (1) pair lj/cut, perpetual
      attributes: half, newton on
      pair build: half/bin/atomonly/newton
      stencil: half/bin/3d
      bin: standard
  (2) compute orientorder/atom, occasional
      attributes: full, newton on
      pair build: full/bin/atomonly
      stencil: full/bin/3d
      bin: standard
  (3) compute coord/atom, occasional
      attributes: full, newton on
      pair build: full/bin/atomonly
      stencil: full/bin/3d
      bin: standard
  (4) compute cluster/atom, occasional
      attributes: full, newton on
      pair build: full/bin/atomonly
      stencil: full/bin/3d
      bin: standard
Per MPI rank memory allocation (min/avg/max) = 9.769 | 9.778 | 9.782 Mbytes
Step Temp PotEng c_msd[4] v_twopoint v_fit v_max_n 
   12000    1.2412693   -6.5525938 1.8694031e-30 1.2981966e-32 8.3333333e+20            2 
   13000     1.254832   -6.5153329   0.55207395 0.0035389355   0.04608768            2 
   14000    1.2407905   -6.5741395    1.0398697 0.0061897004  0.042826767            1 
   15000    1.2314894   -6.5060371    1.5476334  0.008597963  0.041739846            2 
   16000     1.226378    -6.498589    2.0864119  0.010866728  0.042211837            3 
   17000    1.2542184   -6.5200587    2.6021751   0.01275576  0.042850163            5 
   18000    1.2675774    -6.541378    3.0850781  0.014282768  0.042804429            3 
   19000    1.2516898   -6.5464266     3.684809  0.016161443  0.043141509            2 
   20000    1.2493528   -6.4908311    4.1737313  0.017390546  0.043260918            2 
   21000    1.2567158   -6.5483639    4.6602052  0.018492877   0.04323367            1 
   22000    1.2595798   -6.5201332    5.1081549  0.019349071  0.043026949            3 
   23000    1.2422799   -6.5140572    5.7345613  0.020777395  0.043023825            2 
   24000    1.2529156   -6.5496706    6.2344056  0.021647241  0.043160277            2 
   25000    1.2390845   -6.5312483    6.7603847  0.022534615   0.04314862            1 
   26000    1.2203525   -6.5185162    7.2881469  0.023359445  0.043143386            2 
   27000    1.2450919   -6.4958753     7.766323  0.023970132  0.043131576            3 
   28000    1.2484508   -6.5357344    8.3901635  0.024970724  0.043175867            3 
   29000    1.2229723   -6.5609924    9.0496525  0.026004748  0.043445045            3 
   30000    1.2306067   -6.5359939    9.6559704  0.026822139  0.043872958            2 
   31000    1.2504148   -6.5236433    10.218643   0.02746947  0.044223897            2 
   32000    1.2397803   -6.5037573    10.675268  0.027800176  0.044418482            3 
   33000    1.2473619   -6.5571901    11.137945  0.028126123  0.044501924            3 
   34000    1.2280488   -6.5183712    11.740199  0.028774998  0.044550788            3 
   35000    1.2349244   -6.5635595    12.168699  0.028973091  0.044548944            2 
   36000    1.2605954   -6.5573916    12.598088  0.029162241  0.044476804            2 
   37000    1.2205193   -6.5171651    13.021273   0.02932719  0.044351426            1 
   38000    1.2438813   -6.4969996    13.580024  0.029780755   0.04421053            2 
   39000    1.2311761   -6.5259666    13.926341  0.029757139  0.044054753            1 
   40000    1.2644318   -6.5216358    14.387528  0.029974015   0.04383836            1 
   41000    1.2338823   -6.5419436    14.886144  0.030256391  0.043645202            4 
   42000    1.2478479   -6.5092946    15.462377   0.03067932  0.043484036            1 
   43000    1.1882298   -6.5082799    16.048274  0.031101306  0.043381595            1 
   44000    1.2457974   -6.5469789     16.41195  0.031083238   0.04327849            3 
   45000    1.2384909   -6.5253013    16.956449  0.031400831  0.043185213            1 
   46000    1.2513655   -6.5594241    17.614337   0.03191003  0.043124135            4 
   47000    1.2443024   -6.5185181    18.105153  0.032101336  0.043101317            2 
   48000    1.2374195   -6.5384202    18.636923  0.032355769  0.043082744            2 
   49000    1.2292151   -6.5329231    19.166631   0.03259631   0.04305165            1 
   50000     1.239259   -6.5648677     19.53377  0.032556283  0.042997642            2 
   51000    1.2408824   -6.5616255     19.89342  0.032505588  0.042922671            3 
   52000    1.2236968    -6.551394    20.432516  0.032744416  0.042834195            3 
   53000    1.2357554   -6.5614453    20.894794   0.03285345  0.042768054            4 
   54000    1.2239292   -6.5699889    21.406319  0.033034442  0.042703415            1 
   55000    1.2268216   -6.5497342    21.949267  0.033256465  0.042643963            1 
   56000    1.2378968   -6.4922691    22.569156  0.033585054   0.04261526            1 
   57000    1.2279845   -6.5286516    22.931257  0.033525229    0.0425627            2 
   58000    1.2303245   -6.5542221    23.255202  0.033412646  0.042492869            3 
   59000    1.2248621   -6.5691598    23.867114  0.033710612   0.04242061            2 
   60000    1.2470629   -6.5493194    24.360569  0.033834123   0.04236743            1 
   61000    1.2212071    -6.515518    24.812386  0.033896701  0.042292711            5 
   62000    1.2401809   -6.5406506    25.260361  0.033952098  0.042233971            1 
   63000    1.2268895   -6.5565084    25.781494  0.034102505  0.042168126            2 
   64000    1.2314546   -6.5474499      26.2065  0.034123047  0.042094479            2 
   65000    1.2358384   -6.5383226     26.88181  0.034463859   0.04204427            1 
   66000    1.2222064   -6.5665345     27.27159  0.034433826  0.042009139            1 
   67000    1.2037655   -6.5824945    27.800647  0.034577919  0.041978448            3 
   68000    1.2206208   -6.5714278    28.266421  0.034640222  0.041941613            2 
   69000    1.2215769   -6.5652051    28.869801  0.034866909   0.04192472            2 
   70000    1.2053401   -6.5564471    29.499672  0.035118657   0.04192001            2 
   71000    1.2303242   -6.5654555    29.916257  0.035112977  0.041913767            1 
   72000    1.2383696   -6.5317104    30.379503  0.035161462  0.041904785            2 
   73000    1.2198298   -6.5580601    30.865672  0.035234785  0.041900964            2 
   74000    1.2118339   -6.5858711    31.363791  0.035319584  0.041889068            1 
   75000    1.2170643     -6.54847    31.794111   0.03532679  0.041873208            2 
   76000    1.2276863   -6.5613092    32.305173  0.035422338  0.041847993            5 
   77000    1.2265902   -6.6372647     32.82912  0.035529351   0.04183518            2 
   78000    1.1986455   -6.5637135    33.443055  0.035729759  0.041825251            3 
   79000    1.2242717   -6.5362895    33.876704   0.03573492   0.04180731            2 
   80000    1.2059301   -6.5574533    34.418549  0.035852655  0.041794141            2 
   81000    1.2437138   -6.5791151    34.825083  0.035828274  0.041785951            2 
   82000     1.221238   -6.6058047    35.202404  0.035774801  0.041768133            3 
   83000    1.2233721   -6.6062511    35.651833  0.035795013  0.041753752            3 
   84000    1.2165219   -6.5703252    36.157615   0.03587065  0.041735768            1 
   85000    1.2125088   -6.5412548    36.659617  0.035940801  0.041711189            2 
   86000    1.2126848   -6.5835384    37.190663  0.036037463  0.041682255            2 
   87000    1.2135659   -6.6190146    37.612803  0.036027588  0.041667559            2 
   88000    1.2278402    -6.578165    38.280623   0.03625059  0.041651765            1 
   89000    1.2304587   -6.5289369    38.769128  0.036300681  0.041637243            1 
   90000    1.1888001   -6.5767509    39.156244  0.036255781  0.041623387            2 
   91000    1.2252648    -6.560008    39.867865  0.036509034  0.041622533            1 
   92000    1.2172737   -6.5813104    40.324424  0.036525746  0.041626689            2 
   93000    1.2124352   -6.5504508    40.916603  0.036663622  0.041622637            1 
   94000    1.2207393   -6.6020301    41.092293  0.036429337   0.04160937            2 
   95000    1.2044027   -6.5499644    41.539023  0.036437739  0.041588703            2 
   96000     1.244669   -6.5722106    41.969017  0.036431438  0.041567025            3 
   97000    1.2177225   -6.6265446    42.585646  0.036585607  0.041546149            2 
   98000    1.2169583   -6.6056491    43.017227  0.036579274  0.041535234            2 
   99000    1.2114817   -6.5776481    43.571806  0.036676604  0.041524353            6 
  100000    1.2161673    -6.576071    44.137476   0.03678123  0.041510782            2 
  101000    1.2095377   -6.6121818    44.422159  0.036651947  0.041488359            2 
  102000    1.2343185    -6.578102    44.755736  0.036565144  0.041465121            2 
  103000    1.2254377   -6.5352598    45.172289   0.03654716  0.041435723            1 
  104000    1.2365333   -6.5686271     45.64757  0.036576579  0.041406945            3 
  105000    1.2165962     -6.61433    46.215483  0.036678955   0.04137777            2 
  106000    1.2375012   -6.6115579    46.961108   0.03691911  0.041360683            4 
  107000    1.2086593   -6.6256039    47.436758  0.036944516  0.041352915            1 
  108000    1.2076763   -6.5918789    47.767171  0.036857385  0.041343604            1 
  109000    1.2064918   -6.6082056    48.174006   0.03683028  0.041324535            2 
  110000    1.2064426   -6.5972318    48.374996  0.036647724  0.041297024            2 
  111000    1.1800652   -6.5672942    48.856282   0.03667889  0.041264257            2 
  112000    1.2168434   -6.5658549    49.334361  0.036707114  0.041228717            2 
  113000    1.2080747   -6.6460486    49.832852  0.036749891  0.041193925            1 
  114000    1.2373925   -6.5959463    50.378528  0.036826409  0.041169547            1 
  115000    1.2208542   -6.6078655    51.127099  0.037048622  0.041147435            1 
  116000    1.2199277   -6.5596755    51.536577  0.037023403  0.041127724            1 
  117000    1.2335293   -6.6093763    52.098675  0.037107318  0.041110371            3 
  118000    1.2184212   -6.5896524    52.639813  0.037175009  0.041099108            1 
  119000    1.1808476   -6.5756102    53.216637  0.037266552  0.041091427            2 
  120000    1.2019416   -6.5737609    53.483335  0.037141205  0.041078996            2 
  121000    1.2392393   -6.6033516    54.089043  0.037251407  0.041067558            2 
  122000    1.2051238   -6.5919556    54.418946  0.037171411  0.041059125            2 
  123000    1.2111425   -6.6081555    54.911268  0.037202756  0.041049998            2 
  124000    1.2026088   -6.6203224     55.70873  0.037438662  0.041044607            1 
  125000    1.1905145   -6.6060391     56.07157  0.037381046  0.041038247            2 
  126000     1.193415   -6.5692241    56.424053  0.037317495  0.041030521            2 
  127000    1.2128865    -6.627695    56.851344  0.037304031  0.041021535            1 
  128000     1.227936   -6.5803038    57.527739  0.037452955  0.041014556            1 
  129000    1.1641532    -6.592049    57.984922   0.03745796  0.041005542            1 
  130000    1.2070914   -6.6181659    58.280204  0.037359105  0.040993194            5 
  131000    1.1827038   -6.5928208    58.908705  0.037473731  0.040980124            4 
  132000    1.1994275   -6.6262885    59.481958  0.037551741  0.040970786            3 
  133000    1.2029147   -6.6107954    59.688438  0.037398771  0.040958417            2 
  134000    1.2179735   -6.6339512    60.221805  0.037451371  0.040946814            1 
  135000    1.2217532   -6.5650285    60.736447  0.037491634  0.040937488            2 
  136000    1.2330087   -6.6483762    61.375836  0.037607742  0.040927955            2 
  137000    1.2421758   -6.6505729    61.888042  0.037644794  0.040918709            1 
  138000    1.2056824   -6.6500528    62.186315  0.037552122  0.040908947            2 
  139000     1.171287   -6.6193934    62.713238  0.037597864   0.04090068            3 
  140000    1.1985825   -6.5981573    63.593118  0.037853046  0.040896444            2 
  141000    1.1965415   -6.6362853    63.781433  0.037695882  0.040890815            1 
  142000    1.2071147   -6.6103032    64.255865  0.037708841  0.040886299            2 
  143000    1.2192223   -6.6636407    64.418236  0.037539764  0.040878824            2 
  144000    1.2116093   -6.6442157    65.048393  0.037643746  0.040868183            2 
  145000    1.1757004   -6.5902199    65.453894   0.03761718  0.040858236            2 
  146000    1.1624653   -6.6127569    66.009238  0.037676505  0.040845466            4 
  147000     1.192427   -6.6147223    66.355172  0.037616311  0.040832791            3 
  148000    1.2217833   -6.6452621    66.710945  0.037562469  0.040820731            2 
  149000    1.2111927   -6.6106605    67.361042  0.037673961  0.040807859            1 
  150000    1.1892075   -6.6101923    67.408156  0.037448975  0.040789358            1 
  151000    1.2076281   -6.5759217    67.812612  0.037424179    0.0407653            2 
  152000    1.2288992   -6.6306844    68.178778  0.037378716  0.040738972            2 
  153000    1.2325413   -6.6538383    68.774407  0.037458827  0.040712112            3 
  154000    1.1958446   -6.6510904    68.951737  0.037311546   0.04068993            3 
  155000     1.192058   -6.6397229    69.896573  0.037578802  0.040668512            3 
  156000    1.1822147   -6.6530866    70.299393  0.037553094  0.040646381            1 
  157000     1.216205   -6.6502736    70.550195  0.037447025  0.040624133            2 
  158000    1.1944831   -6.6278753    70.979735  0.037436569   0.04060009            2 
  159000    1.1927564    -6.640144    71.450266  0.037447728  0.040579651            2 
  160000    1.1902868   -6.6616079    72.149961  0.037578105  0.040562018            1 
  161000    1.2073011   -6.6207621    72.312697  0.037428932  0.040541676            2 
  162000     1.199372   -6.6425774    72.723895  0.037409411  0.040519022            1 
  163000    1.1739153   -6.6649787    73.363255  0.037506777  0.040496835            2 
  164000    1.1884742   -6.6154365    73.348316  0.037270486  0.040472562            1 
  165000     1.195487   -6.6641318    73.587727  0.037165518  0.040443065            1 
  166000    1.1736272   -6.6615079    73.977395  0.037137246  0.040411734            5 
  167000    1.1866469   -6.6623395    74.749052  0.037299926  0.040380159            3 
  168000    1.1882171   -6.6455664    75.002859  0.037203799  0.040352259            3 
  169000    1.2050349   -6.6512013    75.687191    0.0373211  0.040324532            1 
  170000    1.1955111   -6.6018667     76.21117  0.037358416   0.04029578            1 
  171000    1.1838379   -6.6384455    76.195862  0.037132486  0.040266132            3 
  172000    1.1613483   -6.6423572    76.761053  0.037190432  0.040234519            3 
  173000    1.2150534   -6.6481493    77.091222    0.0371345  0.040204458            1 
  174000    1.1864262   -6.6353489    77.525845  0.037129236  0.040174245            2 
  175000    1.1977082   -6.6835628    78.015955  0.037150455  0.040144156            2 
  176000    1.1734786   -6.6413174    78.881033  0.037348974  0.040117443            4 
  177000    1.1793334   -6.6341081    78.835831  0.037116681  0.040091099            2 
  178000    1.1741013   -6.6184613    79.459896  0.037200326  0.040064191            3 
  179000    1.1744193    -6.633193    79.709826  0.037108858  0.040034987            4 
  180000    1.1678986   -6.6511096    80.077526  0.037072929  0.040002547            1 
  181000    1.1989878   -6.6466853    80.351569  0.036994277  0.039969499            2 
  182000    1.1883256   -6.6526235    81.070887   0.03712037  0.039939873            2 
  183000    1.1642472   -6.6056437    81.257516  0.037002512  0.039910646            2 
  184000    1.1851904   -6.6488238    81.798732  0.037046527  0.039878007            1 
  185000    1.1884223   -6.6997699    81.660547   0.03678403  0.039843798            2 
  186000    1.1714237   -6.6420706    82.400925  0.036917977  0.039810063            4 
  187000    1.1642435   -6.6548998     82.60442  0.036811239  0.039777992            4 
  188000    1.1801709   -6.6805232    83.177043  0.036869257  0.039743924            2 
  189000    1.1760184   -6.6150634    83.294324  0.036725892  0.039706798            2 
  190000    1.1510223   -6.6575497    83.873616  0.036786673  0.039668722            4 
  191000     1.188508   -6.6384042    84.161806  0.036719811  0.039632088            1 
  192000    1.1667288   -6.6841354    84.842798  0.036824131   0.03959746            2 
  193000    1.1762403   -6.6655665     85.03751  0.036717405  0.039563809            4 
  194000    1.2036148    -6.665968    85.349523  0.036662166  0.039528726            1 
  195000    1.1819806   -6.6658696     85.84574  0.036686214  0.039489639            3 
  196000    1.1630818   -6.6393726    86.211897  0.036654718   0.03945278            3 
  197000    1.1835651   -6.6320376     86.83672  0.036732961  0.039418923            2 
  198000    1.1817662   -6.6562543    86.882072  0.036566529  0.039383388            1 
  199000    1.1577415   -6.6512343    87.648741  0.036703828  0.039349261            4 
  200000    1.1645061   -6.6539159    88.313786  0.036797411  0.039317153            1 
  201000    1.2064705    -6.631438    88.771384  0.036804056   0.03928718            5 
  202000     1.186174   -6.6839726    89.076411  0.036747694  0.039259598            1 
  203000    1.1777737   -6.6687024    89.719965  0.036830856  0.039230785            2 
  204000    1.1870996   -6.6217433    90.463206  0.036953924  0.039202945            3 
  205000    1.1470603   -6.6467675    90.580284  0.036821254  0.039176297            1 
  206000    1.1716996   -6.6683399    90.585588  0.036644655   0.03914725            5 
  207000    1.1506396   -6.6734471    91.175602  0.036705154  0.039117635            1 
  208000    1.1939211    -6.689917    91.235852  0.036552825  0.039088909            3 
  209000     1.148942    -6.663731    91.675749  0.036553329  0.039057785            2 
  210000    1.1718814   -6.6684882    92.378396  0.036658093  0.039026818            1 
  211000    1.1916712    -6.652579    92.616152  0.036578259  0.038995504            4 
  212000    1.1751866   -6.6679991    93.110013  0.036599848  0.038962937            2 
  213000    1.1379285   -6.7035369    93.309108  0.036505911  0.038931374            1 
  214000    1.1533436   -6.6975152     93.90567  0.036567628  0.038899053            1 
  215000    1.1754402   -6.6975245    93.835056  0.036370177   0.03886686            2 
  216000    1.1632393      -6.6864     94.56551  0.036483607  0.038833909            2 
  217000    1.1645791    -6.694579    95.252905  0.036579457  0.038802249            2 
  218000    1.1573699   -6.6446133    95.796376   0.03661941  0.038775363            1 
  219000    1.1746371   -6.7177405    96.105598  0.036569862   0.03874967            2 
  220000    1.1643514   -6.7238526    96.349443  0.036496001  0.038722049            2 
  221000    1.1653562   -6.6795384    96.761118  0.036486093  0.038694978            1 
  222000    1.1512403   -6.6754949    97.435706  0.036574965  0.038669575            1 
  223000    1.1343321    -6.662085    97.626785  0.036482356  0.038644012            3 
  224000    1.1434862   -6.6760634    97.973835  0.036448599  0.038617133            1 
  225000     1.151048   -6.6739239    98.887598  0.036625036  0.038593307            1 
  226000    1.1842367   -6.6741741    99.299711  0.036614938  0.038571157            2 
  227000    1.1648083   -6.6702059    100.07886   0.03673967  0.038548881            2 
  228000    1.1717296   -6.6954348    100.21683  0.036628957  0.038528293            7 
  229000    1.1790702   -6.6961207    100.52924  0.036582693  0.038508438            2 
  230000    1.1409363   -6.6592403    101.38744  0.036734581  0.038489395            3 
  231000    1.1689888   -6.6867687    101.84911  0.036742104  0.038469595            4 
  232000    1.1580163   -6.7171487    101.89563  0.036600441   0.03845101            3 
  233000    1.1393214   -6.6498861     102.8163  0.036772638  0.038432359            3 
  234000    1.1443387   -6.7531021    103.12525  0.036725515  0.038414947            1 
  235000    1.1711624   -6.6571478    103.96876  0.036868354  0.038399152            1 
  236000    1.1413923   -6.7204786    104.03645  0.036736034  0.038384112            3 
  237000    1.1673326    -6.685502    104.57732   0.03677121  0.038369497            2 
  238000     1.138911    -6.725846    105.19896  0.036834369  0.038356041            1 
  239000     1.151906   -6.7192049    105.61861  0.036826571  0.038342321            2 
  240000    1.1511751   -6.7042345    106.01217   0.03680978  0.038328793            3 
  241000    1.1611928   -6.7196266    105.84175  0.036598117   0.03831427            3 
  242000     1.146059   -6.6985567    106.52895  0.036683524  0.038298597            2 
  243000    1.1713937   -6.6868781    106.85125  0.036643091  0.038282374            1 
  244000    1.1812887   -6.7143353    107.09905  0.036577545  0.038265184            9 
  245000    1.1452394   -6.6988202    107.56524  0.036586818  0.038247164            1 
  246000     1.129973   -6.6946598    108.02696  0.036594498  0.038228515            3 
  247000     1.174591   -6.6667529     108.4697  0.036595714  0.038209717            2 
  248000    1.1640781   -6.6653845    108.42188  0.036432085   0.03818951            3 
  249000    1.1744722   -6.7082043    108.91343  0.036450277  0.038169034            1 
  250000    1.1567255    -6.713232    109.29604  0.036432014  0.038148928            2 
  251000    1.1715667   -6.7314822    109.62741  0.036396883  0.038128698            1 
  252000    1.1494339   -6.6858554    110.02974  0.036385497   0.03810862            2 
  253000    1.1467045   -6.6924329    110.56965  0.036419517  0.038088018            3 
  254000    1.1377741   -6.6953886    111.02395  0.036425179  0.038067836            4 
  255000    1.1323559   -6.7223181    111.35584  0.036390796  0.038048278            2 
  256000    1.1329204   -6.6888245    111.77363  0.036384644  0.038027853            1 
  257000    1.1695579   -6.7484657    111.95715  0.036302576   0.03800795            1 
  258000    1.1601534   -6.6654509    112.60276    0.0363704  0.037988468            2 
  259000    1.1504637   -6.7235157    113.11723  0.036395506  0.037970177            1 
  260000    1.1702924   -6.7294185    113.43359   0.03635692  0.037951864            4 
  261000    1.1104694   -6.7065097    114.26601  0.036483401  0.037933857            1 
  262000    1.1247533   -6.7368763    114.17367  0.036314782  0.037915724            2 
  263000    1.1652061    -6.685701    114.81013  0.036378369  0.037896787            1 
  264000    1.1420892   -6.7054227    114.93062  0.036278604  0.037876068            2 
  265000    1.1741086   -6.7214626    114.91668  0.036137322   0.03785497            1 
  266000    1.1518312   -6.6986161    115.23754  0.036101987  0.037832872            5 
  267000    1.1602478   -6.7048297    115.40949  0.036020441  0.037808744            2 
  268000    1.1344792   -6.7092067    115.72564  0.035984339  0.037782934            2 
  269000    1.1415472   -6.7067011    116.31245  0.036032359  0.037758062            2 
  270000     1.148207   -6.6854127    117.12319  0.036149132  0.037734095            1 
  271000    1.1351041   -6.7188876    117.25961  0.036057689  0.037710337            3 
  272000    1.1438001   -6.7173731    117.54139  0.036011456  0.037686232            2 
  273000    1.1471813   -6.7631979    117.49898  0.035866599  0.037662295            3 
  274000    1.1770812   -6.6914811    118.49349  0.036038167  0.037639251            1 
  275000    1.1360558   -6.7114708    119.03581  0.036071458  0.037617917            4 
  276000    1.1499912   -6.7221663    119.02781  0.035938348  0.037595204            1 
  277000     1.136458   -6.7087872    119.56618  0.035970573  0.037572074            2 
  278000    1.1512029   -6.7211404    119.83557  0.035921934  0.037548046            1 
  279000    1.1217442   -6.7395226    120.25375  0.035918085   0.03752359            3 
  280000      1.14022   -6.7688115    120.37271  0.035825211  0.037498566            2 
  281000    1.1548824   -6.7128889    120.79685  0.035823502  0.037473242            1 
  282000    1.1192174   -6.7041112    121.54807  0.035918462  0.037448699            3 
  283000    1.1392761   -6.7364536    122.09302  0.035952007  0.037426449            3 
  284000    1.1838644   -6.6900233    122.21671  0.035861711  0.037405142            2 
  285000     1.139958   -6.7308045    122.85141  0.035921466  0.037383534            3 
  286000    1.1562468    -6.721794    123.09738  0.035867535  0.037362252            3 
  287000    1.1410622   -6.7632685    123.31284  0.035805123  0.037340594            2 
  288000    1.1083948   -6.7020204    123.60825  0.035766277  0.037318222            4 
  289000    1.1419575   -6.7147281    124.04333  0.035767973  0.037295886            1 
  290000    1.1456079   -6.7007898    124.53025  0.035784555  0.037273279            2 
  291000    1.1389183   -6.7711532    124.87264  0.035759634  0.037251242            3 
  292000    1.1488801   -6.7747158    125.24716  0.035744052  0.037227909            2 
  293000    1.1419513   -6.7536378    124.95938  0.035540212  0.037204438            4 
  294000    1.1083545   -6.6832417    125.90224  0.035686576  0.037180788            1 
  295000    1.1303496   -6.6936526    126.32185  0.035684139  0.037157694            1 
  296000    1.1547897   -6.7521676    126.56533  0.035632132  0.037134616            4 
  297000    1.1201792   -6.7300072    127.04849  0.035647725  0.037110859            2 
  298000    1.1186786   -6.7323892     127.2959  0.035597287  0.037088744            2 
  299000    1.1353395   -6.7511209    127.68561  0.035586847  0.037066673            3 
  300000    1.1517462   -6.7042909    128.15969  0.035599915  0.037044334            3 
  301000    1.1244618    -6.701043    128.42472  0.035555017  0.037022548            2 
  302000    1.1072142   -6.7290377    128.81571  0.035545175  0.037000094            1 
  303000    1.1095633   -6.7250187    129.30507   0.03556245   0.03697763            1 
  304000    1.1220494   -6.7261943    130.11925  0.035668655  0.036955913            2 
  305000    1.1281725   -6.7127504    129.90788  0.035493955  0.036933992            2 
  306000    1.1281335   -6.7708766    130.03318  0.035412086  0.036910694            2 
  307000    1.1621437   -6.7642417    130.01568  0.035291988  0.036885624            3 
  308000    1.1054654   -6.7514001    130.59864  0.035335131  0.036860597            1 
  309000    1.1227989   -6.7456179    130.93886  0.035312531   0.03683603            3 
  310000    1.1190441   -6.7529777    131.54325   0.03536109    0.0368115            2 
  311000    1.1270984   -6.7493779    132.21524  0.035427448  0.036787343            3 
  312000    1.1284283     -6.71627    131.93438  0.035238882  0.036763651            2 
  313000    1.1352706   -6.7446005    132.31702  0.035228172   0.03673965            3 
  314000    1.1646008   -6.7352364    132.54341  0.035176064  0.036715274            2 
  315000    1.1320024   -6.7580468    133.28296  0.035260042  0.036691326            1 
  316000    1.1100419   -6.7075079    133.81122   0.03528777  0.036667735            1 
  317000    1.1300848   -6.7308236    134.16911  0.035270534  0.036644134            1 
  318000    1.1397207   -6.7655575    134.70126  0.035299073  0.036621368            2 
  319000    1.1192336   -6.7219039    135.02548  0.035273113  0.036597296            3 
  320000    1.1403921    -6.778886    135.23907  0.035218508  0.036574366            5 
  321000    1.1358717   -6.7560628    135.99246  0.035304378   0.03655269            1 
  322000    1.0938844   -6.7667265    136.26921  0.035266358  0.036531573            2 
  323000    1.1308543   -6.7598784    136.52221  0.035222449  0.036510656            4 
  324000    1.1175891   -6.7653577    136.91601  0.035215024  0.036487686            2 
  325000    1.1163199   -6.7691234     137.1312  0.035161847  0.036465685            2 
  326000    1.1320509   -6.7665295    138.24288   0.03533816  0.036445183            2 
  327000    1.1262084   -6.7697194    137.68281  0.035087362  0.036424081            1 
  328000    1.1198101   -6.8043722    138.41007  0.035165159  0.036403198            2 
  329000    1.1398492   -6.7738961    138.70188  0.035132189  0.036382186            2 
  330000    1.1353432   -6.7463532     139.1676  0.035143334  0.036361356            2 
  331000    1.1157645   -6.8121435    139.47319  0.035114097  0.036340061            3 
  332000    1.1202022   -6.7191175    140.06481  0.035156829  0.036318847            3 
  333000     1.106949   -6.7786754    139.94474  0.035021207  0.036298253            2 
  334000    1.1203525   -6.7844238    140.57997  0.035074843  0.036276075            1 
  335000     1.125325   -6.7620319    140.60833  0.034977197  0.036253484            3 
  336000    1.1145061   -6.7529304    140.95758  0.034959716   0.03623074            2 
  337000     1.129456   -6.7926628     141.2755  0.034934596  0.036207946            8 
  338000     1.109751   -6.7755149    142.02935  0.035017099   0.03618533            2 
  339000    1.1096369   -6.8006909    141.94177  0.034892274  0.036164846            2 
  340000    1.1380496   -6.8182881    141.74852  0.034742283  0.036142788            1 
  341000    1.1127202   -6.7894856    142.53117  0.034831665  0.036120129            1 
  342000    1.1192138   -6.7732012    142.86843  0.034811995   0.03609723            5 
  343000    1.1144298   -6.7771663    143.63658  0.034897127  0.036074331            1 
  344000    1.0998007   -6.7642976    143.60339  0.034787643  0.036050911            2 
  345000    1.1205564   -6.7777332    144.33412  0.034863314  0.036028368            2 
  346000    1.1129495   -6.7579316    145.08119  0.034942484  0.036006258            5 
  347000    1.0958082   -6.7796568    145.10182  0.034846739  0.035985025            4 
  348000    1.1095942    -6.741764    146.13577  0.034994197   0.03596425            4 
  349000    1.1329686   -6.7629604    146.18071  0.034904658  0.035944304            3 
  350000    1.1384875   -6.7871498     146.7117  0.034931357  0.035924661            2 
  351000    1.1034984   -6.7504329    147.22051  0.034952638  0.035905634            1 
  352000    1.1353132   -6.8005635    147.06792  0.034817216  0.035886837            2 
  353000    1.0997285   -6.7740187    147.21975  0.034754427  0.035867598            5 
  354000    1.1172626   -6.7471251    148.18183  0.034882728  0.035848729            4 
  355000    1.0942919   -6.7958075    148.11385   0.03476851  0.035829569            4 
  356000    1.1320349   -6.7794041    148.73506  0.034816259  0.035810641            4 
  357000    1.1168035   -6.7975279    148.89965  0.034757155  0.035792071            2 
  358000    1.1023233   -6.7633175    149.47299  0.034793525  0.035772984            1 
  359000    1.0908219   -6.7618712    149.63357  0.034733883  0.035752982            2 
  360000    1.1152287   -6.8123985    149.84297  0.034685873  0.035733113            3 
  361000    1.0893354   -6.7786174    150.35098  0.034707058  0.035712698            7 
  362000    1.1021922   -6.7883176    150.59667  0.034667742  0.035693434            1 
  363000    1.1153362   -6.8024097    150.88367  0.034638125  0.035673016            2 
  364000    1.1226376   -6.7727066    151.31247  0.034641134  0.035653402            4 
  365000    1.0901583   -6.7826949     151.4003  0.034566279  0.035633729            2 
  366000    1.1081624   -6.7710379    151.86052  0.034576621  0.035613762            2 
  367000    1.1248142    -6.788557    151.88983  0.034489063  0.035592653            1 
  368000    1.1133153   -6.7872058    152.29933  0.034488074  0.035571279            7 
  369000    1.1172432   -6.7949534    153.31267  0.034623457  0.035550549            2 
  370000    1.0858819   -6.7960881    153.04062  0.034468608  0.035529464            4 
  371000    1.1014813   -6.7809818    153.54294  0.034488531  0.035509258            3 
  372000    1.1022329   -6.8261947    154.26996  0.034558683  0.035489543            2 
  373000    1.0991319   -6.8339942    154.57132  0.034533361  0.035470092            2 
  374000    1.1083936   -6.7811735    154.94386  0.034524034  0.035450464            4 
  375000    1.1098563   -6.8047382    155.82252  0.034627226  0.035431058            1 
  376000    1.1351145   -6.8022403    155.62753  0.034491917  0.035411602            4 
  377000    1.0880418   -6.8334087    155.35485  0.034340152  0.035392344            5 
  378000    1.0974997   -6.8061739    156.57034   0.03451727  0.035372897            3 
  379000    1.0937446   -6.7867415    156.24694  0.034355088  0.035354612            2 
  380000    1.0849284   -6.7770431    157.57012  0.034554851  0.035336015            3 
  381000    1.1003052   -6.8190777    157.01591  0.034342937  0.035317149            2 
  382000    1.0728155   -6.8123565     157.7737  0.034418347   0.03529887            3 
  383000    1.1013392   -6.8052181    158.28847  0.034440486  0.035280621            2 
  384000    1.0938145   -6.8563667    158.57325  0.034412597  0.035262546            1 
  385000    1.1015568   -6.8275041     158.9045  0.034394913  0.035245538            1 
  386000    1.1120981   -6.8158101    159.96004  0.034533687  0.035228234            3 
  387000    1.0998302   -6.7892526    160.24233   0.03450524  0.035211539            1 
  388000    1.0945956   -6.7883752      159.549  0.034267397  0.035193552            1 
  389000    1.0910975   -6.8304636    160.21367  0.034321695   0.03517483            1 
  390000    1.1129226   -6.8233339    160.47736  0.034290034   0.03515691            1 
  391000     1.124689   -6.7990312    161.68616  0.034459966  0.035138726            2 
  392000    1.1241754   -6.8010313    161.40103  0.034311444  0.035121252            2 
  393000    1.0782845   -6.8305084    161.87262  0.034324134    0.0351035            1 
  394000    1.0898501   -6.8072388    162.51959  0.034373857  0.035086412            4 
  395000    1.0587009    -6.794439    162.43562  0.034269118  0.035068685            3 
  396000    1.1094077   -6.7947844    162.77206  0.034253379   0.03505063            1 
  397000    1.1027737   -6.8540469     162.6193  0.034135033  0.035032291            2 
  398000    1.1071572    -6.830584    163.33267  0.034198633  0.035013033            1 
  399000    1.1015879    -6.846689    164.14945  0.034283512  0.034995256            1 
  400000    1.0889469   -6.8245991    164.38484  0.034246842  0.034977517            3 
  401000    1.0994489   -6.7918257    165.21209  0.034333353  0.034960931            3 
  402000    1.0782203   -6.8295322    165.21856  0.034249286  0.034944224            2 
  403000    1.1043503   -6.8350573    165.07962  0.034135571  0.034926473            3 
  404000    1.1047283   -6.8465384    165.31871  0.034100394  0.034908691            2 
  405000    1.0868411   -6.8237396    165.50503  0.034054533  0.034890286            1 
  406000    1.1141807   -6.8339968    165.35378   0.03393961  0.034871247            1 
  407000    1.0913925    -6.810449    165.77962  0.033943412  0.034851365            2 
  408000    1.0975315   -6.8092043    166.45102  0.033997348  0.034831012            3 
  409000    1.0993896   -6.7874278    166.48826  0.033921813  0.034811456            3 
  410000     1.078372   -6.8383883    166.72699  0.033887599  0.034791118            1 
  411000    1.0859592   -6.8500742    167.22902  0.033906938  0.034770788            2 
  412000     1.085581    -6.834097    167.22401  0.033823627  0.034750126            1 
  413000     1.078501   -6.8278345    166.48442  0.033592498  0.034729014            7 
  414000    1.1049427   -6.8101451    167.57363  0.033730603   0.03470771            2 
  415000    1.0796394   -6.8128062    168.14433  0.033763921   0.03468657            1 
  416000    1.1001583   -6.8058406    168.64676  0.033783405  0.034665306            4 
  417000    1.0887988   -6.8342267    168.97517  0.033768019   0.03464495            5 
  418000    1.1013531    -6.852719    169.36919  0.033765788   0.03462454            2 
  419000    1.1127541   -6.8150083    169.18356  0.033648282  0.034604306            2 
  420000    1.1079703   -6.8568411    170.16124   0.03376215  0.034583623            2 
  421000    1.0923339   -6.8573309    169.73541  0.033597667  0.034563488            2 
  422000    1.0746726   -6.8402994    171.01237  0.033770216  0.034543469            2 
  423000     1.084061   -6.8285157    170.84954  0.033658303  0.034523432            2 
  424000    1.0964752   -6.8305164    171.53634  0.033713902   0.03450323            2 
  425000    1.0980385   -6.8134633    171.68496  0.033663717   0.03448367            2 
  426000    1.0898562   -6.8114837    172.11216  0.033668263  0.034464466            2 
  427000    1.0922333   -6.8718561    172.32394  0.033630746  0.034444952            3 
  428000    1.0907881   -6.8619816    172.25028  0.033537827  0.034425605            2 
  429000    1.0742751    -6.830222    173.43427   0.03368964   0.03440641            4 
  430000    1.0808049   -6.8395612    173.61298  0.033645926  0.034387849            3 
  431000    1.0775835   -6.8154826    173.82121  0.033608122  0.034369766            1 
  432000    1.0723868   -6.8382956    174.00356  0.033565502  0.034350954            3 
  433000    1.0761339   -6.8549678    174.91965  0.033664289  0.034332839            1 
  434000    1.0920414    -6.896216    174.85544  0.033574393   0.03431454            3 
  435000    1.0731563   -6.8557771    175.23446  0.033569819   0.03429653            2 
  436000    1.0782243   -6.8608349    176.63269  0.033760071  0.034279357            2 
  437000    1.0716583   -6.8288872    176.33269  0.033625608  0.034263094            6 
  438000    1.0810301   -6.8204331    176.91493  0.033659614  0.034246388            2 
  439000    1.0745249   -6.8576814    176.37478  0.033480406  0.034229724            3 
  440000    1.0748397   -6.8435887    177.08049  0.033537971  0.034212808            3 
  441000     1.076161   -6.8235235    177.54041   0.03354883  0.034195846            3 
  442000    1.0996497   -6.8537639    177.43517  0.033453087  0.034178128            2 
  443000     1.062679   -6.8422132    178.02268  0.033488088  0.034160011            1 
  444000      1.10214   -6.8526474    177.79056    0.0333691  0.034141013            4 
  445000    1.1020777   -6.8500814    178.45224  0.033418022  0.034122509            5 
  446000    1.0891103   -6.8059586    179.22751  0.033487951  0.034104189            2 
  447000    1.0796989   -6.8857782    178.34037  0.033247646  0.034085726            1 
  448000    1.0617665   -6.8596419    178.93179  0.033283443  0.034066067            3 
  449000    1.0822425   -6.8433714     179.3042  0.033278434  0.034045997            1 
  450000    1.0866503   -6.9025871    179.88389  0.033311831  0.034026384            2 
  451000    1.0720895   -6.8864906    180.39492  0.033332394  0.034007597            2 
  452000    1.0624649   -6.8557665     180.3673  0.033253557  0.033989065            3 
  453000    1.0601301   -6.8847096    180.12775  0.033136083  0.033970259            1 
  454000    1.0351046   -6.8991873    181.29481  0.033277314   0.03395108            2 
  455000    1.0623514   -6.8674131    181.67472  0.033273758  0.033932333            2 
  456000    1.0911051   -6.8421246     182.4879  0.033349397  0.033914241            6 
  457000    1.0587865   -6.8849745    182.43167  0.033266169  0.033895864            2 
  458000     1.062733   -6.8656505    182.99907  0.033296774  0.033878588            2 
  459000    1.0525182   -6.8770166    183.18667  0.033258292  0.033861421            2 
  460000    1.0684462   -6.8440998    183.81629  0.033300053  0.033844653            3 
  461000    1.0814287   -6.8789379    184.02533  0.033265605  0.033827634            3 
  462000    1.0495944   -6.8727627    183.02184  0.033012598  0.033809853            2 
  463000    1.0790141    -6.861888    183.88699  0.033097011  0.033792337            2 
  464000    1.0747761   -6.8805824    184.13333  0.033069922   0.03377409            3 
  465000    1.0628102   -6.8846225    184.07879  0.032989031   0.03375537            3 
  466000    1.0548753   -6.8938984    184.78246  0.033044073   0.03373598            1 
  467000    1.0792217   -6.8582432    184.33782  0.032893972  0.033716413            2 
  468000    1.0658858   -6.8596003    184.42118   0.03283853  0.033696581            7 
  469000    1.0757735   -6.8867877    185.08705  0.032886825  0.033676315            1 
  470000    1.0669036   -6.9221981    185.40409  0.032873066  0.033656945            2 
  471000    1.0782379   -6.8704495    185.59089  0.032836322  0.033638409            3 
  472000    1.0626844   -6.8805097    186.71422  0.032965081  0.033619766            2 
  473000    1.0654977   -6.8944585    186.40922  0.032841652  0.033601426            4 
  474000    1.0616183   -6.8725156    187.45895  0.032956918  0.033582872            3 
  475000    1.0718043   -6.9069745    187.69016  0.032928097  0.033564161            3 
  476000    1.0514898   -6.8575168    188.52989  0.033005933  0.033545891            1 
  477000    1.0730891   -6.8917297    187.88057  0.032823301  0.033527461            3 
  478000    1.0838906   -6.8968975    188.58394  0.032877255  0.033508861            2 
  479000    1.0644946   -6.8875235    189.08727  0.032896184  0.033490354            2 
  480000    1.0694153   -6.8827851    188.90803  0.032796533   0.03347185            1 
  481000    1.0717937   -6.8776635    189.40268  0.032814048  0.033453611            2 
  482000    1.0600851   -6.8686593    189.03615  0.032682598  0.033434767            1 
  483000    1.0590274   -6.8924998    188.82156  0.032577909  0.033414975            1 
  484000    1.0567083   -6.8466701     190.0667  0.032724983  0.033394886            3 
  485000    1.0508309   -6.8897796    189.33982  0.032532615   0.03337447            4 
  486000    1.0539443   -6.8512216    189.76006  0.032537733  0.033353914            4 
  487000    1.0435735    -6.887247    189.58697  0.032441302  0.033333506            3 
  488000    1.0485279   -6.9094661    190.24072  0.032486461  0.033312463            7 
  489000    1.0312747   -6.9281953    190.57383  0.032476795  0.033291664            1 
  490000    1.0737397   -6.8885155    190.79571   0.03244825  0.033271015            1 
  491000    1.0436061   -6.8775236    191.25547  0.032460195  0.033250626            1 
  492000    1.0641609   -6.8759238    192.20407   0.03255489  0.033230691            2 
  493000    1.0605595   -6.9330344    191.35814  0.032345865  0.033209854            3 
  494000    1.0676073   -6.8688206    192.40444   0.03245689  0.033189003            3 
  495000    1.0458667   -6.8689429    192.06441  0.032334075  0.033168118            3 
  496000    1.0530003   -6.8785286     192.3113  0.032310366   0.03314652            2 
  497000    1.0382481   -6.9162991    192.20968  0.032228317   0.03312424            1 
  498000    1.0567782   -6.8904474    192.72176  0.032249291  0.033101907            2 
  499000    1.0661699    -6.927712    192.51003  0.032149304  0.033079609            2 
  500000     1.062038   -6.9264727     193.3378  0.032222966  0.033057774            2 
  501000    1.0757836   -6.9191424    193.88324  0.032249374  0.033036252            6 
  502000    1.0615343   -6.8806029    193.85251  0.032180031  0.033015237            4 
  503000    1.0372292   -6.8936862     193.9943  0.032139546  0.032993702            3 
  504000    1.0443722   -6.8746436    194.16313  0.032103692  0.032971861            3 
  505000    1.0704337   -6.9005052    195.38167    0.0322412  0.032950724            3 
  506000    1.0468332   -6.9404153    194.91874  0.032101242  0.032930133            4 
  507000    1.0291482   -6.9327026    195.38903  0.032115225  0.032909717            2 
  508000    1.0474332   -6.9315636    195.31418  0.032039728  0.032888841            3 
  509000    1.0481276   -6.9443713    196.09971  0.032105388    0.0328677            2 
  510000    1.0537378   -6.9203816    196.63743  0.032130298  0.032846484            3 
  511000    1.0329525   -6.8784825    197.04496  0.032133881  0.032825779            5 
  512000    1.0207012   -6.8897974    196.97097  0.032059077  0.032805292            2 
  513000    1.0487426   -6.9121819    197.11901  0.032020632  0.032783707            3 
  514000    1.0430584   -6.9240226    197.02927  0.031943786  0.032762627            4 
  515000    1.0668589   -6.9569736      197.036  0.031882848  0.032741432            1 
  516000    1.0512994   -6.9422198     196.8484  0.031790763  0.032719439            3 
  517000    1.0578587   -6.9061099    197.49463  0.031833435  0.032697596            2 
  518000    1.0380396   -6.9099225    198.17748  0.031881834  0.032675702            3 
  519000     1.038024   -6.9259987    198.30183  0.031840371  0.032653629            3 
  520000    1.0699629   -6.9172217    198.59073  0.031825438  0.032631168            2 
  521000    1.0535244   -6.9301257    198.39963  0.031733786  0.032608517            3 
  522000    1.0260411   -6.9133662    198.93032  0.031757714  0.032585782            6 
  523000    1.0322946   -6.9297768    198.78177  0.031673323  0.032563136            3 
  524000    1.0375056   -6.9100609    198.94899   0.03163947  0.032539757            4 
  525000    1.0620045   -6.9460986    198.69838  0.031539425  0.032516523            3 
  526000    1.0627044   -6.9129625    199.63005  0.031627067   0.03249382            2 
  527000     1.058484   -6.9408177    199.85281  0.031602279  0.032470904            1 
  528000    1.0482326   -6.9276208    199.53402  0.031492111  0.032448236            2 
  529000    1.0775444   -6.9234414     200.9133  0.031649858  0.032425794            6 
  530000     1.059501   -6.9328827    200.40732  0.031510585  0.032403125            3 
  531000    1.0403477   -6.9424675    200.46105  0.031459675  0.032380368            6 
  532000    1.0369156   -6.9049709    201.41565   0.03155007  0.032357873            4 
  533000    1.0632111   -6.8849566     202.0568  0.031591119  0.032335644            2 
  534000    1.0374404   -6.9425425    201.56571  0.031455322  0.032313598            3 
  535000    1.0667544   -6.9318778    201.63967  0.031408049  0.032291335            2 
  536000    1.0348237   -6.9348489    202.37426   0.03146366  0.032269078            2 
  537000    1.0368776   -6.9489663    202.43235  0.031414084   0.03224684            2 
  538000    1.0096513   -6.9415559    203.13545  0.031464598  0.032225017            1 
  539000    1.0391332   -6.9309456    203.06345  0.031395091  0.032202973            4 
  540000    1.0334876   -6.9515368    203.45983  0.031398121  0.032180651            3 
  541000    1.0327345   -6.9551787    203.79704  0.031392028  0.032158939            2 
  542000    1.0478602   -6.9266357    204.36162  0.031420914  0.032137703            2 
  543000    1.0392272     -6.93853    204.29003  0.031352061  0.032116417            4 
  544000    1.0436529   -6.9560219    204.54913  0.031334118  0.032094883            2 
  545000    1.0459244   -6.9546509    204.27801   0.03123517  0.032073255            3 
  546000    1.0059428    -6.949081     204.9491  0.031280388  0.032051449            5 
  547000    1.0313609   -6.9570504    205.00782  0.031232148  0.032029185            5 
  548000    1.0238927   -6.9524595    205.81887  0.031298489  0.032007431            6 
  549000     1.037863    -6.971102    206.03289  0.031273966  0.031985757            1 
  550000    1.0416508   -6.9483542    205.70648  0.031167649  0.031964349            3 
  551000    1.0442733   -6.9167709    206.09684  0.031170121  0.031943189            5 
  552000    1.0413764   -6.9339261    206.68749  0.031202822   0.03192112            2 
  553000    1.0319009   -6.9465734    206.48543  0.031115947   0.03189947            2 
  554000    1.0137684   -6.9269433     206.6075  0.031078145  0.031878042            2 
  555000    1.0263752    -6.968702    207.47453  0.031152332  0.031855838            4 
  556000    1.0413311   -6.9319629    207.53978  0.031106082  0.031833588            5 
  557000    1.0440927   -6.9696932    207.19839   0.03099916  0.031811291            3 
  558000    1.0191486   -6.9042055    207.38985  0.030972199   0.03178917            3 
  559000    1.0288163   -6.9437354    207.78504  0.030975707  0.031766773            2 
  560000    1.0471622    -6.980186    207.53637  0.030883389  0.031744098            1 
  561000    1.0441981   -6.9824527    208.52692  0.030975479  0.031721963            4 
  562000    1.0307156   -6.9634971    208.40082  0.030901663  0.031699725            3 
  563000    1.0517093   -6.9237033    209.53271  0.031014314  0.031677708            2 
  564000     1.034644   -6.9688085    209.45376  0.030947659  0.031656254            2 
  565000    1.0134418   -6.9460242    209.91809   0.03096137  0.031634801            3 
  566000    1.0252434   -6.9273639    210.40861  0.030978888  0.031613939            8 
  567000    1.0611362   -6.9613195    210.97154  0.031006986  0.031593434            1 
  568000    1.0429549     -6.91485    210.82713  0.030931211   0.03157281            3 
  569000    1.0481119   -6.9456955    211.24233  0.030937658  0.031552262            6 
  570000    1.0335031   -6.9733415    211.11531  0.030864811  0.031531389            2 
  571000    1.0490233   -6.9689157    211.66133  0.030890446  0.031510977            5 
  572000    1.0108216   -6.9775658    211.55673  0.030821201  0.031490216            3 
  573000    1.0144456   -6.9578016    212.21674    0.0308634  0.031469499            3 
  574000    1.0267993   -6.9496934    212.05802  0.030786589  0.031448968            5 
  575000    1.0093235    -6.978668    212.77901  0.030837537  0.031428483            3 
  576000   0.99618109   -6.9915253    212.21319   0.03070214  0.031407946            2 
  577000    1.0125142   -6.9382968    213.81143  0.030879756  0.031387357            1 
  578000    1.0001169   -6.9608495    213.86556  0.030834135  0.031367096            1 
  579000     1.000613   -6.9562436    213.79738  0.030771067  0.031346774            3 
  580000    1.0326575   -6.9792003    213.90258  0.030733129  0.031326835            3 
  581000     1.026123   -6.9660767    214.90582  0.030824129  0.031306939            1 
  582000    1.0340073   -6.9533723    215.03487  0.030789644  0.031286974            6 
  583000    1.0208438   -6.9388846    215.00894  0.030733124  0.031267263            3 
  584000    1.0307421   -6.9446813    215.46081  0.030744978  0.031247602            2 
  585000    1.0242848   -6.9830602    215.26125  0.030663996  0.031227723            2 
  586000   0.99731483   -6.9735361    215.61142  0.030661464  0.031208285            4 
  587000    1.0316104   -6.9800522     216.0646  0.030673566  0.031188843            2 
  588000    1.0231084   -6.9733161    216.76783  0.030721065  0.031169434            2 
  589000     1.003701    -6.952691      216.622  0.030648274  0.031150249            4 
  590000    1.0109438   -6.9686776    217.17175  0.030673976  0.031131269            2 
  591000    1.0125564   -6.9971819    217.61286  0.030684273  0.031112104            2 
  592000     1.022846   -6.9460942    217.93683  0.030678045  0.031092945            6 
  593000    1.0266664   -6.9929453    217.84255  0.030613062  0.031074219            1 
  594000    1.0552155   -6.9540585    218.64603  0.030674246  0.031055642            5 
  595000    1.0131207   -6.9690038    219.00633  0.030673156  0.031037065            2 
  596000    1.0179999   -7.0000294    219.17884  0.030645811  0.031018532            4 
  597000    1.0304256   -6.9759942    219.67518   0.03066376  0.031000346            4 
  598000    1.0242392   -6.9799909    220.05686  0.030665672  0.030982528            2 
  599000     1.014724   -6.9821712    220.38881  0.030660658  0.030964734            1 
  600000    1.0115926   -7.0001366     220.9135   0.03068243  0.030947215            3 
  601000     1.020229   -6.9897562    220.91945  0.030632203  0.030929461            1 
  602000    1.0275184   -6.9938489    220.84116  0.030570482  0.030911888            3 
  603000    1.0197042   -6.9715933    222.07216  0.030689906  0.030894454            4 
  604000    1.0359929   -6.9874071    221.42542  0.030549865    0.0308768            2 
  605000   0.98337925   -6.9599596    222.33377  0.030624487  0.030859123            1 
  606000     1.003136   -6.9756994    222.67713  0.030621167  0.030841978            2 
  607000    1.0379332   -6.9865645    222.39686  0.030532244  0.030824774            3 
  608000    1.0110687   -7.0206807    222.76616  0.030532643  0.030807504            2 
  609000    1.0043407   -6.9815608    223.35114  0.030562554  0.030790729            2 
  610000    1.0037794   -6.9838867     223.8054  0.030574509  0.030773834            2 
  611000   0.99398152   -6.9783754    223.37646  0.030465965  0.030756719            5 
  612000    1.0305215   -7.0199312    223.73997  0.030465682  0.030739436            2 
  613000     1.032567   -6.9952917    224.28737  0.030490399  0.030722356            2 
  614000   0.97549019   -7.0096208     224.5273  0.030473304  0.030705264            2 
  615000    1.0281476    -7.004168    224.28479  0.030390894  0.030687992            3 
  616000    1.0004552   -6.9901036    224.94701  0.030431144  0.030671117            2 
  617000    1.0065637   -6.9818116    225.29523  0.030428853  0.030654231            2 
  618000    1.0156529   -6.9725821    225.51791  0.030409643  0.030637281            3 
  619000    1.0052415    -6.989293    225.15187  0.030311237  0.030620363            3 
  620000    1.0080975   -6.9830221    226.38756  0.030428435  0.030603134            3 
  621000    1.0044929   -7.0031691    226.81032  0.030436167  0.030585876            1 
  622000    1.0151774    -6.984728    226.56546  0.030354429  0.030568664            4 
  623000    0.9937651   -7.0048927    226.30773  0.030271232  0.030551292            3 
  624000     1.003249   -6.9765134    226.69249  0.030274104  0.030533649            3 
  625000    1.0206845   -7.0160143     227.0699  0.030275987  0.030516459            3 
  626000    1.0091766   -7.0249751     227.1092  0.030232855  0.030498979            3 
  627000   0.98603742   -6.9847442    228.55323  0.030376559  0.030481933            3 
  628000    1.0151414   -7.0001064    227.75542  0.030222322  0.030465209            3 
  629000   0.99957848   -7.0365394    228.26455  0.030241726  0.030448274            2 
  630000    1.0154481   -7.0216748    228.92489   0.03028107   0.03043119            3 
  631000   0.99840052   -7.0064972    228.24749   0.03014362  0.030413859            6 
  632000     1.022985   -7.0078511    228.50708  0.030130152  0.030396375            5 
  633000    1.0208463   -7.0450986    229.10706   0.03016154  0.030378945            4 
  634000   0.98810153   -6.9859364    229.85567  0.030212365  0.030361782            2 
  635000   0.99028389   -6.9513213    230.46001  0.030244096  0.030345057            2 
  636000   0.98915656   -6.9977684    230.18119  0.030160009  0.030328404            3 
  637000   0.99622628   -7.0139734    229.81353  0.030064565  0.030311512            4 
  638000   0.97249815   -7.0256665    230.49389  0.030106307  0.030294921            4 
  639000    1.0355166   -7.0311089    230.85014  0.030105652  0.030278117            3 
  640000   0.97938626   -7.0364173    230.98552   0.03007624  0.030261427            3 
  641000   0.97731734   -6.9949144    232.32757  0.030203792  0.030245452            2 
  642000    0.9865098   -6.9850467    232.36429  0.030161512  0.030229446            4 
  643000   0.98288191   -7.0141338    232.10222   0.03008064  0.030213554            3 
  644000   0.99343394   -7.0018729    232.66514  0.030106773  0.030197469            2 
  645000   0.98806343   -7.0435092    232.93754  0.030095289  0.030181158            3 
  646000     1.001951   -7.0415541    232.90645  0.030044691  0.030165249            4 
  647000    1.0093039   -7.0101765    233.01565   0.03001232  0.030148864            4 
  648000   0.98851078   -7.0002441    232.67586  0.029922306  0.030132448            2 
  649000    1.0040522    -6.988778    233.60593  0.029995625  0.030115904            4 
  650000    1.0039937   -7.0076815    233.13987  0.029889726  0.030099383            3 
  651000   0.98291909   -7.0087292    234.58269  0.030028507  0.030082947            2 
  652000   0.99765882   -7.0146717    233.73263  0.029873802   0.03006638            4 
  653000    1.0075321   -7.0298676    234.24674  0.029893662   0.03004946            4 
  654000   0.99366632   -6.9985775    234.90151  0.029931385  0.030032893            3 
  655000    1.0079326   -7.0506232    234.68661  0.029858348  0.030016342            2 
  656000   0.97739046   -7.0433369    235.20528   0.02987872  0.029999915            2 
  657000    1.0086146   -7.0684698    235.42956  0.029861689  0.029983744            4 
  658000    1.0099899   -7.0237708    235.81374  0.029864962  0.029968217            2 
  659000   0.98272734   -7.0465913    236.35696  0.029888336  0.029952615            3 
  660000   0.99622354   -7.0400074      236.701   0.02988649  0.029937042            4 
  661000   0.97189419   -7.0004003    236.78609  0.029852004  0.029921679            2 
  662000   0.98042686   -7.0370614     236.8994  0.029821174  0.029906084            2 
  663000   0.98560699   -7.0308856    236.62908  0.029742217   0.02989013            2 
  664000   0.97932641   -7.0557144    237.31065  0.029782963  0.029874161            3 
  665000    0.9741378   -7.0534728    238.13548  0.029841539  0.029858248            4 
  666000    1.0013657   -6.9921736    238.51126  0.029843751  0.029842664            1 
  667000   0.98311238   -7.0035332    238.52019  0.029800124  0.029827179            2 
  668000   0.99060946   -7.0035456      238.934  0.029807135  0.029811901            2 
  669000    1.0007519    -7.032763    239.01907  0.029773177  0.029796616            3 
  670000   0.98587977   -7.0828003    238.85056   0.02970778  0.029781185            2 
  671000    0.9839937    -7.060984    239.10655  0.029695299  0.029765909            3 
  672000    1.0005843   -7.0408893    239.54699  0.029705728  0.029750513            3 
  673000     0.990346   -7.0576402    240.16611   0.02973825  0.029735009            4 
  674000   0.98553155   -7.0494554    240.06536  0.029681672  0.029719558            1 
  675000   0.98261602   -7.0191105    241.54296  0.029820119  0.029703925            2 
  676000   0.98869232   -7.0667607    241.12688  0.029724714  0.029688815            5 
  677000   0.97497144   -7.0451569    241.21408  0.029691541  0.029673781            3 
  678000   0.97887196   -7.0140935    241.82017  0.029722244  0.029658684            7 
  679000   0.99000959    -7.040423    241.43806  0.029631574  0.029643616            3 
  680000   0.97336712   -7.0274536    242.15036   0.02967529  0.029628823            2 
  681000   0.99713296   -7.0751405    240.88225  0.029476536  0.029613356            4 
  682000    0.9829694   -7.0572563    241.65192   0.02952736  0.029597614            4 
  683000   0.97242514   -7.0760148    242.62804  0.029603226  0.029581912            3 
  684000   0.99501526   -7.0038036    242.71688   0.02957077  0.029566359            3 
  685000   0.98117524    -7.041607    242.56718  0.029509389  0.029550653            3 
  686000    1.0020633   -7.0553719    242.54438  0.029463603  0.029534885            3 
  687000   0.97379479   -7.0347924    243.48624  0.029534964  0.029519156            3 
  688000   0.97457931   -7.0541622    242.55296  0.029378993  0.029503388            3 
  689000   0.98867466   -7.0741556    243.72731  0.029478387  0.029487308            3 
  690000   0.98270797   -7.0716625    242.61282  0.029301066  0.029471089            4 
  691000    0.9665048   -7.0597906    243.10575  0.029318108  0.029454773            5 
  692000   0.97886794   -7.0400697    243.42803  0.029314551   0.02943865            2 
  693000   0.97881494   -7.0278609    244.28786  0.029375644  0.029422574            3 
  694000    0.9738129   -7.0423765    243.75041  0.029268781  0.029406194            6 
  695000   0.97686088   -7.0496221    243.05907  0.029143773  0.029389761            3 
  696000   0.98346638   -7.0580266    243.96583  0.029210468  0.029373297            1 
  697000   0.98129733   -7.0447592    244.06463  0.029180372  0.029356568            6 
  698000   0.97072588   -7.0553638    243.86816   0.02911511  0.029339796            4 
  699000    0.9746199   -7.0927925    244.48271  0.029146722  0.029323102            2 
  700000   0.96469987   -7.0947315    244.67681  0.029128192    0.0293066            2 
  701000   0.98786397    -7.070653    245.17767  0.029146181  0.029290112            2 
  702000     0.992371   -7.0551329    245.88306  0.029188398  0.029273583            1 
  703000     1.001627   -7.0665925     245.6372  0.029117734   0.02925703            2 
  704000   0.97120254   -7.0792855    246.31318   0.02915639  0.029240637            2 
  705000   0.95117087   -7.0709604    245.64244  0.029035749  0.029224034            2 
  706000   0.98854891   -7.0710471    246.68661  0.029117871  0.029207664            3 
  707000   0.95914211   -7.0163493    247.45733   0.02916753  0.029191543            2 
  708000   0.95866243   -7.0442756    246.75603  0.029043789  0.029175344            2 
  709000   0.96432728   -7.0703832     246.7071  0.028997074   0.02915886            5 
  710000   0.95478454   -7.0736218    247.06409  0.028998133  0.029142015            2 
  711000   0.95569729   -7.0929923    246.99534   0.02894929    0.0291253            5 
  712000   0.95608564   -7.0940931    247.56619  0.028975444  0.029108794            2 
  713000    0.9808406   -7.1225397    247.26282  0.028899347  0.029092474            2 
  714000   0.98744745   -7.0778839    248.26304  0.028975611  0.029076005            2 
  715000   0.96707814   -7.0764172    248.63538  0.028978482  0.029059986            2 
  716000   0.97126061    -7.085685    248.20821  0.028888292  0.029043816            3 
  717000   0.98335929   -7.0832096    248.38827  0.028868929  0.029027525            2 
  718000   0.96720321    -7.054804    249.77654  0.028989849  0.029011443            3 
  719000   0.95799312   -7.0723655    249.69294   0.02893984   0.02899528           10 
  720000   0.98078878   -7.0648398    249.78851  0.028910707   0.02897944            2 
  721000    0.9633319   -7.1015924    250.58832  0.028963051  0.028963484            7 
  722000   0.98087776   -7.0795649    250.74165  0.028940634  0.028947535            5 
  723000   0.97665566   -7.0751463    250.55366  0.028878937   0.02893171            2 
  724000   0.97874883   -7.0854725     250.9531  0.028885025  0.028915992            4 
  725000   0.96908427   -7.0782729    251.42166  0.028899041  0.028900149            3 
  726000   0.96486317   -7.0525859    251.40889   0.02885777  0.028884321            2 
  727000   0.98452679   -7.0929845    251.16986  0.028790677  0.028868522            2 
  728000   0.96207698   -7.0777597    251.66268  0.028807541  0.028852579            3 
  729000   0.96781739   -7.0980477     251.2429  0.028720039  0.028836508            3 
  730000    0.9672702   -7.0850592    252.28394  0.028799536  0.028820427            4 
  731000   0.97097915    -7.124777     251.2164  0.028638441  0.028804672            6 
  732000   0.97024578   -7.0963096    252.76324  0.028775414  0.028788835            4 
  733000   0.96367576   -7.1113808    252.27096  0.028680192  0.028772968            3 
  734000   0.96806734   -7.0773011    253.52693  0.028783712  0.028757206            2 
  735000   0.95757326   -7.1020151    253.70338  0.028764556  0.028741476           10 
  736000    0.9630332   -7.0733291    253.79303  0.028735624  0.028726044            4 
  737000   0.92870245   -7.0988822    254.21816  0.028744704    0.0287107            2 
  738000   0.94184985   -7.0938128    253.41729  0.028615322  0.028695099            3 
  739000   0.97358427    -7.077333     254.3821  0.028685397  0.028679665            6 
  740000   0.97630113   -7.0882482    254.10484   0.02861541  0.028664277            2 
  741000   0.96661026   -7.1408121       254.23  0.028590868   0.02864847            2 
  742000   0.98011388   -7.0770239    253.98801  0.028525159  0.028632669            3 
  743000   0.95416943   -7.0766536    254.53395  0.028547997  0.028616726            2 
  744000   0.95000871   -7.1177233    254.71763    0.0285302  0.028600524            3 
  745000   0.94673091   -7.0941002    254.98488  0.028521799  0.028584473            2 
  746000   0.94315888     -7.11946    254.63904  0.028444933  0.028568181            2 
  747000   0.95685294   -7.1259761    254.65906  0.028409088  0.028551831            3 
  748000   0.96534481   -7.1265661    255.33597   0.02844652  0.028535653            2 
  749000   0.94548946   -7.1166359    255.24849  0.028398809  0.028519611            2 
  750000   0.95836725   -7.1068351    255.92747  0.028436385  0.028503578            3 
  751000   0.96580496   -7.0782649    256.60155  0.028473319  0.028487436            5 
  752000   0.93956254   -7.1081306    256.53588  0.028428178  0.028471244            3 
  753000   0.95105327    -7.079977    256.57277  0.028394508  0.028455098            2 
  754000   0.93733963   -7.0770403    256.98204  0.028402082  0.028438833            3 
  755000   0.93668962   -7.1403803    256.42935   0.02830346  0.028422593            4 
  756000   0.89886549   -7.0962484    257.31465  0.028363608  0.028406446            5 
  757000   0.96260228   -7.1429836    257.36977  0.028332207   0.02839034            2 
  758000   0.95648465   -7.1099317    257.83369  0.028345832  0.028374268            1 
  759000   0.93371198   -7.0901884    256.78964  0.028193856  0.028358254            3 
  760000   0.96677253   -7.0990966    257.33964  0.028217066  0.028342223            3 
  761000    0.9552359   -7.1209821    258.14125  0.028267767  0.028326071            3 
  762000    0.9514282   -7.1153889    258.25306  0.028242899  0.028309894            2 
  763000    0.9419419   -7.1415765    258.32507  0.028213747  0.028293878            5 
  764000   0.94453634     -7.12028    258.72468  0.028220406  0.028277622            3 
  765000   0.97041549   -7.1507283    258.18317  0.028124528  0.028261162            5 
  766000   0.94988363   -7.1439757    259.01752  0.028178582  0.028244747            5 
  767000   0.96272778   -7.1314358    258.75269  0.028113069  0.028228557            3 
  768000    0.9530544     -7.12452    260.28465  0.028242692  0.028212732            4 
  769000   0.95988663   -7.1458921    259.80227  0.028153692  0.028196861            5 
  770000   0.94957632   -7.1206064    259.86784  0.028124225  0.028180918            2 
  771000   0.93243971   -7.1233522    259.69246  0.028068792  0.028164968            5 
  772000   0.94598547   -7.1399057    259.88772   0.02805351  0.028148792            8 
  773000   0.95116064   -7.1397259    260.31438  0.028063214   0.02813281            4 
  774000   0.93995439   -7.1116159     260.2177  0.028016548  0.028116836            6 
  775000   0.94285847   -7.1182853    260.94758  0.028058879  0.028100689            5 
  776000   0.94187219   -7.1048162    261.71808  0.028105464  0.028085062            4 
  777000    0.9221916   -7.0970969     261.6235  0.028059149  0.028069519            4 
  778000   0.94575549   -7.1585761     261.9255   0.02805543  0.028054025            2 
  779000   0.95950864     -7.09098    262.58408  0.028089868  0.028038541            2 
  780000   0.94833578   -7.0986573    262.71001  0.028067309  0.028023025            8 
  781000    0.9551428   -7.1346528    261.82728  0.027937183  0.028007353            3 
  782000   0.94267577   -7.1625162    262.36826  0.027959107  0.027991597            3 
  783000    0.9447133   -7.1514215    262.47791   0.02793507  0.027975789            2 
  784000   0.95199995   -7.1266569     263.2108  0.027977339  0.027960048            3 
  785000   0.93275436   -7.1159617    263.41428  0.027963299   0.02794434            6 
  786000   0.92024648   -7.1531564    263.35201   0.02792112  0.027928816            6 
  787000   0.91244414   -7.1522024    263.18634    0.0278681  0.027913283            4 
  788000   0.95091302   -7.1980152     263.0089   0.02781397  0.027897579            4 
  789000   0.93377952   -7.1314626    263.70372  0.027852104  0.027881907            2 
  790000   0.92978823   -7.1609298    264.54151  0.027905223  0.027866262           11 
  791000   0.92751395   -7.1633603    264.16382  0.027830154  0.027850824            3 
  792000   0.95536835   -7.1548028    264.98892  0.027881831   0.02783551            3 
  793000    0.9516546   -7.1379193    265.10692  0.027859071  0.027820206            2 
  794000   0.92938802   -7.1556087    265.20774  0.027834565  0.027804919            3 
  795000   0.94327592   -7.1832621    264.80389  0.027757221  0.027789329            2 
  796000   0.93712687   -7.1511478    265.77129  0.027823627  0.027773716            3 
  797000   0.93712214   -7.1321579    266.47172  0.027861953  0.027758608            7 
  798000    0.9324194   -7.1806816    265.88669  0.027765945  0.027743515            4 
  799000   0.93825116   -7.1643301    266.27179  0.027771359  0.027728312            3 
  800000   0.93781719   -7.1468272    267.23318  0.027836789  0.027713227            2 
  801000   0.94738078   -7.1515772    266.71092  0.027747702  0.027698309            8 
  802000   0.93251439   -7.1428095    266.62754  0.027704441  0.027683268            7 
  803000   0.92984578   -7.1713081    267.61934  0.027772866  0.027668428            4 
  804000   0.92825568   -7.1495367    267.43123  0.027718826  0.027653551            4 
  805000   0.91021161   -7.1758035    267.92836  0.027735855  0.027638394            3 
  806000   0.93150417   -7.1286341    268.35934  0.027746003   0.02762352            1 
  807000   0.94631638    -7.158282     268.3763  0.027713373  0.027608456            3 
  808000   0.95243335   -7.1522933    267.88386  0.027628286  0.027593415            4 
  809000   0.92938509    -7.148907    267.80817  0.027586338  0.027578208            2 
  810000   0.94508947   -7.1778411    268.01951  0.027574024   0.02756295            7 
  811000   0.93376886   -7.1277812    268.83539  0.027623858  0.027547635            5 
  812000   0.93866602   -7.1377881    269.82063  0.027690951  0.027532447            4 
  813000   0.92805699   -7.1999018    268.50779  0.027522324  0.027517001            5 
  814000   0.92969581   -7.1292054    269.01887  0.027540834  0.027501361            3 
  815000   0.93109834    -7.157397    268.94302  0.027499286  0.027485891            2 
  816000   0.93467713   -7.1527014    269.19738  0.027491563   0.02747007            2 
  817000   0.92677672   -7.1598367    267.97088  0.027332811  0.027454134            3 
  818000   0.93435121    -7.165973    268.58723  0.027362188  0.027438207            3 
  819000   0.93368196    -7.148365     269.3784   0.02740928  0.027422341            2 
  820000   0.91723446   -7.1818743    270.21842  0.027461221  0.027406683            2 
  821000   0.91986826    -7.194557    269.58765  0.027363749  0.027390844            4 
  822000   0.94197551   -7.1775755    269.44121  0.027315613  0.027374992            3 
  823000   0.90635732   -7.1594681      269.849  0.027323714  0.027359057            3 
  824000   0.92713364    -7.170073    269.75042  0.027280584   0.02734316            3 
  825000   0.92693091   -7.1779933    270.63852  0.027337224  0.027327223            3 
  826000   0.92997179   -7.1786638    270.09459  0.027249253    0.0273112            4 
  827000   0.90837457   -7.1578049    270.33119  0.027240144  0.027295033            3 
  828000   0.89329063   -7.1716307    270.78202  0.027252619  0.027278929            3 
  829000   0.89964576   -7.1695157    271.14721  0.027256455  0.027263023            3 
  830000   0.92391759   -7.1851692    271.13712  0.027222603  0.027247137            3 
  831000    0.9120133    -7.187851    271.63015  0.027239285  0.027231101            4 
  832000   0.92672935   -7.1731969    271.65492  0.027209026  0.027215097            4 
  833000   0.93912676   -7.1776336    271.66086  0.027176957  0.027199271            4 
  834000   0.92014305   -7.1943254    271.82631  0.027160902  0.027183271            2 
  835000   0.92091763   -7.1906136    272.09732  0.027155421  0.027167344            3 
  836000   0.89135375   -7.1591449     271.9568  0.027108932  0.027151329            3 
  837000   0.91842898   -7.1885408    272.31671  0.027112376  0.027135478            4 
  838000    0.9414761   -7.1878902     272.7264  0.027120764  0.027119521            4 
  839000   0.89413594   -7.1716982    272.93177  0.027108837  0.027103582            5 
  840000   0.91822466   -7.1485588     271.8325   0.02696751  0.027087608            3 
  841000   0.93054789   -7.1678153    272.83038  0.027034322  0.027071816            2 
  842000   0.91412665   -7.1678111    272.19274  0.026939108  0.027055873            3 
  843000   0.93759411   -7.1986912    272.43378  0.026930979  0.027039662            3 
  844000   0.91747748   -7.1841873    272.99135  0.026954122  0.027023401            2 
  845000   0.90872555   -7.2245672    273.70779  0.026992878  0.027007303            4 
  846000   0.90589558   -7.1935765    272.81568  0.026873097  0.026991061            4 
  847000   0.91341657    -7.193738    272.41481   0.02680193  0.026974713            8 
  848000   0.90894104   -7.2195609    273.03752  0.026831517  0.026958322            2 
  849000   0.92212662   -7.1646192    274.67474  0.026960614  0.026942129            8 
  850000   0.90625218   -7.1849764    274.32383  0.026894493  0.026926199            3 
  851000   0.91764228   -7.1691008    275.24074  0.026952677  0.026910369            3 
  852000   0.92505799   -7.1932969    274.78469  0.026876436  0.026894695            3 
  853000   0.93611415   -7.1942655    275.41602  0.026906606  0.026878826            2 
  854000   0.89483419    -7.190806    275.14828  0.026848974   0.02686297            2 
  855000   0.90047509   -7.1616836    275.75027  0.026876245  0.026847165            4 
  856000   0.92261822   -7.1925564    275.37585  0.026808397  0.026831461            3 
  857000   0.91660163   -7.1979705    275.91486  0.026829527  0.026815652            2 
  858000   0.91139664   -7.1914565    275.42944  0.026751111  0.026799743            3 
  859000   0.93290365   -7.2229205    276.40536  0.026814645   0.02678374            3 
  860000   0.89879893   -7.1729153    276.25372  0.026768772  0.026767802            3 
  861000   0.90210824   -7.1785143    276.12851  0.026725562  0.026751953            2 
  862000   0.89245339   -7.1499164    275.66396  0.026649648  0.026736123            4 
  863000   0.91996528   -7.2216026    276.15706  0.026666382  0.026719893            4 
  864000   0.91491216   -7.2006345    276.63164  0.026681292  0.026703771            8 
  865000   0.90031446   -7.2270225    276.38741  0.026626918  0.026687663            5 
  866000   0.90820474   -7.1774722    277.25042  0.026679217  0.026671742            3 
  867000   0.91365672   -7.2089179    276.88948  0.026613752   0.02665576            5 
  868000   0.90672145   -7.2272791    276.77004  0.026571625  0.026639749            4 
  869000   0.92851932   -7.2129822    277.17726  0.026580098  0.026623804            7 
  870000   0.91919661   -7.2045332    278.59374  0.026685224  0.026607881           12 
  871000   0.91721858   -7.2137754    278.10503  0.026607829  0.026592196            4 
  872000   0.92509026   -7.2205966    278.51583  0.026616574  0.026576524            3 
  873000   0.90136226   -7.2150412    277.65364  0.026503784  0.026560858            3 
  874000    0.8933875   -7.2271731    278.40242  0.026544853  0.026545163            8 
  875000   0.91023587   -7.2129245    278.38712  0.026513059  0.026529415            2 
  876000   0.91716158   -7.2088042    278.98053  0.026539244   0.02651372            5 
  877000   0.90295627   -7.2243805    278.78427  0.026490334  0.026498099            3 
  878000   0.89819711   -7.2375967      278.886  0.026469818  0.026482586            2 
  879000   0.90080893   -7.1839192    279.68564  0.026515514  0.026466875            2 
  880000   0.90690764   -7.2391365    279.46337  0.026464334  0.026451139            5 
  881000   0.90663625   -7.1933338    279.35579  0.026424119  0.026435365            4 
  882000   0.90163165   -7.2298597    280.60295  0.026511995  0.026419722            2 
  883000   0.89941064   -7.2443862    279.68247  0.026395099  0.026403922            4 
  884000   0.89319547   -7.2098817    279.72999   0.02636972  0.026388008            2 
  885000   0.90970825   -7.2205259    280.02986   0.02636816  0.026371988            3 
  886000   0.90183749   -7.2410092    279.16449  0.026257006  0.026356178            2 
  887000   0.89376897   -7.2243959    279.77136  0.026284419  0.026340325            3 
  888000   0.90486932   -7.1972864    280.49842   0.02632305  0.026324505            4 
  889000   0.90758271   -7.1929268    280.86601  0.026327898  0.026308986            3 
  890000   0.89357917   -7.2113161      281.802  0.026385955  0.026293359            4 
  891000   0.90837086   -7.2518908    281.40226  0.026318954  0.026277673            4 
  892000   0.89033466   -7.2474482    281.46778   0.02629557   0.02626209            5 
  893000   0.88721371   -7.2488335     280.9841  0.026220987   0.02624647            7 
  894000   0.89684213   -7.2387889    281.46804  0.026236768  0.026230874            4 
  895000    0.9135894   -7.2409738    281.48537  0.026209066  0.026215265            4 
  896000   0.91212329   -7.2075556    282.22164  0.026248292  0.026199471            2 
  897000   0.89534188   -7.2430258    281.90412  0.026189532  0.026183517            5 
  898000   0.89549793   -7.2427604    282.47345  0.026213201  0.026167622            6 
  899000   0.90229363   -7.2296822    282.18603    0.0261574  0.026151683            3 
  900000   0.88025461   -7.2207301    282.23182  0.026132576  0.026135867           11 
  901000   0.89875317   -7.2383639    282.15295  0.026096277  0.026119829            3 
  902000   0.90510461   -7.2477659    281.94127  0.026047789   0.02610405            1 
  903000   0.89309665   -7.2461426    282.75295  0.026093849  0.026088394            5 
  904000   0.89241557   -7.2402341     282.2675  0.026020234  0.026072289            3 
  905000   0.88276555   -7.2538387    283.52053  0.026106863  0.026056153            5 
  906000   0.89527064   -7.2338521    282.50102  0.025984273  0.026040205            2 
  907000   0.89256723   -7.2272996    283.34739  0.026033388   0.02602414            2 
  908000    0.8886731   -7.2263285    283.31221  0.026001488  0.026008262            3 
  909000   0.90544372    -7.270875    283.29237  0.025971064  0.025992506            5 
  910000   0.91018019   -7.2439552     283.4247  0.025954642  0.025976708            3 
  911000   0.91319414   -7.2469239     283.2536  0.025910501   0.02596085            3 
  912000   0.87758866   -7.2597372    282.96404  0.025855633   0.02594475            6 
  913000   0.88108766   -7.2448443    284.25549  0.025945189  0.025928607            3 
  914000   0.89528229   -7.2376272    283.98871  0.025892479  0.025912557            3 
  915000   0.90878879    -7.260614    283.75322  0.025842734  0.025896667            5 
  916000   0.89030201   -7.2290075    284.71205  0.025901751  0.025880683            2 
  917000   0.89685664   -7.2408347    284.11634   0.02581937  0.025864597            8 
  918000   0.86394715   -7.2455037     284.8859  0.025861102  0.025848529            6 
  919000    0.8844641   -7.2026203    284.51907  0.025799698  0.025832635            1 
  920000   0.87664283    -7.259495    285.08105  0.025822559  0.025816752            6 
  921000   0.87709783    -7.241859    285.43341  0.025826404  0.025800955            2 
  922000   0.89336159    -7.232098    285.17555  0.025775086  0.025785177            3 
  923000   0.88053882   -7.2220401    284.80481  0.025713688  0.025769335            4 
  924000   0.89320873   -7.2578682    284.98414  0.025702032  0.025753346            2 
  925000   0.88349572    -7.272627     285.9391  0.025760279  0.025737409            3 
  926000   0.87587859   -7.2507724    285.18654  0.025664735  0.025721564            5 
  927000   0.87851227    -7.292708    285.00049  0.025620324  0.025705444            2 
  928000   0.88159762   -7.2679816    285.86024  0.025669921  0.025689251            4 
  929000   0.88930367   -7.2522543    285.24304  0.025586925  0.025673224            8 
  930000   0.90055298    -7.243862    286.88009  0.025706101  0.025657137            4 
  931000   0.88445106   -7.2815807    285.83298  0.025584764  0.025641173            2 
  932000   0.89407276   -7.2951977    285.85223  0.025559034  0.025624967            6 
  933000   0.90050366   -7.2745193    285.25875  0.025478631  0.025608571            6 
  934000   0.87501018   -7.2560052    286.30113  0.025544355   0.02559246            3 
  935000   0.87083058   -7.2403086    286.93379  0.025573421  0.025576406            5 
  936000   0.86975351   -7.2753939    286.77399  0.025531872  0.025560189            3 
  937000   0.88576499   -7.2661024    287.33369  0.025554402  0.025544043            2 
  938000   0.88912221   -7.2975271    286.23853  0.025429862  0.025527829            6 
  939000   0.85281888   -7.2588791    287.15723  0.025484312  0.025511643            3 
  940000   0.88394714   -7.2923036    287.30624  0.025470411   0.02549552            5 
  941000   0.87942669   -7.2441494    286.98097  0.025414538  0.025479371            2 
  942000   0.88695649   -7.2927691    287.48562  0.025432203  0.025463162            3 
  943000   0.87958963   -7.2637429     287.1329  0.025374063  0.025446841            3 
  944000   0.88148519   -7.2204397    288.40757  0.025459707  0.025430657            5 
  945000   0.87614058   -7.2813945    287.92911  0.025390574  0.025414654            3 
  946000   0.86098071   -7.2881476    287.96111  0.025366553  0.025398422            8 
  947000    0.8664475   -7.2937235    288.08938  0.025351054  0.025382341            3 
  948000   0.87017362   -7.3145903    287.25777   0.02525121  0.025366117            3 
  949000    0.8843088   -7.2711208    287.63635  0.025257846  0.025349912            5 
  950000   0.90161813   -7.2839154    288.25743  0.025285739  0.025333734            2 
  951000   0.88251686   -7.2635436    288.59681   0.02528889  0.025317558            1 
  952000    0.8542565   -7.2510547    288.73637  0.025274542  0.025301251            3 
  953000   0.86007216   -7.3045645    288.15781   0.02519743  0.025284901            5 
  954000   0.86240548   -7.3082352    288.38728  0.025191062  0.025268651            7 
  955000   0.89025575   -7.2953069    288.28674  0.025155911  0.025252462            3 
  956000   0.87101152   -7.2850935     288.2998  0.025130736  0.025236169            8 
  957000    0.8769907   -7.2865439    288.78811  0.025146997  0.025219906            3 
  958000   0.85889016   -7.3019543    288.37689  0.025084976  0.025203622            3 
  959000   0.85301724   -7.2686062    289.40201  0.025147898  0.025187232            6 
  960000   0.86299805   -7.2777765     289.4024  0.025121736   0.02517089            5 
  961000   0.87920225   -7.2940257    289.66596  0.025118449  0.025154719            5 
  962000   0.87078001   -7.2632849    289.91707  0.025114091  0.025138659            3 
  963000   0.87066834   -7.2452537    289.61243   0.02506165  0.025122424            2 
  964000   0.85645592   -7.2847355    290.58196  0.025119464  0.025106319            3 
  965000    0.8788241   -7.3030126    290.20339  0.025060742  0.025090122            8 
  966000   0.87826218   -7.2682506    290.44587  0.025055717  0.025074087            2 
  967000   0.88070281   -7.2668462    290.87921   0.02506715  0.025058191            2 
  968000   0.87317575   -7.2854665    290.32808  0.024993808  0.025042356            6 
  969000   0.87391762   -7.3167704    291.00401  0.025026145  0.025026241            5 
  970000   0.88884623    -7.293153    290.60964  0.024966464  0.025010174            7 
  971000   0.85853798   -7.2868245    290.76715  0.024954269  0.024994137            2 
  972000   0.85834274   -7.3029571    290.40329  0.024897402  0.024978004            3 
  973000   0.86915474   -7.3087694    290.80733  0.024906417  0.024961758            2 
  974000   0.87033134   -7.3194291    291.12188  0.024907758  0.024945727            2 
  975000   0.87440864   -7.3005825    291.24841  0.024893027  0.024929667            3 
  976000   0.84310837   -7.3051427     291.2741  0.024869715  0.024913685            2 
  977000   0.87390499   -7.3353293    291.78046   0.02488745  0.024897746            2 
  978000   0.86052871   -7.3186908    291.80345  0.024863961   0.02488181            2 
  979000   0.86467567   -7.3238403    291.40731  0.024804844  0.024865839            2 
  980000   0.86038491   -7.2879518    292.01788  0.024831453   0.02484988            3 
  981000    0.8657621   -7.2793513    292.88063  0.024879428  0.024834061            2 
  982000   0.86836539   -7.3034272    291.99369  0.024778826  0.024818035           12 
  983000     0.870475   -7.3468781    292.14287  0.024766265  0.024801723            7 
  984000   0.86146606   -7.3092354    292.23213  0.024748656  0.024785482            8 
  985000   0.85294557   -7.2732643    292.64354  0.024758337  0.024769399            2 
  986000   0.85073457   -7.3229284    292.93882  0.024758183  0.024753271            5 
  987000   0.85388836   -7.2900208     292.6894   0.02471204  0.024737321            4 
  988000   0.85333391   -7.3330297    292.67581  0.024685882   0.02472135            2 
  989000   0.84815612   -7.3294642    292.87697  0.024677871  0.024705237            7 
  990000   0.85168109   -7.3105799    292.69842  0.024637914  0.024689186            3 
  991000   0.86175177   -7.3272958    293.43687  0.024675149  0.024673313            5 
  992000   0.85497719   -7.3002578    294.49118  0.024738842  0.024657567            4 
  993000   0.86162912   -7.2773804    293.76451  0.024652947  0.024641771            4 
  994000   0.86476248   -7.3125784    294.43732   0.02468455  0.024626092            5 
  995000   0.85555295   -7.3314935    294.13808   0.02463468  0.024610272            2 
  996000   0.83864141   -7.3272325    294.41752  0.024633326  0.024594347            3 
  997000   0.85120007   -7.3031881    294.67308   0.02462998  0.024578337            9 
  998000   0.86925994   -7.3498357     294.0086  0.024549817  0.024562371            6 
  999000    0.8507254   -7.3199615    294.05478  0.024529094  0.024546405            5 
 1000000   0.83103957   -7.3343975    294.10115  0.024508429  0.024530369            3 
 1001000   0.84207562   -7.3388261    294.66003  0.024530472  0.024514356            6 
 1002000   0.84181125    -7.333304    293.80257  0.024434678  0.024498387            7 
 1003000   0.84997553     -7.31908    295.01447  0.024511006  0.024482484            5 
 1004000   0.84130554   -7.3250371    294.57565   0.02445017  0.024466462            6 
 1005000   0.85442442    -7.374956    294.78721  0.024443384  0.024450412            7 
 1006000   0.85370548   -7.3004735     295.2099    0.0244541    0.0244345            3 
 1007000   0.87043567   -7.3122645    295.62936  0.024464528  0.024418713            2 
 1008000   0.85166674   -7.3365474    295.26222  0.024409905  0.024402785            4 
 1009000    0.8512908   -7.2954128    296.05904  0.024451523  0.024386807            5 
 1010000   0.85434281   -7.3127237    295.85872  0.024410785  0.024370954            4 
 1011000   0.82519206   -7.3072897    295.48064  0.024355477   0.02435492            3 
 1012000   0.84183212   -7.3130603    295.83571  0.024360648  0.024338789            4 
 1013000   0.83957243   -7.3459824    295.85599  0.024338268  0.024322734            8 
 1014000   0.85594812   -7.3482823     295.7683   0.02430706  0.024306656            2 
 1015000   0.84358485   -7.3478349    295.45979  0.024257782  0.024290573            6 
 1016000   0.85554852   -7.3298565    296.39361    0.0243105  0.024274545            2 
 1017000   0.84581215   -7.3157355    295.64025  0.024224865  0.024258394            6 
 1018000   0.85081516   -7.2970493     296.0531  0.024234864  0.024242359            3 
 1019000    0.8392899   -7.3182445     295.1842  0.024140023  0.024226312            2 
 1020000   0.84880109   -7.3340839    296.58975  0.024231189  0.024210232            6 
 1021000   0.85643022   -7.3458815    296.48051   0.02419854  0.024193997            6 
 1022000    0.8635782   -7.3370393    296.35411  0.024164555  0.024177716            3 
 1023000   0.84487833   -7.3493173    295.33723    0.0240581  0.024161407            3 
 1024000   0.83156045   -7.3718529    295.06353  0.024012332   0.02414509            7 
 1025000   0.84496185   -7.3390308    295.97869  0.024063308  0.024128716            3 
 1026000   0.84697971   -7.3379337    295.92462  0.024035463  0.024112385            4 
 1027000   0.83907125   -7.3510557    295.97408  0.024016073  0.024096094            3 
 1028000   0.83023528   -7.4182853    296.13519  0.024005771   0.02407977            5 
 1029000   0.85723671   -7.3725221    296.70446  0.024028544  0.024063416            3 
 1030000   0.85426526    -7.349058    297.89811  0.024101789  0.024047252            3 
 1031000   0.85046833   -7.3646404    296.87251  0.023995515  0.024030993            6 
 1032000   0.82641946   -7.3521564    296.72727  0.023960535  0.024014771            4 
 1033000   0.81164752   -7.3530925    296.56901  0.023924573  0.023998502            3 
 1034000   0.84209993   -7.3439034    297.79506  0.024000247  0.023982444            3 
 1035000   0.82021715   -7.3478626    297.65422  0.023965718  0.023966446            3 
 1036000   0.84315996   -7.3283356    297.58335  0.023936885  0.023950365            3 
 1037000   0.83038166   -7.3311434    298.02429  0.023949236   0.02393424            4 
 1038000   0.83100577   -7.3652405    297.92658  0.023918319  0.023918183            3 
 1039000   0.85649652   -7.4065127    298.25972  0.023922018  0.023902219            5 
 1040000   0.84258447   -7.3659405    298.07905  0.023884539  0.023886271            3 
 1041000   0.83813851   -7.3675319    298.34104  0.023882568  0.023870335            4 
 1042000   0.85031686   -7.3862157    297.45674  0.023788927  0.023854318            4 
 1043000   0.84374313    -7.346959     298.0296  0.023811889   0.02383825            4 
 1044000   0.85653107   -7.3821378    297.92192  0.023780486  0.023822164            3 
 1045000   0.81819856   -7.3587389    298.06044  0.023768775    0.0238062            5 
 1046000   0.84036336   -7.3881108    298.14015  0.023752402  0.023790004            5 
 1047000   0.81814282   -7.3923092    298.08438  0.023725277  0.023773797            3 
 1048000   0.82996575   -7.3553479    297.84281  0.023683429  0.023757612            4 
 1049000   0.85080754    -7.348737     298.3155  0.023698403  0.023741457            3 
 1050000   0.83734541   -7.3710658    298.96281  0.023727207  0.023725296            4 
 1051000   0.83345508   -7.3909637    298.84573  0.023695348   0.02370917            3 
 1052000   0.83704187   -7.3680398    298.86026  0.023673975  0.023692995            3 
 1053000    0.8217291   -7.3718758    298.49911  0.023622912  0.023676765            5 
 1054000   0.82744712   -7.3773156    298.93915  0.023635291  0.023660546            3 
 1055000   0.84626425   -7.3693201    299.25554  0.023637878  0.023644387            3 
 1056000    0.8425658   -7.3839441    298.75805  0.023576235  0.023628209            4 
 1057000   0.83674157   -7.3621882    298.68799  0.023548406  0.023611908            6 
 1058000   0.82119563   -7.3805866    299.17392  0.023564423  0.023595679            3 
 1059000   0.82566867   -7.3920866    298.84146   0.02351601  0.023579408            7 
 1060000   0.83830471    -7.391465    299.59378   0.02355297  0.023563106            6 
 1061000   0.80013798   -7.3622112    299.07391   0.02348994  0.023546987            8 
 1062000   0.82579423   -7.3892726    299.20353  0.023477992  0.023530821            7 
 1063000   0.82905241    -7.412599    299.39706  0.023471077  0.023514536            2 
 1064000    0.8264943   -7.3906308    300.09132  0.023503393  0.023498382            4 
 1065000   0.84977314   -7.3861531    299.68927  0.023449864  0.023482147            4 
 1066000   0.82818277   -7.4005473    299.51478  0.023414226  0.023465937            2 
 1067000   0.85584995    -7.395877    299.52918  0.023393407  0.023449716            8 
 1068000   0.83281161   -7.3932779    300.08218  0.023414652  0.023433414            6 
 1069000   0.82195214   -7.3999526    299.88861  0.023377659  0.023416995            6 
 1070000   0.79798682   -7.3858581    299.67032   0.02333881  0.023400573            9 
 1071000   0.80892374   -7.3799221    299.71655  0.023320616  0.023384173            9 
 1072000   0.83849799   -7.4313581    300.30614  0.023344694  0.023367855            5 
 1073000   0.84322254   -7.4001058    299.54208  0.023263597  0.023351485            3 
 1074000   0.82153369   -7.3716992    300.03811  0.023280424  0.023335155            3 
 1075000   0.81532746   -7.3513088    300.56761  0.023299815  0.023318949            4 
 1076000   0.83078845    -7.400919    300.68952  0.023287602  0.023302711            3 
 1077000   0.82440452   -7.3785913    300.69309  0.023266255  0.023286539            6 
 1078000   0.82872621   -7.3826637      301.291  0.023290893  0.023270342            3 
 1079000   0.82970404   -7.3793406    300.43575  0.023203255  0.023254178            2 
 1080000   0.84973068   -7.3848709    300.06075  0.023152836  0.023238026            6 
 1081000   0.81166759   -7.3854266     301.3314  0.023229371  0.023221767            5 
 1082000   0.79252678   -7.4015592    300.88509  0.023173528  0.023205505            4 
 1083000   0.81857846   -7.3852561    300.95926  0.023157838  0.023189236            5 
 1084000    0.8051444   -7.4041817    301.29606  0.023162366  0.023172937            5 
 1085000   0.82360548   -7.4145652    301.22556  0.023135604  0.023156687            3 
 1086000    0.8230726   -7.3885851    300.77342  0.023079606  0.023140437            6 
 1087000   0.80146125   -7.4173561    301.78421  0.023135864  0.023124219            3 
 1088000   0.83183189    -7.396112    301.66848  0.023105735  0.023108085            4 
 1089000   0.81803197   -7.3854371    301.57392  0.023077282  0.023092032           11 
 1090000   0.81879089   -7.4220583    302.04221  0.023091912  0.023075895            6 
 1091000   0.80787486   -7.4292362    301.57329  0.023034929  0.023059688            4 
 1092000   0.81446137   -7.4201846    302.98698  0.023121717  0.023043527            3 
 1093000   0.81905532   -7.4160118    301.75998  0.023007013  0.023027318            8 
 1094000   0.80600235   -7.4226667          302  0.023004266  0.023011144            3 
 1095000   0.81245712   -7.3997806    301.98898  0.022982419  0.022994891            4 
 1096000   0.79554329   -7.4182309    301.86749  0.022952212  0.022978657            2 
 1097000   0.83165647    -7.404744    301.92544  0.022935691  0.022962434            3 
 1098000   0.81218157   -7.4025207    302.88026  0.022987269  0.022946254            6 
 1099000    0.8248254   -7.4047343    302.13069  0.022909515  0.022930307            4 
 1100000   0.80795696    -7.406809    302.37552  0.022907237  0.022914211            3 
 1101000   0.81408143   -7.4170005    302.98147  0.022932294  0.022898123            7 
 1102000   0.80665969   -7.4065946     302.8268  0.022899788  0.022882045            6 
 1103000   0.81260111   -7.4493283    302.85375  0.022881063  0.022865902            4 
 1104000   0.79028946    -7.441223     302.2479  0.022814606  0.022849672           10 
 1105000   0.82456187   -7.3984833    302.84566  0.022839039  0.022833421            7 
 1106000   0.80315288   -7.4144611    302.56045  0.022796899  0.022817253            4 
 1107000   0.82291823   -7.4270611    302.70547  0.022787223  0.022801064            5 
 1108000   0.82414619   -7.4398406     302.9809  0.022787372  0.022784994            7 
 1109000   0.82425021   -7.4071805    303.86406  0.022833188    0.0227689            9 
 1110000   0.80189159   -7.4345982    303.56249  0.022789977  0.022752899            4 
 1111000    0.8176703   -7.3984892     303.5671  0.022769809  0.022736956            3 
 1112000   0.81595052   -7.4037254    303.54372  0.022747581  0.022721037            6 
 1113000   0.79472779   -7.4120137     302.9093  0.022679642  0.022705088            3 
 1114000   0.80558418   -7.4159445    303.47013  0.022701237  0.022689077           11 
 1115000   0.80341806    -7.451349    303.34889  0.022671815  0.022673061            5 
 1116000   0.81228295   -7.4185503    304.61979    0.0227464  0.022657125            4 
 1117000   0.80556741   -7.4469446    303.11792   0.02261399  0.022641195            5 
 1118000   0.80880804   -7.4340561    303.85676  0.022648834  0.022625374            4 
 1119000   0.81640606   -7.4245524    304.77659  0.022697095   0.02260957            4 
 1120000   0.81229018   -7.4368969    303.43189  0.022576777  0.022593659            7 
 1121000   0.80784453   -7.4421568    303.65025   0.02257287  0.022577664            4 
 1122000   0.81014997   -7.4383838    304.07469  0.022584276  0.022561671           11 
 1123000   0.80448931   -7.4292602    304.61874  0.022604537  0.022545804            9 
 1124000   0.82577912   -7.4409202    304.78161  0.022596502  0.022529942            4 
 1125000    0.8038465   -7.4663399    304.71963  0.022571825  0.022514158            6 
 1126000   0.80773409   -7.4297549    304.95003   0.02256883  0.022498363            4 
 1127000   0.80558734   -7.4327319    305.78052  0.022610213  0.022482633            4 
 1128000   0.79888685   -7.4171622    305.26717  0.022552244   0.02246696            3 
 1129000   0.79436333   -7.4386681    305.33093  0.022536974  0.022451362            2 
 1130000   0.80218805   -7.4102706    306.27682  0.022586786  0.022435776            4 
 1131000   0.80793877   -7.4278696     305.8325  0.022534078  0.022420246            2 
 1132000   0.81967667   -7.4770301    305.58401  0.022495878  0.022404658            2 
 1133000   0.81016854   -7.4480242    306.03926  0.022509507  0.022389139            4 
 1134000   0.78996928   -7.4434226    305.95788  0.022483677  0.022373582            2 
 1135000   0.79573924    -7.437843    305.56168  0.022434778  0.022358119            3 
 1136000   0.82335029   -7.4266867    306.06369  0.022451855  0.022342639            3 
 1137000   0.82303136   -7.4217551    305.57317  0.022396158  0.022327229            3 
 1138000   0.79563201   -7.4573918    306.56566  0.022449155  0.022311845            7 
 1139000   0.77521415   -7.4399515     306.3853   0.02241625  0.022296395            4 
 1140000   0.79273559   -7.4572358    307.08057   0.02244741  0.022280937            5 
 1141000   0.80951715   -7.4523608    306.86993  0.022412352  0.022265481            3 
 1142000   0.79610457   -7.4669304    306.68562  0.022379277  0.022249978            3 
 1143000    0.8015779   -7.4492155     307.3496  0.022408108  0.022234548            5 
 1144000   0.79442867   -7.4432821    306.90708  0.022356285  0.022219161            2 
 1145000   0.79275774   -7.4527433    306.80191  0.022329105  0.022203759            3 
 1146000   0.79447636   -7.4397738    306.65926  0.022299248  0.022188324            6 
 1147000   0.80164273   -7.4524245    307.45959  0.022337953  0.022172868            7 
 1148000   0.80997505   -7.4441135    307.08217  0.022291098  0.022157488            6 
 1149000   0.77796556   -7.4473536     306.8645  0.022255911  0.022142087            2 
 1150000   0.80817798   -7.4393605    307.69952  0.022297067  0.022126685            3 
 1151000   0.76374962   -7.4435236    307.82333  0.022286658  0.022111299            3 
 1152000   0.79026922   -7.4601979    307.43345   0.02223911  0.022095873            3 
 1153000   0.80346073    -7.465672    307.24795  0.022206414  0.022080426           10 
 1154000   0.77742049   -7.4716163    307.59007  0.022211877  0.022064858            2 
 1155000   0.78648884   -7.4864975    306.79318   0.02213515  0.022049343            7 
 1156000   0.79250515   -7.4552615    308.10253   0.02221039  0.022033867            4 
 1157000   0.80732919    -7.477328    307.92916  0.022178707  0.022018426            3 
 1158000   0.80383886    -7.462065    307.32578  0.022116133  0.022002954            3 
 1159000   0.78922313   -7.4426403    308.13503  0.022155237  0.021987522            2 
 1160000   0.78394008   -7.4748407    306.97187  0.022052577  0.021972005            4 
 1161000   0.78721353   -7.4779374    307.74629  0.022089168  0.021956486            9 
 1162000   0.79246064   -7.4886196    307.69296  0.022066334  0.021940913            3 
 1163000   0.78937228   -7.4690824    307.42251  0.022027982  0.021925511            3 
 1164000   0.79605545   -7.4650719    308.04696  0.022053763  0.021910081            2 
 1165000   0.78502146   -7.4867266    307.84529  0.022020407  0.021894594            5 
 1166000   0.78675967    -7.469284      308.099  0.022019654  0.021879203           19 
 1167000   0.81301032   -7.4895991    307.70184  0.021972425  0.021863805            8 
 1168000   0.78953398   -7.4745213    307.45269  0.021935837  0.021848413            4 
 1169000   0.78339536   -7.4425637    307.50404  0.021920733  0.021833012            9 
 1170000   0.80308019     -7.47941    308.65457  0.021983943  0.021817539            5 
 1171000   0.79463237   -7.4746257     308.4209  0.021948541  0.021802202           10 
 1172000   0.80355513   -7.4701434    308.92222  0.021965459  0.021786883            7 
 1173000   0.78990943   -7.4799612    309.06425  0.021956824  0.021771495            5 
 1174000   0.78872407    -7.477243    308.68996  0.021911553  0.021756257            4 
 1175000   0.80289315   -7.5049746    308.77857   0.02189919   0.02174102            3 
 1176000   0.78634974   -7.4755389    309.20058  0.021910472  0.021725741            8 
 1177000   0.77558671   -7.4808058    308.44356  0.021838258  0.021710297            3 
 1178000    0.7826251   -7.4880301    308.66691   0.02183552  0.021694876            5 
 1179000   0.78177823   -7.4849438    308.27518  0.021789311  0.021679502            5 
 1180000   0.77424149   -7.4669288    308.44207  0.021782632  0.021664094            6 
 1181000   0.77645852   -7.4804591    309.11756  0.021811852  0.021648705            2 
 1182000   0.79211982   -7.5018205    308.24128  0.021731619  0.021633195            6 
 1183000   0.77136284   -7.4634578    308.86172  0.021756954  0.021617647            3 
 1184000   0.78703863   -7.4897946      308.749  0.021730645   0.02160212            3 
 1185000   0.79082475   -7.5029199    308.43877   0.02169049  0.021586526            3 
 1186000   0.79684016   -7.5096166    308.16443  0.021652925  0.021570953            4 
 1187000   0.78632585   -7.4946666    308.65073  0.021668824  0.021555367            4 
 1188000   0.77207131   -7.5073907    308.85018  0.021664575  0.021539889            4 
 1189000   0.77794314   -7.4946211    308.47011  0.021619716  0.021524415            3 
 1190000   0.75941875    -7.492941    308.73139  0.021619845  0.021508856            3 
 1191000   0.76098536    -7.472354     308.5308  0.021587657  0.021493266            4 
 1192000   0.77839609   -7.5006542    309.04227  0.021605304  0.021477763            2 
 1193000   0.76618544   -7.4769085    308.13703  0.021523961  0.021462167            5 
 1194000   0.78578933   -7.5050366    308.20275  0.021510521   0.02144646            3 
 1195000    0.7969501   -7.5048669    308.52047  0.021514677  0.021430781            3 
 1196000   0.77761278   -7.5112525    308.40237  0.021488459  0.021415048            6 
 1197000     0.763453   -7.5172338    307.46797  0.021405456  0.021399267            5 
 1198000   0.77628465   -7.5204676     307.8515  0.021414267  0.021383404            3 
 1199000   0.79684223   -7.5120865    308.12296  0.021415274  0.021367634            7 
 1200000   0.78170294   -7.4992966    309.17738  0.021470652  0.021351862            3 
 1201000   0.74805183   -7.5033137    308.43638  0.021401359  0.021336199            3 
 1202000   0.77400194   -7.5155274    308.43036  0.021383136  0.021320561            4 
 1203000   0.77446672   -7.5014053    308.88375  0.021396769  0.021304927            4 
 1204000   0.75718152   -7.5178173    309.01958  0.021388398   0.02128928            7 
 1205000   0.78159185   -7.5261789     308.2249  0.021315692  0.021273656            5 
 1206000   0.77995978   -7.5088848    309.18736  0.021364522  0.021258039            4 
 1207000   0.76477383   -7.5358108     309.1194  0.021342129  0.021242488            3 
 1208000   0.76960498   -7.5148258    309.56649  0.021355304  0.021226889            8 
 1209000   0.78415769   -7.4926193    309.97825  0.021366022  0.021211417            9 
 1210000   0.76920085   -7.5096886    309.29688  0.021301438  0.021195885            3 
 1211000   0.76394438   -7.5091105    310.06122  0.021336445  0.021180445            4 
 1212000   0.76799076   -7.4828576    310.18924  0.021327643  0.021165014            4 
 1213000   0.75661303    -7.517178    309.31403  0.021249934  0.021149602           10 
 1214000   0.77473627    -7.459891    310.41708  0.021308146  0.021134235            3 
 1215000    0.7813456   -7.5150169     309.7961  0.021248018  0.021118845            3 
 1216000   0.76742852   -7.4935428    310.06959  0.021249287  0.021103416            2 
 1217000   0.76418443   -7.5403483    310.01483  0.021228077  0.021087982            4 
 1218000   0.77021799   -7.5340746    309.62183  0.021183759  0.021072582           14 
 1219000   0.77003768    -7.541058    309.47768  0.021156527  0.021057206            5 
 1220000   0.77100091   -7.5233301    310.47124  0.021207052  0.021041746            5 
 1221000   0.76773049   -7.5201411    310.02523  0.021159243  0.021026263            5 
 1222000   0.75340226   -7.5137053    310.22435  0.021155506  0.021010819            3 
 1223000   0.76249841   -7.5083946    310.47411  0.021155227   0.02099546            3 
 1224000   0.76508916   -7.5304188    309.70963  0.021085895  0.020980052            6 
 1225000   0.77830963   -7.5532796    309.82476  0.021076514  0.020964557            5 
 1226000   0.76133477   -7.5253119    309.96429  0.021068807  0.020949076            5 
 1227000    0.7754699   -7.5085169    310.52369  0.021089628   0.02093365            7 
 1228000   0.78062385   -7.5218653    310.33002  0.021059312  0.020918237            5 
 1229000     0.765711   -7.5409894    310.30613  0.021040556  0.020902798            6 
 1230000   0.75330983   -7.5586741    310.14088  0.021012254  0.020887406            6 
 1231000   0.74902006   -7.5561692    310.52223  0.021021001   0.02087199            3 
 1232000   0.75506391   -7.5481246    310.54506  0.021005483  0.020856527            3 
 1233000   0.76720992    -7.520346    309.48623  0.020916885  0.020841152            7 
 1234000   0.74620273   -7.5306825    310.60189  0.020975276  0.020825726            3 
 1235000      0.77601   -7.5060113    310.65731  0.020962032  0.020810358            5 
 1236000     0.765686   -7.5538573    310.04494  0.020903785   0.02079498            8 
 1237000   0.76715494   -7.5146485    310.54855  0.020920813    0.0207796            5 
 1238000   0.76124994   -7.5424079    310.66585   0.02091181  0.020764327            6 
 1239000   0.76071668    -7.495589    310.77859  0.020902515   0.02074915            3 
 1240000   0.75575708   -7.5063985    311.04541  0.020903589  0.020733984            6 
 1241000   0.78168189   -7.5402801    311.42474  0.020912217  0.020718758            5 
 1242000   0.75300023   -7.5309201    310.77706  0.020851923  0.020703559            5 
 1243000   0.76225555   -7.5214501     311.6906  0.020896393  0.020688331            4 
 1244000   0.75042158   -7.5408102    312.26059  0.020917778  0.020673084            4 
 1245000   0.74547533   -7.5529863     311.0714  0.020821379  0.020657799            3 
 1246000   0.75538459   -7.5534943    310.95922  0.020797166  0.020642512            4 
 1247000    0.7582017   -7.5676976    310.99374  0.020782795   0.02062717            6 
 1248000   0.74526315   -7.5276626    311.03536  0.020768921  0.020611795            4 
 1249000    0.7547091   -7.5579352     311.4274  0.020778449  0.020596557            3 
 1250000   0.75762141    -7.522732    311.69148  0.020779432  0.020581271            2 
 1251000   0.74536354   -7.5524292     310.9358  0.020712483  0.020566007            3 
 1252000   0.75955752   -7.5622451    312.11629  0.020774513  0.020550774            4 
 1253000   0.75621688   -7.5474328    311.98045  0.020748899   0.02053558            3 
 1254000    0.7471771   -7.5515774    311.08767  0.020673024  0.020520381            3 
 1255000   0.74732379    -7.563888    311.88973  0.020709809  0.020505198            5 
 1256000   0.75232361   -7.5516892    311.83921  0.020689969  0.020490002            6 
 1257000   0.75054718   -7.5611527    311.84213  0.020673703  0.020474841            5 
 1258000   0.75415496   -7.5452802    312.15155  0.020677766  0.020459735            3 
 1259000   0.75237692   -7.5422983    312.01451  0.020652271  0.020444656            3 
 1260000   0.75667393   -7.5379511    312.77705  0.020686313  0.020429701            6 
 1261000   0.74669289    -7.550344    312.86878   0.02067597  0.020414675           10 
 1262000   0.74646693   -7.5532251    311.73634  0.020584808  0.020399679            4 
 1263000   0.75739539   -7.5576237    312.38575  0.020611358  0.020384668            6 
 1264000   0.73901104   -7.5290018    313.02686  0.020637319  0.020369733            3 
 1265000   0.73434787   -7.5559461    312.24859  0.020569736  0.020354823            5 
 1266000   0.75344241   -7.5577963    312.70801  0.020583729   0.02033987            4 
 1267000   0.73865049   -7.5575528    312.15766  0.020531285  0.020324908            6 
 1268000   0.74871828   -7.5860536    312.81365  0.020558205  0.020309917            4 
 1269000   0.76161018   -7.5358768    313.03506  0.020556544  0.020295006            6 
 1270000   0.74121515   -7.5542421    312.88948  0.020530806  0.020280089            4 
 1271000   0.75910978   -7.5412092    312.95966  0.020519254  0.020265215            6 
 1272000   0.74223438   -7.5652339    313.05267  0.020509216  0.020250299            5 
 1273000   0.73915787   -7.5868548    312.19683   0.02043708  0.020235334            5 
 1274000   0.75363832   -7.5995519    312.60214   0.02044755  0.020220401            7 
 1275000   0.74149245   -7.5751299    312.98864  0.020456774  0.020205454            4 
 1276000   0.75325674   -7.5893455    312.97024   0.02043954  0.020190616            6 
 1277000   0.73741421   -7.5676114    313.05258  0.020428907  0.020175716            6 
 1278000   0.75751179   -7.5427151    313.22526  0.020424182  0.020160895            5 
 1279000   0.74510093   -7.5918259    312.63015  0.020369439  0.020146056            3 
 1280000   0.74058624   -7.5371957    312.98306  0.020376501  0.020131168            3 
 1281000   0.74736854   -7.5661632    313.51339  0.020395094  0.020116354            3 
 1282000   0.73609211     -7.55183    313.66691  0.020389165   0.02010159            5 
 1283000   0.75349249   -7.5867839    313.26359  0.020347076  0.020086814            3 
 1284000   0.73019214   -7.5661419    313.19212  0.020326591   0.02007212            4 
 1285000   0.74462997   -7.5720816    313.72192  0.020345131  0.020057431            4 
 1286000   0.73981356   -7.5754306    313.49641  0.020314697  0.020042705            7 
 1287000   0.74543251   -7.5876644    314.27521   0.02034934  0.020027977            7 
 1288000   0.73913261   -7.5676422    313.44382   0.02027975  0.020013234            6 
 1289000   0.73293327   -7.5834239    313.81485  0.020288004  0.019998503            5 
 1290000   0.74252404   -7.6164955    313.52971  0.020253857  0.019983731            5 
 1291000   0.71151131   -7.5944439    313.52549  0.020237896  0.019968889            6 
 1292000   0.73696177   -7.6012439    313.40079  0.020214189  0.019954143            3 
 1293000   0.74192266   -7.5935909     313.9927  0.020236704  0.019939417            5 
 1294000   0.74535215     -7.54876    313.73362   0.02020438  0.019924726            4 
 1295000   0.72324679    -7.591194    313.46625  0.020171574  0.019910051            5 
 1296000   0.74506069   -7.5921017    314.05771   0.02019404  0.019895316            4 
 1297000   0.72263589   -7.5982872    314.32027   0.02019534  0.019880634            6 
 1298000   0.73207178   -7.5860977    313.30792  0.020114787  0.019865901            5 
 1299000   0.73541241   -7.6000288    314.02599  0.020145367  0.019851196            7 
 1300000    0.7216703   -7.6098356    313.68217  0.020107831  0.019836517            3 
 1301000   0.74198383   -7.5801893    313.83954  0.020102456  0.019821778            3 
 1302000   0.74806581   -7.6283573    313.98185  0.020096125  0.019807034            4 
 1303000   0.73791601   -7.5998061    313.52501  0.020051484   0.01979229            7 
 1304000   0.72697773   -7.6021816     313.4922  0.020034011  0.019777548            6 
 1305000   0.73585775   -7.6075671    313.39311  0.020012331  0.019762829            3 
 1306000   0.72024235   -7.6093455    313.67116   0.02001475  0.019748119            5 
 1307000   0.73367847   -7.6073946    313.88316  0.020012953   0.01973343            5 
 1308000   0.72925155   -7.5910871    314.16063  0.020015331    0.0197187            3 
 1309000     0.738784   -7.6215383    313.93698  0.019985802  0.019703976            5 
 1310000   0.73222106   -7.6018045    314.33771  0.019996037   0.01968928            5 
 1311000   0.72232587   -7.5846304    314.22552  0.019973653  0.019674634            8 
 1312000   0.74030874   -7.5731367    314.16407  0.019954526  0.019660056            4 
 1313000   0.74326465   -7.6091813    314.31919  0.019949174  0.019645501           11 
 1314000   0.72567251   -7.6018593    314.07814  0.019918705  0.019630909            6 
 1315000   0.73535052    -7.580295    314.93371  0.019957776  0.019616278            4 
 1316000   0.70913949   -7.6211763    313.89187  0.019876638  0.019601651            2 
 1317000   0.71537843   -7.5970438    314.73411  0.019914839  0.019587065            4 
 1318000   0.74225086   -7.6101445    314.40703  0.019879048  0.019572545            4 
 1319000   0.72379834   -7.6541073     314.1213  0.019845925  0.019557965            3 
 1320000   0.72690696   -7.6122465    314.84188  0.019876382  0.019543401           11 
 1321000   0.73903658   -7.6152782    314.29131  0.019826603  0.019528908            3 
 1322000   0.72105179   -7.6035305    314.92169  0.019851342  0.019514406            3 
 1323000   0.72237844   -7.6598965    313.38754  0.019739704  0.019499865            3 
 1324000   0.72934202    -7.620504    314.91224   0.01982076  0.019485334            7 
 1325000   0.71988175   -7.6176744    314.92634  0.019806688  0.019470847            5 
 1326000   0.74082751   -7.6188233    314.58723  0.019770439  0.019456358            3 
 1327000   0.70646135   -7.6102133    315.12621  0.019789388  0.019441963            3 
 1328000   0.73590502   -7.5864567    315.24532   0.01978196  0.019427579            5 
 1329000   0.73518685   -7.6333688     314.9877  0.019750922   0.01941316            6 
 1330000   0.72011638   -7.6056505    314.87879  0.019729248  0.019398817            5 
 1331000   0.73642811    -7.633646    315.76776  0.019770083  0.019384528            8 
 1332000   0.72171602   -7.6167099    315.32157  0.019727325  0.019370176           13 
 1333000   0.72470928   -7.6244515    315.96023  0.019752453  0.019355861            7 
 1334000   0.72194512    -7.627977    315.16146  0.019687747  0.019341607            9 
 1335000   0.72322841   -7.6234226    315.40819  0.019688401  0.019327304            4 
 1336000   0.71583239   -7.6027526    315.31717  0.019667987  0.019312976            7 
 1337000   0.72970563    -7.643222    315.38621   0.01965758  0.019298625            8 
 1338000   0.73690505   -7.6259542     315.6738    0.0196608  0.019284307            5 
 1339000   0.71932326   -7.6220425    315.39049  0.019628485   0.01927001            3 
 1340000   0.70893987   -7.6159923    315.83976  0.019641776  0.019255718            2 
 1341000   0.71928816   -7.6161763    315.60643  0.019612629  0.019241467            5 
 1342000   0.73517469   -7.6271246    315.71125  0.019604524  0.019227259            4 
 1343000   0.71044863   -7.6256127    315.70498  0.019589537  0.019212986            9 
 1344000   0.71850088   -7.6288123    316.18485  0.019604715  0.019198731            4 
 1345000   0.69157481    -7.642467    314.79925  0.019504291  0.019184432            5 
 1346000   0.70402097   -7.6352282    315.74991  0.019548657  0.019170185           11 
 1347000   0.71757961   -7.6316587    315.74398  0.019533777   0.01915595            4 
 1348000   0.71810809   -7.6379307    316.33662  0.019555924  0.019141744            8 
 1349000   0.73015554   -7.6389202    315.78892  0.019507594  0.019127539           10 
 1350000   0.71844281   -7.6471501    315.94588  0.019502832  0.019113337           10 
 1351000   0.71838626   -7.6578009    315.95126  0.019488728   0.01909919           13 
 1352000   0.71784461    -7.672384    316.34102  0.019498337  0.019085011            5 
 1353000   0.71259085   -7.6646287    316.67106  0.019504253  0.019070866            8 
 1354000   0.71936584    -7.660241    316.47206  0.019477601  0.019056724            9 
 1355000   0.71331899   -7.6507448    317.10762  0.019502313  0.019042623            5 
 1356000   0.71207894   -7.6617762    316.09007  0.019425398  0.019028523            7 
 1357000   0.70449606    -7.644245    316.44191  0.019432689  0.019014488            3 
 1358000   0.71048156   -7.6631397    316.17122  0.019401768  0.019000472            6 
 1359000   0.71220038   -7.6560805    316.83311  0.019428079  0.018986438            4 
 1360000   0.70515583   -7.6468962    315.59542  0.019337955  0.018972311            7 
 1361000   0.73130536   -7.6581892    316.30692  0.019367311  0.018958201            4 
 1362000   0.70353468   -7.6546707    316.37178   0.01935706  0.018944072            3 
 1363000   0.70926688   -7.6795053    316.00012  0.019320134  0.018929918            3 
 1364000   0.69811624   -7.6507786    316.83475  0.019356962  0.018915817            6 
 1365000   0.70275253   -7.6624408    316.25782  0.019307559  0.018901723            6 
 1366000   0.73140314   -7.6472616    316.36665  0.019300064  0.018887638            5 
 1367000   0.70437007   -7.6777769    315.94032  0.019259956  0.018873503            4 
 1368000   0.71221997    -7.665572    316.21163  0.019262404  0.018859392            5 
 1369000   0.70824966   -7.6692514    315.98371   0.01923446  0.018845235            5 
 1370000   0.69590391   -7.6493978    316.53272  0.019253815  0.018831116            6 
 1371000   0.70069991    -7.679845    315.70295  0.019189335  0.018816998            6 
 1372000   0.69782588   -7.6467033    316.57682  0.019228427  0.018802925            4 
 1373000   0.71578651    -7.649346    316.46498  0.019207634  0.018788864            3 
 1374000   0.71168797   -7.6542597    315.82817  0.019155032  0.018774762            4 
 1375000   0.71748273    -7.676438    315.88434  0.019144505  0.018760697            7 
 1376000   0.70293973   -7.6880088    315.98693  0.019136805  0.018746614            5 
 1377000   0.70680929   -7.6883068     315.9289  0.019119396  0.018732475            6 
 1378000   0.70153975   -7.6849628    315.82349  0.019099147  0.018718347            4 
 1379000   0.70501653    -7.669081    315.52258  0.019067113  0.018704251            8 
 1380000   0.70481262   -7.6590374     317.0327  0.019144487  0.018690157            4 
 1381000   0.69594064   -7.6717653    316.05491  0.019071621  0.018676092            3 
 1382000   0.71824523   -7.6731295    316.87463  0.019107249  0.018662056            5 
 1383000   0.71112856   -7.6505503    316.26091  0.019056454  0.018648022            5 
 1384000   0.69885958    -7.688485    315.80372  0.019015156  0.018633988            3 
 1385000    0.6957839   -7.6652465     316.6355  0.019051474  0.018619988            3 
 1386000   0.69532979   -7.6439086    316.55935   0.01903315  0.018606038            3 
 1387000   0.69597676   -7.6738066    315.73821  0.018970092  0.018592066            3 
 1388000   0.69076172   -7.6712034     316.4424  0.018998703  0.018578115            4 
 1389000   0.71344669   -7.6924362    315.66721  0.018938517  0.018564155            7 
 1390000   0.70380277   -7.6652548     316.5878  0.018980084  0.018550144            7 
 1391000   0.69132873   -7.7087915    315.77219  0.018917577  0.018536157            8 
 1392000   0.71424532    -7.670481    316.79128  0.018964995  0.018522148            9 
 1393000   0.71385132   -7.7018936    316.55921  0.018937497  0.018508151            4 
 1394000   0.69019764    -7.684522    317.03308   0.01895224  0.018494153            3 
 1395000   0.69686002   -7.6689634    316.57173  0.018911095  0.018480216            3 
 1396000   0.71811681   -7.6841567    317.01388  0.018923942   0.01846631            3 
 1397000   0.70919392   -7.6976771     316.8101   0.01889824  0.018452448            3 
 1398000   0.69663768   -7.6729812    317.31725  0.018914953  0.018438605            7 
 1399000   0.67075666    -7.674772    316.85474  0.018873882   0.01842471            5 
 1400000   0.69203198   -7.7008531    317.19737  0.018880796  0.018410897           16 
 1401000   0.69713656   -7.6936489    317.39202  0.018878897  0.018397053            5 
 1402000   0.68998207    -7.698301    316.53049  0.018814223  0.018383187            4 
 1403000   0.69179739   -7.6822255    317.32251  0.018847856  0.018369329            8 
 1404000   0.70956663   -7.6683378    317.13842  0.018823505   0.01835543            5 
 1405000   0.69369832   -7.7040658     317.0571  0.018805285  0.018341563            9 
 1406000   0.68840296   -7.6843848    316.97631  0.018787121  0.018327706            6 
 1407000   0.68581969   -7.6999072     317.5759  0.018809281   0.01831389            6 
 1408000   0.68242814   -7.6948046    316.99066  0.018761284  0.018299976            7 
 1409000   0.68403553   -7.7186585    317.14129  0.018756878  0.018286096            5 
 1410000    0.6945418   -7.6965668    316.80476  0.018723686  0.018272243            8 
 1411000   0.71495338   -7.6997946    317.30621  0.018740031   0.01825847           10 
 1412000   0.70645212   -7.6954461    316.32949  0.018669115  0.018244706            5 
 1413000   0.69673047   -7.7119777    316.51301  0.018666726  0.018230894            5 
 1414000   0.69044204   -7.7001549    316.94874  0.018679204  0.018217091            7 
 1415000   0.67463043   -7.6930285    316.83753  0.018659454  0.018203333            3 
 1416000   0.68154386   -7.7019647    316.31901  0.018615761  0.018189566            5 
 1417000   0.69733377   -7.7002405    317.00116  0.018642741  0.018175811            8 
 1418000   0.69469281   -7.7067478    317.50749  0.018659349  0.018162114            6 
 1419000   0.68516977   -7.6917808    316.88467  0.018609623  0.018148385            7 
 1420000   0.68541025   -7.7248119    317.09841  0.018609062  0.018134663           14 
 1421000   0.69213978   -7.7237167    316.64589  0.018569428  0.018120944            3 
 1422000   0.68337811   -7.7189118    317.25646  0.018592151  0.018107201            5 
 1423000   0.67049276   -7.7082655    316.88198  0.018557155  0.018093401            3 
 1424000    0.6805476   -7.7011317    316.87073  0.018543465  0.018079657            5 
 1425000   0.67869534   -7.7149806    317.15577  0.018547121  0.018065866            6 
 1426000    0.6826022   -7.7106362    316.89604  0.018518936  0.018052091            5 
 1427000   0.69722311   -7.7174347    316.45481  0.018480192  0.018038313            8 
 1428000   0.69308044   -7.7250714    317.23605  0.018512842  0.018024519            5 
 1429000   0.66503597   -7.7472325     316.6954  0.018468358  0.018010683            5 
 1430000   0.68095263   -7.7210334    316.67378  0.018454183  0.017996833            8 
 1431000   0.68506696   -7.7298208    317.01346  0.018461068  0.017983036            6 
 1432000    0.6675567   -7.7176659    317.18502   0.01845816  0.017969214           14 
 1433000   0.67586024   -7.7170711     316.8979  0.018428582    0.0179554           10 
 1434000   0.68835291   -7.7297819    316.67837  0.018402973  0.017941568            7 
 1435000   0.68701501   -7.7166928    316.56983  0.018383846  0.017927743            8 
 1436000   0.66908653   -7.7289432    317.39317  0.018418823  0.017913967           10 
 1437000   0.69403552   -7.7197505    317.23418  0.018396786  0.017900194            8 
 1438000   0.68149791    -7.723093    316.94147   0.01836703  0.017886444            6 
 1439000   0.66538858   -7.7185481    318.17062  0.018425447  0.017872697            5 
 1440000   0.68717158   -7.7386545      317.011  0.018345544  0.017858988            7 
 1441000   0.68642826   -7.7326214    317.02146  0.018333418  0.017845293            5 
 1442000   0.68871782   -7.7090391    317.05572  0.018322684  0.017831611            8 
 1443000   0.66667614   -7.7363677    316.52528  0.018279353  0.017817911            4 
 1444000   0.67597768   -7.7358467    317.37738  0.018315869   0.01780421            3 
 1445000   0.68561727   -7.7060447    317.12654  0.018288728  0.017790537           12 
 1446000   0.67625855   -7.7101539    316.45028  0.018237107  0.017776867            2 
 1447000   0.67959314   -7.7165619    316.92634   0.01825192  0.017763225            4 
 1448000    0.6650313   -7.7024785    317.27565  0.018259418   0.01774959            5 
 1449000   0.67908008   -7.7222718    316.97283  0.018229401  0.017735991            6 
 1450000   0.65620412   -7.7215006    316.71162  0.018201817  0.017722383           10 
 1451000   0.67312118    -7.733256    316.73283  0.018190491  0.017708744            5 
 1452000   0.66629944   -7.7486577    316.94855  0.018190344  0.017695082            3 
 1453000   0.67159781   -7.7307309    316.89251   0.01817461  0.017681465            3 
 1454000   0.67128397   -7.7155316    317.37827  0.018189951  0.017667826            4 
 1455000   0.68460946   -7.7409667    317.11759  0.018162519  0.017654215            4 
 1456000   0.67065595   -7.7150706    317.22272  0.018156063  0.017640635            5 
 1457000   0.67831619   -7.7232343    317.20604  0.018142647  0.017627063            3 
 1458000   0.67063043   -7.7419425    317.64238  0.018155143  0.017613541            3 
 1459000    0.6850938    -7.731915    317.18756  0.018116721  0.017600015            5 
 1460000   0.66552656   -7.7095956    317.89922  0.018144933  0.017586567            2 
 1461000   0.67462733   -7.7254852    317.80832  0.018127328  0.017573156            4 
 1462000   0.67287494   -7.7166444    317.94904   0.01812295  0.017559728            4 
 1463000   0.65731996   -7.6988032    317.32968  0.018075284  0.017546322            5 
 1464000   0.67788667   -7.7469946    317.11988  0.018050995  0.017532891            8 
 1465000    0.6688235   -7.7334062    317.78464  0.018076487  0.017519454            8 
 1466000   0.66789878   -7.7355562    318.16189  0.018085601  0.017506008            4 
 1467000   0.65802489   -7.7515536      317.837  0.018054817  0.017492622            6 
 1468000   0.65655772   -7.7471368    318.26889  0.018067035  0.017479232            4 
 1469000   0.65551959   -7.7574027    317.11597  0.017989333  0.017465781            4 
 1470000   0.66942394   -7.7387238    317.35601  0.017990703  0.017452364            5 
 1471000   0.67161508   -7.7211425    316.58745  0.017934934  0.017438974            2 
 1472000    0.6588473   -7.7649163    318.08376  0.018007459  0.017425622            4 
 1473000   0.66444081   -7.7119752    317.83559  0.017981194  0.017412288            4 
 1474000   0.66029261   -7.7396863    318.08265  0.017982963  0.017398957            4 
 1475000   0.67350637   -7.7419188    317.42902  0.017933843  0.017385711            3 
 1476000   0.67747662   -7.7486523    317.68317  0.017936041  0.017372438            2 
 1477000   0.67589396   -7.7274095    317.64894  0.017921967  0.017359143            8 
 1478000   0.66670851   -7.7518793    318.42179  0.017953416  0.017345877            3 
 1479000   0.66387755   -7.7739215     318.0924  0.017922718  0.017332621            4 
 1480000   0.65723421   -7.7341118    318.82044  0.017951601  0.017319422            4 
 1481000   0.65096142    -7.727591    317.94911  0.017890452   0.01730619            9 
 1482000   0.64569295   -7.7408687    318.21002  0.017893051  0.017292984            5 
 1483000   0.66436324   -7.7601913    317.97752  0.017867921   0.01727976            6 
 1484000   0.67606997   -7.7600215     318.4764  0.017883895  0.017266535            7 
 1485000   0.64903708   -7.7587805     317.8677  0.017837694  0.017253305            4 
 1486000   0.66549113   -7.7847872    318.12348  0.017840033   0.01724009            6 
 1487000   0.66519518   -7.8149161    317.71297  0.017805031  0.017226876            5 
 1488000   0.66921229   -7.7784863    317.96341  0.017807091  0.017213697            4 
 1489000   0.66827417   -7.7707502    317.71828  0.017781413  0.017200527           14 
 1490000   0.64406596   -7.7602115    318.08053  0.017789739  0.017187374            6 
 1491000   0.66649746   -7.7974273    317.99052  0.017772776  0.017174193           10 
 1492000   0.66507495   -7.7860872    318.05674  0.017764563  0.017161018            8 
 1493000   0.65536642   -7.7895251    318.18014  0.017759552   0.01714787            8 
 1494000   0.64622785   -7.7824106    317.97591  0.017736273  0.017134715            6 
 1495000   0.65524956   -7.7666969    318.01419  0.017726544  0.017121585            6 
 1496000   0.66831974   -7.7817757    318.17905  0.017723878  0.017108406           11 
 1497000   0.64431494   -7.7915053    318.39232   0.01772391  0.017095258            5 
 1498000   0.66739031   -7.7719187    317.94641  0.017687272   0.01708214            5 
 1499000   0.66757084   -7.7777132    317.69047  0.017661245  0.017069033            7 
 1500000   0.64456524    -7.783403    317.76887  0.017653826  0.017055945            7 
 1501000   0.67455376   -7.7658475     317.8005  0.017643821  0.017042863            7 
 1502000   0.65621821   -7.7759382    319.30623  0.017715614  0.017029813            4 
 1503000   0.65305764   -7.7848899    318.35851  0.017651281  0.017016746            9 
 1504000   0.65967911   -7.8020408    317.98519   0.01761886  0.017003663            6 
 1505000   0.65364446   -7.7969563    317.28775  0.017568536  0.016990555            3 
 1506000   0.66879014   -7.8258599    317.30721  0.017557946   0.01697745            4 
 1507000   0.66282164   -7.7857424    318.24544  0.017598178  0.016964368           13 
 1508000   0.65891425   -7.7892244     318.6177  0.017607079  0.016951322            9 
 1509000   0.64918076   -7.7886687    317.96386  0.017559303  0.016938274            5 
 1510000   0.64743113   -7.7787572    317.57271  0.017526088  0.016925222            7 
 1511000    0.6554631   -7.7828236    317.73173  0.017523259  0.016912172            6 
 1512000   0.62305759   -7.7690144     318.0942  0.017531647  0.016899117            6 
 1513000   0.64749907   -7.7937237    317.13309  0.017467123  0.016886063            7 
 1514000   0.62952564   -7.8202608    317.60999  0.017481836  0.016873004            9 
 1515000   0.65257182   -7.8084376    317.81815  0.017481747  0.016859974            8 
 1516000   0.64921608   -7.7993712    317.92628  0.017476159  0.016846969            6 
 1517000   0.65313809   -7.7994682    318.07393  0.017472749  0.016833993            5 
 1518000   0.64059715   -7.7648502    318.08527  0.017461862  0.016820996            5 
 1519000   0.64371512   -7.8147007    317.38898  0.017412167  0.016807997            4 
 1520000   0.64839048   -7.7899045    318.38018  0.017455054  0.016794997            5 
 1521000    0.6531635    -7.787229    317.72572  0.017407721  0.016782025            3 
 1522000   0.64280622    -7.791651    318.18211  0.017421272  0.016769045            6 
 1523000   0.64279435   -7.7996054    318.23354  0.017412647  0.016756067            5 
 1524000    0.6538006   -7.8355911    317.94453  0.017385418  0.016743135            7 
 1525000   0.65135038   -7.8024225    317.98225  0.017376079  0.016730158            3 
 1526000   0.64612992   -7.8134152    317.76891  0.017353042  0.016717171            2 
 1527000   0.64891808    -7.818605    317.38903  0.017320947  0.016704195            5 
 1528000   0.64820832   -7.8288328    317.05043  0.017291145   0.01669124            9 
 1529000   0.64397395   -7.8313726    316.86162  0.017269545  0.016678261            9 
 1530000   0.63195975    -7.818376    317.51613  0.017293907   0.01666532            9 
 1531000    0.6349154   -7.8263646    317.63991  0.017289348  0.016652369            3 
 1532000   0.64324528   -7.7888625    317.41922  0.017266058  0.016639439            4 
 1533000   0.65591999   -7.8103648    317.53846  0.017261277  0.016626531            8 
 1534000   0.65424427   -7.8020851    317.47485  0.017246569  0.016613619            5 
 1535000   0.63903238   -7.8216117    317.63862  0.017244225  0.016600688            9 
 1536000   0.64296358   -7.8302131    317.94995  0.017249889  0.016587754            4 
 1537000   0.63494682   -7.8125889    318.04806  0.017243985  0.016574831            6 
 1538000   0.62300973   -7.8145433    318.01897  0.017231197  0.016561958            6 
 1539000     0.644679   -7.8182676    317.44786  0.017189076  0.016549085           17 
 1540000   0.63145653   -7.7925237    317.56973  0.017184509  0.016536217            4 
 1541000   0.63408306   -7.8376403    317.13004  0.017149581  0.016523361           12 
 1542000   0.65120155   -7.8114887    317.94768  0.017182646  0.016510531            8 
 1543000   0.65050334   -7.8252584    317.45949  0.017145144  0.016497704            6 
 1544000    0.6248693   -7.8225941    317.84633  0.017154919  0.016484934            7 
 1545000   0.63164816   -7.8220314    317.61356   0.01713126   0.01647211            4 
 1546000   0.64107339   -7.8220074    317.59451  0.017119152  0.016459279            6 
 1547000   0.63810457   -7.8306583    317.95272  0.017127382  0.016446448            8 
 1548000    0.6563381   -7.8237773    318.30373  0.017135214  0.016433649            5 
 1549000   0.63262444   -7.8157364    317.77764  0.017095849  0.016420823            7 
 1550000   0.62545144   -7.8179508    317.88748  0.017090725  0.016408033           11 
 1551000   0.63690639   -7.8354953    317.82819   0.01707652  0.016395241           11 
 1552000   0.63314555   -7.8128709    318.30617  0.017091182  0.016382486            6 
 1553000   0.63630366   -7.8199445    317.43343  0.017033345  0.016369727            5 
 1554000   0.64547565   -7.8308494    317.29803  0.017015124  0.016356973            8 
 1555000   0.64465327   -7.8195877    317.69561  0.017025488  0.016344231           17 
 1556000   0.63998436   -7.8270409    317.77628  0.017018867  0.016331473            5 
 1557000   0.63355485    -7.830443    317.69641  0.017003662  0.016318712            3 
 1558000    0.6322971    -7.818284    317.95815  0.017006747  0.016305973            8 
 1559000    0.6357935   -7.8177011    318.15245  0.017006225  0.016293264            5 
 1560000   0.63875668   -7.8406054    318.41046  0.017009106   0.01628057           15 
 1561000   0.62336376    -7.835635    316.93898  0.016919655  0.016267877           12 
 1562000   0.63624978   -7.8508028    317.61939  0.016945123  0.016255187           12 
 1563000   0.63129569   -7.8427484    317.03323   0.01690303  0.016242527           11 
 1564000   0.62647477   -7.8448848    317.90168  0.016938495  0.016229882            6 
 1565000   0.62298939   -7.8296428    317.89993  0.016927579  0.016217212            6 
 1566000   0.62768025   -7.8432666    318.04412  0.016924443  0.016204569           11 
 1567000    0.6210768    -7.842298    318.87435  0.016957794  0.016191974            8 
 1568000   0.61738782   -7.8210134    317.74623  0.016887024  0.016179378            7 
 1569000    0.6267931   -7.8335202    318.05885  0.016892864  0.016166788            6 
 1570000   0.62277341   -7.8487826    317.06984  0.016829609  0.016154162           11 
 1571000   0.61761916    -7.840001    317.92229  0.016864114  0.016141539            4 
 1572000    0.6453489   -7.8469738    317.65062  0.016838985  0.016128924            8 
 1573000   0.62406808   -7.8443612    318.14461  0.016854451  0.016116326            9 
 1574000   0.62044254   -7.8157608    317.71703  0.016821105  0.016103738            7 
 1575000   0.61364955   -7.8647321    317.73122  0.016811176  0.016091132            5 
 1576000   0.60687057    -7.857873    317.53126  0.016789935  0.016078561            7 
 1577000   0.63146134   -7.8508409    317.72406  0.016789477  0.016065996            4 
 1578000   0.62944081   -7.8706744    317.06444  0.016744003  0.016053449            5 
 1579000   0.62163515   -7.8613722    317.42001  0.016752164  0.016040893            8 
 1580000   0.61717393   -7.8528522    317.75386   0.01675917  0.016028347           13 
 1581000   0.63009854   -7.8556565    317.79369  0.016750669    0.0160158           11 
 1582000   0.62350374   -7.8736599    317.29397  0.016713758  0.016003268            5 
 1583000   0.61330985   -7.8619421    317.74959  0.016727184  0.015990769            6 
 1584000   0.62285862    -7.874183    317.84182  0.016721476  0.015978252           11 
 1585000   0.61571218   -7.8603613    318.30613  0.016735338  0.015965748            9 
 1586000   0.62342155   -7.8656726    316.86731  0.016649186  0.015953233            7 
 1587000   0.62383684   -7.8486349    318.32008   0.01671498  0.015940746           10 
 1588000   0.62483731   -7.8633762    317.65631  0.016669621  0.015928271           13 
 1589000   0.62003199   -7.8454137    317.11076   0.01663052  0.015915793            8 
 1590000   0.62168766   -7.8682143    317.21985  0.016625778  0.015903307            7 
 1591000   0.61585919   -7.8586975    317.14437  0.016611375   0.01589084           13 
 1592000   0.62291931   -7.8402929    317.65536  0.016627688  0.015878385           28 
 1593000   0.61480142   -7.8671058    317.22048  0.016594501  0.015865964           17 
 1594000   0.62634153   -7.8587775    317.48522  0.016597931  0.015853507            5 
 1595000   0.61539686   -7.8910364    317.34378  0.016580135  0.015841045            5 
 1596000   0.60995517   -7.8658404    317.55149  0.016580592  0.015828576           11 
 1597000   0.61904701   -7.9000515    316.91168  0.016536823  0.015816099            8 
 1598000   0.59941625   -7.8690528    316.83772  0.016522618  0.015803637            9 
 1599000   0.61461886   -7.8720384    317.67474  0.016555907  0.015791207            7 
 1600000   0.60828485   -7.8844745    318.30519  0.016578395  0.015778781            8 
 1601000   0.61980849   -7.8797785    316.80794  0.016490107  0.015766365            5 
 1602000   0.60506185   -7.8797968    317.09773  0.016494888   0.01575396            6 
 1603000   0.60981582   -7.8656442    317.25704   0.01649288  0.015741564            7 
 1604000   0.61499392   -7.8893514    317.90294  0.016516155  0.015729183            8 
 1605000   0.61151487   -7.8837926    317.46069  0.016482902  0.015716817           11 
 1606000   0.62882672   -7.8789683    317.22392  0.016460353  0.015704421            9 
 1607000   0.61160073   -7.8793444    317.27507  0.016452762   0.01569206           10 
 1608000   0.60825493    -7.891664    317.16507   0.01643683  0.015679732            9 
 1609000   0.60983617    -7.893083    317.23828  0.016430406  0.015667386           17 
 1610000   0.61036138   -7.8760662    316.85338  0.016400279  0.015655069            8 
 1611000   0.61800154   -7.8930645    317.35859  0.016416232  0.015642731            9 
 1612000   0.60582495   -7.8990804    317.80256  0.016428999  0.015630411            5 
 1613000   0.60492545    -7.876895    317.29659  0.016392674  0.015618083            9 
 1614000   0.60231484   -7.8926843    317.21775  0.016378446  0.015605771            5 
 1615000   0.61541542   -7.8871189    316.53119  0.016332879  0.015593461           13 
 1616000   0.61681498   -7.8767691    317.07592  0.016350862  0.015581179           15 
 1617000    0.6122933   -7.8665256    317.92399  0.016384456  0.015568905            7 
 1618000    0.6009248   -7.8777454    317.57086  0.016356142  0.015556639           15 
 1619000   0.60062741   -7.8954755    317.73654  0.016354567  0.015544386            6 
 1620000   0.61468687   -7.9012245    317.07796  0.016310595  0.015532146           10 
 1621000   0.61157835   -7.8890124    316.60721  0.016276332  0.015519888           12 
 1622000   0.60955438   -7.8811982    317.39421  0.016306731  0.015507628            3 
 1623000   0.60504721   -7.8717223    317.43403  0.016298728  0.015495386            9 
 1624000   0.59940775   -7.9118858    316.79203  0.016255749  0.015483144            5 
 1625000   0.60266263   -7.8719564     316.5783  0.016234785  0.015470885            5 
 1626000   0.61784322   -7.8817144    317.19474  0.016256393  0.015458648           18 
 1627000   0.60654022   -7.9027776    316.72351  0.016222265  0.015446413            8 
 1628000   0.59896377   -7.8814065    317.73069  0.016263856  0.015434176           13 
 1629000   0.59990412   -7.8787971    317.18775  0.016226097  0.015421959            6 
 1630000   0.59463725   -7.8846718    316.70978  0.016191706   0.01540975           10 
 1631000   0.59655113    -7.894519    316.97216  0.016195185  0.015397563           13 
 1632000    0.5953377   -7.8973048    317.21092  0.016197453  0.015385368            7 
 1633000   0.59426966   -7.8869891    316.96504  0.016174987  0.015373178            9 
 1634000   0.60716375   -7.8989328    317.57054  0.016195968  0.015360974           15 
 1635000   0.60894979   -7.9196293    316.51673  0.016132351  0.015348791           12 
 1636000   0.59411404   -7.9091521    316.70545  0.016132103  0.015336623           17 
 1637000   0.59404203    -7.900598    316.84242  0.016129221  0.015324479           14 
 1638000   0.59285109    -7.912193    317.14801  0.016134921  0.015312343           12 
 1639000   0.59366432   -7.9209696    316.32248  0.016083104  0.015300188            8 
 1640000   0.60669406   -7.9205803    316.51355  0.016083006  0.015288066           14 
 1641000   0.62178944   -7.8990732     317.1163  0.016103814  0.015275942           18 
 1642000   0.59812052    -7.905611    316.77005  0.016076434  0.015263831           10 
 1643000   0.59967184   -7.9258225    316.73636   0.01606494  0.015251715           16 
 1644000   0.59195705   -7.9039666     317.2745  0.016082446  0.015239612            5 
 1645000    0.5918631   -7.9277308     316.9035  0.016053875  0.015227514           25 
 1646000   0.58639906   -7.9100389    316.73004   0.01603534  0.015215442           13 
 1647000   0.59020869   -7.9065901     316.9808  0.016038292  0.015203379           16 
 1648000   0.58757833   -7.9304656    317.02633  0.016030862  0.015191323            9 
 1649000    0.5968234   -7.9178494    316.46927  0.015992989  0.015179283            4 
 1650000   0.58861013   -7.9134186    316.93819  0.016006979  0.015167231            7 
 1651000   0.60270933   -7.9250961    316.52881  0.015976621  0.015155201           10 
 1652000   0.61505922   -7.9088438    316.69649  0.015975408  0.015143172           12 
 1653000    0.5944913    -7.938137    316.48529  0.015955096  0.015131126            6 
 1654000   0.60135491   -7.9167931    316.39257  0.015940778  0.015119069           12 
 1655000   0.59743576   -7.9204601    316.57942  0.015940555   0.01510705            4 
 1656000   0.59762611   -7.9485588    316.09857  0.015906732  0.015094992            5 
 1657000   0.58801431   -7.9106984    316.66254  0.015925495  0.015082962           12 
 1658000    0.5894935   -7.9327591    316.05197  0.015885202  0.015070932           20 
 1659000   0.59498249   -7.9160719    316.55011  0.015900648   0.01505892            9 
 1660000   0.59483097   -7.9343786    316.55745  0.015891438  0.015046914            7 
 1661000   0.58564281   -7.9212306    316.40653  0.015874299  0.015034921            9 
 1662000   0.58533328   -7.9062953    316.04647  0.015846694  0.015022949           10 
 1663000   0.60255554   -7.9509228    316.57936  0.015863868  0.015010966           15 
 1664000   0.59089492   -7.9114568    317.31439  0.015891145  0.014999018           13 
 1665000   0.58791528   -7.9361405    316.69369  0.015850535  0.014987076            7 
 1666000   0.57746298   -7.9484877    316.12681  0.015812666  0.014975141           13 
 1667000   0.57811979   -7.9343175    316.18598  0.015806138  0.014963204            9 
 1668000   0.57806025   -7.9373085    315.77993  0.015776375  0.014951293           20 
 1669000   0.58740506   -7.9300285    316.96466  0.015826077    0.0149394           14 
 1670000   0.59280263   -7.9448367    316.32529  0.015784695  0.014927525           38 
 1671000   0.57665029   -7.9426136    316.50094  0.015784008  0.014915664           29 
 1672000   0.59203764   -7.9522303    316.90821  0.015794867  0.014903802           13 
 1673000    0.5772715   -7.9433995    316.59182  0.015769666  0.014891951           11 
 1674000    0.5758166   -7.9543341    316.52246  0.015756793  0.014880109           14 
 1675000   0.57827551   -7.9467396    316.78351  0.015760374   0.01486825           12 
 1676000   0.58681246   -7.9480316     316.6323  0.015743452  0.014856415            8 
 1677000    0.5918126   -7.9434743    316.39876  0.015722459  0.014844596           14 
 1678000    0.5716148   -7.9455905    317.08802  0.015747319  0.014832812            8 
 1679000   0.57921415   -7.9723469    316.42131  0.015704849   0.01482102           17 
 1680000   0.58875595    -7.935574    317.02813  0.015725601  0.014809232            9 
 1681000   0.57872437     -7.94931    316.21222  0.015675799  0.014797459           16 
 1682000   0.59666797   -7.9393322    316.17641  0.015664705  0.014785697            7 
 1683000   0.58078585   -7.9337383    316.59554  0.015676151  0.014773944           22 
 1684000   0.58466795   -7.9512235    316.70487  0.015672252  0.014762184           18 
 1685000    0.5718041    -7.961253    316.80568  0.015667937  0.014750431           13 
 1686000   0.57004207    -7.945144     316.1636  0.015626908  0.014738679           18 
 1687000   0.58508857   -7.9489928     316.3161  0.015625178  0.014726938           14 
 1688000   0.57034852    -7.964948    316.53607  0.015626781  0.014715205            6 
 1689000   0.56500142   -7.9209986    316.74008  0.015627594  0.014703501            8 
 1690000   0.58200166   -7.9274786    316.48211  0.015605627  0.014691807            7 
 1691000   0.57061645    -7.960308    316.85337  0.015614694  0.014680126           10 
 1692000   0.58179122   -7.9628486    316.33915  0.015580139  0.014668438           19 
 1693000   0.59097254   -7.9357869    316.46833  0.015577295  0.014656743           13 
 1694000   0.57718035   -7.9500653    315.55955  0.015523394  0.014645067           22 
 1695000   0.58318668   -7.9427891    316.43284   0.01555717  0.014633404           38 
 1696000   0.56866045   -7.9759514    315.91724  0.015522663  0.014621738           20 
 1697000   0.56027556   -7.9498759    316.23475  0.015529108  0.014610088           10 
 1698000   0.58055277   -7.9279397    316.28906  0.015522628  0.014598472           16 
 1699000   0.57779917   -7.9485084    316.45658  0.015521708  0.014586855           26 
 1700000   0.58667392   -7.9859219    316.18676  0.015499351  0.014575225           14 
 1701000   0.56974911   -7.9539916    316.27841  0.015494729   0.01456361           36 
 1702000   0.57266488   -7.9604934    316.18345  0.015480976  0.014552008           16 
 1703000   0.57102518   -7.9636515    316.49291  0.015487028   0.01454042           18 
 1704000   0.57893611   -7.9477528    316.61257  0.015483792  0.014528841           19 
 1705000   0.56872293   -7.9625165    316.63187  0.015475653  0.014517287           10 
 1706000   0.57904837   -7.9622081    316.32043  0.015451369  0.014505747            8 
 1707000   0.58748514   -7.9737688    316.75555  0.015463559  0.014494209           15 
 1708000   0.56792281   -7.9490637    316.40088  0.015437201  0.014482669           12 
 1709000   0.57534972   -7.9613771    316.25751  0.015421177   0.01447112           10 
 1710000   0.56895046   -7.9570081    315.94025  0.015396698  0.014459577            9 
 1711000   0.57053509    -7.975489    316.27173  0.015403844  0.014448034           16 
 1712000   0.56763865   -7.9586705    316.26505  0.015394522  0.014436481           20 
 1713000   0.56104407   -7.9780153    315.50658  0.015348637  0.014424951           17 
 1714000   0.56724577   -7.9761422    316.58925  0.015392321  0.014413439           18 
 1715000   0.56442394    -7.979656    315.99252   0.01535435  0.014401937           11 
 1716000    0.5640012   -7.9763307    316.14468  0.015352791  0.014390434           12 
 1717000   0.56131526    -7.987162    315.65292  0.015319983  0.014378937            7 
 1718000   0.56500763   -7.9883088    316.08712  0.015332127  0.014367467           17 
 1719000   0.56810411    -7.977392    316.07863  0.015322796  0.014355996           46 
 1720000   0.55725159   -7.9612044    315.75093   0.01529801  0.014344526           27 
 1721000   0.55968054   -7.9811016    315.95207  0.015298861  0.014333078            9 
 1722000   0.56439192   -7.9831577    316.09222  0.015296759  0.014321639           43 
 1723000   0.56005733   -7.9884607    315.78127  0.015272842  0.014310209           15 
 1724000   0.56622871   -7.9945319     316.0078  0.015274932  0.014298773           35 
 1725000   0.58144034   -7.9740821    314.92721  0.015213875  0.014287338           13 
 1726000   0.55811724   -7.9700952    315.96619  0.015255224   0.01427592           24 
 1727000   0.56465663   -7.9928307    315.82661  0.015239655  0.014264529           21 
 1728000   0.55106312    -8.011134    315.80842  0.015229959  0.014253118           40 
 1729000   0.55366903   -7.9885097    315.87907  0.015224555  0.014241704           12 
 1730000   0.56870315   -7.9909749    316.05741  0.015224345  0.014230331           23 
 1731000   0.56495515   -7.9742237    315.68465  0.015197605   0.01421896            7 
 1732000   0.56034733   -7.9775926    316.03404  0.015205641  0.014207598           16 
 1733000   0.56434293   -8.0054278    315.50158  0.015171263  0.014196247           22 
 1734000   0.56162543   -7.9565603      315.279  0.015151817  0.014184899           31 
 1735000   0.57412044    -8.003142    315.67613  0.015162158  0.014173577           23 
 1736000   0.55482749   -7.9911125    315.75237  0.015157084   0.01416227           27 
 1737000   0.55451153    -7.983288    315.94432  0.015157567  0.014150974           31 
 1738000   0.55159695   -7.9975085    315.94575  0.015148914  0.014139702           15 
 1739000    0.5640662   -7.9941636    315.84157   0.01513521  0.014128419           39 
 1740000   0.56828645   -7.9944542    315.54551  0.015112333  0.014117145           14 
 1741000   0.56418275   -7.9953096     315.7532  0.015113594  0.014105889           16 
 1742000   0.56631562   -7.9797161    315.97159  0.015115365  0.014094647           13 
 1743000   0.55442577   -7.9926502    315.56639   0.01508732  0.014083405           17 
 1744000   0.55509359   -7.9684403    315.69959  0.015085034  0.014072206           19 
 1745000   0.55437006   -7.9866127    316.07711  0.015094418  0.014060981           16 
 1746000   0.54680395   -7.9905918    315.72702  0.015069063  0.014049783           15 
 1747000   0.55284063   -7.9892262    315.55603  0.015052282  0.014038584           20 
 1748000   0.54654623   -8.0127371    315.43295  0.015037802  0.014027369           21 
 1749000   0.56337975   -7.9715626     315.0721  0.015012012  0.014016173           17 
 1750000   0.54369774   -8.0037754     315.2363  0.015011253  0.014004992           23 
 1751000   0.55279364   -7.9834767    315.27346  0.015004448  0.013993817           24 
 1752000   0.55387473   -7.9892435    315.75966  0.015019009  0.013982656           10 
 1753000   0.55583591    -8.016541    315.96226  0.015020073  0.013971491           26 
 1754000   0.55227256   -7.9881809    316.07339   0.01501679  0.013960334           14 
 1755000   0.55832119   -8.0128672    315.81483  0.014995956  0.013949199           14 
 1756000   0.55173863   -7.9942597     315.4544  0.014970312  0.013938068           21 
 1757000   0.54473005   -8.0079372    315.11065  0.014945487  0.013926939            8 
 1758000   0.54222097   -8.0132031    315.30714    0.0149463  0.013915822           15 
 1759000   0.55225884   -7.9931526    315.49524  0.014946714   0.01390472           10 
 1760000   0.54939553   -8.0076564    315.94826  0.014959671  0.013893639            7 
 1761000   0.54526679   -7.9830985    315.15389  0.014913586  0.013882559           17 
 1762000   0.54261992   -8.0001172    315.95844  0.014943173  0.013871482           16 
 1763000   0.54572091   -8.0184146    315.70272  0.014922609  0.013860425           15 
 1764000   0.54847569   -8.0032643    315.97362  0.014926947  0.013849353           10 
 1765000   0.53760479   -8.0087244    315.07109  0.014875878  0.013838288           19 
 1766000    0.5548794   -7.9985551    315.89956  0.014906548  0.013827235           15 
 1767000   0.54570436    -8.004464    316.02836  0.014904186  0.013816206           18 
 1768000   0.55254475   -8.0266143    315.42493  0.014867314  0.013805187           12 
 1769000   0.54828139   -7.9999842    314.81697   0.01483027  0.013794161           16 
 1770000   0.54083692   -8.0168003    315.47086  0.014852677  0.013783156           11 
 1771000   0.54917607   -8.0147247    315.48855  0.014845123  0.013772159           13 
 1772000   0.55251505    -8.016287    315.44708  0.014834795  0.013761154           14 
 1773000    0.5365476   -8.0155999    315.56337  0.014831894  0.013750175           24 
 1774000   0.53001512   -8.0267144    315.22893  0.014807823  0.013739204           13 
 1775000   0.54253252   -8.0222234    315.66907  0.014820144  0.013728252           17 
 1776000   0.54887884   -8.0146305    315.04775  0.014782646    0.0137173           16 
 1777000   0.54681175   -8.0192646    314.92882   0.01476875  0.013706372           13 
 1778000   0.53916383   -8.0001163    315.44702  0.014784731  0.013695428           13 
 1779000   0.54444773   -8.0330735    315.28316  0.014768744  0.013684503           11 
 1780000   0.54858937   -8.0161607    315.61985   0.01477621  0.013673596            8 
 1781000   0.54891841   -8.0239173    315.09184  0.014743208  0.013662698           10 
 1782000   0.53359323   -8.0311909    315.29266  0.014744326  0.013651806           28 
 1783000   0.54279107    -8.041067    315.96393   0.01476743  0.013640907           10 
 1784000   0.53808895    -8.032437    315.19261  0.014723122  0.013630029           17 
 1785000   0.53695759   -8.0215818      315.624  0.014735014  0.013619164           13 
 1786000    0.5356089    -8.015328    315.07102  0.014700962  0.013608313           18 
 1787000   0.54177234   -8.0262754    315.16958  0.014697332  0.013597458           23 
 1788000   0.52421198   -8.0449233     314.9946  0.014680956  0.013586609           11 
 1789000   0.54377563   -8.0236801    315.10043   0.01467768  0.013575775           11 
 1790000   0.54021006   -8.0424972    314.96757  0.014663295  0.013564947            7 
 1791000   0.53543296   -8.0468757    315.39623  0.014675053  0.013554134            9 
 1792000   0.53407815   -8.0313026    315.40019  0.014667048  0.013543331           19 
 1793000   0.53341363   -8.0479243    315.29135  0.014653809   0.01353255           14 
 1794000   0.52833367   -8.0265669      315.115  0.014637449  0.013521777           27 
 1795000   0.53201003   -8.0416107    315.28565  0.014637217  0.013511016           15 
 1796000   0.54043744   -8.0526216    314.97768  0.014614777  0.013500245            9 
 1797000   0.52898309   -8.0492493    315.24699  0.014619133  0.013489479           13 
 1798000   0.52769293   -8.0232532    314.64493  0.014583099  0.013478719           13 
 1799000   0.53225964   -8.0227726    315.77429  0.014627306  0.013467979           11 
 1800000   0.53580872   -8.0423594    315.15677  0.014590591  0.013457243           14 
 1801000   0.52552586   -8.0420577     314.7774  0.014564936  0.013446521           22 
 1802000   0.53489598   -8.0309557    314.91635  0.014563279  0.013435805           10 
 1803000   0.54069716   -8.0354305    314.88805  0.014553894  0.013425092           13 
 1804000   0.53615597   -8.0545457     315.1785  0.014559243  0.013414405           14 
 1805000   0.53554567   -8.0598364    314.64729  0.014526652  0.013403719           17 
 1806000   0.53530361   -8.0464714     315.5368  0.014559653  0.013393033           19 
 1807000   0.51963506   -8.0369406    315.33557  0.014542316  0.013382368           11 
 1808000   0.53730764   -8.0518113    314.40621  0.014491437  0.013371714           16 
 1809000   0.52280935   -8.0430723    315.41841  0.014530054  0.013361061            9 
 1810000   0.52072629   -8.0460874     315.1572      0.01451  0.013350414           26 
 1811000   0.54163524   -8.0483879    315.40949  0.014513597  0.013339764           14 
 1812000    0.5203991   -8.0503228    315.33351  0.014502093  0.013329147           15 
 1813000   0.54600869   -8.0497474    315.35415  0.014495043  0.013318529           22 
 1814000   0.52316359   -8.0535266    314.91525   0.01446689  0.013307919           10 
 1815000    0.5333649   -8.0515725    314.22064  0.014427026  0.013297308           10 
 1816000   0.52868479   -8.0328794    314.80031  0.014445682  0.013286705           28 
 1817000   0.53152238   -8.0515152    314.80616     0.014438  0.013276114           35 
 1818000   0.52931758   -8.0442013    314.51708  0.014416808  0.013265537           11 
 1819000   0.52599598   -8.0657268    314.36214  0.014401784  0.013254963           35 
 1820000   0.53416944   -8.0526511    315.03811  0.014424822    0.0132444           17 
 1821000   0.53161098   -8.0539029    314.91305  0.014411177  0.013233855           33 
 1822000   0.52991391   -8.0547352    314.96749  0.014405758  0.013223314           20 
 1823000     0.523577    -8.045989    315.12111  0.014404878  0.013212802           35 
 1824000   0.52037537   -8.0431891    314.70352  0.014377902  0.013202291           20 
 1825000   0.51578556   -8.0635656    315.18246  0.014391893  0.013191784           34 
 1826000   0.52601735   -8.0462105     314.7365  0.014363659  0.013181283           11 
 1827000   0.51797903   -8.0483265    314.80461  0.014358904  0.013170789           17 
 1828000   0.52279632   -8.0301656    314.69423  0.014346017  0.013160302           33 
 1829000   0.52890597   -8.0462278    314.87087  0.014346222  0.013149829           20 
 1830000   0.52247434   -8.0432196    314.53633  0.014323148  0.013139357           10 
 1831000    0.5163069   -8.0406174    314.92986  0.014333236  0.013128899           12 
 1832000   0.52321305   -8.0497193    314.19044  0.014291778  0.013118448           21 
 1833000   0.52409127   -8.0644889    314.86566  0.014314678  0.013108004           16 
 1834000   0.52613873   -8.0549246    314.80657  0.014304188  0.013097571           12 
 1835000   0.51220307   -8.0821349    314.78621  0.014295468  0.013087133           23 
 1836000   0.51010571   -8.0644053    314.31804  0.014266433  0.013076711           33 
 1837000   0.52657757   -8.0476373    314.66445  0.014274381  0.013066298           27 
 1838000   0.51058907   -8.0664262    314.79467  0.014272518  0.013055894           28 
 1839000   0.53138098   -8.0504087    314.88008  0.014268628  0.013045499           22 
 1840000   0.52282211   -8.0570895    314.52651   0.01424486  0.013035125           11 
 1841000   0.52316845   -8.0566808    315.12651  0.014264282  0.013024762           10 
 1842000   0.51507546   -8.0496924    314.21396  0.014215254   0.01301441           31 
 1843000   0.53009489   -8.0611478    313.99623  0.014197695  0.013004067           22 
 1844000   0.52550199   -8.0585164    314.57771  0.014216274  0.012993736           10 
 1845000   0.52212309   -8.0748815    314.80385  0.014218783  0.012983417           29 
 1846000   0.51393873   -8.0564504    314.69269  0.014206062   0.01297311           19 
 1847000   0.52266959   -8.0772696    315.17154  0.014219976  0.012962806           21 
 1848000   0.52120229   -8.0836428     314.5183  0.014182824  0.012952523           17 
 1849000   0.50382827   -8.0672745    314.23824  0.014162531  0.012942256            8 
 1850000   0.50838833    -8.083408    314.55109  0.014168968   0.01293199           15 
 1851000   0.51635471   -8.0750564    314.28006  0.014149111  0.012921725           24 
 1852000   0.51610287   -8.0755898    314.96605  0.014172338  0.012911478           12 
 1853000   0.51269435    -8.059072    314.16922  0.014128855  0.012901224           24 
 1854000   0.50316869   -8.0726625    314.62744   0.01414183  0.012890988           17 
 1855000     0.511812   -8.0660387    314.28939   0.01411902  0.012880745           28 
 1856000   0.51320814   -8.0755641     314.4798  0.014119962  0.012870518           30 
 1857000   0.52194424   -8.0684209    314.32404  0.014105369  0.012860296           28 
 1858000   0.51013489   -8.0799728    314.49302  0.014105356  0.012850089           28 
 1859000    0.5105288   -8.0891697    314.64752  0.014104694  0.012839891           24 
 1860000   0.51730991   -8.0823723    314.17704  0.014076032  0.012829698           32 
 1861000   0.51286366   -8.0729096    315.10234  0.014109903  0.012819509           30 
 1862000   0.51204103   -8.0893194    314.32408  0.014067494  0.012809333           31 
 1863000   0.51241488    -8.084934    314.84742  0.014083352  0.012799169           44 
 1864000   0.49464946    -8.075274    314.47298  0.014059057  0.012788998           32 
 1865000   0.51090931   -8.0775932    314.16695  0.014037844  0.012778848           31 
 1866000   0.51120634   -8.0834293     314.4482  0.014042881  0.012768705           28 
 1867000   0.51209676   -8.0921103    314.88737  0.014054962  0.012758568           34 
 1868000   0.50215053   -8.0770147    314.38803  0.014025162   0.01274845           44 
 1869000   0.50514201   -8.0896614    314.40016  0.014018199  0.012738326           42 
 1870000   0.51543684   -8.0694344    314.12581  0.013998476  0.012728207           32 
 1871000   0.50018209    -8.081639     314.3421  0.014000628  0.012718098           28 
 1872000    0.5088297   -8.0912803    314.44653  0.013997798  0.012708003           30 
 1873000    0.5021816   -8.0798209    313.60256  0.013952775  0.012697916           35 
 1874000   0.50063281   -8.0861667    314.25262  0.013974236  0.012687827           46 
 1875000   0.51219959   -8.0836681    314.27752   0.01396789  0.012677751           27 
 1876000   0.50690947   -8.0924769    313.77171  0.013937976   0.01266769           41 
 1877000   0.50880094   -8.0783433    314.37966  0.013957541  0.012657648           34 
 1878000   0.49424797   -8.0806845    314.16957  0.013940787  0.012647615           24 
 1879000   0.50493558   -8.0935092    314.80874  0.013961715  0.012637595           25 
 1880000   0.50129777   -8.0783498    314.51681  0.013941348  0.012627567           30 
 1881000   0.50172154   -8.0728792    314.03369  0.013912533  0.012617548           30 
 1882000    0.5042302   -8.0853093    314.33577  0.013918516  0.012607528           36 
 1883000   0.50673167   -8.0886977    313.98324  0.013895523  0.012597525           34 
 1884000   0.51076079   -8.0941273    313.98483  0.013888218  0.012587527           26 
 1885000   0.51377426   -8.0869808    313.71136  0.013868761  0.012577542           36 
 1886000   0.50712001   -8.0871528     314.6616  0.013903393  0.012567567           36 
 1887000   0.49081138    -8.106245    314.22764  0.013876861  0.012557597           33 
 1888000   0.50540367   -8.0827111    314.12251  0.013864871  0.012547633           34 
 1889000   0.49992591    -8.091354    313.09405   0.01381216  0.012537681           35 
 1890000   0.50890879   -8.0977814    313.79571   0.01383579  0.012527735           44 
 1891000   0.49449524   -8.0977138    314.48679  0.013858928  0.012517805           38 
 1892000   0.50315087    -8.109582    313.83475  0.013822884   0.01250788           33 
 1893000   0.50086889   -8.0845308    313.86025  0.013816704   0.01249797           41 
 1894000   0.48788674   -8.0844158    313.96904  0.013814196  0.012488061           31 
 1895000   0.49892706   -8.1042071    313.93023  0.013805199  0.012478162           37 
 1896000   0.48965151   -8.1150532    313.84552  0.013794195  0.012468283           47 
 1897000   0.49610671   -8.1097738    314.07454  0.013796984  0.012458404           48 
 1898000   0.48627913   -8.1020646    314.10144  0.013790896  0.012448549           47 
 1899000   0.49634618   -8.1076829     313.7724  0.013769194  0.012438692           50 
 1900000   0.49898225   -8.0953642    313.95536  0.013769972  0.012428854           52 
 1901000   0.50138477   -8.0988246    313.78092  0.013755082  0.012419024           32 
 1902000   0.49719021   -8.0936487    313.71554  0.013744985  0.012409209           46 
 1903000    0.4975825    -8.098619    313.53814  0.013729994  0.012399392           60 
 1904000   0.48600355    -8.102536    314.05932  0.013745594  0.012389604           51 
 1905000   0.50754472   -8.0962743     313.9069   0.01373171   0.01237981           61 
 1906000   0.48855136   -8.1121156    314.20839  0.013737687  0.012370032           31 
 1907000   0.48363442   -8.0979765    313.75427  0.013710639  0.012360258           36 
 1908000   0.49058949   -8.1064601    314.29253  0.013726962  0.012350489           41 
 1909000   0.49725025   -8.1018551    314.24767  0.013717813  0.012340724           34 
 1910000   0.48457891    -8.103187    313.78651  0.013690511  0.012330966           47 
 1911000   0.48070894   -8.1032253    314.03695  0.013694268  0.012321217           27 
 1912000   0.48664335   -8.1162455    313.76846  0.013675404  0.012311472           45 
 1913000   0.50019104   -8.1196666    314.18405  0.013686359  0.012301744           34 
 1914000   0.48037225   -8.1086785    313.55002  0.013651603  0.012292019           35 
 1915000   0.48650902   -8.1011598     313.4828  0.013641549  0.012282313           36 
 1916000   0.50099998   -8.1110603    314.02686  0.013658093  0.012272616           31 
 1917000   0.49507744   -8.0987856    313.56192  0.013630756  0.012262913           45 
 1918000   0.48752049   -8.0963567    313.76031  0.013632269  0.012253229           49 
 1919000   0.48381245   -8.1150587    313.60913  0.013618601  0.012243557           49 
 1920000   0.49114304   -8.1133961    313.36326  0.013600836  0.012233895           63 
 1921000   0.47534615    -8.106438    313.92585  0.013618161  0.012224231           60 
 1922000    0.4916456   -8.1102412    313.75142  0.013603513  0.012214581           48 
 1923000   0.47462857   -8.1091155    314.02912  0.013608473  0.012204931           52 
 1924000   0.48446058   -8.1260763    313.74206  0.013588967  0.012195291           53 
 1925000   0.48552326   -8.1263279    314.01902  0.013593897  0.012185661           49 
 1926000   0.47237629    -8.110627    313.42251  0.013561029  0.012176041           41 
 1927000   0.48150128   -8.1179571    314.00064  0.013578993  0.012166424           34 
 1928000   0.48581563   -8.1112739    313.54355  0.013552194  0.012156819           44 
 1929000   0.48088965     -8.11394    313.63414  0.013549082  0.012147224           35 
 1930000   0.48532664   -8.1372642    313.64302  0.013542445  0.012137641           52 
 1931000   0.47158573   -8.1215875    313.38151  0.013524146  0.012128059           52 
 1932000   0.48933616    -8.109588    313.68816  0.013530373  0.012118496           39 
 1933000   0.48414345   -8.1228228    314.13353  0.013542573  0.012108926           65 
 1934000   0.47210101   -8.1176041    313.49359  0.013507997  0.012099369           43 
 1935000   0.49686163   -8.1304156    313.32269  0.013493656  0.012089825           42 
 1936000   0.47609897   -8.1165945    313.10757  0.013477427  0.012080289           50 
 1937000   0.48856767   -8.1078528     313.5439   0.01348924  0.012070759           19 
 1938000   0.47819651   -8.1008311    313.88565  0.013496975  0.012061256           55 
 1939000   0.48610034   -8.1181298      313.462  0.013471807   0.01205175           54 
 1940000   0.48028947   -8.1234103    313.64413  0.013472686   0.01204226           60 
 1941000   0.49109868   -8.1104606    313.80716  0.013472744  0.012032777           40 
 1942000   0.47605513    -8.122946    313.22963  0.013441024  0.012023301           42 
 1943000   0.47152954   -8.1312424    313.61577  0.013450668  0.012013827           50 
 1944000   0.47438222   -8.1279208    313.60252  0.013443181  0.012004361           31 
 1945000   0.46954128   -8.1225811     313.7867   0.01344416  0.011994907           42 
 1946000   0.46759822   -8.1340232    313.46375  0.013423422   0.01198546           37 
 1947000   0.46403382   -8.1237301    313.25442  0.013407568  0.011976026           46 
 1948000   0.46838261   -8.1332178    313.18234  0.013397602  0.011966588           56 
 1949000   0.47544676   -8.1309232    313.41997  0.013400888  0.011957164           52 
 1950000   0.46617175   -8.1211807    313.30972  0.013389304  0.011947736           45 
 1951000   0.48550838   -8.1402249    313.16766  0.013376374  0.011938326           50 
 1952000   0.45959405    -8.133376    312.95378   0.01336039   0.01192892           44 
 1953000   0.46865647   -8.1417636    313.00253   0.01335563  0.011919529           40 
 1954000    0.4840048   -8.1405858    313.61352  0.013374852  0.011910156           45 
 1955000   0.47900565    -8.127907    313.51087  0.013363635  0.011900783           50 
 1956000   0.46956937   -8.1484632    312.93072  0.013332086  0.011891425           40 
 1957000   0.47021489   -8.1190177    313.28393  0.013340314  0.011882076           37 
 1958000   0.47497605   -8.1459667    313.44791   0.01334048  0.011872738           53 
 1959000   0.45848021   -8.1464143    313.62895  0.013341371  0.011863407           47 
 1960000   0.47997115   -8.1460276    313.31655  0.013321282  0.011854084           54 
 1961000    0.4627558   -8.1349114    313.12571  0.013306379  0.011844768           42 
 1962000   0.46574451   -8.1404126    313.03067   0.01329556  0.011835461           41 
 1963000   0.47157928   -8.1497314    312.81548  0.013279652  0.011826169           48 
 1964000   0.46113172   -8.1511548    312.97118  0.013279497  0.011816883           42 
 1965000   0.47221729   -8.1404637    313.15973  0.013280735  0.011807602           34 
 1966000   0.46621372   -8.1251704    312.95746  0.013265406  0.011798328           47 
 1967000   0.46150945   -8.1495573    312.77428  0.013250902  0.011789053           56 
 1968000   0.46779039   -8.1435698    313.39489  0.013270448  0.011779785           31 
 1969000   0.46222441   -8.1590772    313.20415  0.013255635  0.011770531           45 
 1970000   0.46529979   -8.1380135    313.10321  0.013244637  0.011761291           56 
 1971000    0.4629643   -8.1405946    313.72446  0.013264183  0.011752056           29 
 1972000   0.45642045   -8.1411476    312.85882  0.013220877   0.01174283           40 
 1973000   0.46408426   -8.1503143    313.15392   0.01322664  0.011733599           60 
 1974000   0.46289581   -8.1442994    313.08565  0.013217057  0.011724377           50 
 1975000   0.46431713   -8.1322952     313.3274  0.013220566  0.011715176           48 
 1976000   0.46014987   -8.1692315     312.6189  0.013183995  0.011705981           46 
 1977000   0.47520896   -8.1536143    312.81008  0.013185385  0.011696786           56 
 1978000   0.46506674   -8.1620024    313.10016   0.01319094  0.011687603           54 
 1979000   0.45819953   -8.1597428    313.07412  0.013183178  0.011678435           35 
 1980000   0.46881418   -8.1557205     313.1377  0.013179196  0.011669269           25 
 1981000   0.46158668   -8.1531257    312.30709  0.013137603  0.011660109           31 
 1982000   0.45903983    -8.151431    313.34609  0.013174659  0.011650961           63 
 1983000   0.46165378   -8.1624322    313.13388  0.013159097  0.011641822           40 
 1984000   0.45920828   -8.1505763    313.52229  0.013168779  0.011632704           49 
 1985000   0.44970916    -8.163641    313.33622  0.013154334  0.011623592           58 
 1986000   0.46046412   -8.1386012    313.19989  0.013141989  0.011614485           39 
 1987000   0.45464908   -8.1568313    312.88007  0.013121962   0.01160539           53 
 1988000   0.45086136   -8.1614087    313.54528  0.013143246    0.0115963           59 
 1989000   0.45485228   -8.1578928    313.02306  0.013114759  0.011587215           53 
 1990000   0.45134136   -8.1472809    313.40095  0.013123993  0.011578136           43 
 1991000   0.46386415    -8.167077    313.17589  0.013107981  0.011569072           41 
 1992000   0.46747923   -8.1500599    312.99626  0.013093886  0.011560013           21 
 1993000   0.44980715   -8.1632467    312.87649  0.013082308  0.011550966           44 
 1994000   0.45243963   -8.1665825    312.91815  0.013077489  0.011541919           41 
 1995000   0.44698311   -8.1555661    312.88461  0.013069533  0.011532881           42 
 1996000    0.4613311   -8.1607887    313.04731  0.013069777  0.011523854           35 
 1997000   0.45426471    -8.170368    313.17203  0.013068437  0.011514829           57 
 1998000   0.46085431   -8.1581045    312.55132  0.013036008  0.011505809           41 
 1999000    0.4514968   -8.1686374     312.9923   0.01304787  0.011496803           45 
 2000000   0.46020142   -8.1684543    312.81989  0.013034162    0.0114878           52 
 2001000   0.44765094   -8.1698725    312.62971  0.013019728  0.011478818           50 
 2002000   0.45567749   -8.1564464    312.96195  0.013027054   0.01146984           30 
 2003000   0.47070988   -8.1522481    312.98388  0.013021463  0.011460871           38 
 2004000    0.4503994   -8.1778712    312.39605  0.012990521  0.011451907           42 
 2005000   0.44018398   -8.1672333    312.42036  0.012985052  0.011442957           32 
 2006000   0.44888155   -8.1646306    312.72815  0.012991365  0.011434018           27 
 2007000   0.45460622    -8.160293    313.04072  0.012997871  0.011425089           49 
 2008000   0.44774004   -8.1468306    313.29962  0.013002142  0.011416166           46 
 2009000    0.4506023   -8.1575452    312.51009   0.01296292  0.011407252           22 
 2010000   0.45582795   -8.1800689    312.19265   0.01294331  0.011398326           39 
 2011000   0.45274872   -8.1800947    312.78946  0.012961605  0.011389422           45 
 2012000   0.44258521   -8.1919814    312.98572  0.012963292   0.01138052           43 
Loop time of 4514.37 on 48 procs for 2000000 steps with 4000 atoms

Performance: 76555.522 tau/day, 443.030 timesteps/s
99.4% CPU use with 48 MPI tasks x no OpenMP threads

MPI task timing breakdown:
Section |  min time  |  avg time  |  max time  |%varavg| %total
---------------------------------------------------------------
Pair    | 278.57     | 298.86     | 326.32     |  53.6 |  6.62
Neigh   | 29.336     | 30.242     | 31.471     |   8.9 |  0.67
Comm    | 254.41     | 287.76     | 317.37     |  65.7 |  6.37
Output  | 3.9962     | 4.0015     | 4.0378     |   0.3 |  0.09
Modify  | 3833.4     | 3850.2     | 3862.3     |  10.2 | 85.29
Other   |            | 43.27      |            |       |  0.96

Nlocal:        83.3333 ave          91 max          74 min
Histogram: 2 2 5 3 6 11 6 5 6 2
Nghost:        1913.77 ave        1942 max        1882 min
Histogram: 1 4 2 5 8 11 6 4 3 4
Neighs:        12056.0 ave       13499 max       10520 min
Histogram: 3 3 3 8 7 7 3 8 3 3
FullNghs:      24111.7 ave       26768 max       20988 min
Histogram: 2 2 2 6 8 9 6 7 5 1

Total # of neighbors = 1157361
Ave neighs/atom = 289.34025
Neighbor list builds = 107464
Dangerous builds = 2

#clear
#
#next RN
#
#jump SELF
Total wall time: 1:15:17
