
units lj                  # Use reduced LJ style units
atom_style atomic         # Uncharged point particles
atom_modify map hash      # Needed for indexing of clusters etc
                          # Used to be able to find where atoms are in relation to each other.

lattice fcc 1.0 spacing 1 1 1
Lattice spacing in x,y,z = 1.5874011 1.5874011 1.5874011
region box block 0 10 0 10 0 10 units lattice
create_box 2 box
Created orthogonal box = (0.0000000 0.0000000 0.0000000) to (15.874011 15.874011 15.874011)
  3 by 4 by 4 MPI processor grid
create_atoms 1 box
Created 4000 atoms
  using lattice units in orthogonal box = (0.0000000 0.0000000 0.0000000) to (15.874011 15.874011 15.874011)
  create_atoms CPU = 0.002 seconds
set type 1 type/fraction 2 0.88 78393
Setting atom values ...
  3511 settings made for type/fraction
mass 1 1.0
mass 2 1.0
pair_style lj/cut  3.5
pair_modify tail  yes
pair_coeff 1  1  1.0  1.0   # Intearaction between 1 and 1 set with epsilon = 1 and sigma = 1
pair_coeff 1  2  1.5  0.8
pair_coeff 2  2  0.5  0.88

write_data data.0
System init for write_data ...
Neighbor list info ...
  update every 1 steps, delay 10 steps, check yes
  max neighbors/atom: 2000, page size: 100000
  master list distance cutoff = 3.8
  ghost atom cutoff = 3.8
  binsize = 1.9, bins = 9 9 9
  1 neighbor lists, perpetual/occasional/extra = 1 0 0
  (1) pair lj/cut, perpetual
      attributes: half, newton on
      pair build: half/bin/atomonly/newton
      stencil: half/bin/3d
      bin: standard
WARNING: Not all mixed pair coeffs generated from mixing. Use write_data with 'pair ij' option to store all pair coeffs. (../write_data.cpp:312)


#############################
#   M E L T   S Y S T E M   #
#############################

velocity all create 2.4 9622624 mom yes dist gaussian # Assign velocities
                                                    # Temperature 2.4, random number seed, zero linear momentum
                                                                                # Gaussian distribution

timestep 0.002   # simulation timestep
thermo 1000       # output thermodynamic data every 1000 steps bf 100

# Define a fix  in this case with index 1 applied to all
# particles in the simulation. This fix is for simulations
# in the anisotropic NPT ensemble. Note that we use the MTK
# correction.
fix 1 all npt temp 2.4 2.4 0.1 iso 5.68 5.68 0.5 mtk yes tchain 5 pchain 5 # Use NPT ensemble
                                                                         # Set temperature and pressure and damping
                                                                         # Numbers of thermostats in chain and in barostat
run 10000          # run for 10000 steps
Per MPI rank memory allocation (min/avg/max) = 3.642 | 3.644 | 3.648 Mbytes
Step Temp E_pair E_mol TotEng Press Volume 
       0          2.4   -3.2921436            0   0.30695645   -2.7369977         4000 
    1000    2.4132475   -2.3850814            0    1.2338849    5.6272003    3962.5358 
    2000    2.4009714    -2.346848            0    1.2537087    6.0006315    3953.1536 
    3000    2.3895668   -2.4407101            0     1.142744    5.7618427     3907.935 
    4000    2.3804102   -2.3566724            0    1.2130502    5.7689601    3989.0634 
    5000    2.4235449   -2.4263167            0    1.2080919    5.6282765    3946.4602 
    6000    2.4029035   -2.3354252            0    1.2680291    5.7496216    3998.4088 
    7000    2.3695138   -2.4220675            0    1.1313146    5.8645786    3904.3668 
    8000    2.3672532   -2.3685012            0    1.1814909    6.0060878    3924.3321 
    9000     2.414519   -2.4309352            0    1.1899379    5.6376585    3927.5891 
   10000    2.3779537   -2.4224778            0    1.1435611     5.667751    3935.5301 
Loop time of 2.48312 on 48 procs for 10000 steps with 4000 atoms

Performance: 695897.547 tau/day, 4027.185 timesteps/s
99.6% CPU use with 48 MPI tasks x no OpenMP threads

MPI task timing breakdown:
Section |  min time  |  avg time  |  max time  |%varavg| %total
---------------------------------------------------------------
Pair    | 1.1098     | 1.1635     | 1.2682     |   2.8 | 46.85
Neigh   | 0.20897    | 0.21626    | 0.23056    |   1.0 |  8.71
Comm    | 0.74014    | 0.84785    | 0.89838    |   3.4 | 34.14
Output  | 0.00023954 | 0.0002467  | 0.00031497 |   0.0 |  0.01
Modify  | 0.20726    | 0.24021    | 0.27671    |   3.2 |  9.67
Other   |            | 0.01511    |            |       |  0.61

Nlocal:        83.3333 ave          93 max          74 min
Histogram: 3 1 4 4 11 12 7 3 1 2
Nghost:        1654.56 ave        1682 max        1627 min
Histogram: 5 2 2 6 10 4 5 7 4 3
Neighs:        9701.25 ave       11014 max        7876 min
Histogram: 1 1 2 3 6 12 11 5 4 3

Total # of neighbors = 465660
Ave neighs/atom = 116.41500
Neighbor list builds = 907
Dangerous builds = 218

# Equilibrate just above the melting temperature to avoid step fn in T

fix 1 all npt temp 1.25 1.25 0.1 iso 5.68 5.68 0.5 mtk yes tchain 5 pchain 5
run 2000
Per MPI rank memory allocation (min/avg/max) = 3.643 | 3.645 | 3.649 Mbytes
Step Temp E_pair E_mol TotEng Press Volume 
   10000    2.3779537   -2.4224778            0    1.1435611     5.667751    3935.5301 
   11000    1.2399229   -3.5772954            0    -1.717876    5.8858119    3046.5566 
   12000    1.2716487   -3.5715569            0   -1.6645607    5.4121562    3079.8906 
Loop time of 0.603017 on 48 procs for 2000 steps with 4000 atoms

Performance: 573117.888 tau/day, 3316.654 timesteps/s
99.6% CPU use with 48 MPI tasks x no OpenMP threads

MPI task timing breakdown:
Section |  min time  |  avg time  |  max time  |%varavg| %total
---------------------------------------------------------------
Pair    | 0.27141    | 0.29415    | 0.31544    |   2.0 | 48.78
Neigh   | 0.039951   | 0.042399   | 0.044974   |   0.5 |  7.03
Comm    | 0.19476    | 0.21824    | 0.24595    |   2.6 | 36.19
Output  | 5.186e-05  | 5.3811e-05 | 6.8063e-05 |   0.0 |  0.01
Modify  | 0.040618   | 0.04352    | 0.046155   |   0.8 |  7.22
Other   |            | 0.004662   |            |       |  0.77

Nlocal:        83.3333 ave          90 max          77 min
Histogram: 6 2 1 11 7 6 5 2 3 5
Nghost:        1955.77 ave        1981 max        1927 min
Histogram: 2 3 2 8 7 6 7 7 3 3
Neighs:        12401.1 ave       14259 max       10967 min
Histogram: 1 5 14 4 8 4 3 4 3 2

Total # of neighbors = 595255
Ave neighs/atom = 148.81375
Neighbor list builds = 146
Dangerous builds = 13

#############################
# L I N E A R  Q U E N C H  #
#############################

# Define solid atoms. This closely follows ten Wolde  Ruiz-Montero and Frenkel  Faraday Discuss  1996  104  93-110
# Compute components of the per-atom q6 vector
compute q6 all orientorder/atom degrees 1 6 components 6 nnn NULL cutoff 1.3 # compute the Q6 parameter.
                                                                             # Use all neighbours within 1.3 unit cell.

# get number of connections
compute coord_number all coord/atom orientorder q6 0.5

# An atom is solid if it has 8 or more connections (of a possible 14)
variable is_solid atom c_coord_number>=8
group solid dynamic all var is_solid    # Must be dynamic to update
dynamic group solid defined

# do clustering
compute cluster solid cluster/atom 1.3 # Create a cluster where all atoms within are solid and max 1.3 units from another member

# define chunks one chunk per cluster
compute clus_chunks solid chunk/atom c_cluster nchunk every compress yes  # Says which atoms are in which chunk

# count the size of each chunk
compute size_chunks solid property/chunk clus_chunks count


# Find the maximum entry in the vector of chunk sizes
variable max_n equal max(c_size_chunks)


# Thermo style which includes this variable
# thermo_style custom step temp pe vol v_max_n

thermo ${N}  # Print the thermo information every 100 steps
thermo 1000  

# Reset the npt fix at a lower temperature (below freezing)
fix 1  all npt temp  ${temp} ${temp}  0.1  iso  5.68  5.68  0.5  mtk yes tchain  5  pchain  5
fix 1  all npt temp  0.45 ${temp}  0.1  iso  5.68  5.68  0.5  mtk yes tchain  5  pchain  5
fix 1  all npt temp  0.45 0.45  0.1  iso  5.68  5.68  0.5  mtk yes tchain  5  pchain  5

dump dmp2 all dcd ${N} traj.dcd
dump dmp2 all dcd 1000 traj.dcd


compute msd all msd com yes
variable twopoint equal c_msd[4]/6/(step*dt+1.0e-6)
fix 9 all vector 10 c_msd[4]
variable fit equal slope(f_9)/6/(10*dt)
thermo_style custom step temp pe c_msd[4] v_twopoint v_fit v_max_n

fix 1 all npt temp 1.25 ${temp} 0.1 iso 5.68 5.68 0.5 mtk yes tchain 5 pchain 5
fix 1 all npt temp 1.25 0.45 0.1 iso 5.68 5.68 0.5 mtk yes tchain 5 pchain 5
run 500000 # 5000000  # Run for this many steps
Neighbor list info ...
  update every 1 steps, delay 10 steps, check yes
  max neighbors/atom: 2000, page size: 100000
  master list distance cutoff = 3.8
  ghost atom cutoff = 3.8
  binsize = 1.9, bins = 8 8 8
  4 neighbor lists, perpetual/occasional/extra = 1 3 0
  (1) pair lj/cut, perpetual
      attributes: half, newton on
      pair build: half/bin/atomonly/newton
      stencil: half/bin/3d
      bin: standard
  (2) compute orientorder/atom, occasional
      attributes: full, newton on
      pair build: full/bin/atomonly
      stencil: full/bin/3d
      bin: standard
  (3) compute coord/atom, occasional
      attributes: full, newton on
      pair build: full/bin/atomonly
      stencil: full/bin/3d
      bin: standard
  (4) compute cluster/atom, occasional
      attributes: full, newton on
      pair build: full/bin/atomonly
      stencil: full/bin/3d
      bin: standard
Per MPI rank memory allocation (min/avg/max) = 9.824 | 9.829 | 9.835 Mbytes
Step Temp PotEng c_msd[4] v_twopoint v_fit v_max_n 
   12000    1.2716487   -3.5715569 2.7917787e-30 1.9387352e-32 8.3333333e+20            2 
   13000    1.2204047   -3.5664292   0.94506851 0.0060581312  0.079329948            2 
   14000    1.2724166   -3.5482784    1.9888645  0.011838478  0.083956285            2 
   15000    1.2474626   -3.6183821    3.0351557  0.016861976  0.085820926            3 
   16000    1.2493363   -3.5702354     4.128606  0.021503156  0.086809641            1 
   17000    1.2215766   -3.5822335    5.1613006  0.025300492  0.087429014            2 
   18000    1.2698304   -3.5891044    6.1028968  0.028254151  0.087113255            1 
   19000     1.236728   -3.5797899    7.0650826  0.030987204  0.085928532            2 
   20000     1.235624   -3.5886602    8.0376644  0.033490267  0.084797404            2 
   21000    1.2493583   -3.6171715    9.0290761  0.035829666  0.084321621            1 
   22000    1.2351513   -3.6151658    10.108947  0.038291464  0.084280028            3 
   23000    1.2416167   -3.5400142    11.195379  0.040562966  0.084340206            2 
   24000    1.2187438     -3.59764    12.234316  0.042480265  0.084576843            1 
   25000    1.2548861   -3.5912529    13.221598  0.044071994   0.08469109            3 
   26000    1.2089443   -3.6328365    14.265711  0.045723432  0.084989426            3 
   27000    1.2364728   -3.6127397     15.35413   0.04738929   0.08509843            3 
   28000    1.2025503   -3.6225626    16.475978  0.049035649  0.085317123            2 
   29000    1.2257362   -3.5651918    17.659783  0.050746503  0.085702579            3 
   30000    1.2109798   -3.6025762    18.615685  0.051710235  0.085983318            2 
   31000    1.2453867   -3.5942303    19.593129  0.052669702  0.086182238            2 
   32000    1.2223578   -3.6303253    20.675646  0.053842828  0.086313873            4 
   33000    1.2289447   -3.6137337    21.697141  0.054790759  0.086411413            1 
   34000    1.2222467   -3.6362062    22.611002  0.055419122  0.086383819            4 
   35000    1.2051648   -3.6077246    23.531971  0.056028501  0.086225786            1 
   36000    1.2348831   -3.6452921    24.509127   0.05673409  0.086084033            3 
   37000    1.2198277   -3.6377293    25.367052  0.057132999   0.08593098            2 
   38000    1.2024383   -3.6463234    26.581396  0.058292534  0.085815477            2 
   39000    1.2075397   -3.6019602    27.820742  0.059446029  0.085748804            4 
   40000     1.220949   -3.6353364    28.693209  0.059777518  0.085682046            2 
   41000    1.2109566   -3.6074716    29.441334  0.059840109  0.085597317            2 
   42000    1.2156044   -3.6405246    30.767649  0.061046922  0.085557716            1 
   43000    1.1880988   -3.6536091    31.779822  0.061588801  0.085522792            2 
   44000    1.2003226   -3.6254955     32.52637  0.061602973  0.085419049            2 
   45000    1.1745694   -3.6225475    33.646661   0.06230863  0.085274918            1 
   46000    1.1941374   -3.6590065    34.552788  0.062595631   0.08517748            4 
   47000     1.200736   -3.6647391    35.524205  0.062986178  0.085056717            3 
   48000    1.1920164   -3.6664931    36.215561  0.062874236  0.084908573            2 
   49000    1.1987062   -3.6719865    36.994597  0.062915981  0.084741284            1 
   50000    1.1973524   -3.6553185    38.028767  0.063381277  0.084519053            1 
   51000    1.1697371   -3.6554655    38.764578  0.063340813  0.084298434            1 
   52000    1.1619729   -3.6306677     39.78033  0.063750528  0.084057643            2 
   53000    1.1899417   -3.6374875    40.743607  0.064062274  0.083839978            1 
   54000    1.1970137   -3.6606042    41.471222  0.063998799   0.08359363            1 
   55000    1.1990212   -3.6385545     42.41504  0.064265212   0.08338914            3 
   56000    1.1941458   -3.7043874    43.289283  0.064418575  0.083194963            2 
   57000    1.1983345   -3.6904583    44.580232  0.065175778  0.083018708            3 
   58000    1.1791344   -3.7059836    45.058323   0.06473897  0.082825028            2 
   59000    1.1614454   -3.6739718    46.402818  0.065540702  0.082657754            2 
   60000    1.1689747   -3.7113323    47.298666  0.065692591  0.082515092            2 
   61000    1.1585893   -3.6922846    48.174834  0.065812614  0.082374688            2 
   62000    1.1685004   -3.6889006    49.056834  0.065936605  0.082215083            3 
   63000    1.1571401   -3.6585666     50.00607  0.066145594  0.082083158            1 
   64000    1.1705363   -3.6979735    50.982945  0.066384042  0.081969885            4 
   65000    1.1695696   -3.7011214    51.724984  0.066314081  0.081828737            3 
   66000    1.1789038   -3.6815419    52.804126  0.066671876  0.081677124            3 
   67000    1.1433131   -3.6797761    53.873987  0.067007446  0.081553635            3 
   68000    1.1648024   -3.6779085    54.815053  0.067175309  0.081452393            2 
   69000    1.1568658   -3.7123616    55.617792  0.067171246  0.081332917            2 
   70000    1.1382107   -3.6944533    56.380352  0.067119466   0.08119965            2 
   71000     1.175642   -3.7161261     56.77388  0.066636009  0.081033259            2 
   72000    1.1310562   -3.6981603    57.389225  0.066422714  0.080856292            3 
   73000    1.1603685   -3.7010356    58.744017   0.06705938  0.080691345            2 
   74000    1.1392426   -3.7098617    59.650911  0.067174449  0.080548305            3 
   75000    1.1511244    -3.698306    60.431681  0.067146312  0.080396973            2 
   76000     1.126674   -3.7337454    61.078368  0.066971894  0.080254439            2 
   77000    1.1555067   -3.7059034    62.464166   0.06760191  0.080105567            2 
   78000    1.1307627   -3.7235007    62.913877   0.06721568  0.079952452            2 
   79000    1.1568377   -3.7296807    63.343881  0.066818439  0.079786314            1 
   80000    1.1332022   -3.7125147    64.181971   0.06685622  0.079589278            3 
   81000    1.1548147   -3.7179745    65.151708  0.067028506  0.079391667            3 
   82000    1.1334047   -3.7080673    66.018737  0.067092212  0.079213212            1 
   83000    1.1687549   -3.7406244     66.90354  0.067172229  0.079040085            2 
   84000     1.124291   -3.7370653    67.716477  0.067179044  0.078865343            2 
   85000    1.1402495   -3.7255434    68.330825  0.066991005  0.078686025            2 
   86000     1.140892   -3.7238168    69.377884  0.067226631  0.078500138            3 
   87000    1.1413369   -3.7463599    70.122161  0.067166821  0.078324378            1 
   88000    1.1332829    -3.737538     70.55374  0.066812253  0.078159639            2 
   89000    1.1492333   -3.7167262    71.813561  0.067241161   0.07799144            2 
   90000    1.1233413   -3.7452081    72.588985  0.067212023  0.077826495            4 
   91000    1.1169114   -3.7552945    73.683199  0.067475456  0.077674626            3 
   92000    1.1243334   -3.7510453    74.531177  0.067510124  0.077542509            2 
   93000    1.1090985   -3.7598033    74.710959  0.066945303  0.077388077            3 
   94000    1.1098783   -3.7805804    75.366949  0.066814671  0.077217965            7 
   95000    1.1171683   -3.7396399     76.25408  0.066889544  0.077043752            3 
   96000    1.1046815   -3.7593136    77.040215  0.066875186  0.076870814            2 
   97000    1.1148976   -3.7416056    78.209556   0.06719034  0.076701341            3 
   98000    1.1373936   -3.7544108    78.581167   0.06682072  0.076536351            3 
   99000    1.1171697   -3.7751628    79.766753  0.067143731  0.076373036            2 
  100000    1.0990909   -3.7928422    80.059187  0.066715988  0.076221986            5 
  101000    1.1042426    -3.758453     80.85726   0.06671391  0.076051821            3 
  102000    1.1031423   -3.7610252    81.645916  0.066704179  0.075879023            3 
  103000     1.108877   -3.7511854    82.369968  0.066642369  0.075708631            4 
  104000    1.0937087   -3.8039156     82.80129  0.066347187  0.075522123            4 
  105000    1.1136559   -3.7991516    83.428244  0.066212892  0.075344543            5 
  106000    1.1117537   -3.7667236    84.368473  0.066327415  0.075180221            3 
  107000    1.1074486   -3.8312507    84.947168   0.06615823  0.075020321            7 
  108000    1.0828923   -3.7878129    86.013471  0.066368418   0.07485711            3 
  109000    1.0972761   -3.7999722    86.229468   0.06592467  0.074686282            3 
  110000    1.1230837   -3.8268036    87.220244  0.066075942  0.074514006            1 
  111000    1.1034412   -3.7809841     88.12727  0.066161614  0.074353228            2 
  112000    1.1043013   -3.8123309    88.470117   0.06582598  0.074204409            2 
  113000    1.0776695   -3.8189327    89.595719  0.066073539  0.074040594            5 
  114000    1.0829373   -3.7752909    90.518591   0.06616856  0.073884925            2 
  115000     1.108099   -3.8264291    90.482191  0.065566805  0.073723676            4 
  116000    1.0867343   -3.8229109    91.013741  0.065383434  0.073551946            2 
  117000    1.0790636   -3.8161984    92.223136  0.065685994  0.073385626            2 
  118000    1.0942133   -3.8162622    92.910842  0.065615001  0.073216751            3 
  119000    1.0790244   -3.8241031    93.076819  0.065179845  0.073055971            1 
  120000    1.0654324    -3.826204    94.161892  0.065390202  0.072889168            2 
  121000    1.0734887   -3.8196611    95.000037  0.065427023  0.072730752            3 
  122000    1.0586261    -3.831742    95.855197  0.065474861  0.072576556            5 
  123000    1.0691833   -3.8299244    96.513035  0.065388235  0.072431298            1 
  124000    1.0762087   -3.8188241    97.376727  0.065441348  0.072279942            2 
  125000    1.0764825   -3.8381599    97.762574  0.065175049  0.072127535            2 
  126000    1.0511977   -3.8168962    98.483856  0.065134825  0.071977736            2 
  127000    1.0768634   -3.8676914    98.530474  0.064652542  0.071816832            3 
  128000    1.0770349   -3.8487526    99.455164  0.064749455  0.071656733            1 
  129000    1.0314165   -3.8231899    100.26668  0.064771754  0.071495384            2 
  130000     1.077046    -3.841738    100.33109    0.0643148  0.071335001            2 
  131000    1.0519763   -3.8398655    101.09858  0.064312072  0.071174196            1 
  132000    1.0483831   -3.8502557    101.78864  0.064260502  0.071006107            3 
  133000    1.0589703   -3.8164343    102.72376  0.064363258  0.070841476            2 
  134000    1.0664575     -3.83111     103.4023  0.064304911   0.07067864            1 
  135000    1.0496712   -3.8764932    103.09488  0.063638816  0.070516512            3 
  136000     1.048986   -3.8590516    104.23756  0.063871052  0.070350357            3 
  137000    1.0666936   -3.8658569    104.43958  0.063527725  0.070183871            2 
  138000    1.0615296   -3.8611301    105.69876  0.063827753  0.070020748            3 
  139000    1.0742603   -3.8536293    106.32319  0.063742922  0.069859715            3 
  140000    1.0459887   -3.8711985    106.19271  0.063209948  0.069690721            2 
  141000    1.0591296   -3.8660572    106.94222  0.063204621  0.069520578            2 
  142000    1.0125793   -3.8962754    107.50179  0.063087904  0.069351607            3 
  143000    1.0457754   -3.8754452     108.3532  0.063142888  0.069187364            4 
  144000     1.057807   -3.8508883    109.36112  0.063287684  0.069022517            3 
  145000    1.0273814   -3.8753139    109.73554    0.0630664  0.068864343            3 
  146000    1.0370726     -3.88956    110.22092  0.062911487  0.068704173            4 
  147000     1.021815   -3.8588258    111.03283  0.062943783  0.068551202            2 
  148000    1.0288219   -3.8893537    111.78491  0.062941952  0.068400034            1 
  149000     1.042043   -3.8840514    112.57241   0.06295996  0.068259568            1 
  150000    1.0338333     -3.88289    113.28338  0.062935213  0.068122542            3 
  151000    1.0348533   -3.8892405    114.09621  0.062967004  0.067989459            5 
  152000    1.0250321   -3.8821685    114.74531  0.062908612  0.067858902            2 
  153000    1.0046703   -3.9098525    115.31669  0.062808657  0.067724496            2 
  154000   0.99978746   -3.8717973    116.03587  0.062789973  0.067592953            3 
  155000     1.018309   -3.9112098    116.10831  0.062423823   0.06746142            2 
  156000    1.0246479     -3.94265    116.99825  0.062499065  0.067328218            2 
  157000     1.007026   -3.9201984    117.56613  0.062402403   0.06719333            3 
  158000     1.017083   -3.9318165    118.06708  0.062271667  0.067061475            2 
  159000    1.0313873   -3.9035885     118.5304  0.062122853  0.066923605            3 
  160000    1.0060766   -3.9143014    119.06601  0.062013546  0.066786002            2 
  161000     1.029523   -3.9014963    119.68143  0.061946912  0.066646762            3 
  162000    1.0169455    -3.936879    120.11799  0.061789089  0.066513226            3 
  163000   0.99814988   -3.9247502    120.76389  0.061740228  0.066381552            1 
  164000    1.0022285   -3.9154226     121.4577  0.061716309  0.066248629            3 
  165000   0.99780451   -3.9118132    122.02025  0.061626387  0.066116111            4 
  166000    1.0280627   -3.9595069    122.36623   0.06142883  0.065976234            3 
  167000   0.98711436   -3.9135053    123.02274  0.061388593  0.065843068            3 
  168000   0.98786962   -3.9672791    123.53612  0.061277837  0.065702572            3 
  169000   0.99468451   -3.9273522    124.49429  0.061387714  0.065566937            2 
  170000   0.97881602   -3.9574839    125.28074  0.061412125  0.065432865            1 
  171000   0.99720045   -3.9691172     125.2795  0.061052389  0.065303059            4 
  172000    1.0093744   -3.9847526    125.57151  0.060838911  0.065173784            3 
  173000   0.98177695   -3.9654877    127.00179  0.061176198  0.065040779            2 
  174000   0.99810738   -3.9532899    128.10254   0.06135179  0.064915102            3 
  175000    1.0050462   -3.9617522    127.83027  0.060871555  0.064793772            2 
  176000   0.98330687   -3.9843128    128.62623  0.060902572  0.064670685            4 
  177000    0.9772404   -3.9695393    129.29138  0.060871647  0.064551845            2 
  178000   0.99581136   -3.9592774    130.19595  0.060953158  0.064435121            2 
  179000   0.98645902   -3.9593564    130.63686  0.060817904  0.064322578            4 
  180000    0.9662858   -3.9234427    132.01284  0.061117054  0.064212762            5 
  181000    0.9685268   -3.9912244    131.83553  0.060697759  0.064102133            3 
  182000   0.98111652   -3.9829155    132.19076  0.060526906  0.063988009            2 
  183000   0.96319676   -3.9419133    132.73636   0.06044461  0.063873062            2 
  184000    1.0080555   -3.9841878    133.32629  0.060383282  0.063758481            2 
  185000   0.92131255   -3.9884304     134.1352  0.060421263  0.063640686            3 
  186000   0.95198821   -3.9982384    134.28676  0.060164317  0.063524011            4 
  187000   0.98469513   -3.9730944    135.56175   0.06041076  0.063412919            4 
  188000   0.95817765    -3.987601    136.10777  0.060331456  0.063302876            3 
  189000   0.95863597   -4.0062696    136.10988  0.060013173  0.063193617            2 
  190000   0.95992196   -4.0010539    136.54895  0.059889889  0.063081988            3 
  191000   0.94918547   -3.9628644    137.19644  0.059858832   0.06297013            3 
  192000   0.97391771   -3.9771525    136.88438  0.059411624  0.062851293            9 
  193000   0.95672497   -4.0222674    137.11947  0.059205297  0.062730051            5 
  194000    0.9509157   -4.0109974    138.27558  0.059396726  0.062605713            2 
  195000   0.95012208   -4.0137177    138.56582  0.059216161  0.062485105            3 
  196000   0.95024788   -3.9835002    139.46374  0.059295807  0.062368155            4 
  197000   0.93464251   -4.0084187     139.5772   0.05904281  0.062251551            3 
  198000    0.9461502   -3.9920501     140.8555  0.059282617  0.062135183            1 
  199000   0.95563245   -3.9858349    140.87371  0.058992342  0.062019091            3 
  200000   0.94108864   -4.0273397    141.04617  0.058769237  0.061902204            3 
  201000   0.94475683   -3.9960347    141.43883  0.058639648  0.061780584            2 
  202000   0.94505245   -4.0121766    141.25745  0.058274524  0.061656349            5 
  203000   0.93252461   -4.0688388    141.77646  0.058200515  0.061530644            2 
  204000   0.95508431   -4.0404909    142.50393  0.058212391  0.061402326            3 
  205000   0.94920753   -4.0358248     142.8539  0.058070691  0.061276039            3 
  206000   0.93426645   -4.0555944      143.148  0.057907768  0.061148054            8 
  207000   0.91302296   -4.0306978    144.44345  0.058149538  0.061023831            4 
  208000   0.94046897   -4.0419774    144.49855  0.057892048  0.060899267            2 
  209000   0.92967825   -4.0627111    144.59115  0.057651972  0.060775483            5 
  210000   0.95188795   -4.0183104    145.67727   0.05780844  0.060653733            7 
  211000   0.90769024   -4.0408245    146.00169  0.057662594  0.060531113            3 
  212000   0.94015212   -4.0604262    146.64839  0.057644806  0.060409471            7 
  213000   0.92458121   -4.0382597    146.63023  0.057367069   0.06028429            5 
  214000   0.93814105   -4.0492163    146.62194  0.057095771  0.060155249            3 
  215000   0.94488383   -4.0615889    146.91644  0.056944357  0.060032705           10 
  216000   0.91488398    -4.078482    147.52999  0.056917433  0.059908482            4 
  217000   0.92725647   -4.0706893     147.7024   0.05672135  0.059780263            2 
  218000   0.91604857   -4.0766814    148.29399  0.056687304  0.059653815            6 
  219000   0.91906909   -4.0457843     149.0409  0.056712671  0.059530907            2 
  220000   0.93382318   -4.0980579    149.43747  0.056605101  0.059410446            3 
  221000   0.89022224   -4.0764431    150.32146    0.0566823  0.059290704            3 
  222000   0.90464745   -4.0903802    151.42684  0.056841909  0.059173894            4 
  223000   0.92112757   -4.0793533    151.78069  0.056719241  0.059058317            5 
  224000   0.89145187   -4.0920658    152.21961   0.05662932  0.058944626            2 
  225000   0.89682235   -4.1110427    152.47486  0.056472169  0.058832292            3 
  226000   0.90138317   -4.0863433    152.39953  0.056194518  0.058718887            6 
  227000   0.89266645   -4.0749779    153.53917  0.056365336  0.058606473            5 
  228000   0.90274627   -4.0987188    153.74547   0.05619352  0.058495223            1 
  229000   0.88717107   -4.0784489    154.34417     0.056166  0.058382694            3 
  230000   0.91382902   -4.1144371    154.92624  0.056132694  0.058270845            7 
  231000   0.89402592   -4.0845963     155.3764  0.056052094  0.058160988            7 
  232000   0.89248043   -4.1177793    155.10361  0.055712502  0.058050061            5 
  233000    0.9044396   -4.0929891    156.27268  0.055891515  0.057940261            3 
  234000   0.92780464    -4.087776    157.24251  0.055998044  0.057832499            3 
  235000   0.90192451   -4.1160614    156.99758    0.0556729  0.057724484            4 
  236000   0.87779498   -4.1024186    157.28872  0.055539801  0.057616022            3 
  237000   0.86636014   -4.1419899    157.96424  0.055542982  0.057505822            2 
  238000   0.85442931    -4.094638    157.91106  0.055290986  0.057393831            4 
  239000   0.88329317   -4.1604594    158.14505  0.055141232  0.057283781            3 
  240000     0.868894   -4.1198697    158.74513  0.055119836  0.057173043            6 
  241000   0.88609154   -4.0987044    160.11576  0.055365063  0.057064167            3 
  242000   0.87982048   -4.1474513    159.89953   0.05506182    0.0569547            2 
  243000   0.86438174   -4.1392581    159.51709  0.054704076  0.056845976            2 
  244000   0.88767102   -4.1422667    160.35457  0.054765904  0.056735973            5 
  245000   0.86746972   -4.1457935    160.88792  0.054723783  0.056627538           11 
  246000   0.87266611   -4.1578622    160.96471   0.05452734  0.056517407            5 
  247000    0.8624231   -4.1511681    161.72385  0.054562701  0.056408214            4 
  248000   0.86391188   -4.1649154    162.36133  0.054556899  0.056300215            2 
  249000   0.87424486   -4.1392864    162.54636   0.05439972  0.056191435            2 
  250000   0.84254436    -4.151596     162.1776  0.054059201  0.056080143            2 
  251000   0.87278916   -4.1473424    162.63932  0.053997117  0.055969746            3 
  252000   0.88354168   -4.1498754     162.6151  0.053774835  0.055855929            4 
  253000    0.8599601   -4.1542047    163.27457  0.053779503  0.055741428            4 
  254000   0.86596367   -4.1629238    163.11449  0.053515252  0.055627184            5 
  255000   0.87590077   -4.1380897     163.7308  0.053506797  0.055512486            2 
  256000   0.85442717   -4.1505637    164.45848  0.053534662   0.05539887            4 
  257000   0.84618618   -4.1692453    163.72113  0.053087265  0.055283436            6 
  258000    0.8543905   -4.1823048    164.91016  0.053265554  0.055168955            4 
  259000   0.85629411   -4.1643425    164.54362  0.052941963  0.055052075            4 
  260000   0.85321772   -4.1438226    165.51213   0.05304876  0.054936578            3 
  261000   0.84902527   -4.1849847    165.17131   0.05273669   0.05481899            2 
  262000   0.84627549   -4.1758941    166.30507  0.052896015  0.054701667            5 
  263000   0.83974819   -4.1963805    166.40031  0.052725067  0.054589269            2 
  264000   0.84379674   -4.1912613    167.07135  0.052737168  0.054478497            2 
  265000   0.84867248   -4.1878335    166.99663  0.052514662  0.054366154            5 
  266000   0.84335245   -4.1773712    167.93361  0.052610781  0.054255057            2 
  267000   0.82710297   -4.1717033    168.56217  0.052609915  0.054146212            3 
  268000   0.84040399   -4.2313151    168.61855   0.05243114  0.054039777            8 
  269000   0.83922044   -4.2149695    168.45538  0.052185681  0.053930689            4 
  270000   0.83538523   -4.2186918    168.34322  0.051957783  0.053821324            4 
  271000   0.83447828   -4.2360168    169.53796  0.052133444  0.053712888            3 
  272000   0.83976388   -4.2352025    169.69958  0.051991292  0.053602093            5 
  273000   0.83275607   -4.2394103    169.10077  0.051618063  0.053490942            5 
  274000   0.83761808   -4.2160585     170.1847  0.051759336  0.053379434            5 
  275000   0.81340806   -4.2306734    170.69593   0.05172604  0.053268197            6 
  276000   0.81248511   -4.2350277    170.37327  0.051441205  0.053156931            4 
  277000   0.82451118   -4.2245441    170.62431   0.05133102  0.053045181            2 
  278000   0.81869695   -4.2057327    171.51327   0.05141285   0.05293474            4 
  279000   0.80403495   -4.2101154    171.60455   0.05125584  0.052827429            6 
  280000   0.81995878   -4.2232469    172.44388  0.051322583  0.052720381            4 
  281000   0.82083463   -4.2303367     172.7607  0.051233897  0.052612825            4 
  282000   0.81287133   -4.2462077        172.6  0.051004727   0.05250523            4 
  283000    0.8251755   -4.2670527    173.27113  0.051022124  0.052397083            7 
  284000   0.82321261   -4.2647461    172.55905  0.050633523    0.0522892            3 
  285000   0.81385664   -4.2800785     173.0424  0.050597193  0.052177038            9 
  286000   0.83049911   -4.2432297    174.34356  0.050799406  0.052067887            6 
  287000   0.80009771   -4.2624324     173.8926  0.050491464  0.051960096            8 
  288000   0.80676207    -4.266369    174.06501  0.050366032  0.051852067            4 
  289000   0.80329199   -4.2752515      174.654  0.050361592  0.051743704            8 
  290000   0.82404469    -4.280127    174.50726  0.050145763   0.05163329            5 
  291000   0.81403569   -4.2813074    174.91383   0.05008987  0.051520957            4 
  292000   0.79397141   -4.2684485    175.09782   0.04997084  0.051410387           10 
  293000   0.82727326   -4.2556692    176.02198  0.050063135  0.051301578            4 
  294000    0.7908376   -4.2697158    176.12597  0.049922327  0.051193792            9 
  295000   0.80063108   -4.2921862    176.12347  0.049752393  0.051086382            3 
  296000   0.80130013   -4.2777089    176.42846  0.049670175  0.050978559            5 
  297000   0.79142875   -4.2952348    176.32089  0.049472751  0.050871333            3 
  298000   0.79374218   -4.2985548    176.30416  0.049302057  0.050762734            9 
  299000   0.78048147   -4.2982902    177.24922  0.049400564  0.050654035            5 
  300000   0.78806416   -4.3008954    176.97966  0.049161016  0.050546439           11 
  301000   0.77958954   -4.2959707    177.60954  0.049172076  0.050437056            3 
  302000   0.79777396   -4.3018647    177.95143  0.049103595  0.050329443            6 
  303000   0.78124416    -4.328396    177.60652  0.048846677  0.050221746            5 
  304000   0.76230375    -4.298887    178.45077  0.048917427  0.050112863            5 
  305000    0.7781233   -4.3149456    178.13223  0.048670008   0.05000402           10 
  306000    0.7788023   -4.3059572    178.52529  0.048617999  0.049896617            5 
  307000   0.78037217   -4.3057022    178.92472  0.048568055  0.049789557            6 
  308000   0.77844499   -4.3574389    179.54463  0.048578092  0.049683217            7 
  309000    0.7715894   -4.3089358    180.16979   0.04858948  0.049577427            7 
  310000    0.7694116   -4.3443358    180.06404  0.048404313  0.049472987            8 
  311000   0.76318125   -4.3515174    180.35161  0.048325726  0.049368563            4 
  312000   0.76390433   -4.3449747    181.07041  0.048362824  0.049263792            5 
  313000   0.76002528   -4.3166715    180.88691  0.048159454  0.049160324            4 
  314000   0.77245234   -4.3329186    181.23176  0.048097602  0.049055775            9 
  315000   0.77090099   -4.3359752    181.94498  0.048133593  0.048951904            6 
  316000   0.74347709   -4.3563266    181.19234   0.04778279   0.04884669            3 
  317000   0.76616231   -4.3361736    181.48426  0.047708797  0.048741762            6 
  318000   0.75449632   -4.3598276    181.33715  0.047520217  0.048636689            8 
  319000   0.74952932   -4.3500908     182.1887  0.047593704   0.04853174           16 
  320000   0.75210897   -4.3774685    181.81525  0.047347721  0.048426931            6 
  321000   0.75706622   -4.3588679    182.65235  0.047417536  0.048321451            4 
  322000   0.75547356   -4.3411557    183.08138   0.04738131  0.048217449            4 
  323000   0.73858304   -4.3685668    182.53096  0.047092611  0.048112816            4 
  324000    0.7417719   -4.3711731    182.88991  0.047039587  0.048007368            9 
  325000   0.74365628   -4.3758689     183.0909  0.046946385  0.047902837            8 
  326000   0.75265437   -4.3712861    183.80124  0.046983957  0.047798493            4 
  327000   0.73602929    -4.368963    183.97763  0.046885226  0.047694253            5 
  328000   0.76630384   -4.3873151    183.32395  0.046576206  0.047588826            8 
  329000   0.75771429   -4.3685618    183.99055  0.046603482   0.04748329            8 
  330000   0.73912107   -4.3704081     183.9091  0.046441692  0.047377692           11 
  331000    0.7498784   -4.4041006      184.122  0.046354984   0.04727104            5 
  332000   0.73872209   -4.3701759    184.24344  0.046245842   0.04716518            5 
  333000   0.73492459   -4.4271976    184.38958  0.046143539  0.047059705            4 
  334000   0.73393876   -4.3959476    184.85334  0.046121093  0.046953123            4 
  335000   0.73574913   -4.4116573    184.54769  0.045907384  0.046847364            9 
  336000   0.73465259   -4.4066281    185.11248  0.045910832  0.046742779           15 
  337000   0.72451659   -4.4045428    184.35428  0.045587112    0.0466373            5 
  338000   0.72323127   -4.4287046    184.95928    0.0456014  0.046532337           12 
  339000   0.72708995    -4.415757     185.2074  0.045527875  0.046426717            6 
  340000   0.72599893    -4.404239    185.25169  0.045404827  0.046321642            6 
  341000   0.73447466   -4.4139185    185.39738  0.045307278   0.04621568            7 
  342000   0.72043431   -4.4210089    185.65476  0.045237514   0.04611108            6 
  343000   0.71801289   -4.4239505    186.28208  0.045258037  0.046006615            6 
  344000   0.71715048   -4.4029911    186.37055  0.045147903  0.045901935            4 
  345000   0.72307964   -4.4338474    185.92062  0.044908363  0.045796944           11 
  346000   0.69970021   -4.4410756    186.23371  0.044853977  0.045691521           11 
  347000   0.72664542   -4.4355513    186.45198  0.044777132  0.045586374            8 
  348000   0.70644764   -4.4638783    186.44381  0.044646507  0.045480923            6 
  349000   0.72323615   -4.4435875    186.17769  0.044455036  0.045375281            6 
  350000   0.71833756   -4.4376462    186.93702  0.044508815  0.045270651            8 
  351000   0.70475717   -4.4413271    186.87027   0.04436616  0.045165798            6 
  352000    0.6999692   -4.4355982    187.58491  0.044409306  0.045060681            3 
  353000   0.70642594   -4.4538388    186.75627  0.044087882  0.044955632            9 
  354000   0.68103448   -4.4713041    187.50072  0.044138588  0.044850119            7 
  355000   0.70337329   -4.4754752    187.88479  0.044104412  0.044744622            6 
  356000   0.69883806   -4.4676503    187.31857   0.04384798  0.044639334           10 
  357000    0.6963481   -4.4628667    188.10798  0.043909426  0.044535588            3 
  358000    0.6849349   -4.4824464    187.93078  0.043745526  0.044431958           25 
  359000   0.69358124   -4.4688749    188.01857  0.043644051  0.044329084            9 
  360000   0.70103557   -4.4861476    188.52872  0.043640907  0.044226834            3 
  361000    0.7032983   -4.4724257    189.07038  0.043645055  0.044124395            4 
  362000   0.69886611   -4.4873921    189.36718  0.043592814  0.044023688            6 
  363000   0.67324373   -4.4950817    189.28676   0.04345426  0.043922415            7 
  364000   0.69459489   -4.4718183    189.16231   0.04330639    0.0438213           13 
  365000   0.68860206   -4.4780483    189.13744  0.043182064  0.043720088            6 
  366000   0.68492534   -4.5116393    188.87837  0.043005094   0.04361731            6 
  367000   0.68583964   -4.5070913     189.2341  0.042968688  0.043514756           10 
  368000   0.69599582   -4.5021332    189.23543  0.042852226  0.043412723            9 
  369000   0.67378476   -4.5002701    189.08446  0.042702002  0.043310671           13 
  370000   0.68104549   -4.5087728    189.51943  0.042684556  0.043208368           14 
  371000   0.67576196   -4.5113749    189.64592  0.042597916  0.043106211           10 
  372000   0.68828938   -4.5061121    189.57285  0.042467037     0.043005            7 
  373000   0.65925934   -4.5067998    189.67391  0.042375762  0.042903568           10 
  374000   0.67396978   -4.5333638    190.60479  0.042469874  0.042802433           12 
  375000   0.66009313   -4.5275823    190.09692  0.042243759  0.042701701            7 
  376000   0.67684344   -4.5181849    190.29518  0.042175351  0.042600517           10 
  377000   0.67719512   -4.5264235    190.34213  0.042073857  0.042499514            8 
  378000   0.66052799   -4.5125268    191.13875  0.042138172   0.04239908           12 
  379000   0.67926069   -4.5229666    190.30826  0.041844385  0.042297666           16 
  380000   0.65477452   -4.5479159    190.65747  0.041810848  0.042196458           11 
  381000   0.66845511   -4.5470043    190.69487  0.041709289  0.042095136            6 
  382000    0.6503489   -4.5716605    190.81229  0.041625717  0.041994566           12 
  383000   0.65766345    -4.565153    191.05668  0.041570209  0.041894594           14 
  384000   0.65051352   -4.5260774    191.54904  0.041568801  0.041795215            6 
  385000   0.63995724   -4.5580654    191.49838  0.041449867  0.041695786           24 
  386000   0.65629304   -4.5903274    191.06624  0.041249188  0.041596063           13 
  387000   0.65425469   -4.5697832    191.19242  0.041169772  0.041495995           18 
  388000   0.67285143   -4.5795672    191.33831  0.041094998  0.041396032            9 
  389000   0.64480446   -4.5871129    191.17544  0.040954465  0.041296423           12 
  390000   0.63459965   -4.5843091     191.7058  0.040962779  0.041197168            9 
  391000   0.65302665   -4.5704528    191.55629  0.040826148  0.041098069            6 
  392000   0.63875556    -4.574794    191.13575  0.040632599  0.040998766            7 
  393000   0.63230768   -4.5834919    191.61077  0.040629934  0.040899067            9 
  394000   0.64654544   -4.5899813    191.52427  0.040508517  0.040799705            8 
  395000   0.63308752   -4.5867599    191.23911  0.040345804  0.040699638            8 
  396000    0.6410615   -4.6060651     191.2289  0.040241773  0.040599237           15 
  397000   0.63683756   -4.5965871    191.70069   0.04023944   0.04049988            8 
  398000   0.61657836    -4.604694    191.94584  0.040189666  0.040400666           27 
  399000    0.6182574   -4.6047626    191.81545  0.040061705   0.04030129           18 
  400000   0.64989692   -4.5943138    191.35882  0.039866421  0.040201948            4 
  401000    0.6202891   -4.5802644    191.88217  0.039875762  0.040103419            7 
  402000   0.63033198   -4.6058176    191.81917  0.039763509    0.0400046            5 
  403000   0.63965844   -4.6017747    192.19975  0.039743537  0.039905839           14 
  404000   0.64009646   -4.6018286    191.98886  0.039601662  0.039806979            7 
  405000   0.63044121   -4.6285685    192.51775  0.039612706  0.039709202            6 
  406000   0.62004675   -4.6060098    192.28146  0.039466639  0.039611923            8 
  407000   0.61658309   -4.6395131    192.69508  0.039454357  0.039514717            7 
  408000   0.62445756   -4.6257297    192.52858  0.039323649  0.039417818           20 
  409000   0.61616951   -4.6209712    193.09363   0.03934263   0.03932085            7 
  410000   0.61061293   -4.6410725    193.18325  0.039264888  0.039224808            6 
  411000   0.61820822   -4.6260885    192.74121  0.039079726  0.039128531            4 
  412000   0.60574021   -4.6591902    192.93068  0.039023195  0.039032056            7 
  413000   0.62199494    -4.677949    193.18949  0.038980931  0.038935674           10 
  414000   0.61921665   -4.6738783    192.67113  0.038782434  0.038839498           15 
  415000   0.60054657    -4.647458    193.25617  0.038806461  0.038744106           12 
  416000    0.6009189   -4.6588681    193.48586  0.038759186  0.038649179            4 
  417000   0.61386396   -4.6573483    193.34345  0.038637779  0.038554556            6 
  418000   0.59230349   -4.6709796    193.21849  0.038520433  0.038459526           10 
  419000   0.61302903   -4.6840121     192.6681  0.038319033  0.038363647           17 
  420000   0.59277744   -4.6812156    192.63454  0.038221139    0.0382675           17 
  421000   0.59855557   -4.6865883     193.4611  0.038293963  0.038172125           12 
  422000   0.60516649   -4.6783297    193.36664  0.038184566  0.038077059           10 
  423000   0.58585763   -4.6834881     193.8873  0.038196868  0.037982471            7 
  424000   0.58319209   -4.6854369    193.13308  0.037958546   0.03788775            8 
  425000    0.5905289   -4.6959334    193.26311  0.037894727  0.037792866            9 
  426000   0.59835026   -4.7126594     193.2667  0.037806476  0.037698099            9 
  427000   0.59966685   -4.7053487    192.78411  0.037623752  0.037602945            4 
  428000   0.57321933   -4.7121589    193.30294  0.037636865  0.037507735           25 
  429000   0.57630741   -4.7075419    193.06719  0.037503339  0.037413015           11 
  430000   0.58521446   -4.6983416    193.37117  0.037475033   0.03731803           10 
  431000    0.5759033   -4.6991454      193.075   0.03733082  0.037222874           19 
  432000   0.59436812   -4.7227529    193.42403  0.037311735   0.03712791           19 
  433000   0.57322901   -4.7445206     192.9887  0.037141783  0.037033014           12 
  434000     0.581671   -4.7441441    193.45713  0.037146147  0.036937965           16 
  435000   0.57480637   -4.7167631    193.48128   0.03706538  0.036842923           10 
  436000   0.57495443   -4.7259904    192.95782  0.036880317  0.036748502           12 
  437000   0.56996679   -4.6960289    193.27952  0.036857268  0.036654274           13 
  438000   0.57509088   -4.7247509    193.48249  0.036811738  0.036560265           28 
  439000   0.54002847   -4.7369109    193.28388  0.036690182  0.036466489           14 
  440000   0.57623007   -4.7464452    193.16627  0.036584521   0.03637285           11 
  441000   0.55713054   -4.7525068     192.9449  0.036459732  0.036278924            8 
  442000    0.5576143   -4.7382061    193.27314  0.036439129   0.03618513           24 
  443000   0.56567493   -4.7466193    193.32506  0.036366641  0.036091322           29 
  444000   0.55765655   -4.7473331    193.38696  0.036296351  0.035997809           35 
  445000   0.56296544   -4.7491498    193.15657  0.036171643  0.035904556           13 
  446000    0.5594146   -4.7532415    194.12063  0.036270671  0.035811847           14 
  447000   0.55452572   -4.7637295    193.20175  0.036018223  0.035719694           14 
  448000   0.55897868   -4.7669721    193.09465  0.035917904   0.03562781           10 
  449000   0.54703935   -4.7654255    193.68818  0.035948066  0.035536081           40 
  450000   0.54646373   -4.7734761    193.72947  0.035875827   0.03544471           19 
  451000   0.53953883   -4.7847348     193.5464  0.035762454  0.035353288           22 
  452000   0.54186454   -4.7615988    193.61494  0.035695969  0.035261829           21 
  453000   0.53602866   -4.7775341    193.74528  0.035641148  0.035170344           30 
  454000    0.5372024    -4.772675    193.34537  0.035489238  0.035079207           26 
  455000   0.54078625   -4.7794707    192.93284  0.035335684  0.034988092           14 
  456000   0.54466582   -4.8011669    193.42809    0.0353487  0.034897064           20 
  457000   0.52987021   -4.7768651    193.79226  0.035337757  0.034806595           28 
  458000   0.52630236   -4.7832865    193.88287  0.035277087  0.034716151           19 
  459000   0.53551539   -4.8124077    193.80233  0.035185608  0.034626006           24 
  460000   0.53796522     -4.81016    193.87609   0.03512248   0.03453629           22 
  461000   0.53273296   -4.7934733    193.93212   0.03505642   0.03444731           23 
  462000   0.52775333   -4.8288074    194.16256  0.035022107  0.034358285           27 
  463000    0.5344545   -4.8359246    193.73139   0.03486886  0.034269498           32 
  464000   0.52103348   -4.8230331    194.04309  0.034849693  0.034180776           46 
  465000   0.53707023   -4.8151477    194.02355  0.034771246  0.034092061           36 
  466000   0.51505017   -4.8159711    193.74674  0.034647127  0.034003726           32 
  467000   0.53675383   -4.8281675     193.5125  0.034531138  0.033915586           33 
  468000   0.51803439   -4.8425591    194.34661  0.034605878  0.033827781           35 
  469000   0.51550067   -4.8343439    194.20663   0.03450722  0.033740264           23 
  470000   0.51662352   -4.8345208    193.64346  0.034333948  0.033652652           18 
  471000   0.52145183    -4.843428    193.59565  0.034252591  0.033565125           54 
  472000   0.50480728   -4.8620933    194.19352  0.034285579  0.033477723           53 
  473000   0.51612149   -4.8713783    193.75982  0.034136684  0.033390105           33 
  474000   0.51011189   -4.8487111    193.91163  0.034091355  0.033302589           41 
  475000   0.50335691   -4.8607667    193.69038  0.033980768  0.033214938           24 
  476000   0.50566355   -4.8726259    193.26977  0.033835744  0.033127433           31 
  477000   0.50922917   -4.8701019    193.32546  0.033774538  0.033040325            9 
  478000   0.49528331   -4.8736209    193.13466  0.033670618  0.032953366           11 
  479000   0.50699848   -4.8702865    193.86236  0.033726924   0.03286669           27 
  480000   0.50429436   -4.8586003    193.36853  0.033570925  0.032780477           30 
  481000   0.49339343   -4.8598108    193.80744  0.033577172  0.032694428           15 
  482000   0.49957937   -4.8926204    193.52323  0.033458372  0.032608529           13 
  483000   0.49434609   -4.9009287    193.17415  0.033328874  0.032522592           41 
  484000   0.49143827    -4.900182    193.38972  0.033297127  0.032436303           37 
  485000   0.49392187   -4.8921901    193.30098  0.033213227   0.03235029           45 
  486000   0.49283289   -4.9001435    193.31846  0.033147883   0.03226462           49 
  487000    0.4784316   -4.8951822    193.59747  0.033127561  0.032179339           30 
  488000   0.48852064   -4.8946338    193.45358  0.033035106  0.032094609           14 
  489000   0.48569517   -4.8903894    193.73807  0.033016031  0.032009954           16 
  490000   0.49954728   -4.9006047    193.01592  0.032825836  0.031925389           21 
  491000   0.49410122   -4.9113727    193.84467  0.032899639  0.031841407           23 
  492000   0.48302473   -4.9008331    193.22183  0.032727274   0.03175778           46 
  493000   0.47823324   -4.9155824    193.50221  0.032708284  0.031674388           42 
  494000   0.48469402   -4.9306906    193.13941  0.032580873  0.031590696           46 
  495000   0.46973137   -4.9370385    193.45366  0.032567956  0.031507055           22 
  496000   0.46848161   -4.9226322     193.3864  0.032490995  0.031423687           41 
  497000   0.48000763   -4.9421267    192.87529   0.03233992  0.031340448           26 
  498000   0.48539853    -4.936011    193.16053  0.032322713  0.031257202           23 
  499000   0.46623789    -4.957668    193.07941  0.032244391  0.031174228           21 
  500000   0.46968209   -4.9444179    193.21129  0.032201882  0.031091451           18 
  501000   0.46048818   -4.9398184    193.51937  0.032188851  0.031008748           27 
  502000   0.47020946   -4.9476976    193.06609  0.032049484  0.030926101           31 
  503000   0.46481503    -4.951579    193.28448  0.032021948  0.030843626           35 
  504000   0.45227571   -4.9665278    192.93095  0.031899958  0.030761279           48 
  505000   0.45012645   -4.9695334    193.09166   0.03186331  0.030679251           50 
  506000   0.46249655   -4.9508786    192.82664  0.031756692  0.030597423           43 
  507000   0.45976056   -4.9478407    192.80816  0.031691019  0.030515624           87 
  508000   0.46014852   -4.9534538    192.68883   0.03160906  0.030434038           50 
  509000   0.46434979    -4.966095    192.71708  0.031551585  0.030352576           52 
  510000   0.45816658   -4.9553764    192.74771  0.031494724  0.030271551           52 
  511000   0.45449521   -4.9744749    192.56065  0.031402585  0.030190678           51 
  512000   0.46055133   -4.9796719    192.53805  0.031337574   0.03010978           74 
Loop time of 1243.34 on 48 procs for 500000 steps with 4000 atoms

Performance: 69490.357 tau/day, 402.143 timesteps/s
99.4% CPU use with 48 MPI tasks x no OpenMP threads

MPI task timing breakdown:
Section |  min time  |  avg time  |  max time  |%varavg| %total
---------------------------------------------------------------
Pair    | 84.45      | 89.15      | 97.655     |  28.5 |  7.17
Neigh   | 8.3522     | 8.7258     | 9.0961     |   6.6 |  0.70
Comm    | 79.418     | 87.69      | 93.168     |  32.6 |  7.05
Output  | 0.991      | 0.99183    | 1.0143     |   0.3 |  0.08
Modify  | 1040       | 1045       | 1049.3     |   5.0 | 84.04
Other   |            | 11.82      |            |       |  0.95

Nlocal:        83.3333 ave          91 max          76 min
Histogram: 2 3 4 3 11 10 6 3 5 1
Nghost:        2278.00 ave        2296 max        2258 min
Histogram: 1 3 9 4 4 8 7 1 8 3
Neighs:        15414.0 ave       17369 max       13529 min
Histogram: 3 2 5 5 9 11 5 6 1 1
FullNghs:      30826.6 ave       33875 max       27674 min
Histogram: 1 3 4 5 10 11 6 2 5 1

Total # of neighbors = 1479676
Ave neighs/atom = 369.91900
Neighbor list builds = 27023
Dangerous builds = 0

#clear
#
#next RN
#
#jump SELF
Total wall time: 0:20:46
