
units lj                  # Use reduced LJ style units
atom_style atomic         # Uncharged point particles
atom_modify map hash      # Needed for indexing of clusters etc
                          # Used to be able to find where atoms are in relation to each other.

lattice fcc 1.0 spacing 1 1 1
Lattice spacing in x,y,z = 1.5874011 1.5874011 1.5874011
region box block 0 10 0 10 0 10 units lattice
create_box 2 box
Created orthogonal box = (0.0000000 0.0000000 0.0000000) to (15.874011 15.874011 15.874011)
  3 by 4 by 4 MPI processor grid
create_atoms 1 box
Created 4000 atoms
  using lattice units in orthogonal box = (0.0000000 0.0000000 0.0000000) to (15.874011 15.874011 15.874011)
  create_atoms CPU = 0.003 seconds
set type 1 type/fraction 2 0.96 78393
Setting atom values ...
  3848 settings made for type/fraction
mass 1 1.0
mass 2 1.0
pair_style lj/cut  3.5
pair_modify tail  yes
pair_coeff 1  1  1.0  1.0   # Intearaction between 1 and 1 set with epsilon = 1 and sigma = 1
pair_coeff 1  2  1.5  0.8
pair_coeff 2  2  0.5  0.88

write_data data.0
System init for write_data ...
Neighbor list info ...
  update every 1 steps, delay 10 steps, check yes
  max neighbors/atom: 2000, page size: 100000
  master list distance cutoff = 3.8
  ghost atom cutoff = 3.8
  binsize = 1.9, bins = 9 9 9
  1 neighbor lists, perpetual/occasional/extra = 1 0 0
  (1) pair lj/cut, perpetual
      attributes: half, newton on
      pair build: half/bin/atomonly/newton
      stencil: half/bin/3d
      bin: standard
WARNING: Not all mixed pair coeffs generated from mixing. Use write_data with 'pair ij' option to store all pair coeffs. (../write_data.cpp:312)


#############################
#   M E L T   S Y S T E M   #
#############################

velocity all create 2.4 5300450 mom yes dist gaussian # Assign velocities
                                                    # Temperature 2.4, random number seed, zero linear momentum
                                                                                # Gaussian distribution

timestep 0.002   # simulation timestep
thermo 1000       # output thermodynamic data every 1000 steps bf 100

# Define a fix  in this case with index 1 applied to all
# particles in the simulation. This fix is for simulations
# in the anisotropic NPT ensemble. Note that we use the MTK
# correction.
fix 1 all npt temp 2.4 2.4 0.1 iso 5.68 5.68 0.5 mtk yes tchain 5 pchain 5 # Use NPT ensemble
                                                                         # Set temperature and pressure and damping
                                                                         # Numbers of thermostats in chain and in barostat
run 10000          # run for 10000 steps
Per MPI rank memory allocation (min/avg/max) = 3.642 | 3.644 | 3.648 Mbytes
Step Temp E_pair E_mol TotEng Press Volume 
       0          2.4   -2.8820212            0   0.71707882   -2.0430313         4000 
    1000    2.4439578   -1.7061937            0    1.9588265    5.9795028     4141.484 
    2000    2.4765421   -1.7519283            0    1.9619562    5.6491364    4165.5632 
    3000    2.4020988   -1.7456979            0    1.8565496    5.4109581    4190.3661 
    4000    2.3916771   -1.7085162            0    1.8781026    5.8040578     4153.317 
    5000    2.3346526    -1.731374            0    1.7697293    5.4493115    4197.6116 
    6000     2.378209   -1.7467139            0    1.8197078    5.4494881    4175.2419 
    7000    2.4476456    -1.742338            0    1.9282126    5.4414783    4207.4481 
    8000    2.3951244   -1.7004472            0    1.8913413    5.8279062    4164.3159 
    9000    2.3858461   -1.7311811            0    1.8466934    5.7034269    4152.9123 
   10000    2.4123737    -1.743074            0     1.874582    5.5658922    4163.1815 
Loop time of 2.50147 on 48 procs for 10000 steps with 4000 atoms

Performance: 690793.052 tau/day, 3997.645 timesteps/s
99.5% CPU use with 48 MPI tasks x no OpenMP threads

MPI task timing breakdown:
Section |  min time  |  avg time  |  max time  |%varavg| %total
---------------------------------------------------------------
Pair    | 1.0341     | 1.1104     | 1.2019     |   3.3 | 44.39
Neigh   | 0.20614    | 0.21087    | 0.2242     |   0.9 |  8.43
Comm    | 0.78856    | 0.90588    | 0.97119    |   3.9 | 36.21
Output  | 0.0002392  | 0.00024873 | 0.00042906 |   0.0 |  0.01
Modify  | 0.21831    | 0.25904    | 0.31273    |   4.6 | 10.36
Other   |            | 0.01498    |            |       |  0.60

Nlocal:        83.3333 ave          95 max          72 min
Histogram: 3 0 4 9 7 6 15 2 1 1
Nghost:        1605.21 ave        1640 max        1567 min
Histogram: 3 3 4 4 9 4 10 2 6 3
Neighs:        9159.52 ave       10507 max        7717 min
Histogram: 2 2 4 6 8 8 10 4 3 1

Total # of neighbors = 439657
Ave neighs/atom = 109.91425
Neighbor list builds = 904
Dangerous builds = 186

# Equilibrate just above the melting temperature to avoid step fn in T

fix 1 all npt temp 1.25 1.25 0.1 iso 5.68 5.68 0.5 mtk yes tchain 5 pchain 5
run 2000
Per MPI rank memory allocation (min/avg/max) = 3.643 | 3.645 | 3.649 Mbytes
Step Temp E_pair E_mol TotEng Press Volume 
   10000    2.4123737    -1.743074            0     1.874582    5.5658922    4163.1815 
   11000    1.2256683    -2.619049            0  -0.78100609    5.9010913    3229.6994 
   12000    1.2556668   -2.6264074            0  -0.74337803    5.6276697    3255.9702 
Loop time of 0.57154 on 48 procs for 2000 steps with 4000 atoms

Performance: 604681.825 tau/day, 3499.316 timesteps/s
99.7% CPU use with 48 MPI tasks x no OpenMP threads

MPI task timing breakdown:
Section |  min time  |  avg time  |  max time  |%varavg| %total
---------------------------------------------------------------
Pair    | 0.25258    | 0.2751     | 0.30474    |   2.1 | 48.13
Neigh   | 0.037637   | 0.039968   | 0.042127   |   0.5 |  6.99
Comm    | 0.17904    | 0.2099     | 0.235      |   2.6 | 36.72
Output  | 4.796e-05  | 4.9155e-05 | 6.4024e-05 |   0.0 |  0.01
Modify  | 0.038051   | 0.041657   | 0.044536   |   0.9 |  7.29
Other   |            | 0.004867   |            |       |  0.85

Nlocal:        83.3333 ave          91 max          76 min
Histogram: 2 3 3 6 13 4 9 1 5 2
Nghost:        1885.08 ave        1907 max        1868 min
Histogram: 2 5 11 7 4 4 6 6 2 1
Neighs:        11754.7 ave       13735 max       10292 min
Histogram: 1 5 5 11 11 6 6 0 2 1

Total # of neighbors = 564224
Ave neighs/atom = 141.05600
Neighbor list builds = 143
Dangerous builds = 9

#############################
# L I N E A R  Q U E N C H  #
#############################

# Define solid atoms. This closely follows ten Wolde  Ruiz-Montero and Frenkel  Faraday Discuss  1996  104  93-110
# Compute components of the per-atom q6 vector
compute q6 all orientorder/atom degrees 1 6 components 6 nnn NULL cutoff 1.3 # compute the Q6 parameter.
                                                                             # Use all neighbours within 1.3 unit cell.

# get number of connections
compute coord_number all coord/atom orientorder q6 0.5

# An atom is solid if it has 8 or more connections (of a possible 14)
variable is_solid atom c_coord_number>=8
group solid dynamic all var is_solid    # Must be dynamic to update
dynamic group solid defined

# do clustering
compute cluster solid cluster/atom 1.3 # Create a cluster where all atoms within are solid and max 1.3 units from another member

# define chunks one chunk per cluster
compute clus_chunks solid chunk/atom c_cluster nchunk every compress yes  # Says which atoms are in which chunk

# count the size of each chunk
compute size_chunks solid property/chunk clus_chunks count


# Find the maximum entry in the vector of chunk sizes
variable max_n equal max(c_size_chunks)


# Thermo style which includes this variable
# thermo_style custom step temp pe vol v_max_n

thermo ${N}  # Print the thermo information every 100 steps
thermo 1000  

# Reset the npt fix at a lower temperature (below freezing)
fix 1  all npt temp  ${temp} ${temp}  0.1  iso  5.68  5.68  0.5  mtk yes tchain  5  pchain  5
fix 1  all npt temp  0.45 ${temp}  0.1  iso  5.68  5.68  0.5  mtk yes tchain  5  pchain  5
fix 1  all npt temp  0.45 0.45  0.1  iso  5.68  5.68  0.5  mtk yes tchain  5  pchain  5

dump dmp2 all dcd ${N} traj.dcd
dump dmp2 all dcd 1000 traj.dcd


compute msd all msd com yes
variable twopoint equal c_msd[4]/6/(step*dt+1.0e-6)
fix 9 all vector 10 c_msd[4]
variable fit equal slope(f_9)/6/(10*dt)
thermo_style custom step temp pe c_msd[4] v_twopoint v_fit v_max_n

fix 1 all npt temp 1.25 ${temp} 0.1 iso 5.68 5.68 0.5 mtk yes tchain 5 pchain 5
fix 1 all npt temp 1.25 0.45 0.1 iso 5.68 5.68 0.5 mtk yes tchain 5 pchain 5
run 5000000 # 5000000  # Run for this many steps
Neighbor list info ...
  update every 1 steps, delay 10 steps, check yes
  max neighbors/atom: 2000, page size: 100000
  master list distance cutoff = 3.8
  ghost atom cutoff = 3.8
  binsize = 1.9, bins = 8 8 8
  4 neighbor lists, perpetual/occasional/extra = 1 3 0
  (1) pair lj/cut, perpetual
      attributes: half, newton on
      pair build: half/bin/atomonly/newton
      stencil: half/bin/3d
      bin: standard
  (2) compute orientorder/atom, occasional
      attributes: full, newton on
      pair build: full/bin/atomonly
      stencil: full/bin/3d
      bin: standard
  (3) compute coord/atom, occasional
      attributes: full, newton on
      pair build: full/bin/atomonly
      stencil: full/bin/3d
      bin: standard
  (4) compute cluster/atom, occasional
      attributes: full, newton on
      pair build: full/bin/atomonly
      stencil: full/bin/3d
      bin: standard
Per MPI rank memory allocation (min/avg/max) = 9.811 | 9.820 | 9.825 Mbytes
Step Temp PotEng c_msd[4] v_twopoint v_fit v_max_n 
   12000    1.2556668   -2.6264074 2.3304923e-30 1.6183974e-32 8.3333333e+20            3 
   13000    1.2727969   -2.6170877    1.1537713 0.0073959694  0.098213439            1 
   14000    1.2716407   -2.6556749    2.3217745  0.013820086  0.098390526            2 
   15000    1.2577007   -2.6261142    3.5600976  0.019778319  0.099165447            1 
   16000     1.226943   -2.6200895    4.7616208  0.024800108    0.1002685            3 
   17000    1.2641742   -2.6298783    5.9206959  0.029023018  0.099931772            1 
   18000    1.2418601    -2.626282    7.0358676   0.03257346  0.099220278            3 
   19000    1.2506277   -2.6467407     8.159483  0.035787205   0.09821202            5 
   20000    1.2288666   -2.6422962    9.3707762    0.0390449  0.097942633            1 
   21000    1.2516641   -2.6545016    10.477121  0.041575875  0.097597077            1 
   22000    1.2560147   -2.6219518    11.751485  0.044513198  0.097489179            3 
   23000    1.2686227   -2.6208371    12.973463  0.047005299   0.09751342            1 
   24000    1.2524558   -2.6169767    14.251667  0.049484955  0.097875315            1 
   25000    1.2623759   -2.6296671    15.477557  0.051591854  0.098487701            2 
   26000    1.2399037    -2.627222    16.794739  0.053829291  0.098970744            6 
   27000    1.2669403   -2.6311963    18.010472  0.055587877  0.099606882            4 
   28000    1.2360252   -2.6205301    19.466144  0.057934951   0.10029508            3 
   29000    1.2486353   -2.6148736    20.626326  0.059271051   0.10079686            1 
   30000    1.2487294   -2.6033292     21.98635  0.061073192   0.10125595            1 
   31000    1.2574425    -2.625347    23.099367  0.062095071   0.10164612            1 
   32000    1.2795323   -2.6562248    24.609309  0.064086742    0.1020286            1 
   33000    1.2216585     -2.62776    25.776645  0.065092538   0.10232453            2 
   34000    1.2323208   -2.6231954    27.058637  0.066320188   0.10254269            2 
   35000    1.2482272   -2.6578964    28.271011  0.067311929   0.10282452            2 
   36000    1.2386655   -2.6135763    29.653095  0.068641422   0.10313854            2 
   37000    1.2383228    -2.620921    31.116267  0.070081681   0.10344908            1 
   38000    1.2407867   -2.6340043    32.391026  0.071032952   0.10374243            2 
   39000    1.2326157   -2.6276852    33.585259  0.071763373   0.10399967            3 
   40000    1.2207386    -2.671874    34.660583  0.072209547   0.10413761            1 
   41000    1.2460965   -2.6308713    36.105056  0.073384259     0.104288            1 
   42000    1.2289521   -2.6539497    37.923715  0.075245466   0.10455434            2 
   43000    1.2595452   -2.6257468    39.256761  0.076078992   0.10493322            3 
   44000    1.2351839   -2.6332796    40.445727  0.076601754   0.10526912            1 
   45000    1.2558709   -2.6402675    41.376537  0.076623216   0.10545707            2 
   46000    1.2399956   -2.6419744    42.897228  0.077712369   0.10553531            2 
   47000    1.2507311   -2.6670195    44.037749  0.078081114   0.10570902            6 
   48000    1.2405221   -2.6432144    45.427017  0.078866349   0.10587793            1 
   49000    1.2662072   -2.6047867     46.91681  0.079790492   0.10599964            1 
   50000    1.2696693    -2.625326    48.155797  0.080259661   0.10614093            1 
   51000    1.2393132   -2.6469448    49.273475  0.080512214   0.10628993            1 
   52000     1.227373   -2.6577848    50.830455  0.081459061   0.10645014            1 
   53000    1.2536319    -2.635116    52.186881  0.082054844   0.10657921            2 
   54000     1.226314   -2.6174901    52.986256  0.081768914   0.10664613            1 
   55000    1.2562747   -2.6323119    53.988443   0.08180067   0.10661008            1 
   56000    1.2091833   -2.6569008    55.246244  0.082211671   0.10653195            1 
   57000    1.2378875   -2.6193918    56.764127  0.082988489   0.10650119            1 
   58000    1.2517508   -2.6362299    58.070518  0.083434652   0.10654091            1 
   59000    1.2315804   -2.6387244    59.308023  0.083768393   0.10656223            1 
   60000    1.2530713   -2.6222531    60.883836  0.084560883   0.10658492            1 
   61000    1.2130119   -2.6178014    62.254826  0.085047576   0.10662655            1 
   62000    1.2611305   -2.5997121    63.788266  0.085736916   0.10669834            1 
   63000    1.2231824   -2.6599743    65.072971  0.086075357   0.10679777            2 
   64000    1.2396611   -2.6424518    66.452786  0.086527065   0.10689352            1 
   65000      1.25916   -2.6363605    67.729178  0.086832279   0.10702953            1 
   66000    1.2462946   -2.6376285    68.823959  0.086898937   0.10713103            2 
   67000    1.2307029   -2.6510425    70.155134  0.087257629   0.10722274            2 
   68000    1.2494362   -2.6172591    71.684448  0.087848588   0.10728982            1 
   69000    1.2389401   -2.6275422    72.634649  0.087723006   0.10734378            3 
   70000    1.2624839   -2.6316947    73.726997  0.087770234   0.10734644            1 
   71000    1.2393644   -2.6668648    75.062672  0.088101727   0.10733864            2 
   72000    1.2345211   -2.6163116    76.512227  0.088555818    0.1073596            3 
   73000    1.2348642   -2.6292385    77.781672  0.088791863    0.1073725            1 
   74000     1.258396   -2.6320155    78.960849  0.088919874   0.10740107            2 
   75000    1.2359825   -2.6151299    80.159457  0.089066063   0.10741795            1 
   76000    1.2208418   -2.6133085    82.127059    0.0900516   0.10746081            1 
   77000    1.2569248   -2.6329258    83.389335  0.090248198   0.10751663            1 
   78000     1.228585    -2.646082    84.414299  0.090186216   0.10756546            1 
   79000    1.2399444   -2.6510282     86.20287  0.090931297    0.1076153            1 
   80000    1.2024635   -2.6660243    86.719915  0.090333244   0.10766298            1 
   81000    1.2554259   -2.6096693    88.460702  0.091008953   0.10770061            1 
   82000    1.2156308   -2.6475347    89.703595  0.091162189   0.10772022            3 
   83000      1.23683   -2.6502315    90.096505  0.090458338   0.10771936            1 
   84000    1.2556606   -2.6480379    92.219048   0.09148715   0.10770874            1 
   85000    1.2749858   -2.6342659    93.549916  0.091715603    0.1077165            4 
   86000    1.2220356   -2.6330954    94.585101   0.09165223   0.10772135            1 
   87000     1.217898    -2.618574    95.334311  0.091316389    0.1076891            1 
   88000    1.2263812   -2.6466653    96.043809  0.090950576   0.10763956            1 
   89000    1.2230834   -2.6114685     97.97851  0.091740177   0.10759482            1 
   90000    1.2609314   -2.6380677    99.185756  0.091838663    0.1075434            4 
   91000    1.2438598   -2.6206968    100.62421   0.09214671   0.10747905            1 
   92000    1.2173598   -2.6494386    101.33199  0.091786222   0.10743713            1 
   93000    1.2439106   -2.6653906    102.29167  0.091659202   0.10737225            2 
   94000    1.2373326   -2.5939075    103.45391   0.09171446   0.10729474            2 
   95000    1.2320409   -2.6327928    104.85315  0.091976448   0.10721712            3 
   96000    1.2165717   -2.6209769    105.66219   0.09172065   0.10713994            2 
   97000    1.2429003   -2.6553064    106.89335  0.091832775   0.10703357            2 
   98000    1.2292668   -2.6461228    107.58235  0.091481586   0.10691808            4 
   99000    1.2652518   -2.6659893    108.85483  0.091628644    0.1067874            1 
  100000     1.243237   -2.6487396    109.49885  0.091249039   0.10665169            1 
  101000     1.225643   -2.6303005    111.51159   0.09200626   0.10653414            1 
  102000    1.2547452   -2.6446509    112.34924  0.091788596   0.10643454            1 
  103000    1.2202329    -2.648832    113.48003  0.091812324   0.10631964            1 
  104000    1.2573224   -2.6205597     115.0492  0.092186857    0.1062172            4 
  105000    1.2266166   -2.6269608    116.63031   0.09256374   0.10611878            2 
  106000    1.2362567    -2.662464    117.32157  0.092233935   0.10602556            1 
  107000    1.2348228   -2.6533937    118.66946  0.092421699   0.10593162            2 
  108000    1.2356456   -2.6582837    119.78004  0.092422868   0.10582573            3 
  109000    1.2143045   -2.6484968    121.15072  0.092622872   0.10572438            2 
  110000    1.2484443   -2.6427287    122.13597  0.092527249   0.10563003            3 
  111000    1.2242624   -2.6697337    123.30915  0.092574438   0.10555443            1 
  112000    1.2487222   -2.6513577    124.60451  0.092711686   0.10547764            1 
  113000    1.2628427   -2.6232484    127.08778  0.093722554   0.10541443            2 
  114000    1.2358363   -2.6747361    126.94855  0.092798645   0.10535112            6 
  115000     1.224105   -2.6643749    129.90174  0.094131692   0.10530078            1 
  116000    1.2628762   -2.6339273    131.78085  0.094670152   0.10527949            1 
  117000    1.2275325   -2.6344787    132.20792  0.094165187   0.10527949            1 
  118000    1.2095506   -2.6559585    133.22516  0.094085565   0.10528095            2 
  119000    1.2336273   -2.6645469    134.25423  0.094015569   0.10527169            4 
  120000    1.2367123   -2.6819033    136.30705  0.094657674   0.10525248            1 
  121000    1.2093666   -2.6264194    137.81324  0.094912702   0.10524024            2 
  122000    1.2441181   -2.6855867     138.9929  0.094940506    0.1052371            2 
  123000    1.2253179   -2.6138832    140.59962  0.095257195   0.10524369            1 
  124000    1.2194242   -2.6805276    141.38756   0.09501852   0.10524817            3 
  125000    1.2265577   -2.6477987    142.31542  0.094876944   0.10525131            1 
  126000    1.2229765   -2.6455358    144.45748  0.095540664   0.10527009            1 
  127000     1.219845   -2.6273388    146.14604  0.095896354   0.10530449            2 
  128000    1.1978996   -2.6546993      147.632  0.096114583   0.10533719            1 
  129000    1.2092948   -2.6686758    147.89071  0.095536636   0.10537622            2 
  130000     1.210237   -2.6480661    150.28725  0.096337982   0.10541372            3 
  131000    1.2196706   -2.6813883    151.53704  0.096397611   0.10545222            1 
  132000    1.2257044   -2.6174201    153.72123  0.097046233   0.10549798            2 
  133000    1.2134777   -2.6418351    153.15194  0.095959863   0.10553475            2 
  134000     1.217776   -2.6311918    155.01284  0.096401018   0.10556323            3 
  135000     1.222079   -2.6454169    156.60531  0.096669945   0.10559216            1 
  136000    1.2248677   -2.6515776    157.50498  0.096510404   0.10561652            1 
  137000     1.219074   -2.6249472    159.69261  0.097136623   0.10565104            2 
  138000    1.1850607   -2.6360009    161.28919  0.097396855    0.1056922            2 
  139000    1.2340537   -2.6491354    162.79592  0.097599474   0.10574447            1 
  140000    1.2037578   -2.6574787    163.16437  0.097121651   0.10579674            2 
  141000    1.2041166   -2.6299049    164.87033  0.097441094   0.10583655            2 
  142000    1.2293566   -2.6365903    166.74239  0.097853515   0.10588346            2 
  143000    1.2445481   -2.6867344    168.37367  0.098119853   0.10593406            1 
  144000    1.2167855   -2.6307281    169.04715  0.097828209   0.10598087            2 
  145000    1.2192498   -2.6588235    169.77174  0.097569963    0.1060244            3 
  146000    1.2171593   -2.6562703    170.86526  0.097525832   0.10605982            2 
  147000    1.1966565   -2.6476521    172.25717  0.097651458    0.1060952            1 
  148000    1.2709241   -2.6591824    173.20066  0.097522894   0.10612455            2 
  149000    1.2205132   -2.6718645    174.80861  0.097767676   0.10614092            1 
  150000    1.2212446   -2.6807963    175.37056  0.097428091   0.10615688            1 
  151000    1.2343839   -2.6354883    177.44074  0.097925353   0.10617931       -1e+20 
  152000    1.1991486   -2.6534172    178.53373  0.097880333   0.10620023            2 
  153000    1.2255799    -2.663339    179.96325  0.098019199   0.10621333            2 
  154000    1.2303471    -2.662589    181.07469   0.09798414   0.10622802            2 
  155000    1.2297211   -2.6335748    182.35184  0.098038625   0.10623789            1 
  156000    1.1982169   -2.6142751    184.37596  0.098491431     0.106251            2 
  157000    1.2217951   -2.6562823    183.94885  0.097637393   0.10625915            2 
  158000    1.2270196   -2.6361121    185.30517  0.097734795   0.10625762            1 
  159000     1.229735   -2.6690157    186.95095  0.097982677   0.10624372            1 
  160000    1.2435246   -2.6548483    187.39026  0.097599092   0.10623846            1 
  161000    1.1964929   -2.6589834    189.29009  0.097976235   0.10623375            1 
  162000    1.2175486   -2.6488261    189.17474  0.097312111   0.10621926            2 
  163000      1.23042   -2.6624928    191.28686   0.09779492   0.10620348            4 
  164000    1.2367531   -2.6616727    192.33298   0.09773017   0.10618675            2 
  165000     1.220528   -2.6431305    194.05396  0.098007048   0.10618196            1 
  166000    1.2433311    -2.662654    195.28083  0.098032543   0.10617666            1 
  167000    1.2344102   -2.6422176    197.01973   0.09831324   0.10617796            1 
  168000     1.200968   -2.6511959    197.94048  0.098184764   0.10617755            2 
  169000    1.2354803   -2.6523834    199.82975   0.09853538   0.10617373            2 
  170000    1.2169799   -2.6581749    199.85774  0.097969482   0.10617473            2 
  171000    1.2238539   -2.6496016     200.4006  0.097661109   0.10616734            3 
  172000    1.2172974   -2.6554791    202.81944  0.098265231   0.10615352            1 
  173000     1.216726   -2.6678176    203.64081  0.098092877   0.10614273            1 
  174000    1.2242459   -2.6706304    204.72399  0.098047889   0.10613172            3 
  175000    1.2202862   -2.6703878     206.9348   0.09854038   0.10612041            1 
  176000    1.2258284   -2.6209565     207.4862  0.098241573   0.10610494            2 
  177000    1.2182955   -2.6769747    208.29998  0.098069669    0.1060934            1 
  178000    1.2209649   -2.6253683     210.9193  0.098744989   0.10607957            1 
  179000    1.2180233   -2.6596924    211.33021   0.09838464   0.10606519            1 
  180000    1.2251762   -2.6903466    212.13386  0.098210121   0.10604627            1 
  181000    1.2400936   -2.6496495    213.42325  0.098261167   0.10602758            1 
  182000    1.2425078   -2.6496173    215.20373  0.098536508   0.10601425            1 
  183000    1.2053891   -2.6666761    217.41264  0.099003932   0.10601045            2 
  184000     1.200974   -2.6477755    218.11505  0.098783991   0.10600769            2 
  185000     1.258148   -2.6986297    219.27542  0.098772709   0.10600706            2 
  186000    1.2132535   -2.7095458    220.35847  0.098726914   0.10600282            1 
  187000    1.2035066   -2.6736997    222.48122  0.099144928   0.10600631            1 
  188000    1.2259074   -2.6382392    223.40655  0.099027724   0.10600401            1 
  189000    1.2126035   -2.6399658    223.81521  0.098683955   0.10600195            2 
  190000     1.216637   -2.6726109    225.27393  0.098804353   0.10598879            1 
  191000    1.2267874   -2.6494052    225.64971  0.098451007   0.10596861            1 
  192000    1.2080166   -2.6106882    227.13817  0.098584273   0.10595347            1 
  193000    1.2069049   -2.6626304     228.5344  0.098676337   0.10594364            2 
  194000    1.2078755   -2.6498741    230.80905  0.099144779   0.10593423            2 
  195000    1.2117342   -2.6477069     231.7172  0.099024445   0.10592112            1 
  196000    1.1997204   -2.6249112    232.49742  0.098850945   0.10590651            2 
  197000    1.2409376   -2.6422563    234.24335   0.09908771   0.10589648            2 
  198000    1.2079183   -2.6665315    235.26338  0.099016573   0.10588542       -1e+20 
  199000    1.2193358   -2.6352344    236.55524  0.099059984   0.10586427            2 
  200000    1.2148044   -2.6339949    236.16418  0.098401739   0.10583902            2 
  201000    1.2056681   -2.6527299    237.70456  0.098550811   0.10580924            1 
  202000    1.1854027   -2.6406883     238.0617  0.098210272   0.10577809            2 
  203000    1.2435265   -2.6555488     240.1028  0.098564366   0.10574506            1 
  204000    1.1992598   -2.6959697    240.06493  0.098065738   0.10570849            2 
  205000    1.1880963   -2.6847685    242.12401  0.098424396   0.10567376            6 
  206000     1.223694   -2.6490636    243.31864  0.098429869   0.10564209            2 
  207000    1.2220698   -2.6535874    244.64637  0.098488875   0.10560949            3 
  208000    1.2046116    -2.651417    246.34243  0.098694886   0.10557121            4 
  209000    1.2316833   -2.6207734    247.69782  0.098763087   0.10553533            2 
  210000    1.2206361   -2.6933399    247.03001  0.098027783   0.10550058            1 
  211000    1.2055188   -2.6641266     249.0629  0.098366075   0.10546581            1 
  212000    1.2332398   -2.6604707      251.972  0.099045597   0.10543625            1 
  213000    1.2226709   -2.6548022    251.23532  0.098292377   0.10541629            1 
  214000    1.2032826    -2.720148    254.11683  0.098955153   0.10538761            2 
  215000    1.2276454   -2.6529903    256.01841  0.099231942   0.10536598            3 
  216000      1.21584   -2.6311385    257.27203  0.099256185   0.10534928            1 
  217000    1.2074105   -2.6584176    257.93619  0.099053835   0.10533213            1 
  218000    1.2296615   -2.6580488     259.4309  0.099170834    0.1053183            2 
  219000    1.2044389   -2.6691385    261.58044  0.099535936    0.1053095            3 
  220000    1.2189201   -2.6738408    260.00934  0.098488388   0.10529224            1 
  221000    1.2334454   -2.6584693    260.60079  0.098265759    0.1052717            2 
  222000    1.1987322    -2.680202    264.07694   0.09912798   0.10525244            1 
  223000    1.2149966    -2.679969    264.60073  0.098879196    0.1052313            1 
  224000    1.2277441   -2.6708731    265.56335   0.09879589   0.10520337            1 
  225000    1.2261081   -2.6289769    267.28783  0.098995492   0.10518248            2 
  226000    1.2223401   -2.6926122    268.48719    0.0989997   0.10515624            1 
  227000    1.2363701   -2.6630365    269.82257  0.099053808   0.10512801            1 
  228000    1.2207792   -2.6695197    269.78808  0.098606753   0.10510438            2 
  229000    1.2021746   -2.6539413    271.49854  0.098798597   0.10508413            1 
  230000     1.223416   -2.6420695    274.06577   0.09929919   0.10506215            1 
  231000     1.223137   -2.6310131    274.20121  0.098918186   0.10503991            1 
  232000    1.2069914   -2.6885633    275.87654  0.099093584   0.10501381            1 
  233000    1.2203877   -2.6734306    275.27341  0.098452579   0.10498565            1 
  234000    1.1909322   -2.6975694    277.32164  0.098761269   0.10495692            1 
  235000    1.2171904   -2.6712761    279.59834  0.099148347   0.10493115            2 
  236000    1.2343344   -2.6604843    280.37012  0.099000749     0.104909            2 
  237000    1.2122237   -2.6514311    280.60495  0.098665594   0.10488518            2 
  238000    1.2129893   -2.6687144    283.12761  0.099134316   0.10486481            1 
  239000    1.2063018     -2.68209    284.47649  0.099189849   0.10484544            2 
  240000    1.2120444   -2.6777451    283.83995  0.098555536   0.10482337            1 
  241000    1.2367256   -2.6871065    285.06417  0.098569908   0.10479869            1 
  242000    1.2270372   -2.6638752    287.52788  0.099010978   0.10477742            1 
  243000    1.1845543   -2.6617041    289.26533  0.099199359   0.10475508            1 
  244000    1.2164033   -2.6522551    291.37563  0.099513536   0.10473219            1 
  245000    1.1839577   -2.6660762     290.8456  0.098927074   0.10471105            6 
  246000    1.2013918   -2.6296392    292.82677   0.09919606   0.10469396            1 
  247000    1.2072645   -2.6711285    294.92287  0.099501642   0.10468464            1 
  248000    1.2113013   -2.6633118    296.98263   0.09979255   0.10467142            1 
  249000    1.2118362   -2.6689858     297.6777  0.099624399   0.10465656            3 
  250000    1.2109684   -2.6890183    296.63711  0.098879037   0.10464005            1 
  251000    1.2191717   -2.6815047    298.51644  0.099109044   0.10462211            2 
  252000    1.2013016    -2.665235    300.21406  0.099277138    0.1046073            1 
  253000    1.2042554   -2.6132228    300.18241  0.098874312   0.10459367            1 
  254000    1.2320794   -2.6908561    301.19428   0.09881702   0.10457594            1 
  255000    1.2038661   -2.6811855    303.39906  0.099150018   0.10455778            1 
  256000    1.2430791   -2.6993696    303.63601  0.098839847   0.10453824            2 
  257000    1.1908514   -2.6569924    305.94346  0.099203455   0.10452078            2 
  258000    1.2133263   -2.6596578    307.04708  0.099175413    0.1045017            1 
  259000    1.2182279   -2.6680979    306.96963  0.098767577   0.10448141            2 
  260000    1.2130187   -2.6897314    309.32473  0.099142543   0.10446254            3 
  261000    1.2050313   -2.6865461    310.73651  0.099213444   0.10443921            1 
  262000    1.2157886   -2.6593745    310.73736  0.098835038   0.10441847            3 
  263000    1.2206929   -2.6766078    312.47825  0.099010854   0.10439221            2 
  264000    1.2103382   -2.6762527    313.83541  0.099064206   0.10436601            5 
  265000    1.2108938   -2.6701363    314.32092  0.098843057    0.1043403            1 
  266000     1.202239   -2.6699651    316.08521  0.099024188    0.1043177            1 
  267000    1.2174579   -2.6801687    317.31996  0.099038687   0.10429016            1 
  268000    1.1906408   -2.6569516    318.20467  0.098944238   0.10426345            3 
  269000    1.1939513   -2.6648948    319.50683   0.09897981   0.10423497            2 
  270000    1.1995577   -2.6593648    320.24923  0.098842356   0.10420665            1 
  271000    1.2108711   -2.6896266    320.36276  0.098512532   0.10417799            2 
  272000    1.2061911   -2.6883736     323.0106  0.098961579   0.10415146            1 
  273000     1.244386   -2.6842409    323.08063  0.098620461   0.10412698            1 
  274000    1.2305571   -2.6551289    325.00151  0.098844741   0.10410412            2 
  275000    1.2118708   -2.6568799    326.28247  0.098873475   0.10407394            2 
  276000    1.1934413   -2.6692014    325.52976  0.098287971    0.1040388            1 
  277000    1.2197435   -2.6618376    328.33303  0.098776483   0.10400824            1 
  278000    1.2213628   -2.6625915     330.4128  0.099044603   0.10397893            1 
  279000    1.2073499   -2.6787496    330.39881  0.098685427   0.10395187            4 
  280000    1.2235871   -2.6865188    329.83921  0.098166431   0.10392501            2 
  281000    1.1994293   -2.6784417    332.10577  0.098489257   0.10389499            1 
  282000    1.1911784   -2.6743757    336.01178   0.09929426   0.10386902            2 
  283000    1.1855542   -2.6627439    334.87618  0.098609004   0.10384038            2 
  284000     1.210587   -2.6512375    335.16512  0.098346573   0.10381183            2 
  285000    1.1961434   -2.6735444    337.61928  0.098719087   0.10378717            1 
  286000    1.1782311   -2.6764263     338.6267  0.098667454   0.10375533            1 
  287000      1.17981   -2.6760834    340.48776  0.098864041   0.10372288            1 
  288000    1.2084327   -2.7236001    339.68436  0.098288299   0.10369259            2 
  289000    1.2124648   -2.6444154    344.25877  0.099267233   0.10366503            2 
  290000    1.2245489   -2.6983975    343.99505  0.098849152   0.10364191            2 
  291000    1.2123258   -2.6567739    344.84732  0.098753527   0.10361795            2 
  292000    1.2311503   -2.6729498    345.50097  0.098601875   0.10359813            2 
  293000    1.2257033   -2.6589928    347.58204  0.098857234   0.10357288            1 
  294000    1.1913265   -2.6838315     349.3217  0.099014087   0.10354944            2 
  295000    1.2091631   -2.6280176     349.2495  0.098658051   0.10352816            4 
  296000    1.1872014   -2.6758727    350.17271   0.09858466   0.10350529            2 
  297000    1.2011934   -2.7170332    350.85653  0.098444594   0.10347537            1 
  298000    1.1830918    -2.694612    351.35819  0.098254527   0.10344343            1 
  299000    1.2173523   -2.6812948    352.60104  0.098272307   0.10341055            1 
  300000    1.2029876   -2.6485215      354.948  0.098596666   0.10337667            3 
  301000    1.2064848   -2.6583924    356.67833  0.098748152   0.10334262            1 
  302000    1.1910746   -2.6643925    356.67463  0.098420152   0.10331068            2 
  303000    1.1889356    -2.678711    357.98207  0.098454916   0.10327917            2 
  304000    1.2160301   -2.6765747    358.00027  0.098136038    0.1032485            1 
  305000    1.2028688   -2.6829889    357.99541  0.097812955   0.10321765            2 
  306000    1.2063759   -2.6493155    361.53319   0.09845675   0.10318807            4 
  307000      1.20387   -2.6905746     360.9815  0.097986293    0.1031606            1 
  308000    1.1979618   -2.6989327     362.9394  0.098197889   0.10313253            1 
  309000    1.2163275   -2.6880302    364.14509  0.098205256   0.10310793            1 
  310000    1.2196509   -2.6782455    367.08317  0.098678271   0.10308122            1 
  311000    1.2247207   -2.6815906    368.30305  0.098687848   0.10305914            1 
  312000    1.1976037   -2.6750643    368.54996   0.09843749   0.10303463            1 
  313000    1.2243599   -2.6670495    369.82715  0.098463033   0.10301021            2 
  314000    1.2009378   -2.6574417    372.48148  0.098853897   0.10298609            1 
  315000    1.2139654   -2.6745028    372.53764   0.09855493   0.10296382            2 
  316000    1.2143113    -2.655758    374.43156    0.0987425    0.1029423            1 
  317000    1.2095209   -2.6779797    375.02946  0.098588186   0.10292032            1 
  318000    1.2044291   -2.6908227    374.47225  0.098132142   0.10289967            2 
  319000    1.2129776   -2.6661317    377.94248  0.098731055   0.10287828            2 
  320000     1.230863   -2.6621341    379.67119  0.098872706   0.10285758            1 
  321000     1.215727   -2.6957677    380.51627  0.098784078   0.10283623            3 
  322000    1.2042478    -2.685327    381.53769  0.098741639   0.10282111            2 
  323000    1.1757515   -2.6806328    382.44296  0.098669494   0.10280344            1 
  324000    1.1989205   -2.6729282    383.46622  0.098628143   0.10278393            1 
  325000     1.205057   -2.6916237    383.19444  0.098254984   0.10276554            1 
  326000    1.1626796   -2.7018054    386.22889  0.098729266     0.102749            1 
  327000    1.2181581   -2.7021892    388.67249  0.099050074   0.10272796            1 
  328000    1.1869094   -2.6994374    388.90632  0.098807501    0.1027096            1 
  329000    1.2032946   -2.6879609    388.00652   0.09827926    0.1026881            1 
  330000    1.1909587   -2.6962334    389.58729  0.098380629   0.10266613            1 
  331000    1.1709511   -2.6795332    392.24591  0.098752747   0.10264982            5 
  332000     1.229252   -2.6876883     393.1661  0.098686269   0.10263529            2 
  333000    1.2225261   -2.6614241    397.25142  0.099412268   0.10261893            3 
  334000    1.2003262   -2.6900662    397.06348  0.099067735   0.10260721            2 
  335000    1.2164133   -2.6834143    398.70698   0.09918084   0.10259613            1 
  336000    1.1988822   -2.7222419    398.78905  0.098906015   0.10258354            3 
  337000    1.1925504   -2.6781036    399.13617   0.09869836    0.1025696            4 
  338000    1.1871579    -2.703035    399.05153  0.098385487   0.10255353            2 
  339000    1.1940464   -2.6851723    402.41445   0.09892194   0.10254006            1 
  340000    1.2026642   -2.6824266    404.34032   0.09910302   0.10252912            2 
  341000    1.2228022   -2.7067609    404.52911  0.098858531   0.10251789            2 
  342000    1.1823108   -2.6863741    406.56865  0.099066436    0.1025086            1 
  343000    1.1847961     -2.70194    406.27349  0.098705902   0.10249824            2 
  344000    1.1947325   -2.6657635    407.01562  0.098598744    0.1024824            1 
  345000    1.2047501   -2.6869803    408.16732  0.098591141   0.10246859            1 
  346000    1.2063684   -2.7079764    409.95081  0.098735744   0.10245618            4 
  347000    1.2138297   -2.7027518    410.55379  0.098596012   0.10244005            2 
  348000    1.2031446   -2.6576984    412.35009  0.098742837   0.10242299            3 
  349000    1.2011719   -2.7082398    413.32266  0.098692135   0.10240804            1 
  350000    1.1887365   -2.6833832    416.33686  0.099127824    0.1023946            1 
  351000    1.1917018   -2.6947616    415.54685  0.098657847   0.10237886            2 
  352000    1.2025684   -2.6966277    416.08765  0.098505598   0.10236641            2 
  353000    1.1914307   -2.7028009    418.56009  0.098810219   0.10235383            3 
  354000    1.2064883   -2.7140209    418.56989    0.0985334   0.10233701            1 
  355000    1.1931174   -2.7209066    420.10181  0.098615448   0.10232034            2 
  356000    1.1894278   -2.6735149    419.87706  0.098285827   0.10229939            2 
  357000    1.1825096    -2.735984    422.34722  0.098587118   0.10227934            1 
  358000    1.2013603   -2.6923198     422.6373  0.098379259   0.10226156            3 
  359000    1.1811175   -2.6942711    423.02333  0.098194831   0.10224164            1 
  360000    1.2059469   -2.6881418    426.03298  0.098618746   0.10222072            1 
  361000    1.2087885   -2.6906064    425.26714  0.098168777   0.10220206            2 
  362000    1.1775999    -2.694411    427.89374  0.098502243     0.102186            2 
  363000    1.1839962   -2.7068372    429.12307  0.098513102    0.1021717            2 
  364000    1.1855888   -2.6729684    431.44089  0.098773097   0.10215427            2 
  365000    1.1893827   -2.6805311    432.28813  0.098695921   0.10213815            1 
  366000    1.1481074   -2.7017048     432.7159  0.098523658   0.10212238            1 
  367000    1.1891123   -2.7114967    434.30548   0.09861614   0.10210382            5 
  368000    1.1898818   -2.6835855      435.107  0.098529664   0.10208739            2 
  369000    1.1800328   -2.6942261    437.12995    0.0987195   0.10207189            3 
  370000    1.1915577   -2.6665505    438.48391  0.098757637   0.10205605            2 
  371000    1.1898221   -2.6749323    438.86981  0.098578124   0.10203999            1 
  372000    1.1829282   -2.7063616    439.48852   0.09845173   0.10202093            1 
  373000    1.1969392   -2.6794124    440.35534  0.098381442   0.10199874            2 
  374000    1.1714279     -2.68252    441.53262  0.098380708   0.10198076            2 
  375000    1.1840865   -2.7126355    441.99642  0.098221427   0.10196318            2 
  376000    1.1947663   -2.6891126    444.83514  0.098589347   0.10194507            1 
  377000    1.1782645   -2.7130457    443.50342  0.098033471   0.10192469            2 
  378000    1.2041337   -2.7561807    444.84741  0.098070417   0.10190366            2 
  379000    1.2003288    -2.684184    444.14225  0.097656607   0.10188402            1 
  380000    1.2043971    -2.664398      447.348  0.098102632   0.10186389            3 
  381000    1.1960165   -2.7027887    447.73912  0.097930691   0.10184375            1 
  382000    1.1816853   -2.7143116    449.34619   0.09802491   0.10182234            3 
  383000    1.1919139   -2.6790952    449.72692  0.097851809   0.10179774            2 
  384000    1.1849055   -2.6972077    452.09145  0.098110124   0.10177229            1 
  385000    1.1682976   -2.7060718    451.72042  0.097774982   0.10174375            3 
  386000    1.1775339   -2.7043611    452.86176  0.097768082   0.10171365            2 
  387000    1.2119432   -2.7127443    452.03448  0.097337312   0.10168325            1 
  388000    1.1646214   -2.6879488    452.87548   0.09726707    0.1016522            4 
  389000    1.2287775   -2.7139282    453.54344   0.09716012   0.10161838            1 
  390000    1.2166193   -2.6875888    456.47262  0.097536884   0.10158367            2 
  391000    1.2061772   -2.7028626    455.38972  0.097056633   0.10154735            2 
  392000    1.1850568    -2.685078    458.22924  0.097412678   0.10151453            2 
  393000    1.1719962   -2.6741219     459.4618  0.097426167   0.10147886            3 
  394000    1.1686287   -2.7249663    458.62242  0.097001357   0.10144394            1 
  395000    1.1827683   -2.7232593    460.04889  0.097056728   0.10140726            1 
  396000    1.1952466   -2.7217582    461.06113  0.097024648    0.1013688            1 
  397000     1.208512   -2.6980523    463.80627   0.09735648   0.10133176            1 
  398000    1.1717246   -2.6773151    464.01719  0.097156028   0.10129602            1 
  399000    1.1921172   -2.6902964    464.07435  0.096924467   0.10125982            2 
  400000    1.2200156   -2.7062306    465.46908  0.096972724   0.10122708            2 
  401000    1.1886993   -2.6783175    466.64325  0.096974907   0.10119602            1 
  402000    1.1739699   -2.7204025    466.14411  0.096630204   0.10116214            1 
  403000    1.2032801   -2.7180343    467.09118  0.096586266   0.10112286            1 
  404000    1.1825065    -2.708212    468.71207  0.096681532   0.10108508            2 
  405000    1.1954163   -2.7035781    471.05702  0.096925312   0.10104798            1 
  406000    1.1659108   -2.7039425    470.99116  0.096673063   0.10100871            1 
  407000    1.1735974   -2.7034866    473.60803  0.096971341    0.1009723            1 
  408000    1.2018082   -2.6922383    471.73256  0.096350605   0.10093404            1 
  409000    1.1803403   -2.6876082    474.22267  0.096622386     0.100897            1 
  410000    1.1758573   -2.7316084    475.21348  0.096588106   0.10085818            1 
  411000    1.1775262   -2.6860142    475.43605  0.096398225   0.10082068            1 
  412000    1.2053711    -2.704866    479.58096  0.097002622   0.10078573            1 
  413000     1.187441   -2.7191755    477.42992  0.096333721   0.10074785            2 
  414000    1.1885701   -2.6881189    478.22754  0.096261582   0.10071077            2 
  415000    1.2110341   -2.6758958    480.77132  0.096540425   0.10067405            5 
  416000     1.173603   -2.6934726    482.10575  0.096575671   0.10063797            2 
  417000    1.2012896   -2.7043791    482.74819   0.09647246   0.10060282            1 
  418000    1.2027938   -2.7052002    485.18295  0.096727064    0.1005696            3 
  419000    1.1766051   -2.6912305    486.59418  0.096776886   0.10053744            1 
  420000    1.1679291   -2.7167374    487.94099  0.096813688   0.10050211            1 
  421000    1.1734949   -2.7105077    487.66438  0.096528974   0.10046951            1 
  422000    1.1903948   -2.6995028      489.092  0.096582149   0.10043585            1 
  423000    1.1923363   -2.7285608    489.63795  0.096461376    0.1004064            1 
  424000    1.1792066   -2.6464418    491.26143  0.096552954   0.10037664            4 
  425000    1.1598641   -2.7037626    493.11015  0.096688264   0.10034789            1 
  426000    1.1582437   -2.7085941    492.44965  0.096332092   0.10031731            2 
  427000    1.1762748   -2.6940292     495.8375  0.096767661   0.10028651            2 
  428000     1.170002    -2.724865    498.94565  0.097146738   0.10025856            1 
  429000    1.1776277   -2.6816655    496.79131  0.096501809   0.10023208            2 
  430000    1.1926209   -2.7147211    499.36812  0.096776767   0.10020512            3 
  431000     1.181254   -2.7079377    502.75838  0.097207731   0.10017765            1 
  432000    1.1836413   -2.6928683    500.96938  0.096637611   0.10015135            1 
  433000    1.1725221   -2.6790532    502.10265  0.096632535   0.10012428            2 
  434000    1.1884137   -2.6737928    505.32744  0.097029078   0.10009564            2 
  435000    1.1784542   -2.7097679    506.00831  0.096936458   0.10006756            4 
  436000    1.1702041   -2.6956603     504.7036  0.096464755   0.10004015            2 
  437000    1.2051378   -2.7135139    507.29518  0.096738212   0.10001219            1 
  438000    1.1717937   -2.6794578    507.15067  0.096489853   0.09998395            4 
  439000    1.1930504   -2.7082711    510.24757   0.09685793  0.099956472            1 
  440000    1.1861787   -2.6802176    511.21127  0.096820316  0.099929604            2 
  441000    1.1776075   -2.7189301    511.87042  0.096725325  0.099899597            2 
  442000    1.1564854     -2.67457    510.42286  0.096233571  0.099872005            1 
  443000    1.1744489   -2.6991372    513.15741   0.09653074  0.099843076            1 
  444000    1.1749796   -2.6954288    512.92146  0.096269043  0.099815901            1 
  445000    1.1722329   -2.7178422    513.25024  0.096114278  0.099786643            2 
  446000    1.2116918   -2.7054536    516.18194   0.09644655  0.099758389            2 
  447000    1.1728212   -2.7139928    515.34628  0.096074996  0.099729248            2 
  448000    1.1852244   -2.7137161    518.77632  0.096498572     0.099703            2 
  449000    1.1750438   -2.6748574    523.49886  0.097160144  0.099677997            1 
  450000    1.1935753   -2.7142538    521.43162   0.09656141  0.099653587            1 
  451000    1.1985548   -2.7120208    522.33096  0.096513481  0.099630378            2 
  452000    1.1686837   -2.7086274    525.31169    0.0968495  0.099607225            2 
  453000    1.1741361   -2.7248994    524.73725   0.09653003   0.09958374            1 
  454000    1.1889814   -2.6740922    528.36882  0.096983998  0.099559092            3 
  455000    1.1789207   -2.7196072     525.7526  0.096291686   0.09953238            3 
  456000    1.1749144   -2.7019125    529.45943  0.096757938  0.099508363            2 
  457000    1.1729869   -2.7073632     531.6815  0.096951404  0.099481741            4 
  458000     1.188089   -2.7241558    530.58504  0.096540218  0.099456395            1 
  459000    1.1691316   -2.7106576    530.55456  0.096324357  0.099432079            2 
  460000    1.1968268   -2.7106105    532.60598   0.09648659  0.099408709            2 
  461000     1.162209   -2.6949005      534.527  0.096624548  0.099384407            1 
  462000    1.1684107   -2.7100283     532.6843  0.096083026  0.099361788            3 
  463000    1.1559984   -2.7196343    533.73317  0.096064286  0.099337737            2 
  464000    1.1846988   -2.7181675    535.61305  0.096194872  0.099313678            2 
  465000     1.173913   -2.6959212     536.0721  0.096070269  0.099287908            1 
  466000    1.1544628   -2.7177429    540.71438  0.096694274  0.099263359            7 
  467000    1.1815487   -2.7289398    540.24919  0.096404209  0.099239467            1 
  468000    1.1694303   -2.7229845    539.56628  0.096076617  0.099213684            1 
  469000     1.195365   -2.6921136    540.73377  0.096079206  0.099189141            1 
  470000    1.1966659   -2.7126897    544.52441  0.096546882  0.099165691            2 
  471000    1.1725747   -2.7064391    544.87287  0.096403551  0.099142324            1 
  472000    1.1793506    -2.668192    546.78283  0.096536516  0.099119331            2 
  473000    1.1463133   -2.7058635    545.22314  0.096057635   0.09909561            2 
  474000    1.1893384   -2.7217935    545.50773  0.095905015  0.099071244            1 
  475000    1.1667314    -2.707202     548.9011  0.096298439  0.099048833            1 
  476000    1.1853752   -2.6993408    551.63792  0.096575267  0.099027537            3 
  477000     1.174689   -2.7200987    551.47572  0.096344466  0.099005439            2 
  478000    1.2000165   -2.7145592    553.19306  0.096442304  0.098984985            3 
  479000    1.1943066   -2.7347552    555.89816  0.096711579   0.09896417            2 
  480000    1.1764043   -2.6931005    556.05658    0.0965376  0.098943622            2 
  481000    1.1659318   -2.6865462    556.67831  0.096444613  0.098923712            1 
  482000    1.1532555   -2.6957234       558.06  0.096483402  0.098905168            3 
  483000    1.1715928   -2.6927401    559.65574  0.096558961  0.098885678            2 
  484000    1.1597703   -2.7328319    561.93203  0.096751382  0.098864345            1 
  485000    1.1585272    -2.686187    562.84149   0.09670816  0.098845727            1 
  486000     1.197377   -2.6977578    562.95169  0.096528068  0.098826866            1 
  487000    1.1506985   -2.7149318    563.80058  0.096475116  0.098809861            2 
  488000    1.1847154   -2.6995398     564.5189  0.096400084  0.098789805            2 
  489000    1.1729917   -2.7271723    565.33683  0.096342336  0.098771329            3 
  490000    1.1775869   -2.7234558     568.4506  0.096675272  0.098752459            2 
  491000     1.171053   -2.7404701    567.52947  0.096322042  0.098732866            2 
  492000    1.1849871   -2.6998348    572.02226   0.09688724   0.09871485            1 
  493000    1.1679134   -2.7061487    572.70161  0.096805546  0.098695416            2 
  494000    1.1783995   -2.7374678     569.1058  0.096003003  0.098677303            1 
  495000    1.1690256   -2.7317496    571.27721  0.096174614  0.098658685            1 
  496000    1.1599263   -2.7191234    571.01382  0.095936461  0.098641013            2 
  497000    1.1563886   -2.7192076    573.38873  0.096141637  0.098619606            3 
  498000    1.1840863   -2.7413639    574.85582   0.09619408  0.098601252            2 
  499000    1.1744604   -2.6858845    574.93748  0.096014943  0.098582207            1 
  500000    1.1926625   -2.6992103     579.0074  0.096501233  0.098563474            1 
  501000    1.1514894   -2.6929146    576.37885  0.095871398  0.098542939            2 
  502000    1.1622623   -2.7197342    577.20584  0.095817703  0.098520508            5 
  503000    1.1563148   -2.7464334    577.59207  0.095691197  0.098495857            1 
  504000    1.1721602   -2.7304532    578.94525  0.095725074  0.098473069            1 
  505000    1.1749312   -2.7345529    580.19347  0.095741497  0.098448232            2 
  506000    1.1898378   -2.7070782    582.11344  0.095868485  0.098425269            4 
  507000    1.1633332    -2.718911    583.48165  0.095904281  0.098403665            2 
  508000    1.1506058   -2.7262246    584.35742  0.095859156  0.098382575            2 
  509000    1.1718243   -2.6826172    586.95679  0.096096397  0.098359805            2 
  510000     1.146926   -2.7186186    586.82285  0.095886086  0.098336525            1 
  511000    1.1750204   -2.6993296    589.14367  0.096076919   0.09831199            1 
  512000    1.1778106   -2.7238449    587.05165  0.095548771  0.098288956            1 
  513000    1.1568555   -2.7070527    585.57048   0.09512191  0.098264987            2 
  514000      1.15398   -2.7136289    590.93085  0.095805909  0.098243005            1 
  515000    1.1634562   -2.7115725    589.84569  0.095444287  0.098220203            1 
  516000    1.1925962   -2.7283358    593.39895  0.095833164  0.098197238            2 
  517000    1.1805677   -2.7359136    592.49395  0.095501926  0.098175815            1 
  518000    1.1500865   -2.7075101     597.4642  0.096117148  0.098152699            1 
  519000    1.1871221   -2.7379284    595.41662  0.095603182  0.098131221            1 
  520000    1.1996465   -2.7450274    597.81344  0.095803436  0.098111429            1 
  521000    1.1549577   -2.7348423     595.4961  0.095248896  0.098088814            2 
  522000    1.1750226   -2.6895101    600.97036  0.095940351  0.098066665            1 
  523000    1.1640763   -2.7231257    601.59679  0.095856722  0.098045088            4 
  524000    1.1664306    -2.669174    602.46311  0.095811564  0.098023096            2 
  525000    1.1467053   -2.7287473    601.00619  0.095397807  0.097999811            1 
  526000    1.1635145   -2.7465579     601.3297  0.095267697  0.097976495            3 
  527000    1.1552579   -2.7275502    603.35582  0.095407308  0.097951565            2 
  528000    1.1530444   -2.7290404    603.66463  0.095275352  0.097926998            5 
  529000    1.1673325   -2.7115538    608.29495  0.095824661  0.097904106            2 
  530000    1.1796637   -2.7060893    608.95611  0.095747816  0.097881235            2 
  531000    1.1994222   -2.7415078     607.0712  0.095271689  0.097857141            1 
  532000    1.1620276   -2.7033276    609.57765  0.095485221  0.097833032            2 
  533000    1.1620459   -2.7397848    610.50154  0.095450521  0.097809098            1 
  534000    1.1747286   -2.6889134    609.53451  0.095120867  0.097783729            1 
  535000    1.1777337   -2.7318955    612.73508  0.095441601  0.097759634            1 
  536000    1.1505293   -2.7138439    612.44486  0.095218417  0.097734229            1 
  537000    1.1538174   -2.6980785    615.07892  0.095449863  0.097710192            2 
  538000    1.1599326   -2.7252526    616.54908  0.095500167  0.097688869            2 
  539000    1.1542315   -2.7473841     613.7616  0.094892022  0.097667176            1 
  540000    1.1703883   -2.7184567     615.4376  0.094974938  0.097645375            1 
  541000    1.1585946   -2.7329954    616.89702  0.095024186  0.097623398            1 
  542000    1.1766724   -2.7333313     617.6062  0.094957902  0.097601013            4 
  543000     1.167783    -2.718799    619.83994  0.095125835  0.097579108            1 
  544000    1.1603929   -2.7373309     620.8337  0.095103201  0.097557465            3 
  545000    1.1726946   -2.7089963    625.55097  0.095649995  0.097537574            1 
  546000    1.1779733   -2.6998323    624.92149  0.095378738  0.097517408            3 
  547000    1.1682213   -2.7562243    625.73291  0.095327988  0.097499134            2 
  548000    1.1717826   -2.7144124    629.93876  0.095793607  0.097481301            1 
  549000    1.1743401   -2.7512107    628.82476  0.095450024   0.09746448            2 
  550000     1.173238   -2.7212041    630.81953  0.095578716  0.097448189            2 
  551000    1.1729917   -2.6877849    634.75177  0.095999965  0.097434626            2 
  552000    1.1744986   -2.7271991    635.82201  0.095987622  0.097419331            2 
  553000    1.1479295   -2.7508139    633.70965  0.095495729  0.097402494            1 
  554000    1.1749495    -2.731589    635.00904  0.095518809  0.097384357            2 
  555000    1.1630537   -2.7524033    635.40887  0.095406737  0.097366963            2 
  556000    1.1658454   -2.7403564    636.47527  0.095394975  0.097349406            3 
  557000    1.1498235    -2.719522    642.57222  0.096135879  0.097335119            4 
  558000    1.1760375   -2.7176759    639.48823  0.095503021  0.097319985            2 
  559000    1.1596038   -2.7286551    640.22927  0.095442646  0.097303028            1 
  560000    1.1718654   -2.7296466    643.51344  0.095760928  0.097285392            2 
  561000    1.1622661   -2.7252049    642.15978  0.095389153  0.097265698            3 
  562000    1.1856025   -2.7380503    641.22099  0.095080218  0.097245868            4 
  563000    1.1185397   -2.7268237     644.1055  0.095338292  0.097225876            3 
  564000    1.1529725    -2.706732    648.76864   0.09585825  0.097207253            2 
  565000    1.1385498   -2.7210121    645.07111  0.095143232  0.097186778            2 
  566000    1.1474144   -2.7560086    645.92253  0.095100491  0.097168202            2 
  567000    1.1614799   -2.7169116    648.68106  0.095338191  0.097151132            3 
  568000    1.1664717   -2.7321425    652.94893  0.095796497  0.097135083            2 
  569000    1.1663548   -2.7274004     648.4884  0.094974868  0.097118472            2 
  570000    1.1716107   -2.7166913    652.69172  0.095422766  0.097102173            2 
  571000    1.1691262   -2.7197756    657.18142   0.09591089  0.097089249            1 
  572000    1.1732178   -2.6940821    657.07732  0.095728047  0.097075761            1 
  573000    1.1283877   -2.7555046    656.22263  0.095436682  0.097060902            2 
  574000    1.1559649   -2.7521512    656.59604  0.095324628  0.097044577            2 
  575000     1.154994   -2.7372251    659.39713  0.095564802  0.097028724            2 
  576000    1.1751793   -2.7073493     660.4228   0.09554728  0.097012543            1 
  577000    1.1737302   -2.7281243    660.34178  0.095369986  0.096996976            2 
  578000    1.1366168   -2.7381573    662.78768  0.095557624  0.096981136            2 
  579000     1.184465    -2.750209    659.31608   0.09489293  0.096966134            1 
  580000    1.1544776   -2.7230773    662.49881   0.09518661    0.0969501            5 
  581000    1.1638186   -2.7156663    664.73687  0.095343784  0.096933066            2 
  582000    1.1550113   -2.7292547    664.12343  0.095092129   0.09691605            2 
  583000    1.1739323   -2.6956866    669.21006  0.095656098  0.096900883            2 
  584000    1.1554945    -2.721548    665.79201  0.095004567    0.0968846            2 
  585000    1.1241517   -2.7270569    669.90581  0.095428178  0.096868347            1 
  586000    1.1478449   -2.7396571    667.40355  0.094909492  0.096850958            3 
  587000    1.1862935   -2.7183136    669.82881  0.095092107   0.09683371            1 
  588000    1.1592573   -2.7293647    669.41824    0.0948722  0.096816073            1 
  589000    1.1789401   -2.7523481    668.79022  0.094622273  0.096797093            3 
  590000    1.1604476   -2.7219741    672.94834  0.095049201  0.096779442            1 
  591000    1.1343136   -2.7048046    671.71583  0.094714584  0.096760517            1 
  592000     1.139132    -2.734333    675.10195  0.095031243  0.096742734            2 
  593000    1.1657153   -2.7437139    674.39002  0.094770941  0.096723354            4 
  594000    1.1658155   -2.7594935    677.43397  0.095038436  0.096704904            2 
  595000    1.1315824     -2.72384    676.90781  0.094805016  0.096685482            3 
  596000    1.1644661   -2.7611279    678.11839  0.094815211  0.096666978            2 
  597000    1.1435979   -2.7310023    680.50341  0.094989309  0.096647023            3 
  598000    1.1783278   -2.7460427    678.11322  0.094497382  0.096626257            2 
  599000    1.1824249   -2.7243433    679.89864  0.094588014  0.096606934            1 
  600000    1.1674463   -2.7079934    683.38046  0.094913952  0.096587055            1 
  601000    1.1688564   -2.7527636    681.85529  0.094544549  0.096565775            1 
  602000    1.1431144   -2.7091092    685.42495  0.094881638  0.096545323            1 
  603000    1.1779717   -2.6950112    683.62888  0.094476075  0.096524213            4 
  604000     1.147429   -2.7269298    683.68614  0.094327558  0.096501834            2 
  605000    1.1896677   -2.7191987    686.56564   0.09456827   0.09648086            1 
  606000    1.1607145   -2.7124715    687.74094  0.094573837  0.096459646            1 
  607000    1.1386271   -2.7343132    689.63864  0.094678562   0.09643859            3 
  608000    1.1099996   -2.7346612    690.38452  0.094625071  0.096417497            2 
  609000    1.1447862   -2.7309778      691.434  0.094613301  0.096394984            1 
  610000    1.1526774   -2.7355916    690.36775  0.094312534   0.09637431            1 
  611000    1.1427372   -2.7546606    690.47658  0.094173019  0.096352581            2 
  612000    1.1493124    -2.728714     694.7803   0.09460516  0.096332544            2 
  613000     1.151994   -2.6902579    695.71583  0.094578008  0.096310673            1 
  614000    1.1321408   -2.7108384    695.13429  0.094345044  0.096287614            2 
  615000    1.1486711   -2.7088176    695.34632  0.094220369  0.096262864            1 
  616000    1.1563926   -2.7137983    696.07187  0.094165567  0.096239322            2 
  617000    1.1605971   -2.7538154    693.98271  0.093730781  0.096215576            2 
  618000    1.1559161   -2.7279863     699.4718  0.094319283  0.096192067            3 
  619000    1.1670942   -2.7304604    695.91594  0.093688198  0.096168147            1 
  620000     1.130361   -2.7266176    700.00493  0.094086684  0.096143448            1 
  621000    1.1492854   -2.7409221     701.9465  0.094195719   0.09611884            1 
  622000    1.1405486   -2.7236464    699.94327  0.093775894  0.096093636            2 
  623000    1.1421979   -2.7453698    699.59274  0.093578483  0.096068299            1 
  624000     1.167069   -2.7094846    701.60086  0.093696696  0.096041757            2 
  625000    1.1656415   -2.7633052    699.66085  0.093288113  0.096015367            1 
  626000    1.1820128   -2.7319429    702.36003  0.093498406  0.095991531            1 
  627000    1.1776815   -2.7490461     703.9507    0.0935607  0.095967062            2 
  628000    1.1825273   -2.7264043    703.86195  0.093399941  0.095942639            1 
  629000    1.1750671   -2.7629781     703.4595  0.093198132  0.095918359            2 
  630000    1.1494176   -2.7627557     707.4202    0.0935741  0.095892853            2 
  631000     1.142731     -2.72585    707.97206  0.093498688  0.095868176            2 
  632000    1.1450062   -2.7410344    707.37361  0.093271836  0.095841976            2 
  633000    1.1161912   -2.7414973    711.14318  0.093620746  0.095817352            2 
  634000    1.1766467   -2.7214861    709.98999  0.093321502  0.095793419            3 
  635000    1.1535677   -2.7255157    713.90215  0.093687947  0.095769701            2 
  636000    1.1663979   -2.7400673    713.77265  0.093523671  0.095743668            1 
  637000     1.187407   -2.7462914    709.52963  0.092821772  0.095717037            2 
  638000    1.1566673   -2.7798178    713.85272  0.093240951   0.09569134            1 
  639000    1.1810747   -2.7222707     718.6372  0.093718987  0.095666424            2 
  640000     1.156793   -2.7293677    717.83204  0.093467713  0.095642145            2 
  641000    1.1627478   -2.7509933    712.56371  0.092636987  0.095615345            1 
  642000    1.1302485   -2.7613079     717.3263   0.09311089  0.095589619            2 
  643000    1.1506063   -2.7363697    718.35401  0.093099275     0.095564            3 
  644000    1.1648466   -2.7418376    724.89473  0.093801077  0.095538126       -1e+20 
  645000    1.1417433   -2.7117269    721.10603  0.093166154  0.095513623            2 
  646000    1.1616995   -2.7159745    725.50521  0.093589423  0.095489218            3 
  647000    1.1427595   -2.7449476    721.55832  0.092936414  0.095464979            1 
  648000    1.1764755   -2.7238173    726.65929  0.093448982   0.09544047            1 
  649000    1.1324497   -2.7267328    724.10303  0.092976763  0.095417498            1 
  650000     1.149568   -2.7303644    728.82545   0.09343916  0.095394218            1 
  651000    1.1325884   -2.7091746    729.88414  0.093431149  0.095371475            1 
  652000    1.1312323   -2.7408272    730.70309  0.093392522  0.095348507            2 
  653000    1.1602703    -2.734283    730.06226  0.093167721  0.095327187            1 
  654000     1.133741   -2.7465055    734.26055  0.093560213  0.095307103            1 
  655000     1.188795   -2.7500726    734.46207  0.093443012  0.095286501            1 
  656000    1.1448474   -2.7534969    736.91875  0.093612646  0.095265906            1 
  657000    1.1398875   -2.7482848    739.83248  0.093839736   0.09524494            3 
  658000     1.150875   -2.7441849    738.52111  0.093531042  0.095222118            1 
  659000    1.1434776   -2.7438317    734.30781  0.092856324  0.095198903            4 
  660000    1.1215274   -2.7573148    736.25553  0.092961556  0.095175801            2 
  661000    1.1298145   -2.7231133    737.30448  0.092953162  0.095153729            3 
  662000    1.1364335    -2.757224    741.86315    0.0933866  0.095132012            3 
  663000    1.1444614   -2.7564371    740.95368  0.093131433  0.095109247            1 
  664000    1.1490002   -2.7481596    739.49855  0.092808553  0.095085844            1 
  665000    1.1327913   -2.7514514    740.05958  0.092739295  0.095063707            4 
  666000    1.1513836   -2.7453026    745.31213  0.093257273  0.095040512            1 
  667000    1.1463793   -2.7510861    745.44272  0.093133773  0.095019961            2 
  668000     1.143724    -2.724671    750.81001  0.093663923  0.094998741            1 
  669000    1.1533983   -2.7712589    747.53998  0.093116589  0.094978273            2 
  670000    1.1491114   -2.7575103    748.53506  0.093101375  0.094957289            2 
  671000    1.1238987   -2.7329737     755.0042  0.093766046  0.094938587            3 
  672000    1.1609057    -2.735048    752.89182  0.093364561  0.094920716            2 
  673000    1.1496454   -2.7406052      755.569   0.09355733  0.094903074            2 
  674000    1.1416763   -2.7514902    755.17167  0.093369395  0.094883831            2 
  675000    1.1171598   -2.7495727    754.90074  0.093197622  0.094864702            2 
  676000    1.1387436   -2.7367614    755.87368  0.093179694   0.09484534            2 
  677000    1.1182916    -2.767299    757.05113  0.093186993  0.094826841            1 
  678000    1.1614306   -2.7305128    760.93733  0.093527204  0.094809049            2 
  679000    1.1420998   -2.7424527    761.38334    0.0934442  0.094789153            2 
  680000    1.1446784   -2.7140159    764.42967  0.093680106  0.094771411            2 
  681000    1.1536555   -2.7383825    763.48429  0.093426858  0.094752806            2 
  682000    1.1700005   -2.7623757    765.61014  0.093549626  0.094735538            2 
  683000     1.161789   -2.7700512    764.02448   0.09321919  0.094718209            1 
  684000    1.1473036   -2.7806191    767.42154  0.093496776  0.094702433            2 
  685000    1.1337526    -2.766738    765.29172  0.093101183  0.094686363            1 
  686000     1.143888   -2.7445183     769.2777  0.093449672   0.09467051            1 
  687000    1.1358688   -2.7467359    772.08562  0.093654247  0.094653849            1 
  688000     1.122163   -2.7567007    771.29397  0.093422234  0.094637837            1 
  689000    1.1296381   -2.7432888    773.09585  0.093504578  0.094620068            2 
  690000     1.126071   -2.7422177    771.31774  0.093154316  0.094602553            2 
  691000    1.1377688   -2.7387249    772.97457  0.093219316  0.094585875            2 
  692000    1.1444419   -2.7415804    776.89664  0.093556917  0.094569846            1 
  693000    1.1202416      -2.7378    777.62698  0.093509738  0.094553501            7 
  694000    1.1279374   -2.7462085    776.75555  0.093270359   0.09453677            2 
  695000    1.1552723   -2.7684185    778.10765  0.093298279  0.094519713            5 
  696000    1.1645886   -2.7413398      781.636  0.093586686  0.094503334            1 
  697000    1.1539802   -2.7324571    783.68732  0.093697671  0.094486501            3 
  698000      1.13178   -2.7374224    780.13123  0.093138876  0.094469747            1 
  699000    1.1402739   -2.7474259    784.92255  0.093576842  0.094453158            4 
  700000    1.1235596   -2.7678503    780.62377  0.092931401  0.094436719            1 
  701000    1.1301943   -2.7531289    783.06352  0.093088863   0.09442117            2 
  702000     1.131111   -2.7429915    787.22632  0.093450418   0.09440617            1 
  703000    1.1299808   -2.7560444    788.14551  0.093426447  0.094391886            2 
  704000    1.1438334   -2.7494158    787.98021  0.093274173  0.094377753            2 
  705000    1.1372057   -2.7483354    791.75424  0.093587972  0.094363421            1 
  706000    1.1592297   -2.7547635    786.17709  0.092797107  0.094349493            1 
  707000    1.1708972   -2.7228887    796.29968   0.09385899  0.094336189            2 
  708000    1.1357856   -2.7764202    793.14364  0.093354948  0.094321754            1 
  709000     1.127409    -2.733954    794.51652   0.09338464  0.094306646            3 
  710000    1.1366909   -2.7509072    796.20752  0.093451587  0.094292822            3 
  711000    1.1211439   -2.7597615    797.61478  0.093485089  0.094278385            1 
  712000    1.1406555   -2.7471183    800.16086  0.093651786   0.09426447            2 
  713000    1.1346463   -2.7488659    797.08386  0.093160806  0.094250583            1 
  714000    1.1400424   -2.7674883    796.42813  0.092953797  0.094235372            2 
  715000    1.1276006   -2.7346149    800.28656  0.093273492  0.094221134            1 
  716000    1.1385871   -2.7489009    803.21367    0.0934839  0.094207293            2 
  717000    1.1383418   -2.7647019    804.86978     0.093546  0.094193249            2 
  718000    1.1247905    -2.762162    801.42266   0.09301563  0.094178443            2 
  719000    1.1438344   -2.7609619    805.29824  0.093335447  0.094164461            6 
  720000     1.133897   -2.7532065    807.22258   0.09342854  0.094150674            1 
  721000    1.1277539   -2.7564144    808.00245  0.093389095  0.094136837            3 
  722000    1.1399867   -2.7350164     805.6194  0.092984695  0.094122538            2 
  723000    1.1424089   -2.7349751    809.57523  0.093312037  0.094109129            2 
  724000    1.1307418   -2.7899281    807.32454  0.092924095  0.094094862            2 
  725000     1.157435   -2.7691554    807.78413  0.092848751  0.094081481            2 
  726000    1.1479383   -2.7619972    813.67838  0.093397426  0.094066812            1 
  727000    1.1111566   -2.7450163    814.29824  0.093340009  0.094052879            2 
  728000    1.1284571   -2.7545822    809.27274  0.092636531  0.094038266            2 
  729000    1.1068963   -2.7463605    812.76055  0.092908156  0.094022098            1 
  730000    1.1218407   -2.7896037    814.52239  0.092982008  0.094006813            1 
  731000    1.1390419   -2.7414558    816.42426  0.093071621  0.093992113            2 
  732000    1.1400551   -2.7806994    819.52117  0.093297036  0.093977205            2 
  733000    1.1029725   -2.7406472    818.16892  0.093016021  0.093963454            2 
  734000    1.1108904   -2.7568961    818.03018  0.092873544  0.093948847            2 
  735000    1.1365001   -2.7676855    821.06672  0.093091465  0.093934031            3 
  736000    1.1277973   -2.7744099    818.24036  0.092644969  0.093919233            2 
  737000    1.1343407   -2.7460998    819.72711  0.092687371  0.093904235            3 
  738000    1.1431964   -2.7727849    822.72268  0.092900032  0.093888959            4 
  739000    1.1244167   -2.7541638    822.25483  0.092721564  0.093874351            5 
  740000     1.129356   -2.7620944    826.90872  0.093120351  0.093859565            2 
  741000     1.146103   -2.7424205     824.6276  0.092738147  0.093843658            1 
  742000    1.1393967   -2.7529333    829.43874  0.093153498  0.093829336            2 
  743000    1.1593012   -2.7463468    826.16403  0.092660838  0.093814077            1 
  744000    1.1206569   -2.7294235    831.63909   0.09314954  0.093800581            1 
  745000    1.1087971   -2.7741271    827.74238  0.092588633  0.093784255            3 
  746000    1.1488702   -2.7477886    830.84565  0.092811176  0.093768213            1 
  747000    1.1397874   -2.7844386    831.56076  0.092766707  0.093752412            2 
  748000    1.1267539   -2.7658499    834.14446  0.092930532  0.093736595            1 
  749000    1.1394944    -2.755759    831.71889  0.092536592  0.093720374            1 
  750000    1.1309901   -2.7908272    835.54217  0.092838019  0.093704821            1 
  751000    1.1206209   -2.7573296    835.01697  0.092656122  0.093689083            4 
  752000    1.1230369   -2.7704364    833.72914  0.092390197  0.093673288            1 
  753000    1.1296742   -2.7650726    833.57958  0.092250949  0.093657322            1 
  754000    1.1087699   -2.7615061    837.96917  0.092613746  0.093640866            4 
  755000    1.1287775   -2.7529285    840.00136  0.092715382  0.093625607            3 
  756000    1.1195582   -2.7120146    837.32055  0.092297239  0.093609251            2 
  757000    1.1354849   -2.7117648    844.61528  0.092978344  0.093593168            1 
  758000    1.1265027   -2.7607192     842.5827  0.092632223   0.09357767            2 
  759000    1.0946878   -2.7581297    836.87283  0.091883271  0.093560566            2 
  760000     1.111915   -2.7902399    839.70601  0.092073027  0.093542264            1 
  761000    1.1205285    -2.776736    838.82703  0.091855786  0.093522644            2 
  762000    1.1398197    -2.737236    843.84012  0.092283478  0.093502829            2 
  763000    1.1318904   -2.7437575    844.82073   0.09226963  0.093483931            1 
  764000    1.1399598   -2.7626288    841.18138  0.091751895  0.093464038            5 
  765000    1.1234677   -2.7543143    849.15957  0.092501042  0.093444438            3 
  766000    1.1296359   -2.7722626    844.35343  0.091857422  0.093425895            1 
  767000    1.1422906   -2.7641685    847.55739  0.092085765  0.093406835            3 
  768000    1.1266689   -2.7723942    845.78766  0.091773835  0.093387609            1 
  769000    1.1279717   -2.7682045    849.87235  0.092097134  0.093368928            2 
  770000    1.1167577   -2.7674003    848.46035  0.091824714  0.093350335            2 
  771000    1.1728835   -2.7646586    848.46249  0.091705846  0.093330654            1 
  772000    1.1302649   -2.7719762    852.22204   0.09199288  0.093310383            1 
  773000    1.1024382   -2.7791847    850.43053  0.091680739   0.09329113            4 
  774000     1.122511   -2.7603712    853.88627  0.091934353  0.093272106            2 
  775000    1.1311204    -2.748615    851.68749    0.0915793  0.093252507            3 
  776000    1.1301124   -2.7455939    854.14241  0.091724915  0.093232468            2 
  777000    1.1177876   -2.7464791    857.11327   0.09192549  0.093213128            4 
  778000    1.1112007   -2.7266287    860.03073   0.09211983  0.093194529            3 
  779000    1.1269951   -2.7601572    860.42996  0.092044283  0.093175981            2 
  780000    1.1086854   -2.7483094    860.26966  0.091909152  0.093157664            1 
  781000    1.1456277   -2.7429694     862.3817  0.092016826    0.0931382            1 
  782000    1.1373369    -2.796866     861.6839  0.091824798   0.09312094            1 
  783000     1.131759   -2.7951294    859.68509  0.091494795  0.093101841            1 
  784000    1.1325865   -2.7576234    862.70006  0.091698561  0.093083397            5 
  785000    1.1290093   -2.7759433    865.01683  0.091827689  0.093065751            2 
  786000    1.1230472    -2.786944    867.42683  0.091966373  0.093046597            2 
  787000    1.1572808   -2.8025183    864.04329  0.091491242  0.093028589            1 
  788000    1.1352521   -2.7625429    865.28437  0.091506384  0.093009423            2 
  789000    1.1274043   -2.7863449    863.46798  0.091198562  0.092989821            4 
  790000    1.1327842   -2.7646904    865.50381  0.091297871  0.092970483            1 
  791000    1.1124207   -2.7546011    873.15134  0.091988131  0.092950083            1 
  792000    1.1375506   -2.7405911    873.12625  0.091869344  0.092931178            2 
  793000    1.1347677   -2.7652035     868.9085  0.091310266  0.092912359            2 
  794000    1.1191614   -2.7462182    878.45805  0.092197529  0.092894695            6 
  795000    1.1200728   -2.7754895    874.66341  0.091683796  0.092875898            1 
  796000    1.1206255    -2.749252    870.13973  0.091095031  0.092856271            3 
  797000    1.1057342   -2.7665706    873.00172  0.091279979  0.092836751            3 
  798000    1.1368235   -2.7545357    877.65161  0.091651171   0.09281755            2 
  799000    1.1355908   -2.7710509    876.55734  0.091422334  0.092798209            1 
  800000    1.1007463   -2.7676907    876.14714  0.091265327  0.092779477            1 
  801000    1.1402346   -2.7726131    880.17443  0.091570373  0.092762148            2 
  802000    1.1117434   -2.8045854    881.02544  0.091544622  0.092743018            2 
  803000    1.1159282   -2.7857883    882.73237  0.091607759  0.092724684            5 
  804000    1.1095363    -2.782867    885.48559  0.091779187  0.092706934            5 
  805000    1.1042576    -2.747399    885.66066  0.091683298  0.092688989            3 
  806000    1.1071427    -2.771278    882.37207  0.091229536  0.092671029            2 
  807000    1.1326923   -2.7654272    885.36439  0.091425484   0.09265319            3 
  808000    1.1052963   -2.7834539    884.44492  0.091217504   0.09263582            2 
  809000    1.1360705   -2.7662084    887.56695  0.091426344   0.09261863            1 
  810000    1.1023766   -2.7425744    894.56684  0.092033626  0.092602125            3 
  811000    1.1141793   -2.7837625    891.03088   0.09155681  0.092586064            1 
  812000     1.124868   -2.7605497    896.31038  0.091985876  0.092570535            2 
  813000    1.0969112   -2.7540256    896.21021  0.091862465  0.092555614            1 
  814000    1.1014439   -2.7690435    893.73282  0.091495989   0.09253925            3 
  815000    1.1307169   -2.7468702    897.01382  0.091719204  0.092523494            1 
  816000    1.1113741   -2.7533531    897.09901  0.091615503  0.092508722            3 
  817000    1.1353981   -2.7741495    902.33979  0.092037922  0.092493515            2 
  818000    1.1079877   -2.7887788    901.46069  0.091835848  0.092479629            1 
  819000    1.1093916   -2.7802927    898.91724  0.091464921   0.09246569            1 
  820000     1.139085   -2.7752278    898.33196  0.091293898  0.092451243            2 
  821000    1.1257994   -2.7751933    903.01756  0.091658299  0.092437705            2 
  822000    1.1297941    -2.795486    902.58433  0.091502872   0.09242299            2 
  823000      1.10652   -2.7578336    907.82862  0.091922704  0.092407985            1 
  824000    1.1222991   -2.7651688    908.64183  0.091893389  0.092394196            1 
  825000    1.1357239   -2.7791855    904.08704  0.091321924  0.092379352            2 
  826000    1.1142973   -2.8090327    906.57663  0.091462533  0.092365527            2 
  827000    1.1035553   -2.7471622    906.99436  0.091394031  0.092350596            2 
  828000    1.1170377   -2.7634275    910.36448  0.091622834  0.092336494            1 
  829000    1.1187245    -2.774204    913.11623  0.091788925  0.092321572            2 
  830000    1.1180239   -2.7874633    909.49381  0.091314639  0.092305989            1 
  831000    1.1151622   -2.7580919    911.44702  0.091400624  0.092290325            1 
  832000    1.1135646   -2.7608545    909.73343  0.091119133  0.092275389            1 
  833000    1.1086098    -2.747628    913.93836  0.091430408  0.092260473            3 
  834000    1.1284596   -2.7424059    919.06426   0.09183296  0.092245497            1 
  835000    1.0979112   -2.7970607     917.7616  0.091592974  0.092230123            3 
  836000    1.1412978   -2.7752579    916.79287  0.091386849  0.092213554            2 
  837000    1.1102196   -2.7852545    918.34796  0.091432493  0.092197712            2 
  838000    1.1042663   -2.7711417    917.49016  0.091238083  0.092182495            1 
  839000     1.145209   -2.7885336     917.3406  0.091114482  0.092168175            1 
  840000    1.1277565   -2.8172382    918.33084   0.09110425  0.092152775            2 
  841000    1.0972379   -2.8070711    915.41708  0.090707201  0.092137165            4 
  842000    1.1095501   -2.7771993    920.49809  0.091102345  0.092120368            2 
  843000    1.1409089   -2.7916836    924.83511  0.091423004  0.092104822            2 
  844000    1.1284838   -2.7473506    922.20473   0.09105497  0.092088963            2 
  845000    1.1248923   -2.7685837    927.35656  0.091455282  0.092073649            2 
  846000    1.1336039   -2.7906604    925.09483  0.091124392  0.092059321            2 
  847000    1.0960487   -2.7832532    928.94967  0.091396072  0.092043797            1 
  848000    1.0926964   -2.7705652    929.81956  0.091373777  0.092028124            2 
  849000     1.132209    -2.783576    931.88112  0.091468505  0.092013207            2 
  850000    1.1306418   -2.7648968    931.37046  0.091310829  0.091998624            3 
  851000    1.1119566   -2.7746819    934.78526  0.091537922  0.091983679            2 
  852000    1.1068434   -2.7877898    932.37444  0.091194684  0.091968076            3 
  853000    1.1254963    -2.792949    932.34647   0.09108504  0.091952451            2 
  854000    1.1340613   -2.7670537    935.92062  0.091327149  0.091937737            2 
  855000     1.120424   -2.7689386    934.92959  0.091123742  0.091922839            1 
  856000    1.1024493   -2.7814648    942.12829  0.091718097  0.091908256            2 
  857000    1.0910568   -2.7655617    934.38111   0.09085775  0.091893022            1 
  858000    1.1114482    -2.761215    936.60195  0.090967555  0.091876908            2 
  859000    1.1296661   -2.7993462    936.66854  0.090868116  0.091860653            2 
  860000     1.119991   -2.7583762    936.85703   0.09078072  0.091844527            1 
  861000    1.1190352   -2.7779346    940.06519   0.09098579  0.091828506            2 
  862000    1.0995685   -2.7845191     938.4156  0.090720766   0.09181187            1 
  863000    1.1296134   -2.7859222    939.16494  0.090688001  0.091795507            3 
  864000    1.1206251   -2.7975031    944.20437  0.091069094    0.0917791            3 
  865000    1.0944005   -2.7851208    942.59052  0.090808335  0.091763462            1 
  866000    1.1020507   -2.7766603    949.50112  0.091368468  0.091749703            1 
  867000    1.0982204   -2.7792756    947.82973  0.091102435  0.091734494            2 
  868000    1.1223109   -2.7765355    948.56641  0.091068204  0.091720726            2 
  869000    1.1456722   -2.7781624    950.54761  0.091153396  0.091705953            3 
  870000    1.1344488   -2.7560116    950.13253  0.091008863  0.091691953            2 
  871000    1.1329958   -2.7960972    951.27533  0.091013713  0.091676894            1 
  872000    1.1089361   -2.7798832    953.21761  0.091094955  0.091662838            3 
  873000    1.1085703   -2.7447121     955.1263  0.091172805  0.091648115            3 
  874000    1.1143852   -2.7999047    950.11471  0.090590647  0.091632913            2 
  875000    1.1088484   -2.7681089     958.2996  0.091266628  0.091618596            2 
  876000    1.1210628   -2.7767263    955.55063  0.090900935   0.09160403            1 
  877000    1.1285904    -2.784144    962.92206  0.091497725  0.091590443            2 
  878000    1.1084956   -2.7853367    957.60217  0.090888589  0.091576642            2 
  879000    1.1264273   -2.8016371    957.82404  0.090806223  0.091561838            2 
  880000    1.0947317   -2.7503813    958.40214  0.090757778  0.091547688            2 
  881000    1.1012657   -2.7997991    957.95744  0.090612697  0.091533254            2 
  882000    1.1052696   -2.7888764    962.98178  0.090984673  0.091519383            2 
  883000    1.0814096   -2.7705014    962.81976  0.090866342  0.091505188            2 
  884000    1.0998439   -2.7869924    962.48889  0.090732361  0.091491106            3 
  885000     1.109517    -2.789231    969.69141  0.091308042  0.091477333            2 
  886000    1.1143514   -2.7505534    969.28273  0.091166547   0.09146217            1 
  887000    1.1133923   -2.8213233    958.98406   0.09009621  0.091446275            2 
  888000    1.0928556   -2.8017798    970.83666  0.091107044  0.091430559            2 
  889000    1.1082668   -2.7702748    967.50586  0.090692338  0.091416273            2 
  890000    1.1053734   -2.7778607    968.56413  0.090689526  0.091403515            1 
  891000    1.1165985   -2.7690497    975.18979  0.091207426  0.091390274            2 
  892000    1.1102192   -2.7897828    971.55825  0.090765905  0.091376363            2 
  893000    1.1168041   -2.7840942     968.6131  0.090389427  0.091362106            2 
  894000    1.0936394   -2.7826407    972.66968  0.090666451  0.091348082            1 
  895000    1.1075777   -2.8153649     974.4461  0.090730549  0.091333439            3 
  896000     1.098559   -2.7809434    974.96762  0.090677792  0.091318613            1 
  897000    1.1136603   -2.7783245    974.36393  0.090520618  0.091303596            3 
  898000    1.1134549   -2.7825365     975.3846  0.090514532  0.091288447            2 
  899000     1.101501   -2.7733706    977.26279  0.090587949  0.091274179            2 
  900000    1.1069763   -2.7621296     979.0705  0.090654676  0.091259312            2 
  901000    1.1169188   -2.7773619     973.7945  0.090066084  0.091243515            1 
  902000    1.0832878   -2.7830949    978.50636  0.090401548  0.091228498            3 
  903000    1.1166751   -2.7713023    981.34316   0.09056323  0.091212853            2 
  904000    1.1001423   -2.7920853     980.1558  0.090353595  0.091197019            2 
  905000    1.1173906   -2.7519136     983.0155  0.090517081  0.091182725            1 
  906000    1.0820275   -2.7817202    984.62422  0.090565141  0.091168258            1 
  907000    1.0962937   -2.7722363    981.19261  0.090150001  0.091153362            4 
  908000    1.0829013    -2.803801    986.29766  0.090519242  0.091138175            3 
  909000    1.1311386    -2.784742    988.19038  0.090593177  0.091122607            3 
  910000    1.0909917    -2.786281     986.6986  0.090357015  0.091107004            1 
  911000    1.0867118   -2.7647966    988.62202  0.090433774  0.091091264            1 
  912000    1.0990028   -2.7822992    987.72135  0.090252316  0.091075652            3 
  913000    1.1120375     -2.80479     987.6864  0.090150274  0.091059618            3 
  914000    1.0913467   -2.7724476    991.34253  0.090384986  0.091043895            1 
  915000    1.0995497   -2.8025933     988.7226  0.090047596  0.091027968            2 
  916000    1.0756725   -2.8150744    988.36102  0.089916395  0.091011517            1 
  917000     1.118257    -2.780203    996.40956   0.09054976  0.090995936            2 
  918000    1.0872579   -2.7830385    1001.2741  0.090892711  0.090981932            1 
  919000    1.0945428   -2.8199984    991.37407  0.089896089  0.090967178            1 
  920000    1.1047711   -2.7840255    998.64182  0.090456686  0.090953026            3 
  921000    1.1118437   -2.7888244    996.20652  0.090138121  0.090937534            1 
  922000    1.1006841   -2.8002589    999.62864   0.09034966  0.090922365            1 
  923000     1.088977   -2.8030609    999.57634  0.090247051  0.090908487            2 
  924000    1.0962278   -2.7891917    999.93433  0.090181668  0.090893092            2 
  925000    1.0869357   -2.7741116    1000.3892  0.090125152  0.090879049            4 
  926000    1.1119192   -2.7993666    999.79311  0.089974182  0.090864081            2 
  927000    1.0970685   -2.8106615    1002.9565  0.090161501  0.090849294            2 
  928000    1.1059596   -2.7654679    1003.4547  0.090109082  0.090834382            2 
  929000    1.0889404   -2.7869483    1005.5359  0.090198768  0.090819947            1 
  930000    1.1141655   -2.7964342    1006.8188  0.090216739  0.090805861            2 
  931000    1.0872518   -2.8111208    1003.3806  0.089812086  0.090790459            4 
  932000    1.1279203   -2.8123266    1008.0442  0.090132704  0.090775667            1 
  933000    1.0844637   -2.7803671    1014.4108  0.090604752  0.090761192            1 
  934000     1.126759   -2.8153921    1008.3791  0.089969586  0.090746403            1 
  935000    1.0969717   -2.7999305    1012.7982  0.090267223  0.090731002            2 
  936000    1.1049816    -2.796131    1011.3215  0.090039304  0.090715882            2 
  937000    1.0943837   -2.7859094    1013.1088  0.090102167  0.090700353            2 
  938000    1.1117201   -2.8140021    1016.0278  0.090265442  0.090685163            1 
  939000    1.0999343   -2.8152454    1013.9689  0.089986594  0.090669873            2 
  940000    1.0869688   -2.8137653    1012.1597  0.089730473  0.090653498            6 
  941000     1.093303   -2.7998992    1015.4637  0.089927711  0.090639041            2 
  942000    1.0695986   -2.7840459    1019.1728  0.090160367  0.090623563            4 
  943000    1.0996367    -2.798067      1020.65    0.0901953  0.090609155            2 
  944000    1.1101751    -2.813135     1020.785  0.090111674  0.090594896            2 
  945000    1.0970475   -2.8078761    1020.2569  0.089969748      0.09058            2 
  946000    1.1086833   -2.7752764    1028.5516  0.090605316  0.090566145            1 
  947000    1.1210385   -2.7818542    1025.2567  0.090219699  0.090552189            2 
  948000     1.096191   -2.8177853    1024.5393  0.090061473  0.090538925            6 
  949000     1.113938   -2.8033373    1028.4941  0.090313845  0.090524596            2 
  950000    1.0750456    -2.821866    1024.9257  0.089905767  0.090510797            1 
  951000    1.1109945   -2.7619431    1028.8411   0.09015432  0.090496794            2 
  952000    1.0953982    -2.790981    1032.3696  0.090368491  0.090483795            3 
  953000    1.1055845   -2.7863225    1027.8432  0.089877861  0.090469383            1 
  954000    1.0921807   -2.7990881    1027.1493  0.089723031   0.09045575            3 
  955000    1.0915279   -2.7880186    1033.7698  0.090206792  0.090442632            2 
  956000    1.1082113   -2.8059303    1029.9979  0.089783639  0.090429491            3 
  957000    1.1110328   -2.7878528    1032.7737  0.089931528  0.090416096            2 
  958000    1.0829317   -2.8272028    1032.8889  0.089847681  0.090401846            2 
  959000    1.0928975   -2.8290342    1036.0133  0.090025484  0.090388567            2 
  960000    1.0808913   -2.8231878    1033.1536  0.089683474  0.090375417            2 
  961000    1.1116944   -2.7841265    1036.5368  0.089883526  0.090362086            3 
  962000    1.1082008   -2.8204217    1038.2315  0.089936889  0.090349144            2 
  963000    1.1119904   -2.7875722    1042.9877  0.090255082  0.090337574            4 
  964000    1.0650921   -2.8350173    1042.5127  0.090120396  0.090324755            1 
  965000    1.0907957   -2.7979514    1042.5789  0.090032722   0.09031269            2 
  966000    1.1011009   -2.7954981     1040.807  0.089786667  0.090299961            1 
  967000    1.1104358   -2.8085378    1049.3313  0.090428415  0.090287636            2 
  968000    1.1105901   -2.8287755    1043.4516  0.089828821  0.090274768            4 
  969000    1.0913131   -2.8103188     1046.939  0.090036031  0.090261817            1 
  970000     1.103806   -2.7721954    1047.3941  0.089982314  0.090249041            4 
  971000    1.0907978   -2.7921248    1046.3783  0.089802466   0.09023641            2 
  972000    1.1017775   -2.8237786    1046.3142  0.089704576  0.090223577            3 
  973000    1.0731782   -2.8101005    1054.1156  0.090280541  0.090210359            4 
  974000    1.1051741   -2.7781634    1051.2301  0.089940973  0.090196326            1 
  975000     1.114651   -2.7933397    1059.0572  0.090517707  0.090183429            2 
  976000    1.0970771   -2.7947839    1045.7193   0.08928614  0.090171117            1 
  977000    1.0950513   -2.7959025    1053.4258  0.089852084  0.090158357            3 
  978000    1.0808366   -2.7989685    1055.6923   0.08995333  0.090145822            2 
  979000    1.0869725   -2.8070409    1055.5875  0.089852532  0.090132886            2 
  980000    1.0855757   -2.8096828     1056.321  0.089823213  0.090120175            2 
  981000    1.0902867   -2.7665498     1059.318  0.089986241  0.090107117            9 
  982000     1.077581   -2.8308952    1056.1605  0.089626659  0.090094801            2 
  983000    1.1063761   -2.8216556    1052.0343  0.089185682  0.090082257            1 
  984000     1.085914   -2.7945718    1060.5528  0.089816461  0.090068318            2 
  985000     1.118755   -2.8003001    1058.5025   0.08955182  0.090055708            2 
  986000    1.0968689   -2.7947084    1062.8657  0.089829755  0.090042817            3 
  987000    1.0981625   -2.8239953    1062.6433  0.089719966  0.090029987            2 
  988000    1.0992663   -2.7976819    1061.0248  0.089492644  0.090017161            2 
  989000    1.0793217   -2.8133372    1065.8795  0.089811214   0.09000323            1 
  990000    1.0968537   -2.8149872     1062.197  0.089410525  0.089989603            3 
  991000    1.0928093    -2.783384      1064.75  0.089534978  0.089976312            1 
  992000    1.0837166   -2.8061862    1067.6569  0.089688918  0.089962604            2 
  993000    1.1066005   -2.7745332    1068.4256  0.089663108  0.089948932            1 
  994000    1.0720898   -2.7936389    1071.2624  0.089810734  0.089935293            2 
  995000    1.0825961   -2.7968008    1069.4978  0.089572676  0.089921597            2 
  996000    1.0817155   -2.7868547    1071.3457  0.089637354  0.089907285            2 
  997000    1.0915656   -2.8194594    1066.2124  0.089118391  0.089894074            2 
  998000    1.0762976   -2.7877236    1071.6738  0.089485117  0.089880035            3 
  999000    1.1025691   -2.8167799    1071.6493  0.089393501  0.089865254            4 
 1000000    1.0986687    -2.785119    1071.1202  0.089260014  0.089850728            1 
 1001000    1.1182276   -2.8022649    1071.2053  0.089177934  0.089835988            1 
 1002000    1.0959062   -2.8247544    1073.8523  0.089309076   0.08982072            1 
 1003000    1.0973495   -2.8078007    1070.1677  0.088913903  0.089806328            2 
 1004000    1.0843934   -2.8241207    1070.9305  0.088888652  0.089791111            1 
 1005000    1.0742053   -2.7878993    1073.0639   0.08897711  0.089775958            2 
 1006000    1.0940449   -2.8124133    1074.8597  0.089037418  0.089759604            2 
 1007000    1.0879069   -2.8287443    1074.3198  0.088904318  0.089744297            2 
 1008000    1.1127237   -2.7985651    1076.6333  0.089007384  0.089729193            3 
 1009000    1.0834135   -2.8078942    1080.5856   0.08924559  0.089715417            2 
 1010000    1.0958919    -2.809954    1075.4297   0.08873182  0.089700543            1 
 1011000    1.0766164   -2.8183251    1080.2699  0.089043019  0.089685989            2 
 1012000    1.0944735   -2.8081139    1079.5292  0.088894036  0.089670766            2 
 1013000    1.0618687   -2.8117213    1081.3177  0.088953411  0.089656285            4 
 1014000    1.0947353   -2.8292559    1088.1296  0.089425508  0.089642571            2 
 1015000    1.0775877   -2.8031198    1085.7034  0.089138212  0.089629024            1 
 1016000    1.0867503   -2.8155423    1087.8203  0.089224102  0.089613592            2 
 1017000    1.0779299   -2.7898945    1086.8074  0.089053377  0.089598981            4 
 1018000    1.0957289   -2.8329988     1086.868  0.088970855  0.089584122            2 
 1019000    1.0755558   -2.8116377    1090.8647  0.089210396  0.089570562            1 
 1020000    1.1070775   -2.8112594    1092.5638  0.089261745  0.089556892            2 
 1021000    1.0961563    -2.823987     1093.459  0.089247389  0.089543039            3 
 1022000    1.1046955   -2.8040464    1092.9329  0.089117166  0.089529099            2 
 1023000    1.0994959   -2.8200803     1088.781  0.088691836  0.089515053            1 
 1024000    1.0944559   -2.8398369     1087.216  0.088477861  0.089500171            2 
 1025000    1.0745453   -2.8166575    1093.8817  0.088933469   0.08948621            2 
 1026000    1.1153026   -2.7937876    1098.8671  0.089251713   0.08947223            1 
 1027000    1.0932421   -2.8299556    1094.9635  0.088848063  0.089458008            2 
 1028000    1.0974396   -2.7842096    1098.4503  0.089044287  0.089444109            2 
 1029000    1.0969908   -2.8124483    1093.2502  0.088536624  0.089429674            3 
 1030000    1.0761538   -2.7946114    1098.9834  0.088914515  0.089415906            1 
 1031000    1.0853514   -2.8253507    1101.2953  0.089015141  0.089401661            1 
 1032000    1.0812882   -2.8442742       1096.2  0.088517439  0.089387324            2 
 1033000     1.085026   -2.8326535     1102.454  0.088936267  0.089373733            3 
 1034000    1.0720691   -2.7769179    1111.5269  0.089581471  0.089360549            1 
 1035000    1.0831039   -2.8174488     1104.258  0.088909659  0.089347144            1 
 1036000    1.0947639   -2.7954491    1101.8679  0.088631591  0.089333194            1 
 1037000    1.0820419   -2.8121714    1101.9344  0.088551464  0.089319565            3 
 1038000    1.1080007   -2.8251014    1104.8657  0.088701485  0.089305382            2 
 1039000    1.0862731   -2.8168348    1104.4221  0.088580534  0.089291248            4 
 1040000    1.0960105   -2.8180811    1107.3285  0.088728248  0.089277496            3 
 1041000    1.0920868   -2.8320795    1105.7847  0.088519425   0.08926351            3 
 1042000    1.0944279   -2.7957983    1109.4222  0.088725382  0.089249008            1 
 1043000     1.092432   -2.8567539    1106.6332   0.08841748  0.089234398            2 
 1044000    1.0942323   -2.8138494    1111.2018  0.088697466  0.089219103            1 
 1045000    1.0846842   -2.8177458    1112.8587   0.08874471  0.089204084            2 
 1046000    1.1107215   -2.8196115    1112.7214  0.088648931  0.089188614            2 
 1047000    1.0906767   -2.8213388    1115.9034  0.088817525  0.089173432            2 
 1048000    1.0873713   -2.8034723    1114.5093  0.088621923  0.089157879            2 
 1049000    1.0708561   -2.8224984    1113.9369  0.088491969  0.089143376            1 
 1050000    1.0818824    -2.807917    1113.0523  0.088337484  0.089128236            3 
 1051000    1.0731423   -2.8213346    1117.7004  0.088621983  0.089114121            5 
 1052000    1.1132867   -2.8052756    1115.5092  0.088364162  0.089100093            2 
 1053000    1.0860253   -2.8203475    1117.2992  0.088421902  0.089085081            3 
 1054000    1.0745806   -2.8384592     1119.706  0.088528308   0.08907065            2 
 1055000     1.075767   -2.8088004      1121.84  0.088612955  0.089055797            2 
 1056000     1.084622   -2.7818555    1120.2412  0.088402872    0.0890417            1 
 1057000    1.0836598   -2.8046396    1123.1134  0.088545678  0.089027427            1 
 1058000    1.0785344   -2.8508076     1120.464  0.088253308  0.089012483            1 
 1059000    1.0857201   -2.7719858    1124.8039   0.08851148  0.088997974            2 
 1060000    1.0926166   -2.8360028     1123.397  0.088317372  0.088983459            2 
 1061000    1.0804467   -2.8190641    1128.9647  0.088671431  0.088969428            2 
 1062000     1.080432   -2.8253343    1132.2131  0.088842832  0.088955986            2 
 1063000    1.0581858   -2.8326195    1130.9535  0.088660512  0.088942824            1 
 1064000    1.0722779   -2.8400604    1128.0829  0.088352359  0.088928911            1 
 1065000    1.0862857   -2.8301742    1125.0681  0.088033501  0.088914987            2 
 1066000    1.0655493   -2.8007613    1132.9224  0.088564912  0.088901688            2 
 1067000    1.0879798   -2.8166824    1129.1097  0.088184141  0.088888408            2 
 1068000    1.0750427   -2.8177476    1135.4123  0.088593341  0.088874909            2 
 1069000    1.0836136   -2.8117878    1137.1732   0.08864774  0.088862076            2 
 1070000    1.0818564   -2.8195742      1140.59     0.088831  0.088850181            1 
 1071000    1.0759595   -2.8506326    1134.6615  0.088286761  0.088837165            6 
 1072000     1.105295   -2.8291886    1140.9511  0.088693342  0.088824393            2 
 1073000    1.1020176   -2.8352208    1140.6785  0.088589511  0.088811195            1 
 1074000    1.0888624   -2.8213798    1140.0223  0.088456104  0.088798839            2 
 1075000    1.0772844   -2.8289107    1146.4977  0.088875793  0.088785772            4 
 1076000    1.0842496    -2.839027    1142.7271  0.088501171  0.088773353            1 
 1077000    1.0864771   -2.8232731    1146.5261  0.088712942  0.088761032            4 
 1078000    1.0843429   -2.8109105    1146.9651  0.088664586  0.088749051            3 
 1079000    1.0826676   -2.7863269    1152.2042  0.088987037  0.088737385            2 
 1080000    1.0742835   -2.8218089     1154.555  0.089086035  0.088725335            1 
 1081000    1.0626962   -2.8175181    1151.0285  0.088731768  0.088713233            2 
 1082000    1.0878602   -2.8005994    1148.8833  0.088484544  0.088700882            1 
 1083000    1.0691347    -2.820617     1157.316  0.089051711  0.088689383            2 
 1084000    1.0648199   -2.8267665    1152.0024  0.088561067  0.088678402            2 
 1085000    1.0834254    -2.829631      1157.12  0.088872503  0.088666609            1 
 1086000    1.0647177   -2.8353293     1154.157  0.088563307  0.088654194            1 
 1087000    1.0911715   -2.7971482    1152.5448  0.088358232  0.088641793            3 
 1088000    1.0746295   -2.7870111    1158.6415  0.088743988  0.088629463            2 
 1089000     1.055736   -2.8492416     1153.997  0.088307088  0.088616987            3 
 1090000    1.0690764   -2.8092435    1156.0379  0.088382104  0.088604289            1 
 1091000    1.0787124   -2.8052053    1155.2848  0.088243572  0.088591227            1 
 1092000    1.0795872   -2.7959562    1160.1441  0.088533587  0.088578463            1 
 1093000    1.0867328   -2.8060654    1153.5151  0.087947173  0.088565347            2 
 1094000    1.0776142   -2.8451066    1157.2494  0.088151236  0.088551313            2 
 1095000    1.0950157   -2.8291966    1158.4608  0.088162926  0.088537492            1 
 1096000    1.0548709   -2.8637406    1159.2547  0.088142844  0.088524666            1 
 1097000    1.0843043   -2.8179742    1165.7301  0.088554395  0.088511742            3 
 1098000    1.1041112   -2.8361712    1166.3856  0.088523495  0.088498055            1 
 1099000    1.0841983   -2.8337196    1166.7356  0.088469487   0.08848518            2 
 1100000    1.0748346   -2.7950459    1165.4788  0.088293848  0.088472743            2 
 1101000    1.0779516    -2.862087    1165.8017  0.088238094  0.088460136            1 
 1102000    1.0909455   -2.8133121     1170.126  0.088485027  0.088446976            3 
 1103000    1.0655644    -2.863584    1169.7549  0.088376771  0.088434928            1 
 1104000    1.0887553   -2.8408643    1177.2523  0.088862643  0.088423215            2 
 1105000    1.0822653   -2.7919864    1167.4148  0.088040335   0.08841047            1 
 1106000    1.0714649   -2.8070587    1177.0735  0.088688477  0.088397622            2 
 1107000    1.0865262   -2.8189288     1171.336  0.088176453  0.088384812            2 
 1108000    1.0645533   -2.8069499    1169.9462  0.087992346  0.088372046            3 
 1109000    1.0852088   -2.8371644    1169.4725  0.087877406  0.088359743            2 
 1110000     1.059097   -2.7969557    1176.4645  0.088323158   0.08834761            1 
 1111000    1.0632347    -2.821582    1174.7285  0.088113447  0.088334841            1 
 1112000    1.0622629   -2.8538079    1175.7115  0.088107874  0.088322499            3 
 1113000    1.0865464   -2.8193737    1172.9865  0.087824689  0.088309565            1 
 1114000    1.0616988   -2.8294489    1178.5764     0.088164  0.088296671            3 
 1115000    1.0888889   -2.8158371    1175.3223  0.087841725  0.088283551            2 
 1116000    1.0837934   -2.8204319    1179.1582  0.088049449  0.088269745            1 
 1117000    1.0699201   -2.8264445    1178.8284   0.08794602  0.088256248            2 
 1118000    1.0953837   -2.8128584    1181.9423  0.088099455  0.088242526            1 
 1119000    1.0520752   -2.8368951    1181.6999  0.088002675  0.088229416            2 
 1120000    1.1032158   -2.8280306    1178.4815  0.087684634  0.088215841            1 
 1121000     1.066256   -2.8213861    1180.1154  0.087727874  0.088201477            1 
 1122000    1.0526147   -2.8320458    1180.6719  0.087691017  0.088187778            3 
 1123000    1.0713264   -2.8300179    1179.5609  0.087530491  0.088173385            4 
 1124000    1.0885815   -2.8646417    1186.4914  0.087966444  0.088160514            1 
 1125000    1.0665816   -2.8436082    1186.0061  0.087852301  0.088147346            5 
 1126000    1.0722611   -2.8301508    1187.1852  0.087861549  0.088133626            2 
 1127000    1.0887316   -2.8506694    1190.2094  0.088007202  0.088120235            2 
 1128000    1.0916268   -2.8468213     1186.694  0.087669475  0.088107147            2 
 1129000     1.107047   -2.8173361    1190.1978  0.087850441  0.088093966            2 
 1130000    1.0465813   -2.8319196    1189.2245  0.087700925  0.088080643            1 
 1131000    1.0667693   -2.8422625    1190.2161   0.08769644  0.088067266            4 
 1132000    1.0695219   -2.8202282    1188.4427  0.087488423  0.088053611            2 
 1133000    1.0507952     -2.82466    1193.1761  0.087759349  0.088039792            2 
 1134000    1.0769653    -2.854333    1195.7043  0.087867751  0.088026908            3 
 1135000    1.0460936   -2.8258854    1191.0297  0.087447117  0.088013925            4 
 1136000    1.0781238    -2.834364    1196.1011  0.087742157   0.08800058            3 
 1137000    1.0437112    -2.849815    1194.1221  0.087519946  0.087986985            4 
 1138000    1.0538718   -2.8634155    1194.1105  0.087442186  0.087973806            3 
 1139000     1.063989   -2.8491443    1196.1636  0.087515629  0.087959757            2 
 1140000    1.0622988   -2.8619696    1199.0096  0.087646897  0.087946093            2 
 1141000    1.0921981   -2.8224329    1205.9638  0.088077987  0.087933082            3 
 1142000    1.0676663   -2.8173807    1198.6862  0.087469802  0.087919927            4 
 1143000    1.0790891   -2.8477581    1203.9571  0.087777564  0.087906858            4 
 1144000    1.0701467   -2.8339088    1202.6727  0.087607276  0.087893712            1 
 1145000    1.0495829   -2.8452516    1204.7472  0.087681745  0.087880559            2 
 1146000    1.0705526    -2.829302    1204.5493  0.087590844   0.08786775            1 
 1147000    1.0768514   -2.8418212    1205.0797  0.087553019  0.087854609            4 
 1148000    1.0936359   -2.8363135    1206.4325  0.087574949  0.087841526            1 
 1149000    1.0702577   -2.8441833    1208.6636  0.087660542  0.087828995            2 
 1150000    1.0781461   -2.8439907    1211.3941  0.087782181  0.087816382            2 
 1151000    1.0542749   -2.8507854    1212.0241   0.08775153  0.087804058            2 
 1152000    1.0837169   -2.8153786    1211.5127  0.087638359    0.0877918            2 
 1153000    1.0864771   -2.8270931    1211.3495  0.087550559  0.087779423            1 
 1154000     1.031419    -2.822517     1210.639  0.087423384  0.087767316            3 
 1155000    1.0822307   -2.8259504    1212.6412  0.087492152  0.087754359            1 
 1156000    1.0743881   -2.8140389     1218.694  0.087852794  0.087742414            2 
 1157000    1.0844521   -2.8329577    1218.4847  0.087761793  0.087730555            2 
 1158000    1.0585718   -2.8397701    1218.2869  0.087671768  0.087718758            2 
 1159000    1.0532463   -2.8387187     1221.596  0.087834053  0.087706892            1 
 1160000    1.0750144   -2.8352423    1221.5919  0.087758038  0.087694897            3 
 1161000    1.0623504   -2.8623648    1221.7685  0.087695125  0.087682918            1 
 1162000    1.0827301   -2.8334163    1225.0323  0.087853721  0.087671121            1 
 1163000    1.0806175   -2.8443426    1222.7051  0.087611427  0.087659376            2 
 1164000    1.0548559   -2.8252646     1221.895  0.087478165  0.087647589            4 
 1165000    1.0705283   -2.8166468    1231.0463  0.088057678  0.087636855            1 
 1166000    1.0922492   -2.8141084    1226.3259  0.087644792  0.087625796            1 
 1167000    1.0625175   -2.8158225    1226.3465  0.087571156  0.087615181            3 
 1168000     1.078201   -2.8582107     1228.809  0.087671877  0.087604349            2 
 1169000    1.0651136   -2.8374325    1231.3696  0.087779413  0.087592867            1 
 1170000    1.0671516   -2.8370802    1233.5014  0.087856223  0.087581861            2 
 1171000    1.0573974   -2.8300138    1230.5229  0.087569238  0.087571158            1 
 1172000    1.0525992   -2.8316993    1242.0666  0.088315315  0.087560965            2 
 1173000    1.0579459   -2.8453204    1228.9139  0.087305617   0.08754982            2 
 1174000    1.0560563   -2.8526412    1231.6734   0.08742713  0.087538179            3 
 1175000    1.0675168   -2.8575435    1237.4191  0.087760221  0.087527031            2 
 1176000    1.0653338   -2.8279206    1235.1372  0.087523892  0.087515913            2 
 1177000    1.0848313   -2.8161778    1235.7156  0.087490482  0.087504398            2 
 1178000    1.0456191   -2.8060219    1237.8754  0.087569004  0.087493083            7 
 1179000    1.0532134   -2.8448747    1233.1926  0.087163739  0.087481541            2 
 1180000     1.054804   -2.8532988     1241.471  0.087674505  0.087469961            3 
 1181000    1.0544147    -2.845327    1242.7147  0.087688027  0.087458961            1 
 1182000    1.0777215   -2.8675683    1240.5484  0.087461109  0.087447399            2 
 1183000    1.0765612   -2.8478646    1239.7504  0.087330966  0.087435092            1 
 1184000    1.0409077   -2.8622339    1241.3406   0.08736913  0.087423943            4 
 1185000    1.0814413    -2.837623     1243.138    0.0874218  0.087412578            1 
 1186000    1.0689596   -2.8483244    1244.9685  0.087476704  0.087401366            2 
 1187000    1.0446957   -2.8289648    1240.2873  0.087074366  0.087389615            1 
 1188000    1.0527969   -2.8547309    1245.4318  0.087361941  0.087377823            2 
 1189000    1.0402554   -2.8251785    1248.1577  0.087479513  0.087366269            1 
 1190000    1.0737461    -2.870503    1251.8347  0.087663498  0.087354559            1 
 1191000    1.0585556   -2.8391951    1244.1168  0.087049874  0.087342838            1 
 1192000    1.0453573   -2.8450098    1242.2002  0.086842858  0.087330627            3 
 1193000    1.0470252   -2.8261781    1249.5881  0.087286119  0.087318644            4 
 1194000     1.070333   -2.8607366    1249.9082  0.087235358  0.087306447            3 
 1195000    1.0597665   -2.8059349    1248.6833  0.087076941  0.087293398            3 
 1196000    1.0677384   -2.8317988    1248.5247  0.086993083  0.087281391            2 
 1197000     1.047427   -2.8438605    1250.5447  0.087061032   0.08726857            3 
 1198000    1.0580288   -2.8439984    1251.0337   0.08702238  0.087255444            1 
 1199000    1.0670908   -2.8638034    1252.1841  0.087029756  0.087242595            6 
 1200000    1.0643644   -2.8381741    1253.1504  0.087024333  0.087230551            2 
 1201000    1.0353774   -2.8513697    1260.7169  0.087476885  0.087218359            2 
 1202000    1.0608288   -2.8637677    1251.0582  0.086734481  0.087206031            3 
 1203000    1.0574618   -2.8382238     1253.415  0.086825643   0.08719344            4 
 1204000    1.0686349   -2.8477269    1253.7165  0.086774396  0.087180107            1 
 1205000    1.0317784   -2.8704712    1261.4906  0.087240015  0.087167159            2 
 1206000    1.0710709   -2.8328689    1267.0139  0.087549332  0.087154727            1 
 1207000    1.0711331   -2.8685792    1255.3247  0.086669752   0.08714217            3 
 1208000    1.0530461   -2.8570359    1256.5937  0.086685544  0.087129652            2 
 1209000    1.0423922   -2.8562921    1269.0722  0.087473962  0.087117217            3 
 1210000    1.0681997   -2.8779955    1263.1467  0.086993575  0.087105723            3 
 1211000    1.0605872   -2.8366296    1264.4615  0.087012215  0.087093741            1 
 1212000    1.0631073   -2.8447206    1266.8415  0.087104061  0.087081872            3 
 1213000     1.045831   -2.8424238     1267.426  0.087072411  0.087070444            3 
 1214000    1.0762741   -2.8301165    1270.5415  0.087214543   0.08705855            3 
 1215000    1.0779129   -2.8581987     1266.981  0.086898559     0.087047            1 
 1216000     1.064958   -2.8073396    1271.4999  0.087136782  0.087034813            7 
 1217000    1.0437619   -2.8416092    1274.2667  0.087254632  0.087023007            4 
 1218000    1.0528323   -2.8297193    1270.0013  0.086891167  0.087010826            3 
 1219000    1.0680356   -2.8709014    1273.5833  0.087064763  0.086999121            4 
 1220000    1.0403344   -2.8296978    1272.7392  0.086935741   0.08698686            2 
 1221000    1.0373961   -2.8537346    1277.8352  0.087212343   0.08697507            3 
 1222000    1.0504279   -2.8253467    1275.4648  0.086979324  0.086963456            2 
 1223000    1.0449647   -2.8444757    1277.8698  0.087072079  0.086952399            4 
 1224000    1.0704559   -2.8439467    1276.6739  0.086919521  0.086940478            2 
 1225000    1.0473191   -2.8437458    1274.7484  0.086717575  0.086928509            2 
 1226000    1.0843901   -2.8514001    1278.9034  0.086929266   0.08691637            1 
 1227000    1.0549589   -2.8411499    1282.6265  0.087111278  0.086905144            2 
 1228000    1.0492671   -2.8299392    1277.7978  0.086712661  0.086893731            4 
 1229000    1.0502235    -2.877856    1281.8611  0.086917624  0.086882406            2 
 1230000    1.0522194   -2.8398246    1284.2616  0.087009596  0.086870633            4 
 1231000    1.0592078   -2.8401529    1282.7439  0.086836172  0.086859286            3 
 1232000    1.0287668   -2.8447018    1283.6658  0.086828043  0.086848128            7 
 1233000    1.0802804   -2.8515538    1285.2319  0.086863472  0.086836177            2 
 1234000    1.0534888   -2.8384331    1289.7725  0.087099709  0.086824828            2 
 1235000    1.0659958   -2.8615476    1287.4937  0.086875415  0.086813741            1 
 1236000    1.0458531   -2.8687684    1287.9515  0.086835994  0.086802737            7 
 1237000    1.0685384   -2.8608921     1292.138   0.08704783  0.086792111            2 
 1238000    1.0731017   -2.8654068    1290.7288  0.086882661  0.086782155            2 
 1239000    1.0545897   -2.8418622    1296.4447  0.087196978  0.086771465            2 
 1240000    1.0754219   -2.8462805    1297.3852  0.087189866  0.086761384            4 
 1241000    1.0388788   -2.8583031    1299.0496  0.087231374  0.086751137            2 
 1242000    1.0732306   -2.8337999     1293.957  0.086819447  0.086740232            1 
 1243000    1.0442345    -2.864473    1303.0866  0.087361662  0.086729895            1 
 1244000    1.0663068   -2.8673209    1302.2086  0.087232621  0.086719224            2 
 1245000    1.0507115   -2.8483014    1296.8715  0.086805318  0.086709446            2 
 1246000    1.0479691   -2.8648841    1297.1809  0.086756347  0.086699302            3 
 1247000    1.0485871   -2.8331171    1301.9273  0.087003964  0.086688993            2 
 1248000    1.0578284   -2.8445786    1303.0139  0.087006805  0.086678494            8 
 1249000    1.0493307    -2.865408    1306.0071  0.087136847  0.086668495            4 
 1250000    1.0558388   -2.8863569    1296.5305  0.086435364  0.086657925            2 
 1251000    1.0241721   -2.8585252    1302.1821  0.086742744  0.086647513            3 
 1252000    1.0566654   -2.8289793     1305.393  0.086887181  0.086637042            2 
 1253000    1.0389193   -2.8613138    1307.4312  0.086953394  0.086626111            2 
 1254000     1.052084   -2.8380452    1309.4494  0.087018168  0.086615245            1 
 1255000    1.0140287   -2.8834309    1301.2967  0.086407485  0.086604093            3 
 1256000    1.0675363   -2.8644814     1308.492  0.086816083  0.086593011            2 
 1257000    1.0598442    -2.799844    1305.0914   0.08652157  0.086581678            3 
 1258000    1.0596757   -2.8655073    1309.3778  0.086736738  0.086570137            2 
 1259000    1.0396524   -2.8309965    1314.1803  0.086985725  0.086558537            2 
 1260000     1.029491   -2.8448872    1305.6929  0.086355348  0.086547192            1 
 1261000    1.0539328   -2.8572439     1306.614  0.086347741  0.086535464            2 
 1262000      1.06017   -2.8554828    1315.2382    0.0868488  0.086523082            3 
 1263000    1.0621527   -2.8645357    1315.8096  0.086817735  0.086510927            2 
 1264000    1.0345397   -2.8640569    1313.5615  0.086600839  0.086499234            3 
 1265000    1.0448121   -2.8512115     1308.743  0.086214953  0.086487498            2 
 1266000    1.0523114   -2.8657351    1311.7584  0.086345342  0.086475574            2 
 1267000     1.047803   -2.8791043    1312.8907  0.086351663  0.086463154            2 
 1268000    1.0509528   -2.8533239    1313.1264  0.086299055   0.08645099            1 
 1269000    1.0637574   -2.8692175    1313.5094  0.086256202  0.086438233            2 
 1270000    1.0496827   -2.8935514    1309.6621   0.08593583  0.086426198            4 
 1271000    1.0428892   -2.8531299    1317.0079  0.086349846  0.086414357            2 
 1272000    1.0622384   -2.8530554    1316.4177  0.086243296  0.086402647            2 
 1273000    1.0363989   -2.8395552    1320.6698  0.086453903  0.086390686            2 
 1274000    1.0764194   -2.8544879    1318.5074  0.086244599  0.086378595            2 
 1275000    1.0460049   -2.8530488    1316.6271  0.086054057   0.08636693            3 
 1276000    1.0500181   -2.8586791    1322.0469  0.086340577  0.086354629            2 
 1277000    1.0435498   -2.8471755    1326.8486  0.086586309  0.086342853            1 
 1278000    1.0594348   -2.8580079     1323.101  0.086274194  0.086330558            2 
 1279000     1.055451   -2.8558458    1326.8167  0.086448831  0.086318799            3 
 1280000    1.0601476   -2.8700727    1324.6934  0.086243057  0.086306983            2 
 1281000    1.0389293   -2.8846697    1322.4323  0.086028641  0.086294378            1 
 1282000    1.0491285   -2.8681305    1327.4751  0.086289335   0.08628168            3 
 1283000    1.0583889   -2.8604518    1324.9898  0.086060652  0.086269301            1 
 1284000    1.0458144    -2.825254    1330.7077  0.086364726  0.086257473            1 
 1285000    1.0310733   -2.8795126    1324.7231   0.08590941  0.086245428            2 
 1286000    1.0654674   -2.8880778    1324.0966  0.085802006  0.086232979            2 
 1287000    1.0720658    -2.873644    1325.8614   0.08584961  0.086220092            1 
 1288000    1.0439284   -2.8482314    1333.4272  0.086272466  0.086207469            2 
 1289000    1.0489717   -2.8856248    1332.9619  0.086175453  0.086195004            4 
 1290000    1.0407498   -2.8516417    1336.3541  0.086327785  0.086183048            1 
 1291000    1.0505353   -2.8721518    1337.9299   0.08636263  0.086171052            3 
 1292000     1.057299   -2.8614159    1337.7043  0.086281237  0.086159157            2 
 1293000    1.0383475   -2.8404222    1336.9678   0.08616704  0.086147472            3 
 1294000    1.0533372   -2.8826014    1329.8836  0.085644228  0.086135074            2 
 1295000    1.0318629   -2.8574097    1336.5844  0.086009291  0.086122959            3 
 1296000    1.0288417   -2.8315004    1342.7084  0.086336702  0.086110658            1 
 1297000    1.0253407   -2.8644571    1342.6123  0.086263964  0.086099059            3 
 1298000    1.0454807   -2.8677133    1342.3072  0.086177914  0.086087579            2 
 1299000      1.03234   -2.8798938    1336.2515  0.085723088  0.086075972            2 
 1300000     1.027566   -2.8513108    1342.2725  0.086043109  0.086063293            2 
 1301000    1.0455233    -2.854172    1338.1912  0.085715553  0.086050903            1 
 1302000    1.0605824   -2.8722514    1346.9592  0.086210909  0.086038217            2 
 1303000    1.0564716   -2.8979768    1340.4061  0.085725642  0.086025732            1 
 1304000    1.0403999   -2.8848209    1340.8802    0.0856902  0.086012965            4 
 1305000    1.0465584    -2.844031    1346.9085  0.086009485  0.086000623            1 
 1306000     1.054548   -2.8578572    1350.7536  0.086188972  0.085988569            2 
 1307000    1.0473255   -2.8304928    1349.3992  0.086036673  0.085977171            2 
 1308000    1.0765377   -2.8771265     1347.063  0.085822059    0.0859651            3 
 1309000    1.0356192   -2.8725946     1352.604  0.086109242  0.085952678            5 
 1310000    1.0254102   -2.8404008    1349.6018  0.085852531  0.085940365            3 
 1311000    1.0437903   -2.8766903    1347.7386  0.085668611  0.085928803            3 
 1312000    1.0457409   -2.8538633    1355.5399  0.086098824  0.085916749            2 
 1313000    1.0325675   -2.8546365    1349.8282  0.085670743  0.085904655            2 
 1314000    1.0213251   -2.8732985    1357.3093  0.086079989  0.085892915            1 
 1315000    1.0380644   -2.8670698     1355.591  0.085905641  0.085881276            1 
 1316000    1.0259866   -2.8695422    1356.4239  0.085893106  0.085869195            4 
 1317000    1.0381904   -2.8479242    1361.1564  0.086127336  0.085857219            2 
 1318000    1.0306259   -2.8612831    1360.4836  0.086019449  0.085845604            3 
 1319000     1.009517   -2.8647765    1359.8261  0.085912692  0.085834135            1 
 1320000    1.0273377   -2.8397945     1364.879  0.086166604  0.085822225            3 
 1321000    1.0553022   -2.8487573    1358.5901  0.085704647  0.085810824            2 
 1322000    1.0312812   -2.8784144    1362.9436  0.085914248  0.085799333            2 
 1323000    1.0294574   -2.8717951    1357.4109  0.085500811  0.085787786            1 
 1324000    1.0550395   -2.8766614    1359.6762  0.085578812  0.085775883            2 
 1325000    1.0360139    -2.852166    1369.9369  0.086159556  0.085763939            3 
 1326000    1.0345268   -2.8769283    1363.0631  0.085662586  0.085752321            3 
 1327000    1.0416057   -2.8706134    1357.1548  0.085227005  0.085739957            3 
 1328000    1.0134938   -2.8975707    1363.2511  0.085545376  0.085727959            2 
 1329000    1.0584023   -2.8659821    1368.3017  0.085797698  0.085715649            3 
 1330000    1.0425443   -2.8742982    1365.6795  0.085568893  0.085703213            2 
 1331000    1.0574731    -2.880895    1369.1898  0.085724377  0.085690909            2 
 1332000    1.0563655   -2.8827463    1366.4845  0.085490774  0.085678757            2 
 1333000    1.0548533    -2.869335    1371.9043  0.085765459  0.085666065            2 
 1334000    1.0478242    -2.851132    1370.1453  0.085591287   0.08565377            2 
 1335000    1.0363605   -2.8645063    1374.0169  0.085768847   0.08564138            1 
 1336000    1.0374962    -2.871684    1371.6143  0.085554783   0.08562921            2 
 1337000    1.0304324   -2.8654457    1374.5173  0.085671737  0.085617252            2 
 1338000    1.0135744   -2.8629867    1369.9655  0.085324211  0.085605369            1 
 1339000    1.0196094   -2.8447997    1377.3499  0.085720059  0.085593092            3 
 1340000    1.0235804   -2.8488192    1376.8106  0.085622552  0.085581102            1 
 1341000    1.0204488   -2.8495433    1376.5787   0.08554429  0.085569832            1 
 1342000   0.99550985   -2.8712643    1383.0549  0.085882692   0.08555832            2 
 1343000    1.0244326   -2.8472612    1378.3896  0.085529263    0.0855466            2 
 1344000    1.0608723   -2.8676171    1377.4172  0.085405334  0.085534186            1 
 1345000    1.0436885   -2.8648777    1377.5034  0.085347178   0.08552249            2 
 1346000     1.041468   -2.8845036    1381.1589  0.085510083  0.085510673            3 
 1347000    1.0441076   -2.8513787    1388.0752  0.085874489  0.085498731            6 
 1348000     1.044611   -2.8681678     1379.916  0.085306378  0.085487043            1 
 1349000    1.0578949   -2.8933129    1386.6738  0.085660601  0.085474748            2 
 1350000    1.0439678   -2.8496913    1385.5776  0.085529483  0.085463313            3 
 1351000    1.0295203   -2.8637378    1387.7153   0.08559803   0.08545188            1 
 1352000     1.049792    -2.878054    1391.6773  0.085778929  0.085439928            1 
 1353000    1.0523586   -2.8508677    1383.4242  0.085207206  0.085428356            3 
 1354000     1.041777   -2.8937006    1391.6874  0.085652846  0.085416434            4 
 1355000    1.0468375   -2.8792315    1391.7727  0.085594876  0.085404367            2 
 1356000    1.0377599   -2.8782217    1394.3747  0.085691661  0.085392754            3 
 1357000    1.0342578   -2.8746178    1392.2978  0.085500969  0.085380306            2 
 1358000    1.0443679   -2.8838907    1391.7493  0.085404352  0.085368281            5 
 1359000    1.0385923    -2.878865    1391.6591  0.085335977  0.085355889            2 
 1360000    1.0114868   -2.8522551    1392.0048  0.085294409  0.085344268            1 
 1361000    1.0352565   -2.8961905    1383.7554  0.084726633  0.085331935            3 
 1362000    1.0268741   -2.8696391    1395.3586  0.085374361  0.085319926            3 
 1363000    1.0291383   -2.8797697    1387.1884  0.084812205  0.085307363            3 
 1364000    1.0299276   -2.8803884    1394.1011  0.085172355  0.085295168            2 
 1365000     1.027307   -2.8821392    1393.6829  0.085084429   0.08528329            1 
 1366000    1.0325336   -2.8756818    1398.4127  0.085310681  0.085271349            3 
 1367000    1.0479858   -2.8981443    1398.5276  0.085255276  0.085259676            1 
 1368000    1.0455291       -2.872    1404.0105  0.085526957  0.085247904            2 
 1369000    1.0242853    -2.891921    1395.9207   0.08497204   0.08523579            5 
 1370000    1.0349262   -2.8581314    1410.1897  0.085777961   0.08522404            4 
 1371000    1.0193485   -2.8786584    1404.4298  0.085365292   0.08521289            2 
 1372000    1.0222587   -2.8577991    1407.7997  0.085507757  0.085201601            2 
 1373000    1.0666141   -2.8946812    1404.7546  0.085260659  0.085190408            2 
 1374000    1.0244994   -2.8521027    1407.2192  0.085348084  0.085178503            2 
 1375000       1.0552   -2.8454622    1404.3474  0.085111962  0.085166683            4 
 1376000    1.0107485   -2.8955589    1404.2814  0.085046111   0.08515492            1 
 1377000    1.0129375   -2.9029358    1404.6801  0.085008476  0.085142476            5 
 1378000    1.0559964   -2.8648982    1410.1699  0.085278782  0.085130267            3 
 1379000    1.0230342   -2.8830692    1406.8767  0.085017927    0.0851187            1 
 1380000    1.0441524    -2.873769     1408.952  0.085081643  0.085107057            3 
 1381000    1.0379858   -2.9072265     1406.491  0.084871529  0.085095137            2 
 1382000    1.0238718   -2.8977242    1413.4221  0.085228058  0.085082776            5 
 1383000    1.0271541   -2.8789244    1416.6445  0.085360598  0.085070966            5 
 1384000    1.0508025   -2.8687965    1411.9935  0.085018876  0.085059039            3 
 1385000    1.0207672   -2.8728824    1408.4601   0.08474489   0.08504699            4 
 1386000    1.0136388   -2.8752722    1407.3641   0.08461785  0.085034486            3 
 1387000    1.0366307   -2.8662711    1417.6997  0.085177826  0.085022449            1 
 1388000    1.0322348   -2.8624785    1415.3267  0.084973986  0.085010731            2 
 1389000    1.0267774   -2.8926329    1406.6181  0.084390335   0.08499797            3 
 1390000     1.038212   -2.8868632    1417.0744    0.0849565  0.084985762            4 
 1391000    1.0314145   -2.8529181    1426.3573  0.085451553  0.084974158            1 
 1392000    1.0194436   -2.8989565    1419.5119  0.084980355  0.084962543            2 
 1393000    1.0408876   -2.8911554    1418.7277   0.08487244  0.084951053            5 
 1394000    1.0361251   -2.8642091    1417.8006  0.084756135  0.084939854            5 
 1395000    1.0223611   -2.8867011    1421.2498  0.084901419  0.084928468            3 
 1396000     1.027998   -2.8642576    1424.5131  0.085035405  0.084917343            2 
 1397000    1.0189829   -2.8634308    1425.9507   0.08506029  0.084906143            2 
 1398000    1.0009543   -2.9104557    1430.7852  0.085287627  0.084894444            6 
 1399000    1.0310888   -2.8787705    1429.8118  0.085168679   0.08488291            4 
 1400000    1.0396844   -2.9033878    1425.9243  0.084876449  0.084871738            5 
 1401000    1.0380805   -2.9019768    1427.7725  0.084925797  0.084860825            2 
 1402000   0.99926677   -2.8822176    1429.4188  0.084963075  0.084849533            2 
 1403000    1.0207273   -2.8866777     1431.372   0.08501853  0.084838988            2 
 1404000    1.0369079    -2.858394     1436.482  0.085261276  0.084828795            2 
 1405000    1.0075793   -2.8873769    1432.8176  0.084983252  0.084817623            2 
 1406000    1.0087443   -2.8884316     1438.439  0.085255988  0.084806502            3 
 1407000    1.0234744   -2.8830081    1433.3878  0.084896221  0.084795864            3 
 1408000    1.0350601   -2.8898416    1439.5793  0.085202373  0.084784622            3 
 1409000    1.0017238   -2.8837869    1438.9827  0.085106618  0.084774191            1 
 1410000    1.0166152   -2.8754377    1435.3822  0.084833466  0.084763452            3 
 1411000    1.0490462   -2.8981621    1440.4173  0.085070714  0.084752658            2 
 1412000    1.0303574    -2.888085    1441.7431  0.085088712  0.084741581            3 
 1413000    1.0294487   -2.9012126     1437.058   0.08475218   0.08473008            1 
 1414000    1.0105327    -2.883437    1441.2699  0.084940472  0.084718626            4 
 1415000     1.030819   -2.8947744    1441.7133  0.084906552  0.084707182            1 
 1416000    1.0274042   -2.8752896    1438.8092  0.084675684  0.084695948            4 
 1417000    1.0152977   -2.8688086    1447.3771    0.0851198  0.084684535            3 
 1418000    1.0227291   -2.8825359    1447.0553  0.085040864  0.084673865            4 
 1419000    1.0110642   -2.9159916    1447.6742  0.085017275  0.084663149            3 
 1420000    1.0302344   -2.8851877    1445.6643  0.084839456  0.084652643            5 
 1421000    1.0140391   -2.9330522    1447.6647  0.084897062  0.084642041            2 
 1422000    1.0287026   -2.8895256    1450.4644  0.085001431  0.084631156            2 
 1423000    1.0482624   -2.8602263    1454.3955  0.085171907  0.084620393            2 
 1424000    1.0375056   -2.8841948    1448.8134  0.084785429  0.084610111            3 
 1425000    1.0233365   -2.8812095     1455.664  0.085126548  0.084599713            2 
 1426000    1.0047535   -2.8992447    1451.9869  0.084851968  0.084589178            2 
 1427000    1.0109292   -2.8751522    1462.5038   0.08540667  0.084579262            2 
 1428000    1.0145279   -2.8875154    1456.3635  0.084988533  0.084569041            2 
 1429000    1.0209877   -2.8915056    1455.3617  0.084870636  0.084559135            1 
 1430000    1.0168201   -2.8849625    1461.1111  0.085146334  0.084548868            2 
 1431000    1.0256405   -2.9297183    1462.6712  0.085177684  0.084538816            4 
 1432000    1.0058957   -2.8710108    1456.6885   0.08477005  0.084529107            2 
 1433000    1.0207788   -2.8635792    1462.2938  0.085036859  0.084519015            3 
 1434000    1.0323392   -2.8954694    1467.0476  0.085253809  0.084508986            3 
 1435000    1.0594409   -2.8880795    1464.3446  0.085037436  0.084499343            4 
 1436000   0.99310086    -2.892128    1465.5669  0.085049145  0.084489631            1 
 1437000    1.0040701   -2.8694072    1463.4338  0.084866263  0.084479983            2 
 1438000    1.0166295   -2.8784287    1465.9198  0.084951312  0.084470927            1 
 1439000    1.0359423   -2.9128915    1471.1191  0.085193372  0.084461401            2 
 1440000    1.0403748   -2.8843936    1471.9544  0.085182549  0.084451863            1 
 1441000    1.0142002   -2.9151201    1468.1446  0.084903112  0.084441709            2 
 1442000    1.0223681    -2.870089    1465.9629  0.084718155  0.084431566            2 
 1443000    1.0036747   -2.8771207    1470.2703  0.084908192   0.08442141            3 
 1444000    1.0278909   -2.8783287    1466.9164  0.084655841  0.084410859            1 
 1445000    1.0353268   -2.8844649    1467.5289  0.084632579  0.084400807            4 
 1446000    1.0228395   -2.8991009    1465.6585  0.084466255  0.084389535            5 
 1447000     1.021304   -2.8771166    1467.5254  0.084515397  0.084378655            1 
 1448000     1.033462   -2.9161563    1469.9336  0.084595627  0.084367436            1 
 1449000   0.99598753    -2.891802    1471.9603    0.0846538  0.084356325            1 
 1450000    1.0318853   -2.8753886    1473.8181  0.084702189  0.084345546            1 
 1451000    1.0013766   -2.8746643    1475.2696  0.084727175  0.084334373            5 
 1452000   0.98260932   -2.8842376    1472.0057  0.084481504  0.084323199            2 
 1453000    1.0393952   -2.8885231    1476.9333  0.084705971  0.084311652            2 
 1454000    1.0065887   -2.8706154    1473.1917  0.084433271  0.084300614            3 
 1455000    1.0106911   -2.9115289    1470.6034  0.084227001  0.084289499            2 
 1456000   0.99793296   -2.9046138    1473.1888  0.084317126  0.084277975            2 
 1457000    1.0370533   -2.9211873    1471.1438  0.084142292  0.084266525            3 
 1458000    1.0116711   -2.9008654    1479.0735  0.084537807  0.084254976            2 
 1459000    1.0156137   -2.8934448    1471.9637  0.084073779  0.084244047            2 
 1460000    1.0081371   -2.8963488    1481.7257  0.084573382  0.084233144            1 
 1461000    1.0225267   -2.8885736    1484.1223  0.084652195  0.084222749            3 
 1462000     1.035544   -2.8776501    1475.7271  0.084115772  0.084212113            1 
 1463000    1.0462974   -2.8746418    1485.0017  0.084586561  0.084200846            1 
 1464000    1.0027443   -2.9071651     1479.965  0.084242087  0.084189872            2 
 1465000    1.0352405   -2.8922527    1483.7004  0.084397066  0.084179244            3 
 1466000    1.0217432   -2.8996209    1491.5717  0.084786932  0.084168643            5 
 1467000    1.0101456   -2.9286201    1480.6503  0.084108744  0.084158156            1 
 1468000     1.021644   -2.8976494    1484.6817  0.084280295  0.084147454            3 
 1469000    1.0300495   -2.9029785    1486.0323  0.084299539  0.084136871            2 
 1470000   0.98787468   -2.8895941    1490.3773  0.084488511  0.084126248            2 
 1471000      1.02209    -2.904277    1490.5259  0.084439489  0.084115691            1 
 1472000    1.0199561   -2.9113247    1486.2632  0.084140803  0.084105323            4 
 1473000    1.0186057   -2.8731118    1495.6697  0.084615847  0.084095066            2 
 1474000    1.0131079   -2.9165577    1488.4164  0.084148373  0.084084177            3 
 1475000    1.0207339   -2.8858513    1494.8615   0.08445545  0.084073704            5 
 1476000    1.0085178   -2.9092001    1494.1484  0.084357971   0.08406321            1 
 1477000     1.019554   -2.9001857    1493.7781  0.084279963  0.084052581            6 
 1478000    1.0215428   -2.9142809    1496.9639  0.084402567  0.084042295            2 
 1479000    1.0001433   -2.8811271    1499.4029  0.084482923  0.084031728            3 
 1480000     1.033305      -2.8765    1500.6222  0.084494495  0.084020852            4 
 1481000   0.98910531   -2.9041926    1501.7802    0.0845026  0.084010092            2 
 1482000    1.0367486   -2.9098316     1503.688  0.084552857  0.083999596            4 
 1483000   0.98660787   -2.8902399    1503.7982  0.084502036  0.083988891            2 
 1484000    1.0091184     -2.89732    1509.2692  0.084752314  0.083978473            2 
 1485000    1.0049138   -2.8899058    1504.9949  0.084455384  0.083968014            3 
 1486000    1.0338831   -2.9040598    1502.8036  0.084275661  0.083957562            3 
 1487000    1.0069417   -2.9027663    1499.3814  0.084027201  0.083947176            4 
 1488000    1.0246218   -2.9276656    1502.5651  0.084149031  0.083936921            3 
 1489000    1.0308508   -2.8779077    1507.9745  0.084395262  0.083927261            2 
 1490000   0.99531355   -2.8924727    1502.9505  0.084057633  0.083917093            2 
 1491000    1.0149357    -2.916149     1501.147  0.083900458  0.083906606            2 
 1492000    1.0126505   -2.8869757    1509.0407  0.084285113   0.08389617            4 
 1493000    1.0038818   -2.9116804     1505.842  0.084050123  0.083886193            1 
 1494000   0.99379907   -2.8990286    1507.8061   0.08410342  0.083876093            3 
 1495000    1.0391313   -2.8842076    1515.2744  0.084463458  0.083866304            3 
 1496000    1.0189551   -2.9076846    1510.7849  0.084156911  0.083855716            1 
 1497000    1.0209246   -2.9152532    1507.0526  0.083892933   0.08384489            2 
 1498000    1.0250337   -2.8976885     1507.817  0.083879449  0.083833934            3 
 1499000    1.0003325   -2.8806477    1513.4465  0.084136451  0.083823255            3 
 1500000     1.002561   -2.8825873    1517.8526  0.084325145  0.083812761            2 
 1501000    0.9993822   -2.9020938    1507.9875  0.083721269  0.083801999            2 
 1502000    1.0095372   -2.9066255    1514.6458   0.08403494  0.083791169            2 
 1503000   0.99511985    -2.909906    1517.0549  0.084112601  0.083780624            1 
 1504000     1.025321   -2.9012779    1516.2686  0.084013107  0.083770237            3 
 1505000    1.0083036   -2.9110986    1522.7844  0.084318071  0.083760094            2 
 1506000   0.98945995    -2.906534    1527.7519  0.084536956  0.083750013            2 
 1507000    1.0238179   -2.9029387    1525.5643  0.084359895  0.083739854            4 
 1508000    1.0166126   -2.8990911     1525.895  0.084322227  0.083729968            4 
 1509000   0.98492504   -2.9005925     1516.992  0.083774683  0.083719195            2 
 1510000   0.97471592   -2.9047792    1519.8141   0.08387495  0.083708707            2 
 1511000    1.0066269   -2.9249129    1519.8045  0.083818911  0.083698264            2 
 1512000   0.99360064   -2.9259225    1518.2909  0.083680054  0.083687507            4 
 1513000    1.0081875   -2.9018656    1523.8633  0.083931665   0.08367657            4 
 1514000     1.003896   -2.9319262    1525.4752  0.083964948  0.083665666            2 
 1515000   0.99081144    -2.900709     1524.947  0.083880471  0.083655124            6 
 1516000   0.99793951   -2.9239043    1516.0844  0.083337971  0.083644003            2 
 1517000    1.0136527   -2.9219881    1523.2816    0.0836784  0.083632642            4 
 1518000    1.0297681   -2.9112447    1524.9231  0.083713391  0.083621452            3 
 1519000    1.0052639   -2.8889286    1527.3773  0.083792916  0.083610688            1 
 1520000    0.9866311   -2.9071441    1527.9729  0.083770446  0.083599884            3 
 1521000    1.0115679   -2.9018884    1526.3909  0.083628695  0.083588794            3 
 1522000    1.0031939   -2.8967875    1531.0049  0.083826374  0.083577751            2 
 1523000   0.99966987   -2.8868747    1532.3428  0.083844541  0.083566344            4 
 1524000     1.031507   -2.9010176    1528.8884  0.083600632   0.08355545            2 
 1525000    0.9927208   -2.9252979      1525.83  0.083378686  0.083543839            2 
 1526000    1.0003517   -2.8876088    1533.7898  0.083758728  0.083532793            2 
 1527000   0.99593312   -2.8985525    1533.3548  0.083680134  0.083521455            3 
 1528000   0.98562764   -2.9208416    1529.6268  0.083422057  0.083510012            3 
 1529000    1.0044264   -2.8942542    1530.8143  0.083432216  0.083498551            2 
 1530000   0.98846131   -2.9221886    1533.4672  0.083522177  0.083487416            2 
 1531000      1.01901   -2.9135128    1541.9831  0.083931149  0.083475996            2 
 1532000    1.0064597   -2.9265662    1538.5331  0.083688703  0.083464753            2 
 1533000    1.0104278   -2.9093752    1534.3881  0.083408789  0.083453387            1 
 1534000    1.0108898   -2.9084752    1535.4521  0.083412219  0.083442169            4 
 1535000   0.99454207   -2.9145109    1540.9133   0.08365436  0.083431234            3 
 1536000    1.0055205   -2.9031957    1537.8807  0.083435369  0.083419366            4 
 1537000    1.0258766   -2.8913223    1543.2369  0.083671484  0.083408186            2 
 1538000    1.0126114   -2.9028189    1544.9791  0.083711482  0.083396354            1 
 1539000    1.0304531   -2.9132987    1542.3671  0.083515656  0.083384479            2 
 1540000    1.0020088   -2.9167982     1542.581  0.083472997  0.083372864            3 
 1541000    1.0194386   -2.9004114    1544.1568  0.083504044  0.083361422            1 
 1542000    1.0173634    -2.927836    1543.7449  0.083427631  0.083349494            2 
 1543000   0.98969397   -2.9227188     1537.761  0.083050388  0.083337704            2 
 1544000   0.99856482   -2.9241387     1540.573  0.083148371  0.083325529            4 
 1545000    1.0013261   -2.9242377    1542.4586  0.083196259  0.083313975            3 
 1546000   0.98984871   -2.9138085    1549.4531  0.083519466  0.083302353            5 
 1547000    1.0022901   -2.9488616    1538.0937  0.082853574  0.083289957            2 
 1548000    1.0067121   -2.9187985    1542.6939  0.083047691  0.083278136            5 
 1549000   0.99108218   -2.9017471    1548.7977  0.083322447   0.08326733            2 
 1550000    1.0059318    -2.913663    1553.4201  0.083517207  0.083256058            3 
 1551000   0.99463134   -2.9430448    1548.5263  0.083200425  0.083244614            4 
 1552000     1.011117   -2.9353088    1548.6619  0.083154095  0.083233415            3 
 1553000   0.99397554   -2.8918256    1558.1206  0.083608104     0.083222            1 
 1554000     1.007915   -2.9171442    1549.7866  0.083107392  0.083210739            2 
 1555000    1.0082027    -2.929073    1557.3774  0.083460741  0.083199251            3 
 1556000    1.0023023   -2.9115239    1560.7367  0.083587015  0.083187944            2 
 1557000   0.99747932   -2.9050053    1562.1784  0.083610489  0.083176719            2 
 1558000   0.99872871   -2.9030801     1562.241  0.083560172  0.083166159            5 
 1559000    0.9829102   -2.9011932    1560.8254  0.083430905  0.083154749            2 
 1560000    1.0133365    -2.913646    1559.5096  0.083307137  0.083143555            2 
 1561000    1.0063949    -2.964254    1555.8676  0.083059342  0.083132313            2 
 1562000   0.98429375   -2.9164448    1561.7228  0.083318546  0.083121317            3 
 1563000    1.0047235    -2.925127    1558.7994  0.083109371  0.083109767            1 
 1564000     1.011155   -2.9038988    1563.3062  0.083296366  0.083098119            2 
 1565000    1.0096872   -2.9477562    1561.2297  0.083132574  0.083086595            4 
 1566000    1.0142129   -2.9291429    1556.0949  0.082806242  0.083075252            3 
 1567000   0.98566062   -2.9224342    1563.0042  0.083120834  0.083063508            1 
 1568000    1.0213072   -2.9320626    1566.3091  0.083243468  0.083051919            3 
 1569000    1.0191602   -2.9171109    1563.2106  0.083025845  0.083040048            3 
 1570000     1.017977    -2.903181    1556.3764  0.082610211  0.083027942            2 
 1571000    1.0084493   -2.8960064    1569.1269  0.083233975  0.083015956            2 
 1572000   0.98785927   -2.9403587    1561.2348  0.082762658  0.083004056            4 
 1573000     1.010315   -2.9224226    1565.7638  0.082949976  0.082991752            3 
 1574000   0.97763948   -2.9097596    1565.6523  0.082891377  0.082979326            6 
 1575000    1.0126997   -2.9129703    1566.1916  0.082867281     0.082967            4 
 1576000   0.98101722   -2.9172085    1564.4279  0.082721442  0.082954657            9 
 1577000    1.0075375   -2.9442981    1564.5549  0.082675696   0.08294215            1 
 1578000    1.0091184   -2.9261544    1571.3434  0.082981802  0.082930208            2 
 1579000   0.97506182   -2.9129792    1568.1069  0.082758441  0.082917609            5 
 1580000    1.0317319    -2.925365    1568.4391  0.082723583  0.082904931            2 
 1581000   0.99102319   -2.9183761    1573.5048  0.082938267  0.082892714            2 
 1582000    1.0162301   -2.9066085    1567.2136  0.082554447  0.082880455            1 
 1583000   0.98954647    -2.916168    1565.1247  0.082392328   0.08286793            2 
 1584000    1.0037997   -2.9227295    1575.4049  0.082881148  0.082855129            2 
 1585000   0.99900596   -2.9169952    1573.0724  0.082706224  0.082842053            2 
 1586000   0.98743003   -2.9290696    1570.8355  0.082536542  0.082829678            2 
 1587000    1.0011398   -2.9291966    1573.1603  0.082606612  0.082817224            2 
 1588000    1.0042935   -2.9428682    1572.7641  0.082533798  0.082804937            2 
 1589000    1.0035809   -2.9398226    1570.3219  0.082353779  0.082792171            2 
 1590000    1.0167122   -2.8938539    1580.5782  0.082839529   0.08277959            4 
 1591000    1.0062536   -2.9313947     1578.046  0.082654827  0.082767648            2 
 1592000    0.9883146   -2.9320889    1580.9066  0.082752651  0.082755195            2 
 1593000   0.98725355   -2.9254177     1579.834  0.082644593  0.082742896            2 
 1594000    1.0328715   -2.9173552    1579.1385  0.082556384  0.082730289            2 
 1595000   0.98502397   -2.9303294    1578.7577  0.082484731  0.082717536            2 
 1596000   0.99118129   -2.8884493    1584.2602  0.082720352  0.082705004            2 
 1597000    1.0128268   -2.9317597    1577.4675  0.082314105  0.082692255            4 
 1598000   0.97800122    -2.963595    1580.0361  0.082396541  0.082679134            4 
 1599000    1.0049125   -2.8949546    1586.7913  0.082697065  0.082666225            1 
 1600000    0.9917511   -2.9532896     1582.409  0.082417137  0.082653616            2 
 1601000   0.99775011   -2.9215673     1578.879   0.08218192  0.082640686            4 
 1602000   0.98594756   -2.9358756    1584.2066  0.082407749  0.082627859            1 
 1603000   0.97581106    -2.934176    1582.3886  0.082261833  0.082614687            1 
 1604000    1.0090161   -2.9340051    1586.9787  0.082449017  0.082601523            1 
 1605000    1.0048449   -2.9173964    1588.7242  0.082488274  0.082588092            3 
 1606000   0.99406458   -2.9094253    1578.6519  0.081914272  0.082575123            4 
 1607000   0.97988925   -2.9283263    1588.6729  0.082382957  0.082562005            2 
 1608000   0.98006229   -2.9283421     1597.249  0.082776174  0.082549487            3 
 1609000   0.99365424   -2.9058554    1592.4263   0.08247495  0.082536555            2 
 1610000   0.98515455   -2.9323845    1589.8179  0.082288711  0.082523833            4 
 1611000    1.0067676   -2.8984946    1592.2124  0.082361492  0.082511214            2 
 1612000   0.98154043   -2.9383329    1587.0929  0.082045746  0.082498301            3 
 1613000   0.99662005   -2.9298981    1593.9016  0.082346642  0.082485073            4 
 1614000     0.992785   -2.9428564    1583.9063  0.081779548  0.082471657            2 
 1615000   0.99511799   -2.9441004    1592.3205  0.082163083  0.082458336            3 
 1616000     1.015251    -2.918938    1595.9241  0.082298065  0.082445663            2 
 1617000   0.98661449   -2.9493707    1587.1704  0.081796041  0.082432538            3 
 1618000   0.99291039   -2.9290756    1594.1161   0.08210322  0.082419442            3 
 1619000    1.0187005   -2.9254797    1593.7573   0.08203404  0.082406457            5 
 1620000   0.98167235   -2.9283897    1591.9892  0.081892451   0.08239358            2 
 1621000   0.98722009    -2.929781    1596.1212  0.082054351  0.082380823            2 
 1622000   0.99451557   -2.9258895    1600.2819  0.082217522  0.082367571            2 
 1623000    0.9745537   -2.9268567    1599.4535  0.082124332  0.082355272            2 
 1624000   0.97786094   -2.9285976    1596.8777   0.08194159  0.082342792            3 
 1625000    1.0078073   -2.9610142    1594.0283   0.08174504  0.082330118            3 
 1626000   0.97416733   -2.9287914    1601.0136   0.08205277  0.082317128            1 
 1627000   0.98957333   -2.9371783    1599.3693  0.081918114  0.082304079            2 
 1628000    1.0107644   -2.9334575    1602.3828  0.082022051  0.082291293            1 
 1629000    1.0018711   -2.9524243    1604.0873  0.082058898  0.082278383            2 
 1630000    1.0072719   -2.8988697    1603.5893  0.081983092  0.082265514            3 
 1631000    1.0082411   -2.9501699    1607.0775  0.082111054  0.082252497            3 
 1632000   0.97233152   -2.9054653    1600.9218  0.081746414  0.082239476            2 
 1633000   0.96917936   -2.9420674     1604.293  0.081868392  0.082226705            3 
 1634000   0.99356827   -2.9325906    1608.1369  0.082014327  0.082213436            5 
 1635000    0.9881149   -2.9439216    1607.0525  0.081908894  0.082200615            4 
 1636000   0.99190326   -2.9490499    1601.8976  0.081596249  0.082187415            2 
 1637000   0.99649794   -2.9434869    1609.6965   0.08194342  0.082174538            2 
 1638000    0.9691769   -2.9308699    1608.4332  0.081829123  0.082161625            3 
 1639000    1.0029043   -2.9010283    1613.3727  0.082030337  0.082148601            3 
 1640000    1.0082081   -2.9391576    1608.6181  0.081738726  0.082136082            1 
 1641000   0.99812246   -2.9268465    1607.9697  0.081655985  0.082123382            2 
 1642000   0.99645112   -2.9546097    1618.1205  0.082121421  0.082110445            3 
 1643000   0.98977459   -2.9388659    1616.5807  0.081993341  0.082097424            2 
 1644000   0.99027191   -2.9405589    1607.6314  0.081489831  0.082084368            5 
 1645000   0.97139059   -2.9487362    1610.7441  0.081597979   0.08207136            3 
 1646000    1.0094012   -2.9213407    1619.0631   0.08196958  0.082058477            6 
 1647000    1.0081403   -2.9360067    1616.0159  0.081765628  0.082045488            2 
 1648000   0.98754301   -2.9282578    1618.4651  0.081839861  0.082032841            3 
 1649000   0.99358385   -2.9441306     1623.428  0.082041035  0.082020134            2 
 1650000   0.99233579   -2.9137209    1623.8391  0.082012075  0.082007627            6 
 1651000    0.9805419   -2.9434904    1621.1821  0.081828293  0.081995145            3 
 1652000   0.97715659   -2.9048506    1619.5584  0.081696853  0.081982439            2 
 1653000   0.98782138   -2.9439113    1624.4535  0.081894208   0.08196972            2 
 1654000   0.98471386   -2.9382836    1617.2652  0.081482526  0.081956842            4 
 1655000   0.99430566   -2.9420412    1623.1255  0.081728373  0.081944066            2 
 1656000   0.97788243   -2.9415943    1621.6099  0.081602755  0.081931174            2 
 1657000   0.96191522    -2.921686    1618.6449  0.081404392  0.081918422            3 
 1658000   0.98281384   -2.9486606    1621.7244  0.081510074  0.081905469            3 
 1659000    1.0091217   -2.9233355     1624.445  0.081597599  0.081892492            3 
 1660000   0.97885471   -2.9412792    1623.5179  0.081501902  0.081879653            3 
 1661000    0.9877836    -2.926734    1631.0869  0.081832574  0.081866813            2 
 1662000     0.979625   -2.9265734     1625.738  0.081515141  0.081853705            1 
 1663000   0.97143947   -2.9381021    1636.6906  0.082014961  0.081841008            4 
 1664000    1.0043374   -2.9233739     1622.641  0.081262067   0.08182841            2 
 1665000   0.98835711   -2.9611648    1627.1666  0.081439769  0.081815141            2 
 1666000   0.97495273   -2.9266163    1632.7661  0.081670974  0.081801865            2 
 1667000   0.98140161   -2.9425689    1626.7499   0.08132123   0.08178849            2 
 1668000     1.009312   -2.9507546    1628.7085  0.081370327  0.081775893            2 
 1669000    0.9537311    -2.912214    1629.9932   0.08138572  0.081762789            3 
 1670000    0.9919141   -2.9189762    1631.8247  0.081428378  0.081749657            4 
 1671000   0.99460126   -2.9596681     1628.794  0.081228505  0.081736681            2 
 1672000   0.98257984     -2.94621    1632.1834  0.081348853   0.08172396            4 
 1673000   0.98265819   -2.9558123    1635.7145  0.081476114  0.081711114            1 
 1674000     1.006447   -2.9215474    1645.2996  0.081904601  0.081698286            3 
 1675000   0.98167355   -2.9231244     1640.254  0.081604677  0.081685868            2 
 1676000     1.007219   -2.9542252    1634.9515  0.081292336   0.08167368            3 
 1677000   0.97402034   -2.9318203     1641.914  0.081589844  0.081661479            4 
 1678000    0.9761891   -2.9382033    1637.1977  0.081306998  0.081649317            2 
 1679000   0.99574281   -2.9216458    1650.2493  0.081906358  0.081637296            2 
 1680000   0.98321528   -2.9290639    1646.0755  0.081650572  0.081625102            2 
 1681000   0.97497464   -2.9442327     1647.182  0.081656851   0.08161312            2 
 1682000   0.99058267   -2.9691842    1638.0608  0.081156399  0.081601036            2 
 1683000   0.98540806   -2.9168283    1654.5063  0.081922473  0.081589097            2 
 1684000   0.96510267   -2.9040229    1641.0121  0.081206063  0.081576943            1 
 1685000   0.99892262   -2.9131686    1652.6429  0.081733082  0.081565238            3 
 1686000   0.99397577   -2.9461543    1648.0287   0.08145654  0.081553513            2 
 1687000   0.99334789   -2.9262842    1649.3268  0.081472379  0.081541464            2 
 1688000   0.96147308   -2.9557715    1649.7406  0.081444541  0.081529527            3 
 1689000   0.98531465   -2.9381295    1658.8688  0.081846695  0.081517849            1 
 1690000    0.9611218   -2.9571471    1655.8525   0.08164953  0.081505915            2 
 1691000   0.97657162   -2.9631696    1651.0163  0.081362914  0.081493479            2 
 1692000   0.96842172   -2.9292249     1646.688  0.081101657  0.081481246            4 
 1693000   0.99897348   -2.9412643    1653.2918  0.081378804  0.081468878            3 
 1694000   0.98737374   -2.9348921    1660.9622  0.081708099  0.081456867            3 
 1695000   0.96101117   -2.9398074    1653.3184  0.081284088  0.081444977            2 
 1696000   0.94461176   -2.9258369    1663.4524  0.081734099  0.081433187            2 
 1697000   0.96921002   -2.9296134    1659.6971  0.081501526  0.081421397            4 
 1698000   0.97436767   -2.9607797    1663.7599  0.081652919  0.081409747            2 
 1699000   0.96926365   -2.9678755    1657.8573  0.081315346  0.081398042            3 
 1700000   0.98586811   -2.9555309    1662.4955  0.081494875  0.081385908            3 
 1701000   0.97278289   -2.9720359    1654.7534  0.081067676  0.081373736            1 
 1702000   0.96846808   -2.9279045    1664.6608   0.08150513  0.081361354            6 
 1703000   0.97610603   -2.9387084    1660.2316  0.081240538  0.081349532            3 
 1704000   0.97206084   -2.9022211    1661.7974  0.081269437  0.081337289            2 
 1705000   0.98825192   -2.9443264     1668.307  0.081539931  0.081325192            2 
 1706000   0.97232754   -2.9424602    1663.3285  0.081248952  0.081313094            2 
 1707000   0.98052457   -2.9579815    1664.5414  0.081260565   0.08130079            2 
 1708000   0.99865848   -2.9390588    1659.4438  0.080964278  0.081288785            3 
 1709000   0.99124617   -2.9722844     1662.657  0.081073579  0.081276415            2 
 1710000   0.97948537   -2.9522628    1666.5807  0.081217384  0.081264288            6 
 1711000   0.98986852   -2.9426478    1668.1597  0.081246819  0.081252658            1 
 1712000   0.96611085   -2.9403725    1666.3657  0.081112039  0.081240663            3 
 1713000   0.97165654   -2.9466986    1667.9514  0.081141829  0.081228808            3 
 1714000   0.99399027   -2.9150739      1671.12  0.081248544  0.081216757            2 
 1715000   0.97985686   -2.9317717    1672.0737  0.081247507  0.081204935            1 
 1716000   0.99648847   -2.9352599    1674.4161  0.081313913   0.08119295            3 
 1717000   0.99237796   -2.9280424    1681.4598  0.081608416  0.081180873            1 
 1718000    1.0027522   -2.9728173    1668.1107  0.080913401  0.081168967            5 
 1719000   0.97228474   -2.9402009    1677.6824  0.081330346  0.081156648            1 
 1720000   0.96521861   -2.9317006    1679.7459  0.081383036  0.081144536            1 
 1721000   0.98148882   -2.9241499    1684.5466  0.081568204  0.081132968            2 
 1722000   0.96323978   -2.9567212    1670.2329  0.080828149  0.081121039            3 
 1723000   0.95745143    -2.956772    1681.2764  0.081315359  0.081108938            2 
 1724000   0.99258221   -2.9727618    1672.4389  0.080841013  0.081097314            2 
 1725000   0.95175702    -2.926093    1679.9183  0.081155473  0.081085496            3 
 1726000   0.99770459   -2.9270325    1679.1349  0.081070632  0.081073808            2 
 1727000   0.95565731   -2.9477614    1683.7976  0.081248676   0.08106214            2 
 1728000    0.9895053   -2.9556635    1686.9273  0.081352592  0.081050808            3 
 1729000    0.9713616   -2.9408764    1690.6179  0.081483413  0.081039633            2 
 1730000    1.0120384   -2.9450339    1686.9589  0.081260061  0.081028451            2 
 1731000   0.96782675   -2.9349103    1685.7846  0.081156588   0.08101719            4 
 1732000   0.98752073   -2.9237029    1687.8822  0.081210653  0.081005974            3 
 1733000   0.99206654   -2.9685261    1686.0086  0.081073698  0.080994459            3 
 1734000   0.96781256   -2.9504665    1687.9227  0.081118929  0.080982586            5 
 1735000   0.97561239   -2.9323498    1685.4718  0.080954459  0.080970918            3 
 1736000   0.94954396   -2.9137312    1696.9506  0.081458842  0.080959558            1 
 1737000   0.97298175   -2.9458548    1689.6375  0.081061096  0.080947913            1 
 1738000   0.98517545   -2.9521302    1687.1974  0.080897458  0.080936273            2 
 1739000    0.9803078    -2.961209    1688.9829  0.080936501  0.080924323            2 
 1740000   0.94766529   -2.9601417    1688.6102  0.080872136  0.080912124            2 
 1741000   0.96240631   -2.9435254    1685.5809  0.080680684  0.080900024            6 
 1742000   0.95940975   -2.9481886     1694.586  0.081065154  0.080887993            2 
 1743000   0.96678625   -2.9661156    1693.1132   0.08094823   0.08087609            3 
 1744000   0.98194925   -2.9542722     1692.606  0.080877583  0.080864196            4 
 1745000   0.98242755   -2.9651011     1694.403  0.080917048  0.080852287            2 
 1746000   0.96839355   -2.9691106     1692.591  0.080784222  0.080840437            2 
 1747000    0.9644604   -2.9712746    1699.3607  0.081060899   0.08082902            6 
 1748000   0.98149573   -2.9771867    1696.6958  0.080887481  0.080817266            3 
 1749000   0.96173058   -2.9825068    1695.3413  0.080776697  0.080805627            3 
 1750000   0.98066595   -2.9469544    1703.4132  0.081114912   0.08079432            4 
 1751000   0.98146045   -2.9746574    1701.1627  0.080961484  0.080782583            2 
 1752000   0.96779876   -2.9269126     1701.506  0.080931604  0.080770907            7 
 1753000   0.98878982   -2.9574055    1701.6714  0.080893297  0.080759156            3 
 1754000   0.97070679   -2.9704389    1701.4945  0.080838773  0.080747704            3 
 1755000   0.98730377   -2.9475074    1701.2625  0.080781696  0.080736047            2 
 1756000   0.96157804     -2.96428    1701.8264  0.080762453  0.080724747            2 
 1757000    1.0083551   -2.9546255    1703.1298  0.080778307  0.080713633            2 
 1758000   0.96483372   -2.9488738    1698.4516  0.080510597  0.080702071            2 
 1759000   0.96243068   -2.9334173    1709.7906  0.081002019  0.080690447            2 
 1760000   0.97874815   -2.9536157    1706.9774  0.080822795  0.080679224            2 
 1761000   0.96394241   -2.9459408    1703.5372  0.080614101  0.080667767            2 
 1762000   0.96998027   -2.9669257    1704.8669  0.080631236  0.080655812            3 
 1763000   0.95519237   -2.9414512    1702.6149  0.080479057  0.080643559            1 
 1764000   0.97629561   -2.9495591    1711.2762  0.080842604  0.080631855            5 
 1765000   0.97940388   -2.9579909    1706.1979   0.08055703  0.080620455            1 
 1766000   0.97188135   -2.9754352    1705.6205  0.080484168  0.080608713            4 
 1767000   0.98400124   -2.9531719    1708.7184  0.080584721  0.080596614            2 
 1768000   0.96929521   -2.9478843    1711.9537  0.080691634  0.080584814            3 
 1769000    0.9815508   -2.9567284    1707.9185   0.08045593  0.080572955            3 
 1770000   0.97479355   -2.9665446    1707.2268  0.080377909  0.080560921            2 
 1771000   0.93714963   -2.9612707    1714.0499  0.080653582  0.080549267            2 
 1772000    0.9500539   -2.9490265    1714.2537  0.080617649  0.080537286            3 
 1773000   0.98055292   -2.9560887    1714.8317  0.080599349  0.080525121            3 
 1774000   0.98164426    -3.014701    1705.4439  0.080112922  0.080512984            2 
 1775000   0.97733754    -2.968025     1706.241  0.080105209  0.080500752            4 
 1776000   0.97420328   -2.9550795    1711.8901  0.080325172  0.080489055            4 
 1777000   0.98077579    -2.955539    1718.6284  0.080595965  0.080477126            5 
 1778000   0.96897674   -2.9597326    1723.1405  0.080762114  0.080465159            2 
 1779000   0.95666444   -2.9498146    1715.8256  0.080374069  0.080453379            2 
 1780000   0.95695599    -2.930625    1725.6409  0.080788431  0.080441509            2 
 1781000   0.98782382   -2.9811315    1720.8796   0.08052029  0.080429877            1 
 1782000   0.97662213   -2.9498201    1723.5681  0.080600827   0.08041843            1 
 1783000     0.967727   -2.9811479    1718.4139  0.080314727  0.080406817            9 
 1784000    0.9591593   -2.9652142    1720.2234  0.080354232  0.080394884            2 
 1785000   0.96605067   -2.9588839    1720.1936  0.080307825  0.080383392            4 
 1786000    0.9768492    -2.976548    1723.3359  0.080409474  0.080371215            2 
 1787000   0.96687064   -2.9635606     1719.786  0.080198939  0.080359263            1 
 1788000   0.97007394   -2.9410713    1726.8412  0.080482905  0.080347738            2 
 1789000   0.97298397   -2.9242999    1726.5514  0.080424417  0.080335954            5 
 1790000   0.97218108   -2.9567719    1727.5622  0.080426545   0.08032428            3 
 1791000   0.96350453   -2.9484543    1729.3997  0.080467135  0.080312536            6 
 1792000   0.96650544   -2.9669213    1726.0371  0.080265861  0.080300713            3 
 1793000   0.96778958   -2.9779322    1726.2911  0.080232902  0.080289067            7 
 1794000   0.97206502   -2.9755033    1736.9905  0.080685178  0.080277415            2 
 1795000   0.94668692   -2.9604085    1727.1309  0.080182493  0.080265984            6 
 1796000   0.98450378   -2.9769109    1731.4181  0.080336769  0.080254225            3 
 1797000   0.96896473   -2.9715169    1733.0967   0.08036991  0.080242579            2 
 1798000   0.95313441   -2.9573097    1732.1263  0.080280235  0.080231056            2 
 1799000   0.97342546   -2.9601867    1732.3737  0.080247066  0.080219223            2 
 1800000   0.96403553   -2.9811082     1729.717  0.080079491  0.080207189            3 
 1801000   0.96295805     -2.95045    1729.3252  0.080016896  0.080195151            3 
 1802000   0.96406056   -2.9706824    1736.5023  0.080304396  0.080183361            6 
 1803000   0.97604028    -2.975361    1732.7279  0.080085408   0.08017147            2 
 1804000   0.97220992   -2.9410672    1736.6761  0.080223399  0.080159587            4 
 1805000   0.95226405   -2.9559752    1742.9707  0.080469562  0.080147793            4 
 1806000   0.96471897   -2.9696431    1739.3656  0.080258656  0.080135895            4 
 1807000   0.96012654   -2.9566995    1736.6856  0.080090649  0.080124526            2 
 1808000    0.9364842   -2.9573836    1740.4162  0.080218297  0.080113137            1 
 1809000   0.97092059    -2.968544    1741.4991  0.080223839  0.080101895            3 
 1810000   0.96353229   -2.9516379    1741.4753  0.080178422  0.080090186            3 
 1811000   0.95491145   -2.9433053    1748.7699  0.080469808   0.08007879            2 
 1812000   0.97308336   -2.9661219    1747.0584  0.080346689  0.080067769            3 
 1813000   0.95848829   -3.0042658    1744.8145  0.080199232  0.080055898            3 
 1814000   0.95637869   -2.9915455    1744.2698  0.080129998  0.080044795            3 
 1815000   0.94465793   -2.9652707    1748.5596  0.080282809  0.080033664            3 
 1816000   0.94477838   -2.9728624    1744.9504  0.080072979  0.080022167            2 
 1817000   0.97827401       -2.951    1753.3372  0.080413556  0.080011364            1 
 1818000   0.95977693   -2.9772871    1750.8394  0.080254832  0.079999934            2 
 1819000   0.95458582   -2.9655913     1750.897  0.080213351  0.079988779            2 
 1820000   0.98977635   -2.9618033    1749.7771  0.080117998  0.079977761            2 
 1821000   0.95894664   -2.9563873    1755.9594  0.080356917  0.079966723            2 
 1822000   0.96179691   -2.9683087    1758.8636  0.080445648  0.079955508            3 
 1823000   0.95057391   -2.9675486     1750.268  0.080008593  0.079944435            4 
 1824000   0.95785565   -2.9690711    1752.3187  0.080058422  0.079932881            2 
 1825000   0.96939551   -2.9541417    1747.3564  0.079787962  0.079921394            2 
 1826000   0.98603565   -2.9427264    1760.0871  0.080325259  0.079909964            3 
 1827000   0.95148177   -2.9405502     1753.404  0.079976463  0.079898587            5 
 1828000   0.95710559   -2.9695986    1751.7225   0.07985606  0.079887157            3 
 1829000   0.96032614   -2.9616108     1760.111  0.080194596  0.079875387            2 
 1830000   0.96567408   -2.9662023    1754.9354   0.07991509  0.079863882            7 
 1831000   0.96288137   -2.9703583    1747.7801  0.079545792  0.079852052            5 
 1832000   0.96265466   -2.9704855    1754.8541   0.07982415  0.079839926            3 
 1833000   0.96487477   -2.9560849    1753.4293  0.079715824  0.079827509            2 
 1834000   0.97965102    -2.984736    1754.5415  0.079722896  0.079815418            2 
 1835000   0.96336194    -2.981748    1757.7794  0.079826494  0.079803295            2 
 1836000   0.95062969   -2.9567031    1765.3207  0.080125303  0.079791325            3 
 1837000   0.95885166   -2.9933622     1759.457  0.079815685  0.079779362            4 
 1838000   0.96358883   -2.9678705    1765.3399  0.080038985  0.079767499           10 
 1839000   0.94692365   -2.9890586    1763.2179  0.079899308  0.079755641            2 
 1840000   0.94643408   -2.9696779      1761.14  0.079761777  0.079743803            4 
 1841000   0.95706709   -2.9848999    1761.8634  0.079751195  0.079731885            4 
 1842000   0.96669819   -2.9719092    1762.6022  0.079741323  0.079720123            4 
 1843000   0.91844676   -2.9884064    1765.4751  0.079827959  0.079708176            1 
 1844000   0.96875556   -2.9758868    1765.2738  0.079775572  0.079696283            1 
 1845000   0.95438754   -2.9561428    1768.2904  0.079868581  0.079684769            4 
 1846000   0.96255464   -2.9686578    1763.8102  0.079623068  0.079673045            2 
 1847000   0.97080728   -3.0036244    1770.4412  0.079879139  0.079661313            4 
 1848000   0.95957939   -2.9746378    1765.0141  0.079591182    0.0796495            3 
 1849000   0.94650231   -2.9645763     1772.654  0.079892466  0.079637678            5 
 1850000   0.95831366   -2.9583965    1767.1491  0.079601311  0.079625983            1 
 1851000   0.96269589   -2.9757389    1775.5485  0.079936454  0.079614189            3 
 1852000    0.9832994   -2.9876108    1774.8671   0.07986263  0.079602365            1 
 1853000   0.95258991   -2.9646099    1770.4886  0.079622622  0.079590873            3 
 1854000   0.95129056   -2.9904603    1775.3271  0.079797155   0.07957934            2 
 1855000   0.94635482   -2.9865415    1773.2696  0.079661706  0.079567807            4 
 1856000   0.95464719   -2.9817353    1778.3049   0.07984487   0.07955598            2 
 1857000   0.94837284   -2.9650896    1777.6141  0.079770872  0.079544028            2 
 1858000   0.94328927   -2.9871904    1771.4096   0.07944966  0.079532305            4 
 1859000   0.95069457   -2.9617991    1776.3184  0.079626967   0.07952038            3 
 1860000   0.94640996   -2.9959542    1777.2883  0.079627613  0.079508575            6 
 1861000   0.95840435    -2.978226     1777.301  0.079585393  0.079496772            2 
 1862000   0.95272028   -2.9376776     1780.194  0.079672128  0.079485359            2 
 1863000   0.95505462   -2.9624495    1782.9274  0.079751628   0.07947369            4 
 1864000   0.96985442   -2.9898695    1780.1237  0.079583498  0.079461794            4 
 1865000   0.93639164   -2.9741179    1777.3243  0.079415743  0.079449985            3 
 1866000   0.95865392   -2.9528329    1778.3432  0.079418685  0.079437984            1 
 1867000   0.96922659   -2.9688243    1785.9527  0.079715797   0.07942635            3 
 1868000   0.95718858   -2.9793653    1785.0971  0.079634953  0.079414347            2 
 1869000   0.97626744   -3.0132081    1773.9112  0.079093595  0.079402074            4 
 1870000   0.93797875   -2.9759619    1781.3249  0.079381681  0.079390167            1 
 1871000   0.95338437   -2.9850337    1778.2336  0.079201568   0.07937831            4 
 1872000   0.93619843   -2.9414901    1787.3296  0.079564175  0.079366873            2 
 1873000   0.95859607   -2.9801819    1784.6382  0.079401948  0.079355436            8 
 1874000   0.95492022   -2.9864503    1781.3939  0.079215309  0.079343475            2 
 1875000   0.94884632   -3.0139336    1779.9231  0.079107693   0.07933162            2 
 1876000       0.9275   -2.9584926    1787.2927  0.079392888  0.079319796            2 
 1877000    0.9627514   -2.9740628    1786.6468  0.079321913  0.079308185            2 
 1878000   0.95897105   -2.9631639    1787.4574  0.079315648  0.079296766            2 
 1879000   0.96127651   -3.0031458    1789.7114  0.079373401  0.079285236            7 
 1880000   0.95666909   -2.9607048    1784.2462  0.079088928  0.079273714            2 
 1881000    0.9640213   -2.9880606    1789.5595  0.079282274  0.079262087            2 
 1882000   0.94175295    -2.965445    1791.8812  0.079342951   0.07925027            2 
 1883000   0.94236912   -2.9792507    1796.7323  0.079515503  0.079238467            4 
 1884000   0.93849515   -2.9730118    1792.6002  0.079290525  0.079226541            3 
 1885000   0.93396704   -2.9660485    1790.7989   0.07916883   0.07921427            1 
 1886000   0.94357429   -2.9776108     1791.476  0.079156767  0.079201782            2 
 1887000    0.9587216   -2.9754604    1791.4169   0.07911221  0.079189528            4 
 1888000   0.95225964   -2.9843846    1792.5121   0.07911865  0.079177519            2 
 1889000   0.96201676   -2.9984717    1794.3072  0.079155956  0.079165125            2 
 1890000    0.9558692     -2.98074    1790.8464   0.07896148   0.07915302            3 
 1891000   0.93562931   -2.9940353    1797.2782  0.079203166  0.079141005            2 
 1892000   0.93675393   -3.0046305    1793.3472  0.078988161  0.079128697            3 
 1893000   0.95136678     -3.01825    1792.9251  0.078927852  0.079116353            3 
 1894000   0.96029287   -2.9708547    1793.9963   0.07893331  0.079103826            2 
 1895000    0.9546371   -2.9633738    1789.2133  0.078681325  0.079091615            2 
 1896000   0.96826736   -2.9755541    1801.5382  0.079181532  0.079079029            4 
 1897000   0.95827431   -3.0142043    1802.1898  0.079168415  0.079066696            2 
 1898000   0.94920677   -2.9723699    1800.7643  0.079064118  0.079054377            1 
 1899000      0.94158   -2.9793635    1795.6133   0.07879644  0.079042068            4 
 1900000   0.93045931   -2.9712378    1795.8604  0.078765808  0.079029576            1 
 1901000   0.93257488   -2.9673789    1803.9996  0.079081169  0.079017239            1 
 1902000   0.94715797   -2.9731298    1799.7163  0.078851922  0.079004993            3 
 1903000   0.94441797   -2.9974017    1799.4216  0.078797583  0.078992517            3 
 1904000   0.94885871   -2.9554623    1802.9143  0.078909063  0.078980205            1 
 1905000   0.94454159    -2.992598    1805.1377  0.078964905  0.078967842            2 
 1906000   0.93674362     -3.00492    1800.1071  0.078703528  0.078955434            2 
 1907000    0.9596504   -2.9806453    1805.7686  0.078909659  0.078942837            3 
 1908000    0.9307133   -2.9877981    1798.0541  0.078531362  0.078930116            3 
 1909000   0.95735292   -2.9993287    1807.5012   0.07890262  0.078917282            2 
 1910000   0.94235994   -2.9962804    1801.5451  0.078601443  0.078904748            1 
 1911000   0.95345425   -2.9800216    1795.3854  0.078291708  0.078891932            3 
 1912000   0.94833575   -2.9635191    1805.5623  0.078694312  0.078879331            3 
 1913000   0.95577903   -2.9853939    1807.9396  0.078756734  0.078866411            2 
 1914000   0.96831255   -2.9641077     1804.899  0.078583203  0.078853577            3 
 1915000   0.95118526   -2.9974144    1808.8804  0.078715421   0.07884113            2 
 1916000   0.95147113   -2.9875016    1800.0053  0.078288331   0.07882857            3 
 1917000   0.95807818   -2.9616442    1804.6008   0.07844726  0.078815489            3 
 1918000   0.93985666   -2.9913451    1809.8383  0.078633922  0.078802882            2 
 1919000   0.94178459   -3.0038251    1806.5127  0.078448527  0.078789891            2 
 1920000   0.93688539   -2.9910335    1805.0275  0.078343207  0.078777003            5 
 1921000   0.92008002    -2.991336    1808.8203  0.078466959  0.078763923            2 
 1922000   0.95350762   -3.0322018    1805.8771   0.07829852  0.078751079            3 
 1923000   0.94547669   -3.0067532    1810.4939  0.078457872   0.07873773            2 
 1924000   0.94652605   -2.9918322    1802.4942  0.078070609   0.07872455            2 
 1925000   0.94075285    -2.968753    1815.8726  0.078609205  0.078711098            1 
 1926000   0.95255358   -2.9917024    1813.2925  0.078456755   0.07869814            2 
 1927000   0.94289932   -2.9777671    1810.8682  0.078311198  0.078685113            3 
 1928000   0.93028606   -2.9948759    1818.9606  0.078620359   0.07867205            4 
 1929000   0.93724616   -2.9819855    1814.3047  0.078378466  0.078658931            5 
 1930000   0.94269245   -2.9854708    1818.7206  0.078528525  0.078646322            3 
 1931000    0.9717702   -2.9853526    1818.5923  0.078482318  0.078633453            6 
 1932000   0.94665909    -2.984899    1815.3363  0.078301255  0.078620824            3 
 1933000    0.9489174   -2.9717841    1821.2402  0.078515269  0.078607962            2 
 1934000   0.93516498     -2.99384     1810.395  0.078007369  0.078594883            4 
 1935000   0.96952521   -2.9890026    1818.0838  0.078298182  0.078581392            2 
 1936000   0.95705031   -2.9929374    1809.8203  0.077902045  0.078568062            3 
 1937000   0.92813778    -3.001227    1812.8415  0.077991804   0.07855451            2 
 1938000   0.92841988   -2.9777989    1822.0489  0.078347476  0.078541393            3 
 1939000   0.95676046   -2.9925841    1819.9886  0.078218522  0.078528006            4 
 1940000   0.94146237   -3.0013888    1817.8974  0.078088375   0.07851488            5 
 1941000   0.92573864   -2.9793784    1823.9558  0.078308252  0.078501729            4 
 1942000   0.91965542   -2.9817574    1820.1903  0.078106345  0.078488719            5 
 1943000   0.93677925   -2.9844021    1821.7463  0.078132883  0.078475452            6 
 1944000   0.94989264    -3.009321    1820.6118  0.078044058  0.078462159            4 
 1945000   0.94885935   -2.9740379    1822.6934  0.078093121  0.078449003            2 
 1946000    0.9382276   -2.9801578    1827.8103  0.078272111  0.078435825            1 
 1947000   0.95680207   -3.0168174    1820.0083  0.077897975  0.078422624            3 
 1948000    0.9505017   -2.9676789    1830.9432   0.07832577  0.078409712            3 
 1949000   0.94769997   -2.9891361    1825.7687  0.078064336   0.07839668            2 
 1950000   0.94887396   -2.9792452    1830.6685  0.078233695   0.07838385            2 
 1951000   0.95440863   -2.9996024    1833.3533  0.078308272  0.078370742            2 
 1952000   0.92859345    -2.988715    1825.3405   0.07792608  0.078357642            3 
 1953000   0.92703013    -3.008723    1826.9638  0.077955445  0.078344287            2 
 1954000   0.94204749   -2.9738658    1824.2439  0.077799551  0.078331248            2 
 1955000    0.9492496   -3.0106781    1829.2236  0.077972021  0.078318248            3 
 1956000   0.94806241    -2.983503    1832.1526  0.078056944  0.078305079            2 
 1957000   0.92741819   -3.0229794    1825.0754  0.077715698  0.078292206            1 
 1958000   0.93736759   -2.9896542     1827.387  0.077774388  0.078278982            2 
 1959000   0.93623585   -3.0003057    1835.3054  0.078071522  0.078266032            2 
 1960000    0.9498785   -2.9973146    1830.3969  0.077822996  0.078253061            2 
 1961000   0.94251686   -2.9867241    1837.0704  0.078066905  0.078240046            2 
 1962000   0.93027914   -3.0035042     1834.928  0.077936119  0.078226891            4 
 1963000   0.93183347    -3.007691    1828.3601  0.077617596   0.07821369            4 
 1964000    0.9204225   -3.0090515    1827.2994  0.077533072   0.07820003            5 
 1965000    0.9082975   -3.0145484    1832.4087  0.077710291  0.078186497            1 
 1966000   0.94128705   -2.9860264    1835.2151  0.077789721  0.078173124            2 
 1967000   0.91907078   -3.0152998    1837.6612  0.077853803  0.078159618            5 
 1968000   0.94811386   -2.9977549    1842.3185  0.078011456  0.078146293            2 
 1969000   0.93664941   -2.9985404    1843.2551  0.078011472   0.07813291            2 
 1970000   0.93466281    -3.014394    1828.9483  0.077366678  0.078119256            2 
 1971000   0.94080325    -3.014772    1831.7071  0.077444068   0.07810567            3 
 1972000   0.91694465   -3.0006662    1839.2214  0.077722338  0.078092396            6 
 1973000   0.93300445   -2.9904908    1840.5147  0.077737568  0.078078817            3 
 1974000   0.93306911   -2.9957695    1842.7186  0.077791229  0.078065335            4 
 1975000   0.93646763   -3.0063073    1834.5863  0.077408705  0.078051714            4 
 1976000    0.9102746   -2.9641302    1840.8405  0.077633288  0.078038269            2 
 1977000   0.93642076    -2.977673    1841.4009  0.077617639  0.078024738            6 
 1978000   0.93028853   -2.9732472    1838.2935  0.077447485  0.078011426            2 
 1979000   0.94966308   -2.9986499    1842.1464  0.077570591  0.077997855            4 
 1980000   0.93549489   -2.9795812    1841.2106  0.077492027  0.077984362            3 
 1981000   0.94184702   -2.9974856    1843.3146  0.077541417  0.077970995            4 
 1982000   0.92483115   -3.0229506    1843.1063  0.077493538  0.077957528            4 
 1983000   0.94088267   -3.0012076    1842.8956  0.077445604  0.077944075            2 
 1984000   0.92146168   -3.0008183    1844.4092  0.077470143  0.077930375            3 
 1985000   0.94185649   -2.9902949     1846.737   0.07752884  0.077917065            1 
 1986000   0.93277936   -3.0068988    1846.8862  0.077496062   0.07790383            1 
 1987000   0.93242364   -3.0058645     1846.839  0.077455083  0.077890383            3 
 1988000   0.94259735    -2.990081    1852.8992  0.077670155  0.077877105            5 
 1989000   0.94106403   -2.9985326    1852.7712  0.077625744  0.077863808            1 
 1990000   0.93439021   -3.0017366    1856.1279  0.077727298  0.077850345            2 
 1991000   0.94023399   -3.0228697    1844.9044  0.077218499  0.077836634            6 
 1992000   0.93547862    -3.003186    1854.2513  0.077570753  0.077823498            6 
 1993000    0.9374699   -3.0056801    1846.9345  0.077225896   0.07781037            3 
 1994000   0.93525036   -2.9984085    1858.3419  0.077663903  0.077796977            4 
 1995000    0.9424991   -2.9979781    1860.8798  0.077730984  0.077783548            2 
 1996000   0.94411268   -3.0260656     1851.384  0.077295592  0.077770245            1 
 1997000   0.91638407   -3.0132802    1856.5505  0.077472478   0.07775702            3 
 1998000   0.93617707   -2.9980759    1849.1798  0.077126283  0.077743456            3 
 1999000   0.92703935    -3.032029    1855.1104  0.077334935  0.077730471            4 
 2000000   0.94290126   -3.0023966    1856.0299  0.077334579  0.077717274            2 
 2001000   0.92065251   -3.0162242    1854.8226  0.077245652  0.077704151            2 
 2002000   0.95155902   -3.0100688    1861.3318  0.077478013  0.077690947            3 
 2003000   0.93684215   -3.0072116      1863.57  0.077532449  0.077678031            2 
 2004000   0.93498459   -3.0073804    1861.5536  0.077409913  0.077665256            3 
 2005000   0.90986948   -3.0145255    1863.1714  0.077438545  0.077652199            3 
 2006000   0.94643689   -3.0336516    1859.1871  0.077234427  0.077639082            2 
 2007000   0.94861819   -3.0378209     1853.923  0.076977372  0.077626048            2 
 2008000   0.93503004   -3.0134122    1870.9152  0.077644223  0.077613022            4 
 2009000   0.93212831   -3.0005151    1865.2014  0.077368566  0.077600092            2 
 2010000   0.94568042   -3.0194683    1859.6767  0.077101026  0.077587063            5 
 2011000   0.94746542   -3.0165405    1861.3865  0.077133537  0.077573792            2 
 2012000   0.93161017   -2.9974762      1859.39   0.07701251  0.077560673            3 
 2013000   0.94336321   -3.0141446     1860.171  0.077006583  0.077547364            3 
 2014000   0.94557061   -2.9942755    1865.1646  0.077174966  0.077534126            3 
 2015000   0.94144574    -2.986822    1862.5558  0.077028778  0.077521043            1 
 2016000   0.93324024   -2.9896387    1873.3194  0.077435493  0.077507632            8 
 2017000   0.92061931   -3.0079292      1865.36  0.077068254  0.077494323            2 
 2018000   0.93246728   -3.0082976    1871.9352  0.077301586  0.077481051            4 
 2019000   0.94595963   -2.9967616    1863.0893   0.07689819  0.077467817            1 
 2020000   0.92920915   -3.0237309    1875.0733  0.077354508  0.077455041            4 
 2021000   0.93090406     -2.98544    1872.4787  0.077209247  0.077442178            3 
 2022000    0.9379747   -2.9966409    1870.3019  0.077081352  0.077429271            1 
 2023000    0.9478949   -3.0027462    1866.1472  0.076872105  0.077416084            2 
 2024000    0.9347268   -3.0181567    1867.6774  0.076897125  0.077402979            4 
 2025000   0.93918381    -3.030262    1877.7916  0.077275373  0.077389887            5 
 2026000   0.94252943    -3.002447    1876.2599   0.07717423   0.07737681            4 
 2027000   0.90555502   -3.0161662    1878.0332  0.077209062  0.077364115            3 
 2028000   0.93640599   -3.0157422    1882.1497   0.07734014  0.077351185            2 
 2029000   0.93775742   -3.0317954    1872.9209  0.076922988  0.077338344            2 
 2030000   0.94418925   -2.9863369    1878.8319  0.077127748  0.077325772            1 
 2031000   0.90727813   -3.0076475    1882.7271  0.077249593  0.077312938            3 
 2032000   0.92703732   -3.0060515    1882.8813  0.077217901  0.077299936            1 
 2033000   0.91662692   -3.0215165     1877.589  0.076962985  0.077287185            2 
 2034000    0.9251761   -3.0196321    1875.6585  0.076846055  0.077274299            1 
 2035000    0.9441401   -3.0163006    1878.3945  0.076920333   0.07726156            2 
 2036000   0.93199471   -3.0328434    1876.6638  0.076811714  0.077248541            1 
 2037000   0.90758272   -2.9932627    1887.8884  0.077233202  0.077235935            2 
 2038000   0.91846616   -2.9974178    1883.4114  0.077012242  0.077223278            3 
 2039000   0.95841989   -3.0081246    1881.0899  0.076879595  0.077210464            3 
 2040000   0.93213735   -3.0378735    1885.2423  0.077011533  0.077197763            1 
 2041000   0.90589725   -3.0161689     1880.914  0.076797075  0.077184612            2 
 2042000   0.92322473    -3.035248    1879.3595  0.076696029  0.077171624            3 
 2043000   0.91997624   -2.9627145    1887.7868  0.077002234  0.077158882            4 
 2044000   0.92323337   -2.9937318    1889.7835  0.077045966  0.077146333            2 
 2045000   0.92808031   -3.0207706    1889.0727  0.076979326  0.077133646            3 
 2046000   0.93442483   -3.0077813    1892.0297  0.077062141  0.077120919            2 
 2047000   0.92311353   -3.0362738    1881.2697  0.076586458  0.077107812            5 
 2048000    0.9197496   -2.9961848    1888.5987  0.076847278  0.077094838            2 
 2049000   0.93796696   -3.0230263    1885.6227   0.07668874  0.077081924            3 
 2050000   0.91675285   -3.0260308    1893.0415  0.076952905  0.077068754            2 
 2051000   0.93829777    -3.017842    1887.9496  0.076708499  0.077055943            2 
 2052000   0.89941707   -3.0059241    1889.5249  0.076735091  0.077042995            2 
 2053000   0.93029939   -3.0209132    1897.6846  0.077028923  0.077030194            3 
 2054000     0.928271    -3.032535    1896.2918  0.076934915  0.077017334            3 
 2055000   0.92986606   -3.0292826    1882.8715  0.076353266  0.077004458            3 
 2056000    0.9263325   -3.0197966    1887.1392  0.076489105  0.076991615            2 
 2057000   0.91273621   -3.0229606    1895.2484  0.076780441  0.076978566            4 
 2058000   0.93255663   -3.0103108    1891.2987    0.0765832  0.076965709            2 
 2059000   0.93593137    -3.005509    1901.6045  0.076963107  0.076952696            2 
 2060000   0.92128806   -3.0331184    1888.6449  0.076401491  0.076939615            3 
 2061000   0.93869869   -3.0101277    1894.1378  0.076586519   0.07692623            7 
 2062000   0.91671186   -3.0066336    1898.1385  0.076711063  0.076913096            2 
 2063000   0.90647307   -3.0399339    1905.9079  0.076987714  0.076899798            1 
 2064000   0.92657323   -3.0187284    1894.1697  0.076476489  0.076886458            4 
 2065000   0.92038538   -3.0107839     1900.651  0.076701007  0.076873345            3 
 2066000   0.93342321   -3.0305212    1896.8595   0.07651095  0.076859992            3 
 2067000   0.91636029   -3.0185538     1896.048  0.076441219  0.076846611            2 
 2068000    0.9322271   -3.0215959     1904.205  0.076732954  0.076833389            2 
 2069000   0.92151496   -3.0324902    1893.2598  0.076255028  0.076820034            2 
 2070000   0.89711171   -3.0149397    1889.4062  0.076063053   0.07680662            3 
 2071000   0.92028685   -3.0192665    1902.5913  0.076556868  0.076793471            4 
 2072000   0.90772225   -3.0444865    1895.1896  0.076222232  0.076780156            3 
 2073000   0.88889597   -3.0055716    1897.6207  0.076283192  0.076766785            3 
 2074000   0.92606814   -3.0311552    1905.3904  0.076558597  0.076753584            4 
 2075000   0.89336344   -3.0328459    1902.1109  0.076389996  0.076740568            3 
 2076000   0.90847919    -3.009411    1900.8113  0.076301031  0.076727426            3 
 2077000   0.90291402   -3.0071606    1902.4043   0.07632821  0.076714474            2 
 2078000   0.90478263   -3.0385528    1909.0981  0.076559916   0.07670139            1 
 2079000   0.92101874   -3.0126633    1901.1959  0.076206345  0.076688507            3 
 2080000   0.92824492   -3.0252102    1904.5803  0.076305302  0.076675466            3 
 2081000   0.92784343   -3.0210313    1906.6271  0.076350597  0.076662323            2 
 2082000   0.90417611   -3.0177044    1907.6408  0.076354497  0.076649226            4 
 2083000   0.91188113   -3.0035872    1913.5096  0.076552634  0.076636317            3 
 2084000    0.9073699   -3.0043817    1918.5016  0.076715513  0.076623272            2 
 2085000   0.93681715   -3.0094762    1905.1742   0.07614605  0.076610433            3 
 2086000   0.91233387    -3.048369    1908.5132  0.076242938  0.076597338            3 
 2087000   0.93422817   -3.0332329    1912.5228  0.076366508  0.076584194            4 
 2088000   0.91324726   -3.0355994    1909.3951  0.076205104  0.076571455            6 
 2089000    0.9372442   -3.0264267    1912.1669  0.076279198   0.07655845            3 
 2090000    0.9157742   -3.0221438    1918.3245  0.076488217  0.076545495            4 
 2091000   0.92037712    -3.027824    1914.4149  0.076295829  0.076532686            2 
 2092000   0.91562146   -3.0435172    1910.3866  0.076098892  0.076519604            2 
 2093000   0.90456392   -3.0345332    1918.5409    0.0763872  0.076506881            3 
 2094000   0.93903802   -3.0143672    1918.7921  0.076360717  0.076494209            3 
 2095000   0.91081695   -3.0318741     1923.169   0.07649837  0.076481687            3 
 2096000   0.89797093   -3.0234744    1912.4563  0.076035955  0.076469075            4 
 2097000   0.90653174   -3.0204112    1921.0893  0.076342765  0.076456474            3 
 2098000   0.92919822   -3.0394899    1922.0274  0.076343636  0.076443635            3 
 2099000   0.91919082    -3.027475    1922.2573  0.076316391  0.076430744            1 
 2100000   0.91849352   -3.0356942    1915.5752  0.076014888  0.076418037            2 
 2101000   0.91054442   -3.0208671    1919.5919  0.076138025  0.076404978            3 
 2102000    0.9102122   -3.0295089    1920.0263  0.076119026  0.076392391            3 
 2103000   0.90349977   -3.0316493    1914.5386  0.075865375   0.07637949            3 
 2104000   0.90585559   -3.0312485    1924.9621  0.076242162  0.076366636            2 
 2105000   0.92220351    -3.036544    1922.2206  0.076097411  0.076353601            2 
 2106000   0.92715625   -3.0296249    1922.4287   0.07606951  0.076340428            5 
 2107000   0.91521807    -3.026877    1927.9925   0.07625346  0.076327695            2 
 2108000   0.91833976   -3.0565107    1920.7221  0.075929875  0.076314609            2 
 2109000   0.92206149   -3.0310386    1921.1528  0.075910891  0.076301564            3 
 2110000   0.91367946   -3.0077298    1916.0609  0.075673812  0.076288429            2 
 2111000   0.90719433   -3.0502114    1920.8014  0.075825099  0.076275158            4 
 2112000   0.90871156   -3.0425914    1925.0072  0.075955144  0.076261703            3 
 2113000   0.91354251   -3.0351265    1929.8563   0.07611044  0.076248334            3 
 2114000   0.92401497   -3.0461755    1924.5412  0.075864916  0.076235135            3 
 2115000   0.90434168   -3.0363841    1921.2793  0.075700526  0.076221661            3 
 2116000   0.92649516   -3.0363371    1924.5429  0.075793279  0.076208313            4 
 2117000   0.91485939    -3.032426    1925.6667  0.075801714  0.076194951            1 
 2118000   0.91193619   -3.0490007    1926.7881  0.075810045  0.076181431            1 
 2119000   0.92950038   -3.0399091     1920.537  0.075528435  0.076167955            2 
 2120000   0.88739582   -3.0318694    1926.6887  0.075734617  0.076154253            3 
 2121000   0.93473049   -3.0361926    1926.3664   0.07568625  0.076140657            5 
 2122000   0.91515903   -3.0494151    1932.6028  0.075895492  0.076127141            3 
 2123000   0.89977421   -3.0501287    1925.5562  0.075583145  0.076113858            3 
 2124000   0.91546536   -3.0468916     1935.561  0.075940089  0.076100427            5 
 2125000   0.91169411   -3.0434123    1929.3548  0.075660972  0.076086916            3 
 2126000   0.94201185   -3.0291851     1934.315  0.075819811  0.076073429            2 
 2127000   0.91076405   -3.0296639    1926.0587  0.075460693  0.076059873            2 
 2128000   0.91428763   -3.0461233     1928.953  0.075538575  0.076046484            3 
 2129000   0.91726949   -3.0430554    1929.9224  0.075541037  0.076032787            4 
 2130000   0.90382783    -3.067589    1930.1696  0.075515241  0.076019072            4 
 2131000   0.89494014   -3.0294428    1940.6073  0.075887974   0.07600574            5 
 2132000   0.90227869   -3.0312001    1935.8219  0.075665333  0.075992461            3 
 2133000   0.88713574    -3.045467    1935.3541  0.075611584  0.075978959            9 
 2134000   0.90387718   -3.0296248    1931.3887  0.075421302  0.075965685            3 
 2135000    0.9150131    -3.017624    1937.2906  0.075616341  0.075952344            3 
 2136000    0.9149364   -3.0422941    1933.1383  0.075418942  0.075938991            1 
 2137000    0.9025361   -3.0134016    1938.6722  0.075599446  0.075925835            2 
 2138000   0.93078705   -3.0574409    1939.1708  0.075583522  0.075912696            4 
 2139000   0.90905923   -3.0424819    1943.0456  0.075699143  0.075899378            3 
 2140000   0.90789532   -3.0214732    1944.6665  0.075726888  0.075886171            5 
 2141000   0.89548904   -3.0067649    1937.3349  0.075406155  0.075873064            3 
 2142000   0.89512365   -3.0471118    1943.6946  0.075618372  0.075859839            2 
 2143000    0.9112413   -3.0213741    1941.8232  0.075510314  0.075846622            4 
 2144000   0.89265282   -3.0248641    1953.0776  0.075912532  0.075833449            3 
 2145000   0.92946432    -3.064999    1941.2479  0.075417557  0.075820742            6 
 2146000   0.89893239   -3.0271628    1947.0955  0.075609488  0.075807883            3 
 2147000   0.90557398    -3.038789    1940.5117  0.075318726  0.075795077            4 
 2148000   0.89880938   -3.0503633    1948.8347   0.07560656  0.075782314            3 
 2149000   0.92647391   -3.0665871    1949.8636  0.075611275   0.07576945            4 
 2150000   0.90554028   -3.0529775    1947.9328  0.075501273  0.075756608            4 
 2151000   0.91455758    -3.027358    1951.0809  0.075588135  0.075743827            3 
 2152000   0.89773335   -3.0189139    1946.8076  0.075387532  0.075731186            8 
 2153000   0.90919046   -3.0313261    1947.5212  0.075380135  0.075718222            3 
 2154000    0.9047786   -3.0324516    1954.9449  0.075632346  0.075705483            5 
 2155000   0.89754257   -3.0720768    1946.3059  0.075263181  0.075692511            2 
 2156000   0.91933576   -3.0069195    1955.2767  0.075575013  0.075679344            2 
 2157000    0.9194611   -3.0452296    1956.5222  0.075588094  0.075666499            2 
 2158000   0.91504184   -3.0380885    1952.3727  0.075392829  0.075653576            2 
 2159000   0.90193346   -3.0604214    1954.2475  0.075430274  0.075640704            3 
 2160000   0.89098492   -3.0341839    1954.6248  0.075409906  0.075627826            2 
 2161000   0.90467932   -3.0264251    1949.9697  0.075195499  0.075614936            6 
 2162000   0.91373001   -3.0655601    1955.1695  0.075361141  0.075601918            2 
 2163000    0.8964864   -3.0233867    1949.9983  0.075127071  0.075589058            2 
 2164000   0.93219223    -3.017548    1962.3156  0.075566682  0.075576224            2 
 2165000   0.90724598    -3.024331    1960.3834  0.075457407  0.075563488            4 
 2166000   0.90270715   -3.0399289    1955.7577  0.075244602  0.075550805            2 
 2167000   0.89176186   -3.0346733    1956.6529  0.075244305  0.075538064            2 
 2168000   0.89432074   -3.0455155    1955.2069  0.075154016  0.075525325            1 
 2169000   0.88484533   -3.0586542    1950.7853  0.074949488  0.075512285            3 
 2170000    0.9034711   -3.0284863    1961.3369  0.075320156  0.075499322            2 
 2171000   0.92228132   -3.0483982    1962.0853  0.075314192  0.075486534            1 
 2172000   0.90640193   -3.0578588      1957.59  0.075107046  0.075473577            2 
 2173000   0.91181126    -3.021593    1967.0087  0.075433683  0.075460464            5 
 2174000   0.91270463    -3.022675    1958.0478  0.075055497  0.075447454            3 
 2175000   0.90637868   -3.0610797     1961.206  0.075141991  0.075434653            2 
 2176000   0.90075104   -3.0509444    1961.3811  0.075114165  0.075421686            3 
 2177000   0.90540794   -3.0294394    1961.5918  0.075087729  0.075408782            2 
 2178000   0.89593412   -3.0347478    1960.6446  0.075017012  0.075395696            2 
 2179000   0.89671796   -3.0447172     1965.806  0.075179977  0.075382737            3 
 2180000   0.92150465   -3.0539146    1960.7831  0.074953484  0.075369743            3 
 2181000   0.89317996   -3.0646069    1958.0898  0.074816209  0.075356513            4 
 2182000   0.88484502   -3.0509968    1967.8924  0.075156292  0.075343345            4 
 2183000   0.89309182   -3.0432401    1969.7825  0.075194017  0.075330557            3 
 2184000   0.89917587   -3.0462056    1967.5182  0.075073191  0.075317477            5 
 2185000   0.90062371   -3.0600434    1972.9337  0.075245375  0.075304841            3 
 2186000   0.90702857   -3.0478606    1963.8972  0.074866469  0.075291871            4 
 2187000   0.91534163   -3.0563689    1973.2083  0.075187027  0.075278766            4 
 2188000   0.89808721    -3.030247    1964.0542  0.074804013  0.075266324            2 
 2189000   0.88654607   -3.0240296    1973.1831  0.075117372   0.07525362            3 
 2190000    0.9052423   -3.0617936    1966.9771  0.074846922  0.075240921            3 
 2191000   0.90498657   -3.0327796    1972.6773  0.075029564    0.0752282            4 
 2192000   0.88660892   -3.0307891    1982.3812  0.075364247  0.075215456            1 
 2193000   0.91610686   -3.0356697    1971.1308  0.074902371  0.075202611            3 
 2194000   0.90442285   -3.0626996    1973.4263  0.074955421  0.075189699            2 
 2195000   0.89220018   -3.0416983    1965.9898  0.074638944   0.07517681            2 
 2196000   0.91017197   -3.0484863    1969.1108  0.074723391  0.075163855            5 
 2197000   0.91063739   -3.0602116    1967.1057  0.074613326  0.075150827            3 
 2198000   0.91117177   -3.0408727    1976.8321   0.07494814  0.075137694            2 
 2199000   0.88889098   -3.0646692    1973.1581  0.074774826  0.075124327            3 
 2200000   0.92181876   -3.0445265    1970.2907  0.074632222  0.075110859            3 
 2201000   0.89101006    -3.020781    1970.4038  0.074602597   0.07509726            4 
 2202000   0.89325545   -3.0645764    1963.9998  0.074326363  0.075084013            9 
 2203000    0.9182329   -3.0412276    1966.5665  0.074389715   0.07507063            2 
 2204000    0.9068905   -3.0396464    1970.2635  0.074495748  0.075057239            5 
 2205000   0.89050665   -3.0793987    1975.5242  0.074660779  0.075043613            5 
 2206000   0.89970762   -3.0462628    1973.4844   0.07454988  0.075029836            2 
 2207000   0.88144998   -3.0687118    1974.9234  0.074570434  0.075015989            3 
 2208000    0.9050502   -3.0499339    1975.5087  0.074558752  0.075002535            4 
 2209000   0.86860179   -3.0583799    1979.9471  0.074692436  0.074988891            2 
 2210000   0.90816949     -3.03495    1978.4233  0.074601179  0.074975346            2 
 2211000   0.87335519   -3.0183798     1977.793  0.074543682  0.074961771            2 
 2212000   0.91608672   -3.0638237    1976.2389  0.074451437  0.074948295            3 
 2213000     0.896899   -3.0166636    1980.1498  0.074565062  0.074934689            5 
 2214000   0.88239824   -3.0609376    1973.9982  0.074299843  0.074921253            3 
 2215000   0.89208005   -3.0487427    1985.0562  0.074682326  0.074907869            3 
 2216000   0.90693069   -3.0513994    1973.9761  0.074231955  0.074894453            5 
 2217000   0.88426253   -3.0570923    1985.7689  0.074641742  0.074881078            6 
 2218000    0.9083841   -3.0698213    1981.8543  0.074461012  0.074867497            1 
 2219000   0.91643428   -3.0874494      1982.74  0.074460719  0.074853897            4 
 2220000   0.89229455   -3.0445125    1979.4013  0.074301851  0.074840119            4 
 2221000   0.91906887   -3.0427964    1987.4341  0.074569793  0.074826588            2 
 2222000   0.89910427   -3.0622808    1983.5586  0.074390887  0.074812981            4 
 2223000   0.89393538   -3.0359172    1982.9407  0.074334259  0.074799379            2 
 2224000   0.91293044    -3.052376    1979.7285  0.074180476  0.074786021            2 
 2225000   0.90769281   -3.0669954     1986.613  0.074404981    0.0747728            8 
 2226000   0.88477317   -3.0375057    1986.9044  0.074382465  0.074759356            2 
 2227000   0.90640965   -3.0668965    1985.9679   0.07431402  0.074745832            2 
 2228000   0.89543153   -3.0408413    1983.2781  0.074180062   0.07473237            5 
 2229000   0.88852655    -3.052097    1985.8252  0.074242007  0.074718936            7 
 2230000    0.9055307   -3.0651704    1990.2699   0.07437481  0.074705542            2 
 2231000   0.90405161   -3.0642258    1991.4833  0.074386795   0.07469227            1 
 2232000   0.91407639   -3.0479337      1991.26  0.074345132  0.074678783            2 
 2233000    0.8933259   -3.0597024    1993.5902    0.0743988  0.074665214            3 
 2234000   0.90121232   -3.0446986    1996.3316  0.074467756  0.074651983            2 
 2235000   0.87508799   -3.0467165    1987.7683  0.074115148  0.074638797            3 
 2236000   0.88331859   -3.0681433    1992.5048  0.074258527  0.074625586            4 
 2237000   0.87802262   -3.0346079    1992.4106  0.074221823  0.074612103            3 
 2238000   0.88447543   -3.0447477    1988.1218  0.074028961  0.074598632            3 
 2239000    0.8996215   -3.0432557    1992.3123  0.074151864  0.074585105            3 
 2240000   0.88916491   -3.0551008    1987.0686  0.073923684  0.074571437            4 
 2241000    0.8994058    -3.070134    1991.3686  0.074050596  0.074557825            3 
 2242000   0.91010941   -3.0527819    1995.7385  0.074179991   0.07454448            3 
 2243000    0.8825588   -3.0473687    1999.7122  0.074294552  0.074531025            5 
 2244000    0.8939153   -3.0636243     2001.967  0.074345179  0.074517466            2 
 2245000   0.90694942   -3.0412741     1989.956  0.073866222  0.074504018            2 
 2246000   0.88981701   -3.0697723    1998.7157  0.074158345  0.074490621            3 
 2247000   0.89820168   -3.0519878    1993.0064  0.073913603  0.074477046            3 
 2248000   0.89784095   -3.0572788    2003.2716  0.074261255  0.074463405            3 
 2249000    0.9036631   -3.0620626    1993.6204  0.073870622  0.074449637            3 
 2250000   0.87635662    -3.031927    1996.7551  0.073953894  0.074435746            5 
 2251000   0.90744125    -3.030114    1997.0924  0.073933526  0.074422108            2 
 2252000   0.88844324   -3.0654275    1992.2658  0.073722093  0.074408551            2 
 2253000   0.89722683   -3.0673987    2000.4755  0.073993027  0.074394837            3 
 2254000   0.88208635   -3.0470172    2003.3906  0.074067975  0.074381227            3 
 2255000   0.91013636   -3.0889209    1999.4951  0.073891172  0.074367878            1 
 2256000   0.89825353   -3.1073476    2000.3798  0.073891099  0.074354221            3 
 2257000    0.8752657   -3.1003718    2000.5773  0.073865651   0.07434067            2 
 2258000   0.88097953   -3.0606581    1997.3832  0.073715058  0.074327186            4 
 2259000   0.88648793   -3.0553515    2007.8054  0.074066897  0.074313701            4 
 2260000   0.88896581   -3.0660907    2009.4312  0.074094072  0.074300769            3 
 2261000   0.90060546    -3.049534    2001.6827  0.073775716  0.074287446            2 
 2262000   0.89142046   -3.0421452    2010.3164   0.07406117  0.074273974            3 
 2263000   0.89328943   -3.0760604     2009.354  0.073993005  0.074260495            2 
 2264000   0.88376359   -3.0464178    2005.3004  0.073811117  0.074247045            4 
 2265000   0.87996607   -3.0626977    2007.1787  0.073847634  0.074233604            5 
 2266000   0.89152416   -3.0480673    2007.5391  0.073828299  0.074219894            6 
 2267000   0.87754624   -3.0435188    2006.9364  0.073773576  0.074206592            4 
 2268000   0.87347467   -3.0717835    2003.6778  0.073621318   0.07419306            2 
 2269000   0.88759476   -3.0932099    2008.7575  0.073775435  0.074179432            2 
 2270000   0.87713462   -3.0471694    2013.6149  0.073921251  0.074165797            5 
 2271000   0.88893986   -3.0688049    1997.2819  0.073289369  0.074152056            2 
 2272000   0.90274717   -3.0533695    2001.6473  0.073417229  0.074138526            6 
 2273000   0.90349199   -3.0570711    2011.7794  0.073756392  0.074124857            2 
 2274000   0.89809506   -3.0460765    2001.6562  0.073352982  0.074111182            1 
 2275000   0.88451421     -3.05738    2010.5171  0.073645314  0.074097614            5 
 2276000   0.87190956   -3.0647565    2009.2021  0.073564811  0.074083935            3 
 2277000   0.86966004   -3.0831575    2005.4742  0.073396069  0.074070193            7 
 2278000   0.87447166   -3.0542021    2003.8425   0.07330416  0.074056476            6 
 2279000   0.87280687   -3.0504345     2014.461  0.073660268   0.07404276            2 
 2280000   0.87884435   -3.0426737    2013.4356  0.073590484  0.074028924            3 
 2281000   0.89543098   -3.0608578    2014.9833  0.073614765  0.074015471            3 
 2282000    0.8792621   -3.0554344    2011.5193  0.073456005  0.074001867            5 
 2283000   0.86267591   -3.0733893    2011.9322  0.073438903  0.073988173            2 
 2284000   0.88743496   -3.0578736     2013.132  0.073450525  0.073974461            2 
 2285000   0.89378008   -3.0641587    2021.2431  0.073714191  0.073960924            2 
 2286000   0.86924796   -3.0502913     2014.956  0.073452758  0.073947345            2 
 2287000    0.8741526    -3.057263    2019.2595   0.07357745  0.073933857            6 
 2288000   0.88832955    -3.078954    2022.4198  0.073660393  0.073920245            2 
 2289000   0.89505075    -3.072765    2021.3088  0.073587766  0.073906337            5 
 2290000    0.8832461   -3.0535259    2017.7472  0.073426027  0.073892644            4 
 2291000   0.88577528   -3.0927088    2022.0325  0.073549852  0.073878787            3 
 2292000   0.89454813   -3.0666836    2017.3269  0.073346675  0.073864932            5 
 2293000   0.90888514   -3.0906067    2015.2172  0.073238016  0.073851074            5 
 2294000   0.87519354   -3.0832634    2016.6908  0.073259619  0.073837288            3 
 2295000    0.8499871   -3.0771417    2013.0396  0.073095121  0.073823524            4 
 2296000   0.88666254   -3.0787107    2019.3606  0.073292706  0.073809405            5 
 2297000   0.87075004   -3.0593352    2014.0347  0.073067577  0.073795617            2 
 2298000    0.9068289   -3.0596995    2027.3977   0.07352037  0.073782191            2 
 2299000   0.87631924   -3.0820706    2022.2345  0.073301237  0.073768951            2 
 2300000   0.91030198   -3.0921585    2016.2121  0.073051163  0.073755264            3 
 2301000   0.89081664   -3.0528249    2030.3081  0.073529917  0.073741775            4 
 2302000   0.88746478   -3.0809875     2023.879  0.073265242  0.073728243            5 
 2303000   0.88027882   -3.0481062    2028.3786  0.073396244    0.0737146            2 
 2304000   0.88397342   -3.0778249    2028.6405  0.073373859  0.073700968            2 
 2305000   0.87526771   -3.0809714     2024.387   0.07318825  0.073687467            3 
 2306000   0.89970091   -3.0765982    2022.1315  0.073075003  0.073673795            3 
 2307000   0.86455032   -3.0735237    2028.5371   0.07327471  0.073659849            5 
 2308000   0.87469492   -3.0732639    2029.0154  0.073260232  0.073646019            5 
 2309000   0.88602694   -3.0961026    2033.7496  0.073399365  0.073632354            3 
 2310000    0.8728526   -3.0754359      2027.09  0.073127343  0.073618965            3 
 2311000   0.90864692   -3.0935898    2029.6706  0.073188756  0.073605432            3 
 2312000   0.88033885   -3.0752345    2030.8721  0.073200406  0.073591789            1 
 2313000   0.89237992   -3.0736427    2024.1159  0.072925347  0.073577942            3 
 2314000   0.87680389   -3.0752591    2031.9895  0.073177381  0.073564287            3 
 2315000   0.89060967     -3.07972    2029.3025  0.073049048  0.073550626            4 
 2316000   0.87814528   -3.0819325    2034.3041  0.073197472  0.073536943            3 
 2317000   0.88441618    -3.050495    2025.4235   0.07284648  0.073523237            5 
 2318000   0.88786209   -3.0875722    2028.5678   0.07292809  0.073509623            3 
 2319000   0.86363568   -3.0634411    2025.7983  0.072797121  0.073495752            2 
 2320000   0.89483257   -3.0660679    2029.9946  0.072916472  0.073481912            3 
 2321000   0.88150906   -3.0656581     2040.579  0.073265079  0.073468284            2 
 2322000   0.89263566   -3.0831918    2031.3487  0.072902264  0.073454576            3 
 2323000    0.8889048    -3.078765    2033.3777  0.072943668  0.073440908            3 
 2324000   0.87734956   -3.1022775    2033.4818  0.072916014  0.073427482            4 
 2325000   0.87239419   -3.0731625    2037.3091  0.073021832  0.073414208            3 
 2326000   0.90301643   -3.0896257    2036.1597   0.07294926  0.073400697            3 
 2327000   0.85922042   -3.0622426    2039.2938  0.073030145  0.073387297            3 
 2328000   0.87175606   -3.1130026    2034.5874  0.072830306  0.073373844            2 
 2329000   0.88161534   -3.0526015     2049.466  0.073331402  0.073360492            2 
 2330000   0.87273143   -3.0803553    2047.2504  0.073220685  0.073347265            4 
 2331000    0.8662645   -3.0911097    2045.6407  0.073131729  0.073334034            6 
 2332000   0.89556332    -3.093223     2040.815  0.072927922  0.073320848            3 
 2333000   0.86842068   -3.0646866    2044.8945  0.073042382  0.073307936            4 
 2334000   0.88171163   -3.0770767    2042.0644   0.07291004  0.073294853            4 
 2335000   0.86556997   -3.0737139    2047.8597  0.073085643  0.073281792            4 
 2336000   0.86862458   -3.0901545    2036.0673  0.072633678  0.073268283            7 
 2337000   0.86865226    -3.081926    2050.3592  0.073112223  0.073255478            3 
 2338000   0.87954452   -3.0891046    2048.9803  0.073031803  0.073242091            8 
 2339000    0.8846924   -3.0703566    2046.2268  0.072902481  0.073228898            2 
 2340000   0.87712711   -3.0844814    2051.8724  0.073072377  0.073215775            2 
 2341000   0.88206505   -3.0857069    2048.7133  0.072928708  0.073202442            2 
 2342000   0.86312611    -3.096497    2046.7168  0.072826529  0.073189525            4 
 2343000   0.88628487   -3.0787331    2045.9113  0.072766799  0.073176394            4 
 2344000   0.87359086   -3.0784286    2040.4708  0.072542334  0.073163253            3 
 2345000   0.87347536   -3.1060236    2048.9947  0.072814312  0.073149844            1 
 2346000   0.87926838   -3.0524805    2051.5422  0.072873763  0.073136311            2 
 2347000    0.8602123   -3.0768345    2048.5824  0.072737624  0.073123005            1 
 2348000    0.8823619    -3.077552    2056.5614  0.072989828  0.073109485            6 
 2349000   0.88878479   -3.0745485    2050.7475    0.0727525  0.073096179            3 
 2350000   0.87220254   -3.0800267    2047.4965  0.072606257   0.07308286            3 
 2351000   0.87654627   -3.0523401    2053.3033  0.072781202  0.073069567            2 
 2352000   0.85761258   -3.0661307    2057.2487  0.072890049  0.073056318            7 
 2353000   0.86354528   -3.0932607    2051.7483  0.072664268  0.073043073            3 
 2354000   0.85878319   -3.0765488    2062.2232   0.07300422   0.07302961            2 
 2355000    0.8752898   -3.0890552    2051.5073  0.072594029  0.073016281            4 
 2356000   0.86321688   -3.0998491     2046.551  0.072387911  0.073002817            2 
 2357000   0.88002505   -3.0918251    2046.9628  0.072371757  0.072989339            6 
 2358000   0.87036596   -3.0747182    2050.4362   0.07246382  0.072975928            3 
 2359000   0.88030291   -3.0591894    2051.7415   0.07247921  0.072962447            2 
 2360000   0.88547676   -3.0621576    2051.5214  0.072440726  0.072948919            3 
 2361000   0.87743546   -3.1003788    2055.5742  0.072553091  0.072935447            4 
 2362000   0.88044985   -3.1133426     2051.388  0.072374682  0.072921742            4 
 2363000    0.8724295   -3.1104693    2057.1915  0.072548718  0.072908141           11 
 2364000   0.86461829   -3.1024382    2052.2247  0.072342945  0.072894916            3 
 2365000   0.90030963   -3.0874385    2053.4589  0.072355846  0.072881272            2 
 2366000   0.88133516   -3.0970636    2052.3902  0.072287624  0.072867788            2 
 2367000   0.85480202   -3.0764219    2056.6417  0.072406763  0.072854367            8 
 2368000   0.87144309   -3.0878698    2059.5901  0.072479945  0.072840955            3 
 2369000   0.88867227   -3.0747448    2056.3525  0.072335462  0.072827487            8 
 2370000    0.8807918   -3.0830232    2065.7416  0.072635077  0.072813889            6 
 2371000   0.87066425   -3.0858551    2061.7836  0.072465329  0.072800362            1 
 2372000   0.85524356   -3.0926994     2055.864  0.072226812  0.072786644            2 
 2373000   0.87579405   -3.0705962    2064.5225  0.072500438  0.072773139            2 
 2374000   0.88413658   -3.0913973    2055.4338  0.072150863  0.072759502            3 
 2375000   0.87655219   -3.0778146    2055.1001  0.072108774  0.072745828            3 
 2376000   0.88279396   -3.1013933    2058.7908  0.072207871  0.072732061            6 
 2377000   0.86264755   -3.0983685    2057.1975  0.072121635  0.072718226            5 
 2378000   0.88582309   -3.0959147    2061.4033  0.072238691  0.072704406            4 
 2379000   0.87541838   -3.0859537     2054.691  0.071973202  0.072690548            2 
 2380000   0.87936811   -3.0819791    2058.5873  0.072079388  0.072676696            5 
 2381000   0.86891216   -3.1087876    2067.0137  0.072344034  0.072662816            2 
 2382000   0.88277726   -3.1038119    2064.8669  0.072238555  0.072649042            3 
 2383000   0.86208998   -3.0862816    2059.2685  0.072012466  0.072634955            2 
 2384000   0.86004424   -3.0543355    2063.6436  0.072135193  0.072620884            3 
 2385000   0.86540134   -3.0916565    2064.2743  0.072126983  0.072606889            3 
 2386000   0.86293169   -3.1017606    2059.0102  0.071912901  0.072592936            2 
 2387000   0.87113827   -3.0576434    2070.4717  0.072282911   0.07257897            4 
 2388000   0.86970359   -3.0992808    2064.2279  0.072034755  0.072565123            3 
 2389000   0.87084321   -3.0914861    2059.3278  0.071833674   0.07255106            3 
 2390000   0.87090226   -3.0870997    2065.6536  0.072024183   0.07253724            4 
 2391000   0.85060247   -3.0781983    2068.5135  0.072093737  0.072523474            2 
 2392000   0.84433311    -3.059661     2070.926  0.072147644  0.072509942            2 
 2393000   0.88015955   -3.0789593    2072.4628  0.072171012  0.072496481            3 
 2394000   0.87324548   -3.0863978    2074.7353  0.072219969  0.072482735            2 
 2395000   0.86278658   -3.1131337    2070.5578  0.072044462  0.072468881            6 
 2396000   0.86855247   -3.1035459    2068.4112  0.071939734  0.072455092            7 
 2397000   0.86502309   -3.0744002    2079.5634  0.072297433  0.072441443            3 
 2398000   0.86256033   -3.0901358    2065.9789  0.071795206  0.072427819            2 
 2399000   0.87878741   -3.0961941    2071.2153  0.071947176  0.072414102            2 
 2400000    0.8596904   -3.0849054    2075.4751  0.072065108  0.072400676            2 
 2401000   0.86865131   -3.0745495    2074.3852  0.071997263  0.072387061            4 
 2402000   0.87258433   -3.0790664    2081.4094  0.072210984  0.072373289            4 
 2403000   0.87512115   -3.1201866    2074.4121  0.071938273  0.072359686            6 
 2404000   0.86343889   -3.0800375    2080.5684  0.072121757  0.072346249            5 
 2405000    0.8577344   -3.0972246    2071.1832   0.07176657  0.072332741            7 
 2406000   0.87621206   -3.1025234    2076.6251  0.071925225  0.072319219            4 
 2407000   0.87011685   -3.0836654    2072.1145   0.07173918  0.072305653            4 
 2408000   0.86391332   -3.1100726    2077.9746  0.071912187  0.072292107            7 
 2409000   0.85876733   -3.0732102    2078.3863  0.071896579  0.072278801            8 
 2410000   0.85128098   -3.0733346    2081.4677  0.071973294  0.072265492            2 
 2411000   0.86250949   -3.0781902    2077.4308  0.071803914  0.072252023            2 
 2412000   0.88717633   -3.0788847    2088.5428  0.072158057  0.072238617            2 
 2413000   0.87198869    -3.095437    2076.5269  0.071713183  0.072224851            2 
 2414000   0.85839166   -3.0996957    2085.9184  0.072007678  0.072211451            2 
 2415000    0.8539037   -3.0880722    2081.3879  0.071821528  0.072197854            6 
 2416000   0.86434051   -3.1027446     2075.725  0.071596474  0.072184366            2 
 2417000   0.87478976   -3.0892232    2080.9867  0.071748266  0.072170689            6 
 2418000   0.87021965   -3.0924906    2073.8342  0.071472091  0.072156875            3 
 2419000   0.86989016   -3.0836162     2080.837  0.071683787   0.07214315            2 
 2420000   0.86538991   -3.0908773    2085.5129  0.071815182  0.072129517            2 
 2421000   0.86964558   -3.0826765    2078.0843  0.071529819   0.07211581            3 
 2422000   0.88179456   -3.0970235    2081.4141  0.071614853  0.072102198            7 
 2423000   0.85489566   -3.1047192    2080.9933  0.071570823  0.072088297            2 
 2424000   0.84432959   -3.0847937    2083.2506  0.071618903  0.072074452            4 
 2425000   0.85699382   -3.0897696    2084.1795  0.071621289  0.072060586            2 
 2426000   0.85054263    -3.095834    2076.2411   0.07131908  0.072046671            6 
 2427000   0.89641309   -3.0806842    2086.7044  0.071648961  0.072032757            2 
 2428000   0.87676666   -3.1086225    2079.6159  0.071376163  0.072018793            3 
 2429000   0.85863632   -3.1059296    2088.1983  0.071641221  0.072004699            5 
 2430000   0.86809014   -3.1161172    2078.5405  0.071280538  0.071990612            3 
 2431000   0.87000021   -3.0819298    2088.1186  0.071579548   0.07197658            3 
 2432000   0.86503056   -3.0739066    2097.8021  0.071881926  0.071962621            4 
 2433000   0.87880666   -3.0908611    2079.1994  0.071215213   0.07194865            3 
 2434000   0.87894558   -3.1111798    2079.4968  0.071196138  0.071934638            7 
 2435000   0.83011867   -3.0824586    2087.4535  0.071439204    0.0719206            4 
 2436000    0.8655148   -3.0989079    2089.8116  0.071490544  0.071906846            2 
 2437000    0.8577117   -3.0965904    2091.5289  0.071519931  0.071892796            2 
 2438000   0.86262234    -3.100185    2086.6299  0.071323144  0.071879087            2 
 2439000   0.85167086   -3.1003031    2083.9154  0.071201154  0.071865169            2 
 2440000   0.86904032   -3.0894031     2082.075   0.07110912  0.071851306            3 
 2441000   0.86875346   -3.1063543    2084.0324  0.071146813   0.07183749            3 
 2442000   0.86066275   -3.1162472    2084.4893  0.071133267   0.07182361            2 
 2443000   0.85365411   -3.1064341    2079.1413  0.070921725  0.071809616            4 
 2444000   0.86737009   -3.1138477    2088.7067   0.07121886  0.071795517            1 
 2445000   0.86816458    -3.073083    2096.1513  0.071443467  0.071781473            4 
 2446000   0.86335729   -3.0764909    2095.2363  0.071383083  0.071767768            4 
 2447000   0.87758235    -3.118023    2088.6805  0.071130652  0.071753903            4 
 2448000   0.86106838   -3.1048809    2085.4559  0.070991828  0.071739913            2 
 2449000   0.85441765   -3.1052454    2091.4925  0.071168248  0.071726053            3 
 2450000   0.85446315   -3.1023887     2092.023  0.071157246  0.071712031            5 
 2451000   0.85860871   -3.0978573    2100.1818   0.07140561  0.071698228            3 
 2452000   0.83996782   -3.1254374    2091.2179  0.071071844  0.071684347            4 
 2453000   0.87344902   -3.1092719    2087.4369  0.070914421  0.071670081            4 
 2454000    0.8308521    -3.103343    2094.8531  0.071137364  0.071656307            5 
 2455000   0.84735896   -3.0850666    2096.7069  0.071171313  0.071642542            4 
 2456000    0.8765103   -3.0969704    2094.8974  0.071080936  0.071628766            4 
 2457000   0.85009527    -3.100424    2098.4636   0.07117296  0.071614879            4 
 2458000   0.83904812   -3.1111429    2090.5666  0.070876275  0.071600891            4 
 2459000   0.86253426   -3.1078874    2093.9267  0.070961324   0.07158707            6 
 2460000   0.86020566   -3.1061173    2102.3481  0.071217754  0.071573091            4 
 2461000   0.85191193   -3.0911816     2101.849  0.071171914  0.071559025            4 
 2462000    0.8634716   -3.0826975    2100.6206  0.071101428  0.071545174            2 
 2463000   0.86570645    -3.135327    2096.4456  0.070931304  0.071531586            2 
 2464000   0.84594601   -3.1001751    2110.6214  0.071381948  0.071517966            4 
 2465000   0.87771583    -3.097658    2108.8751  0.071293953   0.07150425            5 
 2466000   0.85564247   -3.1030965     2099.935  0.070962931  0.071490692            4 
 2467000    0.8513806   -3.1268288    2098.9375  0.070900469  0.071477054            6 
 2468000   0.84527647   -3.1228246    2103.6077  0.071029435  0.071463421            6 
 2469000   0.85414195   -3.0868663     2101.862  0.070941743  0.071449732            3 
 2470000   0.85222675   -3.0953318    2103.8063  0.070978619  0.071436026            4 
 2471000   0.83440292   -3.0956014    2100.5943  0.070841573  0.071422364            5 
 2472000   0.86650041   -3.0984354    2099.8534   0.07078794  0.071408466            4 
 2473000   0.86348118   -3.1340329    2103.0228  0.070866115  0.071394662            2 
 2474000    0.8519615   -3.1044541    2100.1826  0.070741802  0.071380906            7 
 2475000   0.84345059   -3.1187853    2101.9206  0.070771736  0.071367146            4 
 2476000   0.87230649   -3.0796898    2106.4952  0.070897118  0.071353405            3 
 2477000    0.8375197   -3.0947855    2113.0319   0.07108841   0.07133981            7 
 2478000   0.85640442   -3.1259082    2106.6895  0.070846431  0.071326131            2 
 2479000   0.86329289   -3.1071643     2101.921  0.070657556   0.07131252            3 
 2480000   0.83413641   -3.0817606     2115.671  0.071091096    0.0712989            2 
 2481000   0.85834983   -3.1117606    2102.9744  0.070635979  0.071285175            3 
 2482000   0.85587245   -3.1069347    2112.2787  0.070919913  0.071271552            3 
 2483000   0.83837134   -3.1154504    2113.2585  0.070924236  0.071257845            1 
 2484000   0.84454969   -3.0815773    2116.5625  0.071006524  0.071243935            2 
 2485000   0.84798537   -3.1315747    2108.3591  0.070702853   0.07123021            5 
 2486000   0.86018685   -3.1115256    2106.4069  0.070608973  0.071216521            3 
 2487000   0.85175156   -3.1089533    2117.3466  0.070947146   0.07120274            2 
 2488000   0.83268219   -3.0867393    2112.7045  0.070763148  0.071189018            3 
 2489000   0.84125452   -3.1277068    2111.3144  0.070688173  0.071175158            3 
 2490000   0.85693738   -3.1370811    2110.1828  0.070621915  0.071161312            2 
 2491000   0.85687124   -3.0973114    2117.5767  0.070840918  0.071147531            3 
 2492000   0.84869813   -3.1174681    2108.0163  0.070492788   0.07113383            3 
 2493000   0.85696213   -3.1298136    2110.0329  0.070531919  0.071119965            6 
 2494000   0.86102817   -3.1140963    2111.6791  0.070558644  0.071106144            2 
 2495000   0.86221869   -3.1055945    2118.6686  0.070763814  0.071092336            6 
 2496000   0.83567653    -3.112017    2117.3771  0.070692346  0.071078633            3 
 2497000   0.85423807   -3.1474206    2117.0883  0.070654397   0.07106485            2 
 2498000   0.84272952    -3.108188    2123.2201  0.070830666  0.071051074            3 
 2499000   0.86361634   -3.1118332    2114.1283  0.070499144  0.071037454            2 
 2500000   0.84743654   -3.1160662    2120.9379  0.070697931  0.071023897            2 
 2501000   0.86414177   -3.1142656    2116.1152   0.07050897  0.071010112            6 
 2502000   0.85083968   -3.1243023    2118.9802  0.070576212  0.070996445            3 
 2503000    0.8582536   -3.1197265    2123.2875  0.070691419  0.070982652            3 
 2504000   0.85652424   -3.1481261    2118.4723  0.070502938  0.070968758            3 
 2505000   0.87436696   -3.1175801    2114.9159  0.070356483  0.070954734            7 
 2506000    0.8473145   -3.0950733    2114.5003  0.070314587  0.070940923            4 
 2507000   0.86093091   -3.1104598    2119.9939  0.070469151  0.070926936            3 
 2508000   0.85367788    -3.100918    2113.3461  0.070220165  0.070912742            5 
 2509000   0.85164434   -3.1267695    2119.2648  0.070388761  0.070898798            2 
 2510000   0.84310071     -3.14729    2121.7157  0.070442088  0.070884959            5 
 2511000   0.82873584   -3.0916568    2117.1898  0.070263833  0.070871028            3 
 2512000   0.86069261   -3.1239159    2113.6539  0.070118562  0.070857163            3 
 2513000    0.8453437   -3.1177639    2116.2935  0.070178192  0.070843193            5 
 2514000   0.84378378   -3.1177458    2117.4324  0.070188026  0.070829213            3 
 2515000   0.84555038   -3.1283909    2116.0809  0.070115338   0.07081528            3 
 2516000   0.86703215   -3.0948693    2122.2914  0.070293171  0.070801309            3 
 2517000   0.85421753   -3.1233545    2119.3729  0.070168618  0.070787344            5 
 2518000   0.85590977    -3.119283    2119.1552  0.070133545  0.070773111            3 
 2519000   0.84537491   -3.1360148    2124.6722  0.070288215  0.070759156            5 
 2520000   0.84447351   -3.1179447    2122.6895  0.070194759  0.070745186            3 
 2521000   0.84731156   -3.1257573    2120.4511  0.070092924  0.070731167            6 
 2522000   0.85098624    -3.104359    2120.9451  0.070081455  0.070716959            2 
 2523000   0.85285675   -3.1138167    2128.3327  0.070297683  0.070702903            3 
 2524000   0.85876745   -3.1234742    2116.5516  0.069880863  0.070688848            4 
 2525000   0.86230995   -3.1137412    2134.0734  0.070431464  0.070674865            4 
 2526000   0.83940168   -3.1292514     2124.872  0.070100026   0.07066062            3 
 2527000    0.8576119   -3.1149227    2123.9443  0.070041692  0.070646522            2 
 2528000   0.82832118    -3.098283    2133.1122  0.070316197  0.070632578            5 
 2529000   0.84439028   -3.0924818    2124.5595  0.070006574  0.070618581            6 
 2530000   0.84592645   -3.1153702    2129.6631  0.070147006  0.070604518            7 
 2531000   0.85745079   -3.0880741    2131.8415  0.070191015   0.07059044            4 
 2532000   0.84064119   -3.1533692    2120.2979   0.06978337  0.070576299            2 
 2533000   0.84777554   -3.1067914    2118.6519  0.069701669  0.070562147            6 
 2534000   0.83640067    -3.127705    2119.4779  0.069701325  0.070548151            4 
 2535000    0.8498757   -3.1202037    2126.4084  0.069901656  0.070533985            5 
 2536000   0.85640537   -3.1368076    2125.9197  0.069858036  0.070519923            2 
 2537000   0.86484031   -3.1138932    2128.4025  0.069912053  0.070505763            4 
 2538000   0.85014286   -3.1109632    2126.1503  0.069810557  0.070491783            4 
 2539000   0.86651553   -3.1312964    2130.6305  0.069930105  0.070477744            2 
 2540000   0.83706554   -3.1301247    2125.1705  0.069723443  0.070463668            3 
 2541000    0.8432131   -3.1354343     2131.445  0.069901778  0.070449418            5 
 2542000   0.83989881   -3.1292196    2128.8655  0.069789717  0.070435229            4 
 2543000   0.84188459   -3.1249148    2127.5305  0.069718525  0.070421212            3 
 2544000   0.86580547   -3.1239325    2127.6063  0.069693603  0.070406812            7 
 2545000   0.85234049    -3.129867    2133.7864  0.069868578  0.070392599            8 
 2546000   0.85177824   -3.1156203    2127.5901  0.069638325  0.070378324            4 
 2547000   0.83931389   -3.1331741    2126.4807  0.069574686  0.070364081            6 
 2548000   0.84152935   -3.1258595    2129.2271  0.069637201  0.070349768            3 
 2549000   0.84984875   -3.1281732    2136.3201  0.069841772  0.070335248            2 
 2550000   0.84246221   -3.1525325    2125.6228  0.069464797  0.070320683            3 
 2551000   0.84398032   -3.1361564    2131.3242  0.069623813  0.070306127            2 
 2552000   0.83161912   -3.1430512    2127.9908  0.069487682  0.070291723            2 
 2553000   0.83183613   -3.1200009    2126.0934  0.069398532  0.070277274            2 
 2554000   0.84672314   -3.1089771    2138.0706  0.069762157   0.07026267            5 
 2555000   0.84351868   -3.1412478    2135.1846  0.069640723   0.07024824            3 
 2556000    0.8446451   -3.1222974    2129.7892  0.069437571  0.070233921            3 
 2557000   0.84911244   -3.1341145    2129.0509  0.069386356  0.070219347            4 
 2558000   0.85269386   -3.1284264    2141.3634   0.06976034   0.07020475            3 
 2559000   0.84019629   -3.1530102    2124.1926  0.069173915  0.070190211            7 
 2560000   0.83033705   -3.1283403    2132.9988  0.069433556  0.070175581            6 
 2561000   0.82835778   -3.1454916    2126.5553  0.069196775  0.070161137            1 
 2562000    0.8378291   -3.0963257    2139.3034  0.069584418  0.070146678            4 
 2563000   0.83867498   -3.1273428    2134.1403  0.069389398  0.070132537            4 
 2564000   0.83796949   -3.1286554    2141.7415  0.069609384  0.070117982            2 
 2565000   0.81792493   -3.1120082    2132.6477  0.069286801  0.070103446            4 
 2566000   0.83038626   -3.1346661    2135.2801  0.069345287  0.070089132            4 
 2567000   0.84869707   -3.1476719    2136.4183  0.069355224  0.070074608            3 
 2568000   0.83490858   -3.1284821    2135.1166  0.069285974  0.070060123            3 
 2569000   0.85126325   -3.1222229    2134.4055  0.069235938  0.070045681            4 
 2570000   0.84650719   -3.1347094    2136.7307  0.069284393  0.070031051            5 
 2571000   0.85209158   -3.1239101    2136.1941  0.069240052  0.070016456            2 
 2572000    0.8518707   -3.1362484    2138.0707  0.069273933  0.070001968            3 
 2573000   0.82366568   -3.1592004    2129.8936  0.068982175  0.069987403            2 
 2574000   0.84461959   -3.1278948     2141.341  0.069325983  0.069972775            3 
 2575000    0.8407539     -3.11029    2141.7609  0.069312652  0.069958507            6 
 2576000   0.83448112   -3.1093355    2140.0715  0.069231092   0.06994424            2 
 2577000     0.830638   -3.1427547    2134.7809  0.069033142  0.069929838            3 
 2578000   0.83879542   -3.1140586    2142.4109  0.069253002  0.069915387            3 
 2579000   0.82125116   -3.1155306    2145.3399  0.069320792  0.069901136            3 
 2580000   0.85429237   -3.1290004    2141.6078  0.069173378  0.069886863            3 
 2581000   0.84650084    -3.140983    2144.0462  0.069225306  0.069872519            4 
 2582000   0.83363712   -3.1281278    2141.5362  0.069117485  0.069858128            3 
 2583000    0.8349187    -3.131197    2143.2688  0.069146624  0.069843941            2 
 2584000   0.83125976   -3.1253625    2155.7288  0.069521697  0.069829777            2 
 2585000   0.83961083   -3.1260708    2146.8557   0.06920876  0.069815603            3 
 2586000   0.80559882   -3.1215078    2154.8725  0.069440336  0.069801628            4 
 2587000   0.84271426   -3.1346488    2147.7118  0.069182829  0.069787607            3 
 2588000   0.83753563   -3.1280811    2149.1358   0.06920195  0.069773417            4 
 2589000    0.8237233   -3.1353804     2144.904   0.06903901  0.069759497            3 
 2590000   0.82671786   -3.1407348    2148.4959  0.069127925  0.069745393            2 
 2591000   0.84779696   -3.1226912    2154.1323  0.069282526  0.069731521            2 
 2592000   0.81542442   -3.1482145     2143.672  0.068919495  0.069717432            3 
 2593000   0.83520339   -3.1313136    2152.4148  0.069173893  0.069703548            2 
 2594000    0.8364391   -3.1246664    2154.5152  0.069214701  0.069689409            3 
 2595000   0.84483975   -3.1455408    2141.3507  0.068765277   0.06967537            3 
 2596000   0.82856487   -3.1530742    2145.5149  0.068872461  0.069661207            4 
 2597000   0.82841608   -3.1475259    2153.3706  0.069098017   0.06964703            4 
 2598000   0.81814825   -3.1633919    2157.3305  0.069198438  0.069632729            4 
 2599000   0.81954489   -3.1235661    2155.9685  0.069128142  0.069618555            6 
 2600000   0.84933693   -3.1391856    2148.4459  0.068860447   0.06960414            5 
 2601000   0.80813364   -3.1363526    2150.4057   0.06889676    0.0695899            4 
 2602000   0.83812647   -3.1139983     2151.413  0.068902543  0.069575631            4 
 2603000   0.81721367   -3.1380795     2160.736  0.069174541  0.069561651            3 
 2604000      0.82997   -3.1422697    2152.5256  0.068885227  0.069547478            5 
 2605000   0.82061575   -3.1494748    2146.2755  0.068658845  0.069533265            5 
 2606000   0.83695766   -3.1604813    2140.6672  0.068453158  0.069518772            5 
 2607000   0.83664474   -3.1465381    2154.9445  0.068883278  0.069504433            4 
 2608000   0.82292559   -3.1146029    2162.7596  0.069106584  0.069490242            2 
 2609000   0.82695373   -3.1266473     2156.639  0.068884597  0.069476069           10 
 2610000   0.83437321   -3.1411941    2159.2743  0.068942345  0.069461825            6 
 2611000   0.83146818   -3.1448857     2151.242   0.06865958  0.069447538            5 
 2612000   0.84618308   -3.1627862    2152.8036  0.068683116  0.069433331            4 
 2613000   0.84589643   -3.1478455    2154.7682  0.068719485  0.069419008            5 
 2614000   0.84008253   -3.1313017    2154.7579  0.068692869  0.069404684           10 
 2615000   0.84124222   -3.1556907    2163.5698  0.068947413  0.069390452            2 
 2616000   0.81117204   -3.1618752    2156.0444  0.068681333  0.069375947            4 
 2617000   0.85319014   -3.1291252    2162.2959  0.068854157  0.069361514            8 
 2618000   0.84124213   -3.1260017    2157.3138   0.06866927  0.069347282            5 
 2619000   0.83876743   -3.1583627     2159.683  0.068718437   0.06933269            3 
 2620000   0.84056357   -3.1319982    2162.3833  0.068778096  0.069318327            3 
 2621000   0.82416358   -3.1420153    2157.5463  0.068598065  0.069303968            8 
 2622000   0.82408918   -3.1277482    2158.4115  0.068599398  0.069289636            5 
 2623000   0.82156947   -3.1444487    2161.7681  0.068679885  0.069275347            7 
 2624000   0.82783685   -3.1359786    2157.5636  0.068520186  0.069260999            4 
 2625000   0.82852512   -3.1385171    2160.6457  0.068591927  0.069246583            5 
 2626000   0.83193699        -3.15    2156.5053  0.068434416  0.069232443            6 
 2627000   0.83168299   -3.1044007    2161.1858  0.068556838  0.069218217            4 
 2628000   0.83859031   -3.1395565    2164.1719  0.068625441  0.069203838            5 
 2629000   0.82504967   -3.1358372    2162.6814  0.068552091  0.069189355            2 
 2630000   0.84625461   -3.1452849    2153.8871  0.068247375  0.069175156            6 
 2631000   0.83027706   -3.1439909    2160.4202   0.06842836  0.069160718            3 
 2632000   0.83498955   -3.1492827    2163.8965  0.068512427  0.069146344            2 
 2633000     0.827555   -3.1333002      2171.48  0.068726422  0.069131983            3 
 2634000   0.85561014   -3.1671811    2167.7264  0.068581574  0.069117664            3 
 2635000   0.84080439   -3.1354681    2158.8241  0.068274008  0.069103189            3 
 2636000   0.82647705   -3.1289265    2169.6633  0.068590773  0.069088941            3 
 2637000   0.83275093   -3.1425589    2166.0289   0.06844991  0.069074539            4 
 2638000    0.8380054   -3.1532964    2156.8847  0.068135099  0.069059935            7 
 2639000   0.81850809    -3.153289    2159.8244  0.068202108  0.069045503            3 
 2640000   0.80436642   -3.1342335    2158.6358  0.068138756  0.069030957            4 
 2641000   0.82205914   -3.1528304    2153.9791  0.067966019  0.069016422            3 
 2642000   0.81938951   -3.1643153    2154.9468  0.067970818  0.069001743            4 
 2643000   0.82614921   -3.1523621    2162.4752  0.068182471  0.068987082            3 
 2644000   0.80564096   -3.1289936    2166.3484  0.068278756  0.068972548            7 
 2645000   0.82113229   -3.1463093    2170.1548  0.068372868  0.068958034            4 
 2646000   0.81475775    -3.143204    2166.1767   0.06822174  0.068943359            2 
 2647000   0.82401072   -3.1402852    2166.6813  0.068211854  0.068928934            2 
 2648000   0.83914241   -3.1196207    2162.6975  0.068060722   0.06891441            3 
 2649000   0.82751994   -3.1572778    2164.6092  0.068095168  0.068900061            7 
 2650000   0.82820941   -3.1504069    2172.8065  0.068327248  0.068885554            4 
 2651000   0.83085064   -3.1484617    2167.4474  0.068133013  0.068870979            5 
 2652000   0.84176932   -3.1300669    2174.0051  0.068313384  0.068856471            3 
 2653000   0.81195552   -3.1241121    2168.2337  0.068106348  0.068841929            4 
 2654000   0.83593924   -3.1253214    2167.7313  0.068064911  0.068827437            4 
 2655000   0.81842776   -3.1554115    2161.1424  0.067832467  0.068812947            3 
 2656000   0.83660071   -3.1564892    2168.3509  0.068033099  0.068798322            3 
 2657000   0.81975956   -3.1433104    2175.3032  0.068225542   0.06878378            7 
 2658000   0.83517966   -3.1344472    2168.7471  0.067994328  0.068769303            2 
 2659000   0.82447893   -3.1431749    2168.3262  0.067955566  0.068754599            2 
 2660000   0.80884722   -3.1307212    2167.2773  0.067897159  0.068740129            3 
 2661000   0.84226327   -3.1525676    2178.0873  0.068210175  0.068725842            2 
 2662000   0.81661283   -3.1538618    2182.5001  0.068322692  0.068711564            3 
 2663000   0.83516118    -3.167512    2181.3031   0.06825958  0.068697404            4 
 2664000   0.83761523   -3.1381772    2175.5166  0.068052948  0.068683037            2 
 2665000   0.83146884   -3.1734134    2172.5695  0.067935255  0.068668729            3 
 2666000   0.83429751   -3.1650707     2175.056  0.067987498  0.068654334            4 
 2667000    0.8162494   -3.1450819    2175.8937  0.067988179  0.068639921            3 
 2668000    0.8430741   -3.1350328    2177.0129  0.067997654  0.068625609            5 
 2669000   0.81577801    -3.145613    2180.6965   0.06808719    0.0686114            2 
 2670000    0.8215078   -3.1625713    2178.6686  0.067998395  0.068597193            3 
 2671000   0.81996297   -3.1547256    2176.2553  0.067897645  0.068582845            5 
 2672000     0.823738   -3.1597065    2186.3421  0.068186818   0.06856864            2 
 2673000   0.82944144    -3.152914    2178.7321  0.067924058  0.068554444            2 
 2674000   0.83219651     -3.17622    2170.7601  0.067650216  0.068540414            5 
 2675000   0.82860471   -3.1632306    2186.9507  0.068129304  0.068526203            5 
 2676000   0.83062981   -3.1656993    2171.9918   0.06763801   0.06851194            2 
 2677000   0.81227951   -3.1507811    2181.1425  0.067897599  0.068497806            5 
 2678000   0.80811578   -3.1586786    2178.9376  0.067803634  0.068483552            3 
 2679000   0.81630018   -3.1750287    2178.6296  0.067768744  0.068469314            8 
 2680000   0.82979719   -3.1646328    2183.1926  0.067885342  0.068454909            2 
 2681000   0.83289665   -3.1636922     2187.104    0.0679816  0.068440709            4 
 2682000   0.80158956   -3.1496195    2184.9408  0.067889039    0.0684264            5 
 2683000   0.81242749   -3.1719922    2182.3963  0.067784702  0.068412193            2 
 2684000   0.82842003   -3.1208897    2189.6281  0.067983982   0.06839812            2 
 2685000   0.81639452   -3.1334046    2183.7738  0.067776964  0.068383992            3 
 2686000   0.80629776   -3.1538014     2185.071  0.067791978   0.06836982            5 
 2687000   0.82051196   -3.1392341    2182.5647  0.067689018  0.068355666            3 
 2688000   0.82000036   -3.1511436    2189.4362  0.067876866   0.06834143            8 
 2689000   0.81708038   -3.1545408    2187.8487  0.067802427  0.068327313            5 
 2690000   0.81457008   -3.1443483    2191.4495  0.067888769  0.068313183            3 
 2691000   0.82694681    -3.174232    2183.0725  0.067604129  0.068298891            3 
 2692000   0.81497821    -3.160309    2193.3804  0.067898106  0.068284868            2 
 2693000   0.82231619   -3.1463253    2198.7237  0.068038237  0.068270715            4 
 2694000   0.80967456   -3.1675867    2188.4887  0.067696385  0.068256754            4 
 2695000   0.82580055   -3.1405466    2193.3774  0.067822431  0.068242512            3 
 2696000   0.83179846   -3.1511112    2189.5958  0.067680384  0.068228417            7 
 2697000   0.81520823   -3.1622189    2194.5558  0.067808547   0.06821426            3 
 2698000   0.81890542   -3.1688574    2188.4438  0.067594632  0.068200251            9 
 2699000   0.82181884   -3.1685157    2193.2105  0.067716761  0.068186081            6 
 2700000    0.8038286   -3.1734543    2197.5527  0.067825701  0.068171976            6 
 2701000   0.81555695   -3.1591482    2189.6327  0.067556236  0.068157981            6 
 2702000   0.81706749   -3.1487275    2191.6983  0.067594939  0.068143874            9 
 2703000   0.82706014   -3.1747811    2192.6079  0.067597973  0.068129669            3 
 2704000   0.82240266   -3.1501295    2196.2685  0.067685788  0.068115498            1 
 2705000   0.83853788   -3.1645849    2194.3977  0.067603133  0.068101483            4 
 2706000   0.82739764   -3.1361152    2200.1176  0.067754298  0.068087519            2 
 2707000   0.81663263    -3.167355    2191.9822  0.067478825  0.068073458            2 
 2708000   0.82428037   -3.1685154    2198.6411  0.067658822  0.068059342            4 
 2709000   0.82213816   -3.1439559    2192.0563  0.067431287  0.068045305            2 
 2710000   0.80808767   -3.1631302    2204.0744  0.067775966  0.068031287            3 
 2711000   0.82319694   -3.1705693    2204.1605  0.067753613  0.068017305            5 
 2712000   0.81314894   -3.1866814    2193.2902   0.06739461  0.068003265            3 
 2713000   0.83911799   -3.1565352    2194.8321  0.067417129  0.067989049            4 
 2714000    0.8234466   -3.1707828    2191.2309  0.067281716   0.06797506            3 
 2715000   0.80701557   -3.1752028    2203.2603   0.06762616  0.067961039            5 
 2716000    0.8095056   -3.1563066    2196.7523  0.067401581  0.067947064            4 
 2717000   0.80255276   -3.1519299    2197.2487  0.067391998  0.067933104           10 
 2718000   0.81282703   -3.1666703    2199.5414  0.067437496  0.067918974            4 
 2719000   0.83035095   -3.1767617    2203.9737  0.067548539  0.067905038            4 
 2720000   0.79824206   -3.1812915    2198.1618  0.067345643  0.067890835            5 
 2721000   0.82723389   -3.1529605     2197.613  0.067304085  0.067876914            6 
 2722000   0.81212932   -3.1819137     2205.185  0.067511175  0.067862876            2 
 2723000   0.80359005   -3.1603495    2192.1571  0.067087683  0.067848692            5 
 2724000   0.80892203   -3.1451576    2200.2661  0.067311127  0.067834678            7 
 2725000   0.83681184   -3.1708532    2201.7968  0.067333235  0.067820715            3 
 2726000   0.82156998   -3.1833927    2202.6609   0.06733495  0.067806726            3 
 2727000   0.79919196   -3.1716081    2206.0777  0.067414672  0.067792752            3 
 2728000   0.81049135   -3.1565169     2202.323  0.067275262  0.067778662            5 
 2729000   0.79706479   -3.1730653    2203.5525  0.067288156  0.067764557            2 
 2730000   0.80956409   -3.1831578    2198.4515    0.0671078  0.067750529            6 
 2731000   0.82290672   -3.1716888    2199.6772  0.067120627  0.067736454            4 
 2732000   0.81708754   -3.1631178    2208.5254  0.067365953  0.067722275            3 
 2733000   0.80356715   -3.1698826    2210.5285  0.067402382  0.067708236            4 
 2734000   0.82788689   -3.1870463    2197.3367  0.066975638  0.067694177            5 
 2735000   0.80282846    -3.155111    2212.2341  0.067405061  0.067680247            4 
 2736000   0.80147192   -3.1858726    2206.8667  0.067216943   0.06766633            3 
 2737000   0.81280122   -3.1729725    2206.4759  0.067180486  0.067652527            4 
 2738000   0.81662239   -3.1548564    2205.5451   0.06712762  0.067638526            2 
 2739000    0.8149263     -3.16457    2206.2449  0.067124404  0.067624417            3 
 2740000    0.8116308   -3.1879868    2202.8106  0.066995455  0.067610224            3 
 2741000   0.82880194    -3.191614    2205.3482  0.067048164  0.067596081            2 
 2742000   0.81462431   -3.1674332    2204.5273  0.066998763  0.067581931            3 
 2743000   0.81606308   -3.1883831     2204.139   0.06696254  0.067567763            4 
 2744000    0.8196945   -3.1790831    2201.0952  0.066845701  0.067553643            7 
 2745000   0.80243208    -3.174158    2208.8842  0.067057808  0.067539467            4 
 2746000   0.80776516   -3.1657788    2213.2602  0.067166186  0.067525373            3 
 2747000   0.81695913   -3.1698419    2205.6357  0.066910438  0.067511089            4 
 2748000   0.80806877   -3.1578939    2215.3439  0.067180493  0.067497136            5 
 2749000   0.80655232   -3.1751329    2200.5725  0.066708274  0.067483054            4 
 2750000   0.81911054   -3.1779223    2212.8814  0.067057013  0.067469099            2 
 2751000   0.79278268   -3.1832631    2215.3599  0.067107715   0.06745521            6 
 2752000   0.81386358   -3.1626743    2211.6853  0.066972061  0.067441281            3 
 2753000   0.79333628   -3.1569668    2211.8347  0.066952257  0.067427311            3 
 2754000   0.79100404   -3.1550593    2212.5667  0.066950094  0.067413239            2 
 2755000   0.80955065   -3.1638398    2215.1823  0.067004911  0.067399227            2 
 2756000   0.80825742   -3.1494831     2213.362  0.066925557  0.067385199            7 
 2757000   0.79305694   -3.1777082    2206.6481  0.066698348  0.067371117            3 
 2758000   0.79227892   -3.1899173    2215.1331  0.066930538  0.067357007            4 
 2759000   0.80235945   -3.1796817    2214.0502   0.06687357  0.067343063            3 
 2760000   0.80215961   -3.1775776    2213.2356  0.066824747  0.067329065            5 
 2761000     0.812626   -3.2035468    2207.0832  0.066614848  0.067314968            3 
 2762000   0.82018592   -3.1906545    2210.3239  0.066688508  0.067300745            6 
 2763000   0.81186525   -3.1374938    2227.5848  0.067184967  0.067286645            2 
 2764000   0.81614769   -3.1744971    2206.8642  0.066535945  0.067272619            3 
 2765000   0.80583295   -3.1380132    2207.3635  0.066526929  0.067258584            2 
 2766000   0.80445023   -3.1645779    2216.1664  0.066768088  0.067244625            3 
 2767000   0.80642154   -3.1718162     2222.938  0.066947897  0.067230671            5 
 2768000   0.80857068   -3.2019214    2213.0808  0.066626951  0.067216584            6 
 2769000   0.82975538    -3.199613    2210.7013  0.066531277  0.067202457            6 
 2770000   0.79483296   -3.1553594    2221.2588  0.066824874  0.067188488            5 
 2771000   0.81087667   -3.1877291    2216.8226  0.066667347  0.067174453            2 
 2772000   0.81968945   -3.1690464    2220.9485  0.066767332  0.067160495            5 
 2773000   0.80048333   -3.2025627    2228.4753  0.066969447  0.067146609            4 
 2774000   0.79327607   -3.1750798    2216.1897  0.066576235  0.067132627            3 
 2775000   0.83352686   -3.1885404    2216.8753  0.066572831  0.067118716            6 
 2776000   0.82652079   -3.1664183    2216.7499  0.066545085   0.06710474            3 
 2777000   0.79706408   -3.1762004    2221.7502  0.066671173   0.06709073           10 
 2778000   0.78698491   -3.1486091    2221.2628  0.066632554  0.067076776            3 
 2779000   0.79417166   -3.1778835    2219.8144  0.066565143  0.067062698            5 
 2780000   0.80860211   -3.1752887    2221.7835  0.066600226  0.067048756            9 
 2781000   0.78699672    -3.133981    2223.3466  0.066623116  0.067034945            4 
 2782000   0.82824139   -3.1709401    2221.1156  0.066532338  0.067021135            2 
 2783000   0.82332211   -3.1742328    2215.7788  0.066348629  0.067007091            6 
 2784000   0.82429266   -3.1982684    2223.1904  0.066546646  0.066993042            2 
 2785000   0.80209732   -3.1512384    2225.2753  0.066585137  0.066979073            6 
 2786000   0.80937034   -3.1923629    2225.5153  0.066568415  0.066965192            3 
 2787000   0.80942101   -3.1782055    2226.5919  0.066576721  0.066951391            4 
 2788000   0.81509295   -3.1656034    2230.1346  0.066658735  0.066937448            3 
 2789000   0.81258012   -3.1692665    2224.8911   0.06647816  0.066923569            5 
 2790000   0.81833427   -3.1714692     2226.858  0.066513083  0.066909665            6 
 2791000    0.7842591   -3.1711832    2228.9218  0.066550873  0.066895899            2 
 2792000   0.80656096   -3.1615205    2220.9922   0.06629036  0.066882048            4 
 2793000   0.79184384   -3.1758748    2225.8389  0.066411234  0.066868175            6 
 2794000   0.80231152   -3.1994482    2219.1511  0.066187996   0.06685437            6 
 2795000   0.82586957   -3.1677311    2228.4798   0.06644245  0.066840539            2 
 2796000   0.81396116   -3.2132034    2223.7513  0.066277757   0.06682675            5 
 2797000   0.78060115   -3.1713955    2228.9376  0.066408581  0.066812898            7 
 2798000   0.78973594   -3.1861734    2223.4828  0.066222384  0.066799048            3 
 2799000   0.81221242   -3.1916386     2230.233  0.066399695  0.066785294            2 
 2800000   0.80224899   -3.1663634    2236.7841  0.066570955  0.066771376            4 
 2801000   0.78944595   -3.1897174    2229.2064  0.066321742  0.066757367            4 
 2802000   0.82642271   -3.2017373    2231.5286  0.066367136   0.06674346            2 
 2803000   0.80204307   -3.1914159    2229.4333  0.066281167   0.06672954            3 
 2804000   0.79208876   -3.1974121     2229.908  0.066271636  0.066715595            6 
 2805000   0.81151436   -3.1765905    2235.8969  0.066425933  0.066701597            6 
 2806000   0.79161219   -3.1937353    2228.8925  0.066194241  0.066687768            4 
 2807000   0.79533741   -3.1683125    2226.4496  0.066098136    0.0666739            5 
 2808000   0.79908522   -3.1627554    2226.9928  0.066090717  0.066660086            8 
 2809000   0.79865958   -3.1864202    2236.0462  0.066335772  0.066646348            2 
 2810000   0.79878618   -3.1646193    2235.3677  0.066292045  0.066632517            4 
 2811000   0.81490599   -3.1644884    2244.3227  0.066533934  0.066618778            4 
 2812000   0.78908547   -3.1882298    2227.7916  0.066020378  0.066604861            7 
 2813000   0.81274463   -3.1667761    2240.5261  0.066374159  0.066591154            4 
 2814000   0.79783347   -3.1905831    2229.6162  0.066027487  0.066577298           11 
 2815000   0.81659712   -3.1905188    2230.8972  0.066041954  0.066563429            5 
 2816000   0.81109245   -3.1970981    2232.9073  0.066077985  0.066549571            6 
 2817000   0.81353975   -3.1754673     2231.663   0.06601772  0.066535662            6 
 2818000   0.80650415   -3.1990338    2234.0117  0.066063749  0.066521751            3 
 2819000   0.81031197   -3.1750799    2240.1711  0.066222393  0.066507931            3 
 2820000    0.8035484   -3.1908283    2239.0651  0.066166227   0.06649411            5 
 2821000   0.81111561   -3.1846514    2245.2519   0.06632553  0.066480477            6 
 2822000   0.78082687   -3.1752839    2233.4719  0.065954168   0.06646664            3 
 2823000   0.81209109   -3.1924677    2238.3435  0.066074609  0.066452902            4 
 2824000   0.79429454   -3.1930127     2240.118  0.066103576  0.066439135            4 
 2825000   0.82196987   -3.1835866     2238.683  0.066037847  0.066425247            6 
 2826000   0.79261932   -3.1846845    2238.8348  0.066018954  0.066411402            4 
 2827000   0.79330871   -3.1990513    2249.8922  0.066321547  0.066397596            8 
 2828000   0.80737953   -3.1889435    2246.2291  0.066190154  0.066383948            5 
 2829000   0.80734574   -3.1801654    2238.9234  0.065951556  0.066370209            2 
 2830000   0.79956786    -3.168817    2243.5892  0.066065642  0.066356401            3 
 2831000   0.80763317   -3.1937204    2242.4499  0.066008768  0.066342659            4 
 2832000   0.79900758   -3.1689645    2237.6893  0.065845377  0.066328949            2 
 2833000   0.81564976   -3.1724914    2250.4183  0.066196562  0.066315388            2 
 2834000   0.78757109   -3.1714897    2238.5996  0.065825676  0.066301598            4 
 2835000   0.80296118   -3.2032303    2243.9026  0.065958337  0.066287769            6 
 2836000   0.79752766   -3.2084494    2249.0531  0.066086423  0.066274015            7 
 2837000   0.78421949   -3.2051915    2241.5032  0.065841357  0.066260283            5 
 2838000   0.78678381   -3.1864334    2247.7703  0.066002182  0.066246686            3 
 2839000   0.78740504   -3.1896036    2246.6485  0.065946005  0.066233126            5 
 2840000   0.80737446   -3.2252134    2245.7599   0.06589671  0.066219374            7 
 2841000   0.79790566     -3.20826    2246.2784  0.065888724   0.06620582            4 
 2842000   0.81111136   -3.1814132    2244.7033  0.065819355  0.066192149            3 
 2843000   0.81577658   -3.1845312    2246.3573  0.065844685  0.066178519            5 
 2844000    0.7870317   -3.2025399    2245.5565  0.065798068  0.066164944            3 
 2845000   0.80085248   -3.1762852    2247.4513  0.065830443  0.066151309            7 
 2846000   0.79402961   -3.2125378    2251.6142  0.065929204   0.06613787            6 
 2847000   0.80230016   -3.1912913    2250.9417  0.065886362  0.066124176            7 
 2848000   0.79218459   -3.1755164    2258.3665   0.06608048  0.066110713            4 
 2849000   0.78320446   -3.2127774    2247.3002  0.065733598  0.066097269            5 
 2850000   0.79096371   -3.1931545    2250.1458  0.065793735   0.06608368            6 
 2851000   0.80008356   -3.2083059    2255.6704  0.065932141  0.066069971            4 
 2852000   0.78505301   -3.1973959    2247.7804  0.065678484  0.066056157            4 
 2853000   0.78179371   -3.1887878    2252.9942  0.065807753  0.066042349            7 
 2854000   0.82601224   -3.1945852    2242.9249  0.065490682  0.066028762            5 
 2855000     0.800328   -3.2033376    2248.7796  0.065638634  0.066015026            2 
 2856000   0.80325623   -3.1766662    2252.2123  0.065715812  0.066001279            8 
 2857000   0.78742482   -3.1995469    2247.8091  0.065564377  0.065987544            4 
 2858000   0.78824353   -3.1840845     2253.198  0.065698566  0.065973834            6 
 2859000   0.79700526   -3.1949883    2251.1565   0.06561608  0.065960045            4 
 2860000   0.78415077   -3.1737272     2255.027  0.065705914  0.065946152            3 
 2861000   0.79206173   -3.1851892    2245.0525  0.065392418  0.065932346            4 
 2862000   0.78792994   -3.1969252    2250.6313  0.065532008    0.0659186            5 
 2863000   0.79446788   -3.1996261    2257.5673  0.065711005  0.065904779            7 
 2864000   0.78378191   -3.2118319    2250.9208   0.06549467  0.065890916            2 
 2865000   0.78728821   -3.1855998    2254.3252  0.065570831  0.065877037            2 
 2866000   0.77117439   -3.1981805    2251.9729  0.065479556  0.065863295            7 
 2867000   0.79258567   -3.2027856     2248.686  0.065361178  0.065849609            2 
 2868000   0.79721166   -3.1777614     2255.789  0.065544776  0.065835966            6 
 2869000   0.77605562   -3.2168676    2248.4347  0.065308317  0.065822194            8 
 2870000   0.78361446   -3.1795359    2255.2411  0.065483191  0.065808509            5 
 2871000   0.77536051   -3.2185161    2249.9748  0.065307525  0.065794699            2 
 2872000   0.80335916   -3.1975255    2255.5299  0.065445971  0.065780884            7 
 2873000   0.79474114   -3.1872164    2259.5129  0.065538721  0.065767169            6 
 2874000    0.7919224   -3.2180062    2250.0662  0.065242004  0.065753396            6 
 2875000   0.79031705   -3.2111141    2253.2795  0.065312448  0.065739776            7 
 2876000   0.80140455   -3.1988606    2253.7483  0.065303325  0.065726098            5 
 2877000   0.80260952   -3.2333745    2252.3178  0.065239191  0.065712284            5 
 2878000   0.78334517   -3.1891995    2260.0339  0.065439945   0.06569859            4 
 2879000   0.79153029   -3.2090736    2262.3682  0.065484782  0.065684985            2 
 2880000   0.78340524   -3.1879935    2258.2011  0.065341466  0.065671304            4 
 2881000   0.79133542   -3.1953453    2256.4475  0.065268062  0.065657559            4 
 2882000   0.77110219   -3.2179994    2247.8728  0.064997478  0.065643757            2 
 2883000   0.79030062   -3.2081342    2262.8116  0.065406741  0.065629943            7 
 2884000   0.78432048    -3.197538    2262.5162  0.065375526   0.06561621            3 
 2885000    0.7873379   -3.2024032    2263.2936   0.06537532   0.06560263            3 
 2886000   0.78316335   -3.1933247    2259.3016    0.0652374  0.065588853            5 
 2887000   0.77908223   -3.2035883    2260.8966  0.065260843  0.065575164            5 
 2888000   0.79724513   -3.2046041    2258.6167  0.065172458  0.065561503            5 
 2889000   0.79337639   -3.1926155    2257.9295  0.065130077  0.065547835            3 
 2890000   0.78561232   -3.1835894    2261.7997  0.065219139  0.065534154            3 
 2891000   0.78493877   -3.1955882    2260.7782  0.065167135  0.065520491            4 
 2892000   0.78060427   -3.2061078    2262.7474  0.065201343  0.065506823            7 
 2893000   0.77579139   -3.2171963    2257.8405   0.06503746  0.065493137            2 
 2894000   0.78873089   -3.2035001    2260.7439  0.065098593  0.065479479            6 
 2895000   0.78645268   -3.1999753    2264.6363  0.065188148   0.06546572            4 
 2896000    0.7970906   -3.2114194    2265.0396  0.065177243  0.065452251            3 
 2897000   0.80480987   -3.2265032    2262.3168  0.065076423  0.065438601            2 
 2898000   0.77213903   -3.2023963    2267.7744  0.065210905  0.065424978            2 
 2899000   0.79117601   -3.1997485    2270.9827  0.065280633  0.065411428            4 
 2900000   0.78455465   -3.2067395     2274.522  0.065359826  0.065397855            5 
 2901000   0.77729264   -3.2064841    2272.2035  0.065270696  0.065384429            4 
 2902000    0.7838602   -3.1872657    2273.4337  0.065283532  0.065371105            3 
 2903000   0.79104381   -3.1733632    2266.8316  0.065071523  0.065357542            2 
 2904000   0.80112603   -3.2028221    2274.2109  0.065260872  0.065344113            5 
 2905000    0.7849737   -3.2267433    2270.4514  0.065130564  0.065330562            4 
 2906000   0.77210977   -3.2222041    2269.2797  0.065074551   0.06531696            3 
 2907000   0.77419491    -3.207123    2269.0412  0.065045327  0.065303472            3 
 2908000   0.80133383   -3.2012311    2262.1481  0.064825427  0.065289888            3 
 2909000   0.78591303   -3.2255991    2268.8826  0.064996065  0.065276302            5 
 2910000   0.77541998   -3.2200684    2272.7114  0.065083373  0.065262744            3 
 2911000   0.79241507   -3.2147245    2267.9889  0.064925823  0.065249243            4 
 2912000   0.80216631   -3.1911061    2277.3098  0.065170268  0.065235958            5 
 2913000   0.79701024   -3.2304814    2272.5409  0.065011469  0.065222551            3 
 2914000   0.78385454   -3.2085627    2275.0791  0.065061746  0.065209182            4 
 2915000   0.77521503   -3.2115495    2277.9068  0.065120264  0.065195731            3 
 2916000   0.79039744    -3.206789    2274.9011  0.065012036   0.06518236            3 
 2917000   0.77535414   -3.2490499    2271.0693  0.064880279  0.065168865            3 
 2918000   0.80309086   -3.2052856    2275.0268  0.064971065   0.06515547           11 
 2919000   0.78085971   -3.2204286    2270.7482  0.064826659  0.065141915            5 
 2920000   0.80707003   -3.1962929    2277.8158  0.065006158  0.065128408            5 
 2921000   0.77871311   -3.2217333    2278.9217  0.065015454  0.065115042            7 
 2922000   0.77009647   -3.1798241    2276.1305  0.064913601  0.065101553            5 
 2923000   0.77140853   -3.2303137    2279.7882  0.064995673  0.065088088            4 
 2924000    0.7836008   -3.2180193    2270.8736  0.064719381  0.065074613            6 
 2925000   0.77088966    -3.202954    2277.4399  0.064884328  0.065061154            7 
 2926000   0.77157271   -3.2183789    2271.4587  0.064691807  0.065047799            6 
 2927000   0.77218554   -3.1930099    2273.9003  0.064739217  0.065034263            7 
 2928000   0.77391366   -3.2131122    2266.7937  0.064514849  0.065020744            5 
 2929000   0.77398657    -3.209695    2269.2055   0.06456144  0.065007324            3 
 2930000   0.78696883   -3.2182884    2280.2736  0.064854199  0.064993852            3 
 2931000   0.79748782   -3.2374734    2277.8085  0.064761985   0.06498029            8 
 2932000   0.79457558   -3.2024221    2286.4827  0.064986433  0.064966836            5 
 2933000    0.7863985   -3.2240174    2284.7655  0.064915488  0.064953465            5 
 2934000   0.77479095   -3.2025217    2285.0539  0.064901554  0.064940077            3 
 2935000    0.7922346    -3.236898    2284.4335  0.064861826  0.064926562            6 
 2936000   0.79456018   -3.2178801    2279.0871  0.064687985  0.064913058            2 
 2937000   0.78887218   -3.2208633    2280.5871   0.06470852  0.064899481            5 
 2938000   0.76274926   -3.2169113    2276.7815  0.064578554  0.064886103            6 
 2939000   0.77953521   -3.2460364    2271.2977  0.064401092  0.064872794            3 
 2940000   0.78296484    -3.217075    2282.7142  0.064702785  0.064859298            6 
 2941000   0.78820613   -3.2142534    2287.7836  0.064824426  0.064845988            5 
 2942000   0.77290592   -3.2250148    2281.2997  0.064618731  0.064832501            5 
 2943000   0.76745266   -3.2375697    2280.2604  0.064567345  0.064818893            8 
 2944000   0.78142117   -3.2028017    2284.2532  0.064658435  0.064805286            3 
 2945000   0.79117183   -3.1792309    2279.2635  0.064495289  0.064791601            6 
 2946000   0.79492009   -3.2315838    2273.0991  0.064299023  0.064778119            3 
 2947000   0.78481959   -3.2212515    2283.8385  0.064580887  0.064764599            4 
 2948000   0.77837485    -3.231231     2276.876  0.064362167   0.06475111            4 
 2949000   0.77567124   -3.2121891    2282.1596  0.064489647  0.064737602            7 
 2950000    0.7856635   -3.2171711    2282.2033  0.064469019  0.064724095            8 
 2951000   0.76170417   -3.2206452    2291.7793  0.064717589  0.064710651            7 
 2952000   0.77518053   -3.2396312    2280.1433  0.064367188  0.064697276            5 
 2953000   0.76757661   -3.2292482    2282.8481  0.064421721  0.064683743            3 
 2954000   0.77324243   -3.2226185      2279.87  0.064315899  0.064670288            6 
 2955000   0.78720939   -3.2038259    2289.2531  0.064558746  0.064656772            7 
 2956000   0.78522437    -3.211434    2292.0072  0.064614548  0.064643395            4 
 2957000   0.77428238   -3.2064216    2286.2301  0.064429886  0.064629986            3 
 2958000   0.76774986   -3.2064237    2291.2102  0.064548407  0.064616646            6 
 2959000   0.78130933   -3.2124455    2288.6523  0.064454555   0.06460331            5 
 2960000   0.78731522   -3.2131482    2285.5043  0.064344154  0.064589972           11 
 2961000    0.7847468   -3.2354242    2278.8298  0.064134578  0.064576494            4 
 2962000   0.78172152   -3.2211295    2277.9174  0.064087256  0.064563068            2 
 2963000   0.77098152   -3.2110503    2283.1005  0.064211398  0.064549428            5 
 2964000   0.77355867   -3.2543902    2290.3945  0.064394807  0.064535807            4 
 2965000      0.77311    -3.230582    2282.8199  0.064160198  0.064522186            3 
 2966000   0.78781749    -3.221937    2282.7865  0.064137629  0.064508561            6 
 2967000   0.78477771   -3.2094543    2290.2313  0.064325114  0.064495003            4 
 2968000   0.76859133   -3.2164454    2282.2251  0.064078648  0.064481369            4 
 2969000   0.76823828   -3.2214748    2291.0666  0.064305225  0.064467846            3 
 2970000   0.77374459   -3.2238145    2283.3507   0.06406708  0.064454182            5 
 2971000   0.78585391   -3.2365269    2282.8275   0.06403084   0.06444047            2 
 2972000   0.79082248   -3.2148898    2283.8597  0.064038239    0.0644268           15 
 2973000   0.76256924   -3.2124523    2283.7081  0.064012449  0.064413152            3 
 2974000   0.77910199   -3.2129093    2287.8177  0.064106078  0.064399572            3 
 2975000   0.76796874   -3.2116904    2293.7951  0.064251963   0.06438601            8 
 2976000   0.76783645   -3.2117935    2291.9165  0.064177768  0.064372416            4 
 2977000   0.78483688   -3.2247407    2281.7404   0.06387136  0.064358798            4 
 2978000   0.77439752   -3.2373866    2288.2483   0.06403202  0.064344927            3 
 2979000   0.76282885   -3.2111459     2287.965  0.064002603  0.064331351            4 
 2980000   0.77917147   -3.2151537    2292.2964  0.064102247   0.06431776            4 
 2981000   0.76123272    -3.191789    2293.9236  0.064126234  0.064304224            3 
 2982000   0.76290829   -3.2037169     2296.466  0.064175778  0.064290733            2 
 2983000   0.78537566   -3.2122697     2289.716  0.063965693  0.064277044            5 
 2984000   0.75575236   -3.2356802    2294.1409  0.064067831  0.064263539            3 
 2985000   0.78130079   -3.2422467    2296.1955  0.064103727  0.064250023            6 
 2986000   0.78894156   -3.2056306    2294.8746  0.064045396   0.06423645            4 
 2987000   0.76635322     -3.24427    2294.4958  0.064013387  0.064222907            3 
 2988000   0.78213229   -3.2225421    2299.6765  0.064136449  0.064209424            5 
 2989000   0.78756523   -3.2315133    2299.7705  0.064117611  0.064195927            7 
 2990000   0.76335441    -3.237407    2294.8048  0.063957772  0.064182496            3 
 2991000   0.77613107    -3.217308     2298.475  0.064038644  0.064169021            4 
 2992000    0.7578134   -3.2126337    2296.0177  0.063948798   0.06415565            3 
 2993000   0.78022956   -3.2460588      2299.95  0.064036918  0.064142125            8 
 2994000    0.7862176   -3.2318621    2302.8167  0.064095322  0.064128651            5 
 2995000   0.75627029   -3.2560714    2297.3075  0.063920632  0.064115193            6 
 2996000   0.77705971   -3.2292393    2297.6271  0.063908185  0.064101699            4 
 2997000   0.76629531   -3.2393542    2290.9504  0.063701212  0.064087967            8 
 2998000   0.77173305   -3.2334512    2294.7325  0.063785092  0.064074338            6 
 2999000   0.76493215    -3.223911    2296.2719  0.063806598  0.064060629            3 
 3000000   0.75828085   -3.2256071    2301.1732  0.063921479  0.064047043            2 
 3001000   0.77965621   -3.2245445      2297.24  0.063790958  0.064033467           14 
 3002000   0.76889916   -3.2018936    2291.3738  0.063606868  0.064019806            4 
 3003000   0.79311995   -3.2222137    2298.6917  0.063788759  0.064006058            4 
 3004000   0.77804145   -3.2297894    2298.8388  0.063771604  0.063992446            4 
 3005000   0.77077112   -3.2327267     2299.818  0.063777538  0.063978814            3 
 3006000   0.78515028   -3.2056704     2300.891  0.063786067  0.063965243            5 
 3007000    0.7670708    -3.220815     2297.333  0.063666251   0.06395189            3 
 3008000   0.76180257   -3.2610009    2291.4903   0.06348322  0.063938349            5 
 3009000   0.79496103   -3.2323679    2303.1812  0.063785898  0.063924649            2 
 3010000   0.78206421     -3.24782    2301.7792  0.063725893  0.063911197            6 
 3011000   0.75875053   -3.2321818    2296.7764  0.063566267  0.063897622            6 
 3012000   0.76991974   -3.2406881    2299.2987  0.063614948  0.063883934            4 
 3013000   0.76656072   -3.2417359    2297.6574   0.06354844  0.063870421            2 
 3014000   0.76552506   -3.2470929    2303.1191  0.063678364  0.063856882            3 
 3015000   0.76399912   -3.2356571    2299.3944  0.063554295  0.063843366            9 
 3016000   0.77933344   -3.2177239    2305.5149  0.063702334  0.063829927            6 
 3017000   0.76377193   -3.2372048    2305.9321  0.063692743  0.063816515            3 
 3018000    0.7647211   -3.2464319    2300.2244  0.063514038  0.063802963           10 
 3019000   0.76435089   -3.2297811    2303.3976  0.063580588  0.063789315            3 
 3020000   0.76260119   -3.2435551    2296.2116  0.063361246  0.063775656            4 
 3021000   0.76940636   -3.2015041    2300.0394  0.063445863  0.063761876            4 
 3022000   0.76466992   -3.2400533    2297.3017  0.063349373  0.063748269            3 
 3023000   0.77121125   -3.2419474    2307.8652  0.063619617  0.063734501            8 
 3024000   0.77116381   -3.2394765    2301.9732  0.063436211  0.063720833            4 
 3025000   0.74920266   -3.2321547    2298.6201  0.063322867  0.063707131            4 
 3026000   0.77065129   -3.2199437    2299.3285   0.06332145  0.063693445            6 
 3027000   0.76994961   -3.2146289    2307.6778  0.063530387  0.063679805            3 
 3028000   0.76558612   -3.2433913    2301.5097  0.063339654  0.063666132            4 
 3029000   0.76673153   -3.2204505    2300.8836  0.063301519  0.063652414            3 
 3030000   0.76816941   -3.2331164    2302.0329  0.063312237  0.063638811            5 
 3031000   0.76816501   -3.2485599     2307.079  0.063430082  0.063625228            4 
 3032000   0.76704066   -3.2515273    2297.8863  0.063156507  0.063611518           11 
 3033000   0.75995201   -3.2426794    2311.4517    0.0635084  0.063597827            9 
 3034000   0.77518615   -3.2284976    2304.1843  0.063287857  0.063584277            3 
 3035000   0.76626388   -3.2403494    2311.1763  0.063458988   0.06357076            3 
 3036000   0.77053876   -3.2192649    2310.1763  0.063410637  0.063557092            5 
 3037000   0.76811497   -3.2169835    2318.0544  0.063605927   0.06354362            3 
 3038000   0.75613846   -3.2511834    2300.5756   0.06310554  0.063529886            5 
 3039000   0.76740524   -3.2471632    2306.6985  0.063252674  0.063516071            5 
 3040000   0.77300196    -3.208526    2310.5534  0.063337537  0.063502503            3 
 3041000   0.77129868   -3.2244877     2309.044  0.063275347  0.063489099            4 
 3042000   0.76860521    -3.265337    2312.3452  0.063344981   0.06347555            7 
 3043000   0.76572489   -3.2102104    2313.0924  0.063344628  0.063461999            3 
 3044000   0.76598575   -3.2472427    2316.9102  0.063428334  0.063448394            3 
 3045000    0.7755195    -3.239828    2314.5933  0.063344098  0.063434703            4 
 3046000    0.7756838   -3.2496729    2298.2375  0.062875834   0.06342103            6 
 3047000    0.7815013    -3.228449    2312.2418  0.063238207  0.063407462            5 
 3048000   0.77449056   -3.2428115    2308.5189  0.063115675  0.063393864            7 
 3049000   0.77076213   -3.2449521    2310.9187  0.063160565  0.063380225            2 
 3050000   0.76892752   -3.2358037    2313.6851   0.06321544  0.063366669            2 
 3051000   0.77256865   -3.2502892     2312.982  0.063175515   0.06335311            3 
 3052000   0.75410415   -3.2244657    2316.2006  0.063242698  0.063339619            5 
 3053000   0.75004287   -3.2564674    2311.9507   0.06310598  0.063326121            4 
 3054000   0.75962237   -3.2302179     2305.995  0.062922805  0.063312662            5 
 3055000   0.76239145   -3.2473144    2314.7116  0.063139978  0.063299242            4 
 3056000   0.75196633   -3.2324535    2314.8199   0.06312227  0.063285797            6 
 3057000   0.74362986   -3.2382549    2319.8779  0.063239503   0.06327223            3 
 3058000   0.76908575   -3.2416988    2320.6171  0.063238966  0.063258827            5 
 3059000   0.77084464   -3.2307132    2318.3111  0.063155472  0.063245348            5 
 3060000   0.75532677   -3.2386805    2323.1024  0.063265315    0.0632318            4 
 3061000   0.75251239   -3.2532246    2316.6839   0.06306991  0.063218238            4 
 3062000   0.76780398   -3.2434359    2320.8592  0.063162944  0.063204771            4 
 3063000   0.75694257   -3.2341951    2318.1548  0.063068744  0.063191369            3 
 3064000   0.76508431   -3.2532774    2307.1898  0.062749941  0.063177797            4 
 3065000   0.75086391    -3.229573    2324.9539   0.06321245  0.063164223            3 
 3066000   0.75946432   -3.2317231    2306.2121  0.062682433  0.063150602            9 
 3067000   0.75525012   -3.2430257    2318.7844  0.063003598  0.063136963            2 
 3068000   0.75161306   -3.2457296    2307.7132  0.062682346  0.063123475            3 
 3069000   0.76532119   -3.2448429    2318.3929  0.062951909   0.06310994            3 
 3070000   0.76079155   -3.2516799    2316.5162  0.062880461  0.063096321            5 
 3071000   0.76410915     -3.25897    2317.4888  0.062886379   0.06308282            5 
 3072000   0.75014708    -3.262677     2324.428  0.063054145  0.063069348            7 
 3073000   0.75642342   -3.2324833    2320.8517  0.062936645  0.063055855            9 
 3074000   0.75760101   -3.2541086    2315.0313  0.062758384  0.063042236            2 
 3075000   0.75075909   -3.2513293    2320.3046  0.062880883  0.063028631            5 
 3076000   0.75672159   -3.2672187    2322.4205  0.062917763  0.063015065            6 
 3077000   0.76582743   -3.2637748    2319.5518  0.062819623  0.063001686            6 
 3078000    0.7726334   -3.2535875    2313.9847  0.062648492  0.062988227            3 
 3079000   0.76078445   -3.2840991    2319.0923  0.062766382  0.062974532            4 
 3080000   0.75830198    -3.242876     2315.667  0.062653327  0.062960906            5 
 3081000   0.78344017   -3.2222719    2320.9666  0.062776333  0.062947375            4 
 3082000   0.76258858   -3.2700739    2321.7812  0.062777991  0.062933743            4 
 3083000   0.76620587   -3.2369292    2323.6181   0.06280728  0.062920241            5 
 3084000   0.76077916   -3.2520504    2316.3969  0.062591789  0.062906688            3 
 3085000   0.74777488   -3.2456903    2319.6322  0.062658894  0.062893013            4 
 3086000   0.76192784    -3.248687    2321.4064  0.062686497  0.062879476            3 
 3087000   0.74751417   -3.2263645    2329.0791  0.062873317  0.062865921            4 
 3088000   0.75346061   -3.2409054    2322.4622   0.06267439  0.062852455            3 
 3089000   0.75934304   -3.2362844    2317.8079  0.062528541  0.062839046            5 
 3090000   0.76387166   -3.2660521    2318.2654  0.062520641  0.062825517            3 
 3091000   0.76687734   -3.2381641    2321.8662  0.062597493  0.062812037            7 
 3092000   0.76478633   -3.2486517     2322.299  0.062588911  0.062798548            2 
 3093000   0.76920468   -3.2429294    2332.4084   0.06284105   0.06278505            3 
 3094000   0.75938205   -3.2424427    2323.0175  0.062567807   0.06277145            7 
 3095000   0.75583746   -3.2683005    2313.3463  0.062287191  0.062757838           10 
 3096000   0.75040055    -3.244682    2327.2708  0.062641872  0.062744166            6 
 3097000   0.77201853   -3.2359903    2321.9334  0.062478027  0.062730693            7 
 3098000   0.74932241   -3.2583123    2325.7802  0.062561334  0.062717306            4 
 3099000   0.74894884   -3.2494657    2326.7845  0.062568153  0.062703799            6 
 3100000   0.75254401   -3.2562923    2325.6643  0.062517857  0.062690481            2 
 3101000   0.74270147   -3.2772552    2321.9272   0.06239727  0.062676966            2 
 3102000   0.73143004   -3.2526634    2322.9023   0.06240335  0.062663477            4 
 3103000   0.76053481   -3.2784355    2330.6432  0.062591126  0.062649973            5 
 3104000   0.76332552   -3.2418543    2325.1567  0.062423667  0.062636416            7 
 3105000   0.74964208   -3.2445852    2328.0817  0.062482063  0.062622899            3 
 3106000   0.75626527   -3.2533118    2325.0847   0.06238154   0.06260946            2 
 3107000   0.75110928   -3.2559593    2330.4342   0.06250494  0.062596098            5 
 3108000   0.74188882   -3.2691746    2330.6902  0.062491694  0.062582591            6 
 3109000   0.76329024   -3.2675495      2327.32  0.062381259  0.062569189            4 
 3110000    0.7570155   -3.2570148    2330.0992  0.062435671  0.062555681            7 
 3111000   0.76200927   -3.2469837    2325.1649  0.062283428  0.062542321            8 
 3112000   0.75444282   -3.2590455    2326.0029  0.062285852  0.062528872            6 
 3113000   0.74580969   -3.2582885    2332.5655  0.062441521  0.062515471            4 
 3114000   0.73582133   -3.2757854    2333.4137   0.06244417  0.062502149            7 
 3115000   0.76675141   -3.2404632    2331.9237  0.062384262  0.062488757            4 
 3116000   0.75619051   -3.2592934    2329.5395   0.06230048  0.062475365            4 
 3117000   0.74628768   -3.2547191    2336.2215  0.062459134  0.062462023            6 
 3118000   0.74797774   -3.2761264    2326.5468  0.062180534  0.062448702            5 
 3119000   0.75009006   -3.2525011    2328.5055  0.062212928  0.062435363            3 
 3120000   0.74864813   -3.2663573    2329.7331  0.062225777  0.062422008            9 
 3121000   0.75151935   -3.2679852    2331.6615  0.062257329  0.062408605            3 
 3122000   0.74539013   -3.2651382     2332.988  0.062272795  0.062395288            4 
 3123000   0.74562414   -3.2786567    2331.5642  0.062214862  0.062382003            3 
 3124000   0.74486566   -3.2712551    2327.0248  0.062073857  0.062368616            6 
 3125000   0.74965655   -3.2489966    2328.3319  0.062088851  0.062355085            5 
 3126000   0.74033459   -3.2645271    2326.6403  0.062023892   0.06234173            2 
 3127000   0.76009049    -3.236279    2335.3486  0.062236133  0.062328386            5 
 3128000   0.74929637   -3.2660471    2339.5001  0.062326835  0.062315111            9 
 3129000   0.74161946   -3.2809471    2336.2458  0.062220246  0.062301616            5 
 3130000   0.75403191   -3.2670149    2335.1004  0.062169871  0.062288175            8 
 3131000   0.74179528   -3.2508123    2341.2136  0.062312722  0.062274901            5 
 3132000   0.74141971   -3.2580215    2339.6328  0.062250765  0.062261732            4 
 3133000   0.72819122   -3.2346262    2339.4678  0.062226508  0.062248444            2 
 3134000   0.75010603   -3.2670774    2336.4353  0.062126018  0.062235211            7 
 3135000   0.74982668     -3.27335    2338.9917  0.062174154  0.062221889            6 
 3136000   0.74866396   -3.2644578    2333.5273  0.062009121  0.062208536            7 
 3137000   0.74246552   -3.2690915    2339.9079  0.062158853  0.062195194            6 
 3138000   0.75441057    -3.275765     2339.401  0.062125584  0.062181927            2 
 3139000   0.74257597   -3.2665498    2333.3288  0.061944591  0.062168648            9 
 3140000   0.73967784   -3.2619834    2339.6979  0.062093892  0.062155264            3 
 3141000   0.75117042   -3.2812348    2334.3217  0.061931489  0.062141907           12 
 3142000   0.76209032   -3.2634414    2343.9045  0.062165937  0.062128532            6 
 3143000    0.7463215   -3.2641134    2334.8799   0.06190688  0.062115235            2 
 3144000   0.77211241   -3.2838506    2338.1054  0.061972684  0.062101918            3 
 3145000   0.75866052   -3.2667756    2349.1728  0.062246232  0.062088629            6 
 3146000   0.74793965   -3.2515582    2342.5639  0.062051385   0.06207539            7 
 3147000   0.72641226   -3.2715463    2341.9793  0.062016187  0.062062044            4 
 3148000   0.74215581   -3.2622144    2343.0776  0.062025561  0.062048705            5 
 3149000   0.75840549   -3.2487754    2342.1562  0.061981481  0.062035507            3 
 3150000   0.75506939   -3.2718438    2341.4143  0.061942177  0.062022329            7 
 3151000   0.74881751   -3.2557394    2343.9968  0.061990819  0.062009085            5 
 3152000   0.74777479   -3.2924666    2332.9644  0.061679472  0.061995717            4 
 3153000   0.74754672   -3.2683421    2348.8822  0.062080616  0.061982408            4 
 3154000   0.75068708   -3.2449036    2338.8201  0.061795077  0.061969076            3 
 3155000   0.77003503   -3.2732938    2348.1977  0.062023183  0.061955759            4 
 3156000   0.76476527   -3.2807708     2338.876  0.061757392  0.061942392            7 
 3157000   0.74054852   -3.2661197     2346.298  0.061933745  0.061929076            5 
 3158000   0.72868105    -3.271704    2344.0164  0.061853928  0.061915732            3 
 3159000   0.74703979   -3.2678276    2345.4593   0.06187241  0.061902497            2 
 3160000    0.7525356   -3.2374973    2350.7808  0.061993164  0.061889386            4 
 3161000   0.74939583   -3.2716742    2342.4233  0.061753224  0.061876232            4 
 3162000   0.73849234   -3.2904751    2346.2386  0.061834245   0.06186282            6 
 3163000   0.72911238   -3.2676589    2348.9863  0.061887086   0.06184957            5 
 3164000   0.73577903   -3.2890186    2347.4873  0.061828048  0.061836292            3 
 3165000   0.75445581   -3.2755292    2343.9771  0.061716089  0.061823132            3 
 3166000   0.74395083    -3.259414    2349.1678  0.061833223  0.061809925            6 
 3167000   0.75216626   -3.2757724     2349.674  0.061827019   0.06179664            6 
 3168000   0.73715167   -3.2764587    2356.5194  0.061987567  0.061783473            6 
 3169000   0.74434673   -3.2853132    2344.2362  0.061645004  0.061770288            5 
 3170000   0.75885882   -3.2798986    2351.2407  0.061809692  0.061757194            4 
 3171000   0.74819978   -3.2711893    2351.0817  0.061786021  0.061744167            9 
 3172000   0.75449629   -3.2896388    2351.1488  0.061768307  0.061731027            4 
 3173000   0.75632503   -3.2703788    2348.0713  0.061668013   0.06171806            6 
 3174000   0.74661713    -3.259026    2352.7431  0.061771244  0.061705081            4 
 3175000    0.7504301   -3.2776418    2356.6599  0.061854589  0.061692042            7 
 3176000   0.74815595   -3.2534181     2353.732  0.061758292  0.061679063            7 
 3177000   0.74619494   -3.2919258    2355.8157  0.061793508  0.061665956            3 
 3178000   0.73547081   -3.2540109    2359.5933  0.061873121  0.061653003            8 
 3179000   0.74736548    -3.270503     2349.897  0.061599482  0.061639995            3 
 3180000   0.74665278   -3.2901491    2351.8715  0.061631854  0.061626906            5 
 3181000   0.74874744   -3.2725313    2355.9275  0.061718733  0.061613837            2 
 3182000   0.74783605   -3.2731318    2361.2319  0.061838254  0.061600781            9 
 3183000   0.76398684   -3.2576691     2360.066  0.061788301  0.061587866            3 
 3184000   0.73732451   -3.2967053    2352.3727  0.061567542  0.061574841            4 
 3185000   0.74673705   -3.2660453    2353.2294  0.061570628  0.061561722           16 
 3186000    0.7344899   -3.2785566    2352.4037  0.061529706  0.061548582            4 
 3187000   0.72900785   -3.2653269     2358.763  0.061676681   0.06153555            4 
 3188000   0.75161372   -3.2724331    2354.2011  0.061538089  0.061522455            5 
 3189000   0.73514924   -3.2616873    2353.3792  0.061497313  0.061509522            3 
 3190000    0.7290755   -3.2737066     2355.991  0.061546264  0.061496425            5 
 3191000    0.7348365   -3.2970989     2351.924  0.061420768  0.061483409            6 
 3192000   0.73997334   -3.2488185    2366.5407  0.061783122   0.06147054            4 
 3193000   0.73452137   -3.2849844    2354.8404   0.06145841  0.061457527            4 
 3194000   0.74236952   -3.2827449    2347.6147  0.061250644  0.061444437            2 
 3195000   0.73857506   -3.2565787    2361.0991  0.061583178  0.061431398            4 
 3196000   0.73764384   -3.2633563      2365.28  0.061672925    0.0614184            8 
 3197000   0.74799502   -3.2699079    2353.4362  0.061344913  0.061405503            4 
 3198000   0.72683654   -3.2635233    2359.5547  0.061485166  0.061392518            2 
 3199000   0.72933465   -3.2956298    2358.4866  0.061438121  0.061379439            3 
 3200000   0.72813374   -3.3039729    2349.5081  0.061185106  0.061366299            8 
 3201000    0.7324182   -3.2709598    2355.7942  0.061329643  0.061353165            5 
 3202000   0.75027543   -3.2837892    2356.5755  0.061330823  0.061340077            3 
 3203000   0.73491775   -3.2699136     2351.111  0.061169502  0.061327015            5 
 3204000   0.73676664   -3.2845888    2361.9002  0.061431029  0.061313849            4 
 3205000   0.73012884   -3.2853704     2355.897  0.061255771  0.061300772            2 
 3206000   0.74274923    -3.278555    2361.9734  0.061394609  0.061287699            7 
 3207000   0.72943456   -3.2658499    2361.4421  0.061361659  0.061274615            8 
 3208000   0.73705614   -3.2764686    2368.7068  0.061531244  0.061261492            4 
 3209000   0.75074763   -3.2732488    2360.9065  0.061309506  0.061248334            7 
 3210000   0.75250928   -3.2813167    2361.3774  0.061302634  0.061235219           10 
 3211000   0.75715523   -3.3103336    2354.0309  0.061092882  0.061222154            4 
 3212000   0.73375756   -3.2983996    2358.8498  0.061198884  0.061209083            3 
 3213000   0.73293528   -3.2816672    2358.9159  0.061181553  0.061196048            5 
 3214000   0.71223595   -3.2768341    2362.9889  0.061268122  0.061183043            4 
 3215000   0.73223778   -3.2870547    2362.7611   0.06124316   0.06116999            9 
 3216000   0.72763632   -3.2755427    2363.8104  0.061251307  0.061156839            3 
 3217000   0.72932887   -3.2836641    2366.1678  0.061293334  0.061143731            6 
 3218000   0.72880191   -3.3014751    2359.9399  0.061113008  0.061130687            3 
 3219000   0.73445303   -3.3154149    2362.0605  0.061148921  0.061117653            6 
 3220000   0.76970711    -3.299523    2358.0595  0.061026384   0.06110468            4 
 3221000   0.73234308   -3.2986497    2362.3808  0.061119237  0.061091687            4 
 3222000   0.73441305    -3.275273    2362.5748  0.061105285  0.061078732            5 
 3223000   0.75196738   -3.2878237    2357.6341  0.060958583  0.061065701            5 
 3224000   0.72801675   -3.2680228    2364.9067  0.061127655  0.061052721            4 
 3225000   0.74167691   -3.2988909    2372.0099  0.061292246  0.061039847            7 
 3226000   0.73130733    -3.303282    2361.3772  0.060998584  0.061026732            7 
 3227000   0.72200357   -3.2829327    2367.5362  0.061138731   0.06101365            4 
 3228000   0.72464185   -3.2953711    2364.8765  0.061051128  0.061000579           11 
 3229000   0.73632572   -3.2648034     2363.711  0.061002143  0.060987553            4 
 3230000   0.73909434    -3.291026    2357.1487   0.06081395  0.060974484            6 
 3231000   0.73789608   -3.2918313    2361.2464  0.060900816  0.060961319            5 
 3232000   0.73946772   -3.3026266    2364.3089  0.060960935  0.060948188            4 
 3233000    0.7549072   -3.3172216    2361.7919  0.060877201  0.060934943            8 
 3234000   0.72073884   -3.2761174    2367.2674  0.060999469  0.060921772            3 
 3235000   0.74388719   -3.2966832    2358.0488  0.060743143  0.060908624            5 
 3236000   0.74748621   -3.2919682    2362.8102  0.060846987  0.060895416            5 
 3237000   0.73411255    -3.290441    2363.2181  0.060838691  0.060882131            7 
 3238000   0.73377896   -3.3071281    2365.3497  0.060874761  0.060868851            4 
 3239000   0.73497646   -3.2974358    2365.5134  0.060860178  0.060855692            6 
 3240000   0.73410967   -3.2751497    2367.5668  0.060894207   0.06084256            5 
 3241000   0.72617136   -3.3089685     2362.805  0.060752982   0.06082945            6 
 3242000   0.72959239   -3.2877658    2367.0453  0.060843238   0.06081624            4 
 3243000   0.73546234   -3.3004086    2363.4326  0.060731641  0.060802972            6 
 3244000   0.73198529   -3.3063611    2362.1116  0.060678988  0.060789796            9 
 3245000   0.71901925   -3.2990007    2368.3088  0.060819434  0.060776641            3 
 3246000   0.73447173   -3.2921931    2363.4322  0.060675503  0.060763373            2 
 3247000    0.7401246   -3.2909584    2365.1073  0.060699806  0.060750186            7 
 3248000   0.72763981   -3.2624139    2360.1762  0.060554603  0.060737011            8 
 3249000   0.74059353   -3.3018494    2373.4822  0.060877248  0.060723894            5 
 3250000   0.73473235    -3.288606    2367.8251  0.060713464  0.060710704            3 
 3251000   0.74120879    -3.306554    2369.6772  0.060742263  0.060697406            4 
 3252000   0.72226058   -3.2970802    2360.3138  0.060483646  0.060684022           10 
 3253000   0.73720848    -3.297503    2360.5584  0.060471319  0.060670517            8 
 3254000   0.72545357   -3.2935818    2360.0751  0.060440357  0.060657095            7 
 3255000   0.74824092   -3.2965455    2373.5431  0.060766592  0.060643832            5 
 3256000   0.71328509   -3.2838973    2367.9124  0.060603817  0.060630544            6 
 3257000   0.75540664    -3.278705    2375.0528  0.060767905  0.060617327            7 
 3258000   0.73014202   -3.3037144    2369.3318  0.060602921  0.060604036           15 
 3259000   0.72609451   -3.2751828    2365.0598   0.06047509  0.060590634            9 
 3260000   0.72675666   -3.3012327     2367.575  0.060520834  0.060577249            7 
 3261000   0.72968137   -3.2863469    2363.9308  0.060409149  0.060563967            3 
 3262000   0.72887865   -3.2951653    2371.5833  0.060586126  0.060550627            4 
 3263000    0.7358181   -3.3006042    2366.7567  0.060444293  0.060537229            3 
 3264000   0.73246111   -3.3079771     2365.996  0.060406353  0.060523845            3 
 3265000   0.71808969   -3.2955518    2366.0179  0.060388411  0.060510337            3 
 3266000   0.74113227   -3.3174595    2359.1365  0.060194339  0.060496909            6 
 3267000   0.73129716   -3.3141369    2370.8757  0.060475351  0.060483429            2 
 3268000   0.74764836   -3.2850973    2370.9997  0.060460009  0.060470192            5 
 3269000   0.73311722   -3.3056345    2367.3133   0.06034754  0.060456831            2 
 3270000   0.73452407    -3.295062    2362.7402  0.060212543  0.060443513            4 
 3271000   0.72524634   -3.2894972    2364.8034  0.060246698  0.060430183            4 
 3272000   0.72434797   -3.3100715     2369.622  0.060351008  0.060416915            4 
 3273000   0.71699366   -3.3181713    2367.3402  0.060274472  0.060403542            3 
 3274000   0.72923472   -3.2953991      2365.78  0.060216352  0.060390067            4 
 3275000   0.73633364   -3.2926169    2367.1671   0.06023326  0.060376705            9 
 3276000   0.74667392   -3.3194582    2362.9388  0.060107315  0.060363271            7 
 3277000   0.73625727    -3.302035    2363.3058  0.060098307  0.060349894            6 
 3278000    0.7241273    -3.308592    2366.2138    0.0601539  0.060336569            6 
 3279000   0.74762074   -3.2981859    2369.9813  0.060231302  0.060323297            7 
 3280000   0.73513302    -3.290165     2369.191   0.06019286  0.060309961            2 
 3281000   0.72365968   -3.3012108    2366.7653  0.060112904  0.060296644            5 
 3282000   0.71797481   -3.3049183    2368.0001  0.060125942  0.060283328            8 
 3283000   0.73372874   -3.3095414    2360.8333  0.059925711  0.060269934            3 
 3284000    0.7321474    -3.284851    2375.2444  0.060273153  0.060256628            7 
 3285000   0.73746734   -3.2923631    2369.7649  0.060115802  0.060243308           11 
 3286000   0.72643801    -3.296839    2369.1257  0.060081296  0.060229972            4 
 3287000   0.71473904   -3.3206999    2371.0334  0.060111382  0.060216628            7 
 3288000   0.73077797   -3.3082644    2372.1958  0.060122563  0.060203244            6 
 3289000   0.72200807   -3.2713157     2375.482  0.060187544  0.060189935            5 
 3290000   0.72316918   -3.3143421    2377.0779  0.060209674   0.06017661            8 
 3291000   0.72376935   -3.3171897    2361.8854   0.05980668  0.060163289            7 
 3292000    0.7160473   -3.2965605    2369.3746  0.059978093  0.060149897            3 
 3293000   0.73483361   -3.2942239    2371.3783  0.060010585  0.060136458            4 
 3294000   0.72326142   -3.2838464    2373.4604  0.060045043  0.060123235            4 
 3295000    0.7014831   -3.3152434    2372.8023  0.060010175  0.060109803            6 
 3296000   0.72817552   -3.3240189    2373.9841  0.060021847  0.060096346            9 
 3297000   0.72726936   -3.3175843     2376.793  0.060074639  0.060082864            6 
 3298000    0.7267413   -3.3021385    2373.0398  0.059961587  0.060069445            3 
 3299000   0.72799139   -3.3144176    2370.5264  0.059879922  0.060056068            6 
 3300000   0.72629309   -3.2958907      2379.38  0.060085353  0.060042676            6 
 3301000   0.71976223   -3.2887089    2376.5176   0.05999489  0.060029344            2 
 3302000   0.72414562   -3.2898155    2369.6102  0.059802398  0.060016073            4 
 3303000    0.7144339   -3.3078765    2372.6419   0.05986078  0.060002753            7 
 3304000    0.7333847   -3.2842509    2381.2941  0.060060889  0.059989448            5 
 3305000   0.73239834   -3.3169676    2369.5602  0.059746854  0.059976216            2 
 3306000   0.72980002   -3.2983792    2376.9396   0.05991479  0.059962873            7 
 3307000   0.74381096   -3.2588476    2372.3549  0.059781143  0.059949624            5 
 3308000   0.71108714   -3.3219013    2372.8372  0.059775221  0.059936257            5 
 3309000   0.73262009   -3.2743072    2374.0054  0.059786576  0.059923016            5 
 3310000   0.72937747   -3.3214191    2372.6978  0.059735594  0.059909761            3 
 3311000   0.72221205   -3.3130273    2382.6942  0.059969149  0.059896454            5 
 3312000   0.73728201   -3.2850898    2374.3391  0.059740819  0.059883191            6 
 3313000   0.73040528   -3.2862358    2379.3524  0.059848889  0.059869884            2 
 3314000   0.71616792   -3.2975038    2374.1165  0.059699168  0.059856512            6 
 3315000   0.72254536   -3.2940882    2380.0489  0.059830288  0.059843271            5 
 3316000   0.72131434   -3.2876598    2380.1016   0.05981357  0.059830193            7 
 3317000    0.7094737   -3.2881051    2378.1511  0.059746534  0.059817012            4 
 3318000   0.74033371   -3.2925239    2381.6337  0.059815995  0.059803874            4 
 3319000    0.7264259   -3.2988986    2382.2271  0.059812873  0.059790718            6 
 3320000   0.73178494    -3.311905    2381.1262  0.059767225  0.059777549            3 
 3321000   0.71782845   -3.3084795     2374.264  0.059577035  0.059764328            5 
 3322000   0.70138876   -3.2908882    2384.7776  0.059822836  0.059751055            4 
 3323000   0.70286585   -3.3125683    2381.2409  0.059716143   0.05973778            6 
 3324000   0.72144714   -3.2950464    2377.9555  0.059615811  0.059724559            4 
 3325000   0.71644413   -3.3058795    2382.7785  0.059718759  0.059711398            6 
 3326000   0.71176455   -3.3021779    2382.0794  0.059683288  0.059698161            6 
 3327000   0.70598147   -3.3143499    2385.5059  0.059751174  0.059684917           10 
 3328000   0.72703264   -3.3073209    2385.7286  0.059738797  0.059671715            3 
 3329000    0.7286216   -3.3115062     2379.836  0.059573346   0.05965847            6 
 3330000   0.72586924   -3.3168123     2378.143  0.059513087  0.059645047            7 
 3331000   0.73570521   -3.3008024    2384.3678  0.059650951  0.059631886            4 
 3332000    0.7226219   -3.3107909    2384.9018  0.059646404  0.059618588            8 
 3333000   0.73307877   -3.3228291    2376.9633  0.059430025  0.059605305            5 
 3334000   0.71295913    -3.309001    2383.0695  0.059564824   0.05959208            5 
 3335000   0.73436819   -3.3265536    2380.4223  0.059480816  0.059578745            6 
 3336000   0.70917903    -3.312821    2385.5247  0.059590444  0.059565514            4 
 3337000   0.71138957   -3.2902763    2383.9306  0.059532779  0.059552258            6 
 3338000   0.72454528   -3.3078585    2383.6099  0.059506938  0.059538989            6 
 3339000   0.71780971   -3.3064829    2382.8713  0.059470682  0.059525768            5 
 3340000   0.72240748   -3.2894484    2391.8462  0.059676801  0.059512618            9 
 3341000   0.72985004   -3.2841009    2390.6274  0.059628539  0.059499427            5 
 3342000   0.72453254   -3.3132475    2391.5214  0.059632988  0.059486258            4 
 3343000   0.70622483   -3.3048181    2383.4017  0.059412746  0.059472957            6 
 3344000   0.71447518   -3.3104041    2377.5375  0.059248841  0.059459635            3 
 3345000   0.72145097    -3.319794    2379.6262  0.059283164  0.059446301            9 
 3346000   0.73555904   -3.3309549    2380.9668  0.059298835  0.059432974            8 
 3347000   0.71359608   -3.3122413    2380.1406  0.059260547  0.059419666            5 
 3348000   0.72460446    -3.318153     2389.231   0.05946911  0.059406398            4 
 3349000   0.71178594   -3.3332533    2383.3547  0.059305132  0.059393187            3 
 3350000    0.7077938   -3.2880041    2385.4932  0.059340626  0.059379984            7 
 3351000   0.71166386   -3.3222732    2381.1827  0.059215724  0.059366768            4 
 3352000   0.70032816   -3.3060128    2383.7305  0.059261398  0.059353656            3 
 3353000   0.73165168   -3.2944655    2383.9232  0.059248514   0.05934062            4 
 3354000   0.70052511   -3.3189636    2386.0765  0.059284349  0.059327375            4 
 3355000   0.71471659   -3.3264039    2384.1464  0.059218738  0.059314079            8 
 3356000   0.71629005   -3.3078045    2383.8218  0.059193033  0.059300968            5 
 3357000   0.70682188   -3.3206592    2388.7573  0.059297917  0.059287791            6 
 3358000   0.71768071   -3.3186057     2391.883  0.059357827  0.059274521            4 
 3359000   0.69593417   -3.3239767    2385.4471  0.059180488  0.059261276            3 
 3360000   0.69894576     -3.33015    2386.9261  0.059199557  0.059248126            9 
 3361000   0.70366661   -3.3065354    2393.2295  0.059338229  0.059235041            7 
 3362000   0.71792549   -3.3203344     2388.018  0.059191404  0.059221895           24 
 3363000   0.70217964   -3.2788126    2381.8695  0.059021446   0.05920879            4 
 3364000   0.70778335   -3.3045369    2395.0363  0.059330071  0.059195668            5 
 3365000   0.71627127   -3.3140293    2384.8836   0.05906101  0.059182481            8 
 3366000    0.6972234   -3.3376908    2381.4286  0.058957928  0.059169309            4 
 3367000   0.70767386   -3.3191787    2398.8655   0.05937198  0.059156234            4 
 3368000   0.71670099   -3.2921462     2400.555  0.059396154  0.059143157            5 
 3369000   0.70463157   -3.3082925    2392.6355  0.059182632  0.059130057            8 
 3370000   0.71023506   -3.3280489    2395.1244  0.059226617   0.05911706            5 
 3371000   0.71523258   -3.3171257    2396.9595  0.059254414  0.059103938            7 
 3372000   0.71104636   -3.3286983    2394.7895  0.059183212  0.059090885            6 
 3373000   0.71446619   -3.3210581    2391.8303  0.059092556  0.059077744            5 
 3374000   0.70687602   -3.3264951    2388.8075  0.059000384  0.059064574           10 
 3375000   0.70421763   -3.3226973    2389.6169  0.059002887  0.059051495            4 
 3376000     0.704912    -3.327152    2393.7045  0.059086307  0.059038458            5 
 3377000   0.70816108   -3.3034109    2397.1538  0.059153929  0.059025374            9 
 3378000   0.69179032   -3.3404916    2388.6372  0.058926316  0.059012281            6 
 3379000   0.70118947   -3.3123647    2393.5994  0.059031256  0.058999107            5 
 3380000   0.71661624   -3.3457613    2393.2142  0.059004294  0.058986018            6 
 3381000   0.70475957   -3.3141501    2395.4616  0.059042236  0.058972996            7 
 3382000   0.70736783   -3.3498821    2392.9057  0.058961799  0.058959944            7 
 3383000   0.69854114   -3.3444152    2392.6304  0.058937589  0.058946909            9 
 3384000   0.70551069   -3.3210792    2400.6079  0.059116625  0.058933823            6 
 3385000   0.71100741   -3.3207379    2395.7836  0.058980394  0.058920778            3 
 3386000   0.71195905   -3.3210546    2391.0747  0.058847083  0.058907795            6 
 3387000   0.70637198   -3.3286645     2390.878  0.058824869  0.058894689            3 
 3388000    0.6825541   -3.3152634     2400.441  0.059042723  0.058881651            5 
 3389000   0.68513497   -3.3083513    2399.5029  0.059002234  0.058868584            6 
 3390000   0.70850443    -3.311244    2401.6193  0.059036855  0.058855583            3 
 3391000   0.71043728   -3.3455596    2391.8729   0.05877993  0.058842471            8 
 3392000   0.70577481   -3.3325011    2392.5258  0.058778641  0.058829386            5 
 3393000   0.71339559   -3.3365078       2398.5  0.058908047  0.058816361            8 
 3394000   0.71181672   -3.3375623    2398.7739  0.058897415  0.058803288           11 
 3395000     0.717959   -3.3340337    2404.0441  0.059009429  0.058790402            7 
 3396000   0.69817503   -3.3173335     2402.565  0.058955756  0.058777436            2 
 3397000    0.7061044   -3.3213518    2403.4565  0.058960271  0.058764471            7 
 3398000   0.71308198   -3.3279782    2394.9408  0.058734078  0.058751476            9 
 3399000   0.69437545   -3.3397209    2392.5939  0.058659259  0.058738497           11 
 3400000   0.70640154   -3.3038393    2408.3119  0.059027252  0.058725427            3 
 3401000   0.71363043   -3.3284256    2397.8721  0.058754094  0.058712534            3 
 3402000   0.70195972   -3.3325155    2406.1698   0.05894008  0.058699563            4 
 3403000   0.70366699   -3.3183886     2401.758  0.058814723  0.058686555            5 
 3404000   0.70142809   -3.3370884    2389.2482  0.058491192  0.058673583            9 
 3405000   0.72999466     -3.32811     2389.272  0.058474597  0.058660552            5 
 3406000   0.71011785   -3.3546274    2403.0935  0.058795594  0.058647585            7 
 3407000    0.7110695    -3.320446    2405.4239  0.058835337  0.058634617            4 
 3408000   0.71841931   -3.3495664    2401.0351  0.058710758  0.058621755           14 
 3409000   0.70738077   -3.3058236    2402.6215  0.058732314  0.058608709            7 
 3410000   0.71527416   -3.3543755    2397.7365   0.05859571  0.058595742            5 
 3411000   0.70186177   -3.3462875    2402.6259  0.058697984  0.058582724            4 
 3412000   0.70923555   -3.3458089    2413.3614  0.058942982  0.058569734            5 
 3413000   0.71451919   -3.3451319    2408.6965   0.05881181  0.058556827            4 
 3414000   0.71338327    -3.329202    2400.7321  0.058600177  0.058543838            3 
 3415000     0.702195   -3.3382592    2407.1147  0.058738767  0.058530904            9 
 3416000   0.69366722   -3.3534553    2401.6011  0.058587068   0.05851796            4 
 3417000   0.70512607    -3.360883    2403.2964  0.058611267  0.058504983            7 
 3418000   0.71610035    -3.339907    2398.6026  0.058479681  0.058492024            4 
 3419000   0.70196504   -3.3368943    2399.9141  0.058494543  0.058479118           12 
 3420000   0.68676423   -3.3044514    2408.0036  0.058674552  0.058466323            3 
 3421000   0.70832239   -3.3209737    2411.2659  0.058736868  0.058453361            7 
 3422000   0.73551662   -3.3194654    2405.2094  0.058572213  0.058440446            3 
 3423000   0.70522068   -3.3233021    2408.0198  0.058623523  0.058427584            4 
 3424000   0.68746476    -3.328928    2404.3273  0.058516532  0.058414673            4 
 3425000   0.70852114   -3.3250204    2409.1812  0.058617548  0.058401919            4 
 3426000   0.70405098   -3.3544632    2405.6219  0.058513863    0.0583892            3 
 3427000   0.71484758   -3.3273287    2415.2728  0.058731467  0.058376342            7 
 3428000   0.70684074   -3.3298711    2415.7074  0.058724899  0.058363471            4 
 3429000   0.70295578   -3.3298777    2408.3895   0.05852993  0.058350725            3 
 3430000    0.7012554   -3.3040013    2417.4463  0.058732904  0.058337939            6 
 3431000   0.70702003   -3.3309057    2411.5607  0.058572835  0.058325085            5 
 3432000   0.70134694   -3.3622137    2408.0368  0.058470202   0.05831223            4 
 3433000   0.70041386   -3.3477863    2408.9667  0.058475744  0.058299275            6 
 3434000   0.69757802   -3.3461473    2398.2674  0.058199074  0.058286335            5 
 3435000    0.7246028   -3.3279883    2404.1893  0.058325796  0.058273493            5 
 3436000   0.70837193   -3.3088573    2410.5605  0.058463342  0.058260607            5 
 3437000   0.71608166   -3.3310735    2408.3826  0.058393527  0.058247877            6 
 3438000   0.70565126   -3.3415983    2409.6241  0.058406633  0.058235051            3 
 3439000   0.70244765   -3.3406189    2409.6246  0.058389662  0.058222135           10 
 3440000   0.70798992   -3.3409084    2411.6604  0.058422005  0.058209187           14 
 3441000   0.69658206   -3.3404806    2407.0359  0.058293033  0.058196229            4 
 3442000   0.72012805   -3.3249361    2414.9205  0.058466988  0.058183423            3 
 3443000   0.70485876   -3.3358775    2410.5171   0.05834343  0.058170484           20 
 3444000   0.71423917    -3.335223    2413.9585  0.058409758  0.058157562            5 
 3445000   0.70166319    -3.349632    2407.3465  0.058232861    0.0581446            6 
 3446000    0.6990994     -3.34589    2407.4733  0.058219029  0.058131701           10 
 3447000   0.68882788   -3.3141734    2411.6416  0.058302911  0.058118854            4 
 3448000   0.68691581   -3.3413866    2409.6595  0.058238096  0.058105879            5 
 3449000   0.70568166   -3.3175022    2412.4573  0.058288811  0.058092914            4 
 3450000   0.69390239    -3.328499    2406.1037  0.058118447  0.058080024            5 
 3451000   0.68457132   -3.3362785    2402.1336  0.058005737   0.05806715            7 
 3452000   0.70261729   -3.3202202    2414.8733  0.058296477  0.058054214            9 
 3453000   0.69370455   -3.3369907    2410.1307   0.05816514  0.058041353            4 
 3454000   0.70597339   -3.3409171    2408.0405  0.058097869  0.058028397            5 
 3455000   0.71214877   -3.3414377    2417.4308  0.058307544  0.058015449            5 
 3456000   0.68487451   -3.3462266    2412.9291  0.058182126  0.058002536            5 
 3457000    0.7140503   -3.3574469    2410.5181  0.058107175  0.057989595            3 
 3458000    0.6946835   -3.3590606    2406.7921  0.058000581  0.057976594            6 
 3459000   0.69311548     -3.34562    2408.6484  0.058028534  0.057963649           12 
 3460000   0.69150204   -3.3498252    2416.4482  0.058199618  0.057950725            5 
 3461000   0.69667549   -3.3482518    2415.5942  0.058162242  0.057937736            7 
 3462000   0.71067358    -3.340814    2414.3976  0.058116638  0.057924751            6 
 3463000   0.70811474   -3.3571182    2410.7172  0.058011292  0.057911773            4 
 3464000   0.70392659   -3.3610812    2406.4801  0.057892613  0.057898791            5 
 3465000   0.69374472   -3.3396795    2418.5933  0.058167228  0.057885766            4 
 3466000   0.68668717   -3.3454658    2414.7461  0.058057946  0.057872837            3 
 3467000   0.70669235   -3.3425471    2406.6136  0.057845727   0.05785994            5 
 3468000   0.69552051    -3.344375    2409.3968  0.057895925  0.057846841           12 
 3469000   0.68508491   -3.3139948    2409.0116  0.057869981  0.057833844            8 
 3470000   0.70897131    -3.329811    2411.5926  0.057915287  0.057820848            7 
 3471000   0.69621566   -3.3530285    2413.8847  0.057953633  0.057807857            9 
 3472000   0.69760599   -3.3444547    2413.2192  0.057920968   0.05779498            4 
 3473000   0.68980263   -3.3411102    2409.3366   0.05781113  0.057782066            4 
 3474000   0.69145765   -3.3388787      2410.63  0.057825514  0.057769087            4 
 3475000   0.70662218   -3.3447808    2417.7428  0.057979444  0.057756124            6 
 3476000   0.69096843   -3.3326062    2420.0282  0.058017554  0.057743196            4 
 3477000   0.69502484   -3.3405944    2411.9291  0.057806756  0.057730279            4 
 3478000   0.70136037   -3.3671651    2413.1313  0.057818941  0.057717401            5 
 3479000   0.68611827   -3.3447546    2412.2625   0.05778151   0.05770449            3 
 3480000   0.68394241   -3.3406018     2415.219  0.057835703  0.057691605            4 
 3481000   0.68685979   -3.3564683    2415.4021  0.057823472  0.057678706            4 
 3482000    0.6858342    -3.348762    2411.0279   0.05770218  0.057665836            8 
 3483000   0.70036611   -3.3320207    2412.1219  0.057711787  0.057652952            5 
 3484000   0.69332247    -3.342199    2419.1762  0.057863954  0.057640011            5 
 3485000   0.70354304   -3.3609706    2422.5899   0.05792898  0.057627038            8 
 3486000   0.68808949   -3.3685723    2410.8844  0.057632539   0.05761411            8 
 3487000   0.69624929   -3.3570247    2411.7349  0.057636338  0.057601181            8 
 3488000   0.67229344   -3.3439581    2417.8817  0.057766669  0.057588222            6 
 3489000   0.70012676   -3.3493114    2411.3917  0.057595101  0.057575271            7 
 3490000   0.69485253   -3.3654787    2416.5303  0.057701296  0.057562319            7 
 3491000   0.68401483   -3.3434434    2418.5486  0.057732947  0.057549377            5 
 3492000   0.69371386   -3.3582708    2420.6982  0.057767711  0.057536471            8 
 3493000   0.71150453   -3.3288436    2421.8534  0.057778734  0.057523491            5 
 3494000   0.69745682   -3.3687636    2420.4571  0.057728895  0.057510578            5 
 3495000   0.69327347   -3.3259571    2420.4906  0.057713175  0.057497699            6 
 3496000   0.69365596   -3.3697237    2424.3827  0.057789444  0.057484678            4 
 3497000   0.68757147   -3.3545023    2420.9638  0.057691445  0.057471717            9 
 3498000   0.69154685   -3.3589307    2410.6557   0.05742938  0.057458694            4 
 3499000    0.6910532   -3.3517333     2419.894  0.057632991  0.057445664            4 
 3500000   0.68259697   -3.3607263    2417.6437  0.057562944  0.057432622            6 
 3501000    0.6960449   -3.3625845    2411.5542  0.057401557  0.057419604            6 
 3502000   0.69057017   -3.3554151    2412.2815  0.057402473  0.057406618            3 
 3503000   0.70217816   -3.3443875    2423.8344   0.05766092  0.057393583           10 
 3504000   0.68601135   -3.3357767    2418.0243  0.057506287  0.057380645            7 
 3505000   0.70679159     -3.37322     2414.816  0.057413599  0.057367743            5 
 3506000    0.6832774   -3.3623561    2418.9388  0.057495218  0.057354749           15 
 3507000   0.69658952   -3.3481596    2425.8183  0.057642294  0.057341823            9 
 3508000   0.69742884   -3.3468138    2421.7402  0.057528986  0.057328911            3 
 3509000   0.70212481   -3.3651457    2412.3586  0.057289794  0.057316013            5 
 3510000   0.67294769    -3.360483    2419.8425  0.057451151  0.057303056            7 
 3511000   0.69061194   -3.3655071    2415.6767  0.057335914  0.057290099            6 
 3512000   0.68184586   -3.3472396     2414.691  0.057296198  0.057277138            5 
 3513000   0.68164264    -3.349489     2423.238  0.057482635  0.057264221           10 
 3514000   0.69699143   -3.3526052    2425.4822  0.057519498  0.057251377            4 
 3515000   0.69667743   -3.3552224    2421.5403   0.05740968  0.057238507            4 
 3516000   0.69867825   -3.3574409    2418.0514  0.057310662  0.057225583            6 
 3517000   0.69192484   -3.3518935    2422.0631   0.05738942  0.057212779            6 
 3518000   0.69263144   -3.3514337    2425.9675  0.057465593  0.057199953            4 
 3519000   0.70531397   -3.3675702    2427.5338  0.057486355  0.057187167            5 
 3520000   0.67567618   -3.3573867    2425.3899  0.057419269  0.057174301           10 
 3521000   0.67124888   -3.3763541    2409.6529  0.057030505  0.057161367            3 
 3522000   0.69291679   -3.3718768    2421.5434  0.057295652   0.05714843            4 
 3523000   0.70095991   -3.3706468    2420.2561  0.057248937  0.057135466            4 
 3524000   0.69432998   -3.3506636    2423.8173  0.057316904  0.057122614            8 
 3525000   0.68011903    -3.376087    2415.1831  0.057096528  0.057109708            7 
 3526000   0.68369866   -3.3538043    2427.4775  0.057370901  0.057096826           10 
 3527000   0.69467672   -3.3777288     2422.076  0.057227011  0.057083956            7 
 3528000   0.70123557    -3.352926    2423.4736  0.057243803  0.057071033           10 
 3529000   0.70115712    -3.359423    2418.1937  0.057102902  0.057058205           15 
 3530000   0.67912889   -3.3751129     2417.701  0.057075094  0.057045293           12 
 3531000   0.69688077   -3.3562601    2424.2047  0.057212421    0.0570324            3 
 3532000   0.69055644   -3.3611489    2424.4267   0.05720146  0.057019389           12 
 3533000   0.68864822   -3.3668505     2426.137   0.05722561  0.057006447            6 
 3534000   0.68107343   -3.3499206    2427.8058  0.057248768  0.056993523            4 
 3535000    0.6849407   -3.3688777    2422.1329  0.057098843  0.056980622            4 
 3536000   0.68849446   -3.3613307    2418.6699  0.057001082  0.056967603            5 
 3537000   0.69144009   -3.3510816    2427.0996  0.057183573  0.056954619            5 
 3538000   0.68738064   -3.3689989    2419.6255  0.056991367  0.056941617            8 
 3539000   0.68279216   -3.3725768    2422.0434  0.057032199  0.056928769            5 
 3540000   0.68851909    -3.377382    2419.2255  0.056949753  0.056915784            5 
 3541000   0.67972055   -3.3808446    2424.3149  0.057053442  0.056902841            3 
 3542000   0.66134617   -3.3757844    2426.5168   0.05708914  0.056889909            4 
 3543000   0.66557969    -3.338014    2424.6215  0.057028447  0.056876996            6 
 3544000   0.69736548   -3.3480594    2421.6083  0.056941505  0.056864123            5 
 3545000   0.67223771   -3.3598273    2422.8857   0.05695547  0.056851243            4 
 3546000   0.68434023    -3.361309    2422.7204  0.056935524  0.056838289            4 
 3547000   0.67725344    -3.353033    2421.4164  0.056888835  0.056825426            7 
 3548000   0.68935563   -3.3694562     2423.334   0.05691784  0.056812492            7 
 3549000   0.68715322   -3.3719059    2428.7819  0.057029724  0.056799479            9 
 3550000   0.67606257   -3.3630726    2426.3332  0.056956179  0.056786547            4 
 3551000   0.69126314   -3.3728946    2426.2564  0.056938337  0.056773611            7 
 3552000   0.68347058   -3.3379959    2427.8871  0.056960563  0.056760662            5 
 3553000   0.69645579   -3.3700061    2424.9019  0.056874516   0.05674779            3 
 3554000   0.66685196    -3.362461    2420.1691  0.056747541  0.056734737            9 
 3555000    0.6770747   -3.3599667    2431.5099   0.05699742  0.056721872            7 
 3556000   0.67737047   -3.3704234    2426.1046   0.05685472  0.056708969            9 
 3557000   0.68908684   -3.3514186    2427.2786   0.05686624  0.056696033            4 
 3558000   0.68884887   -3.3709895    2426.6907  0.056836489   0.05668313           14 
 3559000   0.69337537   -3.3850929    2422.5032  0.056722468  0.056670101            3 
 3560000   0.69569741   -3.3639573    2429.9014  0.056879714  0.056657204            8 
 3561000   0.68310691   -3.3573974    2428.4549   0.05682989  0.056644332            8 
 3562000   0.68205229   -3.3720345    2424.0769  0.056711513  0.056631326           12 
 3563000   0.66601079   -3.3423974    2428.0065  0.056787503  0.056618472            5 
 3564000   0.70172423   -3.3580757    2430.7314  0.056835283   0.05660564            4 
 3565000    0.6804179   -3.3670731    2432.7392  0.056866274  0.056592794            7 
 3566000     0.666424   -3.3634555    2429.9872  0.056786015  0.056579958            8 
 3567000   0.69260169   -3.3770921    2428.3951  0.056732902  0.056567059            3 
 3568000   0.68511404   -3.3879023    2428.7713  0.056725786   0.05655419            4 
 3569000   0.70185112   -3.3759673    2422.9139  0.056573127  0.056541255           12 
 3570000   0.67320429   -3.3988752      2433.78  0.056810924  0.056528361            7 
 3571000   0.66656244   -3.3788815    2430.4383  0.056717034  0.056515486           19 
 3572000   0.68280779   -3.3694117    2429.9888  0.056690669  0.056502694            3 
 3573000    0.6733207   -3.3800941    2427.6299  0.056619786  0.056489882            7 
 3574000   0.68045281   -3.3596438    2430.0472  0.056660307  0.056477144            4 
 3575000   0.67060809   -3.3732121    2430.6888  0.056659412   0.05646442           10 
 3576000   0.66756939   -3.3803954    2429.6153  0.056618552  0.056451656            4 
 3577000   0.68496862   -3.3811176    2427.9585  0.056564126  0.056438803            4 
 3578000   0.68655636   -3.3614789    2431.8314  0.056638519  0.056426012            5 
 3579000   0.66723695   -3.3707576    2434.7397   0.05669041  0.056413295            6 
 3580000   0.68236114   -3.3803846    2436.9737  0.056726577  0.056400628            6 
 3581000   0.68516759   -3.3716225    2431.7313   0.05658874  0.056387966            4 
 3582000   0.69497178   -3.3836765    2429.7303   0.05652639   0.05637537            5 
 3583000   0.67787854   -3.3600531    2432.7167   0.05658007  0.056362727            5 
 3584000    0.6823371   -3.3757458    2439.7271  0.056727286  0.056350174            4 
 3585000   0.67988505   -3.3704824    2440.6688  0.056733352  0.056337579            5 
 3586000   0.67883204   -3.3760027    2436.4762  0.056620101  0.056324988            5 
 3587000   0.68208874   -3.3767931    2439.6286  0.056677554  0.056312426            4 
 3588000   0.68013745   -3.3639182    2437.4543  0.056611257  0.056299852            6 
 3589000   0.66522187   -3.3667244    2445.7597  0.056788327  0.056287263            4 
 3590000   0.66474269   -3.3896666     2439.741    0.0566328  0.056274738            6 
 3591000   0.67551706   -3.3667416    2449.5977  0.056845764  0.056262207            6 
 3592000   0.68373292   -3.3655795    2438.7456  0.056578173  0.056249649            4 
 3593000   0.68635847   -3.3758522    2442.9065  0.056658931  0.056237161            7 
 3594000   0.66722846   -3.3835341    2447.4499  0.056748513  0.056224596            7 
 3595000   0.64315971    -3.381244    2435.7932  0.056462521  0.056212067            9 
 3596000   0.68636072   -3.3948475    2444.6191   0.05665135  0.056199525            7 
 3597000   0.66896742   -3.4086757    2436.3378  0.056443745   0.05618689           10 
 3598000   0.67131037   -3.3746384    2438.0653  0.056468068   0.05617434            5 
 3599000   0.66232629   -3.3921303    2442.9494  0.056565468   0.05616175            7 
 3600000   0.68081042   -3.3664376    2444.1683   0.05657797  0.056149201            3 
 3601000   0.68719659   -3.3731158    2447.0021  0.056627837  0.056136707            6 
 3602000   0.67520293    -3.363363    2441.8766  0.056493536  0.056124221            6 
 3603000   0.69022652   -3.3676164    2444.4131  0.056536523  0.056111673            5 
 3604000   0.67473196   -3.3866381    2435.9551  0.056325267  0.056099088            5 
 3605000    0.6821186   -3.3819532    2439.0961   0.05638225   0.05608653           11 
 3606000   0.68179373   -3.3816762    2442.0394  0.056434632  0.056073949           10 
 3607000   0.66798065   -3.3895273    2439.7588  0.056366298  0.056061391            4 
 3608000   0.67616549   -3.3731558    2442.7101  0.056418839  0.056048861            4 
 3609000   0.69214068   -3.3816543    2447.4898  0.056513573  0.056036402            4 
 3610000   0.68511621   -3.3699078     2442.529  0.056383404  0.056023887            6 
 3611000   0.68755461   -3.3802118    2440.2863  0.056316031  0.056011354           10 
 3612000   0.67681396   -3.3845877    2445.3903  0.056418197  0.055998802            4 
 3613000   0.67154843   -3.3707194    2446.0375  0.056417508  0.055986306            7 
 3614000   0.68757297   -3.3809137    2441.9296  0.056307177   0.05597371           11 
 3615000   0.67001145   -3.3702495    2444.7257  0.056356055  0.055961219            5 
 3616000   0.68281807   -3.4026301    2442.3981  0.056286829   0.05594872            6 
 3617000   0.66505641   -3.3988874     2439.029  0.056193646  0.055936154            4 
 3618000   0.68034108   -3.3807983    2443.2826  0.056276088  0.055923587            5 
 3619000    0.6724124   -3.3806959    2439.9469  0.056183728  0.055911086            3 
 3620000   0.67412038   -3.3919273    2447.2148  0.056335515  0.055898661            7 
 3621000   0.67256326   -3.4050948    2437.8133  0.056103593  0.055886043            7 
 3622000   0.67118895   -3.3806915    2445.4913  0.056264754  0.055873413            5 
 3623000   0.66836675   -3.4089651     2443.899  0.056212599  0.055860948            6 
 3624000   0.67645541   -3.3852914    2445.1397  0.056225618  0.055848341            5 
 3625000   0.67655906   -3.3760035    2445.4571  0.056217404  0.055835882            5 
 3626000   0.68715374   -3.3773108    2437.6124  0.056021613  0.055823292            4 
 3627000   0.67477673   -3.3650275    2441.8606  0.056103772  0.055810731            6 
 3628000   0.67473031   -3.3862539    2441.3315  0.056076155  0.055798141           13 
 3629000   0.68463057   -3.3677344      2439.73  0.056023927  0.055785606            4 
 3630000   0.66541896   -3.3804746    2441.5459  0.056050181  0.055773132            8 
 3631000   0.65929636   -3.3823512    2448.7788  0.056200742  0.055760633            6 
 3632000   0.67645509   -3.3783133    2438.2112  0.055942804  0.055748097            4 
 3633000   0.67390529   -3.3881556    2444.7699  0.056077849   0.05573555            7 
 3634000   0.67341987   -3.3772316    2446.5615  0.056103502  0.055723126            5 
 3635000   0.66105125   -3.3937975    2450.2268  0.056172095  0.055710655            9 
 3636000    0.6720774   -3.3926075    2447.6706   0.05609806  0.055698133            9 
 3637000   0.66208603   -3.3948926    2442.0296  0.055953386  0.055685586            5 
 3638000   0.66912188   -3.3723496    2448.5703  0.056087829   0.05567309            6 
 3639000   0.66648592   -3.4023641    2454.1131  0.056199347  0.055660681            4 
 3640000   0.66307986   -3.4018163    2445.7627  0.055992735  0.055648228            6 
 3641000   0.64681491    -3.394754    2451.5851  0.056110618  0.055635834            5 
 3642000   0.67647241   -3.3904987    2449.8457  0.056055412  0.055623319           11 
 3643000   0.67905219   -3.4069296    2449.3481  0.056028641  0.055610923            7 
 3644000   0.66394154   -3.3736486    2455.0971  0.056144737  0.055598418            5 
 3645000   0.66113293   -3.3893043    2449.1078  0.055992405  0.055586039            5 
 3646000   0.67102567   -3.3899897    2451.6823   0.05603589   0.05557353            4 
 3647000   0.68589527   -3.3850859    2447.7146  0.055929864  0.055561085           12 
 3648000   0.67788364   -3.3739962    2449.8846  0.055964104  0.055548603            5 
 3649000   0.66802158   -3.3718983    2450.1565  0.055954976  0.055536107           12 
 3650000   0.67555582   -3.4010577    2445.8752  0.055841898  0.055523619            2 
 3651000   0.66923632    -3.398154    2447.3714  0.055860756  0.055511068           12 
 3652000   0.68516349    -3.396454    2453.8751  0.055993865  0.055498593            6 
 3653000   0.67843393   -3.4041085     2451.482  0.055923943  0.055486058            7 
 3654000   0.67056701   -3.3932956    2450.1305  0.055877816  0.055473642           16 
 3655000   0.66604077   -3.4048766    2452.7948  0.055923274  0.055461163            8 
 3656000   0.67559387   -3.3800475    2452.8055  0.055908222  0.055448612            4 
 3657000   0.67579996   -3.3838761    2458.4927  0.056022529  0.055436163            9 
 3658000    0.6679694   -3.4057971    2457.9238  0.055994255  0.055423694            8 
 3659000   0.66709672   -3.3871447    2459.1143  0.056006064  0.055411328            5 
 3660000   0.66918569   -3.3754901    2449.7192  0.055776848  0.055398882            9 
 3661000   0.66602538   -3.4008067     2451.758  0.055808021  0.055386377            7 
 3662000    0.6481056   -3.3914974     2456.262  0.055895275  0.055373823            9 
 3663000     0.667782    -3.389153    2448.6101  0.055705936  0.055361253            9 
 3664000   0.66614423   -3.3925892    2452.7448   0.05578477  0.055348815            5 
 3665000   0.66275465   -3.3899348     2447.132  0.055641929  0.055336361            8 
 3666000    0.6678062    -3.422447    2459.2364  0.055901899  0.055323953            8 
 3667000   0.65944102   -3.4175073    2443.9428  0.055539106  0.055311505           13 
 3668000    0.6670853   -3.3707868    2448.4481  0.055626319  0.055298947            5 
 3669000   0.66229474   -3.4016153    2457.1538   0.05580889  0.055286509            8 
 3670000   0.66602263   -3.4076984    2453.5171  0.055711105     0.055274            3 
 3671000   0.67330744   -3.4012236    2448.7696   0.05558816  0.055261498            5 
 3672000   0.67698693   -3.3837861    2455.7085  0.055730495  0.055249003            5 
 3673000   0.65161863   -3.3894525    2451.3607  0.055616679  0.055236506            5 
 3674000   0.66370215   -3.4071453     2460.634  0.055811875  0.055224087            6 
 3675000   0.67322458   -3.3944197    2453.3749  0.055632084  0.055211792            8 
 3676000   0.66789407   -3.3962913    2453.7975  0.055626531  0.055199417            2 
 3677000   0.67420378   -3.4067041    2453.5848  0.055606581  0.055186948            6 
 3678000   0.67884836   -3.4121031    2457.9347  0.055690019  0.055174514            5 
 3679000   0.66116966   -3.4086898    2455.4603  0.055618834  0.055161964            6 
 3680000   0.66489478   -3.3964945    2450.6844  0.055495571  0.055149485            6 
 3681000   0.66927608   -3.3975395    2454.0643  0.055557011  0.055137004            6 
 3682000    0.6738063   -3.4046171    2454.2722  0.055546628  0.055124566            7 
 3683000   0.65552148   -3.3834182    2462.0841  0.055708301  0.055112122            7 
 3684000   0.66481037   -3.3852537    2456.3442  0.055563342  0.055099642            8 
 3685000   0.67863971   -3.3922397    2453.3847  0.055481337  0.055087297            5 
 3686000   0.65391382   -3.4181124    2453.8461  0.055476715  0.055074816           12 
 3687000    0.6586599   -3.4088606    2451.5541  0.055409865  0.055062353            7 
 3688000   0.65828564   -3.3693387    2451.4805  0.055393179  0.055049965            5 
 3689000   0.65388913   -3.4020126    2448.8557   0.05531887  0.055037505            4 
 3690000   0.67017811   -3.4052709    2459.4881  0.055543995  0.055025005            6 
 3691000   0.67937079   -3.4005491    2456.1084  0.055452641  0.055012479            4 
 3692000   0.66225562   -3.4102028    2452.5337  0.055356936  0.055000042            7 
 3693000   0.63836474   -3.3957539    2457.8866  0.055462735  0.054987545            5 
 3694000    0.6562274   -3.4242532    2456.9497  0.055426585  0.054975165            5 
 3695000    0.6544158   -3.3905632    2456.3873  0.055398902  0.054962723            4 
 3696000   0.65143173   -3.4246131    2463.5396  0.055545175  0.054950303            4 
 3697000     0.651732   -3.4036622    2453.6464  0.055307149  0.054937946            3 
 3698000    0.6656719    -3.399743    2457.3378  0.055375378  0.054925592            6 
 3699000   0.67071994   -3.4123474    2453.6386  0.055277069  0.054913194            5 
 3700000   0.66835693   -3.4006314    2460.0862  0.055407346   0.05490073            7 
 3701000   0.65787866   -3.4127912    2448.8387  0.055139123  0.054888413            5 
 3702000   0.65602252   -3.3914066    2461.1718  0.055401851   0.05487601            5 
 3703000   0.66648861   -3.4225482    2445.5526   0.05503539  0.054863562            4 
 3704000   0.66043403   -3.4131062    2451.4792  0.055153869  0.054851061            5 
 3705000   0.64400979   -3.4008344    2453.6328  0.055187422  0.054838534            4 
 3706000   0.65705798   -3.4093641    2457.4689  0.055258789  0.054826084            7 
 3707000   0.67298037     -3.41183     2459.006  0.055278437  0.054813643            8 
 3708000   0.66223929   -3.4176882    2457.8438  0.055237409  0.054801166            6 
 3709000    0.6744928   -3.4238455    2464.4047  0.055369927  0.054788774            8 
 3710000   0.66184933    -3.409402    2462.0752  0.055302677  0.054776362            5 
 3711000   0.64898208   -3.4341212    2457.3181  0.055180952  0.054763973            6 
 3712000   0.67039351   -3.4089456    2460.7804  0.055243814  0.054751549            3 
 3713000   0.66659044   -3.4193365    2455.1627  0.055102853     0.054739            9 
 3714000   0.66814273   -3.4347014    2450.6758  0.054987341  0.054726455            7 
 3715000   0.63705561   -3.3935002    2458.6804  0.055152095  0.054713911            4 
 3716000   0.64964545   -3.3992739    2461.9931  0.055211543  0.054701564            6 
 3717000   0.66835467   -3.3923686     2463.811  0.055237446  0.054689224            7 
 3718000    0.6555482   -3.4312828     2462.145  0.055185247  0.054676889           15 
 3719000   0.65671359     -3.40736    2459.3231  0.055107177  0.054664412            6 
 3720000   0.64791377   -3.4001379    2458.0597  0.055064062  0.054652037            4 
 3721000    0.6509467   -3.4196952    2458.5893  0.055061124  0.054639692           11 
 3722000   0.65946399     -3.40945    2463.1628  0.055148728  0.054627336            7 
 3723000   0.65728916   -3.3939951    2461.7505  0.055102304  0.054615084            3 
 3724000   0.66103922     -3.42668    2465.2505  0.055165826  0.054602759           11 
 3725000    0.6448955    -3.401191    2470.8266  0.055275762  0.054590515            6 
 3726000   0.64805235   -3.4262557    2466.0421  0.055153921  0.054578239            4 
 3727000   0.65872573   -3.4087839    2459.3634   0.05498979  0.054565969            6 
 3728000   0.65413331    -3.422249    2466.3733  0.055131735  0.054553691            6 
 3729000   0.65670165   -3.4209935    2462.8542  0.055038307   0.05454137            5 
 3730000   0.65050714    -3.388566    2470.9217  0.055203791  0.054529102            7 
 3731000   0.65023664   -3.4154945    2460.0537  0.054946254  0.054516936            4 
 3732000   0.66026739   -3.4283931     2472.142  0.055201456  0.054504696            9 
 3733000   0.63892541   -3.4277692     2455.478   0.05481467  0.054492328            8 
 3734000     0.654645   -3.4064736    2469.9505  0.055122981  0.054480009            5 
 3735000   0.65381518    -3.415756    2454.7887   0.05476994  0.054467677            6 
 3736000    0.6545477   -3.4265658    2459.2938  0.054855768  0.054455345            6 
 3737000   0.65155172   -3.4071056    2462.4437  0.054911331  0.054443014            5 
 3738000   0.65103596   -3.4187454    2462.2201  0.054891655  0.054430727            5 
 3739000   0.65564089   -3.4234419    2460.0965  0.054829645  0.054418392            6 
 3740000   0.65594476    -3.418645    2470.2801  0.055041891  0.054406119            5 
 3741000    0.6452414   -3.4323679    2463.4372  0.054874748  0.054393797            6 
 3742000   0.66005002   -3.4158954    2460.0281  0.054784165  0.054381516            5 
 3743000   0.65029015   -3.4208082    2464.8283  0.054876398   0.05436916            4 
 3744000   0.66330791   -3.4263993    2456.1308  0.054668154  0.054356856            7 
 3745000   0.64278153   -3.3989824    2461.1601  0.054765467  0.054344554            3 
 3746000   0.65809829   -3.4258365    2463.2768  0.054797936  0.054332247            6 
 3747000   0.65651179   -3.4282635    2460.8913  0.054730258  0.054319924            4 
 3748000   0.66165731   -3.4224613    2467.0869  0.054853408  0.054307576            9 
 3749000   0.65810411   -3.4289853    2466.6768  0.054829662  0.054295283            7 
 3750000   0.65781001   -3.4149988    2463.1192  0.054735981  0.054283001           10 
 3751000   0.64419924   -3.4062417    2465.5703  0.054775844  0.054270641            5 
 3752000   0.63930088   -3.4021752    2462.3906  0.054690623  0.054258243            6 
 3753000   0.65015408    -3.424724    2468.0961  0.054802738  0.054245943            8 
 3754000   0.65669634   -3.3988008     2463.743  0.054691506  0.054233631            9 
 3755000   0.64958825    -3.414341    2462.6636  0.054652987  0.054221244            4 
 3756000   0.65593368   -3.4283161    2457.0662  0.054514248  0.054208898            5 
 3757000   0.65521013   -3.4114558     2464.015  0.054653869  0.054196565           14 
 3758000   0.66025668   -3.4294772    2458.9322  0.054526614  0.054184215            5 
 3759000   0.66258435   -3.4347911    2463.4017  0.054611192  0.054171892            3 
 3760000   0.65285215   -3.4318286    2458.8869  0.054496608   0.05415945            7 
 3761000   0.65223894   -3.4483069    2458.6519   0.05447691  0.054147017            3 
 3762000   0.65143669   -3.4402314    2462.3336  0.054543983  0.054134617            8 
 3763000    0.6363467    -3.433352    2459.0737  0.054457298  0.054122113            8 
 3764000   0.64170254   -3.4114678    2468.9857  0.054662277  0.054109769            5 
 3765000   0.63401815    -3.415773    2462.2422  0.054498499  0.054097457            8 
 3766000   0.65593091   -3.4292285    2461.5597  0.054468926  0.054085061           10 
 3767000   0.64726711   -3.4219831    2467.4142  0.054583979  0.054072681            5 
 3768000   0.63672863   -3.4559304    2464.5574  0.054506312  0.054060268            6 
 3769000   0.65557274   -3.4208882    2465.0387  0.054502492  0.054047991            4 
 3770000   0.64077675   -3.4336302    2471.2786  0.054625965  0.054035612            4 
 3771000   0.64354438   -3.4233013    2463.3653  0.054436607  0.054023226            5 
 3772000   0.66107618    -3.405575    2467.7195   0.05451837   0.05401087           11 
 3773000   0.65902055   -3.4278128    2469.0708  0.054533766  0.053998506            7 
 3774000   0.64153333   -3.4107318    2463.3961  0.054394014  0.053986131            4 
 3775000   0.65962093   -3.4354895    2459.5653   0.05429504  0.053973713            6 
 3776000   0.66354325   -3.4214857    2466.8678  0.054441821  0.053961345            7 
 3777000   0.63860355   -3.4227837    2460.0516  0.054277019  0.053949044            9 
 3778000    0.6228588   -3.4231818    2470.5116  0.054493375   0.05393673            5 
 3779000   0.64767039   -3.4084552     2468.332   0.05443089  0.053924345           11 
 3780000   0.64267209   -3.4448577    2461.7676  0.054271773   0.05391193           10 
 3781000   0.65433477   -3.4404076    2467.8945  0.054392455  0.053899534            5 
 3782000   0.64551315   -3.4313326    2471.8624  0.054465504  0.053887274           16 
 3783000   0.63341797   -3.4297438    2469.2797  0.054394214  0.053874949            8 
 3784000   0.63095899   -3.4088442    2472.1991  0.054444131  0.053862673            5 
 3785000   0.65597728   -3.4141607    2468.2804   0.05434347  0.053850302            8 
 3786000   0.65725135   -3.4271537    2472.2393  0.054416256  0.053837964            7 
 3787000   0.65771446   -3.4245582    2475.0103  0.054462862  0.053825624            5 
 3788000   0.64561182   -3.4226518    2466.9221   0.05427055  0.053813348            8 
 3789000    0.6515172   -3.4241994    2474.7805  0.054429061  0.053801021            5 
 3790000   0.65274524   -3.3918543    2465.4935  0.054210498  0.053788668            5 
 3791000   0.64268784   -3.4461349    2468.8295  0.054269531  0.053776345            7 
 3792000   0.65258171   -3.4497874    2463.9081  0.054147066  0.053763878           11 
 3793000   0.63915912   -3.4416923    2473.9994  0.054354499   0.05375147            7 
 3794000   0.64428082   -3.4314548    2461.3703   0.05406278  0.053739061            7 
 3795000   0.65746026   -3.4259613    2460.4831  0.054029053  0.053726627           17 
 3796000   0.64320593     -3.42668    2462.6231    0.0540618  0.053714215            9 
 3797000   0.65045511   -3.4110143    2466.2806  0.054127833  0.053701844            3 
 3798000   0.64161014   -3.4480515     2464.681  0.054078483  0.053689508           11 
 3799000   0.65031857   -3.4272654    2478.2623  0.054362163  0.053677124           15 
 3800000   0.64164482   -3.4266854     2467.862   0.05411978  0.053664782            6 
 3801000   0.64676575   -3.4373602    2466.1439  0.054067875  0.053652413            6 
 3802000   0.62776201   -3.4268901    2465.2895  0.054034928  0.053640027            9 
 3803000   0.65939962   -3.4373106    2466.9631  0.054057391  0.053627653           10 
 3804000   0.64326102   -3.4613639    2466.2722  0.054028045  0.053615315            7 
 3805000   0.65282708   -3.4379559    2475.6243  0.054218666  0.053602961           11 
 3806000   0.64347778   -3.4267797    2466.5375  0.054005464  0.053590644            4 
 3807000    0.6498064   -3.4377994    2462.4763  0.053902378  0.053578285            8 
 3808000   0.63560079   -3.4302345    2470.4089   0.05406182  0.053565899            3 
 3809000   0.62726141   -3.4314332    2467.0367  0.053973849  0.053553464           10 
 3810000   0.63145582   -3.4378752    2469.4218   0.05401185  0.053541048           10 
 3811000   0.63632066    -3.445188    2468.4311  0.053976014   0.05352867            7 
 3812000   0.62510466   -3.4336916    2467.0005  0.053930582  0.053516335            7 
 3813000    0.6314602   -3.4239958    2473.5107  0.054058717  0.053503936            9 
 3814000   0.65194327    -3.418427    2471.6408  0.054003688  0.053491633            5 
 3815000   0.62656683   -3.4352554    2466.6734  0.053881026  0.053479372            8 
 3816000   0.64193103   -3.4225248     2470.104  0.053941824  0.053467119            5 
 3817000   0.64627121   -3.4436945    2469.0271  0.053904182  0.053454714            8 
 3818000    0.6345647   -3.4346977    2473.9348  0.053997181   0.05344237            5 
 3819000   0.64191052   -3.4504084    2464.0297  0.053766904  0.053429977           12 
 3820000   0.62895492   -3.4323361    2471.5874  0.053917702  0.053417631           14 
 3821000   0.65764828   -3.4402693    2470.4318  0.053878387  0.053405271            5 
 3822000    0.6383203   -3.4188846    2469.3738  0.053841221  0.053393011            3 
 3823000    0.6322557   -3.4423665    2468.2565  0.053802784  0.053380699            6 
 3824000    0.6413963   -3.4295645    2476.7655  0.053974144  0.053368439            7 
 3825000   0.63579959   -3.4425581     2466.542  0.053737298   0.05335618            6 
 3826000   0.65268034   -3.4405491    2473.7703   0.05388069  0.053343912            6 
 3827000   0.65565746   -3.4349146    2481.5007  0.054034942  0.053331675            9 
 3828000   0.62665904   -3.4378558    2480.4566  0.053998097  0.053319465            6 
 3829000   0.63412404   -3.4213292    2478.8168  0.053948307  0.053307212           17 
 3830000   0.63459743   -3.4183795    2472.3309  0.053793101  0.053295004           15 
 3831000   0.63091318    -3.436105    2478.2945  0.053908782  0.053282817            6 
 3832000   0.64073331   -3.4486879    2468.0189  0.053671254    0.0532705            5 
 3833000   0.63748029   -3.4403973    2472.7894  0.053760966  0.053258161            6 
 3834000   0.63405202   -3.4326627    2475.0562  0.053796214  0.053245923           10 
 3835000    0.6298024   -3.4555724    2476.7951  0.053819972  0.053233685            4 
 3836000   0.63311465   -3.4585671    2470.1778  0.053662186  0.053221401            6 
 3837000   0.64509543   -3.4443693    2475.7615  0.053769471  0.053209154           11 
 3838000    0.6339951   -3.4245699    2479.9534  0.053846478  0.053196971            9 
 3839000   0.63916196   -3.4572768    2472.6896  0.053674776  0.053184815            4 
 3840000   0.62842227   -3.4511646    2477.0731  0.053755926  0.053172607            6 
 3841000   0.62757551   -3.4671013    2473.0809  0.053655318  0.053160375            8 
 3842000   0.64858764   -3.4286697    2484.1196  0.053880783  0.053148173           10 
 3843000    0.6344591   -3.4591885    2471.4452  0.053591925  0.053135965            7 
 3844000   0.64362164   -3.4520403    2473.3494  0.053619264  0.053123747           10 
 3845000   0.62774186   -3.4252354      2475.57  0.053653447  0.053111578            8 
 3846000   0.63446812   -3.4339684    2479.2311  0.053718823  0.053099375            9 
 3847000   0.64617864   -3.4449228    2480.9908  0.053742978  0.053087238            4 
 3848000   0.64253582   -3.4607501    2472.2973  0.053540743  0.053075046           10 
 3849000   0.62876089     -3.45115    2472.0839  0.053522211  0.053062788            5 
 3850000    0.6297891   -3.4624428    2472.9497   0.05352705  0.053050613            6 
 3851000   0.63457863   -3.4453095    2483.5579  0.053742706  0.053038343            7 
 3852000   0.63097416   -3.4329357    2478.1565  0.053611901  0.053026173            5 
 3853000   0.64637193   -3.4453459    2474.5572   0.05352014  0.053014021            6 
 3854000   0.63526566   -3.4421045     2480.286  0.053630124  0.053001844            6 
 3855000   0.64226249   -3.4361122    2474.1854  0.053484337  0.052989726            3 
 3856000   0.62817046   -3.4430423    2480.5282  0.053607541  0.052977554            6 
 3857000   0.62071762   -3.4636132    2480.1178  0.053584777   0.05296528           15 
 3858000   0.63827981   -3.4422088    2470.8629   0.05337098  0.052953068           13 
 3859000   0.62790235   -3.4270261     2480.112  0.053556881  0.052940906           10 
 3860000   0.64022314   -3.4702783    2475.1461  0.053435798  0.052928699            7 
 3861000   0.62520295   -3.4469974    2469.7761  0.053306055  0.052916438            5 
 3862000   0.62650616   -3.4367814    2481.5105  0.053545454  0.052904265            9 
 3863000   0.63442263   -3.4407263    2476.9841  0.053433948  0.052892116           10 
 3864000   0.64791842   -3.4568031    2477.1417  0.053423519  0.052880005            4 
 3865000   0.63260082   -3.4436937    2476.5562  0.053397072  0.052867935           12 
 3866000   0.63511157   -3.4461505    2473.8856  0.053325695  0.052855796           14 
 3867000   0.63869995   -3.4507058    2480.1798  0.053447544  0.052843539           12 
 3868000    0.6358223   -3.4407026    2478.0131  0.053387044  0.052831345            5 
 3869000    0.6219077   -3.4619318    2475.1807  0.053312241  0.052819154           10 
 3870000   0.63940761   -3.4467481    2476.3533  0.053323715  0.052806967            5 
 3871000   0.63996914   -3.4463196    2479.7118  0.053382239  0.052794767           10 
 3872000   0.64055624   -3.4428843    2480.3674  0.053382563  0.052782557            6 
 3873000   0.63374464   -3.4599917    2475.3916  0.053261718  0.052770376           11 
 3874000   0.64071444   -3.4489014    2488.6968  0.053534177  0.052758266            7 
 3875000   0.63174725   -3.4259467    2484.9087  0.053438896   0.05274613            8 
 3876000    0.6333522   -3.4431105    2477.7382  0.053270946  0.052734023           12 
 3877000   0.64108988   -3.4375899    2485.4613  0.053423206  0.052721921            6 
 3878000   0.62828428   -3.4584524    2475.2686  0.053190403   0.05270973            8 
 3879000   0.61994671   -3.4510782    2476.5985  0.053205262  0.052697527            4 
 3880000   0.62354444    -3.443688    2476.5228  0.053189923  0.052685367           11 
 3881000   0.62453319   -3.4346637      2474.01  0.053122263  0.052673193            6 
 3882000   0.62374065   -3.4648652    2476.6881  0.053166067  0.052660982           10 
 3883000    0.6340079   -3.4449525    2482.6155  0.053279583  0.052648764            7 
 3884000   0.62600016   -3.4389958     2476.426  0.053133068   0.05263657           11 
 3885000   0.62593158   -3.4547755    2476.5722  0.053122527  0.052624423            5 
 3886000    0.6360299   -3.4470911    2474.1254  0.053056386   0.05261222            5 
 3887000   0.62212014   -3.4585535    2485.5584  0.053287849  0.052600059            4 
 3888000   0.63898421   -3.4520276    2480.4995  0.053165714  0.052587845            7 
 3889000    0.6299894   -3.4277137    2485.2065  0.053252903  0.052575647            5 
 3890000   0.63335861   -3.4427274    2477.1333  0.053066266   0.05256342           11 
 3891000   0.61764354   -3.4423337    2482.6154  0.053170038  0.052551209            6 
 3892000   0.62964696   -3.4759418     2470.922  0.052906004  0.052539016           17 
 3893000   0.64713077   -3.4526611    2480.7614  0.053103035  0.052526739            4 
 3894000   0.63787334   -3.4509624    2478.1046  0.053032543  0.052514588            7 
 3895000   0.64242897   -3.4572755    2480.9712  0.053080258  0.052502495            4 
 3896000   0.63589663   -3.4608417     2481.325  0.053074199   0.05249034           14 
 3897000   0.62232847    -3.482442    2477.1409  0.052971108  0.052478117            7 
 3898000   0.63935708   -3.4565291    2480.1502  0.053021853  0.052465968            7 
 3899000   0.61971342   -3.4512673    2481.8257  0.053044065  0.052453768            9 
 3900000   0.62349563   -3.4729468     2477.171  0.052931005  0.052441632            4 
 3901000   0.63355057   -3.4479244    2475.0966  0.052873122  0.052429463            8 
 3902000   0.62407185   -3.4408907    2486.4622  0.053102303  0.052417247            6 
 3903000    0.6340747   -3.4803171    2478.8303  0.052925748  0.052405037            9 
 3904000   0.63452552   -3.4600213     2478.907  0.052913828  0.052392922           10 
 3905000   0.61407147   -3.4659126     2485.618  0.053043492  0.052380742            7 
 3906000   0.63586888   -3.4448013    2482.2378  0.052957796  0.052368639            7 
 3907000   0.63742518   -3.4543754    2488.3673  0.053074978  0.052356561           14 
 3908000   0.62597578   -3.4700274    2480.2172  0.052887607  0.052344461            7 
 3909000   0.62422496   -3.4697042    2475.7226  0.052778259  0.052332299            7 
 3910000    0.6229481   -3.4800125    2477.6832  0.052806548  0.052320177            9 
 3911000    0.6348873   -3.4679795    2488.3106  0.053019489  0.052308056            8 
 3912000   0.62262295   -3.4541876    2486.6131  0.052969774    0.0522959            6 
 3913000    0.6159163   -3.4609467    2485.3132  0.052928554  0.052283792            7 
 3914000   0.62062931   -3.4643986    2482.8945  0.052863534  0.052271719            6 
 3915000   0.61186328   -3.4729024    2485.9468  0.052915002  0.052259673            8 
 3916000   0.63057337   -3.4528345    2486.3256   0.05290955  0.052247538            9 
 3917000   0.63626607   -3.4522287    2482.8339  0.052821757  0.052235506           10 
 3918000   0.62373472   -3.4672455    2478.5777  0.052717749  0.052223436           14 
 3919000   0.62692336   -3.4871984     2486.537  0.052873544  0.052211423           21 
 3920000    0.6069213   -3.4653061    2485.6561  0.052841328  0.052199335           13 
 3921000   0.62127197   -3.4668536    2485.4586  0.052823654  0.052187278            5 
 3922000   0.61351795   -3.4635164    2488.0606  0.052865473  0.052175327           16 
 3923000   0.61038348   -3.4537721    2477.8875  0.052635897  0.052163246            6 
 3924000   0.63038163   -3.4632115    2493.0176  0.052943799  0.052151162            8 
 3925000   0.62051366   -3.4769625    2488.0115  0.052824024   0.05213908            6 
 3926000   0.61945703   -3.4700349    2486.9923  0.052788936  0.052126988           13 
 3927000   0.62131381   -3.4697075    2484.9934  0.052733074  0.052114893            8 
 3928000   0.62957385    -3.475285    2485.1486  0.052722943  0.052102822            4 
 3929000   0.61225746   -3.4694143    2483.0912  0.052665887  0.052090726            5 
 3930000   0.62586592   -3.4622283    2482.0439  0.052630277  0.052078683            5 
 3931000   0.62776114    -3.469536    2484.2095  0.052662798  0.052066643            6 
 3932000   0.61445038   -3.4700557    2490.0183  0.052772514  0.052054602            5 
 3933000   0.62035726   -3.4758961    2487.3391  0.052702329   0.05204249            5 
 3934000   0.62737939   -3.4437222    2484.5733  0.052630344  0.052030386            6 
 3935000    0.6321113   -3.4661282    2481.4977  0.052551836  0.052018268            4 
 3936000    0.6227356   -3.4781421    2479.3523  0.052493062  0.052006176            3 
 3937000   0.63019837   -3.4550104    2486.6685  0.052634588  0.051994019            8 
 3938000   0.61824715   -3.4471346     2489.315  0.052677225  0.051981855           12 
 3939000   0.62168992   -3.4514213    2487.7645  0.052631051  0.051969789            3 
 3940000   0.62923093   -3.4668519     2485.781   0.05257574  0.051957665            6 
 3941000   0.62396535   -3.4809172    2477.5057  0.052387416  0.051945611            8 
 3942000   0.63188892   -3.4894102    2486.6079  0.052566546  0.051933571            5 
 3943000   0.61168954   -3.4680507    2489.4223  0.052612696  0.051921511            3 
 3944000   0.62552515   -3.5158569    2484.2325    0.0524897  0.051909429            7 
 3945000   0.60604528   -3.4879513     2488.658  0.052569877  0.051897348           13 
 3946000   0.62520437   -3.4671412    2490.4145   0.05259365  0.051885336            5 
 3947000   0.62189472   -3.4646098    2487.9004  0.052527244  0.051873368            7 
 3948000   0.62056091   -3.4729289    2485.0809  0.052454426  0.051861308           10 
 3949000   0.62683833   -3.4746594    2480.4026  0.052342419  0.051849303            6 
 3950000   0.62109426   -3.4667699     2488.653  0.052503228  0.051837312            6 
 3951000   0.62120843   -3.4669369    2493.1638   0.05258508  0.051825278            4 
 3952000      0.61822   -3.4701854    2486.5728  0.052432794  0.051813287           13 
 3953000   0.61757615   -3.4849727    2482.6783  0.052337429  0.051801292            5 
 3954000   0.60761182   -3.4642387    2487.8975   0.05243419  0.051789262            6 
 3955000   0.60563697   -3.4565537    2497.8589  0.052630823  0.051777353            5 
 3956000   0.61615065   -3.4947759    2491.0987  0.052475117  0.051765453           10 
 3957000   0.61757988   -3.4574879      2493.65  0.052515585  0.051753495           13 
 3958000    0.6079608   -3.4765202    2491.6313  0.052459814  0.051741586            5 
 3959000    0.6219314   -3.4514469    2496.4022  0.052546987  0.051729654            8 
 3960000   0.62596944   -3.4775106    2491.6863  0.052434476  0.051717726            9 
 3961000   0.63007095   -3.4431578     2491.151  0.052409976  0.051705812           19 
 3962000   0.62329928    -3.453661    2490.6939  0.052387134  0.051693893            5 
 3963000   0.63345268    -3.490062    2488.1084  0.052319547  0.051681936            9 
 3964000    0.6268107   -3.4528389    2487.3544  0.052290497  0.051669938            4 
 3965000   0.61854034    -3.498036    2483.5042   0.05219639  0.051657952            4 
 3966000   0.62295391   -3.5001661    2485.1465  0.052217735  0.051645887           10 
 3967000   0.62569208   -3.4876228    2488.2014  0.052268746  0.051633862            6 
 3968000   0.61040286   -3.4874983    2491.1087   0.05231663  0.051621886            8 
 3969000   0.62024126   -3.4824262    2492.1691  0.052325713  0.051609892            4 
 3970000    0.6145832   -3.4773509    2490.7919  0.052283626  0.051597911            5 
 3971000   0.62455279   -3.4660292    2488.0137  0.052212157  0.051585929            6 
 3972000    0.6208388   -3.4562171    2491.8562  0.052279627  0.051573977           13 
 3973000    0.6069257   -3.4753736    2493.2223  0.052295123  0.051562034            7 
 3974000   0.61218139   -3.4821833    2486.1431  0.052133516  0.051550049           10 
 3975000   0.60250944   -3.4853352    2494.7346  0.052300515  0.051538091            3 
 3976000   0.61286752   -3.4791824    2490.6937  0.052202667   0.05152609           14 
 3977000    0.6174525    -3.479356    2494.6296  0.052272014   0.05151415            5 
 3978000   0.61308028   -3.4804388    2485.8322  0.052074581  0.051502125            9 
 3979000   0.60841481   -3.4946745    2496.0115  0.052274683  0.051490141            6 
 3980000   0.61335361    -3.470284    2493.2372  0.052203458  0.051478153           15 
 3981000   0.61256882   -3.4941704    2490.6596  0.052136391  0.051466202            5 
 3982000   0.60621846   -3.4858546    2492.4495  0.052160754    0.0514542            6 
 3983000   0.60753966   -3.4868471    2495.4406   0.05221024  0.051442275           10 
 3984000   0.62243289    -3.483013    2487.9898  0.052041286   0.05143028            6 
 3985000   0.62286739   -3.4672657    2491.7407  0.052106666  0.051418298            7 
 3986000   0.60423057   -3.4876379     2495.921  0.052180988  0.051406411            7 
 3987000   0.61722146   -3.4652545    2490.4624  0.052053807  0.051394498           17 
 3988000   0.61523456   -3.4735432    2495.3999  0.052143929  0.051382543            8 
 3989000   0.61879796   -3.4626343    2488.7871  0.051992711  0.051370566            7 
 3990000   0.61071452   -3.4789883    2497.2493  0.052156417  0.051358624            6 
 3991000   0.61205966   -3.4877291    2486.2192  0.051913038  0.051346603           12 
 3992000   0.59227404   -3.4837406    2493.3371  0.052048619  0.051334638            8 
 3993000   0.59922992   -3.4885679    2488.1487  0.051927305  0.051322624            6 
 3994000   0.61336236   -3.4678784    2493.2471  0.052020678  0.051310619            4 
 3995000   0.60469705    -3.498073    2480.7243   0.05174644  0.051298598            6 
 3996000   0.59792379   -3.4741975    2488.9229  0.051904465  0.051286569            7 
 3997000   0.61169389    -3.480626    2491.3519  0.051942121  0.051274662            9 
 3998000   0.61525235   -3.4724895    2495.0754   0.05200674  0.051262748           10 
 3999000   0.61890779   -3.4766199    2491.1586  0.051912115  0.051250829           16 
 4000000   0.61730643   -3.4840884    2495.4196  0.051987908  0.051238994           10 
 4001000   0.60289512   -3.4855489    2497.5736  0.052019779  0.051227119            6 
 4002000   0.61408843   -3.4961752    2492.5796   0.05190279  0.051215225            7 
 4003000   0.62963959   -3.4833986    2491.3562  0.051864355  0.051203331           10 
 4004000   0.60332045   -3.4849856    2490.4609   0.05183277  0.051191451           10 
 4005000   0.60395552   -3.4913303    2497.9691  0.051976053  0.051179541            7 
 4006000   0.60207868   -3.4842095     2497.287   0.05194889  0.051167738           10 
 4007000   0.61318934   -3.4520141    2498.9211  0.051969909  0.051155912            6 
 4008000   0.60972849   -3.5044846    2502.2385  0.052025918  0.051144047           12 
 4009000   0.61748688   -3.4957578    2500.8834  0.051984771  0.051132282            7 
 4010000   0.61726854   -3.4754589    2497.4461  0.051900377  0.051120528            7 
 4011000   0.61383583   -3.4866987    2498.2006  0.051903112  0.051108747            4 
 4012000    0.6018654   -3.4941834    2499.8614  0.051924671  0.051096955            9 
 4013000    0.6038323    -3.496588    2495.4509  0.051820145  0.051085235            4 
 4014000   0.61614433   -3.4763339     2494.072  0.051778609  0.051073372           11 
 4015000   0.60515755   -3.4794786    2496.0923  0.051807645  0.051061596            6 
 4016000   0.61603352   -3.4698974    2508.2256  0.052046514  0.051049808            6 
 4017000   0.61068807     -3.50156    2499.1033  0.051844315   0.05103807            3 
 4018000   0.60804954   -3.5129084    2495.7939  0.051762775  0.051026289            6 
 4019000   0.60707783   -3.4742806    2495.6617  0.051747154   0.05101446           11 
 4020000   0.61061671   -3.4902165    2504.2036  0.051911351  0.051002655            9 
 4021000    0.6046504   -3.4793623    2495.3648  0.051715262  0.050990846            6 
 4022000   0.61617973   -3.4805647     2499.272  0.051783357  0.050979067            6 
 4023000   0.59543868   -3.4965523     2503.149  0.051850795  0.050967236            4 
 4024000   0.61307637   -3.4617094    2507.1398  0.051920556  0.050955424           12 
 4025000    0.6022994   -3.4921088    2495.7625  0.051672101  0.050943676            5 
 4026000   0.61625945   -3.4997064    2499.8623  0.051744128  0.050931836           11 
 4027000   0.61241265   -3.4906413    2491.5367   0.05155899   0.05092002            9 
 4028000   0.60655756     -3.50315    2501.1697  0.051745484  0.050908188            8 
 4029000   0.60537821   -3.5118802    2495.0911  0.051606914  0.050896319            7 
 4030000   0.60893116   -3.4890406    2497.3222  0.051640245  0.050884485           10 
 4031000   0.58970005   -3.4833721    2502.6151  0.051736854  0.050872635            6 
 4032000    0.5995175   -3.4971093    2491.5821  0.051495993   0.05086074           13 
 4033000   0.59925821   -3.4940046    2497.3158  0.051601698   0.05084884            8 
 4034000   0.59533387   -3.5019274    2493.4907  0.051509888  0.050836956           11 
 4035000   0.62241366   -3.4994807    2499.6725  0.051624793  0.050825059            6 
 4036000    0.5967593   -3.5204969    2497.8876  0.051575148  0.050813167           11 
 4037000   0.61100833   -3.5118265    2497.8095   0.05156076  0.050801207            7 
 4038000   0.61223391   -3.4777154    2496.1011  0.051512736  0.050789319            9 
 4039000   0.61477368   -3.4943754     2490.991   0.05139455  0.050777416            5 
 4040000    0.5964626   -3.4968714    2497.5117  0.051516331  0.050765516            5 
 4041000   0.60450355   -3.5125197    2497.7381  0.051508251  0.050753618           11 
 4042000   0.61423614   -3.4802641     2501.564  0.051574385  0.050741744            9 
 4043000   0.59606287   -3.5032098    2498.7016   0.05150263  0.050729903            8 
 4044000   0.61191696   -3.5167375    2496.6972  0.051448591  0.050718008            4 
 4045000   0.60806873   -3.4769714    2509.0191  0.051689722  0.050706198           10 
 4046000   0.59820997   -3.4956566    2495.9987  0.051408772  0.050694359            4 
 4047000   0.60451436   -3.5002915    2502.1494  0.051522721  0.050682489            5 
 4048000   0.60454672   -3.5244859    2501.2117  0.051490689   0.05067065            6 
 4049000   0.60140302    -3.503556    2500.2652  0.051458491  0.050658799            7 
 4050000    0.6003692   -3.4923299    2503.6289  0.051514998   0.05064695           13 
 4051000   0.61236852   -3.4760289    2507.4884  0.051581674  0.050635148            7 
 4052000    0.5969796   -3.4997265    2497.7001   0.05136764  0.050623354           13 
 4053000   0.60596284   -3.5113522     2499.802  0.051398183  0.050611551            5 
 4054000   0.60152482   -3.4942469    2498.2245  0.051353077  0.050599746            5 
 4055000   0.60832966   -3.5086918    2499.8841  0.051374519  0.050587935            5 
 4056000   0.60116454   -3.5200617    2497.6371  0.051315687  0.050575969            6 
 4057000   0.60362224   -3.4953501    2503.9277  0.051432251   0.05056415            6 
 4058000   0.58900308   -3.5012448    2496.4718  0.051266465  0.050552253           25 
 4059000   0.60726024   -3.5036853    2501.0826  0.051348497  0.050540355           13 
 4060000   0.61739215   -3.4849915    2496.1046  0.051233674  0.050528518           13 
 4061000   0.59604726   -3.4987391    2496.8107  0.051235547  0.050516671            6 
 4062000   0.59781746   -3.5001319    2500.3994  0.051296558  0.050504871            5 
 4063000   0.60465767   -3.5160295    2503.2761  0.051342934  0.050493051            5 
 4064000   0.60790644   -3.5134721    2499.8472  0.051259991  0.050481222           11 
 4065000   0.62236078    -3.500485    2503.3723  0.051319645  0.050469435           11 
 4066000   0.60196613   -3.4655971    2498.9597  0.051216586  0.050457718            6 
 4067000   0.59402583   -3.4934013    2498.0567   0.05118549  0.050445951            7 
 4068000   0.59228627   -3.5049178    2501.9829  0.051253338  0.050434156            6 
 4069000   0.60455541   -3.5028568    2502.0517  0.051242149   0.05042243           14 
 4070000   0.60001258   -3.4941913     2498.065  0.051147932  0.050410644            5 
 4071000   0.59853318   -3.4984621    2502.7879  0.051232046  0.050398852            7 
 4072000   0.59512641    -3.496053    2500.9545  0.051181944  0.050387105            9 
 4073000   0.58504267    -3.484938    2507.6162  0.051305676  0.050375333            7 
 4074000   0.60866512   -3.5150464    2497.7789  0.051091861   0.05036356           10 
 4075000   0.62486457   -3.5245055    2502.8139  0.051182289  0.050351725            8 
 4076000   0.59770623   -3.5007515      2507.87  0.051273103  0.050339983            6 
 4077000   0.60456038   -3.4903574    2502.9414  0.051159787  0.050328286            5 
 4078000   0.61611419   -3.4969533    2498.5518  0.051057541  0.050316562            6 
 4079000   0.59020795   -3.5007095    2499.4271  0.051062906   0.05030484            7 
 4080000   0.59039779   -3.4878255      2494.57  0.050951186  0.050293126            6 
 4081000   0.59885115   -3.5144393    2500.9584  0.051069149  0.050281317            6 
 4082000   0.59009414   -3.5240322    2500.1991  0.051041137  0.050269489            9 
 4083000    0.5972551   -3.5162793    2504.8964  0.051124508  0.050257694           20 
 4084000   0.59444032   -3.5128265    2497.1085  0.050953079  0.050245904            4 
 4085000   0.59260835   -3.5016883    2502.5466  0.051051542  0.050234107           10 
 4086000   0.59400696   -3.5076383    2508.0725  0.051151748  0.050222329           15 
 4087000   0.60270355   -3.5065923    2498.6121  0.050946336  0.050210599           22 
 4088000   0.59823978   -3.4997552    2504.5475  0.051054866   0.05019879           12 
 4089000   0.60513276   -3.5062169    2499.9187  0.050948045   0.05018703            6 
 4090000   0.59271399   -3.5119095    2489.5176  0.050723667  0.050175213            8 
 4091000   0.59974879   -3.5113228    2497.8223  0.050880434  0.050163403           10 
 4092000   0.59478505   -3.5110921    2495.0225  0.050810983  0.050151578            8 
 4093000   0.58462968   -3.5186616     2502.022  0.050941079   0.05013975            8 
 4094000   0.59865201   -3.5022376     2502.935   0.05094722  0.050127873           12 
 4095000   0.60425043   -3.4964843     2503.547  0.050947232  0.050116068            5 
 4096000   0.61107764   -3.5079512    2500.8717  0.050880365  0.050104274           19 
 4097000   0.58926789   -3.5057269    2500.1017  0.050852283  0.050092443            3 
 4098000   0.59862486   -3.5061857    2501.0044  0.050858232  0.050080667            6 
 4099000   0.60795117    -3.505669    2498.3103  0.050791053  0.050068819            5 
 4100000   0.58441704   -3.5156694     2501.626  0.050846056  0.050057003           10 
 4101000   0.59237074   -3.5042449     2498.429  0.050768695  0.050045171            7 
 4102000   0.60828932   -3.5136599    2501.8428   0.05082567  0.050033304            7 
 4103000    0.5983512   -3.5122941    2496.1014  0.050696673  0.050021534           15 
 4104000   0.59764541   -3.5187973    2497.6167  0.050715088  0.050009777           11 
 4105000    0.5897419   -3.5103326    2502.9912   0.05081184  0.049997971            9 
 4106000   0.58716191   -3.4986408    2502.2813  0.050785057  0.049986158            5 
 4107000   0.60805194   -3.5016138    2497.2562  0.050670728  0.049974412            9 
 4108000   0.59325232   -3.5226007    2509.5742  0.050908272  0.049962577            7 
 4109000   0.59420419   -3.5084311    2496.5012  0.050630754  0.049950758            8 
 4110000   0.58477938   -3.4999565    2502.8998   0.05074817  0.049938955            5 
 4111000   0.59414085   -3.5142186     2505.576  0.050790076  0.049927197           20 
 4112000   0.58779223   -3.5404466    2505.5439  0.050777072  0.049915391            9 
 4113000   0.59130907   -3.5224821    2497.5854   0.05060348  0.049903556           11 
 4114000   0.59794651   -3.5090237    2504.1642  0.050724441  0.049891764            8 
 4115000   0.58639086      -3.5223    2496.6132  0.050559197  0.049879956           30 
 4116000   0.59458817   -3.5188032    2499.6047  0.050607482  0.049868191           11 
 4117000   0.59069972   -3.5330815    2504.0944  0.050686065  0.049856359            5 
 4118000   0.58455001   -3.5120823    2499.2621  0.050575969  0.049844531            8 
 4119000   0.58621605   -3.5055065     2498.402   0.05054629  0.049832712            8 
 4120000   0.59749944   -3.5185121    2498.0198   0.05052629   0.04982091           12 
 4121000   0.58978884   -3.5146147    2496.7077  0.050487498  0.049809157           18 
 4122000   0.58504976   -3.5026874    2502.9247  0.050600936  0.049797304            4 
 4123000   0.60028551   -3.5187423     2504.444  0.050619371  0.049785497            4 
 4124000   0.60072099   -3.5064997    2501.7001   0.05055165  0.049773722            5 
 4125000   0.59077009   -3.5175875    2499.2075   0.05048904  0.049761882           12 
 4126000   0.59406108   -3.5185944    2494.9561  0.050390938  0.049750128            4 
 4127000    0.5938622   -3.5276815    2498.7879  0.050456101  0.049738305            8 
 4128000   0.59258322   -3.5029457    2498.8759  0.050445653  0.049726573           10 
 4129000   0.58268945   -3.5253669    2502.3235  0.050503018  0.049714902            9 
 4130000   0.59807096   -3.5162524    2505.2364  0.050549565  0.049703128           10 
 4131000    0.5888395   -3.5263304    2498.7807  0.050407099  0.049691366           18 
 4132000     0.590637   -3.5241163    2494.9334  0.050317309  0.049679581           15 
 4133000    0.5954759   -3.5188858    2500.0924  0.050409155    0.0496678            8 
 4134000   0.59047398    -3.506896    2503.5275  0.050466204  0.049656058            6 
 4135000   0.60560691   -3.4856071    2509.7621  0.050579648  0.049644368           12 
 4136000   0.58209268   -3.5214166    2502.0985   0.05041301  0.049632733            5 
 4137000   0.58470216   -3.5258304    2507.2247  0.050504084  0.049621027            8 
 4138000   0.60041591   -3.5232483    2507.5791  0.050499014  0.049609261            6 
 4139000   0.59994155    -3.531396    2502.5082  0.050384719  0.049597552            6 
 4140000    0.6014624   -3.5125692    2504.3102  0.050408821  0.049585797           11 
 4141000   0.58817372   -3.5469991    2500.3916   0.05031779  0.049573985            7 
 4142000   0.58184047   -3.5333518    2504.2507  0.050383284  0.049562163           10 
 4143000   0.58968354   -3.5141745    2506.3219  0.050412782   0.04955032           19 
 4144000   0.59020071   -3.5242959    2500.8342  0.050290263  0.049538519           15 
 4145000   0.59394604   -3.5183191    2502.9125  0.050319913  0.049526731           12 
 4146000   0.57639577    -3.528374    2499.0255  0.050229649  0.049514932            9 
 4147000   0.58463315   -3.5422554    2503.5463  0.050308381  0.049503123           13 
 4148000   0.60070785   -3.5266157    2500.2021  0.050229068  0.049491319           14 
 4149000   0.58415432   -3.5192011    2500.0008  0.050212918  0.049479523            5 
 4150000   0.59594298   -3.5221917    2501.9791  0.050240545   0.04946775            4 
 4151000   0.59627553   -3.5272483    2504.1477  0.050271977  0.049456041            6 
 4152000   0.57275625   -3.5261754    2501.0304  0.050197303   0.04944426           11 
 4153000   0.58540521   -3.5348256    2499.8724  0.050161979  0.049432458            5 
 4154000   0.58393603   -3.5084027    2505.0247  0.050253264  0.049420656            8 
 4155000   0.59717072   -3.5286049    2501.5709  0.050171899  0.049408899            6 
 4156000   0.58403512   -3.5117864    2507.2294  0.050273287  0.049397187            7 
 4157000   0.59000108   -3.5156985    2496.9065  0.050054255  0.049385471            7 
 4158000   0.58195852   -3.5175408    2502.2748  0.050149808  0.049373686            9 
 4159000   0.58971589   -3.5243627    2502.2155  0.050136561  0.049361989           19 
 4160000   0.58997226    -3.531392    2498.3427  0.050046929  0.049350196           19 
 4161000   0.57506813   -3.5213821    2502.4604  0.050117368  0.049338398            7 
 4162000   0.58204116   -3.5435012    2501.5713  0.050087523  0.049326622            7 
 4163000    0.5916777   -3.5360957    2506.2675  0.050169499  0.049314787           15 
 4164000   0.57798653   -3.5455527     2503.008  0.050092219  0.049302985            7 
 4165000   0.59159953   -3.5467144    2494.7256  0.049914478  0.049291197            6 
 4166000    0.6001873   -3.5334628    2495.7862  0.049923711  0.049279408           11 
 4167000   0.57589895   -3.5433663     2499.587  0.049987742  0.049267539            7 
 4168000   0.57495971   -3.5319174    2501.8774  0.050021541  0.049255712            7 
 4169000   0.58710301   -3.5225328    2509.3003  0.050157918  0.049243907           14 
 4170000   0.57685986   -3.5329018    2500.8822  0.049977663  0.049232077            5 
 4171000   0.58642887   -3.5383779    2498.1165  0.049910423  0.049220266           16 
 4172000   0.58105742   -3.5405115    2503.1761  0.049999522  0.049208436            5 
 4173000   0.58155877   -3.5219615    2504.1938  0.050007864  0.049196545           13 
 4174000   0.59633595   -3.5484173    2497.9974  0.049872172   0.04918472            6 
 4175000    0.5767823   -3.5399796    2494.0002  0.049780443  0.049172918            6 
 4176000    0.5839288   -3.5354425     2505.254  0.049993096  0.049161048            9 
 4177000   0.57691713   -3.5137069    2501.0806  0.049897865  0.049149187            6 
 4178000   0.57845229   -3.5371598    2501.5118  0.049894522  0.049137315           10 
 4179000   0.57857323   -3.5303485    2491.2595  0.049678142  0.049125425            6 
 4180000   0.57201668   -3.5383514    2491.0013   0.04966111  0.049113511            6 
 4181000   0.58768168   -3.5534944    2494.1634  0.049712258  0.049101595            6 
 4182000   0.57654072   -3.5273318    2505.9779  0.049935795  0.049089708            6 
 4183000   0.57949973   -3.5434867    2492.8111  0.049661548   0.04907778           12 
 4184000   0.58273735   -3.5111962    2502.0695  0.049834081  0.049065928           20 
 4185000   0.57679178   -3.5340671    2493.6525  0.049654569  0.049054021           33 
 4186000   0.58580548   -3.5171734    2499.3452  0.049756036  0.049042131            7 
 4187000   0.57613581   -3.5433872    2502.0653   0.04979829  0.049030222            8 
 4188000   0.57819664   -3.5527762     2502.765  0.049800323  0.049018343            9 
 4189000   0.56962554   -3.5321569     2498.102  0.049695672  0.049006468            7 
 4190000    0.5809805   -3.5434829    2496.0155  0.049642314  0.048994596           14 
 4191000   0.59878945   -3.5327124    2495.4567  0.049619358   0.04898277           14 
 4192000   0.58207378   -3.5279392    2500.7515  0.049712777   0.04897092            8 
 4193000   0.58851159   -3.5445139    2504.1007  0.049767483  0.048959063           10 
 4194000   0.58137488   -3.5638498    2498.7615  0.049649529  0.048947154            6 
 4195000   0.58138599   -3.5286007    2499.8422  0.049659163  0.048935276           10 
 4196000   0.59839639   -3.5238533    2501.4943  0.049680137  0.048923476            4 
 4197000   0.58356968    -3.545474    2499.0213  0.049619198  0.048911653            7 
 4198000   0.58130374   -3.5208708    2502.2325  0.049671123  0.048899836           10 
 4199000   0.57506144   -3.5283327    2499.1133   0.04959739  0.048887981            7 
 4200000    0.5794061   -3.5621943    2504.8344  0.049699094   0.04887615            7 
 4201000   0.57954815   -3.5408676    2502.6005  0.049642951  0.048864284           10 
 4202000   0.57297332   -3.5247171     2502.118  0.049621569  0.048852484            9 
 4203000   0.57335877   -3.5210227    2501.7806  0.049603072  0.048840699           15 
 4204000   0.57781632   -3.5255603     2502.267  0.049600916  0.048828924            5 
 4205000   0.57717232   -3.5219987    2512.9889  0.049801603  0.048817177           12 
 4206000   0.56637234   -3.5502773    2498.5831  0.049504341  0.048805368           14 
 4207000   0.57426323   -3.5491881     2501.515  0.049550649  0.048793584            6 
 4208000   0.57162302   -3.5438964    2501.6981  0.049542501  0.048781748            8 
 4209000   0.58756624   -3.5582671     2498.578  0.049468956  0.048769924            9 
 4210000   0.58221515   -3.5560167    2495.9513  0.049405211  0.048758059            8 
 4211000   0.59009762   -3.5378477    2502.9802  0.049532578  0.048746261           13 
 4212000   0.57630292   -3.5504003    2502.5452  0.049512212  0.048734439           17 
 4213000   0.58169635   -3.5533592    2495.9638  0.049370278  0.048722582           12 
 4214000   0.58369331   -3.5333664    2503.0853  0.049499394  0.048710737            8 
 4215000   0.56244244   -3.5586662    2492.3323  0.049275055  0.048698931            7 
 4216000   0.58323525   -3.5478054    2501.5216  0.049445003  0.048687106           30 
 4217000   0.59045255   -3.5497492    2499.1948  0.049387298  0.048675311            7 
 4218000   0.57258728   -3.5474119    2503.1194  0.049453125  0.048663488            7 
 4219000   0.56603219   -3.5441199    2502.6019  0.049431182  0.048651711           10 
 4220000   0.57592335   -3.5424056    2508.7062  0.049540013  0.048639959           10 
 4221000   0.57345079   -3.5353286    2501.0574  0.049377268  0.048628179            6 
 4222000     0.578393   -3.5488724    2496.3256  0.049272178   0.04861641           12 
 4223000   0.57762484   -3.5301017    2506.8967  0.049469111  0.048604608           16 
 4224000   0.57519652   -3.5301253     2503.843  0.049397154  0.048592853           10 
 4225000   0.57638502   -3.5623217    2500.8504  0.049326438  0.048581106           10 
 4226000   0.57834381   -3.5425504    2502.9615  0.049356395  0.048569305           11 
 4227000   0.56154331   -3.5542217    2498.3934   0.04925466  0.048557524           10 
 4228000    0.5869856    -3.541092    2500.0743  0.049276142  0.048545703           17 
 4229000   0.57662452   -3.5607639    2501.8769  0.049300011  0.048533936           15 
 4230000   0.57438241   -3.5393902    2499.7797  0.049247039   0.04852214            8 
 4231000   0.57488764   -3.5503909    2501.3211  0.049265758  0.048510367           15 
 4232000   0.58169278   -3.5473649    2504.4518  0.049315765  0.048498536            5 
 4233000   0.56551744    -3.543375    2497.4693  0.049166653  0.048486738           12 
 4234000   0.57227447   -3.5633529    2500.9747  0.049224033  0.048474908           10 
 4235000   0.57201745   -3.5616935    2496.6859  0.049128019  0.048463054           11 
 4236000   0.57865432   -3.5420654    2506.6869  0.049313167  0.048451196           21 
 4237000   0.57639465   -3.5309031    2510.4064  0.049374684  0.048439426           18 
 4238000   0.56513367   -3.5545707    2500.9774  0.049177627  0.048427648            9 
 4239000   0.56805384   -3.5602864    2503.6181  0.049217939  0.048415827           12 
 4240000   0.57091548    -3.530917    2507.6848  0.049286258  0.048404117            6 
 4241000   0.57658676   -3.5329787    2503.7502  0.049197324  0.048392418           11 
 4242000   0.56473262   -3.5354509    2504.8619  0.049207565  0.048380669           14 
 4243000   0.56801866    -3.555062    2503.4341  0.049167926  0.048368852           11 
 4244000   0.57827138   -3.5581042    2502.9945  0.049147708  0.048357063            8 
 4245000    0.5738438   -3.5651465    2505.2972  0.049181336  0.048345274           12 
 4246000   0.56432924    -3.531825    2507.9892  0.049222585  0.048333549            6 
 4247000   0.57459607   -3.5496252    2505.6592  0.049165277  0.048321819           12 
 4248000   0.57842727   -3.5520965    2504.0464  0.049122066   0.04831007            6 
 4249000   0.57017137   -3.5449137    2511.2087  0.049250975  0.048298351            8 
 4250000   0.56926239   -3.5454881    2504.0846  0.049099697  0.048286604           35 
 4251000   0.59024175   -3.5407881    2497.7356  0.048963688  0.048274874           15 
 4252000   0.56984222   -3.5457891    2501.0495  0.049017119  0.048263097           14 
 4253000   0.56758572   -3.5570489    2505.9757  0.049102117  0.048251328            9 
 4254000   0.56723966   -3.5511857    2503.0074  0.049032429  0.048239565           11 
 4255000   0.57473638   -3.5670018    2506.2937  0.049085266  0.048227833           15 
 4256000   0.56144644   -3.5548914    2505.6428  0.049060989  0.048216117            6 
 4257000   0.56726528     -3.56118    2506.7335  0.049070814  0.048204388           12 
 4258000   0.56357472   -3.5598956     2498.136  0.048891028  0.048192706            5 
 4259000    0.5758986   -3.5449446    2506.3198  0.049039677  0.048180974            6 
 4260000   0.57433717   -3.5371357    2500.5213  0.048914735  0.048169222            7 
 4261000   0.57542133   -3.5488529    2503.4631  0.048960789  0.048157564           10 
 4262000   0.56978278   -3.5392781    2504.3602  0.048966843  0.048145877           16 
 4263000   0.58021341   -3.5635715    2503.3299  0.048935216  0.048134133           16 
 4264000   0.56517414   -3.5582497    2501.9853  0.048897462  0.048122397           12 
 4265000   0.56294799   -3.5583489    2507.9287  0.049002124  0.048110703           11 
 4266000   0.56014819   -3.5591666    2509.2269  0.049015996  0.048098985           15 
 4267000   0.57244613   -3.5556573    2504.2939   0.04890817   0.04808726            8 
 4268000   0.55455057   -3.5497368    2500.8779  0.048830012  0.048075503            8 
 4269000   0.56565933   -3.5462103    2508.3556  0.048964544   0.04806385           10 
 4270000   0.56728178   -3.5542011    2508.1861  0.048949767  0.048052163            6 
 4271000   0.57458394   -3.5492654    2507.7904  0.048930585  0.048040507            4 
 4272000   0.57100296   -3.5684539    2506.2069  0.048888243  0.048028875            7 
 4273000   0.57328942   -3.5540647    2505.3246  0.048859594  0.048017202            7 
 4274000   0.56754306   -3.5567554    2509.3176  0.048926018  0.048005543           11 
 4275000   0.55965709   -3.5430368     2499.882  0.048730644  0.047993904           15 
 4276000   0.57030949   -3.5457125    2513.1891  0.048978584  0.047982259            9 
 4277000   0.56483889   -3.5739193    2508.9126  0.048883809  0.047970655            7 
 4278000    0.5698663   -3.5421455    2505.1866  0.048799801  0.047959017            5 
 4279000   0.56344647   -3.5610204    2504.3502  0.048772108  0.047947374            9 
 4280000   0.56342572   -3.5563152     2503.339  0.048741025   0.04793569            6 
 4281000   0.56620865   -3.5672525    2511.9432  0.048897127  0.047924021           15 
 4282000   0.56156243   -3.5709756    2505.2674  0.048755787  0.047912369           11 
 4283000    0.5739414   -3.5481533    2505.1353  0.048741833   0.04790073            8 
 4284000   0.56118865   -3.5464257    2503.8754  0.048705948  0.047889095           10 
 4285000    0.5676594   -3.5627882    2502.3733   0.04866537  0.047877536            7 
 4286000   0.54206836   -3.6019108    2504.8064  0.048701323  0.047865858            8 
 4287000   0.54519118   -3.5854964     2503.637   0.04866723  0.047854214            7 
 4288000   0.56816166   -3.5590812    2512.4454  0.048827064  0.047842586            6 
 4289000   0.56298109   -3.5669412    2509.0506   0.04874972  0.047830976            8 
 4290000    0.5590803   -3.5571109    2508.2978  0.048723733  0.047819384           11 
 4291000   0.56736292   -3.5497536    2504.4791  0.048638218  0.047807827           17 
 4292000   0.56187813    -3.557386    2512.6374  0.048785286  0.047796224            8 
 4293000   0.56879802   -3.5575061    2511.1776  0.048745586   0.04778461            7 
 4294000   0.55976438   -3.5548653    2505.6436  0.048626837  0.047772937            9 
 4295000   0.54664683    -3.557294    2507.2329  0.048646351  0.047761265           11 
 4296000   0.56707184    -3.565461    2504.0836  0.048573937  0.047749639           20 
 4297000   0.56357806   -3.5725073    2502.0304  0.048522815  0.047737998           11 
 4298000   0.55551287   -3.5508843    2510.1293  0.048668554  0.047726337            9 
 4299000   0.57321017   -3.5517562    2506.7198  0.048591142  0.047714682           10 
 4300000   0.57360655   -3.5669317    2508.4406   0.04861319  0.047703082            4 
 4301000   0.56685508   -3.5722298    2508.1156  0.048595591  0.047691458            8 
 4302000   0.54795336    -3.571515    2505.8963  0.048541304  0.047679829            7 
 4303000   0.58016704   -3.5825492    2509.7859  0.048605352   0.04766816            5 
 4304000   0.56611993   -3.5671382    2508.2648  0.048564606  0.047656494           13 
 4305000   0.55217313   -3.5814805    2500.4902  0.048402831  0.047644815           14 
 4306000   0.56874843   -3.5856878    2508.4566  0.048545761  0.047633135           17 
 4307000   0.57267193   -3.5841051    2501.9895  0.048409362  0.047621431            9 
 4308000   0.55497131   -3.5639819    2499.7869  0.048355519  0.047609721           12 
 4309000   0.56227401   -3.5833508    2510.0338  0.048542465  0.047598025            9 
 4310000   0.55977355   -3.5778156    2497.0568  0.048280294  0.047586318           20 
 4311000   0.56971692   -3.5723705    2507.2975  0.048467051   0.04757458            9 
 4312000    0.5545457   -3.5869903     2505.633  0.048423643  0.047562885            8 
 4313000   0.55861594   -3.5810291    2500.7818  0.048318685  0.047551188            7 
 4314000   0.56034923   -3.5752253     2507.928  0.048445526  0.047539524            5 
 4315000   0.56497432   -3.5516518    2504.7665  0.048373243  0.047527898           10 
 4316000   0.55152463   -3.5484995    2507.3854    0.0484126  0.047516282            3 
 4317000    0.5686831   -3.5617127    2497.5684  0.048211882  0.047504628            9 
 4318000   0.55014636   -3.5549628    2505.6066  0.048355848  0.047492936            8 
 4319000   0.56534961   -3.5793973    2504.9714  0.048332396  0.047481284           11 
 4320000   0.55187049   -3.5728033    2502.3314  0.048270282  0.047469591           10 
 4321000   0.55879754   -3.5699756    2503.4937  0.048281526  0.047457941            6 
 4322000   0.56178611    -3.561916    2511.5608  0.048425899  0.047446341            4 
 4323000    0.5626472   -3.5746419    2507.4828  0.048336085  0.047434759            8 
 4324000   0.56547175   -3.5762306      2505.07  0.048278408  0.047423176            7 
 4325000   0.55154833   -3.5706898    2508.0328  0.048324332  0.047411521           18 
 4326000   0.55889701   -3.5636078    2508.7324  0.048326637  0.047399883            8 
 4327000   0.57034464   -3.5771148     2499.073   0.04812944  0.047388226           11 
 4328000    0.5548077   -3.5741909    2505.9562  0.048250851  0.047376599           11 
 4329000   0.54801797   -3.5868712    2512.9035   0.04837344  0.047364926            8 
 4330000   0.55795903   -3.5570438    2507.2365  0.048253205  0.047353324           10 
 4331000   0.56223969   -3.5760274    2509.4115  0.048283912  0.047341799           15 
 4332000   0.55895811   -3.5766089    2505.1894  0.048191548   0.04733022           10 
 4333000    0.5566633   -3.5786394    2510.7713  0.048287778  0.047318581            9 
 4334000   0.56583896   -3.5694733    2508.6758  0.048236345  0.047307083           12 
 4335000    0.5597231   -3.5946673    2498.2253  0.048024324  0.047295468            6 
 4336000   0.55157715   -3.5922373    2507.4612  0.048190752  0.047283845            7 
 4337000   0.56513969   -3.5734164    2508.6423  0.048202334  0.047272269           11 
 4338000   0.56538012   -3.5934664    2510.1764  0.048220694  0.047260709           22 
 4339000   0.55482574   -3.5783967    2505.0924  0.048111939  0.047249141           16 
 4340000    0.5716912   -3.5693169    2506.7805  0.048133266  0.047237583            7 
 4341000   0.56811185   -3.5540267    2511.1764  0.048206566  0.047226043            5 
 4342000   0.54053576   -3.5672264    2513.2724   0.04823569  0.047214542            7 
 4343000    0.5516069   -3.5801038    2514.5952  0.048249966  0.047203004           16 
 4344000   0.54782633   -3.5765723    2511.4057  0.048177673  0.047191476            7 
 4345000   0.56457756   -3.5700918    2508.9143  0.048118801  0.047179938            9 
 4346000   0.55120175   -3.5815333    2501.9622  0.047974426  0.047168441           12 
 4347000   0.55508766   -3.5947735    2499.7601  0.047921174  0.047156899           12 
 4348000   0.56228148    -3.590469     2510.382   0.04811373  0.047145335            7 
 4349000   0.55497002   -3.5984774    2511.0983  0.048116393   0.04713383            6 
 4350000   0.53953868   -3.5901859    2509.9073  0.048082515  0.047122346            9 
 4351000   0.57022293   -3.5764261    2511.7525  0.048106806   0.04711085            7 
 4352000    0.5466306   -3.5777202    2516.4271  0.048185262  0.047099409           11 
 4353000   0.54805334   -3.5812591    2507.1771  0.047997112  0.047087966           14 
 4354000   0.54476978   -3.5838808    2509.6734  0.048033866  0.047076503            6 
 4355000   0.55460435   -3.5768074    2505.7863  0.047948457  0.047065025            8 
 4356000   0.55693334   -3.6006633    2505.8151  0.047937998    0.0470535            9 
 4357000   0.56097834   -3.5616831    2506.5282  0.047940637  0.047041994           19 
 4358000   0.55586742   -3.5978743    2504.5189  0.047891214  0.047030496           11 
 4359000   0.56230654   -3.5728512    2510.6233  0.047996928  0.047018984            9 
 4360000   0.55441748   -3.5735518    2510.3937  0.047981532  0.047007491           25 
 4361000   0.54891393   -3.5862207    2517.8122  0.048112288  0.046996016           45 
 4362000   0.55996375   -3.5714129    2513.7998  0.048024603  0.046984519           10 
 4363000   0.54753765   -3.5675497    2514.5282  0.048027509  0.046973043            7 
 4364000   0.54690632   -3.5800751    2506.1018  0.047855596  0.046961607           19 
 4365000   0.54424897   -3.5913929    2504.6874  0.047817629  0.046950153           18 
 4366000   0.55370578   -3.5996386    2502.4726  0.047764403   0.04693865           15 
 4367000     0.555331   -3.5872361    2507.1791  0.047843277  0.046927162           15 
 4368000   0.56129625   -3.5786392     2512.902  0.047941506  0.046915732           34 
 4369000   0.54988225   -3.5659619     2509.852  0.047872359  0.046904346           16 
 4370000   0.54312849   -3.5930392    2508.0239  0.047826542  0.046892857            7 
 4371000   0.54972249   -3.5920728    2512.0539  0.047892432  0.046881402           12 
 4372000   0.54700024   -3.5838695    2509.3925  0.047830751  0.046869927           10 
 4373000   0.56271665   -3.5898603    2515.7375  0.047940726  0.046858505            4 
 4374000   0.54593876   -3.6006393    2514.4228  0.047904717  0.046847054           12 
 4375000   0.54782693   -3.5990535    2514.3633  0.047892635  0.046835577           21 
 4376000   0.55935429   -3.5867949     2512.226  0.047840989  0.046824148           32 
 4377000   0.55509742   -3.5786659     2512.754  0.047840111  0.046812701            7 
 4378000   0.55104706   -3.5810389    2505.9935  0.047700501  0.046801298            8 
 4379000   0.55631523   -3.5901116    2515.0536  0.047862023  0.046789924           13 
 4380000    0.5478918   -3.5938069     2512.456  0.047801674  0.046778505           10 
 4381000   0.55549777   -3.5950936      2506.77  0.047682607   0.04676707            8 
 4382000   0.54969887   -3.5769792    2511.5385  0.047762409   0.04675566            7 
 4383000   0.56279263   -3.5883738    2512.8066  0.047775621   0.04674424           11 
 4384000   0.54655896   -3.5834382    2510.7584   0.04772579  0.046732829            8 
 4385000   0.54306247   -3.5819055    2513.3023  0.047763252  0.046721446           12 
 4386000     0.556531   -3.5764588    2510.4169  0.047697539  0.046710072           10 
 4387000   0.54916754   -3.6022151    2516.9131  0.047810066   0.04669871           10 
 4388000   0.53356336    -3.605011    2514.4461  0.047752318   0.04668734            7 
 4389000   0.55063182   -3.5915391    2517.3659  0.047796876   0.04667595            5 
 4390000   0.54476098   -3.5811869    2514.1617  0.047725166  0.046664627            8 
 4391000   0.54748674   -3.5880986    2524.0489  0.047901937  0.046653342            6 
 4392000   0.55976907   -3.5800811    2519.1341  0.047797778  0.046642031           11 
 4393000   0.54811507   -3.5724155    2513.8803  0.047687236  0.046630758            5 
 4394000   0.54759789    -3.578755     2509.364   0.04759073  0.046619486           11 
 4395000   0.55206914   -3.5918051    2513.9185  0.047666259  0.046608124           12 
 4396000   0.54785729   -3.5780121    2510.7788  0.047595897  0.046596748            9 
 4397000   0.55585141    -3.593533    2506.7951  0.047509572  0.046585349            5 
 4398000   0.55786254   -3.5895467    2511.7069  0.047591839  0.046574009           15 
 4399000   0.55357402   -3.5721509    2519.5977  0.047730501  0.046562651            4 
 4400000   0.54859568   -3.5945849    2515.2851  0.047637975  0.046551286            5 
 4401000    0.5433945   -3.5940361    2512.8267    0.0475806  0.046539972            6 
 4402000   0.54799233   -3.5991835    2515.6531  0.047623298  0.046528585           11 
 4403000   0.54305215   -3.5836941      2514.39  0.047588576  0.046517222           17 
 4404000   0.54488763   -3.6045441    2518.4714     0.047655  0.046505849            7 
 4405000   0.55079318   -3.6042702    2513.2354  0.047545127  0.046494481            9 
 4406000   0.56317179    -3.604288    2509.3162   0.04746021  0.046483116           12 
 4407000   0.55157592   -3.5914364    2512.2038  0.047504043  0.046471744           11 
 4408000   0.55606278   -3.6070166    2518.5919  0.047614033  0.046460366           14 
 4409000   0.55030824   -3.6077354    2520.8819  0.047646516  0.046448988           15 
 4410000   0.54909576   -3.6110549     2509.152  0.047414059  0.046437616           11 
 4411000   0.54396778   -3.6124344    2511.7438  0.047452274  0.046426234           26 
 4412000   0.54067479   -3.6031164    2516.0598   0.04752304    0.0464148           12 
 4413000   0.53140842   -3.5985628     2512.184  0.047439081  0.046403451            9 
 4414000   0.54450358   -3.6114088    2513.2876   0.04744917  0.046392048           11 
 4415000    0.5428002    -3.609119    2511.5474  0.047405576  0.046380672           12 
 4416000   0.54916398   -3.6048715     2513.386  0.047429536  0.046369307           12 
 4417000     0.529291   -3.5919015    2507.4807  0.047307386  0.046357878            7 
 4418000   0.54669336   -3.5967754     2515.756  0.047452768  0.046346519            8 
 4419000   0.54375112   -3.5966833    2509.2679  0.047319678  0.046335196           13 
 4420000   0.54958412   -3.5944124    2514.2117  0.047402181  0.046323864            5 
 4421000   0.54608612   -3.6127335    2509.4803  0.047302276   0.04631247            8 
 4422000   0.54179259   -3.5985689    2520.0198  0.047490197  0.046301166           22 
 4423000    0.5331643   -3.6009448    2512.7167  0.047341863  0.046289791           18 
 4424000   0.55269237   -3.5980147    2509.2378  0.047265631  0.046278464           14 
 4425000   0.54658895   -3.6133625    2519.1566  0.047441744  0.046267138            8 
 4426000    0.5450076   -3.5935178    2519.9988  0.047446883  0.046255841            9 
 4427000   0.53476847   -3.5961087    2511.6431  0.047278877  0.046244518            8 
 4428000   0.54453034   -3.6135029    2518.9701  0.047406092  0.046233217            9 
 4429000   0.54077166   -3.6064408    2513.5487  0.047293382  0.046221912           11 
 4430000    0.5455162     -3.60042    2509.6837  0.047210003   0.04621062           14 
 4431000   0.54076738   -3.5964871    2515.8397  0.047315122  0.046199327            9 
 4432000   0.54440338   -3.6097394    2510.3536  0.047201293  0.046188042            7 
 4433000   0.54265076   -3.5933767    2513.7565  0.047254615  0.046176721            5 
 4434000   0.55543094   -3.6104099    2512.6973  0.047224051  0.046165436            7 
 4435000   0.54448296   -3.5821877    2512.4125  0.047208051  0.046154175           11 
 4436000   0.54000992   -3.6097427    2516.5273  0.047274708  0.046142904            9 
 4437000   0.53468686   -3.6019265    2514.2014   0.04722037  0.046131581           11 
 4438000   0.53777966   -3.5877318    2513.1028  0.047189101   0.04612032            9 
 4439000   0.54291285   -3.5997263     2516.726   0.04724649  0.046109052           14 
 4440000   0.53527082    -3.632584    2514.0065  0.047184808  0.046097698           16 
 4441000     0.531036   -3.6070445    2512.6012  0.047147811  0.046086366            9 
 4442000   0.54845539   -3.6018088    2514.1061   0.04716543  0.046075032            8 
 4443000   0.53642006   -3.6086224    2511.6518  0.047108781  0.046063696            7 
 4444000    0.5519729   -3.6232231    2517.4471  0.047206853  0.046052418            9 
 4445000   0.55202522    -3.592978    2512.7534  0.047108237  0.046041122           15 
 4446000   0.53952135   -3.6009336    2518.2645  0.047200938  0.046029876           31 
 4447000   0.53024083   -3.6128262     2512.792  0.047087774  0.046018605           19 
 4448000   0.54124501   -3.6296042    2516.2736  0.047142417  0.046007273           13 
 4449000   0.53994798   -3.6232115    2516.6967  0.047139745   0.04599599           12 
 4450000   0.55038092    -3.610157    2518.0428  0.047154359  0.045984713           11 
 4451000   0.53717447   -3.6046245    2518.8922  0.047159669  0.045973426           14 
 4452000   0.53886467   -3.6303065    2512.4991  0.047029409  0.045962158           28 
 4453000   0.53158849    -3.610038    2510.6225  0.046983728  0.045950909           22 
 4454000   0.53492911   -3.6301195    2509.1337  0.046945324  0.045939634           11 
 4455000   0.54614199   -3.6048116    2507.5884  0.046905881  0.045928401           11 
 4456000   0.53391041   -3.6044602    2511.6731  0.046971745  0.045917135           10 
 4457000   0.53848628   -3.6079509    2518.0979  0.047081331  0.045905881            6 
 4458000   0.55001067   -3.6172271    2518.6967  0.047081963  0.045894647           25 
 4459000   0.53683293   -3.6092135    2511.9712  0.046945712  0.045883403           10 
 4460000   0.54043459   -3.6112574    2511.9132  0.046934102  0.045872164            7 
 4461000   0.54952644   -3.6195214    2508.5645  0.046861027  0.045860908           19 
 4462000   0.53490124   -3.6194527    2513.0408  0.046934126  0.045849704           37 
 4463000   0.54357719   -3.5961157    2521.4288   0.04708023  0.045838498            4 
 4464000   0.54793589   -3.6077297    2515.4578  0.046958217  0.045827346            8 
 4465000   0.53515442   -3.6195152    2512.6985  0.046896201  0.045816126           19 
 4466000   0.54711573   -3.6301195    2522.4261  0.047067213  0.045804917           14 
 4467000   0.53431875   -3.6095327    2515.9731  0.046936295  0.045793732           10 
 4468000   0.54317186   -3.6075301    2506.1103  0.046741837  0.045782552           14 
 4469000   0.53099722   -3.6117488    2517.8519  0.046950323  0.045771286           12 
 4470000   0.55080399   -3.6266092    2516.7579  0.046919424  0.045760115            5 
 4471000   0.53578289   -3.6136488    2512.5295  0.046830118  0.045748956           14 
 4472000   0.54012475   -3.6158423    2520.4942  0.046968064  0.045737773           26 
 4473000   0.53896467   -3.6006941    2515.7565  0.046869298  0.045726592           10 
 4474000   0.52274133   -3.6221126    2516.2379  0.046867789  0.045715387            6 
 4475000   0.53648086   -3.6248742    2513.8542  0.046812927  0.045704184           21 
 4476000   0.53765905   -3.6235939    2519.5838  0.046909142  0.045693017           15 
 4477000   0.52850587   -3.5980241    2518.9147  0.046886209    0.0456819            7 
 4478000   0.53324725   -3.6020837     2511.104  0.046730386  0.045670764            7 
 4479000   0.53366481   -3.6271365    2518.8913  0.046864837  0.045659587           11 
 4480000   0.54097198   -3.6227857    2523.7744  0.046945209  0.045648451            8 
 4481000     0.527982   -3.5939472    2519.9912  0.046864376  0.045637271           12 
 4482000   0.52789063   -3.6151454    2520.7392  0.046867826  0.045626153           11 
 4483000   0.53958745   -3.6272039    2518.0949  0.046808218  0.045614978           11 
 4484000   0.54857145   -3.6164834     2514.521  0.046731359  0.045603757            9 
 4485000   0.53573212   -3.5990034    2515.9114  0.046746775  0.045592602            9 
 4486000   0.53279097   -3.6174826    2514.0857   0.04670244  0.045581493           15 
 4487000   0.53225367   -3.6126218    2520.7511  0.046815822  0.045570358           10 
 4488000   0.53733936   -3.6366272    2521.8645  0.046826064  0.045559231           11 
 4489000    0.5241286   -3.6315051    2513.7583   0.04666515  0.045548061            6 
 4490000   0.53483122   -3.6164502     2520.001  0.046770621  0.045536848           11 
 4491000   0.54162951   -3.6416945     2521.888  0.046795221  0.045525708            8 
 4492000   0.52226568   -3.6017892     2511.754  0.046596801  0.045514534           14 
 4493000   0.53741057   -3.6400337    2511.6817   0.04658509  0.045503401            7 
 4494000   0.53694076   -3.6279581     2514.863  0.046633716  0.045492213            5 
 4495000   0.51819144   -3.6199125     2524.124  0.046795032  0.045481091            9 
 4496000   0.52563658   -3.6221129      2512.12  0.046562129  0.045469946           12 
 4497000   0.53033552   -3.6168719    2521.5822  0.046727118  0.045458846            7 
 4498000   0.53243885   -3.6343926     2516.547  0.046623443   0.04544775           15 
 4499000   0.53032547   -3.6246508    2512.7973  0.046543627  0.045436601           12 
 4500000   0.53903244   -3.6010938    2520.0568  0.046667719  0.045425482            5 
 4501000   0.53242242   -3.6268213    2519.9018   0.04665448  0.045414383           12 
 4502000   0.53269006   -3.6092488    2517.2377  0.046594805  0.045403248            6 
 4503000   0.53300421   -3.6143466    2516.1503  0.046564334  0.045392138            8 
 4504000   0.53993116   -3.6250863    2521.2353  0.046648077  0.045381055           19 
 4505000   0.54478227   -3.6144073    2522.1184  0.046654058  0.045369959           14 
 4506000   0.52582603   -3.6109513    2518.0928  0.046569256  0.045358869           19 
 4507000   0.52693529   -3.6090553    2516.2018  0.046523959  0.045347768           12 
 4508000   0.51615149   -3.6043992    2524.9674  0.046675677  0.045336659           13 
 4509000   0.54003262   -3.6070118    2522.0786  0.046611936  0.045325617            7 
 4510000   0.52580563   -3.6107318     2528.472  0.046719734  0.045314627           12 
 4511000   0.52513247   -3.6339635    2522.2292  0.046594052  0.045303611           19 
 4512000   0.52663043   -3.6454176     2514.291  0.046437113  0.045292506            7 
 4513000   0.53460955    -3.623551    2515.8171  0.046455001   0.04528138           16 
 4514000   0.53244651   -3.6363336    2510.3383  0.046343566  0.045270217           12 
 4515000   0.52890546   -3.6398495    2517.9187  0.046473213  0.045259064           24 
 4516000   0.51990249   -3.6319621    2517.1256  0.046448287  0.045247951           14 
 4517000   0.51783832   -3.6528156    2520.1964  0.046494656  0.045236804            7 
 4518000    0.5411648    -3.615586    2517.4592  0.046433878  0.045225685            9 
 4519000   0.52407301   -3.6357162    2515.2132  0.046382186  0.045214582           15 
 4520000   0.52990528   -3.6247032    2514.1053  0.046351499  0.045203512           13 
 4521000   0.53530357   -3.6425359    2514.7397  0.046352939  0.045192413           24 
 4522000   0.53202904   -3.6138622    2519.1003  0.046423049  0.045181329           19 
 4523000    0.5215722   -3.6485981    2519.2235  0.046415054  0.045170228           15 
 4524000   0.52318128   -3.6244455    2519.1855  0.046404095  0.045159184            9 
 4525000   0.51998792   -3.6236936     2515.899  0.046333315  0.045148124           11 
 4526000   0.52047662   -3.6297889    2516.6279  0.046336499  0.045137087           26 
 4527000   0.53135573    -3.633195    2520.6347   0.04640002   0.04512606           10 
 4528000   0.52718775   -3.6276499    2521.3451  0.046402847  0.045114995            4 
 4529000   0.52633891   -3.6319292    2521.6586  0.046398371  0.045103928           13 
 4530000   0.52345602   -3.6261986    2520.7255  0.046370962  0.045092877           11 
 4531000   0.52629375   -3.6288007    2524.1455  0.046423628  0.045081809           12 
 4532000   0.51505022   -3.6357373    2514.1634  0.046229837  0.045070702           21 
 4533000   0.52494749   -3.6187933    2527.3689  0.046462404  0.045059602            4 
 4534000   0.51858727   -3.6237978    2518.6973  0.046292774  0.045048562           10 
 4535000   0.52812969   -3.6232259    2517.9799  0.046269385   0.04503754            9 
 4536000   0.52011334   -3.6189893    2528.7728  0.046457467  0.045026531           15 
 4537000   0.52714744   -3.6404085    2519.3798  0.046274701  0.045015489            8 
 4538000   0.53241785   -3.6311424    2518.5766  0.046249754  0.045004448            7 
 4539000   0.51870266   -3.6300624    2520.3672  0.046272438  0.044993406            6 
 4540000   0.50953237   -3.6316172    2516.5582  0.046192332  0.044982332            9 
 4541000   0.52901809   -3.6432018    2522.4111  0.046289567  0.044971261           17 
 4542000   0.53464105   -3.6442666    2522.5352  0.046281653  0.044960185            9 
 4543000   0.51615559   -3.6497859    2516.8541  0.046167256  0.044949123           15 
 4544000   0.51473126   -3.6301611    2517.6093  0.046170945   0.04493808           15 
 4545000   0.52530566   -3.6361924    2516.9244  0.046148229  0.044927006           19 
 4546000   0.52716425   -3.6442479    2515.8331  0.046118072  0.044915932           13 
 4547000    0.5160874   -3.6463315    2518.2793  0.046152761  0.044904825           22 
 4548000   0.52287925   -3.6601974    2514.2796  0.046069328  0.044893762           13 
 4549000   0.51221551    -3.646584    2521.0072  0.046182442  0.044882667           15 
 4550000    0.5402571   -3.6198265    2521.4808  0.046180968  0.044871603           22 
 4551000   0.52513786   -3.6241103    2516.6912  0.046083116    0.0448606            8 
 4552000   0.52938549   -3.6332666    2519.3175  0.046121074  0.044849583           40 
 4553000   0.51453039   -3.6192677     2516.498  0.046059339  0.044838573           12 
 4554000   0.52647077   -3.6356301     2518.005    0.0460768  0.044827563           11 
 4555000   0.51724998   -3.6424447    2518.1648  0.046069608  0.044816552           18 
 4556000   0.53457315   -3.6425071    2520.7016  0.046105896  0.044805532            9 
 4557000   0.53414045   -3.6346652     2517.935  0.046045187  0.044794593           17 
 4558000   0.53215093   -3.6417562    2520.4138  0.046080405  0.044783668           12 
 4559000   0.52187591   -3.6188835    2523.3535   0.04612403  0.044772721            6 
 4560000   0.52569287    -3.622223    2521.1233  0.046073159   0.04476178            9 
 4561000   0.50495566   -3.6145132    2523.7047  0.046110223   0.04475082           18 
 4562000     0.529526   -3.6403223    2524.0181   0.04610584  0.044739837           28 
 4563000   0.53139471   -3.6355629    2522.5107  0.046068206  0.044728862           21 
 4564000    0.5276685     -3.63157    2522.6637  0.046060906  0.044717867           12 
 4565000   0.52802947   -3.6473185    2521.0353   0.04602109  0.044706828            9 
 4566000   0.53102026   -3.6437699    2520.0863  0.045993691  0.044695794           11 
 4567000    0.5315173   -3.6433088    2518.1863  0.045948951  0.044684798           12 
 4568000   0.51478388   -3.6496043    2517.2384  0.045921599  0.044673794           15 
 4569000   0.52087955   -3.6607269    2520.5045  0.045971119  0.044662787           10 
 4570000   0.51862966   -3.6465351    2522.6164  0.045999569  0.044651827            8 
 4571000   0.52994951   -3.6243698    2521.1058  0.045961967  0.044640849            9 
 4572000   0.52103013   -3.6413659    2516.4004  0.045866149  0.044629913           45 
 4573000   0.52614278   -3.6348861    2519.3124  0.045909185  0.044618925           36 
 4574000    0.5204098   -3.6141177    2517.0935  0.045858722  0.044607969           18 
 4575000   0.52478199   -3.6312531    2519.1304  0.045885799  0.044596968            7 
 4576000   0.53594203   -3.6393954    2516.4789  0.045827487  0.044586004           45 
 4577000   0.51895103   -3.6624531    2517.6724  0.045839204  0.044575076           14 
 4578000   0.52325978   -3.6405723    2519.3725  0.045860138  0.044564114           11 
 4579000   0.52519441   -3.6744565    2516.6441  0.045800468  0.044553171           27 
 4580000   0.51628438   -3.6567783    2521.2788  0.045874796  0.044542188           11 
 4581000   0.51373918   -3.6394975    2519.0992  0.045825133  0.044531215           21 
 4582000   0.51009697   -3.6401176     2519.575  0.045823785  0.044520257           13 
 4583000   0.52041607   -3.6509543    2519.4952  0.045812335  0.044509282           23 
 4584000   0.51740689   -3.6542325    2520.4682  0.045820029  0.044498343           16 
 4585000   0.51503869   -3.6440335    2517.9777  0.045764771  0.044487432           17 
 4586000   0.51424911   -3.6310582    2520.3697  0.045798257  0.044476492           15 
 4587000   0.51417441   -3.6653484    2521.6434  0.045811413  0.044465518           17 
 4588000   0.52196348   -3.6444154    2518.2307  0.045739442    0.0444545           17 
 4589000   0.52233054   -3.6628152    2517.5087  0.045716363  0.044443551            9 
 4590000   0.52008455    -3.656094    2517.0877   0.04569876  0.044432571            9 
 4591000   0.51526803   -3.6483827     2518.187  0.045708759  0.044421625            6 
 4592000   0.51517472   -3.6583445    2518.0585  0.045696475  0.044410656           35 
 4593000   0.51315254   -3.6540542     2519.387  0.045710629  0.044399703           10 
 4594000   0.52892511   -3.6745489    2524.1639   0.04578733  0.044388745            9 
 4595000   0.52660547   -3.6682782    2521.6825  0.045732363  0.044377829           14 
 4596000   0.51015465   -3.6535145    2521.9312  0.045726923  0.044366852            8 
 4597000   0.51156295    -3.658934    2513.4018  0.045562357  0.044355875           14 
 4598000   0.52503969   -3.6460022    2522.5015  0.045717369  0.044344933           17 
 4599000   0.50832466   -3.6523255    2518.8827  0.045641855  0.044333987           17 
 4600000   0.51466744   -3.6403488    2517.4606   0.04560617  0.044323106           22 
 4601000   0.51575343   -3.6553474    2516.8109   0.04558449  0.044312184           13 
 4602000   0.51668075   -3.6543163    2519.9745  0.045631871  0.044301248           12 
 4603000   0.51207654   -3.6555072    2518.6662  0.045598272  0.044290354           18 
 4604000   0.51294189   -3.6647412    2518.8286  0.045591308  0.044279418           12 
 4605000   0.50240477   -3.6677933    2516.8791  0.045546129  0.044268501           15 
 4606000   0.52254729   -3.6666095    2520.7464   0.04560621  0.044257594           14 
 4607000   0.50897824   -3.6490267    2514.6292   0.04548566  0.044246696            6 
 4608000   0.51794074   -3.6473391    2517.5267  0.045528188  0.044235764           14 
 4609000   0.51453363   -3.6577701    2519.6263  0.045556272  0.044224885           16 
 4610000   0.50482508   -3.6706197    2522.1108  0.045591301  0.044213976            8 
 4611000   0.51496786   -3.6412243    2525.9249  0.045650345  0.044203066           12 
 4612000   0.51679675   -3.6548238    2521.0722  0.045552765  0.044192173            9 
 4613000   0.51988303   -3.6732522    2523.1261  0.045579993  0.044181264           20 
 4614000   0.51499949   -3.6517183    2522.1588  0.045552644  0.044170319           14 
 4615000   0.52164078   -3.6469414    2520.8273  0.045518731  0.044159433           21 
 4616000   0.50791527    -3.654197    2519.0037  0.045475947  0.044148561           23 
 4617000   0.52584351   -3.6737932    2510.5689  0.045313857  0.044137689           18 
 4618000   0.52043242   -3.6569471    2523.1813  0.045531639  0.044126747           24 
 4619000    0.5109436    -3.649137    2517.7858  0.045424439  0.044115877           20 
 4620000   0.51668713   -3.6704302    2518.2898  0.045423699  0.044105033            8 
 4621000    0.5089749   -3.6713591    2514.3872   0.04534349  0.044094173           18 
 4622000   0.52164533   -3.6546956    2521.6237  0.045464152   0.04408332           14 
 4623000   0.51246572   -3.6539131     2523.356  0.045485543  0.044072465           12 
 4624000   0.51886302   -3.6765851    2514.2887  0.045312296   0.04406162            8 
 4625000   0.51877142   -3.6424944    2523.3467  0.045465706  0.044050774            8 
 4626000   0.50551456   -3.6635783    2524.9958  0.045485585  0.044039942           12 
 4627000   0.51331736   -3.6615028    2519.5231  0.045377191  0.044029104           15 
 4628000   0.50436917    -3.652489    2523.2266  0.045434072  0.044018288           13 
 4629000   0.51044116   -3.6472815    2525.7243  0.045469221  0.044007456           10 
 4630000   0.50313573   -3.6634707    2522.4976  0.045401325  0.043996608            8 
 4631000   0.50685787   -3.6740362    2516.5433  0.045284376  0.043985762           21 
 4632000   0.49866451   -3.6761843    2513.4786  0.045219463  0.043974859           12 
 4633000   0.50388862   -3.6615054    2521.2073  0.045348718  0.043963984            8 
 4634000    0.5107548   -3.6482977    2521.0912  0.045336843  0.043953142           20 
 4635000    0.5055075   -3.6629669     2524.312   0.04538497  0.043942296           15 
 4636000   0.50259795   -3.6575863    2523.3014  0.045357013  0.043931441            7 
 4637000    0.5149414   -3.6664063    2519.6975  0.045282465  0.043920608           17 
 4638000   0.51813688   -3.6624954    2518.0123  0.045242423  0.043909781           13 
 4639000   0.51435559   -3.6743794    2517.9971  0.045232397  0.043898965           23 
 4640000   0.51974937   -3.6564434    2516.3733  0.045193487  0.043888143           15 
 4641000   0.50851585   -3.6656197    2515.2951  0.045164389  0.043877311           27 
 4642000   0.50406917   -3.6658432    2526.3289  0.045352738  0.043866511            7 
 4643000   0.51164043   -3.6669303    2523.1554  0.045286012  0.043855701           17 
 4644000   0.50916063   -3.6656498     2511.525  0.045067561  0.043844863           16 
 4645000   0.51069945   -3.6596229    2522.6055  0.045256648  0.043834078           20 
 4646000    0.5153362   -3.6637827     2519.575   0.04519255  0.043823294           16 
 4647000   0.50735018   -3.6585698    2529.8092   0.04536635  0.043812548           14 
 4648000   0.50518576   -3.6731729    2524.2923   0.04525768  0.043801768           16 
 4649000     0.504656   -3.6805422    2519.4089   0.04516041  0.043790961           12 
 4650000   0.50382935   -3.6670445    2521.6146  0.045190226  0.043780134           30 
 4651000   0.50966429   -3.6572843    2520.5272  0.045161026  0.043769357           15 
 4652000   0.49631535   -3.6665242    2524.0752  0.045214875  0.043758569           16 
 4653000   0.50446334   -3.6578199    2522.6323  0.045179317  0.043747793           11 
 4654000   0.49804342   -3.6742029    2519.8839  0.045120397  0.043737031           12 
 4655000   0.49147859   -3.6622138    2523.8694  0.045182052  0.043726252           27 
 4656000   0.50550201   -3.6687197    2516.7098  0.045044205  0.043715493           71 
 4657000   0.51766439   -3.6830273    2519.0369  0.045076174  0.043704701           67 
 4658000   0.51000413   -3.6557393    2525.4872  0.045181895  0.043693897           17 
 4659000   0.50487724   -3.6670552    2520.9317  0.045090715  0.043683118           14 
 4660000   0.49881134   -3.6711452    2524.0189  0.045136246   0.04367234           26 
 4661000   0.51016899   -3.6816246    2522.4686  0.045098846  0.043661539           16 
 4662000   0.49268111    -3.664618    2527.9235  0.045186677  0.043650753           11 
 4663000   0.50236885    -3.659967    2521.4638  0.045061545  0.043640003           11 
 4664000   0.51040019   -3.6601835    2522.8557  0.045076753  0.043629271           17 
 4665000   0.50954216   -3.6861217    2520.3356  0.045022072  0.043618518           11 
 4666000   0.49345528   -3.6739068     2519.715   0.04500134  0.043607724           10 
 4667000   0.49846276   -3.6656405    2525.6424  0.045097535   0.04359699            8 
 4668000   0.50337532   -3.6468689    2527.2313   0.04511624  0.043586237           11 
 4669000    0.4992174   -3.6652478    2519.0896  0.044961261   0.04357551            8 
 4670000    0.4989351   -3.6608538    2514.3126  0.044866392  0.043564731            9 
 4671000   0.51392222   -3.6662357    2519.7179  0.044953221  0.043553969           30 
 4672000   0.50065145   -3.6536574    2523.6166  0.045013139  0.043543249            9 
 4673000   0.49767755   -3.6687548    2518.9577  0.044920423  0.043532518           15 
 4674000   0.51512427   -3.6625631    2526.5265  0.045045758  0.043521755           14 
 4675000   0.49768911   -3.6867459    2519.6536  0.044913612  0.043511001           11 
 4676000   0.51163372   -3.6477548    2529.4322  0.045078276  0.043500291           36 
 4677000   0.51022173    -3.678521      2519.96  0.044899865  0.043489539           13 
 4678000   0.50539565    -3.674261    2515.9792  0.044819353  0.043478753           27 
 4679000   0.50310774   -3.6544829    2521.8327  0.044914025  0.043468044            8 
 4680000   0.50898984   -3.6647375    2520.5395  0.044881401   0.04345732           10 
 4681000   0.50059736   -3.6862507    2521.9672   0.04489723   0.04344661           10 
 4682000   0.51130316   -3.6759664    2526.7706  0.044973134  0.043435958           10 
 4683000   0.50572746   -3.6713705    2532.4818  0.045065162  0.043425314           13 
 4684000   0.50983301   -3.6796822    2515.5257  0.044753874  0.043414601           12 
 4685000   0.50075604   -3.6772593    2517.8329  0.044785359  0.043403833           12 
 4686000   0.50604495   -3.6786902    2524.2524  0.044889963  0.043393128           19 
 4687000   0.50130682   -3.6715037    2522.9643  0.044857483  0.043382423           11 
 4688000   0.50214922    -3.673379    2520.1295  0.044797524  0.043371697           26 
 4689000   0.50500932   -3.6801064     2523.926  0.044855442  0.043360985           11 
 4690000   0.50570994    -3.670425    2527.2691  0.044905278  0.043350285           10 
 4691000   0.49620908   -3.6722706    2524.5103  0.044846698  0.043339584           12 
 4692000   0.49968171   -3.6675745    2525.8168  0.044860344  0.043328894           24 
 4693000   0.49704219    -3.685936    2521.4498  0.044773241  0.043318176           10 
 4694000   0.50335772   -3.6902061    2518.3439  0.044708562  0.043307437           12 
 4695000   0.49589327   -3.6709453    2517.7197   0.04468796  0.043296702           12 
 4696000   0.50458302    -3.686198    2519.0482  0.044702019  0.043285951           20 
 4697000   0.49978752   -3.6812035    2515.5535  0.044630499  0.043275239           27 
 4698000   0.50107211   -3.6711851    2522.9349  0.044751932  0.043264509           20 
 4699000   0.50637267   -3.6730823    2521.6603  0.044719805  0.043253817           15 
 4700000   0.50560725   -3.6821783    2522.2846  0.044721359  0.043243152           12 
 4701000   0.50755308   -3.7027288    2521.7207  0.044701849  0.043232447           12 
 4702000   0.49651032   -3.6754369    2527.1285  0.044788184  0.043221771           12 
 4703000   0.49886584   -3.6759684    2519.4432  0.044642483  0.043211097           29 
 4704000   0.48851841   -3.6821398    2514.9169  0.044552808  0.043200431            9 
 4705000   0.49370657   -3.6836713     2516.949   0.04457933  0.043189684           13 
 4706000   0.50356597   -3.6647322    2521.7014  0.044654013  0.043179018            9 
 4707000    0.4934484   -3.6764475    2521.0437  0.044632881  0.043168329            8 
 4708000   0.49583897   -3.6634549    2525.3107   0.04469893  0.043157643            8 
 4709000   0.50726781   -3.6810111    2513.7432  0.044484732  0.043146911            8 
 4710000   0.51047583   -3.7014598    2520.1884  0.044589321  0.043136178           16 
 4711000   0.50627616   -3.6777302    2523.2409  0.044633851  0.043125456            7 
 4712000   0.49973477   -3.6761319    2519.2553  0.044553892  0.043114762           20 
 4713000   0.48740688   -3.6680537    2515.0435  0.044469968  0.043104083           14 
 4714000   0.48125168   -3.6804765    2521.9664  0.044582917  0.043093408           10 
 4715000   0.49746479   -3.6881187    2528.8403  0.044694951  0.043082764           16 
 4716000   0.49354112   -3.6927617    2521.0448  0.044547724  0.043072103           28 
 4717000    0.4978378   -3.6912036    2522.0416   0.04455589  0.043061429           20 
 4718000   0.48434825   -3.6669131     2519.779  0.044506481  0.043050788           16 
 4719000   0.51089729   -3.6870709    2520.4551  0.044508991  0.043040134           14 
 4720000   0.49182104   -3.6736291    2523.2566  0.044549021  0.043029502            8 
 4721000   0.50084457   -3.7069872     2525.878  0.044585857  0.043018836           15 
 4722000   0.49280063   -3.6982594    2521.0111  0.044490525  0.043008166           13 
 4723000   0.49915952   -3.6866462    2523.1674  0.044519152  0.042997524           25 
 4724000   0.48592688   -3.6824479    2516.6673  0.044395063  0.042986877            4 
 4725000   0.49714103   -3.6796256    2523.6738  0.044509238  0.042976257           28 
 4726000   0.49626133   -3.6683852    2522.3965  0.044477297  0.042965609           13 
 4727000   0.47988513   -3.6972164    2517.3264  0.044378507  0.042954974           23 
 4728000   0.50837756   -3.6785693    2520.6318   0.04442738  0.042944372           17 
 4729000   0.49483843   -3.6954816    2520.7908  0.044420786  0.042933773           16 
 4730000   0.50456431   -3.6905973     2526.339  0.044509144  0.042923135           11 
 4731000   0.48188638   -3.6950633     2519.003  0.044370517  0.042912506            9 
 4732000    0.5016643   -3.7005917    2524.3476  0.044455261   0.04290188           12 
 4733000   0.50064248   -3.6900078    2525.5247  0.044466594   0.04289125           14 
 4734000    0.4953495   -3.6773477    2525.6274   0.04445901  0.042880713            5 
 4735000   0.48917893   -3.6889826    2524.3383  0.044426933   0.04287013           13 
 4736000   0.48937082   -3.6809583     2524.254  0.044416068  0.042859561           25 
 4737000   0.50021407   -3.6940535    2512.7846  0.044204923  0.042848953           20 
 4738000   0.49011478    -3.685887     2520.996  0.044340018  0.042838363           15 
 4739000   0.48224235   -3.6869286    2531.7704  0.044520125  0.042827819            7 
 4740000    0.4953624   -3.6943222    2520.6465  0.044315164  0.042817255           30 
 4741000   0.50156385   -3.6972952    2521.7075  0.044324466  0.042806691           13 
 4742000   0.48453664   -3.6802275    2529.4475  0.044451136  0.042796142           16 
 4743000   0.49760041   -3.7024951     2526.117  0.044383248  0.042785584           43 
 4744000   0.48489663   -3.6896996    2532.4841  0.044485738  0.042775056           12 
 4745000   0.49254843   -3.6983543    2531.6615  0.044461917  0.042764542           18 
 4746000    0.4896255   -3.7053557    2532.1967  0.044461945  0.042754036           38 
 4747000   0.48908527   -3.7061197     2522.529  0.044282863  0.042743438           31 
 4748000   0.50085497   -3.6944966    2528.5826  0.044379785  0.042732926           13 
 4749000   0.48528689   -3.7082267    2530.5887  0.044405642  0.042722447           17 
 4750000   0.49978451   -3.6686957    2522.3321   0.04425144  0.042711918           15 
 4751000   0.50234634   -3.6954133    2526.7966  0.044320434  0.042701419           16 
 4752000   0.49444802   -3.6807142    2527.0344  0.044315277  0.042690937           29 
 4753000   0.49118863   -3.6724216    2523.7991  0.044249231  0.042680442            8 
 4754000   0.50277713   -3.6983772    2522.2482  0.044212737  0.042669921           23 
 4755000   0.48277846   -3.6843248    2521.1239  0.044183735  0.042659382           22 
 4756000   0.47379979   -3.6896398    2524.1462  0.044227401  0.042648855           16 
 4757000   0.48391594    -3.691185     2527.181  0.044271267  0.042638329            9 
 4758000   0.49376067   -3.6944488    2528.1116  0.044278261  0.042627822           15 
 4759000   0.49117733   -3.7091826    2528.7923  0.044280877  0.042617279           16 
 4760000   0.49683075   -3.7171495    2528.8568  0.044272703  0.042606743           20 
 4761000   0.48944851   -3.7015173    2527.6452  0.044242198  0.042596188           17 
 4762000   0.49609617   -3.6926923    2524.7609  0.044182433   0.04258564           21 
 4763000   0.48284039   -3.6972181    2527.0405   0.04421304  0.042575147           18 
 4764000   0.48484302   -3.6906722    2527.3709  0.044209538  0.042564661           54 
 4765000   0.48128452     -3.71813    2522.0857   0.04410783  0.042554142           45 
 4766000   0.48448408     -3.69106     2525.566  0.044159427  0.042543642           33 
 4767000   0.50271579   -3.7236348    2524.1909  0.044126126  0.042533149           57 
 4768000     0.494589   -3.6915046    2524.6815  0.044125445  0.042522652           44 
 4769000   0.48004517   -3.6854135    2521.8162  0.044066125  0.042512158           18 
 4770000   0.48936661   -3.6949856    2522.7956  0.044073997  0.042501629            9 
 4771000   0.48958185   -3.6858426     2531.254    0.0442125  0.042491143           14 
 4772000   0.49729162   -3.7074547    2526.7121   0.04412392  0.042480664            9 
 4773000   0.48461458    -3.692129    2526.5077  0.044111106  0.042470173           10 
 4774000    0.4853595   -3.6965687    2527.9834  0.044127625  0.042459657            6 
 4775000   0.48477442   -3.7168646    2523.5624  0.044041229  0.042449105           11 
 4776000   0.48393628   -3.7012712    2527.4986  0.044100687  0.042438554           70 
 4777000   0.48614917   -3.7045153    2529.3972  0.044124576  0.042428015           26 
 4778000   0.48289152    -3.702113    2530.8228  0.044140205    0.0424175           19 
 4779000   0.48794692   -3.7229719    2523.5625  0.044004368  0.042406954           73 
 4780000   0.49702454   -3.7073386     2526.117  0.044039697  0.042396462           27 
 4781000   0.49504829   -3.7092717    2523.4507  0.043984011  0.042385968           19 
 4782000    0.4847966   -3.7154117    2517.8687  0.043877539  0.042375464           33 
 4783000   0.49314559   -3.6931816    2526.9231  0.044026118  0.042364942           21 
 4784000   0.48249293   -3.7100404    2521.6767  0.043925528  0.042354426           27 
 4785000   0.48736628   -3.7015124    2529.0418  0.044044614  0.042343955           25 
 4786000   0.47359167    -3.705037     2527.823  0.044014191  0.042333462           28 
 4787000   0.48994321   -3.6960984     2524.404  0.043945477  0.042323035           10 
 4788000   0.48549726   -3.7161321    2527.1813  0.043984638  0.042312585           22 
 4789000   0.49380682   -3.6933003    2527.3999  0.043979256  0.042302156           15 
 4790000   0.49006693   -3.6976498    2523.6014   0.04390399  0.042291706           25 
 4791000   0.48380395   -3.7013574    2526.6311  0.043947524  0.042281266           14 
 4792000   0.47649288   -3.6824331    2525.9201  0.043925989  0.042270852           26 
 4793000   0.47480254   -3.6960672    2526.2131  0.043921919  0.042260426           25 
 4794000   0.48697342   -3.6981576    2523.4862  0.043865355  0.042249955           14 
 4795000   0.48727564   -3.7158448    2528.2328  0.043938701   0.04223949           22 
 4796000   0.48560367   -3.7032158     2522.848  0.043835974  0.042229043           17 
 4797000   0.48756188   -3.7105327    2525.1241  0.043866376   0.04221859           13 
 4798000   0.48242041   -3.7070682      2532.79  0.043990378  0.042208189           18 
 4799000   0.48331874   -3.7204726    2526.8024  0.043877239  0.042197797           20 
 4800000    0.4883884   -3.7216423    2524.3538  0.043825588  0.042187359           14 
 4801000    0.4780057    -3.709795    2528.2576  0.043884219  0.042176916           15 
 4802000   0.49020408   -3.7077021    2525.2053  0.043822111  0.042166464           18 
 4803000    0.4925998   -3.7192682    2521.3076   0.04374536  0.042156021           28 
 4804000   0.48318268   -3.7175194    2526.4748  0.043825889  0.042145628           17 
 4805000   0.48361239    -3.721583    2520.6444   0.04371565  0.042135201           22 
 4806000   0.48342231   -3.7285714    2528.1592  0.043836857  0.042124756           27 
 4807000   0.47618387   -3.7083533    2530.1779  0.043862732  0.042114305           11 
 4808000   0.49443661    -3.703336    2522.8511  0.043726621  0.042103861           40 
 4809000   0.48992544   -3.7065976    2520.2309  0.043672123  0.042093411           33 
 4810000   0.48503786   -3.7116319    2525.6829  0.043757499  0.042082972           14 
 4811000   0.47380584   -3.7308423    2521.8735   0.04368242   0.04207251           13 
 4812000   0.47885649   -3.7199931    2523.8433  0.043707456  0.042062081           21 
 4813000    0.4827592   -3.7156888    2527.5862   0.04376318  0.042051641           10 
 4814000   0.49010274   -3.7125824    2524.5867  0.043702165  0.042041208            7 
 4815000   0.48688132   -3.7042202    2526.9492  0.043733977  0.042030789            8 
 4816000    0.4899371    -3.729197    2524.5531  0.043683436  0.042020395           17 
 4817000    0.4800273   -3.7295177    2527.9637   0.04373337  0.042009996           11 
 4818000   0.48003372   -3.7086383    2532.9976   0.04381136   0.04199958           15 
 4819000   0.47972042   -3.7155182    2526.4247  0.043688606  0.041989192            8 
 4820000   0.48548627   -3.7389715    2524.1519  0.043640247  0.041978746           10 
 4821000   0.47817685   -3.7204156    2525.9859  0.043662897  0.041968335           19 
 4822000   0.47115788    -3.726618    2529.8771  0.043721089  0.041957905           13 
 4823000   0.47906469   -3.7165075    2524.4969  0.043619064  0.041947543           13 
 4824000   0.48905442    -3.707096    2525.8907  0.043634098   0.04193715           26 
 4825000   0.48561578   -3.7248808    2529.4299  0.043686182  0.041926811           14 
 4826000   0.48526017    -3.724117    2529.7068   0.04368191  0.041916425           12 
 4827000   0.47845546    -3.742249    2521.1816  0.043525681  0.041906051           16 
 4828000   0.47791303   -3.7168753    2523.6156  0.043558679  0.041895678           15 
 4829000   0.48457691   -3.7153966     2524.119  0.043558346  0.041885283           32 
 4830000   0.48476718   -3.7085834    2523.9888  0.043547082  0.041874911           37 
 4831000    0.4867767   -3.7189289    2526.6724  0.043584358  0.041864526           39 
 4832000   0.47742509   -3.7241753    2520.3653  0.043466565  0.041854143            9 
 4833000   0.48273592   -3.7236907    2517.9455  0.043415848  0.041843768            9 
 4834000   0.47191948   -3.7048718    2528.2001  0.043583646  0.041833405           25 
 4835000   0.47453912    -3.711835    2522.6059  0.043478213  0.041823028           31 
 4836000   0.47447275   -3.7156131    2527.7175  0.043557305  0.041812691           23 
 4837000   0.47926652   -3.7262488    2527.7656  0.043549128  0.041802351           11 
 4838000   0.47517201    -3.710641     2529.296  0.043566488  0.041791986           58 
 4839000   0.47964211   -3.7386263     2528.924  0.043551077  0.041781628           29 
 4840000   0.49273865   -3.7221271    2523.7735    0.0434534  0.041771237           13 
 4841000   0.47333548   -3.7226908    2523.0497  0.043431964  0.041760868           24 
 4842000   0.48039997   -3.7208414    2523.3456  0.043428087  0.041750556           10 
 4843000   0.48226646   -3.7107206     2525.607  0.043458032  0.041740173           10 
 4844000   0.48061066   -3.7222775    2518.4972  0.043326748    0.0417298           11 
 4845000   0.48625439   -3.7174399    2532.4159  0.043557204  0.041719423           13 
 4846000   0.46187611   -3.7138585    2524.5436  0.043412842  0.041709061           29 
 4847000   0.48370879   -3.7457009    2519.1772  0.043311623  0.041698665           15 
 4848000   0.47477707   -3.7355939    2520.4609  0.043324754  0.041688242           36 
 4849000   0.48420553   -3.7310599    2519.2343   0.04329474  0.041677828           15 
 4850000   0.46795647    -3.720465    2523.5685  0.043360284  0.041667447           43 
 4851000   0.48248839   -3.7246694    2526.2808  0.043397938  0.041657057           39 
 4852000   0.46937283   -3.7199942    2523.2924  0.043337668  0.041646705           39 
 4853000    0.4732039   -3.7320699    2520.9144  0.043287905  0.041636332           23 
 4854000   0.47352119   -3.7383514    2524.8716  0.043346924  0.041625957           47 
 4855000   0.47532513   -3.7237103    2529.3961  0.043415655  0.041615615           32 
 4856000   0.48867227   -3.7380841    2523.3516  0.043302987   0.04160529           23 
 4857000   0.47888266   -3.7299084    2523.4396  0.043295579  0.041594977           13 
 4858000   0.47386064   -3.7402503    2525.6588  0.043324736  0.041584671           20 
 4859000   0.46656472   -3.7164452    2530.0573  0.043391256  0.041574389           11 
 4860000   0.47194139     -3.73055    2530.2328  0.043385336  0.041564086            7 
 4861000   0.46898479    -3.738533    2523.9637  0.043268937  0.041553802            9 
 4862000   0.48487476   -3.7356141    2521.9464  0.043225464    0.0415435           16 
 4863000   0.47301166   -3.7195377    2519.9626   0.04318258  0.041533193           11 
 4864000   0.46572656   -3.7140878    2522.8243   0.04322273  0.041522894           14 
 4865000   0.48101172   -3.7252137    2519.0212  0.043148702  0.041512571           24 
 4866000   0.47127445   -3.7304981    2521.0976  0.043175393   0.04150226           20 
 4867000   0.46193324   -3.7263894    2524.7093  0.043228363  0.041491941           46 
 4868000   0.47220762   -3.7195354    2518.6928  0.043116488  0.041481594           27 
 4869000   0.47205156   -3.7367815    2516.7186  0.043073844  0.041471249           44 
 4870000   0.46807786   -3.7384941    2524.3008  0.043194743  0.041460923           28 
 4871000   0.46928301   -3.7311046    2525.8036  0.043211586  0.041450607           23 
 4872000   0.47432406   -3.7398927    2528.1681  0.043243161  0.041440284           10 
 4873000    0.4734299   -3.7369671     2523.852  0.043160476  0.041430005           28 
 4874000   0.47651844   -3.7335835    2528.8624  0.043237286  0.041419735           42 
 4875000   0.47427805   -3.7228702     2523.576  0.043138051  0.041409494           26 
 4876000   0.47095164   -3.7311799    2519.7453  0.043063736  0.041399197           23 
 4877000   0.47621371   -3.7395277    2521.8685  0.043091185  0.041388883           31 
 4878000   0.48159336   -3.7308268    2516.7123  0.042994265  0.041378584           42 
 4879000   0.46449939   -3.7171784    2527.2901  0.043166122  0.041368289           36 
 4880000   0.47268882   -3.7243361    2533.5862  0.043264791  0.041357995           24 
 4881000   0.46290297   -3.7308219    2522.3139  0.043063475  0.041347715           51 
 4882000   0.47010865   -3.7435203    2523.5131  0.043075125  0.041337399           38 
 4883000   0.46120323   -3.7353726    2523.7779  0.043070822  0.041327102           12 
 4884000   0.47065568   -3.7324833    2529.8351  0.043165355  0.041316841           35 
 4885000   0.46449512   -3.7431493    2523.6531  0.043051059  0.041306573           48 
 4886000   0.47353164   -3.7300769    2523.7587   0.04304405    0.0412963           62 
 4887000   0.46947562   -3.7205474    2515.9416  0.042901944  0.041286003           41 
 4888000   0.46541648   -3.7371958    2521.1405  0.042981801  0.041275698           25 
 4889000   0.45807507   -3.7292549    2517.7874  0.042915855  0.041265408           37 
 4890000   0.46955422   -3.7423517    2522.7032  0.042990852  0.041255103           39 
 4891000   0.48367995   -3.7397602    2523.1726   0.04299006  0.041244797           19 
 4892000   0.47088004     -3.71962    2518.4809   0.04290135  0.041234506           19 
 4893000   0.45752672   -3.7228194    2518.6028   0.04289466  0.041224208           13 
 4894000   0.47578314   -3.7428002    2522.2525   0.04294804  0.041213932            9 
 4895000   0.46662018    -3.736479    2521.1164  0.042919925  0.041203639           12 
 4896000   0.46921711   -3.7354671    2532.7275  0.043108788  0.041193404           40 
 4897000   0.46457601   -3.7377237     2523.483   0.04294267   0.04118315           22 
 4898000   0.46629311   -3.7547273    2520.1489  0.042877177  0.041172843           27 
 4899000   0.46738716   -3.7516768    2523.5808  0.042926801   0.04116256           47 
 4900000   0.46278913   -3.7279537    2523.3765  0.042914567  0.041152254           43 
 4901000   0.46449567     -3.75072    2523.1154  0.042901371  0.041141972           32 
 4902000   0.46352132   -3.7678387    2525.0206  0.042925007  0.041131675           23 
 4903000   0.46898089   -3.7413117    2523.5573  0.042891381  0.041121392           36 
 4904000   0.47333021   -3.7388287    2528.2305  0.042962046  0.041111147           22 
 4905000   0.47237718   -3.7222454     2523.998  0.042881379  0.041100885           21 
 4906000   0.45713911   -3.7335097    2525.5306  0.042898672  0.041090669           28 
 4907000   0.46783467   -3.7506894    2521.5771  0.042822789  0.041080416           11 
 4908000   0.45643979   -3.7402968     2523.453  0.042845914  0.041070166           26 
 4909000   0.46367328   -3.7518154    2521.4108  0.042802519  0.041059921           21 
 4910000   0.46908199   -3.7272485    2523.9177  0.042836349   0.04104966           25 
 4911000   0.46223256   -3.7324351    2522.6893  0.042806782   0.04103944           28 
 4912000   0.46531326   -3.7390978     2522.943  0.042802372  0.041029223           31 
 4913000   0.46597955   -3.7556341    2524.5001  0.042820072  0.041018981           26 
 4914000   0.46126547   -3.7439573    2523.3062  0.042791111  0.041008738           28 
 4915000   0.46250182   -3.7444912    2513.9345  0.042623508  0.040998447           18 
 4916000   0.46855275   -3.7539029    2516.6351  0.042660617  0.040988171           37 
 4917000    0.4690857   -3.7557177    2517.7991  0.042671669  0.040977921           66 
 4918000   0.46398411   -3.7479483    2524.2425  0.042772172  0.040967648           25 
 4919000   0.45663247   -3.7546295    2521.1718  0.042711455  0.040957388           40 
 4920000    0.4606109   -3.7454744    2518.4725  0.042657054  0.040947138           17 
 4921000   0.45811442   -3.7457641    2529.3546  0.042832666  0.040936897           18 
 4922000   0.45871124   -3.7450123    2523.6689    0.0427277  0.040926637           15 
 4923000   0.46907449   -3.7421606    2520.1155  0.042658872  0.040916366           16 
 4924000   0.46688115   -3.7461871    2513.6273  0.042540403  0.040906127           43 
 4925000   0.46251963   -3.7385347    2523.2767  0.042695037  0.040895856           13 
 4926000   0.46326673   -3.7358525    2515.8178  0.042560187   0.04088563           22 
 4927000   0.45029245   -3.7564154    2517.6076  0.042581821  0.040875392           31 
 4928000   0.45640063   -3.7620915    2525.5041  0.042706712  0.040865118           31 
 4929000    0.4576464   -3.7396714    2515.0566  0.042521415  0.040854846           53 
 4930000   0.46057006   -3.7603399    2514.7696  0.042507938  0.040844576           43 
 4931000   0.47022647   -3.7520937     2518.201  0.042557308  0.040834297           20 
 4932000   0.46550157   -3.7627468    2520.1282  0.042581241  0.040824029           39 
 4933000   0.46114211   -3.7494233    2517.6522  0.042530783  0.040813776           32 
 4934000   0.46734481   -3.7544348    2518.0197  0.042528369  0.040803535           37 
 4935000     0.447116   -3.7461497    2519.5038  0.042544813  0.040793309           23 
 4936000   0.46565296   -3.7648113    2522.5834  0.042588185  0.040783107           58 
 4937000    0.4520479   -3.7328564    2518.4713   0.04251015  0.040772899           21 
 4938000   0.46292442   -3.7560279    2519.9846  0.042527078  0.040762723           27 
 4939000   0.46110882   -3.7517826    2524.4284  0.042593446  0.040752535           44 
 4940000   0.46364479   -3.7699719      2529.24  0.042665992  0.040742381           25 
 4941000   0.46647024   -3.7547245    2525.5164  0.042594556  0.040732236           18 
 4942000   0.45320604   -3.7432747    2528.2979  0.042632839  0.040722062           18 
 4943000   0.46962349   -3.7596511    2524.9598  0.042567938  0.040711896           22 
 4944000   0.45491413   -3.7434405    2527.6159  0.042604097  0.040701733           18 
 4945000    0.4684477   -3.7382827     2525.536  0.042560432  0.040691575           24 
 4946000   0.46900138   -3.7478405    2520.3621  0.042464653   0.04068142           14 
 4947000   0.45375514   -3.7621056    2519.3522  0.042439058  0.040671232           16 
 4948000   0.45798154   -3.7672681    2530.7057  0.042621694  0.040661047           10 
 4949000    0.4665836   -3.7425255    2525.9416  0.042532862   0.04065088           13 
 4950000   0.46051418   -3.7650775    2522.4048  0.042464727  0.040640729           11 
 4951000   0.47071915   -3.7666927    2521.5225  0.042441299  0.040630568           27 
 4952000    0.4504033   -3.7382037    2524.2359  0.042478391   0.04062042           15 
 4953000   0.46746216   -3.7503202    2513.3394  0.042286483  0.040610283           20 
 4954000   0.45177741   -3.7490104    2524.8692  0.042471896  0.040600145           13 
 4955000    0.4548423   -3.7441291    2529.3228  0.042538224  0.040589999           15 
 4956000   0.45745026   -3.7664495    2522.0959  0.042408122  0.040579872           11 
 4957000    0.4613537   -3.7551174    2526.5997  0.042475282  0.040569765           32 
 4958000    0.4537832   -3.7734429    2520.0811  0.042357151  0.040559598           11 
 4959000   0.46687106   -3.7546371      2522.63  0.042391443  0.040549452           17 
 4960000   0.45888472    -3.765172    2521.7065  0.042367381  0.040539332           34 
 4961000   0.45941424   -3.7417863    2517.6855  0.042291297  0.040529213           10 
 4962000   0.47165651   -3.7531602    2527.2388  0.042443215   0.04051908           23 
 4963000   0.45874747   -3.7689594    2522.6274  0.042357234  0.040508928           20 
 4964000   0.46086362   -3.7802462     2520.141   0.04230696  0.040498752           42 
 4965000   0.45241836   -3.7583925    2519.2068  0.042282759  0.040488562           61 
 4966000   0.44841133   -3.7669214    2519.2538  0.042275034   0.04047839           52 
 4967000   0.45458373   -3.7678609    2519.2618  0.042266656  0.040468205           35 
 4968000   0.46236658   -3.7446951    2518.8067  0.042250516  0.040458066           56 
 4969000   0.45353272   -3.7492518    2518.7516  0.042241088   0.04044795           38 
 4970000   0.45627694    -3.784175    2518.1484  0.042222475  0.040437811           26 
 4971000   0.45163137   -3.7581285    2520.9462  0.042260883  0.040427665           44 
 4972000   0.45240706   -3.7524555    2521.5491  0.042262488  0.040417534           21 
 4973000   0.45477212   -3.7675533    2515.9505  0.042160173  0.040407415           41 
 4974000   0.45944708   -3.7479177    2524.9171  0.042301922  0.040397309           20 
 4975000   0.45630309   -3.7660148    2523.5217  0.042270045  0.040387203           24 
 4976000   0.45908919   -3.7595895    2522.9119  0.042251338  0.040377086           23 
 4977000   0.46722581   -3.7675304    2522.4814  0.042235641  0.040366972           40 
 4978000   0.45273674   -3.7657148    2519.9533  0.042184836   0.04035686           60 
 4979000   0.45939504   -3.7770669    2517.7782  0.042139958  0.040346723           86 
 4980000   0.45551374   -3.7618035    2515.5396  0.042094036  0.040336611           19 
 4981000   0.44925121   -3.7559923    2514.6999  0.042071537  0.040326483           20 
 4982000   0.44785936   -3.7564642    2520.5561  0.042161048  0.040316393           36 
 4983000   0.45847958   -3.7595767    2518.1357   0.04211211  0.040306278           79 
 4984000   0.45533671   -3.7615186    2519.6702  0.042129317  0.040296159           23 
 4985000   0.45187375   -3.7489287    2524.9495  0.042209119  0.040286079           24 
 4986000   0.46103061   -3.7578884    2520.6699  0.042129127  0.040275989           60 
 4987000   0.43297237   -3.7601908    2523.7657   0.04217241  0.040265887          100 
 4988000   0.44988776   -3.7639424    2517.8295  0.042064781  0.040255785          117 
 4989000   0.45615267   -3.7840157     2515.057  0.042010039  0.040245667           62 
 4990000   0.46135471    -3.766644    2523.0579  0.042135235  0.040235541           52 
 4991000   0.46638451   -3.7837368    2519.5407  0.042068068  0.040225408           36 
 4992000   0.44654968   -3.7805193    2516.1756  0.042003465  0.040215299           57 
 4993000   0.44800376    -3.771615    2516.9027  0.042007188  0.040205197           24 
 4994000   0.46392236   -3.7662358    2517.1969  0.042003686  0.040195086           24 
 4995000   0.44588088   -3.7649262    2522.5547  0.042084663  0.040184997           16 
 4996000   0.45422059   -3.7721417    2521.2773  0.042054932  0.040174904           15 
 4997000   0.44745831   -3.7766838    2521.4885  0.042050038  0.040164843           17 
 4998000   0.44730759   -3.7610813    2525.9989  0.042116828  0.040154771           38 
 4999000   0.45278351   -3.7766266    2523.9566  0.042074358  0.040144673           44 
 5000000   0.44968924   -3.7667102    2517.7929  0.041963215  0.040134604           21 
 5001000   0.45369791   -3.7743538    2520.7765  0.042004541  0.040124513           15 
 5002000    0.4515998    -3.759101    2521.3591  0.042005849  0.040114439           34 
 5003000   0.45618728   -3.7759946    2516.6561  0.041919116  0.040104348            9 
 5004000   0.45792046   -3.7862326     2519.675  0.041961015  0.040094261           24 
 5005000   0.44647911   -3.7815195    2518.5325  0.041933609  0.040084188           22 
 5006000   0.45359934   -3.7971674    2515.5084  0.041874891  0.040074094           36 
 5007000   0.45109948   -3.7664854    2512.9051  0.041823199  0.040063994           62 
 5008000   0.45802841   -3.7780889    2518.9954  0.041916191  0.040053906           20 
 5009000    0.4600902   -3.7764097    2515.7484  0.041853803  0.040043803          106 
 5010000   0.44930922    -3.791021    2521.1547  0.041935374  0.040033678          127 
 5011000   0.45457678   -3.7824631    2522.4643  0.041948784  0.040023605          103 
 5012000    0.4520799   -3.7766753     2521.674  0.041927274  0.040013521          113 
Loop time of 12270.4 on 48 procs for 5000000 steps with 4000 atoms

Performance: 70413.519 tau/day, 407.486 timesteps/s
99.4% CPU use with 48 MPI tasks x no OpenMP threads

MPI task timing breakdown:
Section |  min time  |  avg time  |  max time  |%varavg| %total
---------------------------------------------------------------
Pair    | 810.53     | 861.9      | 922.37     | 100.7 |  7.02
Neigh   | 81.447     | 84.89      | 87.913     |  20.1 |  0.69
Comm    | 775.71     | 835.21     | 894.76     | 105.4 |  6.81
Output  | 13.97      | 13.975     | 14.061     |   0.3 |  0.11
Modify  | 10333      | 10361      | 10387      |  14.6 | 84.44
Other   |            | 113.5      |            |       |  0.93

Nlocal:        83.3333 ave          92 max          76 min
Histogram: 2 5 3 9 5 13 6 2 2 1
Nghost:        2190.06 ave        2211 max        2173 min
Histogram: 4 4 7 5 9 6 6 2 2 3
Neighs:        14545.5 ave       15966 max       12784 min
Histogram: 3 2 4 2 6 8 9 6 6 2
FullNghs:      29090.7 ave       32162 max       26527 min
Histogram: 2 6 2 7 12 9 5 3 0 2

Total # of neighbors = 1396355
Ave neighs/atom = 349.08875
Neighbor list builds = 271221
Dangerous builds = 0

#clear
#
#next RN
#
#jump SELF
Total wall time: 3:24:33
