
units lj                  # Use reduced LJ style units
atom_style atomic         # Uncharged point particles
atom_modify map hash      # Needed for indexing of clusters etc
                          # Used to be able to find where atoms are in relation to each other.

lattice fcc 1.0 spacing 1 1 1
Lattice spacing in x,y,z = 1.5874011 1.5874011 1.5874011
region box block 0 10 0 10 0 10 units lattice
create_box 2 box
Created orthogonal box = (0.0000000 0.0000000 0.0000000) to (15.874011 15.874011 15.874011)
  3 by 4 by 4 MPI processor grid
create_atoms 1 box
Created 4000 atoms
  using lattice units in orthogonal box = (0.0000000 0.0000000 0.0000000) to (15.874011 15.874011 15.874011)
  create_atoms CPU = 0.002 seconds
set type 1 type/fraction 2 0.4 78393
Setting atom values ...
  1612 settings made for type/fraction
mass 1 1.0
mass 2 1.0
pair_style lj/cut  3.5
pair_modify tail  yes
pair_coeff 1  1  1.0  1.0   # Intearaction between 1 and 1 set with epsilon = 1 and sigma = 1
pair_coeff 1  2  1.5  0.8
pair_coeff 2  2  0.5  0.88

write_data data.0
System init for write_data ...
Neighbor list info ...
  update every 1 steps, delay 10 steps, check yes
  max neighbors/atom: 2000, page size: 100000
  master list distance cutoff = 3.8
  ghost atom cutoff = 3.8
  binsize = 1.9, bins = 9 9 9
  1 neighbor lists, perpetual/occasional/extra = 1 0 0
  (1) pair lj/cut, perpetual
      attributes: half, newton on
      pair build: half/bin/atomonly/newton
      stencil: half/bin/3d
      bin: standard
WARNING: Not all mixed pair coeffs generated from mixing. Use write_data with 'pair ij' option to store all pair coeffs. (../write_data.cpp:312)


#############################
#   M E L T   S Y S T E M   #
#############################

velocity all create 2.4 6229865 mom yes dist gaussian # Assign velocities
                                                    # Temperature 2.4, random number seed, zero linear momentum
                                                                                # Gaussian distribution

timestep 0.002   # simulation timestep
thermo 1000       # output thermodynamic data every 1000 steps bf 100

# Define a fix  in this case with index 1 applied to all
# particles in the simulation. This fix is for simulations
# in the anisotropic NPT ensemble. Note that we use the MTK
# correction.
fix 1 all npt temp 2.4 2.4 0.1 iso 5.68 5.68 0.5 mtk yes tchain 5 pchain 5 # Use NPT ensemble
                                                                         # Set temperature and pressure and damping
                                                                         # Numbers of thermostats in chain and in barostat
run 10000          # run for 10000 steps
Per MPI rank memory allocation (min/avg/max) = 3.642 | 3.644 | 3.648 Mbytes
Step Temp E_pair E_mol TotEng Press Volume 
       0          2.4    -5.861415            0    -2.262315   -4.1716513         4000 
    1000    2.4282646    -4.987459            0   -1.3459727    5.5810681    3916.9608 
    2000    2.4344611   -5.0016153            0   -1.3508366    5.4711163     3923.133 
    3000     2.383545   -5.0655894            0   -1.4911658    5.4569128    3890.0259 
    4000    2.3688955   -5.0693508            0    -1.516896    5.5076359    3882.0021 
    5000    2.3913515   -4.9490472            0   -1.3629166    5.8764603    3911.4851 
    6000    2.3919563    -5.030568            0   -1.4435305    5.2616129    3929.1376 
    7000    2.4580186   -5.0485645            0   -1.3624583    5.6267885    3898.0948 
    8000    2.4096377   -5.0280294            0   -1.4144764      5.47646    3906.9514 
    9000    2.4121844   -5.1248372            0   -1.5074651    5.5068401    3869.1974 
   10000    2.4407926   -5.0118993            0   -1.3516256    6.0450234     3875.088 
Loop time of 2.56789 on 48 procs for 10000 steps with 4000 atoms

Performance: 672924.878 tau/day, 3894.241 timesteps/s
99.6% CPU use with 48 MPI tasks x no OpenMP threads

MPI task timing breakdown:
Section |  min time  |  avg time  |  max time  |%varavg| %total
---------------------------------------------------------------
Pair    | 1.1213     | 1.1931     | 1.3694     |   3.9 | 46.46
Neigh   | 0.20722    | 0.21778    | 0.24427    |   1.2 |  8.48
Comm    | 0.71263    | 0.88416    | 0.96456    |   5.1 | 34.43
Output  | 0.00025027 | 0.00025708 | 0.00032108 |   0.0 |  0.01
Modify  | 0.22209    | 0.25694    | 0.31386    |   5.2 | 10.01
Other   |            | 0.01561    |            |       |  0.61

Nlocal:        83.3333 ave          90 max          73 min
Histogram: 1 2 3 2 4 9 6 12 6 3
Nghost:        1680.90 ave        1715 max        1658 min
Histogram: 5 3 9 5 10 8 5 2 0 1
Neighs:        9859.90 ave       10923 max        8516 min
Histogram: 3 2 3 5 5 6 6 11 5 2

Total # of neighbors = 473275
Ave neighs/atom = 118.31875
Neighbor list builds = 903
Dangerous builds = 190

# Equilibrate just above the melting temperature to avoid step fn in T

fix 1 all npt temp 1.25 1.25 0.1 iso 5.68 5.68 0.5 mtk yes tchain 5 pchain 5
run 2000
Per MPI rank memory allocation (min/avg/max) = 3.643 | 3.645 | 3.649 Mbytes
Step Temp E_pair E_mol TotEng Press Volume 
   10000    2.4407926   -5.0118993            0   -1.3516256    6.0450234     3875.088 
   11000     1.241138   -7.0295607            0   -5.1683191    5.5775599    3090.5364 
   12000    1.2513774   -7.1033924            0   -5.2267955    5.5771575    3075.5202 
Loop time of 0.616717 on 48 procs for 2000 steps with 4000 atoms

Performance: 560386.508 tau/day, 3242.977 timesteps/s
99.6% CPU use with 48 MPI tasks x no OpenMP threads

MPI task timing breakdown:
Section |  min time  |  avg time  |  max time  |%varavg| %total
---------------------------------------------------------------
Pair    | 0.27629    | 0.29772    | 0.31686    |   2.0 | 48.28
Neigh   | 0.039647   | 0.042077   | 0.044842   |   0.6 |  6.82
Comm    | 0.20459    | 0.22709    | 0.24997    |   2.6 | 36.82
Output  | 5.2873e-05 | 5.3903e-05 | 6.8686e-05 |   0.0 |  0.01
Modify  | 0.040781   | 0.044851   | 0.048149   |   0.9 |  7.27
Other   |            | 0.004917   |            |       |  0.80

Nlocal:        83.3333 ave          93 max          74 min
Histogram: 1 1 4 12 7 11 6 3 2 1
Nghost:        1957.21 ave        1980 max        1934 min
Histogram: 3 1 3 9 4 14 5 5 2 2
Neighs:        12424.4 ave       13734 max       11112 min
Histogram: 3 3 6 3 8 7 8 6 2 2

Total # of neighbors = 596369
Ave neighs/atom = 149.09225
Neighbor list builds = 143
Dangerous builds = 16

#############################
# L I N E A R  Q U E N C H  #
#############################

# Define solid atoms. This closely follows ten Wolde  Ruiz-Montero and Frenkel  Faraday Discuss  1996  104  93-110
# Compute components of the per-atom q6 vector
compute q6 all orientorder/atom degrees 1 6 components 6 nnn NULL cutoff 1.3 # compute the Q6 parameter.
                                                                             # Use all neighbours within 1.3 unit cell.

# get number of connections
compute coord_number all coord/atom orientorder q6 0.5

# An atom is solid if it has 8 or more connections (of a possible 14)
variable is_solid atom c_coord_number>=8
group solid dynamic all var is_solid    # Must be dynamic to update
dynamic group solid defined

# do clustering
compute cluster solid cluster/atom 1.3 # Create a cluster where all atoms within are solid and max 1.3 units from another member

# define chunks one chunk per cluster
compute clus_chunks solid chunk/atom c_cluster nchunk every compress yes  # Says which atoms are in which chunk

# count the size of each chunk
compute size_chunks solid property/chunk clus_chunks count


# Find the maximum entry in the vector of chunk sizes
variable max_n equal max(c_size_chunks)


# Thermo style which includes this variable
# thermo_style custom step temp pe vol v_max_n

thermo ${N}  # Print the thermo information every 100 steps
thermo 1000  

# Reset the npt fix at a lower temperature (below freezing)
fix 1  all npt temp  ${temp} ${temp}  0.1  iso  5.68  5.68  0.5  mtk yes tchain  5  pchain  5
fix 1  all npt temp  0.45 ${temp}  0.1  iso  5.68  5.68  0.5  mtk yes tchain  5  pchain  5
fix 1  all npt temp  0.45 0.45  0.1  iso  5.68  5.68  0.5  mtk yes tchain  5  pchain  5

dump dmp2 all dcd ${N} traj.dcd
dump dmp2 all dcd 1000 traj.dcd


compute msd all msd com yes
variable twopoint equal c_msd[4]/6/(step*dt+1.0e-6)
fix 9 all vector 10 c_msd[4]
variable fit equal slope(f_9)/6/(10*dt)
thermo_style custom step temp pe c_msd[4] v_twopoint v_fit v_max_n

fix 1 all npt temp 1.25 ${temp} 0.1 iso 5.68 5.68 0.5 mtk yes tchain 5 pchain 5
fix 1 all npt temp 1.25 0.45 0.1 iso 5.68 5.68 0.5 mtk yes tchain 5 pchain 5
run 2000000 # 5000000  # Run for this many steps
Neighbor list info ...
  update every 1 steps, delay 10 steps, check yes
  max neighbors/atom: 2000, page size: 100000
  master list distance cutoff = 3.8
  ghost atom cutoff = 3.8
  binsize = 1.9, bins = 8 8 8
  4 neighbor lists, perpetual/occasional/extra = 1 3 0
  (1) pair lj/cut, perpetual
      attributes: half, newton on
      pair build: half/bin/atomonly/newton
      stencil: half/bin/3d
      bin: standard
  (2) compute orientorder/atom, occasional
      attributes: full, newton on
      pair build: full/bin/atomonly
      stencil: full/bin/3d
      bin: standard
  (3) compute coord/atom, occasional
      attributes: full, newton on
      pair build: full/bin/atomonly
      stencil: full/bin/3d
      bin: standard
  (4) compute cluster/atom, occasional
      attributes: full, newton on
      pair build: full/bin/atomonly
      stencil: full/bin/3d
      bin: standard
Per MPI rank memory allocation (min/avg/max) = 9.823 | 9.829 | 9.835 Mbytes
Step Temp PotEng c_msd[4] v_twopoint v_fit v_max_n 
   12000    1.2513774   -7.1033924 1.6680464e-30 1.1583655e-32 8.3333333e+20            1 
   13000    1.2607325   -7.1335512   0.46374123 0.0029727001  0.037138097            1 
   14000    1.2663898   -7.0508077   0.87379856 0.0052011817  0.035298378            2 
   15000    1.2316717   -7.0998066    1.2453463 0.0069185905  0.034347684            2 
   16000      1.26625   -7.1046477    1.7089977 0.0089010292  0.034219065            4 
   17000    1.2523173   -7.1126872    2.1417199  0.010498627  0.034962811            2 
   18000    1.2792231   -7.0893138    2.5855606  0.011970188  0.035437171            6 
   19000    1.2783784   -7.1107829     3.046462  0.013361675  0.035802497            1 
   20000    1.2526492    -7.152974    3.4441999  0.014350833  0.035935224            2 
   21000    1.2635439   -7.1245722    3.9245818  0.015573737  0.036054079            1 
   22000    1.2357129   -7.1619813    4.3546745  0.016494979  0.036275311            1 
   23000    1.2779851   -7.1184153    4.7802206  0.017319639  0.036303622            3 
   24000    1.2327629    -7.100459    5.1646172  0.017932698  0.036274864            1 
   25000    1.2327774    -7.196908    5.5381473  0.018460491   0.03609446            1 
   26000     1.254936   -7.1027163    5.9848673  0.019182267  0.035909567            1 
   27000    1.2404297   -7.1132659    6.2943641  0.019427049   0.03564749            1 
   28000    1.2415618   -7.1347226    6.6420931  0.019768134  0.035324801            1 
   29000    1.2468158    -7.053108    7.0630239  0.020296045  0.035008625            3 
   30000    1.2218788   -7.0818065    7.5849777  0.021069382  0.034856102            2 
   31000    1.2437707   -7.1517702    7.9205148  0.021291706  0.034779516            1 
   32000    1.2459573      -7.1666      8.34378  0.021728594  0.034720183            1 
   33000    1.2510254   -7.1211057    8.8520009  0.022353537  0.034677784            1 
   34000      1.23266    -7.118902    9.3128178  0.022825533  0.034719699            2 
   35000    1.2366045    -7.111823    9.7751304   0.02327412  0.034794731            2 
   36000    1.2398786   -7.1227411    10.185949  0.023578586  0.034861075            2 
   37000    1.2307182   -7.1607387    10.474722  0.023591716  0.034890624            2 
   38000    1.2444411   -7.1090406    10.862575  0.023821436     0.034847            2 
   39000    1.2347398   -7.1661371    11.186982  0.023903808  0.034768145            2 
   40000    1.2411491   -7.1122598     11.64986  0.024270542  0.034684294            2 
   41000    1.2443609   -7.1488563    12.012864  0.024416389  0.034593277            2 
   42000    1.2258485   -7.1280649    12.375606  0.024554773  0.034519185            1 
   43000    1.2503762   -7.1675026    12.646724  0.024509155  0.034399649            1 
   44000    1.2406714   -7.1159165    13.041096  0.024699046  0.034266471            2 
   45000    1.2496742   -7.0936082    13.521227  0.025039308  0.034174472            1 
   46000    1.2384859   -7.1240238    14.001174  0.025364446  0.034112226            1 
   47000    1.2239448   -7.0692127    14.379124  0.025494901  0.034049007       -1e+20 
   48000    1.2393191   -7.1422218    14.739182  0.025588857  0.033986512            1 
   49000    1.2201935   -7.0931751    15.175895  0.025809346  0.033946139            1 
   50000     1.233732   -7.1818384    15.624254  0.026040423   0.03393013       -1e+20 
   51000    1.2630596   -7.0990553    16.176198  0.026431695  0.033945832            1 
   52000    1.2244712   -7.1508693    16.585932   0.02658002  0.033971509            1 
   53000    1.2227689   -7.1296194    16.912176  0.026591471  0.033975842            1 
   54000    1.2708144   -7.1546558    17.273526  0.026656676   0.03397604            1 
   55000    1.2265567   -7.0916288    17.701753  0.026820838  0.033961039            2 
   56000    1.2471073   -7.1088206     18.18378  0.027059196  0.033966871            1 
   57000     1.232511   -7.1450237    18.761702  0.027429389  0.034001047            2 
   58000    1.2219298   -7.1357293    19.040395  0.027356889  0.034021267            3 
   59000    1.2066967   -7.1085667    19.422314  0.027432647  0.034044028            2 
   60000    1.2175665   -7.1595839    19.833171  0.027546071  0.034054085            1 
   61000    1.2319234   -7.1169221    20.341148  0.027788454   0.03407653            2 
   62000     1.215973   -7.1123503    20.714405  0.027841942  0.034098621            1 
   63000    1.2324754   -7.1602711    20.932448  0.027688423  0.034099699            2 
   64000     1.205332   -7.1484358    21.458536  0.027940802  0.034098725            1 
   65000    1.2072489   -7.1858095    21.852318  0.028015792  0.034111682            2 
   66000    1.1852403   -7.1713252    22.104026  0.027909124    0.0340986            1 
   67000    1.2224367   -7.0999072    22.745585  0.028290529  0.034084885            3 
   68000    1.2224839   -7.2004192    22.960668  0.028138073  0.034080185            1 
   69000    1.1919237   -7.1552225    23.466816  0.028341565  0.034072916            6 
   70000    1.2270361   -7.1499682    23.896222  0.028447883  0.034066765            1 
   71000    1.2414056    -7.193085    24.254356  0.028467553  0.034064159            4 
   72000     1.244065   -7.1802653    24.766321  0.028664723  0.034066338            1 
   73000    1.2217133   -7.1584882    24.951776  0.028483763  0.034067129            1 
   74000    1.2045132   -7.1257856    25.608605  0.028838518  0.034063611            2 
   75000    1.2272362   -7.1337426    25.957001  0.028841112  0.034075515            2 
   76000    1.2094849   -7.1890452    26.302381   0.02884033  0.034073459            1 
   77000    1.2139732   -7.1648025    26.778513  0.028981075   0.03407551            2 
   78000    1.2368125   -7.1349476    27.296665  0.029163104  0.034082915            3 
   79000    1.2330863   -7.1591878    27.491814  0.028999804  0.034085269            2 
   80000    1.2176774   -7.2113077    28.040576  0.029208933  0.034086985            1 
   81000    1.2320366   -7.1806425    28.233489  0.029046799   0.03409146            1 
   82000    1.2371335   -7.1613207    28.719113   0.02918609  0.034071156            2 
   83000    1.2276216   -7.1372996     29.04094   0.02915757  0.034053867            1 
   84000    1.2273866   -7.1773777    29.322831   0.02909011  0.034040782            3 
   85000    1.2175385   -7.1559812    29.972306  0.029384613  0.034033008            3 
   86000    1.2407907   -7.1683485     30.35093  0.029409815  0.034027025            2 
   87000    1.2243662   -7.1274655    30.718978  0.029424308   0.03401521            1 
   88000    1.2309421   -7.1475698    31.054812  0.029407966  0.033998046            2 
   89000    1.2211092   -7.1695623     31.40483  0.029405271  0.033981715            4 
   90000     1.219742   -7.1942478    31.872922  0.029511964  0.033967785            2 
   91000     1.229794   -7.2016735    32.197177  0.029484594  0.033953131            1 
   92000     1.224847   -7.1707124    32.838288  0.029744826  0.033949633            2 
   93000    1.2526108   -7.2083983    33.043858  0.029609191  0.033945526            2 
   94000    1.2216738   -7.1909498    33.674537  0.029853313  0.033947183            1 
   95000    1.2285936   -7.1882295    34.165557  0.029969787  0.033957214            3 
   96000    1.2088555   -7.1451983    34.763776  0.030176889  0.033977641            1 
   97000    1.2139023   -7.1449168    35.115737  0.030168158  0.033991376            1 
   98000     1.238434    -7.162604    35.489473  0.030178123  0.034010537            2 
   99000    1.2111025   -7.2053458    35.804469  0.030138442  0.034015045            1 
  100000     1.209263   -7.1812214    36.179903  0.030149919  0.034019451            1 
  101000    1.1957501   -7.1756807    36.628289  0.030221361  0.034026574            3 
  102000    1.2287153   -7.1915291    37.037002  0.030258988  0.034036547            2 
  103000    1.2262007   -7.1589232    37.630527   0.03044541  0.034047128            3 
  104000    1.2140663   -7.1789168    37.728031  0.030230794  0.034051459            2 
  105000    1.2339724   -7.1274778    38.232023  0.030342875  0.034051269            4 
  106000    1.1729765   -7.1541358    38.527479  0.030288899  0.034047907            2 
  107000    1.2112309   -7.2279928    38.875324  0.030276732  0.034045655            1 
  108000    1.2132922   -7.2199867    39.142354  0.030202433  0.034038827            2 
  109000    1.2025349    -7.205553    39.593998  0.030270641  0.034032226            1 
  110000    1.2137181   -7.1888741    39.929759  0.030249817  0.034021681            2 
  111000    1.2019092   -7.2090432    40.440186    0.0303605  0.034014938            1 
  112000     1.211712   -7.1731286    40.910667  0.030439484  0.034006492            1 
  113000    1.1891139     -7.21681    41.006627  0.030240875  0.033992668            1 
  114000    1.1857963   -7.1997493     41.54703  0.030370636   0.03397859            1 
  115000    1.2181826     -7.24931    41.980224  0.030420452  0.033970555            1 
  116000    1.1978097   -7.2236386     42.17551  0.030298498  0.033953768            2 
  117000    1.2043012   -7.1983703    42.372945   0.03018016  0.033932413            2 
  118000    1.2029471   -7.2130288    42.815088  0.030236644  0.033906004            2 
  119000     1.172488    -7.225815     43.24897  0.030286394  0.033879876            1 
  120000    1.1968049   -7.2090845    43.424172  0.030155675   0.03385822            2 
  121000    1.1876572   -7.1503146    44.079452  0.030357749  0.033833525            1 
  122000    1.2169097   -7.2311721    44.318787  0.030272395  0.033807884            3 
  123000    1.2216304    -7.272758    44.660756  0.030257965  0.033784257       -1e+20 
  124000    1.1627753    -7.218844    45.154019  0.030345443  0.033764254            2 
  125000    1.2183356    -7.230335     45.51116  0.030340773  0.033741261            1 
  126000    1.1923797   -7.2147114     45.74526  0.030254802  0.033716231            1 
  127000    1.1957662   -7.2299454    46.122778   0.03026429  0.033688925            2 
  128000    1.1966571   -7.2557229    46.685491  0.030394199  0.033669949            1 
  129000     1.209212   -7.2388562     47.13405  0.030448353  0.033649207            2 
  130000    1.1962809   -7.2269383    47.301624  0.030321554  0.033628258            2 
  131000    1.1931675   -7.1918505    47.642022   0.03030663  0.033602277            1 
  132000    1.2335213   -7.2118583    48.025905  0.030319384  0.033577674            1 
  133000     1.188324   -7.2379342    48.459575  0.030363142   0.03355489            1 
  134000    1.1779383     -7.23373    48.898279  0.030409377  0.033535343            1 
  135000    1.2049372   -7.1927114    49.403356  0.030495899  0.033517915            2 
  136000    1.2236896   -7.2261653    49.670073  0.030435093  0.033501149            2 
  137000    1.2093619   -7.2059449    50.095696  0.030471834  0.033482698            1 
  138000    1.1760404   -7.1941698    50.357256  0.030408971   0.03346098            4 
  139000    1.1967499   -7.1950046    50.802062  0.030456872   0.03344157            2 
  140000    1.1966536   -7.2567558    50.982031  0.030346447  0.033417767            3 
  141000    1.2093228   -7.2356654    51.296716  0.030317208  0.033393819            1 
  142000    1.2379274    -7.231598    52.009255  0.030521863  0.033374041            1 
  143000     1.206006   -7.2342932    52.331377   0.03049614  0.033356328            1 
  144000    1.1834288   -7.2184265    52.960254  0.030648295  0.033343509            1 
  145000    1.1977686   -7.1715988    53.237257  0.030596124  0.033332471            2 
  146000    1.2129346   -7.2596086    53.385708  0.030471294  0.033318436            1 
  147000    1.1966085    -7.190109    53.879374  0.030543863   0.03329773            3 
  148000    1.1780294   -7.2271631    54.270704  0.030557829   0.03328163            1 
  149000    1.2003187   -7.2274738    54.743422  0.030617126  0.033270621            1 
  150000    1.1847443   -7.2139468     55.43718  0.030798433  0.033259164            3 
  151000    1.1895759   -7.2157158    55.842997  0.030818431  0.033250993            1 
  152000    1.2079198    -7.196692    56.273795  0.030851861  0.033243984            1 
  153000    1.1949802   -7.2462469    56.410684  0.030724773  0.033235023            3 
  154000    1.2053164   -7.2781402    56.495474  0.030571144  0.033225723            2 
  155000    1.1859002   -7.2311174     57.09016  0.030693634    0.0332137            1 
  156000    1.2175643   -7.2745254     57.28339  0.030600101  0.033200561            1 
  157000    1.1885735   -7.1663313    57.980269  0.030775089  0.033188292            4 
  158000    1.1830287   -7.2307092    58.096904  0.030641827  0.033177859            1 
  159000     1.184519    -7.250152    58.685564  0.030757633   0.03316415            4 
  160000    1.1868214   -7.2413665    58.988644  0.030723252   0.03315262            1 
  161000    1.2046022    -7.241415    59.137741  0.030609597   0.03314119            2 
  162000    1.1869827   -7.2935109    59.607948  0.030662525  0.033127405            1 
  163000     1.199089   -7.2508444    59.922221  0.030635082  0.033113256            1 
  164000    1.1702241   -7.2634283    60.181813   0.03058019  0.033097107            1 
  165000    1.1940884   -7.2461177    60.450885   0.03053075  0.033079526            3 
  166000    1.1954109   -7.2449866    60.986593  0.030615759  0.033060747            3 
  167000    1.1921621   -7.2493474    61.383626  0.030630552  0.033041794            2 
  168000    1.1788872   -7.2669347    61.893682  0.030701231  0.033028701            3 
  169000    1.2110848   -7.2675442     62.28465  0.030712352  0.033016443            2 
  170000    1.2113773   -7.2093541    62.817098  0.030792695  0.033005825            2 
  171000    1.1934315   -7.2235318    63.225698  0.030811744     0.032996            2 
  172000     1.202217   -7.2341512    63.414329  0.030723996  0.032983321            2 
  173000     1.190218   -7.2250189    63.808574  0.030736307   0.03297154            2 
  174000    1.1921394   -7.2601186    64.124551  0.030710992  0.032959232            1 
  175000    1.1972974   -7.2841743    64.114424  0.030530678  0.032944149            1 
  176000    1.1839564   -7.2788851      64.4006  0.030492708  0.032925929            1 
  177000    1.1885958   -7.2120186     65.14794  0.030672288   0.03291091            3 
  178000    1.1830957   -7.2658529    65.473071  0.030652186  0.032894556            2 
  179000    1.1906585   -7.2407359    65.848028  0.030655506  0.032880577            1 
  180000     1.189915   -7.2371008    66.272695  0.030681803  0.032868789            3 
  181000    1.1719131   -7.2357706    66.697767  0.030707996  0.032856401            1 
  182000    1.1726887   -7.2167692    66.963454  0.030660922  0.032841072            3 
  183000    1.1655961   -7.2480141    67.024824  0.030521322  0.032825156            1 
  184000     1.168886   -7.2733241    67.365432  0.030509706   0.03280835            4 
  185000    1.1891149    -7.257387    67.873938  0.030573846  0.032790603            3 
  186000    1.1884782   -7.2725111    68.138768  0.030528122  0.032773405            2 
  187000    1.1930167   -7.2977853    68.025609  0.030314443  0.032752976            2 
  188000    1.1925657   -7.2992024    68.504424  0.030365436  0.032730808            3 
  189000    1.1663382   -7.2926184     68.96094  0.030406058  0.032707314       -1e+20 
  190000    1.1582072    -7.249042    69.605613  0.030528777  0.032686576            5 
  191000    1.1963062   -7.2905258    69.718547  0.030418214  0.032667453            2 
  192000    1.1748178   -7.2821189    70.128167  0.030437573  0.032647841            3 
  193000     1.173212   -7.2502695     70.37956  0.030388411  0.032626269            2 
  194000    1.1621181   -7.2734853     70.96218  0.030482036  0.032605186            1 
  195000    1.1763661   -7.2783645    71.026368  0.030353149  0.032585282            1 
  196000    1.1553957   -7.2581255    71.339455  0.030331401  0.032561908            1 
  197000    1.1755154   -7.2396055    71.398994   0.03020262  0.032537241            3 
  198000    1.1627167   -7.3068375    71.677345  0.030167233  0.032511601            1 
  199000     1.159616   -7.2506011    72.368007   0.03030486  0.032486684            1 
  200000    1.1547381   -7.2816202    72.438609  0.030182754  0.032462306            1 
  201000     1.175868    -7.278232    72.631847  0.030112706  0.032437313            2 
  202000     1.174218   -7.2527488    73.209497  0.030201938  0.032411078            3 
  203000    1.1884772   -7.2958304    73.591496  0.030209974  0.032384467            2 
  204000    1.1489058   -7.2579112    73.778086  0.030138107  0.032358283            2 
  205000    1.1842766   -7.2710861    74.600613  0.030325452  0.032334393            5 
  206000     1.157019    -7.289533    74.202241  0.030017088  0.032308645            2 
  207000    1.1502575   -7.2677343    74.923287  0.030162354  0.032283271            3 
  208000    1.1867577   -7.2387581    75.343433   0.03018567  0.032259573            3 
  209000    1.1669809   -7.2691261    75.895727  0.030261454  0.032237364            2 
  210000       1.1572    -7.298131     76.19064  0.030234381  0.032216842            1 
  211000    1.1411902   -7.2978519    76.432187  0.030186488  0.032196304            3 
  212000    1.1798835   -7.3164016    76.791958  0.030185518  0.032176409            2 
  213000    1.1535743   -7.2787684    77.274685  0.030232662  0.032156393            2 
  214000     1.173313   -7.3046009    77.681875  0.030249951  0.032137207            2 
  215000    1.1915646   -7.3207402    78.137386  0.030285808  0.032118653            2 
  216000    1.1551279    -7.299618    78.244152  0.030186787  0.032098241            2 
  217000    1.1695549    -7.263956    78.800442  0.030261306  0.032079434            2 
  218000    1.1466688   -7.2654418    78.886722  0.030155475  0.032059832            2 
  219000    1.1815398   -7.2759955      79.4042  0.030214688  0.032038404            3 
  220000    1.1543457   -7.2548394    79.467021  0.030101144  0.032018211            1 
  221000    1.1626368   -7.2925299    79.613681  0.030020241  0.031995532            3 
  222000    1.1409286   -7.3329408    79.708626  0.029920655  0.031971686            2 
  223000    1.1981061   -7.3360957    80.117728   0.02993936  0.031947277            1 
  224000    1.1796752   -7.2801909    80.949057  0.030114976  0.031924045            1 
  225000    1.1820141   -7.2857957    81.026348  0.030009758   0.03190267            3 
  226000      1.19395   -7.3340967    81.270822  0.029967117  0.031881957            1 
  227000    1.1680895   -7.2705834    82.151024  0.030158232  0.031860984            1 
  228000    1.1381889   -7.2818519    82.276369  0.030071772  0.031842577            2 
  229000    1.1571761   -7.2229176    82.739437  0.030108965  0.031821339            2 
  230000    1.1704876   -7.2739268    82.866264  0.030024009  0.031800339            2 
  231000    1.1550955   -7.3159651    83.240983  0.030029215  0.031780106            1 
  232000    1.1335549   -7.2964467    83.870842  0.030126021  0.031761972            1 
  233000    1.1478884    -7.285977    84.388657  0.030181923  0.031741747            2 
  234000    1.1807162   -7.2960872    84.302903  0.030022401  0.031723334            3 
  235000    1.1534586   -7.2905183    84.709241  0.030038738  0.031704066            2 
  236000    1.1821073   -7.3240362    84.903168  0.029979932  0.031683339            1 
  237000    1.1553093   -7.3014313    85.280143  0.029985986  0.031661611            1 
  238000    1.1651356   -7.3361547    85.221711  0.029839535   0.03163964            1 
  239000    1.1729026    -7.321593    85.668493  0.029870465  0.031617737            1 
  240000    1.1555629   -7.3000424    86.132587  0.029907148  0.031597417            1 
  241000    1.1671798   -7.3160927    86.447252  0.029891858  0.031577953            3 
  242000    1.1539894   -7.2988571    86.934492   0.02993612  0.031558674            2 
  243000    1.1618927   -7.3082804    87.330171  0.029948618  0.031539073            3 
  244000    1.1328779   -7.3311012    87.754273  0.029970722  0.031520476            2 
  245000    1.1616318   -7.3368307    87.866972  0.029886725  0.031501243            1 
  246000    1.1473877   -7.3146228    88.056845  0.029829554  0.031482973            3 
  247000    1.1495946   -7.2810236     88.58543  0.029887122   0.03146357            2 
  248000     1.170913   -7.2622598    89.076209  0.029931522  0.031444091            1 
  249000    1.1523464   -7.3211366    88.817595  0.029724764  0.031423765            1 
  250000    1.1524528   -7.3163013    89.429044  0.029809681  0.031402528            1 
  251000    1.1326202   -7.2965757    89.818414  0.029820191  0.031380961            5 
  252000    1.1609319    -7.348102    89.656737  0.029648392  0.031360434            1 
  253000    1.1620925   -7.3317838    90.048903  0.029660377  0.031338629            1 
  254000    1.1378203   -7.3252831    90.567031  0.029713593  0.031318066            1 
  255000    1.1497457   -7.3070735    91.026307  0.029747159  0.031297163            2 
  256000    1.1403945   -7.3369321    90.908956  0.029592759  0.031275833            3 
  257000      1.15371   -7.3315915    91.451577  0.029653559  0.031253602            2 
  258000    1.1677238   -7.3862275    91.784497  0.029646155  0.031232627            3 
  259000    1.1693907   -7.3197635    92.323303  0.029705053  0.031211829            1 
  260000    1.1313554   -7.3533054    92.435822  0.029626866  0.031191222            1 
  261000    1.1544676   -7.3532359    92.780734  0.029623478  0.031170711            1 
  262000    1.1455063   -7.3575591    92.909793  0.029551461  0.031149241            1 
  263000    1.1671648   -7.3438526    93.168405  0.029521041  0.031127908            1 
  264000    1.1549064   -7.3273231    93.735166  0.029588121  0.031107014            1 
  265000    1.1358183   -7.3415971    94.109475  0.029594174  0.031087335            3 
  266000    1.1556312   -7.3387669    94.412062  0.029577714  0.031067392            1 
  267000    1.1623941   -7.3366686    94.648261  0.029540656  0.031046428            3 
  268000    1.1403178   -7.3178455    94.746335  0.029460925  0.031024811            3 
  269000    1.1736081   -7.3497357    95.104384  0.029462325  0.031003404            1 
  270000    1.1710894   -7.3663787    95.513699  0.029479537  0.030982474            2 
  271000    1.1365236   -7.3408183    95.710726  0.029431343  0.030960391            1 
  272000    1.1485246   -7.3102196    96.435239   0.02954511  0.030940622            1 
  273000    1.1703931   -7.3477163    96.343171  0.029408782  0.030919503            2 
  274000    1.1408997   -7.3250439    96.544367  0.029362642  0.030897339            3 
  275000     1.159974   -7.3742734    96.608752  0.029275379  0.030875565            1 
  276000    1.1391506   -7.3658848    97.236561  0.029358865  0.030853834            3 
  277000    1.1403752    -7.302962    97.661987  0.029380863  0.030831082            2 
  278000    1.1448468   -7.3702013    97.294202  0.029164928  0.030808912            1 
  279000    1.1295516   -7.3415749    98.093635  0.029299174  0.030787041            2 
  280000    1.1386333   -7.3672793    98.648121   0.02935956  0.030765192            2 
  281000    1.1271837   -7.3629581    98.930106  0.029338703  0.030744317            3 
  282000    1.1337633   -7.3280573    99.396409  0.029372461  0.030724561            1 
  283000    1.1541676   -7.3803504    99.055004   0.02916814  0.030702994            2 
  284000    1.1238785   -7.3872381     99.49783  0.029195373  0.030680139            2 
  285000    1.1556063   -7.3836122    99.630704  0.029131785  0.030656392            1 
  286000    1.1206443    -7.376818    99.521506  0.028998108  0.030631888            2 
  287000     1.122996   -7.3394519    100.35275  0.029138428  0.030606801            1 
  288000    1.1296323   -7.3345546    100.64275  0.029121167  0.030582281            1 
  289000    1.1346758   -7.3724097    100.33057  0.028930384  0.030557527            1 
  290000    1.1636016   -7.3629785    100.82692  0.028973253  0.030532354            2 
  291000    1.1433112   -7.3621425    101.23569  0.028990749  0.030507683            1 
  292000    1.1318371   -7.3379227    101.45676  0.028954556  0.030483538            2 
  293000     1.141399   -7.3471054     101.6726  0.028917122  0.030458623            2 
  294000    1.1184386   -7.3865788    101.86526  0.028873374  0.030432858            1 
  295000    1.1389681   -7.3710298    102.16477  0.028860103   0.03040721            2 
  296000    1.1320509   -7.3994382    102.34243  0.028812621  0.030380847            1 
  297000    1.1409968   -7.3726597    102.37467  0.028724655  0.030354375            2 
  298000    1.1312312   -7.3236908    103.77546  0.029019983  0.030329931            1 
  299000     1.121403   -7.3553707    103.09585  0.028733514  0.030305337            1 
  300000    1.1456188   -7.3893343    103.41814   0.02872726  0.030279494            1 
  301000    1.0990254   -7.3461932    103.95981  0.028781786  0.030253587            1 
  302000     1.130742   -7.3962517    104.03544  0.028707352  0.030228993            2 
  303000    1.1281189   -7.4236672    104.14533   0.02864283  0.030203585            1 
  304000    1.1152275   -7.3714585    105.01405  0.028786746  0.030178631            1 
  305000    1.1324641   -7.3792634    105.29939  0.028770326  0.030154537            2 
  306000    1.1145808   -7.4030121     105.6028  0.028758933   0.03013163            2 
  307000    1.1365162   -7.3413925     106.2434  0.028839143  0.030109441            2 
  308000    1.1261974   -7.3775949    106.65778  0.028857624  0.030088812            1 
  309000    1.1235212   -7.3151129    107.25159  0.028924376  0.030069131            1 
  310000    1.1199904   -7.3498403    107.48623  0.028894149  0.030048798            5 
  311000    1.1075206    -7.380571     107.8101  0.028888022  0.030029203            2 
  312000    1.1309698   -7.3620471    108.42316  0.028959177  0.030009901            4 
  313000    1.1365776   -7.3925764     107.9872  0.028750585  0.029990315            1 
  314000    1.1312272   -7.3349137    108.54778  0.028807798  0.029969548            3 
  315000    1.1245658   -7.3922957    108.38673  0.028673737  0.029947678            1 
  316000    1.1203813   -7.3916543    108.70081  0.028665826   0.02992527            2 
  317000    1.1125938   -7.4067598    108.93239  0.028636276  0.029902727            1 
  318000    1.1290434   -7.3608556    109.73041  0.028755348  0.029881391            1 
  319000    1.0983609   -7.3745577    109.99319  0.028733854   0.02986167            2 
  320000    1.1470246   -7.4007124    110.20792   0.02869998  0.029841346            1 
  321000    1.1268315   -7.4191296    110.56299  0.028702749  0.029820778            2 
  322000    1.1168313   -7.3670228    110.91865  0.028705654  0.029800842            3 
  323000    1.0988377    -7.404181    110.60649  0.028536245   0.02978089            5 
  324000    1.1322531   -7.4227692    111.22586  0.028607475  0.029760038            4 
  325000     1.132968   -7.3851215    111.37776  0.028558401  0.029739032            1 
  326000    1.1293077   -7.3790376    111.76477  0.028569727  0.029718276            2 
  327000    1.1299534   -7.3897408    111.90133  0.028517158  0.029697799            2 
  328000    1.0955108   -7.3678964    112.40893  0.028559179  0.029677559       -1e+20 
  329000    1.1062837    -7.399277    112.31885  0.028449558  0.029656225            1 
  330000    1.1369415   -7.3842744    112.51345  0.028412487  0.029634044            3 
  331000     1.135202   -7.4237954    112.41767  0.028302535  0.029611255            1 
  332000     1.122052   -7.4076044    112.41697  0.028217112  0.029587415            1 
  333000    1.1262291   -7.3885299    113.07091  0.028296024  0.029562195            3 
  334000    1.1142925   -7.3980946    112.81021   0.02814626  0.029537176            2 
  335000    1.1309055   -7.4368941    113.36307  0.028199769  0.029512878            2 
  336000    1.1094683   -7.4019654    113.56276  0.028165368  0.029489689            2 
  337000    1.1158986   -7.4217813    113.50302  0.028067019  0.029465242            1 
  338000    1.1268209   -7.4080746    114.75523  0.028292709  0.029441573            1 
  339000    1.1277942   -7.4299419    114.26101  0.028087759  0.029418274            1 
  340000    1.0991251   -7.4420107     114.8239  0.028143113  0.029395759            3 
  341000    1.1361251   -7.4405849    115.17282   0.02814585  0.029373458            2 
  342000    1.1284461   -7.4614392    115.37974  0.028113972  0.029351712            1 
  343000    1.1255662   -7.4440178    115.92142  0.028163611  0.029329884            1 
  344000    1.1125103   -7.4026147    116.85696  0.028308372  0.029308701            1 
  345000    1.1167754   -7.4043636     116.7486  0.028200144  0.029287085            2 
  346000    1.1221705   -7.3884302    117.26521  0.028243065  0.029265622            1 
  347000    1.1167138   -7.4125593    117.31296  0.028173142  0.029244729            2 
  348000    1.1159502   -7.4143809    118.18281  0.028300482   0.02922475            4 
  349000     1.114817   -7.4271898    117.67104  0.028097192  0.029204518            2 
  350000    1.1180542   -7.4060481    118.36336  0.028181751  0.029183645            2 
  351000    1.1003164   -7.4069599    118.53483  0.028142172  0.029163509            2 
  352000    1.0919343   -7.4423178    118.63208  0.028085247  0.029142826            1 
  353000    1.1043965    -7.422401    119.05508  0.028105544  0.029122117            6 
  354000    1.1312855   -7.4662693    118.89247   0.02798787  0.029100988            1 
  355000    1.1106062   -7.4097552    119.87546  0.028139778  0.029080546            1 
  356000     1.107479   -7.4143688    120.19223  0.028134884   0.02906047            2 
  357000    1.1386949   -7.4085373    120.10662  0.028036093  0.029040941            1 
  358000    1.1056141    -7.424289    120.83673   0.02812773   0.02902119            3 
  359000    1.0755665   -7.4262397    121.18704  0.028130696  0.029001481            4 
  360000    1.1002776   -7.3964664    121.34316  0.028088696   0.02898302            2 
  361000    1.1314905   -7.4273759    121.12381  0.027960251  0.028963178            2 
  362000    1.1089734   -7.4339137     121.2878  0.027920765  0.028942313            3 
  363000    1.1100947   -7.4562899    121.86276   0.02797584  0.028921565            3 
  364000    1.0906872   -7.4268333    121.63746  0.027847405  0.028901247            3 
  365000     1.120487   -7.4607603    122.32886  0.027928963  0.028880123            1 
  366000    1.0905444   -7.4424304    122.52399  0.027897084  0.028858777            2 
  367000    1.1170964   -7.4588682    122.35791  0.027783358  0.028838434            1 
  368000    1.1129225   -7.4019379    122.99958  0.027853165  0.028818088            3 
  369000    1.1154217   -7.4142937    123.66251  0.027927396  0.028798514            1 
  370000    1.1085019   -7.4417596    123.62513  0.027843498  0.028778789            4 
  371000    1.0988879   -7.4796373    123.76441  0.027799733   0.02875943            2 
  372000    1.1105948   -7.4296062    124.34697  0.027855504  0.028739813            1 
  373000    1.1147887    -7.432392    124.29065  0.027768243  0.028720012            2 
  374000    1.1104235   -7.4351841    124.44868  0.027729206   0.02870038            4 
  375000    1.0962055   -7.3988396    124.52311  0.027671802  0.028680068            1 
  376000    1.1013021   -7.4564208    124.53064  0.027599877  0.028658736            2 
  377000    1.0975896   -7.4668818    125.10812  0.027654315  0.028637325            2 
  378000    1.0835767   -7.4366566    125.21657  0.027605063  0.028616018            1 
  379000    1.0851993   -7.4299192    125.65468  0.027628557  0.028594925            1 
  380000    1.1229043   -7.4553886     125.8691  0.027602874  0.028574478            1 
  381000    1.0857808   -7.4316147    126.27498    0.0276192  0.028552916            2 
  382000    1.1034688   -7.4399209    126.34189  0.027561495  0.028532095            1 
  383000    1.1039599   -7.4480615    126.51379  0.027526934  0.028511462            1 
  384000     1.107213   -7.4550537    126.80033  0.027517432  0.028490638            1 
  385000    1.0949686   -7.4487453    126.82419  0.027451124  0.028469791            1 
  386000      1.10774   -7.4426821    127.35537  0.027494683  0.028448587            2 
  387000    1.0919002   -7.4768005    126.90381  0.027326401  0.028426653            2 
  388000    1.1059176     -7.45615     127.5571  0.027396284  0.028404522            2 
  389000     1.098077   -7.4867111    127.43758  0.027300254  0.028382092            3 
  390000    1.0867045   -7.4172002    128.02136  0.027354992  0.028359327            2 
  391000    1.0975496   -7.4576981    128.12724  0.027307596  0.028337416            2 
  392000    1.0969633   -7.4583326     128.7738  0.027375383  0.028316264            2 
  393000    1.0900295   -7.4183975    128.99957  0.027353598  0.028294953            1 
  394000    1.1049024   -7.4603667    129.21876  0.027330532  0.028273777            1 
  395000    1.1169661   -7.4235417    129.88863  0.027402664  0.028252907            1 
  396000    1.1015097   -7.4341082    129.73422  0.027300973  0.028231958            1 
  397000    1.1107127   -7.4768735    129.98527    0.0272849  0.028211376            1 
  398000    1.0770633   -7.4873522    129.58223  0.027131958  0.028189785            2 
  399000    1.0977375   -7.4801462    129.63626  0.027075243  0.028168063            2 
  400000    1.0754463   -7.4422355    130.57625  0.027203385  0.028145946            2 
  401000    1.0819543   -7.4514692    130.87836  0.027198329  0.028123827            2 
  402000    1.0736743   -7.4348973    131.03704  0.027163566  0.028102609            2 
  403000    1.0976832   -7.4711982    131.67386  0.027227845  0.028082268            2 
  404000    1.0932042   -7.4724554    131.78254  0.027182866  0.028062065            4 
  405000    1.0796707   -7.4413198    132.27742  0.027217576  0.028041673            2 
  406000    1.0736448   -7.4888041    132.47467  0.027191025  0.028021854            1 
  407000    1.0836275   -7.4607485    132.90785  0.027212908  0.028001898            1 
  408000    1.0747494   -7.4683118    132.69637  0.027103016  0.027980997            3 
  409000    1.0823668   -7.4804464    132.73526  0.027044675  0.027959791            1 
  410000    1.0925045   -7.5001607    132.63597  0.026958531  0.027938141            3 
  411000     1.096045   -7.4432096    133.59012  0.027086399   0.02791667            5 
  412000    1.0773301   -7.4756071    133.31555   0.02696512  0.027895168            1 
  413000    1.0888963    -7.485875    133.55901  0.026948952  0.027873651            2 
  414000    1.0922744   -7.4887149    133.56491  0.026885047  0.027852142            1 
  415000     1.090859   -7.5038896    133.72169  0.026851745  0.027829864            1 
  416000     1.057832   -7.4927433    134.17874  0.026878755  0.027808301            2 
  417000    1.0969926   -7.4245647    134.70959  0.026920381  0.027786016            2 
  418000    1.0548319   -7.4812056    134.30683  0.026775685  0.027763927            1 
  419000    1.0921167   -7.5089523    134.35021  0.026720408  0.027740945            4 
  420000    1.0862482   -7.4796731    134.95686  0.026777155   0.02771809            2 
  421000    1.0931774   -7.4831585    135.43743  0.026808677  0.027695793            2 
  422000    1.0825773   -7.4803426    135.79336  0.026815434  0.027674154            1 
  423000    1.1004776   -7.4881812    135.75895  0.026745261  0.027652465            2 
  424000    1.0877436   -7.4686493    136.19807  0.026768488  0.027630731            1 
  425000    1.0930587   -7.4607194    136.25477  0.026716622  0.027609012            1 
  426000    1.0626466    -7.496413    136.49331   0.02670057  0.027587375            2 
  427000    1.0673822   -7.4728103    137.17994  0.026772041   0.02756596            5 
  428000    1.0847109   -7.4676726    137.45073  0.026762214  0.027545655            1 
  429000    1.0789262   -7.4574944    137.11741  0.026635083  0.027524689            3 
  430000    1.1060726   -7.4935627    137.52983  0.026653067  0.027503436            1 
  431000    1.0914117   -7.5318317    137.86913   0.02665683  0.027482867            1 
  432000    1.0761654   -7.4831147    138.33608  0.026685201  0.027461907            2 
  433000    1.0694438   -7.5062544    138.64929  0.026683851  0.027441188            3 
  434000    1.0703882   -7.4809167    138.88376  0.026667389  0.027420327            1 
  435000    1.0665869   -7.4397011    139.41943  0.026708703  0.027400291            1 
  436000    1.0807177   -7.5024081    139.13763  0.026593583  0.027379973            1 
  437000    1.0594398   -7.5076848    139.61681  0.026624105  0.027360022            1 
  438000    1.0646989   -7.4950609    140.30269  0.026693814  0.027339918            3 
  439000    1.0725317   -7.4799954     139.7419  0.026526556  0.027319563            1 
  440000    1.0803134   -7.5159268     140.2328  0.026559243  0.027298928            1 
  441000     1.060116    -7.513588    140.41675  0.026533777  0.027278513            1 
  442000    1.0699695   -7.4735707    141.01782  0.026587071  0.027258632            2 
  443000    1.0801837   -7.5330583    140.69486  0.026466301   0.02723902            1 
  444000    1.0756421    -7.520201    140.80411  0.026427197  0.027219082            2 
  445000    1.0934452    -7.532991    141.47192  0.026492869  0.027199064            1 
  446000    1.0833256   -7.4952187    141.77997  0.026491025  0.027178769            2 
  447000    1.0467254   -7.5054466    141.96643  0.026466523  0.027158036            2 
  448000    1.0596827   -7.4642846    142.00193   0.02641405  0.027138367            1 
  449000    1.0787005   -7.5214235    142.32964  0.026416042  0.027118577            3 
  450000    1.0530767    -7.536399    142.27621  0.026347447  0.027098904            3 
  451000    1.0722269   -7.5008524    143.14826  0.026450159  0.027079368            1 
  452000    1.0764603   -7.5122267    143.55301  0.026466262  0.027060063            2 
  453000    1.0887557   -7.4642258    143.33741  0.026368177  0.027041483            2 
  454000    1.0640341   -7.5041265    143.95494  0.026423447  0.027022543            2 
  455000     1.074847   -7.5322159    143.32756  0.026250469   0.02700307            1 
  456000     1.073092   -7.5123388    144.26115  0.026363514  0.026982741            1 
  457000    1.0842114   -7.5005959    144.16534  0.026288356  0.026962692            1 
  458000    1.0875352   -7.5570506     143.1029  0.026037646  0.026941876            3 
  459000    1.0875823   -7.5531597    143.95895  0.026136338  0.026920768            4 
  460000    1.0394855   -7.5165131    144.89986  0.026249974  0.026900533            1 
  461000    1.0792408   -7.5202348    144.88366  0.026190105  0.026880582            2 
  462000    1.0550966   -7.5275138    144.70996  0.026102086  0.026860585            1 
  463000    1.0665409   -7.5286759    145.74581  0.026232146  0.026841002            1 
  464000    1.0454847   -7.5379005    145.85956  0.026196041  0.026821537            2 
  465000    1.0756585    -7.530584    145.76841   0.02612337  0.026802013            1 
  466000    1.0674807   -7.5503477    145.74891  0.026063825  0.026782188            1 
  467000    1.0534191   -7.5128593    146.54208   0.02614955  0.026762668            1 
  468000    1.0700304   -7.5137459    146.85404  0.026149224   0.02674282            2 
  469000    1.0578889   -7.5255565    146.40077   0.02601293  0.026723205            4 
  470000    1.0641207   -7.5368583    146.98304  0.026060823  0.026703617            2 
  471000    1.0788594   -7.5474427    147.13243  0.026031924  0.026683139            1 
  472000    1.0660136   -7.5111674    147.48095  0.026038303  0.026663311            1 
  473000    1.0659598   -7.5755918    146.99208  0.025897124  0.026643297            1 
  474000    1.0530283   -7.5320895    147.51304  0.025934078   0.02662292            2 
  475000    1.0707287   -7.5151601    147.79778  0.025929436   0.02660253            1 
  476000    1.0850907   -7.5140285    148.37477  0.025975976  0.026582043            2 
  477000    1.0772432   -7.5680577    147.97395  0.025851494  0.026561689            1 
  478000    1.0713799   -7.5482412    148.33646  0.025860611  0.026541606            2 
  479000    1.0583361   -7.5873626    148.25193  0.025791916  0.026521484            2 
  480000    1.0614082    -7.531766    148.76655  0.025827527  0.026501364            2 
  481000    1.0561448    -7.568085    148.93977  0.025803842  0.026481148            2 
  482000    1.0904306   -7.5402718    149.36417  0.025823681  0.026460895            2 
  483000    1.0799004   -7.5274405    149.75712  0.025838013  0.026440608            1 
  484000    1.0366785   -7.5499018    149.66869  0.025769402  0.026420873            4 
  485000    1.0770666   -7.5543257    150.32664   0.02582932  0.026401244            1 
  486000    1.0692803   -7.5229675    150.87635   0.02587043  0.026381841            2 
  487000    1.0364143   -7.5082141    151.15706  0.025865343  0.026363446            2 
  488000    1.0548146   -7.5003908    151.39871  0.025853605  0.026345043            2 
  489000    1.0518884   -7.5761506    151.47781  0.025814214  0.026326632            1 
  490000    1.0422302   -7.5238813    151.94703  0.025841331  0.026308313            3 
  491000    1.0613455   -7.5271037    151.91419  0.025783128  0.026290032            1 
  492000    1.0740435   -7.5674219    151.86373  0.025722176   0.02627155            1 
  493000    1.0510548   -7.5194657    152.64249  0.025801637  0.026253374            2 
  494000    1.0562131   -7.5536361    152.89184  0.025791472  0.026235589            2 
  495000    1.0556346   -7.5649825     152.7974  0.025723467  0.026217693            2 
  496000     1.067775   -7.5846991    152.79222  0.025670735  0.026199288            1 
  497000    1.0654666   -7.5721975    152.84772  0.025628391  0.026180839            4 
  498000    1.0420173   -7.6015335    153.00868  0.025603862  0.026162454            4 
  499000    1.0445825   -7.5917159    153.14293  0.025574971  0.026143886            2 
  500000    1.0559867   -7.5494247    154.39692   0.02573282  0.026125616            2 
  501000    1.0567198   -7.5506478    154.20615  0.025649725   0.02610771            2 
  502000    1.0317559   -7.5513043    154.62291  0.025667813    0.0260902            1 
  503000    1.0377967   -7.5972233    154.72584  0.025633837  0.026072694            1 
  504000    1.0382944   -7.5861195    154.96739  0.025622914  0.026054782            1 
  505000    1.0537559   -7.5461002    155.36499  0.025637787  0.026036942            2 
  506000     1.049929   -7.5632303    155.65267  0.025634498  0.026019055            2 
  507000    1.0450238   -7.5539179    155.55871  0.025568492  0.026000867            3 
  508000    1.0560611   -7.6092292    155.44957  0.025500257  0.025982557            1 
  509000    1.0373824   -7.5946304    155.65576  0.025483916  0.025964309            3 
  510000    1.0400509   -7.5983382    155.45861  0.025401734  0.025946041            2 
  511000     1.049788   -7.5811516    156.54291   0.02552885  0.025927646            3 
  512000    1.0753021   -7.5670396    156.65542  0.025497302  0.025909462            1 
  513000    1.0306837   -7.5741154    156.49212  0.025421072  0.025891196            2 
  514000     1.083376    -7.571417    156.75026  0.025413467   0.02587282            6 
  515000    1.0462215   -7.6214061    157.04258  0.025411421  0.025854678            2 
  516000    1.0757928    -7.569654    156.83748  0.025329051  0.025836291            3 
  517000    1.0454493   -7.6099283    157.35159  0.025362926  0.025817822            1 
  518000    1.0356917   -7.5880702    157.60905  0.025355381  0.025799387            3 
  519000     1.052805   -7.6079198    157.56292  0.025299119  0.025780813            1 
  520000    1.0477509   -7.5606028    157.60051  0.025256493  0.025762543            1 
  521000    1.0422528   -7.6133518    157.71366  0.025226113  0.025744154            2 
  522000    1.0485917   -7.5867793    158.64105  0.025325839  0.025726149            2 
  523000    1.0416636   -7.6198513    158.52734  0.025259295  0.025708191            2 
  524000    1.0303993   -7.5632777    158.87174  0.025265863  0.025690605            3 
  525000    1.0550506   -7.5776168    159.05424  0.025246705  0.025672748            1 
  526000    1.0310554    -7.572612    159.52018  0.025272525  0.025654992            1 
  527000    1.0299121   -7.5338058    160.01437  0.025302715  0.025637913            1 
  528000     1.029593   -7.5926803    160.00061  0.025252621    0.0256205            1 
  529000    1.0586801   -7.5631366    160.44066  0.025274205  0.025602944            3 
  530000    1.0486015   -7.5393282    160.74789  0.025274825  0.025586409            5 
  531000    1.0582035   -7.6036634    160.76105  0.025229292  0.025569152            2 
  532000    1.0171714   -7.5933809     160.8831  0.025200986  0.025551805            1 
  533000    1.0343107   -7.5925983    161.16282  0.025197438  0.025535204            1 
  534000    1.0472911   -7.6107865    161.76232  0.025243808  0.025518263            2 
  535000    1.0467875   -7.5537313    161.86845  0.025213154  0.025500932            2 
  536000    1.0246357   -7.6152098     161.9186  0.025173911  0.025484247            7 
  537000    1.0133628   -7.5925232    162.24022  0.025176942  0.025467389            1 
  538000    1.0373532   -7.5558588    162.11651  0.025110984  0.025450789            4 
  539000    1.0357486    -7.632475    162.19283  0.025076195  0.025433916            2 
  540000    1.0156386   -7.6083588    162.11602  0.025017904  0.025416225            2 
  541000    1.0521041   -7.6134564    162.32395  0.025003689  0.025398366            3 
  542000    1.0156891    -7.593462    162.64904   0.02500754  0.025380467            2 
  543000    1.0392436   -7.6005127    163.04825  0.025022752  0.025363033            3 
  544000    1.0098611   -7.6074373    162.85371  0.024946953  0.025345685            3 
  545000    1.0323173   -7.6379127    163.18579  0.024951956  0.025328235            1 
  546000    1.0153302   -7.5914345    163.72309  0.024988261  0.025310685            5 
  547000    1.0320537   -7.6426427     163.8129  0.024956261  0.025293631            3 
  548000    1.0592674   -7.5727991     164.4378  0.025005749  0.025276626            1 
  549000    1.0598216    -7.619873    164.29056  0.024937851  0.025259261            5 
  550000    1.0268058   -7.5999806    164.52369  0.024927832  0.025241776            3 
  551000    1.0301241   -7.6741605    164.20939  0.024835056  0.025224169            2 
  552000    1.0394194   -7.6125057    164.60105  0.024849193  0.025206283            2 
  553000     1.048029   -7.5902953      164.669  0.024814497  0.025188855            2 
  554000    1.0572536   -7.6150144    164.92849  0.024808738  0.025171407            3 
  555000    1.0543744   -7.6278215    164.90817  0.024760986  0.025153891            1 
  556000    1.0242773   -7.5710175    165.97833  0.024876848  0.025136549            3 
  557000    1.0385551   -7.5904469    165.76907  0.024800878  0.025119171            3 
  558000    1.0410092   -7.5911936    166.13697  0.024811375  0.025101717            2 
  559000    1.0529448   -7.6350786    165.70517   0.02470262  0.025084318            2 
  560000    1.0039344   -7.6205547    165.56125   0.02463709  0.025066305            2 
  561000    1.0451687   -7.6352727    165.59521  0.024598219  0.025048102            4 
  562000    1.0536292   -7.6374732    165.60773  0.024556306  0.025029573            1 
  563000    1.0320055    -7.658433    165.74898  0.024533597  0.025010841            2 
  564000    1.0258917   -7.6172801    165.83034  0.024502119  0.024992051            2 
  565000    1.0089812    -7.628173    166.47158   0.02455333  0.024973302            3 
  566000    1.0258878   -7.6319592    166.43558  0.024504649  0.024954652            4 
  567000    1.0342241   -7.6281411    166.39753  0.024455839  0.024935877            3 
  568000    1.0300237   -7.6105818    166.79974  0.024471793  0.024917077            1 
  569000    1.0212392    -7.624494    166.79581  0.024428209  0.024897998            1 
  570000     1.027676   -7.6439566    166.55803   0.02435059  0.024878803            1 
  571000    1.0204531   -7.6582969    166.71806  0.024331299  0.024859319            6 
  572000    1.0076234   -7.6954002    166.32886   0.02423206  0.024839519            4 
  573000    1.0238289   -7.6289856    167.06351  0.024296613   0.02481965            2 
  574000    1.0245062   -7.6113897    167.04435  0.024251503  0.024799727            1 
  575000    1.0140142   -7.6499186    166.90748  0.024189489  0.024779992            1 
  576000    1.0328778   -7.6420961    167.38012  0.024215874  0.024760087            1 
  577000    1.0297306   -7.6715006    167.35313  0.024170008  0.024739924            2 
  578000    1.0255117    -7.687677    167.49579  0.024148759  0.024720023            2 
  579000    1.0212113   -7.6610468    167.73613  0.024141642  0.024700178            3 
  580000    1.0055453   -7.6159174    168.86566  0.024262307  0.024680893            2 
  581000     1.026501   -7.6358503    168.67681  0.024193461  0.024661895            2 
  582000    1.0377474     -7.62312    168.98439  0.024195931  0.024642874            3 
  583000    1.0187942   -7.6348836    169.23433  0.024190156  0.024624091            2 
  584000    1.0429597   -7.6544284    169.12194  0.024132697  0.024604867            2 
  585000    1.0123235   -7.6360966     169.2419  0.024108532  0.024585402            1 
  586000    1.0327656    -7.647872    169.34497  0.024082049  0.024566248            2 
  587000    1.0115942   -7.6304591    169.78607  0.024103644  0.024547288            2 
  588000    1.0119831   -7.5989495    169.99248  0.024091904  0.024528358            3 
  589000    1.0243413   -7.6360801     169.8143  0.024025792  0.024509007            2 
  590000   0.99373258   -7.6241624     169.8962  0.023996638  0.024489879            3 
  591000    1.0105153   -7.6280716    170.71337  0.024071259  0.024470479            2 
  592000    1.0334736   -7.6129872    170.17909   0.02395539  0.024450903            1 
  593000    1.0086267   -7.6600467    169.87987  0.023872944  0.024431333            1 
  594000    1.0209483   -7.6495603    170.57321  0.023930023  0.024411414            1 
  595000    1.0151655   -7.6785624     170.6515   0.02390077  0.024391601            2 
  596000    1.0103748    -7.620123      170.954  0.023902964  0.024371928            2 
  597000     1.001673   -7.6258546    170.81603  0.023843667  0.024352411            2 
  598000    1.0278613   -7.6568588    171.43622   0.02389022  0.024332955            1 
  599000    1.0211742   -7.6779858    171.19566   0.02381687  0.024313745            1 
  600000     1.002695   -7.6895883    171.64337  0.023839357  0.024294623            2 
  601000    1.0179021   -7.6870385    171.51631  0.023782073  0.024275337            2 
  602000    1.0209665   -7.6807788    171.97258  0.023805728  0.024256552            2 
  603000    1.0117703   -7.6904433    171.99429   0.02376925  0.024237602            2 
  604000    1.0081112   -7.6511836    172.69552  0.023826645  0.024218635            3 
  605000      1.01545    -7.651744    172.75712  0.023795747   0.02419973            2 
  606000    1.0145518   -7.6436914    172.18808  0.023678229  0.024180604            3 
  607000    1.0188643   -7.6444243     173.1109  0.023765911  0.024161469            2 
  608000    1.0267939   -7.7155063     172.4485  0.023636033  0.024142335            2 
  609000    1.0167511   -7.6892926    172.96609  0.023668047  0.024123212            5 
  610000    1.0152899   -7.6693772    173.23954  0.023666604  0.024103957            1 
  611000    1.0063941   -7.6693543    172.88681  0.023579761  0.024084504            2 
  612000    1.0056209   -7.6346169    173.96985  0.023688705  0.024065127            3 
  613000    1.0285831     -7.66711     173.5691  0.023595582  0.024046063            1 
  614000    1.0065946   -7.6739798    173.53261    0.0235522  0.024026844            2 
  615000     1.017229    -7.634558     174.6269  0.023662181  0.024007954            3 
  616000    1.0253291   -7.6507092    174.39076  0.023591824  0.023989399            2 
  617000    0.9891457   -7.6984074     174.4256  0.023558293  0.023970484            1 
  618000    1.0000268   -7.6664611    174.17608  0.023486526  0.023951593            2 
  619000    1.0047644   -7.6569384    174.77129  0.023528715  0.023932679            2 
  620000    1.0207853   -7.6881544    174.96685   0.02351705  0.023914096            2 
  621000    1.0173875   -7.7019595    175.36216  0.023532228  0.023895325            2 
  622000    1.0118545   -7.7110809    174.99648  0.023445402  0.023876709            3 
  623000   0.99508627   -7.6970109    175.62559  0.023491919   0.02385797            2 
  624000     1.024602   -7.7306493    175.08688  0.023382329  0.023839108            2 
  625000    1.0194116   -7.7343897     175.5078   0.02340104  0.023820091            1 
  626000    1.0004635   -7.6698525    176.28186  0.023466701  0.023801116            4 
  627000    1.0121387   -7.6902907    176.01121  0.023393303  0.023782549            2 
  628000    1.0033411   -7.7138239    176.43615   0.02341244  0.023763769            3 
  629000   0.98820641   -7.7084382    176.07837  0.023327817  0.023745193            1 
  630000   0.99407983   -7.6872758    176.64294  0.023365468  0.023726379            6 
  631000   0.98685146   -7.7030093    177.14068  0.023394174  0.023707932            1 
  632000    1.0233112   -7.7081872    176.91523  0.023327429  0.023689365            3 
  633000    1.0086617   -7.7102754    176.85167   0.02328221  0.023670803            2 
  634000   0.99165373   -7.6929922    177.14241  0.023283703  0.023652215            1 
  635000    1.0120612   -7.6962932    177.05127  0.023235074  0.023633413            1 
  636000     1.011066   -7.6768382    177.67374  0.023280103  0.023614639            3 
  637000   0.99425597   -7.7047408    178.23119  0.023316482  0.023596432            1 
  638000    1.0116316   -7.7295648    177.96235  0.023244822  0.023578342            3 
  639000   0.98852012   -7.6948428    178.52171  0.023281392  0.023560313            1 
  640000   0.99579422   -7.7045135    179.27516  0.023343119  0.023542374            1 
  641000   0.99537636   -7.6782976    178.62328  0.023221955  0.023524656            1 
  642000   0.99794025    -7.713359     178.5823  0.023180465  0.023506788            2 
  643000   0.99066373   -7.7135381    178.84798  0.023178846  0.023488839            2 
  644000    1.0016041   -7.6578301    179.63777  0.023245053   0.02347101            2 
  645000    1.0005502   -7.7187234    179.75121  0.023223671  0.023453087            2 
  646000   0.99323938     -7.74679    178.79422   0.02306427  0.023435016            1 
  647000   0.99355568   -7.7037216    179.40704  0.023107553  0.023417061            4 
  648000    1.0061858   -7.7286488    179.62627  0.023100087  0.023398904            3 
  649000   0.99277201   -7.7158447    179.83845  0.023091738  0.023380947            1 
  650000   0.98901768   -7.7643415    179.29625  0.022986699  0.023362475            2 
  651000   0.98608011   -7.7206674    180.11554  0.023056264  0.023344482            1 
  652000    1.0025293   -7.7193133    180.46331  0.023065352  0.023326491            5 
  653000   0.99567983     -7.73506    180.13053  0.022987562  0.023308448            2 
  654000   0.98573767   -7.7286388    180.56291  0.023007507  0.023290489            1 
  655000   0.99148596   -7.7220711     180.7731  0.022999122   0.02327281            1 
  656000    1.0172972   -7.7432073    181.15237  0.023012242  0.023255259            3 
  657000   0.98820004   -7.6860135     182.2622  0.023117986  0.023237975            1 
  658000   0.98215092   -7.7281564    181.79591  0.023023798  0.023221191            2 
  659000   0.98578508   -7.7253959    182.85785  0.023123148  0.023204639            2 
  660000   0.98065015   -7.7225068    181.92221  0.022969975  0.023187868            4 
  661000   0.99069132   -7.7082041     182.9409  0.023063654  0.023171303            3 
  662000   0.99207565   -7.7066262    182.71618  0.023000527  0.023154708            3 
  663000   0.99604337   -7.7829746    182.66411   0.02295929  0.023137971            1 
  664000     1.008843   -7.7068334    182.81048  0.022943082  0.023121332            1 
  665000   0.97759743   -7.7137506    183.86205  0.023040357  0.023104615            6 
  666000   0.98525838   -7.6885302    184.16444  0.023043598  0.023088028            3 
  667000    1.0081415   -7.7157634    182.88703  0.022849455  0.023071596            2 
  668000   0.98280945   -7.7377082    183.61923   0.02290659  0.023054639            2 
  669000   0.96732867   -7.7353059     183.6132  0.022871599  0.023037629            4 
  670000   0.98474213   -7.7875576    183.49235  0.022822432  0.023020525            3 
  671000    0.9855789   -7.7613501    183.81757  0.022828809  0.023003612            2 
  672000   0.97859461   -7.7207939    184.26312  0.022850089  0.022986694            2 
  673000    1.0069484   -7.7431096    184.74811   0.02287619  0.022969474            4 
  674000   0.97703513   -7.6931184    184.14545  0.022767736    0.0229526            2 
  675000   0.97506543   -7.7190268    184.64403  0.022795559  0.022935533            1 
  676000   0.97334449   -7.7188566    185.06429  0.022813645  0.022918549            2 
  677000   0.98426292   -7.7245206    184.99728  0.022771698  0.022901713            2 
  678000    0.9968207   -7.7300521    184.24334  0.022645445   0.02288463            8 
  679000   0.99613007   -7.7419385    185.56894  0.022774785  0.022867845            1 
  680000    1.0063424   -7.7142366    185.17538  0.022693061  0.022851178            3 
  681000   0.96860359   -7.7632188    185.74607  0.022729572  0.022834475            5 
  682000    1.0084285   -7.7080094    185.73838  0.022695306  0.022817717            4 
  683000   0.97421894    -7.760746    185.89829  0.022681587  0.022800935            2 
  684000   0.96761875   -7.7724002    186.09061  0.022671858  0.022784268            1 
  685000   0.98503171   -7.7280905    186.42661  0.022679636  0.022767875            1 
  686000   0.98737783   -7.7469935    186.38517  0.022641541    0.0227515            2 
  687000   0.96874085   -7.7239133    186.99799  0.022682919  0.022735231            2 
  688000   0.95285655     -7.74869    187.08962  0.022661049  0.022719224            2 
  689000     1.012763    -7.775221    187.06969  0.022625749  0.022703097            2 
  690000    0.9591611    -7.787263     186.5542  0.022530701  0.022686712            2 
  691000    0.9739777   -7.7781282    186.57464   0.02250056  0.022670012            2 
  692000   0.97506723   -7.7573802    186.95622  0.022513996  0.022653225            2 
  693000   0.99439234   -7.7996008    187.12373  0.022501651  0.022636382            2 
  694000   0.96648402   -7.7265898    187.58703   0.02252486  0.022619487            2 
  695000   0.97815846   -7.7724947    187.43521  0.022474246  0.022602535            1 
  696000   0.97403258   -7.7549407    187.68722  0.022472128  0.022585861            2 
  697000   0.98222222   -7.7846751    187.64762  0.022435153  0.022569246            1 
  698000    0.9722456   -7.7830158    187.81673    0.0224232  0.022552635            1 
  699000   0.95600312   -7.7764982    187.82016  0.022391531  0.022535783            1 
  700000   0.96370117   -7.8030587    188.02702  0.022384169   0.02251899            1 
  701000   0.94557372   -7.7500901     188.9463   0.02246152  0.022502095            2 
  702000   0.97400805   -7.7768467    188.23626  0.022345235   0.02248553            3 
  703000   0.98763326   -7.7487794    189.07586  0.022412975  0.022468882            2 
  704000   0.94977776   -7.7662127    189.00442  0.022372683  0.022452589            2 
  705000   0.98094533   -7.7330913    189.56606  0.022407335  0.022436279            1 
  706000   0.95915394   -7.7838145    189.06549  0.022316512  0.022419799            2 
  707000   0.95835008   -7.7983984    189.15654  0.022295678  0.022403079            4 
  708000   0.97176294   -7.7484672    189.44902  0.022298614  0.022386865            3 
  709000   0.97602123    -7.779857    189.79287  0.022307577  0.022370686            2 
  710000   0.97263416   -7.7426512    189.58181  0.022251387  0.022354328            2 
  711000   0.96197357   -7.7720013    189.41815  0.022200908  0.022337984            2 
  712000   0.95860977   -7.7506393    190.41924  0.022286897  0.022321697            2 
  713000   0.97403919   -7.7731891    190.27712  0.022239028  0.022305328            4 
  714000   0.95403488   -7.7967379    190.00689  0.022176341  0.022288954            3 
  715000   0.95123035   -7.8182808    190.04322   0.02214956   0.02227236            2 
  716000   0.96411165   -7.8248152    189.97102  0.022110221  0.022255672            2 
  717000   0.96899364   -7.7909001    190.06632   0.02209046  0.022238768            2 
  718000   0.95952467   -7.8016749    190.34374  0.022091891  0.022222126            2 
  719000   0.96654036   -7.7603688    190.84176  0.022118888  0.022205169            4 
  720000   0.97595238   -7.7514971    190.75662  0.022078312  0.022188223            1 
  721000   0.97587144   -7.7750005    190.59649  0.022029182  0.022171302            4 
  722000   0.96029966   -7.8078402    190.12516  0.021944271   0.02215434            3 
  723000    0.9790876   -7.8186138    190.41396  0.021947206  0.022137182            3 
  724000   0.95917833   -7.8014607    190.68515  0.021948106  0.022120037            3 
  725000    0.9700908    -7.834821    191.00457  0.021954548  0.022102858            3 
  726000   0.95122098   -7.8148973    190.90492  0.021912869  0.022085985            2 
  727000   0.96307037   -7.7891252    191.51872  0.021953085  0.022069066            3 
  728000    0.9750431   -7.8004069    191.11448  0.021876657  0.022052262            4 
  729000   0.96134187    -7.823627    191.54368  0.021895711  0.022035348            1 
  730000   0.94834562   -7.7746215    191.61399  0.021873743  0.022018142            3 
  731000   0.99553239   -7.7853126    191.48412  0.021829015  0.022000815            1 
  732000   0.96175558    -7.765599    192.29189  0.021891153  0.021983754            1 
  733000   0.95971874    -7.803435    191.83144  0.021808941   0.02196677            6 
  734000   0.97931585   -7.7925761    192.02983  0.021801752  0.021949393            2 
  735000   0.97029583   -7.8227239    191.78584  0.021744426  0.021932098            3 
  736000   0.94425694   -7.8216561    191.71585  0.021706958  0.021914768            2 
  737000   0.95606819   -7.8097616    192.06858  0.021717389  0.021897393            2 
  738000   0.95811125   -7.7682095    192.70526  0.021759853  0.021879914            3 
  739000   0.94622104    -7.815539    192.03375  0.021654685  0.021862422            4 
  740000   0.93781641   -7.8020064    192.42728  0.021669739  0.021844932            3 
  741000   0.96307709   -7.8096385    192.38787  0.021636063  0.021827601            2 
  742000     0.950499   -7.8199061    192.80965  0.021654273  0.021809953            3 
  743000   0.96452203   -7.8225545    192.74534  0.021617917   0.02179263            4 
  744000    0.9717782   -7.7987469    192.90701  0.021606968  0.021775288            3 
  745000   0.95370721    -7.835715    192.99359   0.02158765  0.021758137            7 
  746000   0.94029766   -7.8102375    193.25143  0.021587515  0.021740843            2 
  747000   0.93417844   -7.8203086    193.05582  0.021536794  0.021723683            3 
  748000   0.96859394   -7.8033322    193.94752  0.021607344  0.021706583            1 
  749000   0.94873139   -7.8082492    193.63665  0.021543909  0.021689209            1 
  750000   0.97370876   -7.7978678    193.83634  0.021537371  0.021672066            2 
  751000   0.93747978   -7.8322689     194.0937   0.02153725  0.021655077            2 
  752000   0.94787166   -7.8302786    194.29338  0.021530738  0.021638072            2 
  753000    0.9689296   -7.8093244    194.22645  0.021494737   0.02162115            4 
  754000   0.96201582    -7.849097    194.58663  0.021506038  0.021603995            4 
  755000   0.95117902   -7.8020387    194.17766  0.021432413  0.021586897            2 
  756000   0.93577099   -7.8550017    194.57006  0.021447316   0.02156976            5 
  757000   0.95027697   -7.8267619    194.40649  0.021400979  0.021552625            1 
  758000   0.94306943   -7.8312239    194.77797  0.021413585  0.021535549            3 
  759000   0.95543727   -7.8639471    194.52736  0.021357857  0.021518535            3 
  760000   0.97368402   -7.8457913    194.58502  0.021336077  0.021501407            2 
  761000   0.94815156   -7.8148544    195.25397  0.021381293  0.021484573            2 
  762000   0.95714069   -7.8087581    194.89803  0.021314308  0.021467914            3 
  763000   0.95261246   -7.8179781    195.16391  0.021315411  0.021451123            3 
  764000   0.93326556   -7.8211763    195.96505  0.021374896  0.021434253            3 
  765000   0.95601135   -7.8137262     195.6099  0.021308268  0.021417507            1 
  766000   0.95719316   -7.8366272    195.84206  0.021305707  0.021400597            3 
  767000   0.93911327   -7.8316714    195.51942  0.021242875  0.021383725            2 
  768000   0.95648226   -7.8483769    195.91043  0.021257642  0.021366724            2 
  769000   0.92067474   -7.8215681    196.13669  0.021254518  0.021349826            3 
  770000   0.96849885   -7.8701707    195.64745  0.021173967  0.021332821            1 
  771000   0.92435034   -7.8163758    196.50362  0.021239043  0.021315891            4 
  772000   0.93774442   -7.8647612    196.00571  0.021157784  0.021299118            4 
  773000   0.93592716   -7.8100451    196.85406  0.021221869  0.021282364            2 
  774000   0.94359264   -7.8204814    196.49537  0.021155832  0.021265614            2 
  775000   0.93612521   -7.8332906    196.75266    0.0211562  0.021248533            1 
  776000   0.94617174   -7.8431354    196.41434  0.021092605  0.021231728            2 
  777000   0.92013443   -7.8277939    196.79076   0.02110583  0.021214981            2 
  778000   0.93904108   -7.8413065    196.99775  0.021100873  0.021198025            2 
  779000   0.93825877   -7.8394038    197.39626  0.021116416    0.0211813            1 
  780000   0.94728823   -7.8318341    197.31954  0.021081147  0.021164702            1 
  781000   0.94830606   -7.8200694    197.22042  0.021043578   0.02114795            2 
  782000   0.95403595   -7.8594388    197.43982  0.021040049   0.02113105            2 
  783000   0.93887145   -7.8950368    197.70166  0.021041045  0.021114261            3 
  784000   0.93870553    -7.863686    197.94666  0.021040249  0.021097376            3 
  785000   0.93164398   -7.8165848    197.91888  0.021010497  0.021080693            2 
  786000    0.9541333   -7.8491559    197.97667  0.020989893  0.021063985            1 
  787000   0.92936781   -7.8662897    198.13955  0.020980469  0.021047371            1 
  788000   0.93391555    -7.848375    198.43436  0.020985021  0.021030873            1 
  789000   0.92967135   -7.8722247    198.35211  0.020949737  0.021014212            6 
  790000   0.92597033   -7.8739208    198.40095  0.020928371  0.020997555            2 
  791000   0.93382223     -7.88436    198.14009   0.02087443  0.020980724            2 
  792000   0.93095287   -7.8582153    198.62037  0.020898608  0.020964068            1 
  793000   0.93554229   -7.8992904    198.56899  0.020866855  0.020947601            2 
  794000   0.92278692   -7.8650264     198.9907  0.020884834   0.02093108            2 
  795000   0.94736217   -7.8769447     199.2583  0.020886614  0.020914806            3 
  796000    0.9453991   -7.8880862    199.81417  0.020918569   0.02089853            3 
  797000   0.94788587   -7.8689544    199.63825  0.020873929  0.020882432            9 
  798000    0.9503329   -7.8956916    199.66935  0.020851018  0.020866257            2 
  799000    0.9372294   -7.8979341    200.01338  0.020860803  0.020850089            3 
  800000   0.93043731   -7.8554214     200.6712  0.020903249  0.020834113            2 
  801000   0.92621733   -7.8688756    200.01959  0.020809362   0.02081832            3 
  802000   0.92303469   -7.8760976    199.88554  0.020769486  0.020802445            3 
  803000   0.95192569   -7.8447884    200.92845  0.020851853  0.020786701            2 
  804000   0.95020746   -7.8598482    200.78212   0.02081075  0.020770998            2 
  805000   0.92982342   -7.8581062     201.1387  0.020821812  0.020755405            2 
  806000   0.95882969   -7.8578078    200.88347  0.020769589  0.020739856       -1e+20 
  807000   0.94690374   -7.9040066    201.03662  0.020759667  0.020724063            7 
  808000   0.92478562   -7.8736883    200.73074  0.020702428  0.020708252            1 
  809000   0.92846418   -7.8859364    200.86637  0.020690809  0.020692468            2 
  810000    0.9306359   -7.8887891    201.63826  0.020744677  0.020676706            5 
  811000   0.92788403   -7.8734344    201.59359  0.020714507  0.020660898            2 
  812000   0.92192442   -7.8826763    202.18126  0.020749308  0.020645342            3 
  813000    0.9216098   -7.8717397    202.11059  0.020716543  0.020629882           11 
  814000   0.93453388   -7.8621095    202.65396   0.02074672  0.020614441            2 
  815000   0.91196739   -7.8945339    202.95819  0.020752371  0.020599218            3 
  816000   0.92248168   -7.8726887    202.45498  0.020675549   0.02058402            1 
  817000   0.94178016   -7.9057383    202.44654  0.020649382  0.020568617            1 
  818000   0.95515349   -7.8947018    202.96998  0.020677464  0.020553247            3 
  819000   0.94799485   -7.9333704    202.46004   0.02060033  0.020537824            4 
  820000     0.934049   -7.9055917    202.82589  0.020612387  0.020522281            2 
  821000   0.91337127    -7.905028    202.74644  0.020579217  0.020506675            5 
  822000   0.90884476   -7.8917614    202.86697    0.0205664  0.020491114            1 
  823000   0.93769037   -7.8809436     203.2763  0.020582857  0.020475594            1 
  824000   0.93827716   -7.8843909    202.16436  0.020445425  0.020459875            1 
  825000   0.93537826   -7.8937258    202.96407  0.020501421  0.020444103            2 
  826000   0.91851083   -7.9150623    202.58465  0.020438322  0.020428314            2 
  827000   0.94552152   -7.8962061    203.53454  0.020509325  0.020412527            2 
  828000    0.9168294   -7.8638239    203.04349  0.020435134  0.020396829            2 
  829000   0.92853672   -7.9101122    203.21611  0.020427836  0.020381009            1 
  830000   0.93611796   -7.9027458    203.19076  0.020400678   0.02036519            4 
  831000   0.91418397   -7.9183533    203.76104  0.020433318  0.020349541            3 
  832000   0.92711542   -7.9299283    203.49389     0.020382  0.020333986            2 
  833000   0.93335726   -7.8971414    203.73437   0.02038159  0.020318266            1 
  834000   0.94760621   -7.9372011    203.62397  0.020346121  0.020302641            2 
  835000   0.92011167   -7.9203649    203.89434  0.020348736  0.020287119            1 
  836000   0.92129211    -7.898054    203.86802  0.020321772  0.020271683            1 
  837000    0.9309164    -7.949922    203.93285  0.020303947  0.020256133            2 
  838000   0.90265692   -7.8587928    205.04315   0.02039013  0.020240832            5 
  839000   0.91266731   -7.9238351    204.43666  0.020305588   0.02022545            2 
  840000   0.92563633    -7.930691    204.71833  0.020309358  0.020209863            4 
  841000   0.92296788   -7.9379737    204.80604    0.0202939  0.020194414            2 
  842000   0.90349028   -7.8656911    204.68631  0.020257949   0.02017901            3 
  843000   0.89387334   -7.9166666    204.56138  0.020221568  0.020163722            2 
  844000    0.9127462   -7.9131405    204.77528  0.020218728   0.02014822            5 
  845000   0.94918761   -7.9469237    205.03518  0.020220432  0.020132657            1 
  846000   0.92778736   -7.9262667    204.69942  0.020163457  0.020117169            2 
  847000   0.90990121   -7.9497687    204.87714  0.020157137  0.020101689            1 
  848000   0.91589466   -7.9321445    205.12979  0.020158195  0.020086177            2 
  849000   0.91878259   -7.9313385    204.94648  0.020116458  0.020070647            3 
  850000   0.92282402   -7.9229941    205.47131  0.020144246  0.020055246            2 
  851000   0.91466331    -7.922466    206.23928  0.020195778  0.020040015            1 
  852000   0.92259676   -7.9462237    205.82723  0.020131772  0.020024753            2 
  853000   0.91666783   -7.9274585    206.17755  0.020142394   0.02000961            1 
  854000   0.92396036   -7.9288427     206.7137  0.020171126   0.01999446            2 
  855000   0.91335687   -7.9297427    206.00617  0.020078574   0.01997925            5 
  856000   0.89955993   -7.9150872    207.07953  0.020159611  0.019964217            1 
  857000   0.91484026   -7.9312204    206.64399  0.020093737  0.019949137            1 
  858000   0.90154889   -7.9470364    207.25404  0.020129569  0.019934072            4 
  859000   0.90837228   -7.9058052    206.60542  0.020043211  0.019919115            4 
  860000   0.89531665   -7.9235194    206.53054   0.02001265  0.019903895            2 
  861000   0.91642861   -7.9846955    206.17448  0.019954944  0.019888642            1 
  862000   0.90368291   -7.9359522    207.08284  0.020019609  0.019873496            4 
  863000   0.91603734   -7.9224715    207.19436   0.02000718  0.019858642            3 
  864000     0.897517   -7.9699639    207.85859  0.020048089  0.019843837            2 
  865000   0.91985924   -7.9401891    207.80435  0.020019687  0.019828976            2 
  866000   0.90545289   -7.8835683    207.88116   0.02000396  0.019814058            2 
  867000   0.92826778   -7.9539542     207.2432  0.019919569  0.019799218            3 
  868000   0.87618118   -7.9824161    207.18846  0.019891366  0.019784232            3 
  869000   0.88559934   -7.9805641    207.59747  0.019907697  0.019769277            2 
  870000    0.9010725   -7.9433659    207.87405  0.019911307   0.01975439            1 
  871000    0.9160086   -7.9520832    208.49453  0.019947812  0.019739737            2 
  872000   0.91478341   -7.9695309    208.47683  0.019923245  0.019724965            6 
  873000    0.9005922   -7.9600423    208.32922  0.019886333  0.019710151            3 
  874000   0.88709712   -7.9606536    208.48453  0.019878388  0.019695477            1 
  875000   0.89877493   -7.9349794    209.12013  0.019916203  0.019680857            2 
  876000   0.89193535   -7.9773879    208.83217  0.019866074  0.019666223            2 
  877000   0.90542821   -7.9579209    209.01271  0.019860577  0.019651494            3 
  878000   0.87178979   -7.9172054     209.2091  0.019856596  0.019636728            1 
  879000   0.90220181   -7.9794145    209.27877  0.019840612  0.019622046            1 
  880000   0.91039939   -7.9581063    209.60347  0.019848813  0.019607462            2 
  881000   0.90434439   -7.9572999    209.48578  0.019815151  0.019592866            1 
  882000   0.90099837   -7.9741791    209.42978  0.019787394  0.019578333            2 
  883000   0.89372865   -7.9593701    210.04782  0.019823313  0.019563826            3 
  884000   0.90703962   -7.9208311    210.11556  0.019807274  0.019549355            4 
  885000   0.89409822   -7.9516255    210.12285  0.019785579  0.019534847            1 
  886000   0.91035115   -8.0012275     210.0206   0.01975363  0.019520421            4 
  887000   0.89960924   -7.9689455    210.33447  0.019760849  0.019505853            1 
  888000   0.91153574   -7.9539013    210.30517  0.019735845  0.019491356            2 
  889000   0.90465096   -7.9660837    209.83958  0.019670002  0.019476792            3 
  890000   0.90947251   -7.9511935    210.79902  0.019737736  0.019462184            2 
  891000   0.88105793   -7.9923718    210.54874  0.019692176  0.019447733            8 
  892000   0.91431876   -7.9830606     210.6897  0.019683267  0.019433185            2 
  893000   0.89800238   -7.9878779     211.0483   0.01969469  0.019418712            2 
  894000   0.89088259    -7.982419    211.32804  0.019698736  0.019404503            2 
  895000   0.90136474   -7.9519739    211.36519  0.019680185  0.019390349            3 
  896000   0.87304328   -7.9592441    210.96873  0.019621348  0.019376112            3 
  897000   0.90215246   -7.9188578    211.49451  0.019648319   0.01936192            4 
  898000   0.88927018   -7.9554609    211.34194  0.019612281  0.019347703            2 
  899000   0.89364736   -7.9793882    211.17839  0.019575305  0.019333505            3 
  900000    0.9098387   -8.0075215    210.98819  0.019535944  0.019319121            2 
  901000   0.88099677   -8.0015733    211.19953  0.019533808  0.019304768            1 
  902000   0.88770452   -7.9925027    211.55862  0.019545327  0.019290559            4 
  903000   0.89500186   -8.0125221    211.36012  0.019505364  0.019276278            4 
  904000   0.88834918   -7.9962795     212.1711  0.019558546  0.019261872            2 
  905000   0.90352223   -8.0043429    211.78822  0.019501678  0.019247475            1 
  906000   0.89855017   -7.9987324    211.99199  0.019498896  0.019233177            3 
  907000    0.8989023    -8.001411     212.0274   0.01948065  0.019218854            3 
  908000   0.91102403   -7.9999913    211.31274  0.019393607  0.019204356            3 
  909000   0.88101203    -7.967592    211.80106  0.019417039  0.019189905            1 
  910000   0.88151666   -7.9750332    211.94512  0.019408894  0.019175469            1 
  911000    0.8854944   -8.0047423    211.60874  0.019356819  0.019160987            2 
  912000   0.90116355   -8.0028982    212.11027  0.019381421  0.019146404            1 
  913000    0.8971103   -8.0356474    211.30585   0.01928677  0.019131756            2 
  914000   0.89054944   -8.0356644    210.97368  0.019235383  0.019116786            5 
  915000   0.89242823   -7.9936676    211.90757  0.019299415  0.019101946            4 
  916000   0.87982013   -8.0184607    211.95063  0.019282262   0.01908718            4 
  917000   0.89271799   -7.9893997    212.07182  0.019272248  0.019072522            3 
  918000    0.8683531   -7.9916384     212.6223  0.019301226  0.019057879            1 
  919000   0.88597445   -7.9583365    212.35309  0.019255812  0.019043101            1 
  920000   0.87862903   -7.9982504      212.542  0.019251993  0.019028361            2 
  921000   0.88638907   -7.9890393     212.2041  0.019200515  0.019013612            2 
  922000   0.90346104   -7.9862294    212.63182  0.019218349  0.018998907            1 
  923000   0.88344181   -7.9979769     212.4698    0.0191829  0.018984183            3 
  924000   0.87685411   -8.0059989    212.51277  0.019166015  0.018969579            2 
  925000   0.89444422   -8.0043955    212.63329  0.019156152  0.018954954            2 
  926000   0.86553761   -8.0075411    212.41124  0.019115483  0.018940387            2 
  927000   0.88360691    -8.028287    212.54176  0.019106594  0.018925594            4 
  928000   0.89152749   -8.0479522    211.85307  0.019024162  0.018910688            3 
  929000   0.86261779   -8.0018348    212.57327  0.019068288  0.018895838            1 
  930000     0.895149    -8.017657    213.21115  0.019104942  0.018881064            2 
  931000   0.89116439   -7.9899927    213.62058  0.019121069  0.018866337            1 
  932000   0.87532907   -8.0224431     212.9486  0.019040468  0.018851619            4 
  933000    0.8785985   -8.0701993    213.06495  0.019030453  0.018836838            1 
  934000   0.88360916   -8.0485075      212.815  0.018987777  0.018822147            2 
  935000   0.87281889   -8.0513627      213.372  0.019017113  0.018807409            2 
  936000   0.86320887   -7.9930001    213.43982  0.019002833  0.018792811            3 
  937000   0.87899499   -8.0254672    212.63583  0.018911049  0.018778134            2 
  938000   0.88431354   -8.0299406    213.58296  0.018975032  0.018763437            2 
  939000   0.86002862   -8.0138007    214.26005  0.019014914  0.018748825            2 
  940000   0.89088892   -8.0356004    213.72364  0.018947131  0.018734139            2 
  941000   0.86003448   -8.0192405    214.01314  0.018952633  0.018719511            1 
  942000   0.87647779   -8.0424183    213.43619  0.018881475  0.018704729            3 
  943000   0.87489612   -8.0158676    213.72385  0.018886872  0.018689832            3 
  944000   0.87276926    -8.003492    213.59053  0.018855096  0.018674903            1 
  945000   0.88055611   -7.9991841    213.37751  0.018816358  0.018659938            4 
  946000   0.89890402   -8.0574455    213.09155  0.018771279  0.018645089            2 
  947000   0.88320267   -8.0284602    214.05041  0.018835833  0.018630187            3 
  948000   0.87008746   -8.0259692    214.14046   0.01882388  0.018615315            2 
  949000     0.890294   -8.0813157    213.58376   0.01875516   0.01860038            3 
  950000    0.8717751   -8.0266454    213.98679  0.018770771  0.018585371            1 
  951000    0.8767935   -8.0206064    213.68684  0.018724749  0.018570443            5 
  952000   0.88278088    -8.071431    213.15578  0.018658595  0.018555506            2 
  953000   0.86384453   -7.9946987    214.22698  0.018732684  0.018540608            1 
  954000   0.86549852   -8.0241794     214.0921  0.018701267  0.018525653            2 
  955000   0.86069713   -8.0261291    213.29154  0.018611828  0.018510599            1 
  956000   0.86874337   -8.0785596    214.59613  0.018706078  0.018495694            1 
  957000   0.88252368   -8.0463371    213.98387  0.018633217  0.018480774            2 
  958000   0.85821907   -8.0421976    214.46694  0.018655788   0.01846589            1 
  959000   0.85056782   -8.0412398    214.46681  0.018636324  0.018451068            2 
  960000   0.87050088   -8.0063746    214.67397  0.018634894  0.018436307            1 
  961000   0.88840475    -8.060623     214.6411  0.018612652  0.018421553            3 
  962000   0.87541655   -8.0476726    214.12541  0.018548632  0.018406697            4 
  963000   0.86470438   -8.0462964    214.82809  0.018590178  0.018391731            1 
  964000   0.86502634   -8.0510354     214.0833  0.018506509  0.018376778            2 
  965000   0.87375256   -8.1147341     214.6657  0.018537625  0.018361847           11 
  966000   0.86346997   -8.0677115    214.54215  0.018507777  0.018347012            3 
  967000   0.89556899   -8.0229696    214.92322  0.018521477  0.018332274            2 
  968000    0.8946627   -8.0448005    214.97253  0.018506588   0.01831754            3 
  969000   0.87349318   -8.0756111    215.00509   0.01849029  0.018302727            3 
  970000   0.85838709   -8.0420935    215.32997  0.018499138  0.018287901            4 
  971000   0.86113717   -8.0907062    214.93303   0.01844602   0.01827306            7 
  972000   0.85490712    -8.030259     215.2577  0.018454879  0.018258317            2 
  973000    0.8803327   -8.0752109    215.17596  0.018428911  0.018243483            1 
  974000   0.86771557   -8.0446031      214.981  0.018393309  0.018228862            2 
  975000   0.87184885    -8.047353    214.65921  0.018346941  0.018214176            1 
  976000   0.88130093   -8.0226747     215.8156  0.018426879  0.018199551            2 
  977000   0.88130827   -8.0844868    215.22584  0.018357714  0.018184958            2 
  978000   0.86661001   -8.0503435    216.19824    0.0184218  0.018170435            3 
  979000   0.86362537   -8.0519138    215.65999  0.018357166  0.018155891            2 
  980000   0.84636196   -8.0559534    216.17366  0.018382114  0.018141326            2 
  981000   0.85035521   -8.0586424        216.4  0.018382603  0.018126845            3 
  982000    0.8652819   -8.0731936    216.30473  0.018355799   0.01811234            3 
  983000   0.86518753   -8.0437293     215.7773  0.018292413  0.018097758            4 
  984000   0.86397062   -8.0136241    216.68066  0.018350327  0.018083357            3 
  985000   0.85540069     -8.08715    216.01403  0.018275298  0.018068884            4 
  986000    0.8514266   -8.0701068    216.60735   0.01830691  0.018054541            2 
  987000   0.86747222   -8.0723007    216.77231  0.018302289  0.018040193            3 
  988000   0.85112192   -8.1057112    216.80757  0.018286738  0.018025843            2 
  989000   0.85919992   -8.0864835    216.48719  0.018241253  0.018011484            3 
  990000   0.84995814   -8.0809744    216.34198  0.018210604  0.017997116           10 
  991000   0.85296076   -8.1001922    216.14857  0.018175965  0.017982768            1 
  992000   0.86174523   -8.1146722    216.62032  0.018197272  0.017968375            2 
  993000   0.85427758   -8.0843172    217.02596  0.018212988  0.017954062            5 
  994000     0.853385   -8.0935625     216.9736  0.018190275  0.017939643            6 
  995000   0.84296172   -8.0855724     217.4056  0.018208174  0.017925241            2 
  996000   0.86432931   -8.0790232     216.5364  0.018117168  0.017910848            4 
  997000   0.84222854   -8.1098966    217.36892  0.018168582   0.01789643            3 
  998000   0.87006134   -8.0691688    217.14788   0.01813192  0.017882165            2 
  999000   0.86394301    -8.080061    216.89588   0.01809275  0.017867791            2 
 1000000   0.84549936   -8.0839005    217.50143  0.018125119   0.01785345            3 
 1001000   0.86288764   -8.1046535     217.1232  0.018075525  0.017839138            3 
 1002000   0.84753638   -8.1037715    217.46709  0.018086085  0.017824789            4 
 1003000   0.84901378   -8.1316593    216.95116  0.018025188  0.017810419            2 
 1004000   0.85220052   -8.1348838    217.10428  0.018019943  0.017795991            3 
 1005000   0.87061755   -8.0951972    217.39442  0.018026071  0.017781803            3 
 1006000   0.85229034    -8.093585    217.93119  0.018052617   0.01776762            1 
 1007000   0.84610124   -8.1314308    217.98323  0.018038996  0.017753395            2 
 1008000   0.84221091   -8.1003527    217.87535  0.018012182  0.017739006            4 
 1009000    0.8654852   -8.1526028    217.03492  0.017924919   0.01772456            2 
 1010000   0.85067459   -8.0930476    217.95182  0.017982823  0.017710253            1 
 1011000   0.85444488   -8.0875085    217.53217  0.017930446  0.017696038            4 
 1012000   0.84461583   -8.1131101    217.80158  0.017934912  0.017681777            3 
 1013000   0.85926554   -8.1157614    217.75368  0.017913267  0.017667601            2 
 1014000   0.85396932   -8.0797498    218.29956  0.017940464  0.017653492            1 
 1015000   0.84226985   -8.1190509    218.88028  0.017970466  0.017639394            2 
 1016000   0.85910959   -8.1057452    218.87042   0.01795197  0.017625381            2 
 1017000   0.85286048   -8.1027501    218.73516  0.017923235  0.017611424            2 
 1018000   0.85020708   -8.0779416    218.81934   0.01791252  0.017597392            2 
 1019000   0.85963827   -8.1133817    219.39798  0.017942262  0.017583468            2 
 1020000   0.85093494   -8.0772663    219.34911  0.017920679  0.017569597            2 
 1021000   0.84313539   -8.1160099    218.97252   0.01787239  0.017555814            2 
 1022000   0.83950894   -8.0971516    218.67578  0.017830706  0.017541952            2 
 1023000   0.85006122   -8.1290124    219.34917   0.01786813  0.017527975            3 
 1024000   0.83784722   -8.1312671    218.72229  0.017799665    0.0175139            1 
 1025000    0.8520663   -8.1377591    218.94358  0.017800291  0.017499794            1 
 1026000   0.84643406   -8.1121668    219.42588  0.017822115   0.01748583            2 
 1027000   0.83545811   -8.1491787    218.84894  0.017757947  0.017471809            3 
 1028000   0.85153587   -8.1424957    219.28983  0.017776413  0.017457802       -1e+20 
 1029000   0.82676545   -8.1153206    218.96217  0.017732602  0.017443742            3 
 1030000   0.82913373   -8.1368603    218.83496  0.017705094  0.017429615            1 
 1031000   0.83407311   -8.1487886    218.60027  0.017668951   0.01741542            2 
 1032000   0.84628299   -8.1306367    218.84342  0.017671465  0.017401239            1 
 1033000   0.85413244   -8.0920146    219.53375  0.017710048  0.017387149            2 
 1034000   0.84522464    -8.140846    219.21717  0.017667406  0.017373073            3 
 1035000   0.83908951   -8.1369314    219.75749   0.01769384  0.017359107            4 
 1036000   0.83717468   -8.1381214    219.31856  0.017641455  0.017345178            3 
 1037000   0.83109147    -8.118609    219.49294  0.017638456  0.017331158            2 
 1038000   0.82926703   -8.1026826     219.6949  0.017637676  0.017317155            3 
 1039000   0.83969923   -8.1363363    219.17262  0.017578812  0.017303107            3 
 1040000   0.83543187   -8.1089517    219.72998  0.017606569  0.017289136            1 
 1041000   0.85197024   -8.1088775    219.25874  0.017551933  0.017275188            3 
 1042000   0.83796025   -8.1405017     219.0764  0.017520505  0.017261178            3 
 1043000   0.84109887   -8.1099886    219.86876  0.017567015  0.017247164            2 
 1044000   0.83746314    -8.132172    218.83828  0.017467934  0.017233155            2 
 1045000   0.84953642   -8.1417636    219.75878  0.017524623  0.017219171            4 
 1046000   0.84000446   -8.1862424    219.32493  0.017473305  0.017205054            2 
 1047000   0.82954855   -8.1268148    219.69763  0.017486281  0.017191018            3 
 1048000   0.84084096   -8.1569398    220.19658   0.01750927  0.017176987            2 
 1049000   0.82385251    -8.161929    219.67357   0.01745103  0.017162967            2 
 1050000   0.81836895   -8.1609006    219.79022  0.017443668  0.017148923            3 
 1051000   0.82340994   -8.1665236    219.72374    0.0174218  0.017134907            1 
 1052000   0.84394746   -8.1738708    219.91519  0.017420405  0.017120812            3 
 1053000    0.8480843   -8.1815638    219.98322  0.017409245  0.017106831            2 
 1054000   0.84072304   -8.1565511    220.13186   0.01740448  0.017092836            2 
 1055000   0.83348665   -8.1283064     220.2206  0.017394992  0.017078881            4 
 1056000    0.8279207   -8.1574328    219.93036  0.017355615  0.017065005            3 
 1057000   0.85371745   -8.1474302     219.8474  0.017332655  0.017051092            1 
 1058000   0.82095106   -8.1635433    219.88086  0.017318908  0.017037111            3 
 1059000   0.82568121   -8.1562783    220.34708  0.017339241   0.01702317            2 
 1060000   0.80193195    -8.154846    220.42094  0.017328691  0.017009249            3 
 1061000   0.83381968   -8.1303219    220.34175  0.017306138  0.016995349            2 
 1062000   0.82419548   -8.1678978    220.49304  0.017301714  0.016981497            1 
 1063000    0.8299689   -8.1612095    220.42521   0.01728012  0.016967584            2 
 1064000   0.83376496   -8.1582646    220.73786  0.017288366   0.01695369            1 
 1065000   0.83060301   -8.1590358    220.68297  0.017267838  0.016939889            2 
 1066000   0.81907341   -8.1715633    219.95644  0.017194844  0.016925945            1 
 1067000   0.82330093   -8.1826295    220.11671  0.017191246  0.016911975            2 
 1068000    0.8239522   -8.1663093    220.35731  0.017193923  0.016897955            2 
 1069000   0.81832456   -8.1913262    220.68362  0.017203276   0.01688391            6 
 1070000   0.82775134   -8.1665065    220.23206  0.017152029  0.016869967            2 
 1071000   0.81174295   -8.1619233    220.94507  0.017191493  0.016856039            4 
 1072000   0.82103882   -8.1562209    220.92602  0.017173975  0.016842181            2 
 1073000   0.83331173   -8.1164036    221.47042   0.01720025  0.016828335            1 
 1074000    0.8128167   -8.1482697    220.43856  0.017104171  0.016814493            4 
 1075000    0.8155736   -8.1333881    221.27337  0.017152975  0.016800599            4 
 1076000   0.82242193   -8.1535068    221.03029  0.017118207  0.016786743            4 
 1077000   0.83947395   -8.1592042    221.40313  0.017131161  0.016772966            3 
 1078000     0.833507   -8.1706606    221.06102  0.017088823  0.016759171            3 
 1079000   0.82010929   -8.1604076    220.47518   0.01702774  0.016745272            6 
 1080000   0.81827919   -8.1616309    221.29434  0.017075181  0.016731355            2 
 1081000   0.82713145   -8.1724919    221.37678   0.01706574  0.016717491            2 
 1082000   0.83714275   -8.2032802    220.81017  0.017006328  0.016703638            8 
 1083000   0.82390668   -8.1673893    220.64886  0.016978213  0.016689769            7 
 1084000   0.81756119   -8.2018478    221.21566  0.017006124  0.016675838            4 
 1085000   0.81604905   -8.1697896    220.95438  0.016970382  0.016661885            3 
 1086000   0.81113167   -8.1986671     220.8747  0.016948642  0.016647984            3 
 1087000   0.81363707   -8.1897549     220.9151  0.016936147  0.016634044            1 
 1088000   0.80611874   -8.1673985    221.33615   0.01695283  0.016620162            4 
 1089000   0.80031871   -8.1783078    221.60268  0.016957659  0.016606342            3 
 1090000   0.81585122   -8.1445721    221.42142  0.016928243  0.016592607            2 
 1091000   0.84525956   -8.1934093    221.28851  0.016902575  0.016578877            3 
 1092000   0.80492792   -8.1685908    221.54534  0.016906695   0.01656511            4 
 1093000   0.81796661   -8.1901792    221.89943  0.016918224  0.016551413            8 
 1094000   0.81991409   -8.2047723    221.67198  0.016885434  0.016537633            2 
 1095000   0.82810897   -8.1973384    221.33611  0.016844453  0.016523806            4 
 1096000   0.83209499   -8.1882844    221.71332  0.016857764  0.016510002            4 
 1097000   0.80801183   -8.2017916    221.72602  0.016843362  0.016496211            3 
 1098000   0.81163956   -8.2009018    221.57875  0.016816845  0.016482483            1 
 1099000   0.81424873   -8.2116047    221.87901   0.01682431  0.016468765       -1e+20 
 1100000   0.81976849   -8.2231123    221.63948   0.01679087  0.016455082            5 
 1101000   0.80342565   -8.1993448    221.39943   0.01675745  0.016441422            3 
 1102000    0.8240789   -8.2006951    221.81191  0.016773435  0.016427808            3 
 1103000   0.80577626   -8.2322851     221.7222  0.016751451  0.016414111            4 
 1104000   0.80914404   -8.1976099    221.90962  0.016750424   0.01640041            2 
 1105000   0.83357345   -8.2057068    221.91208  0.016735451  0.016386687            1 
 1106000   0.82774682   -8.2146899    222.27474  0.016747645  0.016373005            3 
 1107000   0.80036077   -8.1938788    221.92381  0.016706099  0.016359331            4 
 1108000   0.81988315    -8.175061    221.67406  0.016672237  0.016345719            1 
 1109000   0.82822049   -8.1808095    222.10261  0.016689406  0.016332211            2 
 1110000   0.80366425   -8.1942284     222.7699  0.016724467   0.01631861            2 
 1111000   0.80998134   -8.2190789    222.12702  0.016661192  0.016304998            2 
 1112000   0.80087888    -8.232624    222.53689  0.016676926  0.016291365            3 
 1113000   0.82349251    -8.206631    222.63739  0.016669466  0.016277786            3 
 1114000   0.80184747   -8.2238992    221.95164  0.016603205  0.016264241            2 
 1115000   0.80946187   -8.2236553    222.77518  0.016649864  0.016250647            1 
 1116000   0.80133929   -8.2622692    222.05563  0.016581215  0.016236964            6 
 1117000   0.81103061   -8.2368152    222.36308  0.016589308  0.016223347            4 
 1118000   0.80239635   -8.2200818    222.00586  0.016547843  0.016209658            5 
 1119000   0.80193381   -8.2411998    222.06097  0.016537159  0.016195954            3 
 1120000   0.80572194   -8.2291889    222.09096  0.016524625  0.016182175            2 
 1121000   0.80539966   -8.2451202    221.68327  0.016479577  0.016168455            3 
 1122000   0.81169463   -8.2393291    221.68653  0.016465132  0.016154746            4 
 1123000   0.80564426   -8.2159453    222.23015   0.01649081  0.016141093            1 
 1124000   0.81361171   -8.2264051    222.59079  0.016502876  0.016127424            3 
 1125000   0.80758647   -8.2267171    222.14694  0.016455329  0.016113761            1 
 1126000    0.8105775   -8.2636319    221.60719  0.016400769  0.016099998            3 
 1127000   0.80297661   -8.2834754    221.51759  0.016379591  0.016086151            1 
 1128000   0.79871515   -8.2763079    221.78616  0.016384911  0.016072291            4 
 1129000   0.78261929   -8.2731659    222.23857  0.016403792  0.016058535            2 
 1130000   0.80816748   -8.2480813    221.84132   0.01635998  0.016044746            3 
 1131000   0.80284698   -8.2399725    222.47865  0.016392474  0.016030993            4 
 1132000   0.79416035   -8.2342568    222.42086  0.016373738  0.016017376            2 
 1133000   0.80031991   -8.2589869    222.63415  0.016374974  0.016003695            3 
 1134000   0.77640616   -8.2481426     222.0187  0.016315307  0.015990087            3 
 1135000   0.80454958   -8.2644883    221.99964  0.016299533  0.015976434            3 
 1136000   0.79112405   -8.2290416    222.85434  0.016347883  0.015962767            3 
 1137000   0.76266175   -8.2244674     222.9783   0.01634259  0.015949116            6 
 1138000   0.79249767   -8.2569455     222.7052  0.016308231  0.015935467            7 
 1139000   0.78675734   -8.2396162    222.52452  0.016280694  0.015921896            1 
 1140000   0.78340914   -8.2562389    222.99625  0.016300896  0.015908396            3 
 1141000   0.79963981   -8.2145269    222.79949  0.016272239  0.015894948            1 
 1142000    0.7973947   -8.2554089    222.59085  0.016242765  0.015881445            5 
 1143000   0.80397503   -8.2616745    222.84769   0.01624728  0.015867952            3 
 1144000   0.78131209   -8.2439545    222.82005  0.016231065  0.015854516            4 
 1145000   0.79655654    -8.242749    223.13745  0.016239989  0.015841088            1 
 1146000   0.78609116   -8.2326683    222.69244  0.016193459  0.015827648            4 
 1147000   0.79706556   -8.2255857    223.36075  0.016227895  0.015814228            4 
 1148000    0.8008199   -8.2246829    222.69505  0.016165436   0.01580083            3 
 1149000   0.79837722   -8.2340651    223.01927  0.016174881  0.015787456            2 
 1150000    0.7835896   -8.2440812    223.24771   0.01617737  0.015774096            2 
 1151000   0.78193216   -8.2404727    223.03628  0.016148008  0.015760655            3 
 1152000   0.79712549   -8.2612682    223.00011  0.016131373  0.015747262            6 
 1153000   0.79848255   -8.2408707    222.62543  0.016090302  0.015733811            3 
 1154000   0.79626889   -8.2338164    222.77947  0.016087484  0.015720382            2 
 1155000   0.79837698   -8.2405413    222.77203  0.016073018  0.015706979            2 
 1156000   0.78095332   -8.2243771    223.73345  0.016128421  0.015693595            2 
 1157000   0.77756115   -8.2487979    223.26129  0.016080473  0.015680236            1 
 1158000   0.79541151   -8.2484026    223.30942   0.01607005  0.015666854            1 
 1159000    0.7782946    -8.279111    223.24902  0.016051842  0.015653475            1 
 1160000   0.79596932   -8.2607278    223.18251  0.016033226  0.015640106            4 
 1161000   0.79527263   -8.2403661    223.28741  0.016026946  0.015626707            1 
 1162000    0.8075178   -8.2683411    223.14763  0.016003129  0.015613308            3 
 1163000   0.80019556   -8.2600945    222.97578  0.015977055  0.015599858            5 
 1164000   0.80192924   -8.2073059     223.5491  0.016004375  0.015586466           10 
 1165000   0.78662076   -8.2197981    223.45567  0.015983953  0.015573152           14 
 1166000   0.79304067   -8.2443315     223.4353  0.015968789   0.01555984            4 
 1167000   0.78265616   -8.2478266    223.41652  0.015953764  0.015546527            3 
 1168000   0.78970928   -8.2708335    223.37018  0.015936799  0.015533231            9 
 1169000   0.78695068    -8.262404    223.23944  0.015913847   0.01551992            3 
 1170000    0.7920484    -8.249817    223.64771  0.015929324  0.015506606            4 
 1171000   0.77268492   -8.2285525    223.20609  0.015884293  0.015493228            2 
 1172000   0.78039637   -8.2733309    223.60523   0.01589912  0.015479781            4 
 1173000   0.78484827   -8.2612464    222.86165   0.01583274  0.015466367            3 
 1174000   0.77429289   -8.2797548    222.84301  0.015817931  0.015452953            5 
 1175000   0.78033992   -8.2537879    223.75314  0.015869017  0.015439621            6 
 1176000   0.79558087   -8.2739961     222.9814  0.015800836  0.015426272            2 
 1177000   0.77917527   -8.2569195    223.29893  0.015809893  0.015412938            3 
 1178000   0.76491337   -8.2703698    223.45418  0.015807455  0.015399666            4 
 1179000   0.79248129   -8.2766873    223.88614  0.015824579  0.015386387            4 
 1180000   0.77698679   -8.3080015    223.47324  0.015782008  0.015373016            3 
 1181000   0.79194156   -8.2955144    223.29403     0.015756  0.015359701            2 
 1182000   0.77446265    -8.308436     223.7923  0.015777799  0.015346392            4 
 1183000   0.79016472   -8.3004337    223.58115  0.015749588   0.01533315            2 
 1184000   0.78857975    -8.296226     223.6161  0.015738746  0.015319904            1 
 1185000   0.77357067   -8.2816934    223.64428  0.015727446  0.015306704            4 
 1186000   0.78259513   -8.2934321    223.51519  0.015705114  0.015293511            2 
 1187000   0.79228978   -8.3210695    223.32641   0.01567863   0.01528029            2 
 1188000    0.7754551   -8.3261388    223.48764  0.015676743  0.015266993            3 
 1189000   0.78875396   -8.3016015    223.97767  0.015697903  0.015253703            3 
 1190000   0.78568534   -8.3193412    223.73607  0.015667792  0.015240425            2 
 1191000   0.78940101   -8.3126937    223.21921  0.015618472  0.015227115            3 
 1192000   0.76281953   -8.3127441    223.89915  0.015652905  0.015213855            1 
 1193000   0.78039629   -8.2931206    224.06779  0.015651564  0.015200575            4 
 1194000   0.79146208   -8.3060549    224.14809   0.01564406  0.015187381            2 
 1195000   0.77258604   -8.2914263    223.63077  0.015594893  0.015174195            3 
 1196000   0.76798609   -8.3040536    223.39716  0.015565577  0.015161017            1 
 1197000   0.76269965   -8.3078998    223.73235  0.015575909  0.015147793            3 
 1198000   0.76844098   -8.3062631    223.53374  0.015549091  0.015134568            3 
 1199000   0.78241339   -8.3184166    223.54914  0.015537193  0.015121287            2 
 1200000   0.78113083   -8.3147191    223.11844  0.015494336  0.015108035            2 
 1201000   0.78678551   -8.3208309    223.29329  0.015493567  0.015094788            3 
 1202000   0.78446037   -8.3081398    223.39709  0.015487874  0.015081568            3 
 1203000   0.78129569   -8.3118782    223.37421  0.015473415  0.015068348            4 
 1204000   0.76858991   -8.2979134    223.62072  0.015477624  0.015055132            1 
 1205000   0.77352594   -8.3277881    223.33036    0.0154447   0.01504192            1 
 1206000   0.77608821   -8.2805425    223.85367  0.015468054  0.015028779            1 
 1207000   0.77166106   -8.3351652    223.53569  0.015433285  0.015015679            2 
 1208000   0.78418741    -8.294321    223.91108  0.015446405  0.015002539            1 
 1209000   0.77007469   -8.2918159    224.49829  0.015474103  0.014989491            4 
 1210000   0.76379492   -8.3240259    223.77708  0.015411645  0.014976428            3 
 1211000   0.77441639   -8.3038896    223.55222  0.015383445  0.014963354            3 
 1212000   0.75514231   -8.3312482    223.73722  0.015383472  0.014950263            1 
 1213000   0.77655963   -8.2989815    224.30005  0.015409457  0.014937226            2 
 1214000   0.75833481   -8.3341962    223.52188  0.015343347  0.014924163           11 
 1215000   0.76310065   -8.3509674    223.86013  0.015353918  0.014911099            2 
 1216000   0.77205551   -8.3674502    223.68435  0.015329245  0.014898004            3 
 1217000   0.77514303   -8.3344572    224.01883  0.015339553  0.014884988            1 
 1218000   0.75837526   -8.3409296    224.31633  0.015347314  0.014871971            2 
 1219000   0.76789369   -8.3298505    224.37144  0.015338491  0.014858988            3 
 1220000   0.75461367   -8.3432221    223.85595  0.015290707  0.014845977            2 
 1221000   0.76325308   -8.3315656    224.18091  0.015300362  0.014832951            1 
 1222000   0.76294071   -8.3495541    224.36659  0.015300504  0.014819927            2 
 1223000   0.76890677   -8.3528759    224.15605  0.015273648    0.0148069            3 
 1224000   0.76957279   -8.3511216    224.06738  0.015255132  0.014793895            4 
 1225000   0.76130566   -8.3399995    223.87294  0.015229451  0.014780903            1 
 1226000   0.75613868   -8.3637167    223.90082  0.015218925  0.014767883            3 
 1227000   0.77665813   -8.3605792    223.82156  0.015201138  0.014754891            2 
 1228000    0.7626111   -8.3337641     223.9012  0.015194164  0.014741886            2 
 1229000   0.77776738   -8.3459935     223.8206  0.015176335  0.014728893            3 
 1230000   0.77477474   -8.3660791    224.14992  0.015186309  0.014715919            2 
 1231000   0.76000159   -8.3923906    223.78413   0.01514921   0.01470294            2 
 1232000   0.75676574   -8.3836912    224.01162  0.015152301   0.01468993            2 
 1233000   0.75259504   -8.3677018    224.07434  0.015144251  0.014676957            4 
 1234000   0.75345844   -8.3919798    223.97088  0.015124992  0.014664049            2 
 1235000   0.77274992   -8.3499634    223.81124  0.015101973  0.014651099            2 
 1236000   0.75480008    -8.340891    223.83569  0.015091403  0.014638208            2 
 1237000   0.74722584   -8.3684666    223.75372  0.015073681  0.014625258            4 
 1238000    0.7343635   -8.3929335    223.85235  0.015068144  0.014612295            3 
 1239000   0.75361936   -8.3804527    224.52052  0.015100922  0.014599385            5 
 1240000   0.76940812   -8.3654675    223.88593  0.015046098  0.014586478            2 
 1241000   0.74641266   -8.3730214    223.74916  0.015024789  0.014573588            2 
 1242000   0.75294022   -8.3532747    224.49929  0.015063023  0.014560695            3 
 1243000   0.75405437   -8.3609134    224.34379  0.015040479  0.014547802            3 
 1244000   0.76346709   -8.3859929    223.82729   0.01499379  0.014534955            2 
 1245000   0.75831881   -8.3557323    224.10049  0.015000033  0.014522142            2 
 1246000   0.75316506   -8.3640364    224.19901  0.014994584   0.01450935            2 
 1247000   0.75156979   -8.3914243    224.24417  0.014985577  0.014496497            2 
 1248000   0.75940794   -8.3439709    224.52557  0.014992359  0.014483676            3 
 1249000   0.75890337   -8.3525444    224.33712  0.014967782  0.014470926            2 
 1250000   0.75661152   -8.3626151    224.60504  0.014973669  0.014458171            4 
 1251000   0.75921769   -8.3807977    224.69336  0.014967583  0.014445436            1 
 1252000   0.76416842   -8.3606731    224.38181  0.014934891  0.014432703            2 
 1253000   0.75399275   -8.3604014    224.57356  0.014935725  0.014419996            3 
 1254000   0.75869182   -8.3725576    224.24419  0.014901927  0.014407337            4 
 1255000    0.7412821   -8.3537658    224.28974  0.014893077  0.014394681            4 
 1256000   0.74855422   -8.3571508    224.64763  0.014904965  0.014381993            7 
 1257000   0.74482618   -8.3395222    224.58295  0.014888819  0.014369277            3 
 1258000   0.76101568    -8.341743     225.0391  0.014907201  0.014356602            2 
 1259000   0.75670915   -8.3529244    224.42285  0.014854571  0.014343964            1 
 1260000   0.76952215   -8.3773328    224.30586  0.014835044  0.014331294            1 
 1261000   0.74708367   -8.3755383    224.40904  0.014830098  0.014318607            1 
 1262000   0.75480781   -8.3513557    224.22784  0.014806382  0.014305914            3 
 1263000   0.75076413    -8.386129    224.53887   0.01481518  0.014293258            1 
 1264000   0.74305998   -8.3809785    224.05501  0.014771559  0.014280585            4 
 1265000   0.74566533   -8.3928039    224.27191  0.014774171  0.014267967            2 
 1266000   0.75985007   -8.3930602     224.3918  0.014770393  0.014255273            3 
 1267000   0.75952026   -8.3833782    224.14186  0.014742296  0.014242633            2 
 1268000   0.75509617   -8.3934322    224.24689  0.014737572   0.01423002            2 
 1269000    0.7540943   -8.3535711    224.26225  0.014726967  0.014217426            3 
 1270000   0.72780036    -8.371647     224.3486  0.014721037  0.014204829            2 
 1271000   0.74360663   -8.4023436    224.73707  0.014734925  0.014192237            3 
 1272000   0.73657619   -8.3927002    224.53491  0.014710096  0.014179672            2 
 1273000   0.72761317   -8.4017583    223.96299  0.014661102  0.014167072            2 
 1274000   0.73689348   -8.3732577    224.84868  0.014707527  0.014154508            7 
 1275000   0.75693932   -8.3871357     224.5331  0.014675366  0.014141949            1 
 1276000   0.75286378    -8.417758     224.2666   0.01464646  0.014129377            1 
 1277000   0.74100573    -8.400196    224.46852  0.014648168  0.014116823            2 
 1278000   0.75830005   -8.3935459     224.4504  0.014635525  0.014104277            1 
 1279000   0.74027662   -8.3925326    224.83611  0.014649212   0.01409173            2 
 1280000   0.74119981   -8.3824691    224.41152  0.014610125  0.014079188            2 
 1281000   0.74871132    -8.406707     224.6962  0.014617239  0.014066656            2 
 1282000   0.72017734    -8.387146    224.84921  0.014615783  0.014054147            3 
 1283000   0.74091445   -8.3982721    224.66346  0.014592327  0.014041659            1 
 1284000   0.74839716   -8.4078535    224.32558  0.014559033  0.014029192            4 
 1285000   0.74341557   -8.3920331     224.5931  0.014565052  0.014016758            4 
 1286000   0.74593933   -8.3760777    224.76958  0.014565162  0.014004312            2 
 1287000   0.72036772   -8.3892943    224.48761  0.014535587  0.013991823            3 
 1288000   0.72927009    -8.403308    224.02961  0.014494669  0.013979347            6 
 1289000   0.74786267    -8.381927    224.41138  0.014508106  0.013966874            4 
 1290000   0.73104283    -8.397728     224.5419  0.014505291  0.013954456            3 
 1291000   0.74014388   -8.3896105    224.31627  0.014479491  0.013942013            4 
 1292000   0.73919786   -8.4026411    224.38075  0.014472443  0.013929592            3 
 1293000   0.72155279   -8.4040628     224.4298  0.014464411  0.013917151            2 
 1294000   0.73098263   -8.4184959    224.22503  0.014440046  0.013904709            3 
 1295000   0.73335238   -8.4211499    224.74319  0.014462239  0.013892287            3 
 1296000   0.72324351   -8.4033088    224.39964  0.014428989    0.0138799            3 
 1297000   0.72130526   -8.4288451    224.25157   0.01440835  0.013867489            4 
 1298000   0.73554086   -8.4073483    224.01199  0.014381869  0.013855114            8 
 1299000   0.73129196   -8.4197314    223.73799   0.01435322  0.013842663            5 
 1300000    0.7352207    -8.437025    224.32139  0.014379577  0.013830245            1 
 1301000   0.72556162   -8.4553009    224.25476  0.014364256  0.013817819            3 
 1302000   0.72982365   -8.4332736     224.7045  0.014382008  0.013805448            3 
 1303000   0.74853352   -8.4226298    224.41576  0.014352504  0.013793129            5 
 1304000   0.73331925   -8.4323226    224.40443  0.014340774  0.013780837            5 
 1305000   0.74569316   -8.4172877    224.87981  0.014360141  0.013768554            2 
 1306000   0.72842416   -8.4148754    224.91146  0.014351165  0.013756267            1 
 1307000    0.7336892   -8.4289122    224.73485  0.014328924  0.013744018            3 
 1308000    0.7248695   -8.4501755    224.70837  0.014316282  0.013731708            4 
 1309000   0.72616683   -8.4303063    224.70877  0.014305371  0.013719396            2 
 1310000   0.72542972   -8.4246256    224.49286  0.014280716  0.013707089            1 
 1311000   0.72063948   -8.4292177    224.50452  0.014270565  0.013694814            3 
 1312000   0.73912683    -8.431785    224.90293  0.014284993  0.013682562            2 
 1313000   0.72867537   -8.4236763    224.98576   0.01427937  0.013670277            3 
 1314000   0.73186406   -8.4513002    224.75049  0.014253582  0.013658052            3 
 1315000    0.7459568   -8.4129448    224.74516  0.014242405  0.013645887            1 
 1316000   0.74280898   -8.4098418    225.00939  0.014248315  0.013633734            2 
 1317000   0.71641172   -8.4256463    224.73163  0.014219921  0.013621564            2 
 1318000   0.72656989    -8.429549     224.8199  0.014214713  0.013609428            2 
 1319000   0.71270697   -8.4430836    224.40621  0.014177799  0.013597244            3 
 1320000   0.73144352   -8.4761809    224.79087  0.014191343  0.013585065            2 
 1321000   0.70982367   -8.4324114    225.13095  0.014202054  0.013572877            3 
 1322000   0.73255198   -8.4535111    224.55747  0.014155161  0.013560707            2 
 1323000   0.72432066   -8.4489884    224.52878  0.014142654  0.013548591            1 
 1324000   0.72562037   -8.4603132    224.97868  0.014160289  0.013536465            2 
 1325000   0.70443283   -8.4482508    224.50865  0.014120041  0.013524344            2 
 1326000    0.7276995   -8.4612649    224.41134  0.014103277  0.013512176            1 
 1327000   0.70849817   -8.4729672     224.1696  0.014077468  0.013499969            3 
 1328000   0.72559075   -8.4511585    224.27166  0.014073272  0.013487777            4 
 1329000   0.72603498   -8.4766369    224.77538  0.014094268  0.013475651            3 
 1330000   0.70634101   -8.4548762    225.05545  0.014101219  0.013463535            5 
 1331000   0.73048333   -8.4453561     224.7164  0.014069396  0.013451437            2 
 1332000      0.72883   -8.4562606    224.42523  0.014040617  0.013439413            3 
 1333000    0.7057285   -8.4863184    224.97648  0.014064546  0.013427371            7 
 1334000   0.71673842   -8.4504203    224.77122  0.014041181  0.013415329            4 
 1335000   0.71731335    -8.456168    224.51849  0.014014887  0.013403312            1 
 1336000   0.72063479    -8.473678    224.76315  0.014019657  0.013391309            5 
 1337000   0.70907911    -8.474632    224.49418  0.013992407  0.013379336            1 
 1338000   0.73241068   -8.4802304    224.45512  0.013979516  0.013367364            4 
 1339000   0.73024775   -8.4772183    224.42948   0.01396748  0.013355377            2 
 1340000   0.72583389   -8.4825961    224.80443  0.013980375  0.013343399            3 
 1341000   0.71030272   -8.4730868    224.65226  0.013960494  0.013331419            2 
 1342000   0.72106175   -8.4772521    224.56463  0.013944649  0.013319468            3 
 1343000   0.71222846   -8.4822443    224.47476  0.013928689  0.013307534            3 
 1344000   0.71471933   -8.4618428    225.18822  0.013962564  0.013295621            2 
 1345000    0.7027985   -8.4992721    224.73809  0.013924293  0.013283714            3 
 1346000    0.7401812   -8.4797292    225.17364  0.013940914  0.013271852            6 
 1347000   0.71265862   -8.5020708    224.76475  0.013905268  0.013259958            5 
 1348000   0.71892993   -8.4855325    224.50703   0.01387902   0.01324804            4 
 1349000   0.70794021   -8.4889789    225.09454  0.013905025   0.01323616            4 
 1350000   0.71590269   -8.4829173    225.10075  0.013895108  0.013224308            3 
 1351000   0.70861962   -8.4932297    225.44795  0.013906239  0.013212501            2 
 1352000   0.71511345   -8.5102816    224.53803  0.013839869  0.013200703            9 
 1353000   0.72994882   -8.5231582     225.0036  0.013858315  0.013188906            5 
 1354000   0.70911368    -8.486208     224.6705  0.013827579  0.013177106            4 
 1355000   0.69762887   -8.5085806    225.14804  0.013846743  0.013165288            4 
 1356000   0.71149431   -8.5158109    224.90759  0.013821755  0.013153474            5 
 1357000   0.70566129   -8.4955453    224.74187  0.013801392  0.013141675            2 
 1358000   0.72010536    -8.504871     224.6017  0.013782628  0.013129896            2 
 1359000   0.71311021   -8.4804913    225.17138  0.013807419  0.013118141            2 
 1360000   0.71191812   -8.5088241    225.41865  0.013812417  0.013106372            2 
 1361000   0.71934616   -8.5081042    224.77521  0.013762871  0.013094635            4 
 1362000   0.70474488   -8.4901666    225.33716  0.013787149  0.013082914            2 
 1363000   0.70389027   -8.5176063    225.13804  0.013764859  0.013071169            1 
 1364000   0.70760477   -8.5059002    224.79852  0.013734025  0.013059451            4 
 1365000   0.71656851   -8.5020969    224.90433  0.013730423  0.013047747            4 
 1366000   0.69758825   -8.5250021    224.78027  0.013712803   0.01303602            3 
 1367000   0.70557616   -8.5318263    224.59172  0.013691277   0.01302427            3 
 1368000   0.71705709   -8.5295388    224.70951  0.013688445  0.013012571            2 
 1369000   0.70933282   -8.5091427    224.76433  0.013681783  0.013000854            1 
 1370000   0.70511665   -8.5313785    225.10162  0.013692313  0.012989116            2 
 1371000   0.70349994   -8.5370892    224.77528   0.01366249  0.012977404            1 
 1372000   0.70220071   -8.5241443    224.82146  0.013655337  0.012965695            3 
 1373000   0.71199032   -8.5239547    224.85094   0.01364718  0.012954042            2 
 1374000   0.69223201   -8.5109584    224.73323  0.013630109  0.012942368            2 
 1375000   0.70313389   -8.5112052    224.86861  0.013628401  0.012930712            1 
 1376000   0.68549411   -8.5291261    225.05478  0.013629771  0.012919077            3 
 1377000   0.70446173   -8.4852175    224.88622  0.013609672  0.012907444            3 
 1378000   0.71514327   -8.5070764    225.04249  0.013609246  0.012895843            4 
 1379000   0.70363805   -8.5015695    224.70418  0.013578933  0.012884267            2 
 1380000    0.7237995   -8.5081912    224.57674  0.013561397  0.012872676            2 
 1381000   0.71172541   -8.4903541    224.81466  0.013565934  0.012861115            4 
 1382000   0.68584362   -8.5195452    225.08423  0.013572373  0.012849591            3 
 1383000   0.71601589   -8.5231312     225.1419  0.013566034   0.01283803            3 
 1384000   0.70841735   -8.5119074    224.66698  0.013527636  0.012826452            1 
 1385000   0.69687003   -8.5195064    224.78541  0.013524995  0.012814892            1 
 1386000   0.71546183   -8.5268178    224.49682  0.013497885  0.012803342            4 
 1387000   0.73534779    -8.512399    224.84796   0.01350925  0.012791826            3 
 1388000   0.71449253   -8.4923171    224.72365  0.013492054  0.012780324            3 
 1389000   0.71148807   -8.5265741    224.79796  0.013486799   0.01276879            3 
 1390000   0.71527359   -8.5137708     224.8212  0.013478489  0.012757283            1 
 1391000   0.69346058   -8.5043811    224.88724  0.013472756  0.012745809            2 
 1392000   0.70178685   -8.5169986    225.22053   0.01348303  0.012734314            2 
 1393000   0.69756518   -8.5528772    225.14471  0.013468815  0.012722809            4 
 1394000   0.69483371     -8.53973    224.47275  0.013418983  0.012711316            2 
 1395000   0.71134454   -8.5335645    224.88232   0.01343383  0.012699822            2 
 1396000   0.68599404   -8.4914326    225.09851  0.013437112  0.012688385            5 
 1397000   0.70497782   -8.5345214    224.84688  0.013412484  0.012676925            3 
 1398000   0.68584907   -8.5157254     224.7889  0.013399434  0.012665477            2 
 1399000   0.68619287   -8.5323983    224.27742  0.013359389  0.012654035            4 
 1400000   0.69837519   -8.5342316    224.44572  0.013359864   0.01264261            3 
 1401000   0.69229674   -8.5524698    224.34133  0.013344119  0.012631178            2 
 1402000   0.69404824   -8.5141522    224.35009  0.013335122  0.012619769            5 
 1403000   0.68964185   -8.5073187    224.77546  0.013350882  0.012608364            3 
 1404000   0.68442115   -8.5316771    224.72664  0.013338476   0.01259695            4 
 1405000   0.70106468   -8.5284286    224.50349  0.013315747  0.012585517            2 
 1406000   0.68719422   -8.5553498    224.46527  0.013304011  0.012574081            4 
 1407000     0.708991   -8.5622732     224.5068  0.013297015  0.012562668            3 
 1408000   0.69636769   -8.5298698    225.04801  0.013319603  0.012551305            4 
 1409000   0.69326842   -8.5442051    224.48108  0.013276619  0.012539936            2 
 1410000   0.69256879   -8.5454529    224.71254  0.013280883  0.012528572            1 
 1411000   0.68090712   -8.5512344    224.68279  0.013269714  0.012517211            3 
 1412000   0.68986005   -8.5759868     224.5841  0.013254491   0.01250585            3 
 1413000   0.67775765   -8.5478344     224.3466  0.013231104  0.012494493            2 
 1414000   0.68290117   -8.5418892    224.58333  0.013235698  0.012483153            4 
 1415000   0.68185799   -8.5382661    224.33803  0.013211898  0.012471813            2 
 1416000   0.69379383   -8.5339579    224.36608  0.013204218  0.012460472            3 
 1417000   0.67043057   -8.5687456    224.57705  0.013207307  0.012449165            3 
 1418000   0.67007791       -8.533    224.73953  0.013207542  0.012437858            2 
 1419000   0.67871457   -8.5311134    224.41957  0.013179444  0.012426587            2 
 1420000   0.68639705   -8.5591578     224.0302  0.013147312  0.012415308            2 
 1421000   0.69194902   -8.5388169    224.27953  0.013152682  0.012404026            1 
 1422000   0.68334147   -8.5562482    224.54227   0.01315883  0.012392759            6 
 1423000   0.68810896   -8.5475205     224.3451  0.013138036  0.012381495            7 
 1424000   0.69451896   -8.5771828    224.29824  0.013126068  0.012370223            1 
 1425000   0.69038052   -8.5389019    224.45059  0.013125765  0.012358987            3 
 1426000   0.67600992   -8.5523922    224.49815   0.01311934  0.012347744            3 
 1427000   0.68383758   -8.5692155    224.41403  0.013105234  0.012336526            2 
 1428000   0.69023849   -8.5506489    224.68459  0.013111846   0.01232529            3 
 1429000   0.69523256   -8.5804201    224.41091   0.01308671  0.012314084            4 
 1430000   0.67422108   -8.5750603     224.2602  0.013068776  0.012302887            3 
 1431000   0.67968156   -8.5678807    224.37186  0.013066146  0.012291704            5 
 1432000   0.68369432   -8.5502563    224.33683  0.013054983  0.012280503            6 
 1433000   0.67723604   -8.5459429    224.43283  0.013051455  0.012269317            2 
 1434000   0.68702747   -8.6031249    223.97845  0.013015949  0.012258142            2 
 1435000   0.67364321   -8.5400594    224.49146   0.01303667  0.012246983            3 
 1436000   0.69857775   -8.5817512    224.51927  0.013029205   0.01223584            4 
 1437000   0.68371289   -8.5787208    224.62053  0.013026011  0.012224745            1 
 1438000   0.68677895   -8.5810624    224.68415  0.013020639  0.012213621            2 
 1439000   0.68461189    -8.576381    224.69875  0.013012437  0.012202519            2 
 1440000   0.68166892   -8.5863997    224.14497  0.012971353   0.01219142            2 
 1441000   0.67438653    -8.595493    224.32177  0.012972575  0.012180336            2 
 1442000   0.68414208   -8.5646472    224.48019  0.012972734  0.012169273            3 
 1443000   0.67410768   -8.5725285    224.15695  0.012945077  0.012158188            2 
 1444000   0.67987326   -8.5905285    224.65014  0.012964574  0.012147119            4 
 1445000   0.68372975    -8.584382    224.73999  0.012960784  0.012136072            3 
 1446000   0.68012619   -8.5956026    224.30579  0.012926798   0.01212507            2 
 1447000   0.67040416   -8.5688304    224.91946  0.012953205  0.012114064            2 
 1448000   0.67302192   -8.5646055    224.32812  0.012910228  0.012103065            2 
 1449000   0.66057609   -8.5931399    224.44202  0.012907869  0.012092082            2 
 1450000   0.67322507    -8.608838    224.26884  0.012889014  0.012081097            4 
 1451000   0.67333308   -8.5783791    224.38366  0.012886725  0.012070137            2 
 1452000   0.67558667   -8.5936426    224.25981  0.012870742  0.012059202            2 
 1453000   0.68567486   -8.5752786     224.3734  0.012868399  0.012048266            2 
 1454000   0.67776371   -8.5747423     224.2965  0.012855141  0.012037309            2 
 1455000   0.68940087   -8.5740864     224.2849  0.012845641  0.012026348            1 
 1456000   0.69360756   -8.5664803     224.0906  0.012825698  0.012015406            7 
 1457000   0.68591477   -8.5880592     223.9776  0.012810433  0.012004462            3 
 1458000    0.6815195   -8.5851256    223.99858  0.012802845  0.011993528            6 
 1459000   0.67311274   -8.6096458       224.26  0.012809002  0.011982579            4 
 1460000   0.65355744   -8.6176118    224.55912  0.012817302  0.011971629            3 
 1461000   0.67622744   -8.5958765     224.3272    0.0127953  0.011960709            3 
 1462000   0.66214919   -8.5895807    223.96008  0.012765623  0.011949762            2 
 1463000   0.66157408    -8.597558    224.26819  0.012774447   0.01193883            3 
 1464000   0.66223237   -8.6259034    223.99226  0.012750015  0.011927886            3 
 1465000   0.67441374   -8.6052936    223.66905  0.012722927   0.01191695            2 
 1466000   0.67883681   -8.6247442     223.7075  0.012716434  0.011906009            8 
 1467000    0.6645264   -8.6352251     223.8337  0.012714934  0.011895075            4 
 1468000   0.66314224   -8.6081768    223.81559  0.012705244   0.01188415            2 
 1469000   0.66833676   -8.6124728    223.32153  0.012668569  0.011873239            4 
 1470000   0.67667396   -8.5903141    223.80987  0.012687635  0.011862326            4 
 1471000   0.66490908   -8.6377752    223.25979  0.012647847  0.011851444            2 
 1472000   0.67703062   -8.5944839    223.91778  0.012676505  0.011840577            2 
 1473000   0.66230462    -8.621995     224.4508  0.012698054   0.01182973            3 
 1474000   0.65946226   -8.6095168    223.85944  0.012656007   0.01181888            2 
 1475000   0.66341583   -8.6546452    224.12724  0.012662556  0.011808029            4 
 1476000   0.67325362   -8.6439583    223.56776  0.012622389  0.011797183            2 
 1477000   0.65229706   -8.6103214    223.88472  0.012631726  0.011786332            2 
 1478000   0.65612747   -8.6366132    223.74801  0.012615472   0.01177551            4 
 1479000   0.66118391   -8.6023797     224.0435  0.012623591  0.011764705            3 
 1480000   0.65973722   -8.6150487    223.23674  0.012569636    0.0117539            4 
 1481000   0.66737176   -8.6308595    223.85549  0.012595965  0.011743085            1 
 1482000   0.65954929   -8.6157471     223.7182  0.012579746  0.011732298            3 
 1483000   0.65874155   -8.6005849    224.20217  0.012598458  0.011721532            2 
 1484000   0.66862576   -8.6432648    223.90016   0.01257301  0.011710765            2 
 1485000   0.65732065   -8.6345531    224.06624  0.012573863  0.011699982            4 
 1486000   0.65604393   -8.6306841    224.08387   0.01256639  0.011689222            2 
 1487000   0.65124418   -8.6362889    223.68797  0.012535752   0.01167847            2 
 1488000   0.66211936   -8.6134877    223.80469  0.012533865   0.01166775            2 
 1489000   0.66262691   -8.6499898    223.81946  0.012526274  0.011657056            2 
 1490000   0.66097296   -8.6129398    223.68758  0.012510491  0.011646377            3 
 1491000   0.65599296   -8.6240076    223.77122  0.012506775   0.01163568            2 
 1492000   0.66055617   -8.6341299    223.83184  0.012501778  0.011624994            8 
 1493000   0.66091643   -8.6405609    223.66388   0.01248403  0.011614304            2 
 1494000   0.65230452   -8.6077025    223.96269  0.012492341  0.011603605            2 
 1495000   0.65551384    -8.631967    223.65041  0.012466578  0.011592931            3 
 1496000   0.66339676   -8.6296229    223.53197  0.012451647  0.011582258            3 
 1497000   0.65312535   -8.6616509    223.46683  0.012439703  0.011571605            2 
 1498000   0.65322531   -8.6504801     223.6012  0.012438874  0.011560971            3 
 1499000   0.66135904   -8.6402302    223.74439  0.012438536  0.011550326            2 
 1500000   0.65364922   -8.6478763    223.82432  0.012434684  0.011539694            5 
 1501000   0.64701185   -8.6140568    223.79045   0.01242452  0.011529082            4 
 1502000   0.66115391   -8.6458111    223.87854  0.012421135  0.011518491            5 
 1503000   0.64735244   -8.6403843    223.58223  0.012396442  0.011507891            3 
 1504000   0.64369386   -8.6595625    223.83108  0.012401988    0.0114973            4 
 1505000   0.67292247   -8.6482875    223.51891  0.012376462  0.011486734            2 
 1506000   0.65001227   -8.6525014    223.74913  0.012380983  0.011476174            4 
 1507000   0.63846541   -8.6588233    223.70605  0.012370385  0.011465633            2 
 1508000   0.63359618   -8.6392359    223.63696  0.012358364   0.01145511            2 
 1509000   0.64969494   -8.6383294    223.61901  0.012349183  0.011444587            1 
 1510000   0.65804497   -8.6545318    223.43948  0.012331097   0.01143407            2 
 1511000   0.66923446   -8.6536301    223.80511  0.012343101   0.01142356            3 
 1512000   0.65116621   -8.6451521    223.87247   0.01233865  0.011413082            3 
 1513000   0.65508843   -8.6512287    223.22635  0.012294908  0.011402593            3 
 1514000   0.64778355    -8.636137    223.30024  0.012290854  0.011392106            2 
 1515000   0.64534492   -8.6491661     223.3578  0.012285908  0.011381638            4 
 1516000   0.66217843    -8.671624    223.57298  0.012289632  0.011371157            2 
 1517000   0.64901854    -8.631354    223.80675  0.012294372  0.011360713            3 
 1518000   0.63821136   -8.6621999    223.61644  0.012275825  0.011350292            1 
 1519000   0.65186473   -8.6483863    223.55623  0.012264441  0.011339845            3 
 1520000   0.63078992   -8.6685632    223.32054  0.012243451  0.011329415            3 
 1521000    0.6356376   -8.6673639    223.05121  0.012220645  0.011318996            1 
 1522000   0.65895689   -8.6574171    223.30292  0.012226397  0.011308576            3 
 1523000   0.65235711    -8.672634    223.49259  0.012228748  0.011298165            2 
 1524000   0.64619922   -8.6524949    223.14234  0.012201572  0.011287761            7 
 1525000   0.64098065   -8.6959727    222.93254  0.012182106  0.011277378            4 
 1526000   0.64847134   -8.6738237    223.44927  0.012202341  0.011267005            2 
 1527000   0.64740514   -8.6505143    223.18737  0.012180057  0.011256644            2 
 1528000    0.6411047   -8.6707759    223.34473  0.012180668    0.0112463            5 
 1529000    0.6384447   -8.6684607     223.4648  0.012179245  0.011235955            3 
 1530000   0.64465322   -8.6816296    223.37632  0.012166466   0.01122564            4 
 1531000   0.63562416   -8.6549056     223.6438  0.012173079   0.01121532            2 
 1532000   0.65865641   -8.6949425    222.85207  0.012122066   0.01120502            2 
 1533000   0.66291445   -8.6740335    224.08852  0.012181372  0.011194733            3 
 1534000   0.63971362   -8.6717511    223.43655  0.012138013  0.011184454            1 
 1535000   0.62769509   -8.6693817    223.26759  0.012120933  0.011174175            4 
 1536000   0.63207725   -8.6671112    223.08642  0.012103213  0.011163915            1 
 1537000   0.63950945   -8.6637723    223.81276  0.012134719  0.011153685            3 
 1538000   0.63990452   -8.6581558    223.59539  0.012115051  0.011143469            4 
 1539000   0.63758557   -8.6688644    223.55088  0.012104769  0.011133256            5 
 1540000   0.63778277   -8.6883014    223.40271  0.012088891   0.01112305            5 
 1541000   0.64455778   -8.6659118    223.23943  0.012072217  0.011112852            2 
 1542000   0.64658032   -8.6434613    223.35431  0.012070596  0.011102652            2 
 1543000   0.64673774   -8.6731488    223.53391  0.012072473  0.011092479            4 
 1544000   0.64138455   -8.6767989    222.99231  0.012035422  0.011082322            1 
 1545000    0.6428645   -8.6891621    223.57941  0.012059299  0.011072176            3 
 1546000   0.65464782   -8.6805722    223.28001  0.012035361  0.011062022            2 
 1547000   0.64568389   -8.6672655    222.68764  0.011995671  0.011051891            4 
 1548000   0.63300681   -8.6656202    223.08973  0.012009568   0.01104178            5 
 1549000   0.62975246   -8.6881109    223.39474  0.012018224  0.011031667            1 
 1550000    0.6308466   -8.6739295    223.20894  0.012000481  0.011021567            4 
 1551000   0.63353415   -8.6717936    223.05788  0.011984627  0.011011503            3 
 1552000   0.62428276   -8.6942281    223.22829  0.011986055  0.011001443            2 
 1553000   0.62063912   -8.6923592     223.1701  0.011975215  0.010991372            7 
 1554000   0.62630268   -8.6927678    222.97456  0.011957022  0.010981315            2 
 1555000   0.61738689   -8.6623564    223.42438   0.01197344  0.010971253            3 
 1556000   0.62817952   -8.6844248    223.30513  0.011959358  0.010961186            7 
 1557000   0.62507467   -8.6850315     223.2483  0.011948635  0.010951121            2 
 1558000    0.6219784   -8.6791751    223.19086  0.011937894  0.010941057            3 
 1559000   0.63353491   -8.6771853    223.18193  0.011929759  0.010931019            2 
 1560000   0.62013048   -8.6745749    223.16575  0.011921248  0.010921016            2 
 1561000   0.62110673   -8.7073079    222.93827  0.011901466  0.010911015            2 
 1562000   0.62955493     -8.68373    222.78118  0.011885466  0.010901031            4 
 1563000   0.64338701    -8.680985    222.88128  0.011883199  0.010891066            3 
 1564000   0.63248636   -8.6619255    223.76223   0.01192254  0.010881136            4 
 1565000   0.62249861   -8.6950846    223.27301  0.011888871  0.010871177            3 
 1566000   0.63418764   -8.6976906    222.80294  0.011856266   0.01086123            2 
 1567000   0.63204556   -8.6737141    223.40503  0.011880718   0.01085129            4 
 1568000   0.62237918   -8.7120636    223.16226  0.011860239  0.010841366            2 
 1569000   0.62065459   -8.7077297    223.00072    0.0118441  0.010831437            3 
 1570000   0.62296853   -8.6751896    222.54395  0.011812311   0.01082152            5 
 1571000    0.6195748   -8.6969781    223.27467  0.011843553  0.010811644            2 
 1572000   0.63263722   -8.6922818    223.22192  0.011833223  0.010801778            3 
 1573000    0.6302375   -8.6946372    223.08887  0.011818652  0.010791923            2 
 1574000   0.62425392   -8.7123232    222.91208  0.011801783  0.010782079            3 
 1575000   0.62744702   -8.7036382    223.09121  0.011803768  0.010772225            2 
 1576000   0.62434861   -8.6874706     223.2644  0.011805436  0.010762388            2 
 1577000   0.62269439   -8.6700871    223.29706  0.011799676   0.01075256            3 
 1578000   0.62374431   -8.7090049    223.23895  0.011789129  0.010742728            2 
 1579000   0.62147476   -8.6804724    223.14059  0.011776472    0.0107329            2 
 1580000   0.61928193   -8.7054148    222.60111  0.011740565  0.010723099            2 
 1581000   0.60995341   -8.6989035    222.72772  0.011739812  0.010713293            1 
 1582000   0.61704304    -8.713065    222.68618  0.011730203  0.010703488            5 
 1583000   0.62642251   -8.6885576    223.14091  0.011746731  0.010693706            2 
 1584000   0.61702097   -8.7130569     222.8197  0.011722417  0.010683928            3 
 1585000   0.62085496   -8.7059594    223.03235  0.011726201  0.010674169            2 
 1586000   0.61772069   -8.7036951    223.45959  0.011741256  0.010664423            3 
 1587000   0.61998716   -8.6963681    223.03046  0.011711324  0.010654704            3 
 1588000   0.61876396   -8.7047266    223.15128   0.01171029  0.010645003            2 
 1589000   0.61142505   -8.7075616    223.12982  0.011701794  0.010635307            3 
 1590000   0.62217853   -8.7099349    223.23939  0.011700177  0.010625618            6 
 1591000   0.61798891   -8.7198974    223.15604  0.011688458  0.010615945            2 
 1592000   0.61468192    -8.684782    222.81465  0.011663246  0.010606288            3 
 1593000    0.6227729   -8.7017101    223.22215  0.011677242  0.010596632            3 
 1594000   0.60725438   -8.6984781    223.07128  0.011662028  0.010586959            4 
 1595000   0.61589695   -8.7274692     223.1103  0.011656755  0.010577312            6 
 1596000   0.61140096   -8.7120188    222.85427  0.011636084  0.010567687            3 
 1597000   0.60723411   -8.7009106    223.24942  0.011649416  0.010558064            5 
 1598000   0.61942007   -8.7156688    223.27535  0.011643479  0.010548447            5 
 1599000   0.60771944   -8.7369304    223.14384  0.011629343  0.010538837            5 
 1600000   0.61162595   -8.7340721    223.25131  0.011627672  0.010529242            3 
 1601000   0.61789061   -8.7228742    223.16116  0.011615717   0.01051965            2 
 1602000   0.61164245   -8.7041351    223.15723  0.011608262  0.010510065            4 
 1603000   0.61649413   -8.7452382    223.40168  0.011613729  0.010500478            3 
 1604000   0.62201713    -8.727738    222.78983    0.0115747  0.010490906            3 
 1605000    0.6094099   -8.7170336    223.52851  0.011605842  0.010481362            3 
 1606000   0.61297419   -8.7331685    223.13157  0.011578019  0.010471805            2 
 1607000   0.60434085   -8.7309112    222.88347  0.011557948  0.010462254            3 
 1608000   0.59907434   -8.7455972    222.96531  0.011555001  0.010452723            2 
 1609000   0.62355046   -8.7213134    223.22633  0.011561339  0.010443197            2 
 1610000   0.60536853   -8.7201773     222.8528  0.011534824   0.01043369            1 
 1611000   0.60765019   -8.7521228     222.8176  0.011525843  0.010424183            3 
 1612000   0.61186579   -8.7477367    222.27009  0.011490389  0.010414684            3 
 1613000   0.60749477   -8.7283144    223.15118  0.011528786  0.010405192            3 
 1614000   0.60897335   -8.7365403     222.8557  0.011506387   0.01039571            3 
 1615000   0.60562353   -8.7248863    222.90464  0.011501787  0.010386261            2 
 1616000   0.60657229   -8.7132594    223.23727  0.011511823  0.010376817            3 
 1617000   0.58906329    -8.743035    222.83715  0.011484083  0.010367379            4 
 1618000   0.60934324   -8.7383823    223.04764  0.011487826  0.010357961            4 
 1619000   0.60748702   -8.7307036    223.23536  0.011490393  0.010348553            3 
 1620000   0.60945218    -8.735281    222.82486  0.011462184  0.010339157            5 
 1621000   0.60134539   -8.7524222    222.81625   0.01145467  0.010329769            1 
 1622000    0.6197073   -8.7448532    223.10184  0.011462281   0.01032038            2 
 1623000   0.60532715   -8.7445234    222.68939  0.011434041  0.010310989            2 
 1624000   0.61163595   -8.7555906    222.72636  0.011428898  0.010301616            4 
 1625000   0.61112735   -8.7489752    222.76416  0.011423803  0.010292242            3 
 1626000   0.61211853   -8.7258055    222.71155  0.011414081  0.010282897            5 
 1627000   0.60356408   -8.7476859    222.73849  0.011408445  0.010273554            3 
 1628000   0.60565663   -8.7548692    222.50387  0.011389428  0.010264218            1 
 1629000   0.59369318    -8.741819    222.60745  0.011387736  0.010254881            2 
 1630000   0.60280643   -8.7466517    222.69088  0.011385015  0.010245579            2 
 1631000   0.59118607   -8.7604461    222.18714  0.011352296  0.010236284            5 
 1632000   0.60366939   -8.7428561    222.85914  0.011379654  0.010226978            2 
 1633000   0.61721714   -8.7532572    222.91622  0.011375598    0.0102177            6 
 1634000    0.6086283   -8.7582288    222.80344  0.011362885  0.010208427            1 
 1635000   0.60931299   -8.7474815    222.38374  0.011334543  0.010199147            4 
 1636000   0.59272599    -8.761396     222.2812  0.011322392  0.010189879            2 
 1637000    0.5963385   -8.7660218    222.61795  0.011332618  0.010180621            3 
 1638000   0.58582478   -8.7627929    223.00357  0.011345318  0.010171374            4 
 1639000   0.58327896   -8.7558652    222.98722  0.011337564  0.010162147            3 
 1640000   0.59002385   -8.7395028    222.79663  0.011320967  0.010152946            2 
 1641000   0.59150719   -8.7420297    223.02423  0.011325626   0.01014375            4 
 1642000    0.6036864   -8.7431973     222.8139  0.011308054  0.010134575            3 
 1643000   0.59825678    -8.732111    222.99169  0.011310189  0.010125407            3 
 1644000   0.59603192   -8.7331329    222.81563  0.011294385  0.010116257            3 
 1645000   0.59419555   -8.7303187    222.70181  0.011281753  0.010107123            3 
 1646000    0.5919016   -8.7478245    222.18945  0.011248959  0.010097984            1 
 1647000   0.60713159   -8.7501792     222.6896  0.011267436   0.01008887            6 
 1648000   0.59955756   -8.7486033    223.02091  0.011277352  0.010079771            4 
 1649000   0.60617465   -8.7467407    222.83003  0.011260867  0.010070686            2 
 1650000   0.60822997   -8.7519834    222.70864  0.011247911  0.010061592            2 
 1651000   0.60490042   -8.7489333    222.72792  0.011242071  0.010052502            2 
 1652000   0.59097849   -8.7490027    222.83091  0.011240462  0.010043439            2 
 1653000   0.59156024   -8.7531616    222.95825  0.011240081  0.010034379            4 
 1654000   0.60078834   -8.7479478    222.72188  0.011221376  0.010025323            2 
 1655000   0.58889016   -8.7387127    222.87813  0.011222464  0.010016283            3 
 1656000   0.59091141   -8.7530982     222.9074   0.01121716  0.010007255            2 
 1657000   0.59322155   -8.7406946    222.63618   0.01119675 0.0099982264            1 
 1658000    0.5976151   -8.7563306    222.50424  0.011183365 0.0099892203            2 
 1659000   0.58635326    -8.758779     222.4703   0.01117492 0.0099802242            4 
 1660000   0.58362259   -8.7346065    223.01468  0.011195516 0.0099712229            2 
 1661000   0.59558787   -8.7577464    222.66653  0.011171309 0.0099622319            3 
 1662000   0.58358874   -8.7456151    223.04585  0.011183607 0.0099532539            2 
 1663000   0.58874735   -8.7691056    222.65375  0.011157234 0.0099442864            2 
 1664000   0.57511376   -8.7722555     222.5944  0.011147556 0.0099353151            5 
 1665000   0.58528723   -8.7595295    222.54825  0.011138551 0.0099263489            2 
 1666000   0.58499778   -8.7728778    222.31585  0.011120241  0.009917395            3 
 1667000   0.60060646   -8.7681462    222.40992  0.011118273 0.0099084503            1 
 1668000   0.57520065   -8.7720674    221.98929  0.011090592 0.0098995077            6 
 1669000   0.58171366   -8.7653899    222.78785  0.011123819 0.0098905923            4 
 1670000   0.58235615   -8.7655772    222.62373  0.011108969 0.0098816702            2 
 1671000   0.58085216   -8.7739686    222.33239  0.011087791 0.0098727537            1 
 1672000   0.57993602   -8.7645397    222.45643  0.011087342 0.0098638554            2 
 1673000   0.58854442   -8.7564549    223.05016  0.011110289  0.009854964            3 
 1674000   0.58384171   -8.7824504    221.94848  0.011048809  0.009846084            2 
 1675000   0.59096376   -8.7797607      222.636  0.011076418 0.0098372174            2 
 1676000   0.59823204   -8.7981251    222.25675  0.011050952 0.0098283638            3 
 1677000   0.59620133   -8.7813504    222.55509  0.011059188 0.0098194995            4 
 1678000    0.5927994   -8.7643572    222.49361  0.011049544 0.0098106617            2 
 1679000   0.57694047   -8.7888323    222.30391  0.011033547 0.0098018241            2 
 1680000   0.57474391   -8.7631294    222.37973   0.01103074 0.0097929996            3 
 1681000   0.58187596   -8.7794741    222.18038  0.011014296 0.0097841806            2 
 1682000   0.58611097   -8.7908493    222.44225  0.011020722 0.0097753829            4 
 1683000   0.58910046   -8.7893234    222.34795  0.011009504 0.0097665764            6 
 1684000   0.56364389   -8.7855284    222.93954  0.011032242 0.0097577963            2 
 1685000   0.58691533   -8.7720377    222.09258  0.010983807 0.0097490119            3 
 1686000   0.57795556   -8.7867245    222.57668   0.01100122 0.0097402528            2 
 1687000   0.57974733   -8.7820637     222.6845  0.011000025 0.0097314971            3 
 1688000    0.5813352   -8.7849306    222.49882  0.010984342 0.0097227444            2 
 1689000   0.57792451   -8.7895257     222.2548  0.010965799 0.0097139973            3 
 1690000   0.58738169   -8.8114682    222.16294   0.01095478 0.0097052817            5 
 1691000   0.58596914   -8.7851247    222.86538  0.010982918 0.0096965652            2 
 1692000   0.58668406   -8.7739506    222.23428  0.010945345 0.0096878587            5 
 1693000    0.5739554   -8.7734034    222.35316  0.010944731 0.0096791724            5 
 1694000   0.58207165   -8.7954832    222.33266  0.010937262 0.0096704833            3 
 1695000   0.58848988   -8.7948806     222.2612  0.010927296 0.0096618001            5 
 1696000   0.56425307   -8.7888842    222.65948  0.010940423  0.009653129            6 
 1697000   0.57663345   -8.8072956    222.13388  0.010908165  0.009644455            4 
 1698000   0.58149736    -8.795904    222.05328  0.010897786 0.0096357979            6 
 1699000    0.5709209   -8.8048851    222.40653  0.010908698 0.0096271366            6 
 1700000    0.5667801   -8.7936804    222.56477  0.010910038 0.0096184995            3 
 1701000   0.57133597   -8.8063919    222.54078  0.010902449 0.0096098528            3 
 1702000   0.58988602   -8.7895792    222.41918  0.010890089 0.0096012336            3 
 1703000   0.57055059   -8.7959142    222.46849  0.010886107 0.0095926244            5 
 1704000   0.58638177   -8.7827196    222.58858  0.010885592 0.0095840192            3 
 1705000   0.57493795   -8.7988252    222.37583  0.010868809 0.0095754264            2 
 1706000   0.57093546    -8.800471    222.38686  0.010862977 0.0095668504            5 
 1707000   0.57074465   -8.8175197    222.23629  0.010849262  0.009558269            3 
 1708000   0.56860685   -8.7908077    222.09008  0.010835777 0.0095496979            8 
 1709000   0.58162941   -8.8072247    221.98537  0.010824331 0.0095411376            5 
 1710000    0.5810183   -8.8105982    222.22473  0.010829665 0.0095325755           10 
 1711000   0.57515546   -8.8026923    222.17332  0.010820832 0.0095240219            2 
 1712000   0.57383487   -8.8024331     222.5406  0.010832389 0.0095154737            3 
 1713000   0.58117789   -8.7987456    222.08667  0.010803983 0.0095069259            3 
 1714000   0.58140852   -8.8280635    222.31711  0.010808883 0.0094983982            3 
 1715000   0.57704154    -8.799341    222.01594  0.010787946 0.0094898729            6 
 1716000   0.56412827   -8.8078032    222.57825  0.010808967 0.0094813592            5 
 1717000   0.57615887   -8.8003363    221.91345  0.010770406 0.0094728687            5 
 1718000   0.57777497    -8.815647    222.07417  0.010771933 0.0094643743            3 
 1719000   0.57092011   -8.8263807     222.0511  0.010764548  0.009455892            3 
 1720000   0.55880847   -8.8106797    221.95166  0.010753472 0.0094474157            5 
 1721000   0.56037252   -8.8248163    222.20292   0.01075939 0.0094389399            4 
 1722000   0.57229879   -8.8072063    222.08137  0.010747259 0.0094304774            3 
 1723000   0.55686486   -8.8047675    222.10042  0.010741943 0.0094220181            2 
 1724000   0.57415666   -8.8311363    221.74676  0.010718618 0.0094135547            6 
 1725000   0.56529165    -8.822392    222.08006  0.010728506 0.0094051077            3 
 1726000   0.56301696   -8.8057744    221.67381  0.010702675 0.0093966758            3 
 1727000   0.56111338   -8.8083928    222.23454  0.010723535 0.0093882562            2 
 1728000   0.56091226   -8.8202966    221.69861  0.010691484 0.0093798597            6 
 1729000   0.57028874   -8.8233851     221.9182  0.010695884 0.0093714646            4 
 1730000   0.56175155   -8.8138984    222.09268  0.010698106 0.0093630734            1 
 1731000    0.5629491   -8.8375675    221.86199   0.01068082 0.0093546853            3 
 1732000   0.55810435   -8.8285484    222.02916  0.010682696 0.0093463165            6 
 1733000   0.55708091   -8.8161262    221.85385  0.010668102 0.0093379582            8 
 1734000   0.56131655   -8.8076118     221.9024  0.010664283 0.0093296057            3 
 1735000   0.55777956   -8.8392503    221.84656  0.010655454 0.0093212537            4 
 1736000   0.55922012   -8.8297738    222.02133  0.010657706 0.0093129136            2 
 1737000   0.54867358   -8.8128463    221.63988   0.01063327 0.0093045957            2 
 1738000   0.56319244   -8.8293041    222.31284  0.010659419   0.00929628            2 
 1739000   0.56156769   -8.8360257    221.86141  0.010631656 0.0092879625            2 
 1740000   0.56250669   -8.8204863    221.77826  0.010621564 0.0092796635            3 
 1741000    0.5496837   -8.8386364    221.86581  0.010619654 0.0092713708            3 
 1742000   0.55620361    -8.822908    221.87788  0.010614135  0.009263094            1 
 1743000   0.54759061   -8.8409119    221.66857  0.010598038 0.0092548225            1 
 1744000    0.5607452   -8.8487019     221.8593  0.010601075 0.0092465631            3 
 1745000   0.55679177   -8.8363881    222.08519  0.010605787 0.0092383102            2 
 1746000   0.56038794   -8.8298323    221.70897  0.010581757  0.009230067            3 
 1747000   0.56376325   -8.8439173    221.77723  0.010578956 0.0092218389            2 
 1748000    0.5654043    -8.842408    221.84287  0.010576033 0.0092136038            3 
 1749000   0.56216364     -8.83769    221.84643  0.010570156 0.0092053772            3 
 1750000   0.54753478   -8.8440091    222.07324  0.010574916 0.0091971486            2 
 1751000   0.56270161   -8.8393099    221.52463  0.010542767 0.0091889329            3 
 1752000   0.56557655   -8.8550904    221.54639  0.010537785 0.0091807319            2 
 1753000   0.54737799   -8.8368689    221.83234  0.010545367 0.0091725404            4 
 1754000   0.55554723   -8.8425981    221.61242  0.010528906 0.0091643621            5 
 1755000    0.5567604   -8.8324226    221.79012  0.010531345 0.0091561849            4 
 1756000   0.55056191   -8.8430831    221.42378  0.010507962 0.0091480272            3 
 1757000   0.54989376   -8.8274092    221.90294  0.010524708 0.0091398684            3 
 1758000   0.54670283   -8.8351891    221.71185  0.010509663 0.0091317256            2 
 1759000   0.54915873   -8.8305408    221.77828  0.010506835 0.0091236016            4 
 1760000   0.56179746   -8.8411146    221.55099  0.010490104 0.0091154943            3 
 1761000   0.54448834   -8.8379361    221.56156  0.010484647  0.009107386            3 
 1762000   0.54900418   -8.8460914    221.74319  0.010487287 0.0090992883            4 
 1763000   0.54001126   -8.8341463    221.56005  0.010472681 0.0090911986            3 
 1764000   0.54843733   -8.8548247    221.91468  0.010483498 0.0090831165            3 
 1765000   0.55663542   -8.8417721     221.7677  0.010470619 0.0090750375            3 
 1766000   0.55155374   -8.8562346    221.31543  0.010443348  0.009066959            3 
 1767000   0.54831416   -8.8404237    221.55735  0.010448847 0.0090588926            2 
 1768000   0.53431093   -8.8645415    221.68716  0.010449055 0.0090508367            3 
 1769000   0.55095395   -8.8701967    221.44273  0.010431634 0.0090427884            2 
 1770000   0.54788592   -8.8718434    222.06999  0.010455272 0.0090347549            2 
 1771000   0.54791676   -8.8564492    221.39518  0.010417616 0.0090267196            2 
 1772000   0.53989769   -8.8540862    221.62626  0.010422604 0.0090186925            3 
 1773000   0.55202049   -8.8456893    221.91831  0.010430453 0.0090106753            2 
 1774000    0.5422801   -8.8588218    221.69898   0.01041427 0.0090026592            3 
 1775000   0.54668311   -8.8623714    221.92924  0.010419213 0.0089946626            4 
 1776000   0.52759309   -8.8494023    221.92177  0.010412996 0.0089866699            1 
 1777000   0.53204447    -8.850252    221.64008  0.010393926  0.008978693            2 
 1778000   0.54575231   -8.8507566    221.70098  0.010390935  0.008970715            3 
 1779000   0.53886535   -8.8593576    221.64693  0.010382562 0.0089627541            2 
 1780000   0.53817052   -8.8685173    221.38901  0.010364654 0.0089547954            2 
 1781000   0.54246887   -8.8601453    221.41068  0.010359848 0.0089468437            2 
 1782000   0.54639824   -8.8518571    221.12526  0.010340687 0.0089389015            2 
 1783000   0.53731509   -8.8431106    221.22658  0.010339623  0.008930974            2 
 1784000   0.54547513   -8.8600029    221.74618  0.010358099 0.0089230473            2 
 1785000   0.54485425    -8.867109    221.58898  0.010344957 0.0089151385            2 
 1786000   0.54123879   -8.8663765    221.62547  0.010340868 0.0089072374            2 
 1787000    0.5476928    -8.879803    221.75989  0.010341349 0.0088993532            2 
 1788000   0.53635032   -8.8738103    221.62227  0.010329151 0.0088914682            4 
 1789000   0.53809926   -8.8759232    221.47111  0.010316337 0.0088835953            2 
 1790000   0.54944764   -8.8676876    221.30682  0.010302924   0.00887572            6 
 1791000   0.54169563    -8.874871    221.52552  0.010307348 0.0088678664            2 
 1792000   0.53573839   -8.8603486    221.08855  0.010281276 0.0088600135            2 
 1793000   0.54948999   -8.8582154    221.25247   0.01028316 0.0088521664            6 
 1794000   0.53930557    -8.871438    221.93358  0.010309066 0.0088443295            7 
 1795000   0.54618246    -8.862343    221.45637  0.010281168 0.0088365059            6 
 1796000   0.54022671   -8.8657617    221.31929  0.010269084 0.0088286811            4 
 1797000   0.53539503   -8.8799118    221.62744  0.010277659 0.0088208705            3 
 1798000   0.53629482   -8.8598161    220.99491  0.010242627 0.0088130632            4 
 1799000   0.53685841   -8.8907195    221.48284  0.010259535 0.0088052714            2 
 1800000   0.53851417    -8.874753    221.41835   0.01025085 0.0087974832            5 
 1801000   0.52797695   -8.8935116    220.99094  0.010225381 0.0087897052            5 
 1802000   0.53521487   -8.8720579    221.55387  0.010245739 0.0087819285            2 
 1803000   0.52780122   -8.8724704    221.45791  0.010235622  0.008774176            2 
 1804000   0.53812873   -8.8818905    221.12137  0.010214402 0.0087664249            5 
 1805000   0.54411511   -8.8826819    221.41037  0.010222085 0.0087586903            3 
 1806000    0.5234575   -8.8701746     221.0765   0.01020102 0.0087509583            3 
 1807000   0.52871615   -8.8771608     221.2361  0.010202735 0.0087432302            2 
 1808000   0.52384935   -8.8793527    221.25341  0.010197889  0.008735504            5 
 1809000   0.52309209    -8.877345    221.72518  0.010213985 0.0087277997            3 
 1810000   0.53738183   -8.8741071    221.48347  0.010197213 0.0087200968            6 
 1811000    0.5334536   -8.8984996    221.30344  0.010183298 0.0087124046            5 
 1812000   0.52542575   -8.8935118     221.2668  0.010175993 0.0087047234            4 
 1813000   0.54081568    -8.874403    221.35249  0.010174319 0.0086970474            3 
 1814000   0.52897743    -8.871212    221.73132  0.010186113 0.0086893791            5 
 1815000   0.52523263   -8.8839162    221.17139  0.010154793 0.0086817338            6 
 1816000   0.51451066   -8.8880599    221.39116  0.010159286  0.008674084            5 
 1817000   0.53167382   -8.8725975    221.18404  0.010144196 0.0086664419            2 
 1818000   0.53024874   -8.8671013     221.1212  0.010135735 0.0086588062            3 
 1819000   0.53492486   -8.8892268    221.48639  0.010146894 0.0086511815            3 
 1820000   0.52418738    -8.905161    221.24037  0.010130053 0.0086435638            4 
 1821000   0.53085819     -8.88337    221.28477  0.010126522 0.0086359549            4 
 1822000   0.53207335   -8.8862138    221.27612  0.010120569 0.0086283547            4 
 1823000   0.52285864   -8.8862629    221.45973   0.01012341 0.0086207706            3 
 1824000   0.52624738   -8.9039503    221.21514  0.010106686 0.0086132033            2 
 1825000   0.53467943   -8.9003388    221.14344  0.010097874 0.0086056297            4 
 1826000   0.52879757   -8.8945821    221.19395  0.010094649 0.0085980589            4 
 1827000   0.50706135   -8.9039053    221.10089  0.010084879 0.0085904945            4 
 1828000   0.53296865   -8.8986658    221.14909  0.010081559 0.0085829435            2 
 1829000   0.51328161   -8.8917054    220.92526  0.010065849 0.0085754007            3 
 1830000   0.52100507   -8.8984418    221.32373  0.010078494 0.0085678608            5 
 1831000   0.52456828   -8.8914444    220.89089   0.01005329 0.0085603272            3 
 1832000   0.52193881   -8.8950856    221.39031   0.01007052 0.0085528062            3 
 1833000   0.51736565   -8.8941492    221.36533   0.01006389  0.008545299            2 
 1834000   0.51723915   -8.9025566    221.31708   0.01005621 0.0085378015            5 
 1835000   0.52195584   -8.9024865    221.27456  0.010048799 0.0085303081            4 
 1836000   0.51138025   -8.9219908    220.91793  0.010027139 0.0085228146            3 
 1837000   0.52500461   -8.8899843     221.1612  0.010032716 0.0085153341            4 
 1838000   0.51498967   -8.9132253    221.11882  0.010025337  0.008507865            3 
 1839000   0.52677018   -8.9029248    221.17889  0.010022607 0.0085004048            6 
 1840000   0.51798388   -8.9191198    220.87991  0.010003619 0.0084929604            5 
 1841000    0.5198481   -8.9205532    221.13791  0.010009864  0.008485513            2 
 1842000   0.52189906   -8.9028315    221.02729 0.0099994251 0.0084780738            4 
 1843000   0.51453954   -8.8962373    221.26901  0.010004929  0.008470643            5 
 1844000   0.50788283   -8.8881876    221.35182  0.010003246 0.0084632349            3 
 1845000   0.51309764    -8.899787    221.37431 0.0099988397 0.0084558288            4 
 1846000   0.52186977   -8.9112537    220.70744  0.009963319 0.0084484281            2 
 1847000   0.51732359   -8.9047154    220.86043 0.0099648273 0.0084410372            5 
 1848000   0.51317815   -8.9236082    221.10659 0.0099705355 0.0084336566            4 
 1849000   0.51326433   -8.9115379    220.88284 0.0099550585 0.0084262786            3 
 1850000   0.52412649   -8.9131953    220.70779 0.0099417926 0.0084189082            1 
 1851000   0.52076833   -8.9338566    221.06319 0.0099524214 0.0084115523            6 
 1852000    0.5158541   -8.9145332    221.04052 0.0099460279 0.0084041987            5 
 1853000   0.51556574   -8.9075445    220.91451 0.0099349934 0.0083968526            4 
 1854000   0.51883333   -8.9195175    220.78202 0.0099236792 0.0083895084            5 
 1855000   0.51743381   -8.9096715    221.03216 0.0099295669 0.0083821739            2 
 1856000    0.5168268   -8.9214413    220.95689 0.0099208373 0.0083748473            2 
 1857000   0.50968407   -8.9207775    220.91483 0.0099136073 0.0083675274            4 
 1858000   0.50565037   -8.9159835    221.08802 0.0099160395 0.0083602184            4 
 1859000   0.50372271   -8.9163095    221.13543 0.0099128306 0.0083529153            3 
 1860000   0.50325857   -8.9316803    220.91345 0.0098975562  0.008345615            4 
 1861000   0.50441888    -8.923158    220.79815 0.0098870746 0.0083383232            4 
 1862000   0.50866792   -8.9156845    220.89653 0.0098861674 0.0083310412            3 
 1863000    0.5171241   -8.9068181    221.22092 0.0098953714 0.0083237752            4 
 1864000   0.50954169   -8.9220567    220.89692 0.0098755776 0.0083165185            4 
 1865000   0.51978236   -8.9250754     220.9506  0.009872681 0.0083092754            2 
 1866000   0.50227347   -8.9316263    221.19969 0.0098785142 0.0083020333            3 
 1867000   0.51755585   -8.9223501    221.08786 0.0098682316 0.0082947959            4 
 1868000   0.51476128   -8.9261771     220.8681 0.0098531449 0.0082875626            3 
 1869000   0.50762422   -8.9374896    221.11476 0.0098588708 0.0082803376            2 
 1870000   0.50405458   -8.9156986    221.01416 0.0098491157 0.0082731248            3 
 1871000    0.4955721   -8.9204355    221.04504  0.009845227 0.0082659139            4 
 1872000   0.51015841   -8.9333842    220.96234 0.0098362863 0.0082587161            4 
 1873000   0.50104302   -8.9280963    220.99834 0.0098326365 0.0082515288            3 
 1874000   0.50760405   -8.9192167    221.28311 0.0098400527 0.0082443412            3 
 1875000   0.51159661   -8.9209724    220.95063 0.0098200282 0.0082371656            2 
 1876000   0.51009239   -8.9225092    220.51305 0.0097953556 0.0082299948            5 
 1877000   0.50558329   -8.9310347    221.17805 0.0098196614 0.0082228266            1 
 1878000   0.50451438   -8.9243617    220.78968 0.0097971994 0.0082156722            2 
 1879000   0.51291007   -8.9300562    221.32394 0.0098156796 0.0082085253            2 
 1880000    0.4936265   -8.9435917    220.82509  0.009788346 0.0082013906            4 
 1881000   0.51206245   -8.9206507    221.02338 0.0097919273  0.008194277            5 
 1882000   0.50189035    -8.926518    221.05673 0.0097882011 0.0081871582            2 
 1883000   0.50102718   -8.9446564    220.86043 0.0097743152 0.0081800529            5 
 1884000   0.49261256   -8.9466617    220.65816 0.0097601803 0.0081729403            3 
 1885000   0.50194218   -8.9356253     220.8949 0.0097654685 0.0081658428            2 
 1886000   0.49849558   -8.9399509    220.85855 0.0097586847 0.0081587473            3 
 1887000   0.48723633   -8.9496009    220.77824 0.0097499663  0.008151663            4 
 1888000   0.50048346   -8.9165409    220.82669 0.0097469409 0.0081445927            4 
 1889000   0.50489709   -8.9117288    220.95042 0.0097472393 0.0081375329            3 
 1890000   0.51176243    -8.934823    220.55459 0.0097246293 0.0081304802            3 
 1891000   0.48587046   -8.9389243    220.65424 0.0097238779 0.0081234302            2 
 1892000    0.4933147   -8.9515295     220.8915 0.0097291886 0.0081163937            5 
 1893000   0.50119302   -8.9405826    220.52695 0.0097080009 0.0081093575            3 
 1894000   0.49792132   -8.9310954    220.88034 0.0097184239 0.0081023254            4 
 1895000   0.49168569   -8.9565981     220.8238 0.0097108093 0.0080953132            1 
 1896000   0.48495911   -8.9511945    220.92372 0.0097100792 0.0080882998            3 
 1897000   0.49304427   -8.9385386     220.5451  0.009688328 0.0080812926            2 
 1898000   0.48919126   -8.9363336    220.66223 0.0096883662 0.0080742911            2 
 1899000   0.48391967   -8.9422477    220.61023 0.0096809825 0.0080673002            2 
 1900000   0.50642274   -8.9534901    220.79184 0.0096838526 0.0080603206            5 
 1901000   0.49314218   -8.9430966    220.82584  0.009680249 0.0080533451            3 
 1902000   0.48904729   -8.9475103    220.89063 0.0096779982 0.0080463849            4 
 1903000   0.50048907   -8.9476628    220.62472 0.0096612681 0.0080394173            2 
 1904000   0.47946001   -8.9497817    220.86798 0.0096668409 0.0080324657            5 
 1905000   0.49258582   -8.9638122    220.43185 0.0096426881 0.0080255217            6 
 1906000   0.49416092   -8.9543147    220.93111 0.0096594573  0.008018589            3 
 1907000   0.49189716   -8.9570047    220.96517 0.0096558804 0.0080116712            3 
 1908000   0.50465264   -8.9525395    220.63789 0.0096365258 0.0080047536            4 
 1909000   0.49715109   -8.9535479    220.54805 0.0096275557 0.0079978475            2 
 1910000    0.4849954   -8.9704761    221.01868 0.0096430488 0.0079909486            6 
 1911000   0.48997093   -8.9312134    220.93442 0.0096343287 0.0079840607            2 
 1912000   0.48237142   -8.9423742    220.41059 0.0096064589 0.0079771728            4 
 1913000   0.48886537   -8.9428247    220.71021 0.0096144889 0.0079702891            5 
 1914000   0.48949944   -8.9566717    220.63259 0.0096060863 0.0079634158            3 
 1915000   0.48973939   -8.9585362    220.44883 0.0095930737 0.0079565471            3 
 1916000   0.49003834   -8.9529951    220.18956 0.0095767902 0.0079496921            2 
 1917000   0.48808049    -8.963386    220.67248 0.0095927876 0.0079428335            5 
 1918000    0.4824622   -8.9571979    220.86078 0.0095959673 0.0079359888            2 
 1919000   0.48943491   -8.9552336    220.68415 0.0095832965 0.0079291596            5 
 1920000   0.48281896   -8.9663719    220.53903 0.0095720066 0.0079223303            3 
 1921000   0.49230201   -8.9583196      220.721 0.0095749174 0.0079155065            2 
 1922000   0.48549014   -8.9527675    220.66863 0.0095676652 0.0079086988            3 
 1923000   0.49040975   -8.9537346    220.65082 0.0095619179 0.0079018953            3 
 1924000   0.49995231   -8.9598985     220.2731 0.0095405882 0.0078950965            4 
 1925000   0.48811498   -8.9668948    220.41701  0.009541862  0.007888312            4 
 1926000   0.48989604   -8.9684773     220.5275 0.0095416884 0.0078815341            3 
 1927000   0.48626607   -8.9550513    220.44284 0.0095330754 0.0078747673            6 
 1928000   0.49076983   -8.9551133    220.69992 0.0095392426 0.0078680058            3 
 1929000   0.48483519   -8.9718243    220.01244 0.0095045983 0.0078612499            5 
 1930000   0.48701726   -8.9599274    220.72454 0.0095304204 0.0078544919            4 
 1931000   0.48963701   -8.9602837     220.4742 0.0095146816 0.0078477501            3 
 1932000   0.48325856   -8.9601286    220.37192 0.0095053452 0.0078410093            6 
 1933000    0.4825245   -8.9565604    220.59099  0.009509872 0.0078342742            2 
 1934000   0.47801237   -8.9591637    220.32834 0.0094936374 0.0078275518            3 
 1935000   0.48124449   -8.9736318    220.49101 0.0094957368  0.007820831            4 
 1936000   0.47502758   -8.9718992    220.49939 0.0094911929 0.0078141149            6 
 1937000   0.46906444   -8.9695243    220.34347  0.009479585   0.00780741            2 
 1938000   0.47729788   -8.9594631    220.22041 0.0094694017 0.0078007139            2 
 1939000   0.47127161   -8.9710942    220.58449 0.0094801654 0.0077940229            3 
 1940000   0.47470129   -8.9755472    220.52225 0.0094726054 0.0077873407            4 
 1941000    0.4754646   -8.9597873    220.23817 0.0094555285 0.0077806712            4 
 1942000   0.48474363   -8.9751325    220.42095 0.0094585029 0.0077740178            4 
 1943000   0.48467093   -8.9886362     220.6323 0.0094626995  0.007767356            3 
 1944000   0.47995291    -8.987376    220.26409 0.0094420476 0.0077607067            2 
 1945000   0.48467755   -8.9592653    220.30588 0.0094389838 0.0077540586            5 
 1946000    0.4755929   -8.9784767    220.61223  0.009447252 0.0077474203            3 
 1947000   0.46362635    -8.970342    220.20261 0.0094248679 0.0077407875            2 
 1948000   0.47251257   -8.9738433     220.2345 0.0094213939 0.0077341586            4 
 1949000   0.48368375   -8.9670786     220.0582 0.0094090219 0.0077275369            1 
 1950000   0.48425746     -8.98824    220.41967  0.009419644 0.0077209271            2 
 1951000   0.48457653   -8.9720968    220.34578 0.0094116597 0.0077143254            4 
 1952000   0.46814876   -8.9911142    220.66382 0.0094204157 0.0077077282            4 
 1953000   0.46842862   -8.9721031    220.36467 0.0094028277 0.0077011406            3 
 1954000   0.47849637   -8.9835998    220.30621 0.0093955226 0.0076945573            5 
 1955000   0.47910238   -8.9818544    220.24063 0.0093879211 0.0076879763            4 
 1956000   0.47595071   -8.9850437    220.28746 0.0093851166 0.0076814051            2 
 1957000    0.4708009   -8.9792568     220.4955 0.0093891799 0.0076748437            5 
 1958000    0.4789808   -8.9846397    220.23983 0.0093735032 0.0076682821            3 
 1959000   0.47065261   -8.9781817    220.08335  0.009362062 0.0076617348            9 
 1960000   0.47310743   -8.9833825    220.30815 0.0093668433 0.0076551939            2 
 1961000   0.46680186   -8.9758557    220.35939 0.0093642442 0.0076486567            2 
 1962000   0.47113792   -8.9749555    219.84494 0.0093376206 0.0076421239            2 
 1963000   0.46617084   -8.9983916    220.43497 0.0093579118 0.0076356071            2 
 1964000   0.47185159   -8.9843424     220.3854  0.009351044 0.0076290941            2 
 1965000   0.46859873   -9.0026191    220.39501 0.0093466925 0.0076225891            3 
 1966000   0.46297888   -8.9835436    220.03074 0.0093264979 0.0076160891            2 
 1967000   0.47706322    -8.996547    220.29012 0.0093327452 0.0076095968            4 
 1968000   0.46768354    -8.991072    220.21814 0.0093249549 0.0076031131            2 
 1969000   0.47312846    -8.986493    219.90168 0.0093068257 0.0075966318            3 
 1970000   0.47184096   -8.9958682    220.34312 0.0093207751 0.0075901701            3 
 1971000   0.47108103   -8.9970134    220.21279 0.0093105357 0.0075837072            3 
 1972000   0.45927622    -8.984903    220.21221 0.0093057898 0.0075772509            6 
 1973000   0.46775655   -8.9955097    220.02245 0.0092930583 0.0075708014            3 
 1974000   0.46253263   -8.9845108    219.94769 0.0092851945 0.0075643623            3 
 1975000   0.46210967   -9.0001687    220.29654 0.0092952126 0.0075579288            4 
 1976000   0.46841463   -8.9811482    220.07733  0.009281264 0.0075515004            2 
 1977000   0.46133015    -8.995154     220.3451 0.0092878563 0.0075450741            3 
 1978000   0.47182132   -8.9713165    220.31117  0.009281731  0.007538657            3 
 1979000   0.45937559   -9.0007313    220.28526   0.00927595  0.007532249            3 
 1980000   0.46543674   -9.0018421    220.23602 0.0092691927  0.007525844            3 
 1981000   0.47474389   -8.9874045    220.18445 0.0092623445 0.0075194534            2 
 1982000   0.46437245   -8.9802781    220.20811  0.009258666 0.0075130658            4 
 1983000   0.44779008   -8.9950373    220.25927  0.009256147  0.007506684            4 
 1984000   0.46190823    -8.980341    219.85488 0.0092344959 0.0075003061            4 
 1985000   0.45721891   -9.0025954    220.26274 0.0092469664 0.0074939389            1 
 1986000   0.45060915   -9.0054193    220.04765  0.009233285 0.0074875804            4 
 1987000   0.45442976   -9.0050304    219.93241 0.0092238051 0.0074812311            3 
 1988000   0.45574197   -8.9996153     220.3666 0.0092373658 0.0074748863            5 
 1989000    0.4573779   -9.0056881    219.96725 0.0092159899  0.007468546            4 
 1990000   0.45138145   -9.0082385    220.13309 0.0092183034 0.0074622101            3 
 1991000   0.45189097   -9.0214874    220.01148 0.0092085836 0.0074558854            6 
 1992000   0.46435347   -9.0184534     219.8576 0.0091975233 0.0074495648            2 
 1993000   0.46323919     -8.99447    220.09012 0.0092026308 0.0074432541            2 
 1994000   0.46008955   -9.0085235    220.40816 0.0092113073 0.0074369474            4 
 1995000   0.45576564   -9.0031816    220.26716 0.0092008004  0.007430653            4 
 1996000   0.44594123   -9.0174712    219.77395 0.0091755989 0.0074243682            8 
 1997000   0.45333606   -9.0107643    220.12274 0.0091855593 0.0074180861            4 
 1998000   0.45854485    -9.002292    219.88007 0.0091708406 0.0074118168            3 
 1999000   0.44748064   -9.0011082    220.18799  0.009179089 0.0074055529            3 
 2000000   0.45396617   -9.0003262    220.15885 0.0091732855 0.0073992931            2 
 2001000    0.4574426   -8.9946115    220.19507 0.0091702096 0.0073930417            2 
 2002000   0.45663412   -9.0160977    219.98503 0.0091568859 0.0073867951            4 
 2003000   0.45034458   -9.0097287    220.11272 0.0091576268 0.0073805546            4 
 2004000   0.45909002   -9.0054537    219.90649 0.0091444816 0.0073743253            3 
 2005000   0.45895153   -9.0140525    220.15744 0.0091503507 0.0073680985            5 
 2006000   0.45215606   -8.9975032    219.93372 0.0091364956 0.0073618771            5 
 2007000   0.46125829   -9.0058772    219.85016 0.0091284738 0.0073556655            1 
 2008000   0.45590725   -9.0189619     219.8997 0.0091259834 0.0073494607            4 
 2009000   0.45450396   -9.0155339    219.87658 0.0091204821 0.0073432644            2 
 2010000   0.44856539   -9.0164079    220.02559 0.0091221224 0.0073370683            4 
 2011000   0.45291826    -9.019686    219.75751 0.0091064771 0.0073308824            3 
 2012000   0.45551538   -9.0220034    219.92688  0.009108966 0.0073247079            8 
Loop time of 4913.42 on 48 procs for 2000000 steps with 4000 atoms

Performance: 70338.011 tau/day, 407.049 timesteps/s
99.4% CPU use with 48 MPI tasks x no OpenMP threads

MPI task timing breakdown:
Section |  min time  |  avg time  |  max time  |%varavg| %total
---------------------------------------------------------------
Pair    | 323.23     | 346.48     | 365.3      |  53.2 |  7.05
Neigh   | 33.075     | 34.039     | 35.112     |   9.5 |  0.69
Comm    | 310.9      | 329.73     | 354.28     |  56.3 |  6.71
Output  | 4.1047     | 4.1067     | 4.1373     |   0.2 |  0.08
Modify  | 4142.7     | 4156.6     | 4165       |   7.2 | 84.60
Other   |            | 42.48      |            |       |  0.86

Nlocal:        83.3333 ave          89 max          77 min
Histogram: 1 2 6 3 7 13 6 2 4 4
Nghost:        2193.58 ave        2217 max        2173 min
Histogram: 3 1 9 9 3 9 5 6 2 1
Neighs:        14600.9 ave       15971 max       13167 min
Histogram: 1 2 4 5 11 8 9 5 1 2
FullNghs:      29201.8 ave       31233 max       26864 min
Histogram: 1 3 4 5 9 8 7 2 7 2

Total # of neighbors = 1401685
Ave neighs/atom = 350.42125
Neighbor list builds = 106751
Dangerous builds = 0

#clear
#
#next RN
#
#jump SELF
Total wall time: 1:21:57
