
units lj                  # Use reduced LJ style units
atom_style atomic         # Uncharged point particles
atom_modify map hash      # Needed for indexing of clusters etc
                          # Used to be able to find where atoms are in relation to each other.

lattice fcc 1.0 spacing 1 1 1
Lattice spacing in x,y,z = 1.5874011 1.5874011 1.5874011
region box block 0 10 0 10 0 10 units lattice
create_box 2 box
Created orthogonal box = (0.0000000 0.0000000 0.0000000) to (15.874011 15.874011 15.874011)
  3 by 4 by 4 MPI processor grid
create_atoms 1 box
Created 4000 atoms
  using lattice units in orthogonal box = (0.0000000 0.0000000 0.0000000) to (15.874011 15.874011 15.874011)
  create_atoms CPU = 0.003 seconds
set type 1 type/fraction 2 0.1 78393
Setting atom values ...
  435 settings made for type/fraction
mass 1 1.0
mass 2 1.0
pair_style lj/cut  3.5
pair_modify tail  yes
pair_coeff 1  1  1.0  1.0   # Intearaction between 1 and 1 set with epsilon = 1 and sigma = 1
pair_coeff 1  2  1.5  0.8
pair_coeff 2  2  0.5  0.88

write_data data.0
System init for write_data ...
Neighbor list info ...
  update every 1 steps, delay 10 steps, check yes
  max neighbors/atom: 2000, page size: 100000
  master list distance cutoff = 3.8
  ghost atom cutoff = 3.8
  binsize = 1.9, bins = 9 9 9
  1 neighbor lists, perpetual/occasional/extra = 1 0 0
  (1) pair lj/cut, perpetual
      attributes: half, newton on
      pair build: half/bin/atomonly/newton
      stencil: half/bin/3d
      bin: standard
WARNING: Not all mixed pair coeffs generated from mixing. Use write_data with 'pair ij' option to store all pair coeffs. (../write_data.cpp:312)


#############################
#   M E L T   S Y S T E M   #
#############################

velocity all create 2.4 5300450 mom yes dist gaussian # Assign velocities
                                                    # Temperature 2.4, random number seed, zero linear momentum
                                                                                # Gaussian distribution

timestep 0.002   # simulation timestep
thermo 1000       # output thermodynamic data every 1000 steps bf 100

# Define a fix  in this case with index 1 applied to all
# particles in the simulation. This fix is for simulations
# in the anisotropic NPT ensemble. Note that we use the MTK
# correction.
fix 1 all npt temp 2.4 2.4 0.1 iso 5.68 5.68 0.5 mtk yes tchain 5 pchain 5 # Use NPT ensemble
                                                                         # Set temperature and pressure and damping
                                                                         # Numbers of thermostats in chain and in barostat
run 10000          # run for 10000 steps
Per MPI rank memory allocation (min/avg/max) = 3.642 | 3.644 | 3.648 Mbytes
Step Temp E_pair E_mol TotEng Press Volume 
       0          2.4   -7.6732445            0   -4.0741445   -3.0506691         4000 
    1000    2.3778723   -4.5864025            0   -1.0204857    5.8028236    4829.1861 
    2000    2.4076197   -4.6257828            0   -1.0152561    5.6304714    4833.0604 
    3000    2.3730424   -4.6409796            0   -1.0823059    5.6155024    4818.6259 
    4000    2.3888069   -4.6016051            0   -1.0192906    5.6293922    4833.4656 
    5000    2.3716382   -4.5735802            0   -1.0170122     5.800845    4833.4099 
    6000    2.3928892    -4.635048            0   -1.0466115    5.6708897    4819.8426 
    7000    2.3624928   -4.6329067            0   -1.0900535    5.5324935    4835.7611 
    8000    2.4216421   -4.6441459            0   -1.0125907    5.3824824    4848.8404 
    9000     2.368055   -4.5850176            0    -1.033823    6.0444422    4797.3187 
   10000    2.4346457   -4.5825722            0  -0.93151671    6.1156775    4789.9999 
Loop time of 2.1372 on 48 procs for 10000 steps with 4000 atoms

Performance: 808532.799 tau/day, 4679.009 timesteps/s
99.6% CPU use with 48 MPI tasks x no OpenMP threads

MPI task timing breakdown:
Section |  min time  |  avg time  |  max time  |%varavg| %total
---------------------------------------------------------------
Pair    | 0.86468    | 0.9638     | 1.033      |   2.8 | 45.10
Neigh   | 0.18733    | 0.19754    | 0.21472    |   0.9 |  9.24
Comm    | 0.66301    | 0.73494    | 0.83736    |   3.6 | 34.39
Output  | 0.00023674 | 0.000243   | 0.00031231 |   0.0 |  0.01
Modify  | 0.19968    | 0.22636    | 0.24479    |   2.6 | 10.59
Other   |            | 0.01433    |            |       |  0.67

Nlocal:        83.3333 ave          92 max          73 min
Histogram: 2 2 1 5 12 8 6 5 3 4
Nghost:        1458.94 ave        1485 max        1434 min
Histogram: 3 1 3 6 15 6 6 5 2 1
Neighs:        7961.21 ave        9116 max        6389 min
Histogram: 1 2 0 5 7 13 9 4 2 5

Total # of neighbors = 382138
Ave neighs/atom = 95.534500
Neighbor list builds = 907
Dangerous builds = 208

# Equilibrate just above the melting temperature to avoid step fn in T

fix 1 all npt temp 1.25 1.25 0.1 iso 5.68 5.68 0.5 mtk yes tchain 5 pchain 5
run 2000
Per MPI rank memory allocation (min/avg/max) = 3.642 | 3.644 | 3.648 Mbytes
Step Temp E_pair E_mol TotEng Press Volume 
   10000    2.4346457   -4.5825722            0  -0.93151671    6.1156775    4789.9999 
   11000     1.239562   -6.1812933            0   -4.3224151    5.9402001    3969.7928 
   12000    1.2543269   -6.2479725            0   -4.3669524    5.6430166     3960.929 
Loop time of 0.4745 on 48 procs for 2000 steps with 4000 atoms

Performance: 728345.609 tau/day, 4214.963 timesteps/s
99.6% CPU use with 48 MPI tasks x no OpenMP threads

MPI task timing breakdown:
Section |  min time  |  avg time  |  max time  |%varavg| %total
---------------------------------------------------------------
Pair    | 0.19893    | 0.22587    | 0.24636    |   2.0 | 47.60
Neigh   | 0.031176   | 0.033398   | 0.036646   |   0.6 |  7.04
Comm    | 0.14278    | 0.16295    | 0.19072    |   2.5 | 34.34
Output  | 4.7073e-05 | 4.9349e-05 | 6.3513e-05 |   0.0 |  0.01
Modify  | 0.043196   | 0.047788   | 0.053699   |   1.2 | 10.07
Other   |            | 0.004451   |            |       |  0.94

Nlocal:        83.3333 ave          90 max          75 min
Histogram: 2 1 3 2 9 7 13 3 6 2
Nghost:        1658.00 ave        1676 max        1635 min
Histogram: 1 3 3 6 6 7 8 5 5 4
Neighs:        9632.98 ave       10284 max        8560 min
Histogram: 2 1 2 3 6 9 6 5 6 8

Total # of neighbors = 462383
Ave neighs/atom = 115.59575
Neighbor list builds = 143
Dangerous builds = 9

#############################
# L I N E A R  Q U E N C H  #
#############################

# Define solid atoms. This closely follows ten Wolde  Ruiz-Montero and Frenkel  Faraday Discuss  1996  104  93-110
# Compute components of the per-atom q6 vector
compute q6 all orientorder/atom degrees 1 6 components 6 nnn NULL cutoff 1.3 # compute the Q6 parameter.
                                                                             # Use all neighbours within 1.3 unit cell.

# get number of connections
compute coord_number all coord/atom orientorder q6 0.5

# An atom is solid if it has 8 or more connections (of a possible 14)
variable is_solid atom c_coord_number>=8
group solid dynamic all var is_solid    # Must be dynamic to update
dynamic group solid defined

# do clustering
compute cluster solid cluster/atom 1.3 # Create a cluster where all atoms within are solid and max 1.3 units from another member

# define chunks one chunk per cluster
compute clus_chunks solid chunk/atom c_cluster nchunk every compress yes  # Says which atoms are in which chunk

# count the size of each chunk
compute size_chunks solid property/chunk clus_chunks count


# Find the maximum entry in the vector of chunk sizes
variable max_n equal max(c_size_chunks)


# Thermo style which includes this variable
# thermo_style custom step temp pe vol v_max_n

thermo ${N}  # Print the thermo information every 100 steps
thermo 1000  

# Reset the npt fix at a lower temperature (below freezing)
fix 1  all npt temp  ${temp} ${temp}  0.1  iso  5.68  5.68  0.5  mtk yes tchain  5  pchain  5
fix 1  all npt temp  0.45 ${temp}  0.1  iso  5.68  5.68  0.5  mtk yes tchain  5  pchain  5
fix 1  all npt temp  0.45 0.45  0.1  iso  5.68  5.68  0.5  mtk yes tchain  5  pchain  5

dump dmp2 all dcd ${N} traj.dcd
dump dmp2 all dcd 1000 traj.dcd


compute msd all msd com yes
variable twopoint equal c_msd[4]/6/(step*dt+1.0e-6)
fix 9 all vector 10 c_msd[4]
variable fit equal slope(f_9)/6/(10*dt)
thermo_style custom step temp pe c_msd[4] v_twopoint v_fit v_max_n

fix 1 all npt temp 1.25 ${temp} 0.1 iso 5.68 5.68 0.5 mtk yes tchain 5 pchain 5
fix 1 all npt temp 1.25 0.45 0.1 iso 5.68 5.68 0.5 mtk yes tchain 5 pchain 5
run 5000000 # 5000000  # Run for this many steps
Neighbor list info ...
  update every 1 steps, delay 10 steps, check yes
  max neighbors/atom: 2000, page size: 100000
  master list distance cutoff = 3.8
  ghost atom cutoff = 3.8
  binsize = 1.9, bins = 9 9 9
  4 neighbor lists, perpetual/occasional/extra = 1 3 0
  (1) pair lj/cut, perpetual
      attributes: half, newton on
      pair build: half/bin/atomonly/newton
      stencil: half/bin/3d
      bin: standard
  (2) compute orientorder/atom, occasional
      attributes: full, newton on
      pair build: full/bin/atomonly
      stencil: full/bin/3d
      bin: standard
  (3) compute coord/atom, occasional
      attributes: full, newton on
      pair build: full/bin/atomonly
      stencil: full/bin/3d
      bin: standard
  (4) compute cluster/atom, occasional
      attributes: full, newton on
      pair build: full/bin/atomonly
      stencil: full/bin/3d
      bin: standard
Per MPI rank memory allocation (min/avg/max) = 9.752 | 9.757 | 9.764 Mbytes
Step Temp PotEng c_msd[4] v_twopoint v_fit v_max_n 
   12000    1.2543269   -6.2479725 3.887901e-30 2.6999311e-32 8.3333333e+20            7 
   13000     1.274989   -6.2290557   0.55865971 0.0035811519  0.045351067            3 
   14000    1.2474893   -6.1926234    1.0809855 0.0064344371  0.045413778            4 
   15000    1.2591254   -6.2032935    1.5640933 0.0086894069  0.043483693            3 
   16000    1.2516359   -6.1994998    2.0417557  0.010634144  0.042086121            3 
   17000    1.2600977   -6.2126646    2.6184398  0.012835489  0.042552348            1 
   18000     1.223247   -6.2719199    3.1709353  0.014680255  0.043057944            3 
   19000    1.2153976   -6.2217034    3.7335219  0.016375095  0.043612714            3 
   20000    1.2563596   -6.1702545    4.3597877  0.018165782  0.044296327            3 
   21000     1.249943   -6.2100625    4.8129294  0.019098926  0.044610301            1 
   22000    1.2639573   -6.2132616    5.2478831  0.019878345  0.044361438            3 
   23000    1.2809691   -6.2170665    5.7207684  0.020727421  0.044036676            4 
   24000    1.2586656   -6.2755825    6.3267185  0.021967772  0.043863282            1 
   25000    1.2151188   -6.2294075    6.8967018  0.022989005  0.043882843            4 
   26000    1.2743147   -6.2360118    7.4336402  0.023825769  0.043986632            1 
   27000    1.2413902   -6.2352708    7.8582811  0.024253954  0.043999714            4 
   28000    1.2489875   -6.2378722    8.4194165  0.025057787  0.043888635            4 
   29000    1.2106773   -6.2035942    8.9659669  0.025764272  0.043876406            2 
   30000    1.2254754   -6.1950065    9.5818126  0.026616146  0.043914935            1 
   31000    1.2576199   -6.2467842    10.096008  0.027139806  0.044009398            2 
   32000    1.2597201   -6.2555618    10.651057  0.027737127  0.044071143            2 
   33000    1.2357906   -6.2750007    11.284375  0.028495897  0.044242025            2 
   34000    1.2635275   -6.2390979    11.857331  0.029062087  0.044425803            2 
   35000    1.2323687   -6.2295245    12.337868  0.029375877  0.044571741            3 
   36000    1.2454674   -6.2500406    12.859099  0.029766432  0.044639711            1 
   37000    1.2263158    -6.236234    13.389873   0.03015737  0.044719254            2 
   38000    1.2473115   -6.2277598    14.016514   0.03073797  0.044771427            2 
   39000    1.2552315   -6.2408337    14.538794  0.031065798  0.044834669            3 
   40000    1.2532782    -6.248089    15.180379  0.031625789  0.044900867            3 
   41000    1.2718397   -6.2000004    15.702401  0.031915448  0.045000802            1 
   42000    1.2419614   -6.2292323    16.176008  0.032095253  0.045039004            2 
   43000    1.2333976   -6.2365841     16.73906  0.032440038  0.045075476            3 
   44000    1.2406174   -6.2298728    17.259081  0.032687654  0.045117736            4 
   45000     1.249627   -6.2526284     17.83958  0.033036258  0.045138428            2 
   46000    1.2343964   -6.2654576    18.431912  0.033391145  0.045172421            4 
   47000    1.2450839   -6.2512133    18.937537  0.033577193  0.045211637            2 
   48000    1.2464961   -6.2405217    19.406319  0.033691526  0.045232431            2 
   49000    1.2338011   -6.2444161    19.921183  0.033879563  0.045205707            3 
   50000    1.2359388   -6.2257978     20.56453  0.034274216  0.045210335            3 
   51000    1.2809941   -6.2386361    21.008246    0.0343272  0.045217425            2 
   52000    1.2125584   -6.2581232    21.494497  0.034446309  0.045210943            2 
   53000    1.2259701   -6.2488584    22.179205  0.034872963  0.045202013            2 
   54000    1.2098763   -6.2282382    22.677109  0.034995538  0.045213267            1 
   55000    1.2530666   -6.1903505    23.163189   0.03509574  0.045225367            2 
   56000    1.2275468   -6.2414474    23.946875   0.03563523  0.045235599            3 
   57000    1.2219319   -6.2107541    24.613408  0.035984515  0.045289282            2 
   58000     1.224355   -6.2068302    25.171619  0.036166119  0.045352826            6 
   59000    1.2568053   -6.2634419    25.758259  0.036381721  0.045417922            2 
   60000    1.2110389   -6.2253303    26.174063  0.036352865  0.045467332            3 
   61000    1.2496909   -6.2224725    26.849559  0.036679725  0.045514582            3 
   62000     1.257915   -6.2385558    27.489324  0.036948015  0.045582868            6 
   63000    1.2306481   -6.2292091    28.069339  0.037128755  0.045649033            2 
   64000    1.2331897   -6.2443669    28.569772  0.037200224  0.045706963            3 
   65000    1.2319119   -6.2691268    29.304024  0.037569261  0.045775978            2 
   66000    1.2310403   -6.2416006    29.895932  0.037747389  0.045849448            2 
   67000      1.25247   -6.2407895    30.563375  0.038014147  0.045926034            5 
   68000    1.2544769   -6.2383659    31.084788  0.038094103  0.046000435            3 
   69000    1.2670563   -6.2433087    31.608107  0.038174041  0.046060982            4 
   70000    1.2375702   -6.2559632    32.133463  0.038254123  0.046107389            5 
   71000    1.2574688   -6.2545274    32.523296  0.038172883  0.046139577            4 
   72000    1.2427476    -6.247112    33.079801  0.038286806   0.04615532            3 
   73000    1.2556701   -6.2698914    33.678802  0.038446121  0.046180277            3 
   74000    1.2432912   -6.2383673    34.299641  0.038625722  0.046219051            3 
   75000    1.2423918   -6.2271366    34.857537  0.038730596  0.046243832            2 
   76000    1.2226141    -6.229803    35.502697  0.038928395  0.046272149            2 
   77000    1.2591929    -6.258458    35.951954  0.038909041  0.046303332            4 
   78000    1.2395931   -6.2080538    36.611007  0.039114324  0.046331445            1 
   79000    1.2256945   -6.1950373     37.23806  0.039280654  0.046354326            2 
   80000     1.252214   -6.2347396    37.522994  0.039086452  0.046368433            2 
   81000     1.241116   -6.2559771    38.102762  0.039200372  0.046372074            2 
   82000    1.2462138   -6.2368661    38.389033  0.039013244  0.046357757            3 
   83000    1.2604279   -6.2308378    38.881471  0.039037621  0.046340355            2 
   84000    1.2215663   -6.2602242    39.476573  0.039163266  0.046326695            2 
   85000    1.2496877   -6.2748333    39.793141  0.039012883   0.04630691            2 
   86000    1.2349194   -6.2573603    40.361343  0.039109828  0.046275841            1 
   87000    1.2475771   -6.2118742    41.041212  0.039311505  0.046250157            3 
   88000    1.2310825   -6.2166249    41.726974  0.039514179  0.046224663            3 
   89000    1.2554126   -6.2704261    42.159331  0.039475029  0.046209183            3 
   90000    1.2404564   -6.2478451    42.537165  0.039386263  0.046194506            2 
   91000    1.2442726    -6.281976    43.093947  0.039463321  0.046165455            2 
   92000    1.2377783   -6.2490454    43.667111  0.039553543  0.046140322            2 
   93000    1.2494511   -6.2137325    44.072394  0.039491392  0.046105306            1 
   94000    1.2409589   -6.2259668     44.68928  0.039618156  0.046074336            2 
   95000    1.2527754   -6.2554778    45.149946  0.039605215  0.046039968            1 
   96000    1.2569389    -6.221504    45.642017  0.039619807  0.046005346            1 
   97000    1.2248536   -6.2332067    46.241882  0.039726703  0.045971735            2 
   98000    1.2308115    -6.197739    46.872431  0.039857509  0.045947687            1 
   99000      1.24058   -6.2370946    47.382783  0.039884497  0.045920252            3 
  100000     1.230557   -6.2335615    47.751086  0.039792571  0.045894498            4 
  101000    1.2436403   -6.2799153     48.36831  0.039907847  0.045865803            3 
  102000    1.2355914   -6.2702182    49.143108  0.040149598  0.045847181            3 
  103000    1.2329756   -6.2512088    49.541586  0.040082189  0.045826941            2 
  104000    1.2278124   -6.2484933    49.988321  0.040054744  0.045806575            1 
  105000    1.2336887   -6.2547074    50.442199  0.040033491   0.04577637            2 
  106000    1.2341318   -6.2579613    50.944504   0.04005071  0.045751673            3 
  107000    1.2481175   -6.2364556    51.427889  0.040052873  0.045727951            3 
  108000    1.2183009   -6.2416606    51.968522  0.040099168  0.045700574            3 
  109000    1.2789006    -6.216584    52.498369  0.040136368  0.045675276            1 
  110000    1.2326256   -6.2632231    53.059013  0.040196221   0.04564941            3 
  111000    1.2467112   -6.2069694    53.565574  0.040214394  0.045621598            2 
  112000    1.2425914    -6.239033    54.074167  0.040233755  0.045595642            2 
  113000    1.2346783   -6.2516061    54.796175  0.040410158  0.045566751            1 
  114000    1.2364079   -6.2245207    55.165342  0.040325542  0.045544519            4 
  115000    1.2215707   -6.2323227    55.914471  0.040517732  0.045521347            1 
  116000     1.247549    -6.272507    56.188015  0.040364953  0.045498543            4 
  117000    1.2179653   -6.2627892     56.75237  0.040421916  0.045476346            2 
  118000    1.2386177   -6.2213564    57.260936  0.040438514  0.045453275            3 
  119000    1.2434773   -6.2237048    58.042983  0.040646346  0.045430923            2 
  120000    1.2246926   -6.2107699    58.418047  0.040568088  0.045410272            3 
  121000    1.2031058   -6.2107546    58.983771  0.040622432  0.045388853            3 
  122000     1.247405   -6.2492082    59.301231  0.040506305  0.045362949            2 
  123000    1.2233564   -6.2705779     59.72994  0.040467439  0.045336117            4 
  124000    1.2259542    -6.221411    60.289841  0.040517366   0.04531563            2 
  125000    1.2263241   -6.2491877    60.982383  0.040654922  0.045299781            2 
  126000    1.2423212   -6.2416994     61.47142  0.040655701  0.045278312            1 
  127000    1.2435343   -6.2282622    61.824991  0.040567579  0.045252008            2 
  128000    1.2250524    -6.272063    62.149377  0.040461834  0.045223577            2 
  129000    1.2405545   -6.2372333    62.712654   0.04051205  0.045195365            5 
  130000    1.2213981   -6.2828857    63.347938  0.040607652  0.045168213            2 
  131000    1.2321826   -6.2605577    63.911545  0.040656199  0.045144565            3 
  132000    1.2013292   -6.2612332    64.701254  0.040846751  0.045125069            3 
  133000    1.2743952   -6.2396103    65.189557  0.040845587  0.045105248            4 
  134000     1.245127   -6.2293268    65.751101  0.040889988  0.045090915            2 
  135000    1.2208694   -6.2424139     66.42494  0.041003049  0.045080636            5 
  136000       1.2418    -6.243984    66.905061  0.040995748  0.045067041            2 
  137000    1.2161394   -6.2876909    67.250609  0.040906697  0.045055105            2 
  138000    1.2194582    -6.263691    68.035148  0.041084026  0.045046367            1 
  139000    1.2421725   -6.2600259    68.843587  0.041273133  0.045041472            2 
  140000    1.2068084   -6.2555755    69.474048    0.0413536  0.045035756            1 
  141000    1.2228319   -6.2505345    69.947687  0.041340241   0.04503502            3 
  142000    1.2422484    -6.238268    70.337931  0.041278129  0.045033743            4 
  143000    1.2298646   -6.2589897    70.590521  0.041136667   0.04503102            2 
  144000    1.2199377    -6.285997    71.433229  0.041338674  0.045027211            3 
  145000    1.2055942   -6.2478409    71.822311   0.04127719  0.045021643            4 
  146000    1.2253697   -6.3034203    72.041982  0.041119853  0.045014057            1 
  147000    1.2300831   -6.2919094    72.745495  0.041238943  0.045001232            2 
  148000    1.2427995   -6.2863624    73.121484  0.041172007  0.044989758            2 
  149000    1.2305432   -6.2799831    73.630823   0.04118055  0.044979484            2 
  150000    1.2318554   -6.2657963    74.279535  0.041266408  0.044967143            5 
  151000    1.2419653    -6.271435    74.719121  0.041235718  0.044955119            1 
  152000    1.2013525   -6.2660443    75.096118  0.041171117  0.044939812            2 
  153000    1.2463071   -6.2430269    75.848574   0.04131186  0.044927939            2 
  154000    1.2219903    -6.257775     76.18474  0.041225509  0.044915822            2 
  155000     1.255106   -6.2696467    76.446441  0.041100237  0.044899996            2 
  156000    1.2238516   -6.2426893    77.187355  0.041232561  0.044885957            2 
  157000    1.2163034    -6.233569    77.619566  0.041199345  0.044873558            2 
  158000    1.2197763   -6.2435805    78.117452  0.041201188  0.044857478            1 
  159000     1.220384   -6.2353602     78.85187  0.041326976  0.044843402            3 
  160000    1.2248727   -6.2659621    79.607399  0.041462187  0.044833057            1 
  161000    1.2083473   -6.2439212    79.690791  0.041247821  0.044820905            2 
  162000    1.2027296    -6.235265       80.417  0.041366769  0.044807035            2 
  163000    1.2105226   -6.2504795    80.796496  0.041307002  0.044794446            4 
  164000    1.2374195   -6.2724471    81.464857  0.041394744  0.044779287            3 
  165000    1.2216426   -6.2710956    81.995762  0.041412001  0.044768862            2 
  166000    1.2329102   -6.2338666    82.879013   0.04160593  0.044756354            3 
  167000    1.2205866    -6.280583    83.108987   0.04147155   0.04474755            2 
  168000    1.2404081   -6.2619983    83.795348  0.041565153  0.044741721            3 
  169000    1.2340752   -6.2353167    84.350278  0.041592839  0.044739846            3 
  170000    1.2502675   -6.2695262    85.377966  0.041851944  0.044740247            3 
  171000    1.2372322   -6.2296409    85.778994  0.041802629  0.044742555            3 
  172000    1.2032216   -6.2738673    86.199334  0.041763243  0.044747807            2 
  173000    1.2375913   -6.2441905    86.719494  0.041772396  0.044747039            3 
  174000    1.2347291   -6.2790363    87.325665  0.041822636   0.04474652            2 
  175000    1.2184478   -6.2577697    87.820318  0.041819199  0.044747067            3 
  176000    1.2257756   -6.2450302     88.39799  0.041855109  0.044746893            3 
  177000    1.2235801   -6.2142264    89.226686  0.042008797   0.04474723            2 
  178000    1.2459802   -6.2414877    89.224907   0.04177196  0.044745543            2 
  179000    1.2435404   -6.2423665    89.827801  0.041819274  0.044747234            2 
  180000    1.2074262   -6.2763884    90.538171   0.04191582  0.044746171            2 
  181000     1.225257    -6.265528    90.793747  0.041801909  0.044746233            5 
  182000     1.230927   -6.2701786    91.069351  0.041698421  0.044743043            2 
  183000    1.2119002   -6.2620963      92.0322  0.041909016  0.044737779            1 
  184000    1.2059827   -6.2601408     92.59876  0.041937844  0.044734376            3 
  185000    1.2156565   -6.2561587    92.706566  0.041759714  0.044729853            2 
  186000    1.2141313   -6.3067491    93.209064  0.041760333  0.044722737            2 
  187000    1.2247884   -6.2716681    94.101566  0.041934744  0.044718222            2 
  188000    1.1960344    -6.258862    94.570488  0.041919542  0.044715608            3 
  189000    1.2401277   -6.2654812    95.110389  0.041935797  0.044712076            5 
  190000    1.2267723   -6.2373974    95.686976  0.041967972  0.044708286            4 
  191000    1.2367515   -6.2683867     96.03062  0.041898176  0.044702524            5 
  192000    1.2113248   -6.2764288    96.555958  0.041907968  0.044697164            3 
  193000    1.2452351     -6.24714    96.565416  0.041694912  0.044688681            3 
  194000    1.2100719   -6.2567863    97.514383  0.041887622  0.044680457            2 
  195000    1.2326037   -6.2444582    98.428493  0.042063459  0.044674198            4 
  196000    1.2079734   -6.2281454    98.936669   0.04206491  0.044666821            3 
  197000     1.204759   -6.2861559    99.135757  0.041935599   0.04466178            7 
  198000    1.2349852   -6.2552053    99.894879  0.042043299  0.044656018            2 
  199000    1.1940981   -6.2857071     100.1401  0.041934716  0.044649016            5 
  200000     1.221192   -6.2827729    100.77398  0.041989157  0.044644148            3 
  201000    1.1967084    -6.266671    101.17388  0.041946053  0.044638113            1 
  202000    1.2288649   -6.2690773    101.90008  0.042037988  0.044633208            4 
  203000    1.2238669   -6.2858917    102.38121  0.042028411     0.044628            2 
  204000    1.2214839   -6.2815919      103.069   0.04210335  0.044623462            2 
  205000    1.2081669   -6.2947267    103.80634  0.042197697   0.04462004            3 
  206000    1.2278253   -6.2774602    103.76223  0.041975012  0.044618018            1 
  207000    1.2089323   -6.2279715    104.76993   0.04217791  0.044614806            4 
  208000    1.2067251   -6.2650685    105.09308  0.042104597  0.044612354            1 
  209000    1.2381012   -6.2838635    105.70514  0.042147186  0.044608706            2 
  210000    1.1845193   -6.2877641    105.81219  0.041988966  0.044605121            2 
  211000    1.2239762   -6.2859863     106.2745  0.041972551  0.044599552            2 
  212000    1.2109274   -6.3199757    106.70036  0.041941964  0.044593804            2 
  213000    1.2100802    -6.234654     107.5656  0.042083569  0.044587055            2 
  214000    1.2269494   -6.2903967    107.61129  0.041904706  0.044582372            2 
  215000    1.1932383   -6.2743054    108.49634  0.042052845  0.044574742            2 
  216000    1.2373632   -6.2934966    108.69502  0.041934805  0.044567163            2 
  217000    1.1994554   -6.2797747    109.54786  0.042069072  0.044557407            6 
  218000    1.2089284   -6.2330182    110.18546  0.042119826  0.044548394            1 
  219000    1.2120245   -6.2798837    110.20614  0.041935363  0.044537786            3 
  220000    1.1786943   -6.3097186    110.54244  0.041872136  0.044527177            4 
  221000    1.2463669   -6.2836666    111.35256  0.041988144  0.044515134            3 
  222000     1.217651   -6.2674703     111.4724  0.041843993  0.044501618            3 
  223000    1.2229328   -6.2574426     112.1088   0.04189417  0.044488573            3 
  224000    1.1966902   -6.2536843    112.63878  0.041904308  0.044475627            4 
  225000    1.2131926   -6.2658883    113.34272  0.041978786  0.044463683            2 
  226000    1.2226361   -6.3000445    114.07583  0.042063359  0.044455147            4 
  227000    1.2209396    -6.269653    114.52357  0.042042426  0.044444541            1 
  228000    1.1921294   -6.2193265    114.77686  0.041950608  0.044433722            2 
  229000    1.2223161   -6.3188698     114.9619  0.041834752  0.044422385            3 
  230000    1.2302751   -6.2491824    115.40483  0.041813345      0.04441            3 
  231000    1.2068923   -6.2544681    115.87952  0.041803578  0.044393854            2 
  232000    1.1888733   -6.2663742     116.6849   0.04191268  0.044379918            3 
  233000    1.2037704   -6.2843984     116.8097   0.04177743  0.044363602            5 
  234000    1.1824938   -6.3413468    116.84207  0.041610425  0.044347839            2 
  235000    1.1939689   -6.2959828    117.56297  0.041688996  0.044332413            3 
  236000    1.1921692   -6.2546954    118.52656  0.041852599  0.044316047            1 
  237000    1.2057905   -6.2937513    118.66656  0.041725233  0.044302064            2 
  238000     1.210068   -6.3177685    119.30786   0.04177446  0.044287007            4 
  239000    1.2175464   -6.2700284    119.73944  0.041750153   0.04427352            2 
  240000    1.2079102   -6.2635922    120.44143   0.04181994  0.044260356            3 
  241000    1.2068041   -6.2701906    121.39005   0.04197443  0.044248394            5 
  242000     1.212015   -6.2841521     121.7426  0.041922384  0.044236371            1 
  243000    1.2161284   -6.2452778    122.00685  0.041840484   0.04422507            2 
  244000    1.2139429   -6.2619674    122.72613   0.04191466  0.044214854            2 
  245000    1.2043788   -6.3258074    122.87378  0.041793801  0.044203286            6 
  246000    1.1949468   -6.2953632    123.58144  0.041863633  0.044190726            2 
  247000    1.2155544    -6.284931    124.13059  0.041879417  0.044177007            4 
  248000    1.2007256     -6.27609    124.29213  0.041764829  0.044162336            2 
  249000    1.2225323   -6.3083853    124.66228  0.041720978  0.044146218            2 
  250000    1.2048882   -6.2617949    125.37876  0.041792919  0.044131565            3 
  251000    1.2085891   -6.2818579    125.72514  0.041741416  0.044117605            2 
  252000    1.2120463   -6.3009339    126.36321  0.041786776  0.044101724            2 
  253000    1.2249225   -6.2800511    126.46264  0.041654362  0.044086209            4 
  254000    1.2310837   -6.2705907    127.27652  0.041757388  0.044070117            1 
  255000    1.2262738   -6.2860515    127.36687   0.04162316  0.044054363            7 
  256000     1.211318   -6.2665218    127.78625  0.041597087  0.044037032            2 
  257000    1.2103933   -6.3034774     128.1902  0.041566213  0.044019901            4 
  258000    1.1986118    -6.295676    128.55377  0.041522534  0.044004185            3 
  259000    1.2147565   -6.3217251    129.34619  0.041617179  0.043987988            4 
  260000    1.2042349   -6.2813545      129.688  0.041566665  0.043972366            1 
  261000    1.2175914    -6.310746    129.80928  0.041446132  0.043955793            2 
  262000    1.1957925   -6.3010281    130.79633  0.041601885  0.043940127            1 
  263000    1.1740382   -6.2980744    131.59976  0.041698275  0.043924644            4 
  264000    1.2118187    -6.272117    131.88392  0.041630024  0.043910574            2 
  265000    1.2211161   -6.2990456    132.89891  0.041792111  0.043895846            2 
  266000    1.1989497   -6.2776573    132.96248  0.041654914   0.04388272            2 
  267000    1.2369553   -6.3396491     133.4861  0.041662329  0.043868697            3 
  268000    1.2244673   -6.3077936    134.21461    0.0417334  0.043855136            3 
  269000    1.1984992    -6.281058     135.0866   0.04184839  0.043842047            2 
  270000    1.2257043   -6.3042227    134.86177  0.041624003  0.043829708            5 
  271000     1.230382   -6.3094655    135.87021  0.041780507  0.043818862            2 
  272000    1.1879677   -6.2587517    135.96711   0.04165659  0.043808629            2 
  273000    1.1953155   -6.2911227    136.81066  0.041761497  0.043796879            2 
  274000    1.2119424   -6.3066086    137.46533  0.041808192   0.04378669            1 
  275000    1.2316112   -6.3380228    137.73491   0.04173785  0.043775357            2 
  276000    1.2109607   -6.3247618    138.19249  0.041724787  0.043764998            2 
  277000    1.2081571   -6.2559462    138.75741  0.041744107  0.043754501            3 
  278000    1.1820715   -6.2787486    139.20631   0.04172851  0.043743038            2 
  279000    1.2143323   -6.2933509    139.97028  0.041807132  0.043730812            3 
  280000    1.1963293    -6.321088    140.13161  0.041705837  0.043718772            5 
  281000    1.1797213   -6.2737681    141.03333  0.041824832    0.0437081            2 
  282000    1.1976092   -6.3168744    141.23623  0.041736474  0.043699142            3 
  283000    1.1661598   -6.3265114    141.85394  0.041770888  0.043688918            4 
  284000    1.1989191   -6.3012471     142.2664  0.041744837  0.043677174            4 
  285000    1.1960574   -6.2588929     142.9115  0.041786989  0.043666176            3 
  286000    1.1743783    -6.265439    143.47251  0.041804343  0.043654218            2 
  287000    1.1927345   -6.2887193    143.22719  0.041587453  0.043641799            2 
  288000    1.1585368    -6.293364    144.05734  0.041683257  0.043629457            4 
  289000     1.183801   -6.2920333    144.36909  0.041628918  0.043615436            2 
  290000    1.2219347   -6.3354112    144.27782  0.041459143  0.043601666            6 
  291000    1.1824452    -6.282479    144.49205   0.04137802  0.043586978            3 
  292000    1.2195218   -6.2904125    145.19359  0.041436527  0.043572118            3 
  293000    1.1865662   -6.2973667    145.85799   0.04148407  0.043555605            1 
  294000    1.1913735   -6.3038139    146.02817  0.041391205  0.043538928            2 
  295000    1.2286644   -6.2965435     146.5466  0.041397344  0.043521634            1 
  296000    1.2043955   -6.3048849    146.73101  0.041309407   0.04350456            2 
  297000    1.2031829   -6.3003809    147.38637  0.041354201  0.043486753            3 
  298000    1.1996883    -6.236896    147.45941  0.041235853  0.043468941            3 
  299000     1.209349   -6.3064413    148.35819  0.041348438    0.0434507            5 
  300000    1.1804306   -6.3145357    148.83316  0.041342544  0.043432949            4 
  301000    1.2020961   -6.2895647    148.76445   0.04118617  0.043413645            2 
  302000    1.1995503   -6.2983587    149.83849  0.041346162  0.043395514            3 
  303000     1.188146   -6.3151376     149.8709  0.041218621  0.043378053            2 
  304000     1.201239   -6.2998368    150.56315  0.041272792  0.043360748            4 
  305000     1.226479   -6.2924531      151.488  0.041390163  0.043345401            1 
  306000    1.2113088   -6.2720744    151.59938  0.041285233  0.043330329            2 
  307000    1.1743067   -6.2753977    152.68981  0.041446746   0.04331493            2 
  308000    1.2076393   -6.3391873    152.82896  0.041349828   0.04329905            2 
  309000    1.1925296   -6.3036043    152.88179  0.041230257  0.043282927            2 
  310000    1.2097827   -6.2842436    154.03996   0.04140859    0.0432668            1 
  311000    1.2046378   -6.3007013    154.46234  0.041388623  0.043250795            1 
  312000    1.2086328   -6.2680144    154.85311   0.04136034  0.043237471            3 
  313000    1.2013301   -6.3035769    155.53754  0.041410422  0.043223368            2 
  314000    1.1946956   -6.3094335    156.17774  0.041448446  0.043210566            4 
  315000    1.1684739   -6.3013545    156.61373  0.041432204  0.043197542            2 
  316000     1.208752   -6.2951245    156.80488  0.041351497  0.043182709            3 
  317000      1.16626   -6.3271201     156.7569  0.041208439   0.04316833            3 
  318000    1.2349672   -6.3317487    157.74812  0.041338606  0.043153714            3 
  319000    1.2099076    -6.331792    158.02506  0.041281363  0.043140325            3 
  320000     1.199641   -6.2993358    159.69065  0.041586106  0.043128915            1 
  321000    1.2100967   -6.3165558    159.79297  0.041483118  0.043118439            2 
  322000    1.2078081   -6.2814325    160.73149  0.041597178    0.0431085            3 
  323000    1.1806832   -6.2908843    160.95114  0.041525061  0.043099357            3 
  324000    1.2015863   -6.3435561    161.46058  0.041527926  0.043089393            1 
  325000    1.1900654   -6.3052127    161.64891  0.041448438  0.043079825            2 
  326000    1.2020583   -6.2893387    162.40575  0.041514762  0.043070966            2 
  327000    1.2038075   -6.3153585    163.27291  0.041608796  0.043062032            3 
  328000    1.1895244   -6.2996866    163.87009  0.041633661  0.043053998            3 
  329000    1.1634905   -6.2924611    164.53156  0.041674661  0.043046766            1 
  330000    1.1755922   -6.3065913    165.30478  0.041743632  0.043039011            3 
  331000    1.1988088   -6.2912562    165.32637  0.041622954  0.043031147            3 
  332000    1.1996684   -6.3329242    165.40673  0.041517754  0.043024095            4 
  333000    1.2114982   -6.2942954    166.65954  0.041706592  0.043017339            3 
  334000    1.1812121   -6.3125374    166.77367  0.041610198  0.043009657            4 
  335000     1.205146   -6.2659482    167.66175  0.041706903  0.043002171            7 
  336000    1.2013715   -6.3131155    167.75153  0.041605042  0.042996692            2 
  337000    1.1939689   -6.3112454    168.82152  0.041746173  0.042993346            2 
  338000    1.2030766   -6.3194587    168.85156   0.04163007  0.042987548            2 
  339000    1.2222814   -6.3149061    169.71224  0.041718839  0.042983335            2 
  340000    1.2051201   -6.3378956    170.39971  0.041764634  0.042979033            1 
  341000    1.2012464   -6.3046177     171.1677  0.041829839  0.042975707            1 
  342000    1.1915296   -6.3051067     171.4656  0.041780117  0.042971568            3 
  343000    1.2183294   -6.2689514    172.40989  0.041887729  0.042967535            2 
  344000    1.2427952   -6.2866672    172.88359  0.041880715  0.042965271            3 
  345000    1.1991934   -6.3087968    173.36135  0.041874723  0.042962622            1 
  346000    1.1829383   -6.3238071    174.03348  0.041915578  0.042961265            7 
  347000    1.1929288   -6.3111855    174.23276  0.041842642  0.042960405            2 
  348000    1.2061982   -6.3361189     174.4533  0.041775214  0.042958918            3 
  349000    1.2273201   -6.2952209    175.44451  0.041892195  0.042955951            4 
  350000    1.2115575   -6.3079998    176.52722   0.04203029  0.042954113            3 
  351000    1.2032779   -6.3287219    176.83242  0.041983007  0.042954781            2 
  352000    1.2088331   -6.3311232    177.52123  0.042026807  0.042955251            2 
  353000     1.177155   -6.2764901    178.42491  0.042121083  0.042956682            2 
  354000    1.2047233   -6.3318488    178.65445  0.042056131  0.042958023            4 
  355000    1.1831644   -6.3389268     179.0827  0.042038193  0.042958665            3 
  356000    1.1744518   -6.3051904    179.40539  0.041995643  0.042959557            1 
  357000      1.17576   -6.3372956    180.42781  0.042116669  0.042958602            3 
  358000    1.1958912   -6.3110657    180.24488  0.041956444   0.04295664            4 
  359000    1.1972327   -6.3336665      180.206  0.041830547   0.04295428            1 
  360000    1.2182691   -6.3052427    181.00531  0.041899378  0.042952566            1 
  361000    1.1930521   -6.3018953    182.15552  0.042048827  0.042952186            3 
  362000    1.1880093   -6.3206626    181.85943  0.041864511  0.042951582            1 
  363000    1.2097216   -6.2951989    182.33673  0.041858753  0.042949565            2 
  364000    1.1948129   -6.3162366    183.37358  0.041981131  0.042947403            2 
  365000    1.1994499   -6.3379041     183.9609  0.042000206  0.042945344            3 
  366000    1.2060041   -6.2896669    183.52762  0.041786799  0.042943075            6 
  367000    1.2042619   -6.2864246    184.45486  0.041883484  0.042939547            2 
  368000    1.2126047   -6.3459277    184.15922  0.041702722  0.042936201            3 
  369000    1.1919598   -6.3125032    185.27668  0.041842069  0.042932459            4 
  370000    1.1728562   -6.2966478    186.02744  0.041898072  0.042929678            3 
  371000    1.1898025   -6.2811119    186.31778  0.041850354   0.04292605            3 
  372000    1.1905977   -6.3269182    186.95684  0.041881013  0.042921629            2 
  373000     1.177572   -6.2988242    187.95265  0.041991209  0.042918796            5 
  374000    1.1972109    -6.291554    188.38895  0.041976146  0.042917339            3 
  375000    1.2165625   -6.3179763    188.44678  0.041877062  0.042914138            6 
  376000    1.1884456     -6.28617    189.48608  0.041996029  0.042911262            2 
  377000     1.195282   -6.3110362    188.72631  0.041716691  0.042908085            1 
  378000    1.1736241   -6.3250841    190.17716  0.041926181  0.042903111            5 
  379000    1.1770517   -6.3320101    189.43086  0.041651464  0.042897866            2 
  380000    1.2122723   -6.3077167    190.30652  0.041733886  0.042891938            5 
  381000    1.1693313    -6.348129    190.87884  0.041749528  0.042885928            2 
  382000     1.200575   -6.3077067    191.27928  0.041727591  0.042880422            1 
  383000     1.176694   -6.2906807    191.08826  0.041577081  0.042873635            5 
  384000    1.1982282   -6.3373379    191.21484  0.041496277  0.042866751            1 
  385000    1.1788802   -6.3516482    191.76968   0.04150859  0.042859373            3 
  386000    1.1974429    -6.349025    192.36139  0.041528796  0.042850576           11 
  387000    1.2080862   -6.3676711    192.94387  0.041546914  0.042843026            3 
  388000    1.1903298   -6.3409805    193.36749  0.041530818  0.042835371            1 
  389000    1.1977852   -6.3090838    194.06638  0.041573774  0.042828616            1 
  390000    1.1834655    -6.323648    194.05564  0.041464881  0.042821251            3 
  391000     1.204108    -6.342208    194.47639  0.041448506  0.042812306            3 
  392000    1.2083201   -6.3067205    195.26732   0.04151091  0.042803458            3 
  393000    1.1911125   -6.3406182    195.90199  0.041539862  0.042794152            2 
  394000    1.2044431    -6.292047    196.73239  0.041610065  0.042785416            1 
  395000    1.1633539   -6.3548833    196.60997  0.041478897  0.042777736            6 
  396000    1.1868689   -6.3145384    196.96346   0.04144854  0.042769116            2 
  397000    1.1729736   -6.3168169     198.0991  0.041582516  0.042761726            2 
  398000    1.1931106   -6.2997061    198.31487  0.041523214  0.042754316            3 
  399000    1.1864224   -6.3047423    198.90086  0.041541532  0.042745983            3 
  400000    1.2081645   -6.3143604    199.16298  0.041492287  0.042739401            3 
  401000    1.1581752   -6.3278295    199.92569  0.041547317   0.04273262            3 
  402000    1.2092965   -6.3373763    200.14475  0.041489376  0.042725073            1 
  403000    1.2091796   -6.3456139    200.84108  0.041530414  0.042718233            4 
  404000    1.1790852   -6.3618977    201.08773  0.041478492  0.042711811            3 
  405000    1.1531655   -6.3195305    201.85402  0.041533749   0.04270553            5 
  406000    1.1862948   -6.3172414    201.98189  0.041457694  0.042699088            3 
  407000    1.1890838   -6.3269251    202.71393  0.041505719  0.042692542            3 
  408000    1.1878667    -6.344972    202.89124  0.041440205  0.042685125            2 
  409000    1.2093581   -6.3013986    203.91507  0.041547488  0.042677615            3 
  410000    1.1860291   -6.3420778    204.56586  0.041578426   0.04267133            3 
  411000    1.1875689   -6.3208069    204.63441  0.041491161  0.042664762            3 
  412000    1.1977866   -6.3292094    205.07873  0.041480326  0.042658738            4 
  413000    1.1901196   -6.3556008    204.77523  0.041318651  0.042650651            3 
  414000    1.2011396   -6.3076032    205.58894  0.041382637  0.042642616            3 
  415000      1.19408   -6.3541354    205.73601  0.041312451  0.042633891            5 
  416000    1.1706302    -6.320319    206.68132  0.041402509  0.042625454            2 
  417000    1.1875499   -6.3122059    207.52482  0.041471787  0.042617604            2 
  418000    1.1819918   -6.3032228    207.37846  0.041343394  0.042609615            3 
  419000    1.1699474   -6.3511795    208.12548  0.041393293   0.04260248            5 
  420000    1.1838926   -6.3645527     207.8385  0.041237798  0.042594634            4 
  421000    1.2049445   -6.3279364    208.82342  0.041334803  0.042585708            4 
  422000    1.2015831   -6.3562045    209.01773  0.041275223  0.042577332            5 
  423000    1.2047419   -6.3366049    210.39717  0.041449404  0.042570433            3 
  424000    1.1841462    -6.338763    211.48479  0.041565406   0.04256387            2 
  425000    1.1754761   -6.3778454    211.60999  0.041492155  0.042558766            3 
  426000    1.1961695   -6.3196366    212.68149   0.04160436  0.042553572            2 
  427000    1.1979389   -6.3054392    212.92686  0.041554812  0.042548784            4 
  428000    1.1908398   -6.3619846    213.56059  0.041581112  0.042543781            2 
  429000    1.1822335   -6.3377458    213.32902  0.041439203  0.042537394            2 
  430000    1.2186892   -6.3104083    213.57326  0.041390167   0.04252962            4 
  431000    1.1688404   -6.3260486    213.66214  0.041311319  0.042522344            3 
  432000    1.1783772   -6.3356057     214.1752  0.041314661  0.042513686            3 
  433000    1.1813053   -6.3417674    214.07494  0.041199949   0.04250443            3 
  434000    1.1866794   -6.3630332    215.08601  0.041299158  0.042494429            9 
  435000    1.1937096   -6.3510156    215.10747  0.041208328   0.04248543            2 
  436000    1.1845591   -6.3436984    215.78656  0.041243608  0.042476508            2 
  437000    1.1783651   -6.3462804    215.56481  0.041106944  0.042466645            4 
  438000    1.1686651   -6.3223143    216.62438  0.041214684   0.04245735            2 
  439000    1.1774686   -6.3054288    218.00977  0.041383784  0.042449291            2 
  440000    1.1716081   -6.3766921    218.15757  0.041317722  0.042442284            1 
  441000    1.1878984   -6.3728118    218.51848  0.041292231  0.042434622            2 
  442000    1.2049375   -6.3550362     219.3327  0.041352319  0.042427329           12 
  443000    1.1898723   -6.3402072    219.26945  0.041247075  0.042419682            3 
  444000    1.2112487   -6.3466294    219.85486   0.04126405  0.042411379            2 
  445000    1.1985091   -6.3303822    221.14563  0.041413039  0.042404758            3 
  446000    1.1866493    -6.320391    221.67641  0.041419359  0.042398403            3 
  447000    1.2253079   -6.3058072     222.5738  0.041493997  0.042393542            2 
  448000    1.2023716   -6.3415571    222.53064  0.041393348  0.042388127            8 
  449000     1.208038   -6.3032868    223.31099   0.04144599  0.042382793            3 
  450000     1.184654   -6.3214607    223.67146  0.041420641  0.042377672            2 
  451000    1.1929921   -6.3499384    224.21326  0.041428909  0.042372552            1 
  452000      1.15954   -6.3347953    224.47511  0.041385529  0.042366889            2 
  453000    1.1507955   -6.3683978    224.19837  0.041243261  0.042360515            3 
  454000    1.1914897   -6.3725884     225.1346  0.041324266  0.042354562            4 
  455000    1.1640911   -6.3427668    226.12436  0.041414718  0.042348645            3 
  456000    1.2092796   -6.3088061    226.85077  0.041456646  0.042342503            2 
  457000    1.1763996   -6.3861945    226.64026  0.041327545  0.042336474            3 
  458000    1.1751948   -6.3893328    227.26698  0.041351343  0.042330875            4 
  459000    1.1797974   -6.3168407    228.10463  0.041413332  0.042325551            4 
  460000    1.1803068    -6.380553    227.59945  0.041231785  0.042319685            4 
  461000    1.2013605   -6.3747653    228.32219  0.041272991    0.0423142            4 
  462000    1.1835285   -6.3404297    228.68925  0.041249865  0.042308094            4 
  463000    1.1795425   -6.3433235    229.64242   0.04133233  0.042301256            2 
  464000    1.2036898   -6.3457936    229.59079  0.041233978  0.042295191            8 
  465000    1.1756101   -6.3460414    230.81825  0.041365278  0.042288775            6 
  466000    1.1736917   -6.3488882    230.68704  0.041253047  0.042282826            3 
  467000    1.1674627   -6.3181718    231.37844  0.041288087  0.042275884            5 
  468000    1.1771681    -6.321456    231.26539  0.041179735  0.042268489            2 
  469000    1.1832946   -6.3481498    230.93719  0.041033616  0.042260737            4 
  470000    1.1667489   -6.3337237    232.05203  0.041143978  0.042252536            2 
  471000    1.1951809   -6.3151256    232.90015   0.04120668  0.042243883            2 
  472000    1.1712745   -6.3522694    232.72472  0.041088403  0.042235898            2 
  473000    1.1902893   -6.3152022    234.06378  0.041237453  0.042228498            3 
  474000    1.1863334   -6.3239829    234.22442  0.041178695  0.042221157            2 
  475000    1.1641738   -6.3753863     234.8963  0.041209878  0.042214091            3 
  476000    1.1867701   -6.3337459    234.14989  0.040992628  0.042206248            3 
  477000    1.1614338   -6.3793092    234.50261   0.04096831  0.042196874            4 
  478000    1.1587087   -6.3789763    235.08891  0.040984816  0.042186804            2 
  479000    1.1638205   -6.3721037     234.9313  0.040871833  0.042176062            3 
  480000    1.1687785   -6.3479923    235.56875  0.040897352  0.042163874            2 
  481000    1.1817463   -6.3767772     234.8254  0.040683542  0.042151781            3 
  482000    1.1669567   -6.3650121    235.33323  0.040686934  0.042138915           11 
  483000    1.1563817   -6.3812533    235.56907  0.040643386  0.042125991            1 
  484000     1.143284   -6.3566397    235.93021  0.040621593  0.042112828            4 
  485000     1.153237   -6.3682959    236.04492  0.040557546  0.042099553            1 
  486000    1.1820472   -6.4108484    236.37633   0.04053092  0.042085908            3 
  487000    1.1518089   -6.3630105    236.88959  0.040535521   0.04207221            3 
  488000    1.1487216   -6.3259131    238.64629  0.040752441  0.042058804            2 
  489000    1.1353345   -6.3892819    238.60516  0.040662093  0.042046164            4 
  490000    1.1710688   -6.3600908     238.6657  0.040589405  0.042033377            3 
  491000     1.164514    -6.362394    239.50238  0.040648741  0.042020567            2 
  492000    1.1807804   -6.3489312    239.79474   0.04061564  0.042007801            2 
  493000    1.1437117   -6.3543401    240.58512  0.040666857   0.04199504            3 
  494000    1.1595129   -6.3512372    241.22547  0.040692556   0.04198274            3 
  495000    1.1700914   -6.3738007    241.21339  0.040608315  0.041970394            2 
  496000    1.1695795   -6.3764998     241.7254  0.040612466   0.04195782            2 
  497000    1.1431183   -6.3736862    241.71836   0.04052957  0.041946128            2 
  498000    1.1751354   -6.3887429    242.95044  0.040654357  0.041934579            3 
  499000     1.164391   -6.3559793    243.78928  0.040712972  0.041923365            4 
  500000    1.1790102   -6.3507455    244.09983  0.040683305     0.041912            2 
  501000    1.1805812   -6.3580572    245.16384  0.040779082  0.041900626            4 
  502000    1.1793619   -6.3495417    244.21635  0.040540563   0.04188937            3 
  503000    1.1752688    -6.369168    245.11367  0.040608627  0.041877775            2 
  504000    1.1843248   -6.3907791    245.55735  0.040601414  0.041865935            5 
  505000    1.1799271   -6.3720997    245.56296  0.040521941  0.041854618            2 
  506000     1.166862    -6.393658    246.56104  0.040606232  0.041843156            3 
  507000    1.1695496   -6.3523024    247.34059  0.040654271  0.041831988            2 
  508000    1.1668763   -6.3720778    247.52044  0.040603746  0.041820974            2 
  509000    1.1620144   -6.3418208    248.86758  0.040744529  0.041809853            2 
  510000    1.1924604   -6.3281048    249.07923   0.04069922  0.041799056            2 
  511000     1.169454   -6.3803086     249.2343  0.040644863  0.041789477            3 
  512000    1.1711554   -6.3751442    250.01836  0.040693093  0.041778697            5 
  513000    1.1680191   -6.3731948    250.14827  0.040634872  0.041768465            3 
  514000    1.1579982   -6.3559984    249.99407  0.040530815  0.041757594            2 
  515000    1.1632276   -6.3448282    251.22046   0.04065056  0.041746936            5 
  516000    1.1143596   -6.3938172    251.52956  0.040621699  0.041737281            2 
  517000    1.1704504   -6.3737034    251.88572  0.040600535  0.041727075            3 
  518000    1.1385554      -6.3622    251.12862  0.040400356  0.041716801            3 
  519000    1.1558922   -6.3477438    252.36166  0.040520498  0.041705728            4 
  520000    1.1629933    -6.352697    252.79334  0.040511753  0.041694106            2 
  521000    1.1904475   -6.3281754    253.54439  0.040554125  0.041683289            2 
  522000    1.1822176   -6.3466774    254.10836  0.040566468  0.041671674            4 
  523000    1.1743654   -6.3270982    254.12438  0.040491456  0.041660591            4 
  524000     1.150763   -6.3420119    253.68983  0.040345074  0.041649691            1 
  525000    1.1701502   -6.3367218    255.14347  0.040498963  0.041637936            4 
  526000     1.169992   -6.3921264    255.44622  0.040469934   0.04162731            2 
  527000    1.1338023   -6.3621284    256.71041  0.040593044  0.041616438            2 
  528000    1.1523313   -6.3907645    256.12032   0.04042303  0.041605292            4 
  529000    1.1433879   -6.3650961    257.68424  0.040592981  0.041594441            3 
  530000    1.1619839   -6.3509247    258.44073  0.040635335  0.041584415            1 
  531000    1.1533014   -6.3619462    258.03172  0.040494621  0.041574257            4 
  532000    1.1687206   -6.3862269    258.19652  0.040444317  0.041563049            2 
  533000    1.1508264   -6.3474341     258.9588  0.040487617   0.04155282            2 
  534000    1.1639395   -6.3653725    259.19703  0.040448975  0.041542083            3 
  535000    1.1763684    -6.381708    259.38642  0.040402869  0.041531542            2 
  536000     1.165936   -6.3568498    259.29041  0.040312563  0.041520563            4 
  537000    1.1612072   -6.3650498    260.93911  0.040493344  0.041509995            4 
  538000    1.1727936   -6.3938685    260.59853  0.040365324  0.041499059            5 
  539000    1.1626595   -6.3642262    260.93982    0.0403432  0.041487853            2 
  540000    1.1624355   -6.3817961    261.97607  0.040428406  0.041476283            3 
  541000    1.1821064   -6.3650802    261.64892  0.040303284   0.04146453            4 
  542000    1.1715278   -6.3671698    261.09654  0.040143994  0.041453207            6 
  543000    1.1801728   -6.3655965    262.85601  0.040340088  0.041441547            5 
  544000    1.1429645   -6.4070946    262.21406  0.040167595  0.041429706            3 
  545000    1.1870086   -6.3834001    263.02985  0.040218631  0.041417537            4 
  546000    1.1756246   -6.3799174    263.65569   0.04024049  0.041405335            9 
  547000    1.1629869     -6.37837    263.17648  0.040093919  0.041393171            2 
  548000    1.1633869   -6.3924314    264.28214  0.040188889  0.041381444            2 
  549000     1.205381   -6.3386976      264.816  0.040196721  0.041369908            2 
  550000    1.1571485   -6.3789338    265.03738  0.040157179  0.041358336            3 
  551000    1.1563833    -6.368727    264.73374  0.040038375  0.041345748            3 
  552000    1.1776139   -6.4072638    265.91376  0.040143985  0.041333278            2 
  553000    1.1437189   -6.3738619    266.50015  0.040159757  0.041321913            2 
  554000    1.1446922    -6.425181    267.37441  0.040218773  0.041310775            3 
  555000    1.1482285   -6.3560688    268.47071  0.040310917   0.04129981            3 
  556000    1.1517893   -6.3687869    269.16182  0.040341999   0.04128949            3 
  557000    1.1356651    -6.362663    269.52769   0.04032431  0.041279892            2 
  558000    1.1710693   -6.3726476    269.72514  0.040281532  0.041269562            3 
  559000    1.1648898   -6.3580857     270.2892   0.04029356  0.041259232            2 
  560000    1.1772285   -6.3733902    270.59042  0.040266432  0.041248663            4 
  561000    1.1771873   -6.4057126    270.17659  0.040133184  0.041239074            3 
  562000    1.1586427   -6.3824972    270.86665  0.040164094  0.041228785            4 
  563000    1.1699736   -6.3711313    270.76807  0.040078163  0.041218231            3 
  564000    1.1496983   -6.3885852    271.26318  0.040080257  0.041207746            3 
  565000    1.1660557   -6.3630565    272.06708  0.040127888  0.041197087            2 
  566000    1.1599358    -6.396988    272.68958  0.040148643  0.041185881            2 
  567000    1.1539341   -6.3663943    273.12154   0.04014132  0.041175232            4 
  568000     1.150438   -6.3985773    273.20244  0.040082517  0.041164356            2 
  569000    1.1477066   -6.4027592    272.92855  0.039971961  0.041153323            2 
  570000    1.1387925   -6.3275251    275.44961  0.040270411  0.041143216            5 
  571000    1.1469689   -6.3704362    275.09055  0.040147482  0.041133084            2 
  572000    1.1500545   -6.3608105    275.81919  0.040183448  0.041123266            2 
  573000    1.1569413   -6.3875467    275.47539   0.04006332   0.04111338            5 
  574000    1.1443106   -6.3748343    276.43822  0.040133307  0.041103385            5 
  575000    1.1689171   -6.3586656    276.84611  0.040122624  0.041093395            4 
  576000    1.1443884   -6.3615826    277.19231  0.040103054  0.041083537            5 
  577000    1.1634854    -6.374205    277.15242  0.040027791  0.041073658            3 
  578000    1.1575361   -6.4281285    277.24138  0.039971363  0.041063289            2 
  579000    1.1671846     -6.38106    278.40235  0.040069423  0.041052572            1 
  580000    1.1516811   -6.3736837    280.00644  0.040230811  0.041042219            2 
  581000    1.1782532   -6.3767651     279.8778  0.040143115  0.041032115            3 
  582000    1.1736579   -6.3822885    279.17308  0.039973236  0.041021946            2 
  583000    1.1492518   -6.3707081    279.66894  0.039975549  0.041011295            2 
  584000    1.1736597   -6.4161265    279.31572  0.039856696  0.040999881            2 
  585000    1.1548278   -6.3559025    280.42726  0.039946904  0.040988781            3 
  586000    1.1683122   -6.3721605    280.78315  0.039929345  0.040977897            2 
  587000    1.1484005   -6.3911741    281.06264  0.039900999  0.040966809            4 
  588000     1.151856   -6.4034569    281.43048  0.039885272  0.040955669            1 
  589000    1.1677494    -6.403207    281.73182   0.03986019  0.040944711            3 
  590000    1.1506074   -6.3890859    283.17867  0.039996987   0.04093425            2 
  591000    1.1418186   -6.3516498    284.00727  0.040046146  0.040923747            2 
  592000    1.1690415   -6.3795792    283.98239  0.039974999  0.040913423            3 
  593000    1.1517775   -6.3726885    285.43448  0.040111647  0.040903518            3 
  594000    1.1577787    -6.367034    285.39412  0.040038457   0.04089369            5 
  595000    1.1454471    -6.376587    285.45085  0.039979111  0.040883645            2 
  596000    1.1470024   -6.4003073    284.65883  0.039801291  0.040872792            2 
  597000    1.1666128   -6.3630739    285.61603  0.039868234  0.040862245            4 
  598000    1.1854956    -6.375078    285.51848  0.039787971   0.04085138            2 
  599000    1.1529568   -6.3730639    285.96475  0.039783632  0.040840591            3 
  600000    1.1462085   -6.3922988    286.68692  0.039817628  0.040829501            2 
  601000    1.1397194   -6.3877348    287.19726  0.039822138   0.04081856            4 
  602000    1.1658157   -6.3639395    288.45891  0.039930635  0.040808443            3 
  603000    1.1369463   -6.4110206    288.82616  0.039915169  0.040798123            3 
  604000    1.1730019   -6.3903777    289.50424  0.039942638  0.040787826            3 
  605000    1.1524266   -6.3549528    288.72391  0.039769134  0.040777411            4 
  606000    1.1564983   -6.3728373    290.67544   0.03997187  0.040767628            3 
  607000    1.1310493   -6.4070711    291.53508  0.040024037  0.040758592            2 
  608000    1.1554608   -6.3722876     292.1846  0.040047231  0.040750393            4 
  609000    1.1663531   -6.3842955     291.8949  0.039941831  0.040742224            3 
  610000    1.1557911   -6.3989912    293.05029  0.040034192  0.040733766            2 
  611000    1.1374081   -6.3649634    293.78174  0.040068431  0.040725442            2 
  612000    1.1376903   -6.3447135    293.20284  0.039924134  0.040717109            2 
  613000    1.1489954   -6.3850757    295.01205  0.040104955  0.040708762            2 
  614000    1.1681709   -6.3880486    293.49543  0.039833799  0.040700187            5 
  615000    1.1067944   -6.3679818    295.21515  0.040002053  0.040692253            4 
  616000    1.1568165   -6.3661059    294.98468  0.039905936  0.040684161            3 
  617000    1.1742201    -6.391418    295.39087  0.039896119   0.04067601            2 
  618000    1.1272995   -6.4164769    296.38409  0.039965493  0.040667843            3 
  619000    1.1691628   -6.3775203    296.78098  0.039954359  0.040659728            3 
  620000    1.1751842   -6.3809817    297.53996   0.03999193  0.040651878            6 
  621000    1.1346698   -6.3813536    297.58765  0.039933931  0.040643217            2 
  622000    1.1478267   -6.3796403     298.4633  0.039987044  0.040635087            1 
  623000      1.16045   -6.3923631    298.91681  0.039983521  0.040627422            3 
  624000    1.1589486   -6.4015396    299.65784  0.040018409  0.040620013            2 
  625000    1.1446887   -6.4256678    300.12494  0.040016659  0.040612763            5 
  626000    1.1396639   -6.4062418    301.18759  0.040094194  0.040605708            4 
  627000    1.1605326    -6.418508    300.88781  0.039990405  0.040599028            2 
  628000    1.1548092   -6.4336331    301.67993  0.040031838  0.040592475            1 
  629000    1.1614656   -6.3795972    303.28878  0.040181344  0.040585842            3 
  630000    1.1683546   -6.3885768    302.99065  0.040078129   0.04057938            3 
  631000    1.1549047   -6.4069932    303.01998  0.040018487  0.040572794            3 
  632000    1.1632456   -6.4187899    303.61917  0.040034173  0.040566428            4 
  633000     1.149991   -6.3603387    305.07541  0.040162639   0.04056052            2 
  634000    1.1312374   -6.4317938    304.20789  0.039985264  0.040554031            3 
  635000    1.1325263   -6.4187532    304.32645  0.039937855  0.040547205            3 
  636000    1.1462597   -6.3805814    305.16725  0.039985227  0.040540111            3 
  637000    1.1529868    -6.366429    305.87248  0.040014715  0.040532664            2 
  638000    1.1471632   -6.4073615    305.97132  0.039964906  0.040525519            5 
  639000    1.1814817   -6.3912972    305.35445  0.039821915   0.04051765            3 
  640000    1.1550586   -6.3750029    306.47196  0.039905203   0.04051004            2 
  641000    1.1314531   -6.3839317    306.84608  0.039891585   0.04050236            3 
  642000    1.1484009   -6.4364104    306.27586  0.039755434  0.040494233            3 
  643000    1.1507484   -6.3764105    307.61023  0.039866541  0.040486274            5 
  644000    1.1631853   -6.3854204    307.90129  0.039842299   0.04047849            1 
  645000    1.1263424   -6.3899997     308.2017  0.039819341  0.040470681            3 
  646000    1.1319062   -6.3968208    309.66891  0.039946969  0.040463496            2 
  647000    1.1290941   -6.3613983    309.81256   0.03990373  0.040455633            3 
  648000    1.1385176   -6.4141359    310.37267  0.039914181  0.040447934            3 
  649000    1.1487665   -6.3925838    309.57578  0.039750357  0.040439866            6 
  650000    1.1446153   -6.3628269    310.96337  0.039867098  0.040431995            5 
  651000    1.1539659   -6.3848598    310.30624  0.039721741  0.040423962            4 
  652000    1.1178306   -6.4153058    311.15465  0.039769255   0.04041585            2 
  653000    1.1551811   -6.4308951    311.53543  0.039756946  0.040407691            2 
  654000    1.1427754   -6.3881752     311.6192   0.03970683  0.040399056            3 
  655000    1.1320516   -6.3799003    312.59835  0.039770783  0.040390792            1 
  656000    1.1282511   -6.3534279    313.32429  0.039802375  0.040382854            2 
  657000    1.1183671   -6.4311069    313.72913  0.039793142  0.040374446            3 
  658000    1.1252103   -6.4023029    313.15869  0.039660422  0.040366122            3 
  659000    1.1339193   -6.3891527    313.78492  0.039679428  0.040357821            4 
  660000    1.1288863   -6.4134996    313.85726  0.039628442  0.040349007            4 
  661000    1.1481233   -6.4070878    313.53375  0.039527704  0.040340189            3 
  662000    1.1395638   -6.3725772    315.38701  0.039701285  0.040331649            4 
  663000    1.1244464   -6.3752241    315.57618  0.039665181  0.040323021            4 
  664000    1.1665455   -6.4186935    315.69656  0.039620553  0.040314221            3 
  665000    1.1350596   -6.3924122    315.38765  0.039522262  0.040305153           10 
  666000    1.1513754    -6.362504    316.24183  0.039569798  0.040296764            5 
  667000    1.1473553   -6.4027266    317.15588  0.039624673  0.040288749            1 
  668000    1.1271479   -6.4005626    317.49424  0.039607565  0.040280363            3 
  669000    1.1402033   -6.4149495    317.19213  0.039510728  0.040271542            1 
  670000      1.15095   -6.4010022    318.34869  0.039595608  0.040262989            7 
  671000    1.1385384   -6.4200032    318.34243   0.03953582  0.040253625            2 
  672000    1.1638287    -6.443947    317.24339  0.039340698  0.040244536            6 
  673000    1.1055198   -6.3802911    318.71431  0.039464378  0.040234966            2 
  674000    1.1371112   -6.4118728    318.17626    0.0393393  0.040225539            4 
  675000    1.1372766   -6.4115512    319.85751  0.039488582  0.040216581            2 
  676000    1.1576146   -6.3820868    321.45832  0.039627504  0.040208142            2 
  677000    1.1632489   -6.4269128    321.19551  0.039536621  0.040199627            3 
  678000    1.1347049   -6.4175735    321.66127  0.039535555  0.040191487            3 
  679000    1.1399648   -6.4429676    322.07871  0.039528561  0.040183488            4 
  680000    1.1436357   -6.4469574    321.51668  0.039401554   0.04017547            4 
  681000    1.1319013    -6.416573    322.93103  0.039516769  0.040167362            5 
  682000    1.1509199   -6.4034098    323.14903  0.039485463  0.040159475            3 
  683000    1.1468582   -6.4140217    324.64508  0.039610185  0.040150901            5 
  684000    1.1530429   -6.4077554    323.64928  0.039430955  0.040142771            3 
  685000    1.1515567   -6.3870265      324.722  0.039503893  0.040134234            3 
  686000    1.1118851   -6.4098319    324.72293   0.03944642  0.040125869            2 
  687000     1.149871   -6.4210597    325.89108  0.039530699  0.040117605            2 
  688000    1.1594937   -6.3869122    326.77525  0.039580336  0.040109675            3 
  689000    1.1340442   -6.4328101     325.2222  0.039335051  0.040101638            3 
  690000    1.1603557   -6.4264184    326.32322  0.039411017  0.040093192            3 
  691000    1.1435314   -6.4111394    327.38805  0.039482399  0.040084931            3 
  692000     1.112278   -6.3974844     327.5291   0.03944233  0.040076887            5 
  693000     1.108346   -6.4521714    328.41644  0.039492116  0.040068618            3 
  694000    1.1508225   -6.4219498    328.90208  0.039493526   0.04006032            3 
  695000    1.1696015   -6.4085969    329.49116  0.039507333  0.040052175            2 
  696000    1.1247058   -6.4059481    328.79862   0.03936765  0.040043435            3 
  697000    1.1205173   -6.4310301    330.10137  0.039466926  0.040035252            2 
  698000     1.147056   -6.4232798    329.33067   0.03931837  0.040026603            2 
  699000    1.1475084   -6.3528764    330.17806  0.039363145  0.040018228            4 
  700000    1.1370321   -6.4384396    329.86781  0.039269977  0.040009414            1 
  701000    1.1470198   -6.4183718    330.35873  0.039272317   0.04000004            4 
  702000    1.1544876   -6.4198309    330.69843  0.039256699  0.039990312            3 
  703000    1.1327549   -6.4056233    331.17909  0.039257834  0.039980985            4 
  704000    1.1068006   -6.4365477     330.7675   0.03915335  0.039971549            2 
  705000    1.1212024   -6.3864144    331.79155  0.039218859   0.03996129            4 
  706000     1.125978   -6.4539811     330.4431  0.039004143  0.039951165            2 
  707000    1.1285153   -6.4269861    333.06221  0.039257686  0.039940764            2 
  708000    1.1462752   -6.4293115    332.44184  0.039129219  0.039930715            2 
  709000    1.1505017   -6.4481725    332.44936  0.039074913  0.039920479            7 
  710000    1.1300154   -6.3962927    333.83302   0.03918228  0.039910972            3 
  711000    1.1413475   -6.4117614    333.62342  0.039102604  0.039901401            7 
  712000    1.1494161   -6.4217846    334.48225  0.039148203  0.039891815            3 
  713000     1.138156   -6.4159677    334.48895   0.03909408   0.03988191            2 
  714000    1.1288586   -6.3912214    335.33971  0.039138621   0.03987238            4 
  715000    1.1468253   -6.4435349    335.47253  0.039099362  0.039862627            4 
  716000    1.1021496   -6.4347514    336.73627  0.039191838  0.039852731            3 
  717000    1.1404146   -6.4289459    336.37378  0.039095046  0.039842916            4 
  718000    1.1533554   -6.4566994    336.84327  0.039095087  0.039833368            2 
  719000    1.1362428   -6.4307528    337.27671  0.039090949  0.039823667            5 
  720000    1.1751306   -6.4533113    337.28902  0.039038082  0.039813888            2 
  721000      1.11344   -6.4037741    338.62334  0.039138158  0.039804527            3 
  722000    1.1251873   -6.4195548    338.37322   0.03905508   0.03979577            8 
  723000    1.1548202   -6.4551035    337.84095  0.038939713  0.039786611            3 
  724000    1.1150698   -6.4269796    339.78169  0.039109311  0.039777286            1 
  725000    1.1435647   -6.3978601    339.16886  0.038984926   0.03976764            4 
  726000     1.152644   -6.4127976     339.8915  0.039014176  0.039758149            4 
  727000    1.1595083   -6.4155495    339.79381  0.038949314  0.039748186            4 
  728000    1.1108317   -6.4162869    340.66866  0.038995955  0.039738208            2 
  729000    1.1164786   -6.4170854    340.94932  0.038974545  0.039728476            3 
  730000    1.1237526   -6.4215576    341.19542  0.038949249  0.039718859            2 
  731000    1.1177194   -6.3912096    341.17665  0.038893827    0.0397088            2 
  732000    1.1248105    -6.428831    341.37692  0.038863493  0.039698725            3 
  733000    1.1303739   -6.3923046     342.5672  0.038945794  0.039688622            4 
  734000    1.1397088   -6.4519205    342.24115  0.038855716  0.039678248            2 
  735000    1.1473033   -6.4067484    343.92729  0.038994024  0.039668017            3 
  736000    1.1258962   -6.4191221    342.08231  0.038732146   0.03965777            2 
  737000    1.1323228   -6.4000552    343.82431  0.038876562  0.039647384            2 
  738000    1.1450326   -6.4637215    342.86782  0.038715879  0.039636589            3 
  739000      1.13524   -6.4176173    343.19234  0.038700083  0.039625288            2 
  740000    1.1236137    -6.423771    344.55749  0.038801519  0.039613564            2 
  741000    1.1116781   -6.4640301    343.99271   0.03868564   0.03960205            2 
  742000    1.1392399   -6.4579481    343.28354  0.038553857   0.03959028            2 
  743000    1.1267583   -6.3747593    344.99029  0.038693393  0.039578657            3 
  744000    1.1208803   -6.4371522    344.87263  0.038628207  0.039567229            3 
  745000    1.1275456   -6.3950911    344.87339  0.038576442  0.039555904            3 
  746000    1.1223534   -6.3985781    346.85238  0.038745798  0.039544642            6 
  747000    1.1099992   -6.3901775    345.67794  0.038562912   0.03953318            5 
  748000    1.1195698   -6.4113288    345.98688  0.038545775  0.039521221            2 
  749000    1.1368737   -6.3965972    347.30654  0.038641138  0.039509273            5 
  750000    1.1256388   -6.4288272    346.61906  0.038513229  0.039497304            3 
  751000    1.1166258   -6.3740689    347.38972  0.038547461  0.039485831            6 
  752000    1.1365363   -6.4211047     347.9483    0.0385581  0.039474156            1 
  753000    1.1427485   -6.4355568    348.36215  0.038552695  0.039462481            3 
  754000    1.1235354     -6.42448    349.21402  0.038595714   0.03945117            2 
  755000    1.1133643   -6.4604567    348.30435  0.038444188  0.039439462            5 
  756000    1.1349281    -6.442966    349.04635  0.038475127  0.039427716            2 
  757000    1.1065264   -6.4054967      350.341   0.03856682  0.039416205            4 
  758000    1.1606547   -6.4225028    350.44214   0.03852706  0.039405038            6 
  759000    1.1283616   -6.4419088    349.20711  0.038340702  0.039393213            3 
  760000    1.1317913   -6.4210773    351.18549  0.038507181  0.039381337            2 
  761000    1.1272194   -6.4479746    350.65101  0.038398052  0.039369656            5 
  762000    1.1310014   -6.3943875    352.78906  0.038581481  0.039358144            4 
  763000     1.122221   -6.4326315    352.40593   0.03848907  0.039346761            3 
  764000    1.1336105   -6.4118364    353.06112  0.038510157  0.039335566            3 
  765000    1.1136233   -6.4257433     353.6875   0.03852805  0.039324508            2 
  766000     1.119101   -6.4690781    352.41812  0.038339656  0.039313436            3 
  767000    1.1502582    -6.437439    353.34025  0.038389857    0.0393021            4 
  768000     1.126815   -6.4635125    353.06764   0.03831029  0.039291092            3 
  769000    1.1277492   -6.4518999    355.81222  0.038557891  0.039280381            3 
  770000    1.1358982   -6.4520425    354.51209   0.03836711  0.039268863            3 
  771000    1.1342016   -6.4563172    354.90356  0.038359658   0.03925736            3 
  772000    1.1237676   -6.4364464    355.84417  0.038411504  0.039246645            3 
  773000    1.1490301   -6.4240828    355.91316  0.038369249  0.039235855            2 
  774000    1.1426151   -6.4019069    358.02017   0.03854653  0.039225053            2 
  775000    1.1238927   -6.4295888    356.91476  0.038377931  0.039214095            2 
  776000    1.1244386   -6.4370082    357.20109  0.038359224  0.039203305            4 
  777000    1.1320744    -6.422049    358.98175  0.038500832  0.039192406            2 
  778000    1.1091619   -6.4341738    358.78038  0.038429775  0.039181502            2 
  779000    1.1486457   -6.4845586    356.81263  0.038169943  0.039170404            4 
  780000    1.1203368   -6.4326307     358.9527  0.038349648  0.039159137            3 
  781000    1.1126303   -6.4397487    359.66787  0.038376853  0.039148662            3 
  782000    1.1163717   -6.4087023    359.91053  0.038353637  0.039138033            1 
  783000    1.1396015   -6.4323041    360.21882  0.038337464  0.039127587            3 
  784000    1.1181528    -6.487191    360.96318  0.038367685  0.039117001            4 
  785000     1.141255    -6.472604    360.71421  0.038292379  0.039106211            3 
  786000    1.1456465   -6.4165237     361.6779  0.038345833  0.039095414            4 
  787000    1.1307027   -6.4526493    362.26466   0.03835924  0.039085111            4 
  788000    1.1210725   -6.4768321    362.67469  0.038353923  0.039074863            3 
  789000    1.1115781   -6.4365067    362.00451  0.038234527  0.039064397            1 
  790000    1.1379707   -6.4132447    362.70238  0.038259745  0.039053679            3 
  791000    1.1509302   -6.4569306     363.1184  0.038255205  0.039043418            5 
  792000    1.1216297   -6.4529671     364.0516  0.038305093  0.039033359            3 
  793000    1.1220098   -6.4357378    363.26053  0.038173658  0.039022997            4 
  794000     1.152973    -6.431272    364.09341  0.038212994  0.039012409            3 
  795000    1.1431048   -6.4482784    366.21862  0.038387696  0.039002142            2 
  796000    1.1048613   -6.4195143    366.42803  0.038361394   0.03899226            2 
  797000    1.1224064   -6.4327832    365.56509  0.038223033  0.038982111            4 
  798000    1.1454075   -6.4394897     366.4341  0.038265883  0.038972121            2 
  799000    1.1345487   -6.4365645     367.0301  0.038280153   0.03896207            7 
  800000    1.1269284   -6.4266771    368.88499   0.03842552   0.03895258            3 
  801000    1.1189082   -6.4875183     367.3561  0.038218487  0.038942881            2 
  802000    1.1409779   -6.4454026    368.56976  0.038296941  0.038933054            5 
  803000    1.1144529   -6.4835199    369.05523   0.03829963  0.038923691            3 
  804000    1.1234825   -6.4151659    369.97097  0.038346908  0.038914626            3 
  805000    1.1196278   -6.4910202    370.28594  0.038331878  0.038905091            8 
  806000    1.1046939   -6.4429269    370.20874  0.038276338  0.038895746            3 
  807000    1.1398444   -6.4167779    370.04704  0.038212209  0.038886387            2 
  808000    1.1228745   -6.4487535    371.43116  0.038307669   0.03887728            4 
  809000    1.1216765   -6.4005138    373.37167  0.038460205  0.038868331            4 
  810000    1.1275732   -6.4133558    372.56713  0.038329951  0.038859272            3 
  811000    1.1145366   -6.4796702    372.32206  0.038257508  0.038850076            5 
  812000    1.1288254   -6.4600121    373.00967  0.038280959  0.038840497            2 
  813000    1.1037433   -6.4331678     372.8559  0.038218111  0.038830871            3 
  814000    1.1170374   -6.4288914    373.86472  0.038274439  0.038821504            2 
  815000    1.1273407   -6.4554956    373.94428  0.038235611  0.038812072            5 
  816000    1.1289165   -6.4770862    375.59327  0.038357156  0.038802657            4 
  817000    1.1015834   -6.4445555    375.80006  0.038331299  0.038793876            3 
  818000     1.135579   -6.4621099    375.27205  0.038230648  0.038785351            4 
  819000     1.116658   -6.4532099    376.34753    0.0382934   0.03877632            3 
  820000    1.1189602   -6.4933158    376.05299  0.038216767  0.038767468            2 
  821000    1.1297326   -6.4909437    375.83646   0.03814824  0.038758449            3 
  822000    1.0996868   -6.4363681    376.29165  0.038147977  0.038749122            3 
  823000    1.0794578   -6.4554442     376.2744  0.038099878  0.038739584            2 
  824000    1.0995053    -6.455943    377.29814  0.038157174  0.038730521            3 
  825000    1.1256221   -6.4654138    378.14064  0.038196024   0.03872146            3 
  826000    1.1155694    -6.438447    379.09966  0.038246535  0.038712617            3 
  827000    1.1246693   -6.4378852    379.48226  0.038238841  0.038704112            5 
  828000    1.1055299   -6.4541206    378.48479  0.038092269  0.038694924            3 
  829000    1.1287677    -6.459038    378.82082  0.038080099  0.038685727            6 
  830000    1.1033983   -6.4927599    379.14369  0.038066635  0.038676332            2 
  831000    1.1314397   -6.4252372    381.07108  0.038214107  0.038667289            3 
  832000    1.1072213   -6.4545847    380.62213   0.03812321  0.038658338            4 
  833000    1.0950458   -6.4730318    379.61311  0.037976502     0.038649            4 
  834000    1.1159864   -6.4640458    381.34622  0.038104138   0.03863973            2 
  835000    1.1383314   -6.4665013    380.55795  0.037979836   0.03863062            8 
  836000    1.0978946   -6.4614577    382.21837  0.038099918   0.03862167            2 
  837000     1.127276   -6.5062695    382.64611  0.038096984  0.038612767            3 
  838000    1.1056319   -6.4702308    382.34346  0.038021426  0.038603432            1 
  839000    1.1283941   -6.4394117    383.39052  0.038080107  0.038594278            4 
  840000    1.1200278   -6.4518935    384.57948  0.038152726   0.03858545            2 
  841000    1.1080934   -6.4706755    383.45607  0.037996044  0.038576554            3 
  842000    1.1228088   -6.4193618    384.03559  0.038008273  0.038567898            3 
  843000      1.10931   -6.4716087    385.51375  0.038109307  0.038559041            3 
  844000    1.1042907   -6.4690891    384.63571  0.037977459  0.038550113            4 
  845000    1.1112471   -6.4981584    384.88401  0.037957003  0.038541244            3 
  846000    1.1214883   -6.4940015    385.12591  0.037935965  0.038532363            4 
  847000    1.1295836   -6.4586421    386.15779  0.037992699  0.038523228            2 
  848000    1.1176629   -6.4802319    387.16868  0.038047236  0.038514189            3 
  849000    1.1089377   -6.4329977    388.14788  0.038098536   0.03850552            6 
  850000     1.128322   -6.4769446    386.10287  0.037853223  0.038496263            2 
  851000    1.1333848   -6.4612597    386.45196  0.037842926   0.03848708            3 
  852000    1.1287935   -6.4765553    387.53118  0.037904067  0.038477739            3 
  853000     1.113583    -6.499192    387.30028  0.037837073  0.038468201            4 
  854000    1.1213014   -6.4450616    388.14249   0.03787495  0.038458403            3 
  855000    1.1120969   -6.4783805    388.76709  0.037891529   0.03844899            4 
  856000    1.1013557    -6.448023    389.11122  0.037880765   0.03843962            6 
  857000    1.1185913   -6.4197394    389.75405  0.037899071  0.038430442            3 
  858000    1.1044046   -6.4639114    389.15678   0.03779689  0.038420965            5 
  859000    1.1211365   -6.4409359    390.83885   0.03791607  0.038411706            2 
  860000    1.1151256   -6.4422245    391.66984  0.037952504  0.038402637            4 
  861000    1.1383008   -6.4283473    392.07735  0.037947866  0.038393728            3 
  862000    1.1108281   -6.4554503    391.04162  0.037803714  0.038384714            2 
  863000    1.1168035   -6.4572809    391.95301  0.037847915  0.038375724            4 
  864000    1.0987413   -6.4593302    392.05438  0.037813887  0.038366488            3 
  865000    1.1157594   -6.4720335    392.72982  0.037835243  0.038357206            5 
  866000    1.0929281   -6.4669656    393.81736  0.037896205  0.038348035            4 
  867000    1.1067995   -6.4452909    393.49543  0.037821552  0.038339418            2 
  868000    1.0893513   -6.4785728    394.07736  0.037833848  0.038330478            8 
  869000    1.1185069   -6.4745577    394.74495   0.03785433  0.038321327            2 
  870000    1.0769779   -6.4941901    394.69857  0.037806377  0.038312302            7 
  871000    1.1134262   -6.4425862    395.82325  0.037870575  0.038303014            2 
  872000    1.1108949   -6.4811855    394.55276   0.03770573  0.038293953            2 
  873000    1.1154398   -6.4743369    395.94909  0.037795827  0.038284727            2 
  874000    1.1110996   -6.4755837    395.88568  0.037746537  0.038275475            2 
  875000    1.1085133   -6.4516986    397.10107  0.037819149  0.038266072            4 
  876000     1.130977   -6.4742578    395.83851  0.037655871  0.038256687            2 
  877000      1.08609   -6.4819899    396.99513  0.037722837  0.038247135            3 
  878000    1.1233384   -6.4581527    396.94879  0.037675473  0.038237445            3 
  879000    1.1065348   -6.4595834    395.73819  0.037517841  0.038227413            2 
  880000    1.1134591   -6.4765398    396.34812  0.037532966  0.038217817            2 
  881000    1.1048981   -6.4831699    397.72083  0.037620207   0.03820827            4 
  882000    1.1299319   -6.4695562    395.91383  0.037406824  0.038198878            4 
  883000    1.1191914   -6.4319638     399.7694  0.037728332  0.038189556            4 
  884000     1.111195   -6.4335652    399.52114  0.037662249  0.038180197            3 
  885000    1.1080611   -6.4804579    399.74367  0.037640647  0.038171082            3 
  886000    1.0803133   -6.4802199    399.41757  0.037567491  0.038161643            4 
  887000    1.1020972   -6.4567041    400.60269   0.03763648  0.038151972            5 
  888000    1.0806702   -6.4665879    400.26108  0.037562038  0.038142219            4 
  889000    1.1109324   -6.4859477    400.56004   0.03754781  0.038132496            3 
  890000    1.1178138   -6.4626881    401.93553  0.037634413  0.038123093            3 
  891000    1.1036253    -6.429618     401.0456  0.037508941   0.03811385            8 
  892000    1.1444613   -6.4684441    402.45541  0.037598599  0.038104263            3 
  893000    1.1186174   -6.5016312    401.90245  0.037504894  0.038094841            3 
  894000    1.1203487    -6.476545    401.51608  0.037426927  0.038085294            5 
  895000    1.1101998   -6.4836697    402.68443  0.037493895  0.038075658            3 
  896000    1.1013408   -6.5052855    403.65188  0.037542027  0.038066388            3 
  897000    1.0945051   -6.4925582    404.03841  0.037536084  0.038057137            2 
  898000    1.1062495   -6.4534733    404.33202  0.037521532  0.038047916            8 
  899000    1.0973998    -6.473289    406.42097   0.03767343  0.038039016            3 
  900000    1.1293443   -6.5000693     405.7433  0.037568824  0.038030042            2 
  901000    1.1019314   -6.5115913    406.36396  0.037584532   0.03802122            2 
  902000     1.099473   -6.4683364    406.80328  0.037583451  0.038012598            6 
  903000    1.1015925    -6.458445    408.13919  0.037665115  0.038003934            3 
  904000    1.1125382   -6.4678174    407.80056  0.037592234  0.037995738            2 
  905000    1.0903016   -6.4989999    406.84365  0.037462582  0.037987178            3 
  906000    1.1043429     -6.50125    408.48506  0.037572209  0.037978577            6 
  907000    1.1119202   -6.4840213    408.68422  0.037549083  0.037969844            1 
  908000    1.1158507   -6.4762277    408.64884  0.037504482  0.037960883            1 
  909000    1.0947951   -6.4755416    410.06481  0.037593034  0.037952003            2 
  910000    1.1258842   -6.4656837    409.38151  0.037489149  0.037943392            3 
  911000     1.101031   -6.4903126    408.72009  0.037387495  0.037934417            4 
  912000    1.1231696   -6.5245143    409.32443   0.03740172  0.037925659            4 
  913000    1.1430169   -6.5016096    411.21398  0.037533222  0.037916915            4 
  914000    1.1113318    -6.465579    411.98757  0.037562688  0.037908467            4 
  915000    1.1035454   -6.4780144    410.77523  0.037411223  0.037899626            6 
  916000    1.0874726    -6.465011    411.82647  0.037466018   0.03789083            3 
  917000    1.1062724    -6.498363    411.55715  0.037400686  0.037881993            7 
  918000     1.106266   -6.4384612    413.34828  0.037522538  0.037873216            2 
  919000    1.1143767   -6.4455323    412.78066  0.037430238  0.037864608            3 
  920000    1.1263726   -6.4464534    413.87524  0.037488699  0.037856014            4 
  921000    1.1063697   -6.4535592    415.19909  0.037567779  0.037847288            5 
  922000    1.1050295   -6.4790278     412.8665  0.037316206  0.037838492            3 
  923000    1.1162116   -6.4368652    415.48025  0.037511759  0.037829821            2 
  924000     1.085156   -6.5306604    412.94127  0.037242178  0.037821158            5 
  925000    1.0636637   -6.4654127    414.28466  0.037322942  0.037812132            3 
  926000     1.102829   -6.5209104     414.3248  0.037286249  0.037803027            2 
  927000    1.1067201    -6.454417     415.3293  0.037336327  0.037793897            1 
  928000    1.0944519   -6.5064417    415.77847  0.037336429    0.0377849            2 
  929000    1.0885573   -6.4870218    417.22855  0.037426315  0.037776205            4 
  930000     1.104274   -6.4700711     417.4328  0.037404372  0.037767339            4 
  931000    1.1256721   -6.5201576    417.89365  0.037405447  0.037758841            3 
  932000    1.1065096   -6.4901736    418.91167  0.037456337   0.03775037            4 
  933000    1.1068068   -6.4783093     419.5307   0.03747148  0.037742209            3 
  934000    1.0979072   -6.4782257    419.35201  0.037415419  0.037734406            3 
  935000    1.1172074   -6.4751848    421.78112    0.0375919  0.037726513            2 
  936000     1.095829   -6.4987622    420.35494  0.037424763  0.037718652            2 
  937000    1.0872852   -6.4784027    420.28625  0.037378713  0.037710586            3 
  938000    1.1008459   -6.5059775    421.17422  0.037417752  0.037702537            5 
  939000    1.0968463   -6.5181973    421.08725  0.037370186  0.037694713            4 
  940000    1.1151983   -6.5138669    421.49682   0.03736674  0.037686933            2 
  941000    1.0699961   -6.4921627    421.44206   0.03732218  0.037679233            4 
  942000    1.1227759   -6.5045881    423.30084  0.037446995  0.037671748            5 
  943000    1.1217197   -6.4664248    423.43907    0.0374195  0.037664147            1 
  944000    1.0921861   -6.4581199    424.39201  0.037463984  0.037657002            5 
  945000    1.1034233   -6.5003116    425.08013   0.03748502   0.03764962           12 
  946000    1.0966424   -6.4893655    424.95927  0.037434749  0.037642161            2 
  947000     1.122066   -6.5388896    426.05527  0.037491664  0.037634892            2 
  948000    1.0988042   -6.5113125     425.2875  0.037384626  0.037627417            2 
  949000    1.1019823   -6.5062964    425.66094  0.037378024  0.037620392            2 
  950000    1.1212006   -6.5000098    427.92571  0.037537343  0.037613395            3 
  951000    1.1054248   -6.5032468    428.03226  0.037507208  0.037606343            2 
  952000    1.0957858    -6.494277    427.38181  0.037410873    0.0375995            4 
  953000    1.1226597   -6.4918652    429.65655  0.037570528  0.037592727            5 
  954000    1.0956579   -6.5190741    429.08022  0.037480802   0.03758579            2 
  955000    1.1011218   -6.4929118    431.04687  0.037613165  0.037579103            6 
  956000    1.0970012   -6.4891324     430.4679  0.037523353  0.037572668            4 
  957000    1.0713183   -6.5352043    429.62753  0.037410965  0.037566328            3 
  958000    1.0951082   -6.4874271    431.96356  0.037575118  0.037559937            6 
  959000     1.098901   -6.4764954    432.51703  0.037584031  0.037553804            3 
  960000    1.1121594   -6.4701543    431.26362  0.037436078  0.037547389            5 
  961000     1.075422   -6.5058537    430.82992  0.037359514  0.037540973            2 
  962000    1.0868963   -6.4712006    433.60292   0.03756089  0.037534472            5 
  963000     1.101251   -6.5119373    433.31328  0.037496823   0.03752806            5 
  964000    1.1055427   -6.4786037     433.8868  0.037507504  0.037521516            5 
  965000    1.0847073   -6.4931692    433.05873  0.037397127  0.037514581            3 
  966000    1.1132478   -6.5063338    432.01682  0.037268531  0.037507545            3 
  967000    1.0909034   -6.5272338    433.12055  0.037325108  0.037500714            4 
  968000    1.0966021   -6.4972673    432.75668  0.037255224  0.037493619            7 
  969000    1.0947114   -6.5398925    433.24978  0.037259183  0.037486439            4 
  970000    1.0893988   -6.5046242    433.72508  0.037261605  0.037479329            2 
  971000    1.0745335   -6.4741844    434.31629   0.03727397  0.037472185            2 
  972000     1.091441   -6.5032612    435.08214  0.037301281  0.037465266            4 
  973000    1.1099932   -6.4921523    435.47809  0.037296856  0.037458449            4 
  974000    1.1197563   -6.4823759    436.60163  0.037354691  0.037451486            3 
  975000    1.0972248   -6.5201261    436.65131  0.037320625  0.037445014            5 
  976000    1.0798313   -6.5187071     436.2569  0.037248711  0.037438208            7 
  977000    1.0978053   -6.4952474    437.10695   0.03728309  0.037431303            1 
  978000    1.0846649   -6.5379606    438.18696  0.037336994  0.037424713            3 
  979000    1.1047863    -6.520945    438.21188  0.037300977  0.037418317            2 
  980000    1.1116646   -6.5402816    437.91995  0.037238091  0.037411703            3 
  981000    1.0635736    -6.490053    439.69131  0.037350604  0.037405026            2 
  982000    1.0947472   -6.4778898    441.27424  0.037446897  0.037398623            4 
  983000    1.1130522   -6.5137264     440.3481   0.03733029  0.037392175            3 
  984000    1.0821089   -6.4846012    440.78099  0.037329014   0.03738577            2 
  985000    1.0997239   -6.5108402     441.1096  0.037318917  0.037379228            2 
  986000    1.0891019   -6.5285601     441.6881  0.037329961  0.037372929            4 
  987000    1.0812335   -6.4543506    442.88003  0.037392775   0.03736657            2 
  988000    1.0991382   -6.5141733    442.46603   0.03732001  0.037360202            4 
  989000    1.0948732    -6.493882    442.72529   0.03730412  0.037353937            3 
  990000    1.0623141   -6.5429862    441.53199  0.037165992  0.037347485            4 
  991000     1.074094   -6.5259687    443.49427  0.037293497  0.037341275            3 
  992000    1.1117449   -6.5036105    444.08741   0.03730573   0.03733497            4 
  993000    1.1100779   -6.5070354    445.16303  0.037358428  0.037328632            4 
  994000    1.0970789   -6.4736401    446.00336  0.037391294   0.03732226            2 
  995000    1.1316649   -6.5260347    443.81048  0.037170057  0.037315447            4 
  996000    1.0824573   -6.4777316    445.71002  0.037291669  0.037308873            2 
  997000    1.0960742   -6.5037939    445.13904  0.037206539  0.037302295            4 
  998000    1.0959386   -6.5189202    445.90595  0.037233296   0.03729586            3 
  999000    1.1009528   -6.5272962    446.36593  0.037234395  0.037289413            2 
 1000000    1.0932566   -6.4928263    446.99043  0.037249203  0.037282804            5 
 1001000    1.1168163   -6.4740318    447.19061  0.037228655  0.037276293            3 
 1002000    1.0952819   -6.5090335    446.95473  0.037171884  0.037269457            3 
 1003000    1.1044381   -6.4776872    446.69978   0.03711364  0.037262603            5 
 1004000    1.1029446   -6.5090289    447.93178  0.037178933  0.037255729            3 
 1005000    1.0750343   -6.4849061    448.01369   0.03714873  0.037248826            2 
 1006000      1.06985    -6.510022     447.7301  0.037088312  0.037241821            2 
 1007000    1.1106567   -6.5626634    446.60906  0.036958711  0.037234279            2 
 1008000    1.0748634   -6.4687672    448.43037  0.037072617  0.037226883            3 
 1009000    1.0923686   -6.4946032    448.64282  0.037053421  0.037219645            8 
 1010000    1.0956887   -6.5550541    448.99839  0.037046072  0.037212452            3 
 1011000    1.0852293   -6.5236032    449.52093    0.0370525  0.037205259            4 
 1012000    1.0912647   -6.5160352    448.56974  0.036937561  0.037198212            3 
 1013000     1.091805    -6.506969    450.78105  0.037083008  0.037191317            5 
 1014000    1.1064216   -6.4931656    451.10939  0.037073421   0.03718457            5 
 1015000    1.1020761   -6.5171335    450.64911  0.036999106   0.03717765            6 
 1016000    1.0773641   -6.4822762    453.58735  0.037203687  0.037170768            3 
 1017000     1.104917    -6.545505    450.83245  0.036941367  0.037163866            2 
 1018000    1.0820649   -6.4760534    453.17716  0.037097017  0.037157077            1 
 1019000    1.0899713   -6.4804412    453.32442  0.037072655  0.037150272            6 
 1020000    1.0727376   -6.4785735    453.63082  0.037061341  0.037143202            3 
 1021000    1.0797947   -6.5192277    453.92899  0.037049379  0.037136287            7 
 1022000    1.0935225   -6.4824638    453.70752  0.036995068  0.037129218            3 
 1023000    1.0991515   -6.4927481    454.16391  0.036996083  0.037122481            4 
 1024000    1.0805162   -6.5507595    452.58366  0.036831353  0.037115274            4 
 1025000    1.0831311   -6.5111467    452.98259  0.036827852  0.037107938            5 
 1026000    1.0869424    -6.542414    454.90461  0.036948068   0.03710065            4 
 1027000    1.1006607   -6.4723398    456.06788  0.037006482  0.037093592            3 
 1028000    1.1181403   -6.5263992    455.19137   0.03689943  0.037086429            4 
 1029000     1.081959   -6.5539789    455.33173  0.036874938  0.037079333            3 
 1030000    1.0848651   -6.4952341    455.81541  0.036878269   0.03707203            3 
 1031000    1.0684332   -6.5039609     456.9148  0.036931361  0.037064956            4 
 1032000    1.0847137   -6.5565018    456.92203  0.036896159  0.037057982            3 
 1033000    1.0754966   -6.4632161    459.08746  0.037035129  0.037051007            4 
 1034000    1.0850666   -6.5001605    458.91258  0.036985217  0.037044044            3 
 1035000    1.0798823   -6.5007586    458.76955  0.036937967  0.037037152            3 
 1036000    1.0974273   -6.5369162    458.99902  0.036920771  0.037030122            2 
 1037000    1.1138587   -6.5483739    457.76132  0.036785706  0.037023081            5 
 1038000    1.1031156   -6.4850371     461.2621  0.037031318  0.037016077            4 
 1039000    1.0770185   -6.5056842    459.60691  0.036862922  0.037008989            3 
 1040000    1.0745759   -6.5168865    460.05682  0.036863527   0.03700183            5 
 1041000    1.0816998   -6.5295958    462.09857   0.03699156  0.036994355            4 
 1042000    1.0783643   -6.4946103    460.56366  0.036833306  0.036987111            2 
 1043000    1.0993896   -6.5205968    459.54626  0.036716703  0.036979721            3 
 1044000    1.0831985   -6.5328065    461.52675  0.036839619  0.036972497            2 
 1045000      1.10596   -6.5047671    462.10519  0.036850494  0.036965156            4 
 1046000    1.0870224   -6.5109527    460.90883  0.036719951   0.03695753            3 
 1047000    1.0873674   -6.5293696     461.3738  0.036721888  0.036949842            5 
 1048000    1.0877116    -6.552819    460.93123  0.036651657  0.036942126            2 
 1049000     1.063106   -6.5129284     461.1301  0.036632515  0.036934349            4 
 1050000    1.0894267   -6.5574475    462.27723  0.036688669  0.036926647            2 
 1051000    1.0981063   -6.5226163    461.97018  0.036629415  0.036918881           10 
 1052000    1.0862802   -6.4764086    463.77211  0.036737334  0.036911295            1 
 1053000     1.088599    -6.506762    462.64062  0.036612902   0.03690361            6 
 1054000    1.0639419   -6.4976981    466.02603  0.036845828   0.03689635            2 
 1055000    1.0866864    -6.524276    466.79087  0.036871317  0.036889584            1 
 1056000    1.0853485   -6.5277772    463.70016    0.0365925  0.036882534            6 
 1057000    1.0937376   -6.5089552    465.35024  0.036687972  0.036875404            1 
 1058000    1.0802671   -6.5033098    466.18105  0.036718735  0.036868192            3 
 1059000    1.0961737     -6.52073    466.99232    0.0367479  0.036861314            3 
 1060000    1.0574965   -6.5087349    469.06155  0.036875908  0.036854392            2 
 1061000    1.0672836   -6.5136484    467.31776  0.036704191   0.03684746            3 
 1062000    1.0813227   -6.5040818      470.383  0.036910154  0.036840863            2 
 1063000    1.0631263   -6.5511064    468.36864  0.036717516  0.036834193            6 
 1064000    1.0705569   -6.5302254    468.91492  0.036725793  0.036827573            1 
 1065000    1.0951754   -6.5107982     469.1184   0.03670723  0.036821316            4 
 1066000    1.0976764   -6.5015048    472.06448  0.036903102  0.036814971            3 
 1067000    1.0785406   -6.4832752    472.31394  0.036887999  0.036809105            2 
 1068000    1.0787161   -6.5564608    471.77129  0.036811118  0.036803195            5 
 1069000    1.0590998   -6.5209637    472.07515   0.03680037  0.036797043            5 
 1070000    1.0571676   -6.5348818    472.07369  0.036765864  0.036791036            4 
 1071000    1.0612738   -6.5466334    472.95516  0.036800121   0.03678489            5 
 1072000    1.0740019   -6.5362461    471.51317  0.036653698  0.036778669            5 
 1073000    1.0717039   -6.5265359    474.45488  0.036848003  0.036772545            4 
 1074000    1.0833971   -6.5190188    474.90825  0.036848871  0.036766338            5 
 1075000    1.0666859   -6.5265432    474.94806  0.036817679  0.036760229            3 
 1076000    1.0877681   -6.5228637    475.49801  0.036826054  0.036754146            3 
 1077000     1.088151   -6.5240451    475.42695  0.036786362  0.036748009            5 
 1078000     1.077278   -6.5373566    475.89173  0.036788167  0.036741778            5 
 1079000    1.1009726   -6.5028158    475.17341  0.036698595  0.036735735            4 
 1080000    1.0812984   -6.5287739    475.02033  0.036652804  0.036729351            5 
 1081000    1.0811507   -6.5365545    476.50105  0.036733044  0.036723002            9 
 1082000    1.0798552   -6.5133462    476.68096  0.036712951  0.036716806            3 
 1083000    1.0765657   -6.5456378    477.04942  0.036707404  0.036710321            9 
 1084000    1.0898501   -6.5373096    477.69809  0.036723408  0.036703875            7 
 1085000    1.0756209   -6.5622493    476.57646  0.036603415  0.036697312            5 
 1086000    1.0636482   -6.5427336     477.5474  0.036644214  0.036690735            2 
 1087000    1.0702902    -6.545295    476.11569  0.036500743  0.036683989            2 
 1088000    1.0938098   -6.5320514    478.88675  0.036679439  0.036677379            2 
 1089000    1.0799595   -6.5437367     478.4982  0.036616024  0.036670617            2 
 1090000    1.0634235   -6.5423117    477.14677  0.036479111  0.036663973            6 
 1091000    1.0770965   -6.5229958    479.12486  0.036596766    0.0366571            4 
 1092000    1.0965101   -6.5126238    479.61881  0.036600947  0.036650453            2 
 1093000    1.0572839   -6.5419211    477.27631  0.036388862  0.036643695            5 
 1094000    1.0864396   -6.5484326    479.77107  0.036545633  0.036636609            4 
 1095000    1.0624174   -6.5468713     479.9352  0.036524749  0.036629634            5 
 1096000    1.0775128   -6.5367699     480.0555   0.03650057  0.036622643            4 
 1097000    1.0916562   -6.5441146    477.79808  0.036295813  0.036615688            2 
 1098000    1.0865827    -6.546027    479.44481  0.036387736  0.036608557            5 
 1099000    1.0744681   -6.5310787     480.1425  0.036407529  0.036601279            2 
 1100000    1.0656983    -6.594414    480.47007  0.036399248  0.036594264            1 
 1101000    1.0435989   -6.5159332     482.1364   0.03649231  0.036587021            2 
 1102000    1.0801967   -6.5578619    481.04269  0.036376489  0.036579797            7 
 1103000    1.0949596   -6.5393066    482.43529  0.036448723   0.03657264            4 
 1104000    1.0729982   -6.5259303    483.21177  0.036474319  0.036565639            5 
 1105000    1.0853916   -6.5118551    482.48378  0.036386409  0.036558719            4 
 1106000    1.0901275   -6.5284389    485.46831  0.036578383  0.036551909            3 
 1107000    1.0864849   -6.5229432    485.62641  0.036557242  0.036545133            5 
 1108000    1.1011056   -6.5175543    484.55521  0.036443683  0.036538206            6 
 1109000    1.0944551   -6.5001973    484.73854  0.036424598  0.036531175            5 
 1110000    1.0713219    -6.568597    485.24452  0.036429769  0.036524253            3 
 1111000     1.092271   -6.5523644    484.98437  0.036377465  0.036517387            6 
 1112000     1.061483   -6.5252112    485.40326  0.036376143  0.036510506            3 
 1113000     1.053441   -6.5427168    486.23857  0.036406002   0.03650364            3 
 1114000    1.0843509   -6.5287663    486.46197  0.036390034  0.036496905            4 
 1115000    1.0897926   -6.5373892    486.73605  0.036377881  0.036490131            3 
 1116000    1.0871505   -6.5094653    488.37627  0.036467762   0.03648336            7 
 1117000    1.0605873   -6.5395245    487.51864  0.036371131  0.036476518            3 
 1118000    1.0829039   -6.5667351    486.58491     0.036269  0.036469515            2 
 1119000    1.0613595    -6.538454    487.09054  0.036274244  0.036462619            2 
 1120000    1.0662688   -6.5171087    487.80192  0.036294786  0.036455758            6 
 1121000    1.1083443   -6.5560195    490.44364  0.036458789   0.03644903            6 
 1122000    1.0443999   -6.5636985    489.06045  0.036323563  0.036442379            4 
 1123000    1.1078217    -6.520053    489.50731  0.036324378  0.036435794            8 
 1124000    1.0528482   -6.5374435    491.07333  0.036408165  0.036429139           15 
 1125000    1.0715598    -6.561816     491.3863  0.036398985  0.036422592            4 
 1126000    1.0730404   -6.5327468    492.07781  0.036417837  0.036415831            3 
 1127000    1.0867533   -6.5188283    492.88508  0.036445215  0.036409196            3 
 1128000    1.0737227   -6.5581175    491.75005  0.036329052  0.036402311            5 
 1129000    1.1006438   -6.5368309      492.119  0.036324107  0.036395504            3 
 1130000    1.0836355   -6.5322286    491.94249  0.036278944   0.03638876            6 
 1131000    1.0816703   -6.5182559    493.24337  0.036342718  0.036381989            5 
 1132000    1.0598923   -6.5740058    491.63731  0.036192381  0.036375193            2 
 1133000    1.0515265   -6.5252889    494.34792  0.036359806  0.036368203            4 
 1134000    1.0558094   -6.5022472    493.22132  0.036244953  0.036361476            3 
 1135000    1.0643176   -6.5553664    494.01256  0.036271113  0.036354782            2 
 1136000    1.0622409   -6.4839141    495.02675  0.036313582  0.036347972            3 
 1137000    1.0659499   -6.5249927    496.14413  0.036363539   0.03634116            5 
 1138000    1.0592521   -6.5296769     495.2226  0.036264104  0.036334423            3 
 1139000    1.0660709   -6.5370984    495.71894  0.036268579  0.036327619            2 
 1140000    1.0647019    -6.564616    495.29104  0.036205485  0.036320691            1 
 1141000    1.0811863   -6.5333957    495.35873  0.036178698  0.036314029            4 
 1142000    1.0549412   -6.5507052     495.6054  0.036165017  0.036307067            2 
 1143000    1.0724778   -6.5562211    497.20562  0.036250045  0.036300271            3 
 1144000    1.0555329   -6.5278913    496.50527  0.036167342  0.036293187            3 
 1145000    1.0690889   -6.5469707    499.10243  0.036324777  0.036286356            4 
 1146000    1.0499255   -6.4864505    498.84788   0.03627457  0.036279436            6 
 1147000    1.0785659   -6.5391798    498.28367  0.036201952  0.036272818            4 
 1148000    1.0912099   -6.5550941    498.12293  0.036158749  0.036266241            2 
 1149000    1.0569421   -6.5495708    500.33943  0.036288035  0.036259589            6 
 1150000    1.0800896   -6.5570245    498.93278  0.036154549   0.03625291            6 
 1151000     1.053375   -6.5558091    499.17441  0.036140632  0.036246052            3 
 1152000    1.0797391   -6.5305704    501.62098   0.03628624   0.03623937            2 
 1153000    1.0675751   -6.5358901    500.97632  0.036208176  0.036232714            7 
 1154000     1.068524   -6.5588017    500.47604  0.036140673  0.036225771            3 
 1155000    1.0540497   -6.5410739    500.68263  0.036124288  0.036218952            3 
 1156000    1.0822596   -6.5901953    499.98157  0.036042501  0.036211983            7 
 1157000    1.0588731   -6.5137737    500.89878  0.036077411   0.03620527            7 
 1158000     1.063559   -6.5490119    502.04524  0.036128759  0.036198793            6 
 1159000      1.05501   -6.5814828     502.7652  0.036149353  0.036192176            2 
 1160000    1.0580938   -6.5357043    501.68082  0.036040289  0.036185475            2 
 1161000    1.0762006   -6.5752218    502.53085  0.036070259   0.03617859            4 
 1162000    1.0680813   -6.5502305    503.29316  0.036093887  0.036171766            2 
 1163000    1.0633025    -6.554228    504.30859  0.036135612     0.036165            5 
 1164000    1.0671826    -6.541371    503.56728  0.036051495  0.036158193            2 
 1165000    1.0800149   -6.5626897    504.52771   0.03608925   0.03615139            8 
 1166000    1.0722147   -6.5927922     504.4901   0.03605561   0.03614456            2 
 1167000    1.0618047   -6.5374843    505.90368  0.036125655  0.036137616            3 
 1168000    1.0581055   -6.5302622    504.77581  0.036014256  0.036130625            2 
 1169000    1.0402892   -6.5761146     503.9362  0.035923595  0.036123509            2 
 1170000    1.0793295   -6.5898158     504.5171  0.035934266  0.036116273            5 
 1171000    1.0331279   -6.5579173    505.57854  0.035979116  0.036109291            6 
 1172000    1.0760964   -6.5580498    506.52549  0.036015749   0.03610219            6 
 1173000    1.0666451   -6.5509662    506.98093    0.0360174   0.03609497            5 
 1174000    1.0771722   -6.5728394    504.55164  0.035814285  0.036087834            2 
 1175000    1.0689814   -6.5597084    506.39056  0.035914224  0.036080641            3 
 1176000    1.0760685   -6.5566449    508.74071   0.03605022  0.036073477            2 
 1177000    1.0651718   -6.5553178    506.93467  0.035891721  0.036066323            4 
 1178000    1.0591481   -6.5419344    507.14695   0.03587627  0.036059084            2 
 1179000    1.0693894    -6.558704    507.98063  0.035904766   0.03605164            3 
 1180000    1.0553876   -6.5415823    508.85699  0.035936228  0.036044341            2 
 1181000     1.054039   -6.5437946    507.87636  0.035836604  0.036037039            4 
 1182000     1.040722   -6.5570303    508.34642  0.035839426  0.036029581            6 
 1183000    1.0724054   -6.5830211    509.30122  0.035876389  0.036022294            2 
 1184000    1.0687904   -6.5629986    507.07928  0.035689702  0.036014863            3 
 1185000    1.0700894   -6.5467645    511.27887  0.035954913  0.036007423            4 
 1186000    1.0708786   -6.5384412    510.89698  0.035897764  0.036000237            3 
 1187000    1.0686503   -6.5734673    511.14399  0.035884863  0.035992942            2 
 1188000    1.0763062   -6.5843589    510.22203  0.035789985  0.035985762            2 
 1189000    1.0307384    -6.560693    511.51757  0.035850684  0.035978757            7 
 1190000    1.0521923   -6.5216325    513.18663  0.035937439  0.035971648            2 
 1191000     1.065888   -6.5487413    512.27161  0.035843242  0.035964371            6 
 1192000    1.0395415   -6.5873657    510.77278  0.035708388  0.035957039            3 
 1193000     1.061519   -6.5816638    511.87967  0.035755774  0.035949383            6 
 1194000    1.0684489   -6.5536763    512.46859  0.035766931  0.035941855            5 
 1195000    1.0422361   -6.5856759    509.96814  0.035562632  0.035934069            4 
 1196000    1.0476885   -6.5441302    513.49638  0.035778734  0.035926503            3 
 1197000    1.0482422   -6.5497085    510.58519  0.035546171   0.03591867            4 
 1198000    1.0447378    -6.554421    512.53607  0.035652203  0.035911005            2 
 1199000    1.0465875   -6.5398842    512.79309  0.035640332  0.035903263            3 
 1200000    1.0297217   -6.5795989    513.31438  0.035646832   0.03589533           11 
 1201000    1.0794352   -6.5555671     513.2197  0.035610581  0.035887686            4 
 1202000    1.0676322   -6.5591947    515.30112  0.035725258  0.035880135            3 
 1203000    1.0522228   -6.5788063    514.18949  0.035618557  0.035872476            2 
 1204000    1.0573897   -6.5638654    514.88303  0.035636976  0.035864612            5 
 1205000     1.054119    -6.571772     514.2482  0.035563499  0.035856865            3 
 1206000    1.0600281   -6.5838976    515.28493  0.035605647   0.03584923            6 
 1207000     1.086679   -6.5810175    516.36011   0.03565038  0.035841576            2 
 1208000    1.0637863   -6.5354555    517.97515  0.035732281  0.035834034            2 
 1209000    1.0579976     -6.53086    516.89506  0.035628278  0.035826442            5 
 1210000    1.0754163   -6.5721176    516.31702  0.035559024  0.035818758            3 
 1211000     1.048902   -6.6348041    515.42514  0.035468287  0.035810865            5 
 1212000    1.0781566   -6.5815276    517.62882   0.03559054  0.035803007            7 
 1213000    1.0661519   -6.5730403     519.4928  0.035689255  0.035795282            5 
 1214000    1.0606367   -6.5269345    519.26279  0.035644069  0.035787819            4 
 1215000     1.050173   -6.5714543    519.17535  0.035608735  0.035780471            4 
 1216000    1.0464381   -6.5795108    520.16793  0.035647473  0.035773036            4 
 1217000    1.0482865    -6.538516    520.10531  0.035613894  0.035765484            2 
 1218000    1.0580967   -6.5752096    518.59695  0.035481455  0.035757946            3 
 1219000    1.0573279   -6.5809992    517.77381  0.035396077  0.035750161            5 
 1220000    1.0764488    -6.559034     518.7777  0.035435636  0.035742405            5 
 1221000    1.0436655   -6.5612842    520.19125  0.035503088  0.035734661            3 
 1222000    1.0476287   -6.5899919    520.45042  0.035491709  0.035726953            5 
 1223000    1.0580004   -6.5693789    519.00025  0.035363876  0.035719193            2 
 1224000    1.0489146   -6.5628233    520.51477  0.035438097  0.035711576           12 
 1225000    1.0579561   -6.5782629    521.97501  0.035508504  0.035703863            4 
 1226000    1.0617636   -6.5392923    522.68764   0.03552798  0.035696284            2 
 1227000     1.073013   -6.5552696      523.544  0.035557185  0.035688599            3 
 1228000     1.047749   -6.5885215    522.06874  0.035428117  0.035680991            3 
 1229000    1.0689397   -6.5239458    523.98556  0.035529263  0.035673351            1 
 1230000    1.0466857   -6.5596135    523.10371  0.035440631  0.035665919            3 
 1231000    1.0694892   -6.5591436    523.45921  0.035435907  0.035658235            7 
 1232000    1.0803566   -6.5535713    523.65321  0.035420266  0.035650633            4 
 1233000    1.0465955   -6.5565405     525.6118  0.035523912  0.035642884            2 
 1234000    1.0481029   -6.5577698    523.96405   0.03538385  0.035635204            5 
 1235000    1.0455134   -6.6030944    525.13943   0.03543451  0.035627594            7 
 1236000    1.0701035   -6.5943231    523.61483  0.035303049  0.035619695            6 
 1237000    1.0599656   -6.5851433    524.69279   0.03534713  0.035611951            2 
 1238000    1.0402163    -6.609628    522.75458  0.035188111  0.035604097            6 
 1239000    1.0330953   -6.6199769     524.1722  0.035255058  0.035596156            5 
 1240000    1.0562497   -6.5743654    526.17064   0.03536093  0.035588338            7 
 1241000    1.0557589    -6.600676    526.15588  0.035331445  0.035580744            3 
 1242000    1.0623878   -6.5564263    527.42755  0.035388322  0.035572887            3 
 1243000    1.0575477   -6.5714792    527.77538  0.035383171  0.035565211            4 
 1244000    1.0430196   -6.5890039    527.46771  0.035334118  0.035557411            6 
 1245000    1.0607492   -6.5790003    527.19816  0.035287695  0.035549618            4 
 1246000     1.059997   -6.5650517    530.81274   0.03550112  0.035541882            3 
 1247000    1.0706881   -6.5785758    527.75354  0.035268213   0.03553421            5 
 1248000    1.0325691   -6.5862582      529.788  0.035375801  0.035526507            3 
 1249000    1.0579203    -6.578457    528.13599  0.035237256  0.035518719            2 
 1250000    1.0403127    -6.599445    528.51691   0.03523446   0.03551078            4 
 1251000     1.047998   -6.5703763     529.8813  0.035297182  0.035502796            4 
 1252000    1.0683391   -6.5690821    528.95111  0.035207076  0.035494667            5 
 1253000    1.0606884   -6.5741591    528.55064  0.035152344  0.035486611            2 
 1254000    1.0546071   -6.5952658    529.17073  0.035165519  0.035478597            3 
 1255000    1.0638044   -6.5860788    530.51483  0.035226749  0.035470698            5 
 1256000    1.0475471   -6.5758306    530.87454  0.035222568  0.035462791            3 
 1257000    1.0278706   -6.5792776    529.13311  0.035079098  0.035454845            4 
 1258000    1.0310266   -6.5754301    530.77863  0.035160216  0.035446741            5 
 1259000    1.0541592   -6.5741937    531.40426    0.0351737  0.035438742            2 
 1260000    1.0315425    -6.535739    532.68786  0.035230679  0.035430879            3 
 1261000    1.0627613   -6.6091092    531.22709  0.035106205  0.035422922            4 
 1262000    1.0411643   -6.5697563    532.27176  0.035147369   0.03541503            6 
 1263000    1.0449053   -6.5571885    532.39913  0.035127945  0.035407203            3 
 1264000    1.0642874   -6.6094825    530.85317  0.034998231  0.035399183            5 
 1265000       1.0392   -6.5837526    531.21078  0.034994123   0.03539089            2 
 1266000    1.0654414   -6.5954467    530.62986  0.034928242  0.035382545            4 
 1267000    1.0382776   -6.6032442    532.42162  0.035018522   0.03537425            2 
 1268000    1.0510496   -6.5608714    533.72643  0.035076658  0.035366266            2 
 1269000    1.0409997   -6.5509476    533.71012  0.035047946  0.035358443            4 
 1270000    1.0443477   -6.6182563    533.71826  0.035020883  0.035350492            4 
 1271000    1.0437204   -6.5881334    535.09171   0.03508338  0.035342234            4 
 1272000    1.0563506   -6.5778336    535.64896  0.035092306  0.035334273            4 
 1273000    1.0552502   -6.5905045    535.64137  0.035064242  0.035326242            8 
 1274000    1.0376713   -6.6011757    535.47708  0.035025973  0.035318366            3 
 1275000    1.0587945   -6.6239676    536.19578  0.035045476  0.035310481            4 
 1276000    1.0470375   -6.5741723     537.0898  0.035076398  0.035302557            6 
 1277000    1.0326443   -6.6305234    535.83307  0.034966919  0.035294541            3 
 1278000     1.065613   -6.6127819    535.70591  0.034931267  0.035286553            5 
 1279000    1.0454298    -6.564102    536.97084  0.034986372  0.035278537            5 
 1280000    1.0542396   -6.5735257    536.97802  0.034959507  0.035270632            4 
 1281000    1.0524746   -6.6125343    536.90835  0.034927684  0.035262765            5 
 1282000    1.0468243   -6.5983255    535.00973  0.034777024   0.03525463            4 
 1283000    1.0407156   -6.5735848    539.77175   0.03505922   0.03524672            5 
 1284000    1.0427696   -6.5831048      539.146  0.034991303  0.035238768            3 
 1285000    1.0430185   -6.5855438    539.79241  0.035005993  0.035230916            3 
 1286000    1.0249085   -6.5538996    539.66335  0.034970409  0.035222969            2 
 1287000    1.0445012   -6.5862056    540.37211  0.034989129  0.035215071            3 
 1288000    1.0506337   -6.5606783      540.769  0.034987643  0.035207375            3 
 1289000    1.0353411   -6.6096742    539.75615  0.034895019   0.03519949            2 
 1290000    1.0477941   -6.5565013    541.97203  0.035011113  0.035191541            3 
 1291000    1.0249085   -6.5734267    540.53378  0.034891155  0.035183587            2 
 1292000    1.0557439   -6.5667993    541.16173  0.034904652  0.035175685            5 
 1293000    1.0474301   -6.5805203    539.10475  0.034745086  0.035167714            6 
 1294000    1.0412888   -6.6150382    541.25455  0.034856681  0.035159672            3 
 1295000    1.0256608   -6.5935879    540.94106  0.034809592  0.035151608            2 
 1296000    1.0498892   -6.5953371    541.99437  0.034850461  0.035143423            5 
 1297000     1.030914   -6.5762387    542.15279  0.034833769  0.035135361            3 
 1298000     1.042685   -6.6177668    540.29633  0.034687746   0.03512714            2 
 1299000    1.0061197   -6.6015876    542.65096  0.034812096  0.035118885            7 
 1300000    1.0311919   -6.6083216    542.41815  0.034770394  0.035110793            5 
 1301000    1.0400399   -6.5827062    543.65864  0.034823125  0.035102704            5 
 1302000    1.0790681   -6.6102161     543.8138  0.034806311  0.035094656            6 
 1303000    1.0491076   -6.5779114    544.16125   0.03480182  0.035086627            3 
 1304000    1.0347746   -6.6238739    544.75034  0.034812778  0.035078592            7 
 1305000    1.0254305   -6.6260533    545.35206  0.034824525  0.035070531            6 
 1306000    1.0493571   -6.5599219    544.94507  0.034771891   0.03506238            2 
 1307000    1.0493229   -6.6253181    545.61522  0.034788015  0.035054415            4 
 1308000    1.0530304     -6.57351    547.14557  0.034858917  0.035046419            4 
 1309000    1.0445552   -6.6061885    545.16543  0.034706228  0.035038431            3 
 1310000    1.0594717   -6.5769711    546.67961  0.034776057  0.035030545            4 
 1311000    1.0308343   -6.5987196    545.70457  0.034687552  0.035022603            1 
 1312000    1.0456022   -6.6225961    548.25656  0.034823206   0.03501476            2 
 1313000    1.0491307   -6.5950981    548.56132  0.034816027  0.035007001            2 
 1314000    1.0486366   -6.5722027    549.30443  0.034836658  0.034999229            3 
 1315000    1.0488413   -6.5725162    549.88556  0.034846993  0.034991626            4 
 1316000    1.0326465   -6.5760339    549.41253   0.03479056  0.034983828            4 
 1317000    1.0259363   -6.6122928    549.65953  0.034779773  0.034976135            2 
 1318000    1.0388045   -6.6050902    549.16494  0.034722113   0.03496815            3 
 1319000    1.0432761   -6.6059219    549.62281  0.034724716   0.03496029            7 
 1320000    1.0799383   -6.6262595    548.90025  0.034652793  0.034952494            2 
 1321000    1.0463125   -6.5800714    549.60663  0.034671122  0.034944527            5 
 1322000    1.0653106   -6.5948996    551.48816    0.0347635  0.034936586            3 
 1323000    1.0274334   -6.6024617    551.31161  0.034726103  0.034928708            3 
 1324000    1.0355251   -6.5840043    549.51164  0.034586584  0.034920899            3 
 1325000    1.0465278   -6.5775556    552.59452  0.034754373   0.03491309            3 
 1326000    1.0366176   -6.6091496    552.01399  0.034691679  0.034905199            2 
 1327000    1.0677305   -6.6022019    550.88947  0.034594918  0.034897435            3 
 1328000    1.0377655   -6.5689403    553.58555  0.034738049  0.034889786            4 
 1329000    1.0367314   -6.6064754    552.49821   0.03464373  0.034882087            2 
 1330000    1.0329355   -6.6139076    552.00828  0.034586985  0.034874268            2 
 1331000    1.0172176   -6.5957472    554.50224  0.034717145  0.034866363            6 
 1332000    1.0412976   -6.5951313    553.71516   0.03464184  0.034858516            3 
 1333000    1.0297346    -6.632688    553.66888  0.034612958  0.034850646            3 
 1334000    1.0346265   -6.6307535    553.26134  0.034561553  0.034842726            2 
 1335000    1.0401777   -6.6169211    554.23962  0.034596731  0.034834737            4 
 1336000    1.0339817   -6.5925162     553.5009  0.034524757  0.034826794            4 
 1337000    1.0088158   -6.6104427    555.71287  0.034636803  0.034818781            3 
 1338000    1.0167455   -6.5945574    554.26517   0.03452075  0.034810758            3 
 1339000    1.0275744    -6.594673    553.59347  0.034453166  0.034802641            3 
 1340000    1.0537715   -6.6273564    553.99591  0.034452482  0.034794524            9 
 1341000    1.0412114   -6.6414915    554.79414  0.034476395  0.034786462            4 
 1342000    1.0682891   -6.5738951    555.19898  0.034475843  0.034778384            2 
 1343000    1.0528881   -6.6208715    557.00943  0.034562511   0.03477042            5 
 1344000    1.0517506   -6.6206466    554.97451  0.034410622  0.034762366            5 
 1345000    1.0321146   -6.5770563    557.28728  0.034528332  0.034754179            3 
 1346000    1.0255131   -6.5730259     557.1659  0.034495164  0.034746012            3 
 1347000    1.0152951   -6.6003997    557.46748  0.034488214  0.034737767            3 
 1348000    1.0546756   -6.6293386    555.35123  0.034331802  0.034729511            2 
 1349000    1.0400839    -6.593253    556.87664  0.034400583  0.034721117            7 
 1350000    1.0082313   -6.5978219    557.17161  0.034393309  0.034712846            4 
 1351000    1.0313684   -6.5761019    556.68686  0.034337951  0.034704689            3 
 1352000    1.0378722   -6.5960505    556.72805  0.034315092  0.034696321            2 
 1353000    1.0354644   -6.5972188    557.57288  0.034341764  0.034687884            2 
 1354000    1.0672524   -6.6192605    557.18686  0.034292643  0.034679266            6 
 1355000    1.0292449   -6.6725125    558.27466  0.034334235  0.034670732            7 
 1356000     1.017794   -6.6007602    559.73913  0.034398914  0.034662289            5 
 1357000    1.0359493   -6.6288806    557.55324  0.034239329  0.034653592           12 
 1358000    1.0343752   -6.5974687    557.98294  0.034240485   0.03464487            6 
 1359000    1.0388069   -6.6200872    557.73916  0.034200341  0.034636089            2 
 1360000    1.0294115   -6.6510565     557.7317  0.034174736  0.034627399            2 
 1361000    1.0402493   -6.6437529    558.81289  0.034215827  0.034618639            5 
 1362000    1.0248667     -6.58995    558.34152  0.034161865  0.034610033            3 
 1363000    1.0254803   -6.6060868    559.23512  0.034191436  0.034601376            5 
 1364000    1.0132824   -6.5831619     560.2469  0.034228183  0.034592779            3 
 1365000    1.0324731   -6.6527963    559.72305  0.034171127  0.034584032            6 
 1366000    1.0407644   -6.6154124    560.48493   0.03419259  0.034575208            6 
 1367000    1.0282115   -6.6260462    560.42488  0.034163916  0.034566462            3 
 1368000    1.0416987    -6.599617    561.35119   0.03419537  0.034557846            7 
 1369000    1.0361181   -6.6215864    560.06382  0.034092027  0.034549077            4 
 1370000    1.0255669   -6.5996444    560.98092  0.034122927  0.034540266            3 
 1371000    1.0289224   -6.5892826     563.0469  0.034223614  0.034531514            5 
 1372000    1.0184825   -6.6038819    561.34408  0.034095243  0.034522832            2 
 1373000    1.0272856   -6.5997711    562.94666  0.034167678  0.034513994            5 
 1374000    1.0437594   -6.6068698    561.85894   0.03407684  0.034505124            6 
 1375000    1.0497422   -6.5967659    563.78742  0.034168934  0.034496341            5 
 1376000    1.0133973   -6.6130215    563.31793  0.034115669  0.034487429            4 
 1377000    1.0498039   -6.6274336    562.84752  0.034062426  0.034478549            3 
 1378000    1.0256096   -6.6187464    562.14374  0.033995146  0.034469678            4 
 1379000     1.025007   -6.6301431    561.59451  0.033937304  0.034460622            3 
 1380000    1.0317594    -6.598893    562.78526  0.033984617  0.034451685            9 
 1381000    1.0355551   -6.5927216     563.1455  0.033981746  0.034442626            9 
 1382000    1.0228415   -6.6007356    564.97049  0.034067203  0.034433667            2 
 1383000    1.0163434   -6.6255695    565.09055  0.034049804  0.034424777            3 
 1384000    1.0219696   -6.6242917    564.63952  0.033998045  0.034415933            3 
 1385000    1.0285168   -6.6201086     562.3442  0.033835391  0.034407125            7 
 1386000    1.0290079    -6.640151    564.20801  0.033923041  0.034398278            3 
 1387000    1.0514269   -6.5930141    565.60678  0.033982623  0.034389346            4 
 1388000    1.0510781   -6.5806931    567.48941   0.03407117  0.034380561            5 
 1389000     1.038492   -6.6125071    566.68679  0.033998488  0.034371752            4 
 1390000    1.0201461   -6.5994356    566.25195  0.033947958  0.034362865            2 
 1391000    1.0403211   -6.6294168    566.27338  0.033924837  0.034354022            5 
 1392000    1.0285429   -6.6413535    566.66644  0.033923996   0.03434503            3 
 1393000    1.0549588   -6.6067585     567.2455  0.033934285    0.0343361            3 
 1394000    1.0105912   -6.6561491    565.89506  0.033829212  0.034327226            2 
 1395000    1.0169732   -6.6376631    565.89977  0.033805243  0.034318188            4 
 1396000    1.0294354    -6.619284    567.91172  0.033901129  0.034309282            4 
 1397000    1.0475888    -6.636763    568.50588  0.033912305  0.034300542           11 
 1398000    1.0220572   -6.6395447    566.57247  0.033772799  0.034291656            6 
 1399000    1.0124047   -6.6169695    567.57707  0.033808498  0.034282753            2 
 1400000    1.0337336   -6.6333375    568.75791  0.033854638   0.03427371            5 
 1401000    1.0424904   -6.6351632    569.62883  0.033882276  0.034264882            2 
 1402000    1.0131002    -6.584675    569.69885  0.033862271  0.034256059            3 
 1403000    1.0404945   -6.6153403    571.06615  0.033919349  0.034247228            5 
 1404000    1.0313586   -6.6461452    568.03838  0.033715478  0.034238239            3 
 1405000    1.0253386   -6.6345904    569.61906  0.033785235  0.034229271            6 
 1406000      1.02534   -6.6626818    569.64278  0.033762611  0.034220287            3 
 1407000    1.0407151   -6.6259262    570.95925  0.033816586  0.034211415            2 
 1408000    1.0329874   -6.6295961    571.24705  0.033809603  0.034202585            3 
 1409000    1.0351873   -6.6395113    571.35534  0.033792012  0.034193669            3 
 1410000    1.0195143   -6.6307211    571.37901  0.033769445  0.034184809            3 
 1411000    1.0338576   -6.6605966    570.85677  0.033714668  0.034175909            4 
 1412000    1.0273684   -6.6350406    570.36698  0.033661885    0.0341669            4 
 1413000   0.99704809   -6.6340158    571.99745  0.033734221  0.034157964            3 
 1414000    1.0179462   -6.6643728    572.42127  0.033735341  0.034148932            8 
 1415000    1.0400626    -6.631349    571.18301  0.033638575  0.034139824            4 
 1416000    1.0320799   -6.6511663    569.90777   0.03353977   0.03413058            4 
 1417000    1.0230843   -6.6628241    570.99187  0.033579856  0.034121462            4 
 1418000    1.0157451   -6.6061293    574.67442  0.033772591  0.034112337            3 
 1419000    1.0010241   -6.6468562    571.99839  0.033591637  0.034103234            4 
 1420000     1.038455   -6.6164881    573.05867  0.033630203  0.034094182            3 
 1421000    1.0282642   -6.6163571    574.23637  0.033675602   0.03408527            4 
 1422000     1.045103    -6.619705     572.6561  0.033559312  0.034076142            3 
 1423000    1.0305552    -6.630161    573.42797  0.033580931  0.034066985           13 
 1424000    1.0487605    -6.642677    571.80917  0.033462616  0.034057653            2 
 1425000    1.0293499   -6.6268849    573.74729  0.033552473   0.03404832            2 
 1426000   0.99800815   -6.6120569    574.50621  0.033573294  0.034039013            6 
 1427000    1.0399498   -6.6270055    573.96761  0.033518314  0.034029714            5 
 1428000     1.031371   -6.6564365    573.89369  0.033490528  0.034020457            2 
 1429000    1.0186881   -6.6221005    574.39844  0.033496527  0.034011214            4 
 1430000   0.99902955   -6.6380667    574.70321  0.033490863  0.034002178            6 
 1431000    1.0312203   -6.6417018    573.47061  0.033395679  0.033993015            8 
 1432000    1.0573353   -6.6108011    575.96207  0.033517346  0.033983793            4 
 1433000    1.0018072   -6.6564808    574.82874   0.03342805  0.033974479            5 
 1434000    1.0155483   -6.6314384    574.39004  0.033379244  0.033965197            2 
 1435000     1.013473   -6.6411016    577.21324  0.033519933  0.033956027            4 
 1436000    1.0505525   -6.6369422    576.34853   0.03344641  0.033946925            6 
 1437000    1.0085394   -6.6593048    575.49909  0.033373874  0.033937739            6 
 1438000    1.0198626   -6.6308537    577.71584  0.033479128  0.033928569            4 
 1439000    1.0047384   -6.6469408     575.3367  0.033318085  0.033919337            3 
 1440000    1.0075018   -6.6549671    576.88342  0.033384457  0.033910044            6 
 1441000    1.0377524    -6.617581    578.97021  0.033481969  0.033900863            4 
 1442000    1.0061815    -6.666624     576.4432  0.033312714  0.033891608            4 
 1443000    1.0239423   -6.6296217    578.66045  0.033417674  0.033882452            5 
 1444000     1.018032   -6.6329499    577.48781  0.033326859  0.033873287            3 
 1445000    1.0193231   -6.6818304    577.32095  0.033294173  0.033864114            6 
 1446000    1.0189585   -6.6666932    577.38519   0.03327485  0.033854964            7 
 1447000    1.0247759   -6.6438842    578.38519  0.033309444  0.033845759            3 
 1448000     1.034948   -6.6522256    579.23566  0.033335386  0.033836606            3 
 1449000    1.0069845   -6.6487609    580.29569  0.033373343  0.033827396            4 
 1450000    1.0153581   -6.6705955    580.66031  0.033371282  0.033818061            4 
 1451000    1.0192259   -6.6218816    580.02179  0.033311612  0.033808783            4 
 1452000    1.0202427   -6.6613471    579.76891  0.033274157  0.033799577            7 
 1453000    1.0168053   -6.6518866    582.53363  0.033409821  0.033790442            6 
 1454000    1.0189941   -6.6836502    581.76122  0.033342573  0.033781324            4 
 1455000    1.0229871   -6.6397073     581.0544  0.033279175   0.03377239            4 
 1456000    1.0244514   -6.5997805    583.42299  0.033391884  0.033763563            6 
 1457000    1.0000056   -6.6265347    583.55713  0.033376637  0.033754667            4 
 1458000    1.0153877   -6.6149972    584.52507  0.033409069  0.033745709            4 
 1459000     1.005047   -6.6359738    584.67761  0.033394883  0.033736742            4 
 1460000    1.0462333   -6.6054356    582.38152  0.033240954  0.033727963            2 
 1461000   0.99701998   -6.6533568    584.49822  0.033338936  0.033718981            2 
 1462000    1.0027266   -6.6296499    584.00541  0.033288042   0.03371009            9 
 1463000    1.0391215   -6.6542755    585.75084  0.033364709  0.033701218           15 
 1464000    1.0173307   -6.6858481    584.29319  0.033258947  0.033692314            3 
 1465000    1.0242495   -6.6399721    585.82202   0.03332321  0.033683411            3 
 1466000    1.0180249   -6.6569104    587.08013  0.033371994  0.033674686            5 
 1467000    1.0188612   -6.6425939    586.91432  0.033339827  0.033666101            2 
 1468000    1.0328631   -6.6585791    585.56276  0.033240393  0.033657449            4 
 1469000    1.0140068   -6.6683626    584.83669  0.033176577  0.033648535            4 
 1470000    1.0258173   -6.6715643    587.07384   0.03328083  0.033639742            3 
 1471000    1.0054761   -6.6301265    589.04163  0.033369682  0.033630985            5 
 1472000    1.0263322    -6.654265    587.44236  0.033256474  0.033622186            4 
 1473000    1.0157647   -6.6580853    587.21216  0.033220873  0.033613376            6 
 1474000    1.0001647    -6.636096    588.03861  0.033245059  0.033604668            2 
 1475000    1.0115434   -6.6409587    588.73594  0.033261918     0.033596            3 
 1476000    1.0002043   -6.6236746    589.88141  0.033304055  0.033587471            2 
 1477000    1.0149154   -6.6371927    589.47265  0.033258444  0.033578946            3 
 1478000    1.0073025    -6.647281    591.49229  0.033349813  0.033570564            4 
 1479000     1.035377   -6.6084314    591.88458  0.033349368  0.033562157            3 
 1480000    1.0066448    -6.664725    591.27758  0.033292656  0.033553748            2 
 1481000    1.0383257   -6.6716244    590.04689  0.033200928  0.033545244            5 
 1482000    1.0029895   -6.6438155    591.52033  0.033261377  0.033536824            2 
 1483000    1.0099009   -6.6320081    590.06852  0.033157368  0.033528295            5 
 1484000    1.0185743   -6.6719145    591.85537  0.033235364  0.033519948            3 
 1485000    1.0305522   -6.6384735    592.12631  0.033228188  0.033511537            4 
 1486000   0.98545007   -6.6719074    590.86742   0.03313523  0.033503184            5 
 1487000    1.0270373   -6.6428093    593.30264  0.033249419  0.033494864            4 
 1488000    1.0009919   -6.6337028      592.793  0.033198532  0.033486646            4 
 1489000    1.0249579   -6.6658373    594.23947   0.03325719  0.033478394            5 
 1490000    1.0111599   -6.6516858    595.37221  0.033298222  0.033470252            4 
 1491000    1.0142405   -6.6617976    595.22406  0.033267609  0.033461986            5 
 1492000    1.0210077   -6.6793655    596.92806  0.033340486  0.033453747            2 
 1493000    1.0194785   -6.6458776    595.90179  0.033260873  0.033445591            4 
 1494000    1.0168187   -6.6379393    596.15462  0.033252712  0.033437489            4 
 1495000   0.99969463   -6.6988512    596.36286  0.033242077  0.033429431            4 
 1496000    1.0304019   -6.7089453    596.94413  0.033252236  0.033421337            2 
 1497000     1.039694    -6.676101    597.55164  0.033263841  0.033413366            3 
 1498000    1.0176615   -6.6471322    596.25545  0.033169529  0.033405377            8 
 1499000    1.0011068   -6.6328935    598.05846  0.033247635  0.033397416            4 
 1500000    1.0118893    -6.642819    597.96223  0.033220124  0.033389377            5 
 1501000    1.0199405   -6.6550289    599.37762  0.033276572  0.033381603            3 
 1502000    1.0096685    -6.677143    599.07799  0.033237793  0.033373698            4 
 1503000    1.0003077   -6.6505333    598.85193  0.033203145  0.033365874            4 
 1504000    1.0072617   -6.6734287    599.46404  0.033214984  0.033358169            4 
 1505000   0.98911784   -6.6437178     600.2405  0.033235908  0.033350497            4 
 1506000   0.99667154   -6.6451513    601.44929  0.033280726  0.033342843            5 
 1507000   0.99649594   -6.6614936     600.0105  0.033179081  0.033335147            5 
 1508000    1.0060043   -6.6779637    601.31067  0.033228927  0.033327349            3 
 1509000    1.0151996   -6.6719342    601.01834  0.033190763  0.033319713            5 
 1510000    1.0026889   -6.6390215    601.02624  0.033169218  0.033312167            5 
 1511000    1.0209111   -6.6453092    601.97678   0.03319969  0.033304549            4 
 1512000    1.0045632   -6.6843224    604.51889   0.03331784  0.033297129            3 
 1513000    1.0097479   -6.6570275    603.88697  0.033261014  0.033289628            5 
 1514000    1.0146958   -6.6538079    603.48991   0.03321719  0.033282299            4 
 1515000   0.99827827   -6.6500548    604.58581  0.033255545  0.033274969            3 
 1516000    1.0141779   -6.6635442    604.61566  0.033235249  0.033267612            4 
 1517000     1.000594    -6.670546    604.57878  0.033211315  0.033260251            7 
 1518000    1.0268819   -6.6791797    605.23963  0.033225715  0.033253016            3 
 1519000    1.0134788   -6.6490808    606.48085  0.033271936  0.033245673            7 
 1520000    1.0108926   -6.6715953    605.34902  0.033187994  0.033238266            7 
 1521000     1.013307   -6.6580728    606.66588  0.033238324  0.033230807            2 
 1522000   0.99787606   -6.6703625    605.30548     0.033142  0.033223395            3 
 1523000    1.0225408   -6.6716314    605.44603  0.033127929   0.03321595            4 
 1524000    1.0037451   -6.6607673     605.9213   0.03313218   0.03320848            7 
 1525000    1.0297559   -6.6149102    607.42617  0.033192687  0.033201125            7 
 1526000    1.0028982   -6.6774652    609.36427  0.033276773  0.033193728            3 
 1527000     1.027922   -6.6667051     609.0144  0.033235887   0.03318649            5 
 1528000    1.0201428   -6.6458948    608.87551  0.033206561  0.033179402            3 
 1529000   0.99725311   -6.6738724    608.87778  0.033184967  0.033172248            3 
 1530000    1.0043043     -6.65667    609.73947  0.033210211  0.033164996            5 
 1531000    1.0133188   -6.6456036    609.46405  0.033173528  0.033157869            5 
 1532000    1.0014324   -6.6612672    610.07565  0.033185142   0.03315079            4 
 1533000    1.0156411   -6.6545511    610.71565  0.033198285  0.033143647            3 
 1534000   0.99583344    -6.649509    612.52584  0.033274981  0.033136617            2 
 1535000    1.0072944   -6.6698355    611.15052  0.033178639  0.033129434            4 
 1536000    1.0290286   -6.6296595    611.58353   0.03318053  0.033122316            4 
 1537000   0.99566911   -6.6710784    610.24324  0.033086274  0.033115281            2 
 1538000   0.99941049   -6.6339267    612.67548  0.033196547  0.033108201            4 
 1539000    1.0065258   -6.6545466    613.67058  0.033228859  0.033101146            1 
 1540000   0.99455178   -6.6416679    612.27559  0.033131796  0.033094035            3 
 1541000    1.0179522   -6.6645284    613.54064  0.033178706  0.033087038            4 
 1542000   0.98478024   -6.6225232    613.92518  0.033177971  0.033080027            5 
 1543000    0.9780656   -6.7125948    612.14398  0.033060271  0.033072848            4 
 1544000   0.99688573   -6.6799573     613.7331  0.033124628  0.033065728            3 
 1545000    1.0006741   -6.6250032     612.7411  0.033049682  0.033058499            5 
 1546000   0.99347158   -6.6588685    613.42115  0.033064961  0.033051402           12 
 1547000   0.99029681   -6.6838247    615.14177  0.033136273  0.033044325            7 
 1548000    1.0052464   -6.6641577    615.87743   0.03315447  0.033037248           10 
 1549000    1.0040721   -6.6513096    615.52879   0.03311431  0.033030305            2 
 1550000    1.0232556   -6.6570669    615.74168  0.033104391  0.033023204            3 
 1551000    1.0114294   -6.6729006    616.06402  0.033100366  0.033016209            5 
 1552000    1.0000716   -6.6889983    615.32708  0.033039469  0.033009327            4 
 1553000   0.98220099   -6.6527138    616.59259  0.033086102  0.033002266            6 
 1554000    1.0096249   -6.6763383    615.95698  0.033030726  0.032995249            3 
 1555000    1.0127881   -6.6940758    617.21067   0.03307667  0.032988154            5 
 1556000    0.9971345   -6.7022804    615.18491  0.032946921  0.032980937            8 
 1557000    1.0385447   -6.6659614     614.9353  0.032912401  0.032973744            5 
 1558000    1.0044352   -6.6653552      616.474  0.032973577  0.032966586            2 
 1559000    1.0089172   -6.6737258      617.082  0.032984926  0.032959433            7 
 1560000    1.0198833   -6.6904275     619.0416  0.033068462  0.032952384            4 
 1561000   0.99287399   -6.6795246    615.91347  0.032880284  0.032945238            5 
 1562000    1.0003803   -6.6649778    618.84147  0.033015443  0.032938153            2 
 1563000    1.0039761   -6.6754069    618.91389  0.032998181  0.032931205            3 
 1564000    1.0063616    -6.693544    619.62965   0.03301522  0.032924206            4 
 1565000    1.0050909   -6.6648199    621.60594  0.033099358  0.032917157            4 
 1566000    1.0148631   -6.7040648    619.36167  0.032958795  0.032910154            3 
 1567000   0.99405561   -6.6706787     618.0935   0.03287032  0.032903107            4 
 1568000   0.99967407   -6.6551227    620.73457   0.03298972  0.032896146            3 
 1569000     0.976949   -6.7092654    620.41552  0.032951749  0.032889184            2 
 1570000   0.99821584   -6.7142448    620.47257  0.032933788  0.032882092            3 
 1571000     1.005369   -6.6689441    622.18041  0.033003417  0.032875094            3 
 1572000   0.96909612   -6.6713301    622.43768   0.03299606  0.032868185            4 
 1573000   0.99993638    -6.663663    622.67224   0.03298751  0.032861401            4 
 1574000   0.97878214   -6.6799604    623.55355  0.033013212  0.032854538            4 
 1575000    1.0033924   -6.6717408    622.19167  0.032920194  0.032847576            7 
 1576000    1.0139604   -6.6455918    623.92477  0.032990946  0.032840669            3 
 1577000    1.0168684   -6.7103088    623.88061  0.032967692  0.032833801            4 
 1578000    1.0049475    -6.682108     622.5829  0.032878269   0.03282686            3 
 1579000   0.99875574   -6.7159605    623.13988  0.032886842  0.032819833            4 
 1580000    1.0101973    -6.662552    622.46811  0.032830597  0.032812772            4 
 1581000   0.98548548   -6.6527143    623.76386  0.032878129  0.032805736            2 
 1582000   0.99212894   -6.6692623    624.28702  0.032884904  0.032798675            3 
 1583000   0.98959399   -6.6733062    623.76973  0.032836899  0.032791389            4 
 1584000   0.98299063   -6.6603042    622.39214  0.032743694  0.032784216            6 
 1585000   0.98037409   -6.6953025    623.28697  0.032770082    0.0327769           10 
 1586000    1.0064442   -6.7269477    624.03913  0.032788941  0.032769679            3 
 1587000   0.97201489   -6.6703884     624.3395  0.032784053  0.032762522            6 
 1588000     1.003325   -6.6523442    624.65956  0.032780203   0.03275537            6 
 1589000     1.006459   -6.6572116    627.01853  0.032883288  0.032748302            6 
 1590000    0.9906131   -6.6380807    625.38712  0.032777102  0.032741264            9 
 1591000   0.99747853   -6.6805009    626.52246  0.032815968  0.032734277            6 
 1592000    1.0050359   -6.7047399     625.1323  0.032722587   0.03272727            3 
 1593000   0.99110956    -6.706834    625.22279  0.032706779   0.03272026            2 
 1594000    1.0120368   -6.7100852    628.68393  0.032867207  0.032713214            4 
 1595000   0.98113244   -6.6882732    626.59987  0.032737715  0.032706127            5 
 1596000    1.0169791   -6.6431559    628.93664  0.032839215  0.032699176            7 
 1597000     1.007824   -6.6908026    626.49379  0.032691181  0.032692187            6 
 1598000     0.985595   -6.6886617    627.56173  0.032726415  0.032685171            4 
 1599000    1.0095752   -6.6696759     629.5169  0.032807843  0.032678259            4 
 1600000     1.000879    -6.648104    628.79572  0.032749777  0.032671546            3 
 1601000   0.99138149   -6.6734382    629.80633  0.032781925  0.032664704            4 
 1602000   0.99992328   -6.6930646    630.69764  0.032807825  0.032657799            2 
 1603000   0.98780425   -6.6499764    630.61088  0.032782849  0.032651022            7 
 1604000   0.99357356   -6.6939474    630.96194   0.03278065  0.032644303            2 
 1605000    1.0000904   -6.6646826     631.1604  0.032770529  0.032637503            3 
 1606000   0.99101991   -6.7002435    632.43377  0.032816198  0.032630596            4 
 1607000     1.007369   -6.7098905    629.81051  0.032659744  0.032623651            4 
 1608000   0.98701882   -6.7014163    630.15384  0.032657226  0.032616682            6 
 1609000    1.0078413   -6.6669562    631.45009  0.032704065  0.032609821            4 
 1610000   0.98484695   -6.6772286    631.09426  0.032665334  0.032603001            5 
 1611000    1.0108357   -6.6851645    633.65279  0.032777405  0.032596161            4 
 1612000    0.9995874   -6.6572496    631.88279   0.03266557  0.032589449            3 
 1613000   0.99455348   -6.7174715    632.46505    0.0326754  0.032582618            3 
 1614000   0.99101361   -6.7298329    633.56561  0.032711979  0.032575727            4 
 1615000   0.97807903   -6.6862401    630.96388  0.032557476  0.032568859            3 
 1616000     1.014305   -6.7118719    633.88504  0.032687966  0.032562015            4 
 1617000     1.002517   -6.6897928    633.77757  0.032662213  0.032555052            7 
 1618000    1.0082482   -6.7054855    634.81926  0.032695677   0.03254813            4 
 1619000   0.99883997   -6.7100937    633.11648  0.032587836  0.032541135            4 
 1620000    1.0227006   -6.6906601    633.13626  0.032568738  0.032534092            6 
 1621000     1.000496   -6.6897006    633.96719  0.032591363  0.032527178           10 
 1622000   0.97902487   -6.6625068    634.68155  0.032607971  0.032520343            6 
 1623000   0.97732202   -6.6649035    635.54881   0.03263241  0.032513451            5 
 1624000   0.97613664   -6.6748435    637.78086  0.032726851  0.032506694            2 
 1625000   0.97930041    -6.711312    634.67355  0.032547362  0.032499897            3 
 1626000    1.0013517   -6.6971833    635.96152  0.032593354  0.032493158            4 
 1627000   0.98539334   -6.7027506    636.39438  0.032595492  0.032486402            3 
 1628000    1.0072403    -6.698226    636.57939   0.03258494   0.03247956            8 
 1629000   0.97851628   -6.6998485    637.00452  0.032586685  0.032472884            6 
 1630000   0.99620073   -6.6933001    638.13508  0.032624493  0.032466186            4 
 1631000   0.99252606   -6.7182324    637.11711  0.032552479  0.032459437            3 
 1632000   0.98098024   -6.6593069    639.76306   0.03266764   0.03245267            3 
 1633000   0.97854012   -6.7074035    638.48596  0.032582464   0.03244581            5 
 1634000    1.0100491   -6.7141527    638.24657  0.032550315  0.032438981            6 
 1635000   0.97916086   -6.6892948    637.67179   0.03250111  0.032432034            2 
 1636000   0.98006243    -6.686983    639.02798  0.032550325  0.032425035            6 
 1637000    1.0044555   -6.7136024    637.73204   0.03246447  0.032418137            6 
 1638000   0.98680513   -6.7070345    638.31527  0.032474322  0.032411178            4 
 1639000   0.98118389   -6.6598078     639.0943  0.032494118  0.032404264            4 
 1640000   0.99812915   -6.6525263    638.78109  0.032458389  0.032397385            3 
 1641000   0.99583808   -6.6706471    640.44682  0.032523198  0.032390491            3 
 1642000    1.0015848   -6.6937138    641.29294  0.032546333  0.032383603            3 
 1643000    0.9922635   -6.7057968    640.33092   0.03247773  0.032376608            2 
 1644000    1.0070978   -6.6891247    639.23161  0.032402251  0.032369628            4 
 1645000    1.0026368   -6.6777886    640.74706  0.032459324  0.032362658            6 
 1646000   0.98884608   -6.7071008     641.0333  0.032454096  0.032355704            9 
 1647000   0.98293761   -6.6950461    642.13436  0.032490101  0.032348821            3 
 1648000   0.95451345   -6.7338749    639.86724  0.032355746  0.032341833            2 
 1649000   0.98434107   -6.6786961    640.56721  0.032371498  0.032334748            3 
 1650000    1.0161762    -6.693269     643.0451  0.032477025  0.032327867            4 
 1651000   0.99040876   -6.7175538    641.39521  0.032374077   0.03232076            5 
 1652000   0.98107327   -6.6904276    641.50843  0.032360191  0.032313718            3 
 1653000   0.97561708   -6.6578734     641.3519  0.032332723  0.032306753            3 
 1654000    1.0069384   -6.7157695    642.95284  0.032393835  0.032299691            5 
 1655000   0.99370535   -6.7065405    640.87413  0.032269594  0.032292585            8 
 1656000   0.97828304   -6.7094904    641.97633  0.032305572  0.032285402            4 
 1657000     1.018596   -6.6842757    644.01934  0.032388822   0.03227831            4 
 1658000   0.97576567   -6.6830813    641.47389  0.032241349  0.032271365            6 
 1659000   0.99457517   -6.7136603     642.3272  0.032264778  0.032264252            3 
 1660000   0.98711234   -6.7143701    641.80288   0.03221902  0.032257071            2 
 1661000   0.99667167   -6.6830047    641.74637  0.032196788  0.032249894            2 
 1662000   0.99484492   -6.7027486    643.30876  0.032255754  0.032242762            5 
 1663000    0.9916602   -6.6950376    645.27767   0.03233502  0.032235677            6 
 1664000     0.992134   -6.6891157    644.76076  0.032289701  0.032228667           12 
 1665000   0.99436736   -6.6621797    644.90185   0.03227737  0.032221535            4 
 1666000   0.99798475   -6.6926844    644.62139  0.032243967   0.03221439            4 
 1667000   0.98892283   -6.7240638    644.23918  0.032205518  0.032207311            7 
 1668000   0.99460441   -6.7176721    644.85922  0.032217187   0.03220007            5 
 1669000   0.97471193   -6.7188845    644.06423   0.03215819  0.032192853            5 
 1670000   0.97762281   -6.6962428    643.86906  0.032129194  0.032185591            4 
 1671000   0.96690589      -6.7382    645.92651  0.032212573  0.032178307            6 
 1672000   0.96993314   -6.6976505    644.53865  0.032124135  0.032171053            3 
 1673000   0.97520751   -6.7205923    646.81694  0.032218417   0.03216385            4 
 1674000     1.014756   -6.7253361     645.1064  0.032114018  0.032156586            8 
 1675000   0.96706418    -6.730104    646.23189   0.03215084  0.032149324            4 
 1676000   0.99399595    -6.653017    648.35723  0.032237332  0.032142259            5 
 1677000   0.98993002   -6.7197393    646.13002  0.032107435  0.032135198            3 
 1678000   0.97717744   -6.6946805    647.61981  0.032162287  0.032128149            1 
 1679000   0.96761923   -6.7311466    646.65314  0.032095153  0.032121048            3 
 1680000     1.003192   -6.7016593    649.52671  0.032218587  0.032113858            5 
 1681000   0.99662841    -6.727286    649.27204  0.032186796  0.032106791            5 
 1682000    1.0027887   -6.7144318      649.582  0.032183016   0.03209981            5 
 1683000    1.0103594   -6.7036846    649.49223  0.032159449   0.03209271            5 
 1684000   0.99945874    -6.692416    649.77677  0.032154432  0.032085651            6 
 1685000   0.95552213   -6.6796482    647.28214  0.032011975  0.032078587            3 
 1686000   0.99221826   -6.7196699     648.6917  0.032062658  0.032071397            3 
 1687000   0.97246325   -6.7249651    649.18035   0.03206779  0.032064116            5 
 1688000   0.99014085   -6.7082764    650.45987   0.03211196  0.032056956            6 
 1689000   0.94836609   -6.7157906    650.47562  0.032093725  0.032049703            3 
 1690000   0.99674242   -6.7295177    649.43736  0.032023538  0.032042379            3 
 1691000    0.9787308   -6.7037048     648.6961  0.031968071  0.032035067            7 
 1692000   0.97912507   -6.7240421    649.97665  0.032012246  0.032027724            5 
 1693000   0.97225844   -6.7200989    650.24845  0.032006716  0.032020327            9 
 1694000    0.9872828   -6.6679128    650.78579  0.032014256  0.032013048            5 
 1695000   0.99683005   -6.7186652    649.27108  0.031920899  0.032005712            9 
 1696000   0.97180868   -6.7165501    648.87074  0.031882407   0.03199829            4 
 1697000   0.99777765   -6.7342608    652.70686  0.032051997  0.031990969            3 
 1698000   0.94491326   -6.7147717    652.85625  0.032040452  0.031983646            7 
 1699000   0.98443332   -6.7193027     653.7654  0.032066186   0.03197635            3 
 1700000   0.99374571   -6.7041168    650.86053  0.031904928  0.031969044            3 
 1701000    0.9753713   -6.6984986    650.38295  0.031862774  0.031961612            3 
 1702000   0.97316335    -6.708423     652.4144  0.031943518  0.031954234            5 
 1703000     1.000288   -6.7444503    650.93804  0.031852517  0.031946785           10 
 1704000   0.95961265   -6.7412818    652.24081  0.031897536  0.031939278            4 
 1705000    1.0021078   -6.7027538    651.58702  0.031846873   0.03193191            3 
 1706000   0.99481395   -6.7026003    652.80868   0.03188788  0.031924619            4 
 1707000   0.95558012   -6.6888465    653.67584  0.031911533  0.031917302            6 
 1708000    0.9603127   -6.7296567    653.41632  0.031880187  0.031909947            2 
 1709000   0.96782907   -6.7611453     653.3883  0.031860167  0.031902443            4 
 1710000   0.95096344   -6.7450381    652.80288  0.031813006  0.031894946            8 
 1711000   0.99140202   -6.7120199    652.22859  0.031766442  0.031887491            6 
 1712000   0.96981417   -6.7237742    652.83583  0.031777445  0.031879913            8 
 1713000   0.98418139   -6.7096092    652.83583  0.031758894  0.031872236            5 
 1714000   0.97303123   -6.7424572    655.04666  0.031847854  0.031864722            7 
 1715000   0.97858316   -6.7373637    652.70086  0.031715299  0.031857117            4 
 1716000    0.9740192   -6.7154486    652.65304  0.031694495   0.03184952            5 
 1717000   0.97674598   -6.7389878    653.69158   0.03172644  0.031841873            3 
 1718000   0.96178943   -6.7407833    655.02819  0.031772807  0.031834141            4 
 1719000   0.96401904   -6.6812511     655.8725  0.031795254  0.031826454            2 
 1720000   0.96571967   -6.7191185    655.33554  0.031750753  0.031818785            4 
 1721000   0.99561406   -6.7125554    655.41628  0.031736213  0.031811174            5 
 1722000   0.96947981   -6.7288146    654.48511  0.031672721  0.031803413            2 
 1723000   0.97870072   -6.7283415    654.33386  0.031647024   0.03179572            2 
 1724000   0.97984437   -6.7498517    655.04474  0.031663029  0.031788051            7 
 1725000   0.97980057   -6.6834813    657.88037   0.03178166  0.031780448            5 
 1726000   0.99363994   -6.7168076    656.25861  0.031684947   0.03177298            3 
 1727000   0.97276802   -6.6912261    657.21931  0.031712957  0.031765486            3 
 1728000   0.95917944   -6.7543069    657.15413  0.031691461  0.031757938            8 
 1729000   0.96678472   -6.7143554    655.60456  0.031598446  0.031750389            4 
 1730000   0.97263004   -6.7642821    656.43745  0.031620301  0.031742788            6 
 1731000   0.97083299   -6.7164703    657.59572  0.031657795  0.031735177            4 
 1732000    0.9668774   -6.7170243    656.79792  0.031601132  0.031727632            5 
 1733000   0.96999166   -6.7309295    656.59155  0.031572973  0.031720099           11 
 1734000   0.95086496   -6.7221782    659.67897  0.031703142  0.031712593            5 
 1735000   0.97333966   -6.7377704    659.46016  0.031674359  0.031705091            2 
 1736000    0.9715351   -6.7229758     658.5059  0.031610306  0.031697568            9 
 1737000   0.97826038   -6.7373168    659.61425  0.031645282      0.03169            7 
 1738000   0.95219542   -6.7745034    656.75404  0.031489933  0.031682367            7 
 1739000   0.99031605   -6.7487002    657.83148  0.031523456   0.03167472            4 
 1740000   0.95318196   -6.7217206    660.04691  0.031611442  0.031667136            9 
 1741000   0.95358395   -6.7353597    659.68494  0.031575959   0.03165954            5 
 1742000   0.94509738   -6.7329357    657.43066  0.031449993  0.031651914            4 
 1743000   0.97819641    -6.713526    659.84221  0.031547247  0.031644261            2 
 1744000   0.95098814   -6.7072622    659.17562  0.031497306  0.031636579            5 
 1745000   0.95503667   -6.7306282    657.95577  0.031421001  0.031628817            3 
 1746000   0.96862125   -6.7525837    658.84165  0.031445287   0.03162097            3 
 1747000   0.95635151   -6.7529713    660.88636  0.031524821  0.031613228            8 
 1748000   0.96513103   -6.7275683    658.75509  0.031405182  0.031605416            3 
 1749000   0.97427609   -6.7593894    658.80197  0.031389459  0.031597503            3 
 1750000   0.98816228   -6.7242849    659.53686  0.031406517  0.031589594            7 
 1751000   0.97558624   -6.7253731    661.45876  0.031480048   0.03158173            4 
 1752000   0.99072397   -6.7403461    658.83439  0.031337252  0.031573863            6 
 1753000   0.96936337   -6.7446399    659.64095  0.031357718  0.031566009            4 
 1754000   0.97810678   -6.7358345    660.46932  0.031379196  0.031558048            4 
 1755000   0.96213246   -6.7456003    662.27411  0.031447014  0.031550249            6 
 1756000   0.95025751   -6.7419486    662.09283  0.031420502  0.031542509            4 
 1757000   0.96679604   -6.7350512     661.2298  0.031361687  0.031534844            4 
 1758000   0.99159929   -6.7287167    661.84723  0.031373115  0.031527068            5 
 1759000   0.96805858   -6.7392789     660.8507  0.031308068  0.031519342            6 
 1760000   0.94192516   -6.7163298      663.359  0.031409044  0.031511625            3 
 1761000   0.94887226   -6.7216485    664.09651  0.031426108  0.031503814            4 
 1762000   0.97062477   -6.6987127    664.45415  0.031425187   0.03149603            3 
 1763000    0.9837872   -6.7199018    664.50697  0.031409859  0.031488316            6 
 1764000    0.9502045   -6.6971059    663.40418  0.031339956  0.031480694            3 
 1765000   0.97402539   -6.7278044     664.8994  0.031392795   0.03147302            7 
 1766000   0.99294473   -6.7284206     664.7658  0.031368715  0.031465369            4 
 1767000   0.96939392    -6.732378     664.4905  0.031337978  0.031457636            4 
 1768000   0.96398079   -6.7979591    664.72881  0.031331486  0.031449777            2 
 1769000    0.9850697   -6.7521923    664.64647  0.031309896  0.031441932           26 
 1770000   0.96819777   -6.7407944     664.3207  0.031276869  0.031434075            7 
 1771000    0.9693557   -6.7154239    666.14405  0.031345005  0.031426365            9 
 1772000    0.9650248   -6.7095696    665.22889  0.031284278   0.03141861            6 
 1773000   0.98281151   -6.7318826    664.41327  0.031228298  0.031410847            3 
 1774000    0.9707691   -6.7515394    663.62682  0.031173751   0.03140297            7 
 1775000    0.9621088   -6.7673295    664.23445  0.031184716  0.031395035           11 
 1776000   0.95783687   -6.7661461    664.91768  0.031199215  0.031387166            6 
 1777000    0.9650433   -6.7449582    663.90033  0.031133949  0.031379216            6 
 1778000   0.98370188   -6.7747449    665.31063  0.031182538  0.031371281           12 
 1779000   0.97954877   -6.7586361    667.13764  0.031250592  0.031363349            4 
 1780000    0.9576017   -6.7363697    668.03091  0.031274855  0.031355519            4 
 1781000    0.9727169   -6.6987651    668.68141  0.031287732  0.031347823            6 
 1782000   0.95280278   -6.7637504    667.50839  0.031215319  0.031340218            8 
 1783000   0.96524285   -6.7175394    668.08034  0.031224544  0.031332556            3 
 1784000   0.96977276   -6.7590288    667.83005   0.03119535  0.031324806            9 
 1785000   0.98578296    -6.720706    667.91774  0.031181967  0.031317152            6 
 1786000   0.96750273   -6.7819875    667.79362  0.031158717  0.031309465            3 
 1787000   0.97441757   -6.7557878    667.75513  0.031139485  0.031301667            7 
 1788000   0.97570546   -6.7240596    668.69511  0.031165879  0.031293954            5 
 1789000   0.97091146    -6.763706    667.89639  0.031111254  0.031286204            6 
 1790000   0.96682544   -6.7426853     669.5578   0.03117122  0.031278585            5 
 1791000    0.9640792   -6.7312538     671.3875  0.031238949  0.031270878            5 
 1792000   0.96786601   -6.7308223    667.85041  0.031057032  0.031263183            4 
 1793000    0.9701879   -6.7637495    670.14888  0.031146537  0.031255548            3 
 1794000   0.96950428   -6.7589163    669.13656  0.031082151  0.031247922            6 
 1795000   0.93844877   -6.7395127    669.48523  0.031081023  0.031240291            7 
 1796000   0.94609717   -6.7518839    669.57023  0.031067661  0.031232658            6 
 1797000   0.94915702   -6.7355774    669.72727  0.031057655  0.031225017            5 
 1798000   0.96486922    -6.755863    672.18015  0.031154067  0.031217392            4 
 1799000   0.96404909   -6.7323956    673.11196  0.031179913  0.031209832            5 
 1800000   0.95766694   -6.7268761    674.43087  0.031223651  0.031202219            4 
 1801000   0.96230698   -6.7301009    672.75618  0.031128826  0.031194705            3 
 1802000   0.95363088   -6.7370824    673.30462  0.031136913  0.031187118            5 
 1803000   0.97128365   -6.7574361    671.15701  0.031020383  0.031179401            6 
 1804000   0.97726719   -6.7567696    672.18482  0.031050666  0.031171707            3 
 1805000   0.94106961    -6.788962    672.51379  0.031048651  0.031164002           15 
 1806000   0.96704409   -6.7536555    671.90122  0.031003194  0.031156186            4 
 1807000   0.95221363   -6.7722278    671.80747  0.030981713   0.03114841            4 
 1808000   0.96579908   -6.7549493    672.13313  0.030979587  0.031140583            2 
 1809000   0.95428825   -6.7659196    672.61829  0.030984812   0.03113288           10 
 1810000   0.95528676   -6.7365018    674.88902  0.031072239  0.031125159            4 
 1811000   0.97331027   -6.7426899    674.42748  0.031033843  0.031117436            7 
 1812000   0.97177667   -6.7467116     673.8107  0.030988351   0.03110972            2 
 1813000   0.96757145     -6.74643    674.76036  0.031014909  0.031102032            5 
 1814000   0.93218527   -6.7799661       674.74  0.030996876  0.031094313            4 
 1815000   0.95582046   -6.7382109    675.61227  0.031019847  0.031086661            4 
 1816000   0.93861354   -6.7578974    675.14222  0.030981196   0.03107903            3 
 1817000   0.98165355   -6.7499043    674.78745  0.030947874  0.031071342            3 
 1818000   0.96844054   -6.7437986    675.72927  0.030974022  0.031063686            5 
 1819000   0.96401191   -6.7720707    676.31859  0.030983992   0.03105604            4 
 1820000   0.95972293   -6.7686211    674.49344  0.030883399  0.031048437            7 
 1821000   0.97290101   -6.7721513     677.3563  0.030997451  0.031040845            6 
 1822000   0.96722636   -6.7652542    678.44607  0.031030281  0.031033204            4 
 1823000     0.949669   -6.7496366    676.42737   0.03092098  0.031025598            3 
 1824000    0.9522168   -6.7939982    677.15292  0.030937177  0.031018055           18 
 1825000   0.96179647   -6.7877803    677.85213  0.030952152    0.0310105            4 
 1826000    0.9573282   -6.7946363    676.39495    0.0308687  0.031002903            7 
 1827000     0.947999   -6.7580793    675.93132  0.030830657  0.030995247            8 
 1828000   0.95198104   -6.7807103     678.3943  0.030926071  0.030987609            4 
 1829000   0.96695811    -6.768599    677.88943   0.03088616  0.030979955            4 
 1830000    0.9775333   -6.7799703    678.07839  0.030877886  0.030972395            2 
 1831000   0.96062646   -6.7922561    678.37057   0.03087432  0.030964786            4 
 1832000   0.95777475   -6.7277877    678.40146  0.030858873  0.030957184            3 
 1833000   0.95017616   -6.7731195    681.58452  0.030986749  0.030949732            4 
 1834000   0.95098974   -6.7439761    679.86067  0.030891524  0.030942243            8 
 1835000   0.95767401   -6.7562321    679.39376  0.030853486  0.030934738            5 
 1836000   0.93735264   -6.7797507    679.26568  0.030830868  0.030927159            3 
 1837000    0.9576039      -6.7909    678.36992   0.03077345  0.030919602            5 
 1838000   0.95470061   -6.7577371    680.69386  0.030862072  0.030912069            3 
 1839000   0.95792518   -6.7616283    680.45729   0.03083457   0.03090451            6 
 1840000   0.96019025   -6.7791308     680.7622  0.030831621  0.030897039            4 
 1841000   0.95184085    -6.738399    681.46798  0.030846822  0.030889543           14 
 1842000   0.95574053   -6.7711943    680.50069  0.030786314  0.030881963            6 
 1843000     0.970299   -6.7658666    678.61416  0.030684308  0.030874383            2 
 1844000   0.97317361   -6.7592444    681.29643  0.030788884  0.030866889            1 
 1845000    0.9553862   -6.7428849    681.91063  0.030799938  0.030859448            2 
 1846000   0.95531053   -6.7661151    680.54937  0.030721803  0.030852021            5 
 1847000    0.9650933   -6.7585043    685.32757  0.030920753  0.030844674            3 
 1848000   0.95269832   -6.7783712    682.61968  0.030781912  0.030837202           11 
 1849000    0.9547234   -6.7628707    683.39878  0.030800378  0.030829737            7 
 1850000   0.96265955   -6.7663887    683.05134  0.030768078  0.030822373            2 
 1851000   0.95052804   -6.7665363    682.47309  0.030725423  0.030814931            5 
 1852000   0.96903112   -6.8062443    684.74995  0.030811283  0.030807514            4 
 1853000   0.97068452   -6.7716169    684.92403  0.030802484  0.030800149            6 
 1854000    0.9623813    -6.747627    687.03424  0.030880719   0.03079293            7 
 1855000   0.97194626   -6.7494093     684.4548  0.030748194  0.030785658            2 
 1856000   0.94593076   -6.7567267    687.49151  0.030867974  0.030778527            2 
 1857000   0.96957456   -6.7692393    687.74041  0.030862521  0.030771387            5 
 1858000   0.95706228    -6.767016    687.95666  0.030855609  0.030764241            6 
 1859000   0.95355592   -6.7895688    689.51489  0.030908862  0.030757024            6 
 1860000   0.94894149   -6.7891831    685.05607  0.030692476  0.030749753            4 
 1861000   0.96119751   -6.7655625    686.65966   0.03074779  0.030742392            5 
 1862000   0.96710014   -6.7999733    687.19246  0.030755122  0.030735074            4 
 1863000   0.94937508   -6.7562095    689.54737  0.030843951    0.0307279            3 
 1864000    0.9589163   -6.7499031    688.12679  0.030763895  0.030720637            4 
 1865000   0.93306507   -6.7934363    687.84564  0.030734836  0.030713319            3 
 1866000   0.93894826   -6.7763611    688.72319  0.030757556  0.030706007            6 
 1867000   0.93603115   -6.7690176    689.86475  0.030792035  0.030698727            5 
 1868000   0.94237577   -6.7759067    688.18715  0.030700711  0.030691468            4 
 1869000   0.93245894   -6.8097083    687.76804  0.030665598  0.030684112           10 
 1870000   0.95924313   -6.8019938    687.84101  0.030652451  0.030676716            6 
 1871000   0.97596416   -6.8056861    687.62314  0.030626365  0.030669339            3 
 1872000   0.95694635   -6.7733029    688.14766  0.030633354  0.030662059            6 
 1873000     0.973112   -6.7597884    687.32537  0.030580413  0.030654835            4 
 1874000    0.9850376   -6.7857713    688.75788  0.030627796  0.030647494            3 
 1875000   0.95999929   -6.7750733    689.50132  0.030644503  0.030640162            5 
 1876000   0.91647223   -6.7820994    690.28577  0.030663014  0.030632901            7 
 1877000   0.94966477   -6.7606715    691.55187  0.030702889  0.030625709           10 
 1878000   0.95839228   -6.7460189     691.3368  0.030676997  0.030618542            6 
 1879000   0.95087881   -6.7875875    691.45364  0.030665853  0.030611342            4 
 1880000   0.94207218   -6.7803691    692.01336  0.030674351  0.030604196            2 
 1881000   0.95920687   -6.7771188    692.87604  0.030696262  0.030597029            9 
 1882000   0.95627483   -6.7722548    691.48266  0.030618254  0.030589918            4 
 1883000   0.95339794   -6.7469929    693.95012  0.030711193  0.030582809            6 
 1884000   0.94052441   -6.7820309    691.35405  0.030580062  0.030575664            9 
 1885000   0.95646663   -6.7682562     692.7251  0.030624452  0.030568538            8 
 1886000    0.9671345   -6.7651174    693.55817  0.030645023  0.030561479            5 
 1887000   0.94158629   -6.7980486    693.55482  0.030628635   0.03055436            5 
 1888000   0.96109977   -6.7009329    694.46228  0.030652466  0.030547242            4 
 1889000   0.95927582   -6.7766561    695.36527  0.030676075  0.030540115            4 
 1890000   0.94495046   -6.7653413    694.53584  0.030623273  0.030533002            3 
 1891000   0.95345067    -6.787121    693.74342  0.030572159  0.030525846            3 
 1892000    0.9693082   -6.7988165    691.68667   0.03046541   0.03051861            2 
 1893000   0.94838677   -6.7917706    693.57658  0.030532513  0.030511386            4 
 1894000   0.94472031   -6.7795047    693.40314  0.030508762  0.030504088            6 
 1895000   0.94476515   -6.8004788    692.74444  0.030463696  0.030496813            6 
 1896000   0.96255287   -6.7813778    695.31505  0.030560612  0.030489536            4 
 1897000   0.92679378   -6.7770334    695.75817  0.030563968   0.03048225            5 
 1898000   0.93148799   -6.7449517    695.35056  0.030529968  0.030475058            4 
 1899000   0.95445327   -6.7543438    694.09221  0.030458671  0.030467863            3 
 1900000   0.94869121   -6.8022875    695.00779  0.030482798  0.030460604            3 
 1901000   0.93674182   -6.7898728    697.17503  0.030561767  0.030453329            6 
 1902000   0.95866896   -6.8239412    695.44034  0.030469696  0.030446083            9 
 1903000   0.92422047   -6.8112606    696.35481   0.03049373  0.030438905            4 
 1904000   0.95241714   -6.7552231    698.06999  0.030552783   0.03043166            3 
 1905000   0.95061032   -6.7816627    697.70628  0.030520834  0.030424418           11 
 1906000   0.92873841   -6.7669764    695.61865  0.030413547  0.030417056            3 
 1907000   0.95799982   -6.7671232    696.71401  0.030445464   0.03040982            4 
 1908000   0.94488482    -6.779693    695.05327  0.030356974  0.030402454            6 
 1909000   0.94818821   -6.7677028    697.69697  0.030456477  0.030395084           11 
 1910000   0.94250428   -6.7897858    694.40581  0.030296938  0.030387725            2 
 1911000   0.96321631   -6.8013679    693.42882   0.03023848  0.030380292           16 
 1912000   0.95427437   -6.7429526    695.58895  0.030316813  0.030372757            3 
 1913000   0.94757206   -6.8009937    694.50768  0.030253863  0.030365263            4 
 1914000   0.94862289   -6.7935532    696.00671  0.030303323  0.030357723            3 
 1915000   0.93973859   -6.8030052    695.40494  0.030261312  0.030350188            7 
 1916000    0.9381197   -6.7948849    696.94541  0.030312518  0.030342672            4 
 1917000   0.94671025   -6.7983041    695.83725  0.030248533  0.030335166            8 
 1918000   0.95699299   -6.7909906    695.89664  0.030235343  0.030327588            7 
 1919000   0.95815258   -6.7919652    696.38456  0.030240775  0.030320037            2 
 1920000   0.92999047   -6.8151827    697.48913  0.030272966  0.030312418            3 
 1921000   0.96449186    -6.799346    695.60041  0.030175274   0.03030474            5 
 1922000   0.95148864   -6.8129935    696.41616  0.030194943  0.030297079            3 
 1923000   0.93077955   -6.8125883    696.44629  0.030180546  0.030289434            8 
 1924000   0.95392579   -6.7836509    698.83403  0.030268279  0.030281813            5 
 1925000   0.92618367   -6.7538637    697.62519  0.030200225  0.030274143            9 
 1926000   0.94962391   -6.7815468    697.44988  0.030176959  0.030266514            6 
 1927000   0.93837621   -6.8046568    696.54807    0.0301223  0.030258754            5 
 1928000   0.93602874   -6.7620643    699.25918  0.030223858  0.030251094            2 
 1929000   0.95538292   -6.8023151    697.87479  0.030148384  0.030243465            4 
 1930000   0.97196629   -6.7761667    696.54778  0.030075465  0.030235731           11 
 1931000   0.93038462   -6.7874062    697.33292  0.030093773  0.030227964            4 
 1932000   0.92822104   -6.7797913     697.3973  0.030080974  0.030220191            8 
 1933000   0.94300019    -6.767102    699.63818  0.030162018  0.030212563            5 
 1934000   0.92426843   -6.8057946    698.89625  0.030114454  0.030204962            3 
 1935000   0.93474291   -6.7847235    701.52907  0.030212277  0.030197318            5 
 1936000   0.95392999   -6.7945519    697.59103  0.030027162  0.030189668            4 
 1937000   0.94187349    -6.795709    699.43397  0.030090947  0.030182021            8 
 1938000   0.94841157    -6.808163    699.25509  0.030067728  0.030174396            3 
 1939000   0.94325501   -6.7878541    701.99796  0.030170103  0.030166812            4 
 1940000   0.94473296   -6.8046927    700.33801  0.030083248  0.030159217            3 
 1941000   0.94505849   -6.8056106    699.87826   0.03004801  0.030151591            6 
 1942000   0.94655811   -6.7864348    701.00905  0.030081061  0.030144052            4 
 1943000   0.93872937   -6.8058372    700.15756   0.03002906  0.030136405            9 
 1944000   0.94326456   -6.7645757     704.2058  0.030187148  0.030128896            6 
 1945000   0.94274951   -6.7965162    701.82721  0.030069718  0.030121401            5 
 1946000   0.93518757   -6.8196366     700.1165  0.029981008  0.030113806            4 
 1947000   0.95390603   -6.7597794    701.37934   0.03001966   0.03010621            7 
 1948000   0.95793109    -6.801694    701.83057  0.030023553  0.030098702            4 
 1949000   0.92315923   -6.8027337    701.85262  0.030009091  0.030091187           10 
 1950000    0.9382979   -6.7941326    702.80021  0.030034197  0.030083611           10 
 1951000   0.93045249   -6.8075818    704.64023  0.030097396  0.030076115            5 
 1952000   0.94805314   -6.7838106     704.3732  0.030070577  0.030068619            5 
 1953000    0.9305685   -6.8037963    706.04704  0.030126602  0.030061262            9 
 1954000   0.93548494    -6.774626    705.02176  0.030067458  0.030053793            5 
 1955000   0.94111131    -6.801946    704.81184   0.03004313  0.030046514            5 
 1956000   0.94162648   -6.7848416    704.88284  0.030030796  0.030039193            4 
 1957000   0.92973046   -6.7946316    705.33133  0.030034548  0.030031743           11 
 1958000   0.94348987    -6.802803    704.34727  0.029977327  0.030024353            7 
 1959000   0.93359793   -6.8391449    703.92984  0.029944268  0.030016898            4 
 1960000    0.9498138   -6.7865193    706.98618  0.030058936  0.030009532            8 
 1961000   0.92863059   -6.7905726    704.78849  0.029950216  0.030002217           17 
 1962000   0.92768781   -6.8025721    706.96652   0.03002746  0.029994847            6 
 1963000   0.92335058   -6.7805948    706.66633  0.029999419   0.02998756            5 
 1964000   0.95132556   -6.8152269    704.00436  0.029871196  0.029980231            2 
 1965000   0.94169219    -6.811114     706.1999  0.029949105  0.029972893            8 
 1966000   0.94756241   -6.8111107    707.73825  0.029999078  0.029965625            5 
 1967000   0.93261563   -6.7854833    709.23871  0.030047395  0.029958248            2 
 1968000   0.93683031   -6.8248608    705.89205  0.029890415  0.029950867            6 
 1969000   0.94733308   -6.8200616    706.80785  0.029913994  0.029943461            6 
 1970000    0.9366158   -6.8071733    708.50263    0.0299705   0.02993607            6 
 1971000   0.93699665   -6.7819003    708.31073  0.029947181  0.029928701            2 
 1972000   0.95600106   -6.7934003    708.31835  0.029932317  0.029921367            5 
 1973000   0.92708125   -6.8218219    707.02959  0.029862713  0.029913984            4 
 1974000   0.91735124    -6.836399     707.2264  0.029855893  0.029906628            9 
 1975000   0.92708659   -6.8235362     706.3976  0.029805806  0.029899152            6 
 1976000   0.95183859   -6.8393574    708.83647  0.029893576  0.029891772            3 
 1977000   0.92887232    -6.797198    710.37229  0.029943192  0.029884406            5 
 1978000    0.9457938   -6.8116302    708.78466  0.029861167  0.029876998            3 
 1979000   0.93556974   -6.8056121    709.40201  0.029872074  0.029869605            6 
 1980000   0.93724418   -6.8250121    708.56945  0.029821947  0.029862258            5 
 1981000   0.92128128   -6.7878532    709.81152  0.029859142  0.029854826            7 
 1982000   0.93959091   -6.8000038    710.10889   0.02985658  0.029847467            3 
 1983000   0.92503454   -6.7892572    711.26189  0.029889977  0.029840073            6 
 1984000   0.95615128   -6.8145534    710.63639  0.029848639  0.029832773            4 
 1985000   0.92365288   -6.8187098    710.73401    0.0298377  0.029825473            6 
 1986000   0.94180092   -6.7940197    710.47651  0.029811871   0.02981812            5 
 1987000   0.91872182   -6.8017076    712.28477  0.029872705  0.029810798            8 
 1988000   0.92208501    -6.822727    710.68281  0.029790527  0.029803463            4 
 1989000   0.93234486   -6.7896036    713.79472  0.029905929  0.029796147           11 
 1990000   0.92072034   -6.7951912    710.72107  0.029762189  0.029788772            3 
 1991000   0.92831172   -6.8157602    711.85597  0.029794742  0.029781426            4 
 1992000   0.93207818   -6.7940394    712.09183  0.029789651  0.029774053            6 
 1993000   0.93327639   -6.7858475    712.92586  0.029809578  0.029766788            3 
 1994000    0.9400657   -6.8138195    711.87565  0.029750737  0.029759502            3 
 1995000   0.90433783   -6.7867521    713.12143  0.029787863  0.029752234            3 
 1996000   0.93418013   -6.7922158    712.98043  0.029767052  0.029744981            7 
 1997000   0.94678219   -6.7774777     714.6396  0.029821382  0.029737762            5 
 1998000   0.92603561    -6.769331    715.45143  0.029840317  0.029730562           10 
 1999000   0.92519518   -6.8276668    714.53607   0.02978723  0.029723315            2 
 2000000    0.9272469    -6.798434    713.39836  0.029724932  0.029715984            5 
 2001000   0.92195378   -6.8093551    712.34827  0.029666345  0.029708615            5 
 2002000   0.89502732    -6.804721    713.83743  0.029713513  0.029701364            3 
 2003000   0.93194304    -6.807683    713.97549  0.029704422  0.029694054            7 
 2004000    0.9398817   -6.8237138     713.1056  0.029653426  0.029686712            8 
 2005000   0.90434485   -6.8109556    715.37309   0.02973288  0.029679359            7 
 2006000   0.93034091   -6.8206595    715.31805  0.029715772  0.029671967            6 
 2007000   0.93746911    -6.817754    715.08774  0.029691403   0.02966463            6 
 2008000   0.92161363   -6.7917164      713.867  0.029625955  0.029657296            6 
 2009000   0.93428055    -6.808423    713.68419  0.029603625  0.029649931            3 
 2010000   0.93755563   -6.8217943    715.58844  0.029667846  0.029642592            8 
 2011000   0.91009675   -6.8103345    714.41687  0.029604545  0.029635223            6 
 2012000   0.93678866   -6.8033125    715.98667  0.029654849  0.029627832            5 
 2013000   0.92404881   -6.8146528    713.04834  0.029518477  0.029620453            5 
 2014000   0.91331472    -6.817433    715.25842  0.029595267  0.029613007            2 
 2015000   0.92763382   -6.8445501     715.7561  0.029601162  0.029605725            3 
 2016000   0.92440987   -6.8378899     715.3073  0.029567927  0.029598444            7 
 2017000    0.9282282   -6.8196528    714.75546  0.029530469  0.029591111            4 
 2018000   0.92755032   -6.8264588    715.28736    0.0295378  0.029583748            5 
 2019000    0.9568835   -6.8248022    717.31881  0.029607017  0.029576458            3 
 2020000   0.93321789   -6.8179408    717.11111  0.029583791  0.029569137           10 
 2021000    0.9281579   -6.8326139    715.86588  0.029517808   0.02956174            6 
 2022000   0.91887482   -6.8107649    717.10414  0.029554242  0.029554431            9 
 2023000   0.92381017   -6.7847702    718.35738  0.029591258  0.029547095            7 
 2024000    0.9511359   -6.8308089    717.64302  0.029547226  0.029539683            4 
 2025000   0.91341871   -6.7780486    717.49836  0.029526681  0.029532272            2 
 2026000   0.93830927   -6.8141001    717.82528  0.029525555  0.029524986            2 
 2027000   0.91581056   -6.8189966     717.4792   0.02949676  0.029517662            8 
 2028000    0.9250756   -6.8437681    716.59334  0.029445815  0.029510344            7 
 2029000   0.91656573   -6.8144272    717.86655  0.029483594  0.029502978            5 
 2030000   0.93151121   -6.8391755    718.70434  0.029503462  0.029495684            7 
 2031000   0.93587149    -6.845244    719.16218  0.029507721  0.029488376            6 
 2032000   0.91988909   -6.8279662    716.69678  0.029392092  0.029480975            6 
 2033000   0.89879205   -6.8558369    717.35665  0.029404683  0.029473525            7 
 2034000   0.92561438   -6.7971139    719.16413  0.029464279  0.029466009            6 
 2035000   0.90865597   -6.8503233        719.2  0.029451269  0.029458597            3 
 2036000   0.93559754   -6.8219854    722.32392  0.029564666   0.02945117            6 
 2037000   0.92871523   -6.8142172    718.21448  0.029382036   0.02944375           12 
 2038000   0.91779315   -6.8333385    718.74624  0.029389362  0.029436249            6 
 2039000   0.92511465   -6.8222257    718.87893  0.029380371  0.029428753            9 
 2040000   0.92253812   -6.8396996    718.31154  0.029342792  0.029421259            4 
 2041000   0.91457607   -6.8160497    720.58125  0.029421087  0.029413672           15 
 2042000   0.91615501   -6.8015253     719.0414  0.029343838  0.029406138            5 
 2043000   0.92175599   -6.8004203     721.8996   0.02944606   0.02939865            5 
 2044000   0.94389977   -6.8203885     719.1037  0.029317666  0.029391178            5 
 2045000   0.92525096   -6.8351173    721.80546  0.029413425  0.029383744            2 
 2046000     0.932228   -6.8770236    721.06582  0.029368924  0.029376227            3 
 2047000   0.94432181   -6.8610413    721.21887  0.029360807  0.029368797            5 
 2048000   0.92315875   -6.8169148    720.76289  0.029327917  0.029361434            3 
 2049000   0.93491636   -6.8513348    719.95981  0.029280942  0.029354113            5 
 2050000   0.93105376   -6.8494172    722.84273  0.029383851  0.029346704            3 
 2051000   0.91898311   -6.8332395    721.53861  0.029316537  0.029339292            6 
 2052000    0.9221448    -6.818046    720.53446  0.029261471  0.029331885            4 
 2053000   0.92105207   -6.8197406    721.64093   0.02929213  0.029324433            4 
 2054000   0.91716465   -6.8558291    721.59662  0.029276072   0.02931701            5 
 2055000   0.93336173    -6.852267    721.61665  0.029262638  0.029309468            9 
 2056000   0.91868275    -6.843421    721.67365  0.029250716  0.029301928           10 
 2057000   0.90939276   -6.8340082    722.85075  0.029284182  0.029294446            2 
 2058000   0.92004356    -6.851697    721.40862  0.029211557  0.029286955            4 
 2059000   0.90539025   -6.8278209    724.47878  0.029321628  0.029279417            3 
 2060000   0.91125584   -6.8347654    722.66226   0.02923391  0.029271931            3 
 2061000   0.91747731    -6.829122    722.62176  0.029218088  0.029264409            7 
 2062000    0.9171477   -6.8101088    723.08181  0.029222511  0.029256962            3 
 2063000   0.93148167   -6.8352685    725.14996  0.029291887  0.029249455            4 
 2064000   0.90998585   -6.8157516    722.96493  0.029189475  0.029241982            3 
 2065000   0.91182744   -6.8755903    722.75587  0.029166904  0.029234511            7 
 2066000   0.93525933   -6.8328493    724.78152  0.029234492  0.029227058            4 
 2067000   0.90799743   -6.8473806    722.92628  0.029145552  0.029219607            5 
 2068000   0.91516021   -6.8125955    723.76106  0.029165097  0.029212137            3 
 2069000   0.93622435     -6.85059    722.51017  0.029100619  0.029204626            3 
 2070000   0.91349748   -6.8806681    722.52389  0.029087113   0.02919704            4 
 2071000   0.92863318   -6.8350156     723.8146  0.029125004  0.029189518            4 
 2072000   0.90217268    -6.816504    726.08081  0.029202092  0.029182008           12 
 2073000   0.94694274   -6.8460189    724.35406  0.029118591  0.029174472            7 
 2074000   0.92348417   -6.8305531    725.33267  0.029143871  0.029167003            7 
 2075000    0.9199622   -6.8078719    726.25634  0.029166921  0.029159423           17 
 2076000   0.92648804   -6.8612725    724.89183  0.029098098  0.029151959            8 
 2077000   0.93741294   -6.8503992      725.198  0.029096373  0.029144427            5 
 2078000   0.91942977   -6.8266157    726.48719  0.029134071  0.029136856            5 
 2079000   0.91405365   -6.8439567    725.09821  0.029064382  0.029129326           10 
 2080000    0.9198611   -6.8077087    727.97401  0.029165625  0.029121782            9 
 2081000    0.9158328   -6.8778664    725.72375  0.029061499  0.029114299            4 
 2082000   0.92348869   -6.8608629    724.53657  0.029000023  0.029106688            6 
 2083000   0.91204064   -6.8333086    724.57993  0.028987835  0.029099174            2 
 2084000   0.93250122   -6.8102153     725.9354  0.029028127  0.029091626            3 
 2085000    0.9058896   -6.8395847     727.1727  0.029063657  0.029084131            7 
 2086000   0.89420979   -6.8277991    726.75816  0.029033164  0.029076581            7 
 2087000   0.91657942   -6.8561432    726.61687  0.029013611  0.029069034            4 
 2088000   0.90210671   -6.8037158    726.97089  0.029013845  0.029061488            7 
 2089000   0.91915152   -6.7929404    727.50982  0.029021455  0.029053973            4 
 2090000   0.90320282   -6.8586727    725.49704  0.028927314  0.029046474           11 
 2091000   0.91275213   -6.8536342    727.27703  0.028984418  0.029038962            4 
 2092000   0.91048473   -6.8077947    728.58278  0.029022577  0.029031431            4 
 2093000    0.8975878   -6.8545242    728.13071  0.028990712  0.029023861            5 
 2094000   0.95601653   -6.8525885    728.23812  0.028981141  0.029016395            7 
 2095000   0.93552164   -6.8361493    727.93446  0.028955229  0.029008862            7 
 2096000   0.93192814   -6.8379654    726.84261  0.028898005  0.029001324            9 
 2097000    0.8930063   -6.8186816    729.03625  0.028971398  0.028993843            6 
 2098000   0.92273482     -6.86123    727.81567  0.028909107   0.02898634            4 
 2099000   0.93984432   -6.8326404    727.60021   0.02888678   0.02897886            7 
 2100000   0.91999731   -6.8295392    727.95484  0.028887097   0.02897135            3 
 2101000   0.90396646   -6.8692977    728.20063  0.028883096  0.028963751            4 
 2102000    0.9258476   -6.8433952    728.64581  0.028887005  0.028956106            6 
 2103000   0.94479462   -6.8301169     728.3888  0.028863085  0.028948534            3 
 2104000   0.92660814    -6.852314    728.76745  0.028864364  0.028940955            3 
 2105000   0.91369548    -6.841142     729.8353  0.028892925  0.028933354            6 
 2106000   0.91176562   -6.8485246     730.2742  0.028896573   0.02892574            6 
 2107000   0.90399536   -6.8358867    728.20702    0.0288011  0.028918162            6 
 2108000   0.92112534   -6.8814011    728.07738  0.028782313  0.028910562           16 
 2109000   0.91730912   -6.8376796    728.29989  0.028777457  0.028902871           10 
 2110000   0.91977994   -6.8407853    728.16732  0.028758583  0.028895207            4 
 2111000   0.92492714   -6.8433024    730.20382  0.028825352  0.028887545            4 
 2112000   0.91371111   -6.8826405    728.08551  0.028728122  0.028879876            8 
 2113000   0.92003984   -6.8447565    729.58171  0.028773533  0.028872155            7 
 2114000   0.89244588    -6.850274    729.99771  0.028776321    0.0288644            5 
 2115000   0.91452274   -6.8684079    730.11489  0.028767332   0.02885674            6 
 2116000   0.92173776    -6.810066    731.51168  0.028808746  0.028849081            6 
 2117000   0.91644797   -6.8449465    730.55118  0.028757329   0.02884144            6 
 2118000   0.93285452   -6.8494027    730.85971   0.02875589  0.028833825            3 
 2119000   0.90318491   -6.8735237    731.96195  0.028785667   0.02882618            5 
 2120000   0.90537865   -6.8528327    731.24663  0.028743971  0.028818645            3 
 2121000   0.91880787   -6.8648944     730.7674   0.02871159   0.02881097            4 
 2122000   0.92653632   -6.8328508    732.43706   0.02876363  0.028803362            5 
 2123000   0.91091852   -6.8299424    732.71874  0.028761137  0.028795829            5 
 2124000   0.91276427   -6.8390338    733.10336  0.028762687  0.028788257            5 
 2125000   0.90182418   -6.8752534    732.38605  0.028721022  0.028780725            3 
 2126000   0.91590093   -6.8558975    730.33368  0.028627065  0.028773105            4 
 2127000   0.91132767   -6.8724966    730.68484  0.028627364   0.02876543            4 
 2128000    0.9077671   -6.8471493    732.32515  0.028678147  0.028757736            6 
 2129000    0.9199419   -6.8518973    730.73926  0.028602602  0.028750072            6 
 2130000   0.89820031   -6.8229239    733.44058  0.028694858  0.028742483            6 
 2131000   0.90808406   -6.8549733    731.41998  0.028602377  0.028734806            4 
 2132000   0.92722461     -6.85767     733.3349  0.028663809  0.028727151            7 
 2133000   0.92963492   -6.8730564    734.24478  0.028685919  0.028719543            3 
 2134000   0.92048498    -6.851428    731.92204  0.028581773  0.028711941            7 
 2135000   0.91103417   -6.8532101    734.38319  0.028664449  0.028704342            6 
 2136000    0.8968136   -6.8384475    734.02059  0.028636883  0.028696823            3 
 2137000   0.93115207   -6.8313001    733.34488  0.028597133  0.028689328            3 
 2138000   0.89074758   -6.8281485    734.93377  0.028645688  0.028681722            8 
 2139000   0.90885449   -6.8483349    733.94681  0.028593845  0.028674212            5 
 2140000   0.92867028   -6.8806672    733.63871  0.028568486  0.028666663            4 
 2141000   0.90062666   -6.8627769      734.865  0.028602872  0.028659118            9 
 2142000   0.91299415   -6.8668521    733.36199  0.028531045  0.028651619            5 
 2143000   0.90154565    -6.884565    736.22436  0.028629039  0.028644054            4 
 2144000   0.93070688    -6.873091    734.71728  0.028557108  0.028636524            6 
 2145000   0.91174461   -6.8159427    735.42731   0.02857138  0.028628978            7 
 2146000   0.91104199   -6.8629705    735.60941  0.028565137  0.028621523            9 
 2147000   0.91312917   -6.8698817     736.8313  0.028599258  0.028613971            4 
 2148000   0.92671802   -6.8523248     736.2271  0.028562504  0.028606442           10 
 2149000   0.91641655   -6.8944512    735.58575  0.028524343  0.028598885            3 
 2150000   0.94254975   -6.8755883    736.61528   0.02855098  0.028591351            7 
 2151000   0.89562243   -6.8621201     736.1253  0.028518724  0.028583768           15 
 2152000   0.88770775   -6.8669792    736.45344  0.028518178  0.028576228            9 
 2153000   0.90647809   -6.8608892    736.39894  0.028502823  0.028568653            6 
 2154000   0.91846927   -6.8463679     735.5703  0.028457533  0.028561145            6 
 2155000   0.93095895   -6.8466682    737.22915  0.028508474  0.028553591            3 
 2156000   0.91138134   -6.8337257    736.51821  0.028467773  0.028546004            4 
 2157000   0.91111242   -6.8656251    737.30696  0.028485047  0.028538454            6 
 2158000   0.90839316    -6.852639    736.43761  0.028438277  0.028530905            5 
 2159000   0.91108299   -6.8687862    737.11767  0.028451354  0.028523274            9 
 2160000   0.90797234   -6.8223185    737.23624  0.028442756  0.028515726            5 
 2161000   0.90132362   -6.8667543    738.31632  0.028471245  0.028508186           13 
 2162000   0.92672628   -6.8383298    739.77061  0.028514131  0.028500647            7 
 2163000   0.90486325   -6.8753565    739.57353  0.028493355  0.028493172           13 
 2164000   0.89232294   -6.8556521    738.82381  0.028451317  0.028485665            5 
 2165000   0.89689592   -6.8834285    737.85534  0.028400898  0.028478156           13 
 2166000   0.91766105   -6.8706043    740.48287  0.028488876  0.028470703            3 
 2167000    0.9141351    -6.858927    738.68325  0.028406524  0.028463309            5 
 2168000   0.90400807    -6.859264    739.09797  0.028409362  0.028455858            7 
 2169000   0.91525176   -6.8460525     741.4745  0.028487571  0.028448435            5 
 2170000   0.89918782   -6.8816546    739.50082  0.028398649  0.028441025           14 
 2171000    0.8969128    -6.866718    742.28641  0.028492492   0.02843368            6 
 2172000   0.91354593   -6.8770015    739.17849  0.028360132  0.028426279           10 
 2173000   0.91404164   -6.8257839    742.96329  0.028492226  0.028418875            2 
 2174000   0.89398292   -6.9130843    741.66924  0.028429517  0.028411431            6 
 2175000   0.89829177   -6.8963043    741.92423  0.028426216  0.028403966            6 
 2176000   0.90725816   -6.8764125    741.25455  0.028387506   0.02839647            4 
 2177000   0.91073757   -6.8764684    739.20107  0.028295861  0.028388997           11 
 2178000   0.89636872   -6.8799957    739.44626  0.028292251  0.028381471            3 
 2179000   0.91149343   -6.8516671     741.7873  0.028368797   0.02837393            5 
 2180000   0.90878026   -6.9022701    741.35092  0.028339102  0.028366421            7 
 2181000   0.89133045   -6.8577903    741.21668   0.02832098  0.028358914            3 
 2182000   0.92457681   -6.8904825     743.7058  0.028403063  0.028351442            7 
 2183000   0.92679553   -6.8544871    742.39946  0.028340184  0.028344011            7 
 2184000   0.89032157   -6.8973815    742.28455  0.028322823  0.028336622            3 
 2185000   0.88848971   -6.8607659    745.20865  0.028421383  0.028329221            5 
 2186000   0.91987783   -6.8691598    742.54822  0.028306962  0.028321881            4 
 2187000   0.90290799    -6.894974    742.19598  0.028280597  0.028314441            7 
 2188000   0.91375876   -6.8882264    742.65538  0.028285168  0.028306954            7 
 2189000   0.88975718   -6.8639335    743.06593  0.028287876   0.02829957           13 
 2190000   0.89795679   -6.9023104    743.13677  0.028277655  0.028292079            6 
 2191000   0.90782827   -6.8788082    741.81475  0.028214466  0.028284639            6 
 2192000   0.90378895   -6.9032151    742.98425  0.028246056  0.028277123            5 
 2193000   0.89889585   -6.9075773    743.80703  0.028264441  0.028269688            4 
 2194000   0.86630748   -6.8996026    741.04134  0.028146511   0.02826222            6 
 2195000   0.89316069   -6.8436087    742.93205  0.028205469   0.02825486            3 
 2196000   0.90204542   -6.8709375    745.07575  0.028273973    0.0282475           15 
 2197000   0.92433492   -6.8880482    745.65627  0.028283123  0.028240176           12 
 2198000   0.91611784   -6.8853449     744.1743   0.02821407  0.028232808            7 
 2199000   0.89348517   -6.8917415    745.90044  0.028266653  0.028225472            9 
 2200000   0.90762205   -6.8779638    746.01881  0.028258288   0.02821812            4 
 2201000   0.89834228   -6.8997941    745.75266  0.028235373  0.028210781            8 
 2202000   0.89333669   -6.9024611     745.9779  0.028231074  0.028203482            5 
 2203000   0.90499674   -6.8604978    745.53845  0.028201636  0.028196131            6 
 2204000   0.90626421   -6.8781371    746.54737  0.028226988  0.028188809           14 
 2205000   0.89121604   -6.8970694    745.03729  0.028157116  0.028181495            4 
 2206000   0.88671353   -6.8808123    746.23756  0.028189693  0.028174153            5 
 2207000   0.91015853   -6.9124251    746.58293  0.028189961  0.028166751            4 
 2208000   0.89830522   -6.8745921    745.42758  0.028133589  0.028159343            4 
 2209000   0.90999278   -6.8803448    747.63779  0.028204232  0.028151988            9 
 2210000   0.88505524   -6.8759877    746.14793  0.028135292  0.028144582            5 
 2211000   0.90300869   -6.9043058    746.74368   0.02814502  0.028137236           14 
 2212000   0.90242012   -6.8875103    747.63411  0.028165842  0.028129949            3 
 2213000   0.88960817   -6.9236201    747.71822  0.028156282  0.028122565            5 
 2214000   0.91456743   -6.8984263     748.0926  0.028157656  0.028115274            7 
 2215000   0.89419863   -6.8732052    749.07599  0.028181941  0.028108069            6 
 2216000   0.89718842    -6.904102    750.17321  0.028210485  0.028100835           11 
 2217000    0.8911943   -6.8762581    749.01595  0.028154261   0.02809368            8 
 2218000   0.90490113   -6.8785779    749.50553  0.028159961  0.028086514            4 
 2219000   0.91625375   -6.8826739    748.63892  0.028114726  0.028079338            9 
 2220000    0.9123699    -6.901615    749.39256  0.028130351   0.02807218            5 
 2221000   0.90706691   -6.8708621     750.5269  0.028160247     0.028065            6 
 2222000   0.88410636   -6.8955388    750.64269  0.028151916  0.028057753            6 
 2223000   0.89605775   -6.8829977    749.46018  0.028094923  0.028050572            6 
 2224000    0.8967603   -6.8928549     750.0971  0.028106156  0.028043384            7 
 2225000   0.90742775   -6.8814247    751.90483   0.02816123  0.028036229            5 
 2226000   0.90508217   -6.8795162    751.95011  0.028150274  0.028029139           12 
 2227000   0.89981184   -6.8829377    752.28574  0.028150192  0.028022023            8 
 2228000   0.91184152     -6.87571    752.87061  0.028159433   0.02801497            6 
 2229000   0.90343164   -6.8798926    753.51542  0.028170907   0.02800797            9 
 2230000   0.90367464   -6.8760069    754.65403  0.028200823  0.028000879            6 
 2231000   0.92744933   -6.9015972    753.13888  0.028131588  0.027993819            3 
 2232000   0.89863604   -6.9112217    752.11555  0.028080778    0.0279867            5 
 2233000   0.89538497   -6.9220537    751.06401   0.02802896  0.027979583            3 
 2234000    0.8952592   -6.8631701     754.8025  0.028155868  0.027972474            5 
 2235000   0.89072995   -6.8614576    752.81324  0.028069099  0.027965432            3 
 2236000   0.90864366   -6.8921889    751.61965  0.028012062  0.027958328            7 
 2237000   0.89863448   -6.8757422    754.80487  0.028118197  0.027951272            4 
 2238000   0.88200682   -6.8787142    755.39169  0.028127483  0.027944284            4 
 2239000   0.89160137   -6.8712348    754.27793  0.028073468  0.027937313            7 
 2240000   0.89252173   -6.9076751    752.96348  0.028012034  0.027930294            8 
 2241000   0.90875843   -6.8688899     754.9738   0.02807429  0.027923312            6 
 2242000   0.90138621   -6.9069052    755.78566  0.028091944  0.027916316            4 
 2243000   0.90716488   -6.9106355    755.59928  0.028072495  0.027909345            7 
 2244000   0.89345693   -6.8602915      757.101  0.028115753  0.027902426            4 
 2245000   0.90081195   -6.8613161    756.37558  0.028076302  0.027895492            6 
 2246000   0.89793014   -6.8693835    756.78134  0.028078857  0.027888565            8 
 2247000   0.87798014   -6.8951261    755.89219  0.028033385  0.027881611            4 
 2248000   0.90489651   -6.8850936    755.03889  0.027989283  0.027874671            8 
 2249000   0.89739209   -6.8588666    759.05853  0.028125779  0.027867765            4 
 2250000   0.89073073   -6.8840685    758.44172  0.028090434   0.02786086            5 
 2251000   0.88275452   -6.8845775    757.22364  0.028032861  0.027854017           10 
 2252000   0.90072793   -6.8613407    758.30439  0.028060405  0.027847135            9 
 2253000   0.89960531   -6.9114472    759.10365  0.028077513  0.027840217            5 
 2254000   0.90576746   -6.8820228    757.89325  0.028020306  0.027833355            5 
 2255000   0.87680847   -6.9129445    758.00815  0.028012127  0.027826525            7 
 2256000   0.87978853   -6.9198838    757.37796  0.027976432  0.027819599            5 
 2257000   0.86544634   -6.9070667    757.36987  0.027963738  0.027812661            3 
 2258000   0.88495966   -6.8785109    757.74905  0.027965347  0.027805777            6 
 2259000   0.92057645   -6.9059721    760.23576  0.028044701  0.027798906            8 
 2260000   0.88961762   -6.8729454    757.07851  0.027915874   0.02779212            3 
 2261000   0.88333012   -6.9064818    757.97119  0.027936429  0.027785314            6 
 2262000   0.90542658    -6.888688    758.43523  0.027941174  0.027778461            5 
 2263000   0.89992862   -6.9044688    758.59803  0.027934822  0.027771608            9 
 2264000   0.88733387   -6.8973902     760.9288  0.028008274  0.027764758            4 
 2265000   0.88496333    -6.887453    761.68533  0.028023743  0.027757937            5 
 2266000   0.89053987   -6.8899372    760.17835  0.027955956  0.027751109            3 
 2267000   0.88983564   -6.8977165     758.6256  0.027886546  0.027744283            5 
 2268000   0.90353455   -6.8657983    761.52226  0.027980683  0.027737546            5 
 2269000   0.88149672   -6.9182801    759.72763   0.02790244  0.027730746            6 
 2270000   0.90373354   -6.9278908    758.32627  0.027838703  0.027723858           10 
 2271000   0.86574177    -6.876107    761.54556  0.027944575  0.027717002            4 
 2272000   0.89155941   -6.9185217    759.77575  0.027867362  0.027710197           11 
 2273000   0.88478022    -6.870867     764.2216  0.028018096  0.027703409            3 
 2274000     0.887134   -6.8991066    762.97249  0.027960001  0.027696697            4 
 2275000     0.885147   -6.9035383    762.52326  0.027931255  0.027689926            7 
 2276000   0.87368097   -6.9089104    762.11663  0.027904094  0.027683109           11 
 2277000   0.89038771   -6.9205308    762.64299  0.027911104   0.02767625           16 
 2278000   0.89453883   -6.8985646    762.84014  0.027906063  0.027669432            3 
 2279000   0.87347387   -6.9200852    760.96342  0.027825194   0.02766265            6 
 2280000   0.87669535   -6.9058181    761.39047  0.027828599  0.027655857            3 
 2281000   0.88012328    -6.944116    760.59386  0.027787296  0.027649027            5 
 2282000   0.89475218   -6.8922444      762.933  0.027860539  0.027642166            4 
 2283000   0.87371158   -6.9219045     762.9166  0.027847737  0.027635301            5 
 2284000   0.88034644   -6.8901732    762.97792  0.027837782  0.027628442            4 
 2285000   0.88336313   -6.9211807    762.30589   0.02780109  0.027621633            5 
 2286000   0.86110996   -6.9329649    760.80593   0.02773425  0.027614778            9 
 2287000   0.89526907   -6.9090418    761.78974   0.02775797  0.027607852            6 
 2288000   0.90310724   -6.9016156    763.93674  0.027824036  0.027601006            6 
 2289000   0.88875656   -6.9013244    764.03408  0.027815424  0.027594151            8 
 2290000   0.88625683   -6.8975076    763.31919  0.027777263  0.027587306            6 
 2291000   0.87080606   -6.8962639    765.36519   0.02783956   0.02758049            5 
 2292000   0.89160677   -6.8950432    762.77625  0.027733284  0.027573608            8 
 2293000   0.89354715   -6.9280219    763.61591  0.027751705  0.027566678            5 
 2294000   0.88060979   -6.8579068    764.68986   0.02777862  0.027559861            6 
 2295000   0.90038407   -6.8830081    764.93301  0.027775345  0.027553076            9 
 2296000   0.88273026    -6.939459    761.87292  0.027652182   0.02754624            8 
 2297000   0.87861145   -6.9180803    765.04919  0.027755376  0.027539316           12 
 2298000   0.89190252   -6.8796654    765.13468  0.027746398  0.027532486            5 
 2299000   0.89307013   -6.8973072    763.04871  0.027658718  0.027525639            6 
 2300000   0.88404317   -6.9035171    763.38991  0.027659055  0.027518723            6 
 2301000   0.87672133   -6.8984188    764.62237  0.027691669  0.027511806            5 
 2302000   0.88087799    -6.914162    765.71969  0.027719363  0.027504886            4 
 2303000   0.85476976    -6.920071    763.36602   0.02762216  0.027497908            4 
 2304000   0.88276723    -6.898988    763.92089  0.027630241  0.027490911            5 
 2305000   0.87037525   -6.9467872    764.21247  0.027628795   0.02748394            9 
 2306000   0.87515754   -6.9226629    765.06196  0.027647512  0.027476978            9 
 2307000   0.87811669   -6.9481916     762.5055  0.027543184  0.027469927            2 
 2308000   0.86614753   -6.9001985    764.98278  0.027620695  0.027462941            4 
 2309000   0.88938729   -6.9213888    766.63268  0.027668279  0.027455959            5 
 2310000   0.88548173   -6.9021266    764.86781  0.027592634  0.027448941           10 
 2311000   0.88606713   -6.9260266     766.6508  0.027644988   0.02744196            4 
 2312000   0.88683519   -6.9294938    764.97407  0.027572595  0.027434992            5 
 2313000    0.8868151   -6.9069259    765.83259  0.027591605  0.027428042            7 
 2314000   0.87309699   -6.9264689    766.37606  0.027599253  0.027421097            3 
 2315000   0.87509465   -6.8766452    767.24289  0.027618534  0.027414195            5 
 2316000   0.87263014   -6.8918583    766.08469  0.027564935   0.02740723            4 
 2317000   0.88600596   -6.9020124    768.70384  0.027647239   0.02740026            4 
 2318000   0.87091874   -6.9172701    766.66622  0.027562059  0.027393242            3 
 2319000   0.87529896   -6.9353934    766.16695  0.027532232  0.027386269            8 
 2320000    0.8711488   -6.9513545    766.69785  0.027539434  0.027379304            8 
 2321000   0.89664555    -6.928754    767.28135  0.027548519  0.027372347            5 
 2322000   0.86152045   -6.9367288    765.61228  0.027476754  0.027365374            5 
 2323000   0.88695029   -6.8985932    767.65163  0.027538084  0.027358385           12 
 2324000   0.87273613   -6.9335298    766.50479  0.027485111  0.027351432            5 
 2325000   0.88738848   -6.9522556    766.58301  0.027476094  0.027344476            8 
 2326000   0.86652209   -6.9122085    768.20323  0.027522329  0.027337528            6 
 2327000   0.87591824    -6.906799    765.84234  0.027425954  0.027330603            4 
 2328000   0.87647616   -6.9149442    768.88386  0.027523048  0.027323622            4 
 2329000   0.85913932   -6.9493477    767.84819  0.027474173  0.027316615            5 
 2330000   0.88529282   -6.9139413    768.19378  0.027474742  0.027309604            9 
 2331000   0.84654272   -6.9228228    767.18967  0.027427058  0.027302642            9 
 2332000   0.87515735   -6.8863833      771.333  0.027563358  0.027295686            8 
 2333000   0.86693723   -6.9243056    769.16021  0.027473932  0.027288749            4 
 2334000   0.86701623   -6.9123238    769.09383  0.027459791  0.027281832            8 
 2335000   0.87828797   -6.9302988    770.76957  0.027507836  0.027274913           10 
 2336000   0.85891304    -6.925664    769.79939  0.027461451  0.027268011            4 
 2337000   0.88762197   -6.9227584    770.38646  0.027470634  0.027261066            5 
 2338000   0.88487449   -6.9262606    769.42064   0.02742446  0.027254207            8 
 2339000   0.88773134   -6.9391338    769.44322  0.027413539  0.027247304            5 
 2340000   0.88909621   -6.8918155    770.39987  0.027435893   0.02724038            9 
 2341000   0.87672586    -6.944285    768.65542  0.027362075  0.027233392            8 
 2342000   0.87751936   -6.9317214    769.08305  0.027365608  0.027226489            8 
 2343000    0.8843049   -6.9430052    769.27072  0.027360603  0.027219554            3 
 2344000   0.87821039   -6.9249299    770.90248  0.027406942  0.027212579            6 
 2345000    0.8688892   -6.9328737     769.6814  0.027351862  0.027205728           13 
 2346000   0.88364959    -6.890934    771.45472  0.027403194  0.027198854            4 
 2347000    0.8640888   -6.9229161    771.23666  0.027383776  0.027191955           13 
 2348000    0.8762342   -6.9287347    771.28389  0.027373789  0.027185017            6 
 2349000    0.8803305    -6.946525    771.06208  0.027354267  0.027178141            6 
 2350000   0.86433761   -6.9342541    769.76457  0.027296616  0.027171229            5 
 2351000   0.87681647   -6.9073205    772.17042  0.027370283  0.027164309            3 
 2352000   0.88005573   -6.9508117    769.86274  0.027276883  0.027157409            5 
 2353000   0.87817474   -6.9144435     773.0038  0.027376534   0.02715055            4 
 2354000   0.89822013   -6.9421593    772.14879  0.027334636  0.027143688            7 
 2355000   0.87706913   -6.9350924    770.98084    0.0272817    0.0271368            5 
 2356000   0.87767721   -6.9267678    771.99191  0.027305883  0.027129917            6 
 2357000   0.88912808   -6.8882572    772.85814  0.027324924  0.027123059            7 
 2358000   0.89382207   -6.9298203    772.09389  0.027286326  0.027116224            6 
 2359000   0.86911272   -6.9135585    773.29303   0.02731712  0.027109346            9 
 2360000   0.88519215   -6.9280298    772.00581  0.027260092  0.027102494            7 
 2361000   0.86476993   -6.9128901    773.84712  0.027313537  0.027095653            8 
 2362000   0.88208719    -6.939705    773.80669  0.027300546  0.027088827            5 
 2363000     0.877814   -6.9167041    774.51185  0.027313861  0.027082001            6 
 2364000   0.87743018   -6.9321811    775.36501  0.027332382  0.027075156            6 
 2365000    0.8892814   -6.9000632    772.71509  0.027227452  0.027068346            9 
 2366000   0.87309499   -6.9264474    775.13814  0.027301287  0.027061591            5 
 2367000   0.86728679   -6.9022658     776.1767  0.027326317  0.027054854           12 
 2368000   0.87943294   -6.9587649    775.50923  0.027291288  0.027048063            8 
 2369000    0.8720039   -6.9399762     775.3389  0.027273776  0.027041304            7 
 2370000   0.86851646    -6.942696    776.43517  0.027300815  0.027034571            6 
 2371000   0.85821564   -6.9062795    776.76576  0.027300919  0.027027884           19 
 2372000   0.88785261   -6.9357229    774.97623   0.02722654  0.027021151            6 
 2373000   0.88086292   -6.9324795    777.90193  0.027317809  0.027014455            8 
 2374000   0.88544987   -6.9213673    778.36865  0.027322685  0.027007804            4 
 2375000   0.88404338   -6.9519281    778.47439  0.027314891   0.02700116            5 
 2376000   0.88373504   -6.9525162    775.87705  0.027212298  0.026994482            7 
 2377000   0.86480242   -6.9454041    779.02451  0.027311194  0.026987877            5 
 2378000   0.88785074   -6.9277058    777.92086  0.027261034  0.026981289            5 
 2379000   0.88841865   -6.9298422    776.27816  0.027192033  0.026974633            5 
 2380000   0.85600415   -6.9005636    779.07305  0.027278468  0.026968062           12 
 2381000   0.86817775    -6.927567    779.96877  0.027298361  0.026961563            6 
 2382000   0.86665799   -6.9361684    779.43755  0.027268316  0.026954936            7 
 2383000   0.86992282   -6.9684855    776.40636  0.027150873  0.026948242            5 
 2384000   0.85636877    -6.924205     777.9066  0.027191925  0.026941522            5 
 2385000   0.88629316   -6.9540207    778.54614   0.02720287  0.026934824            4 
 2386000   0.85579869   -6.9192536    779.96489   0.02724102  0.026928191            3 
 2387000   0.86067289    -6.893962    778.51418  0.027178962  0.026921585            5 
 2388000   0.87893824   -6.9051518    779.38605  0.027198006  0.026914998            6 
 2389000   0.88993913   -6.9537177    777.66085  0.027126442  0.026908351            3 
 2390000   0.86577177   -6.9040925     778.8371  0.027156105  0.026901672           13 
 2391000    0.8748663   -6.9498017    778.31059  0.027126397  0.026895064            4 
 2392000    0.8583236   -6.9312485    779.30412   0.02714967  0.026888434            7 
 2393000   0.87270575   -6.9857996    779.07643  0.027130395  0.026881684            5 
 2394000   0.86482241   -6.9366275    780.14518  0.027156265  0.026875009            4 
 2395000   0.86178045   -6.9472701    779.87069  0.027135375  0.026868361            7 
 2396000   0.84715667   -6.9508346    779.46749  0.027110027  0.026861739            6 
 2397000   0.87503042   -6.9251699    780.51411  0.027135103  0.026855163           12 
 2398000   0.86453913    -6.924107    779.66413   0.02709425  0.026848622            6 
 2399000   0.87429505   -6.9605883    780.92725  0.027126833  0.026842062            3 
 2400000   0.88981847   -6.9279697    784.52978  0.027240617   0.02683548            3 
 2401000   0.84882916   -6.9468098    782.29002  0.027151535  0.026828982            3 
 2402000   0.85557545   -6.9496721     783.1432  0.027169831  0.026822366            8 
 2403000   0.86138144   -6.9477805    782.58039  0.027139006  0.026815777            7 
 2404000   0.88723986   -6.9774608    782.22429  0.027115373  0.026809191            7 
 2405000   0.85758321    -6.953004    781.80074  0.027089423   0.02680258            7 
 2406000   0.87294638   -6.9310322    780.58303  0.027035987  0.026795961            6 
 2407000   0.87438058   -6.9340697    782.91672   0.02710555  0.026789364            7 
 2408000   0.86643319    -6.939575      781.725  0.027053052  0.026782778           11 
 2409000   0.86662556   -6.9640532    781.85987  0.027046488  0.026776213            7 
 2410000   0.84790094   -6.9543891    784.46251   0.02712526  0.026769649            3 
 2411000   0.87792741   -6.9418687    783.27218  0.027072867  0.026763118            7 
 2412000   0.87406192   -6.9483109    784.48391  0.027103507  0.026756592            6 
 2413000    0.8613348   -6.9591766    784.60847  0.027096576  0.026750063            5 
 2414000   0.85364697   -6.9359749    783.84514  0.027059001  0.026743542            5 
 2415000     0.870397   -6.9158829    784.93953   0.02708556  0.026737027            4 
 2416000   0.84418192   -6.9387005    784.18345   0.02704827  0.026730571            4 
 2417000   0.86255974   -6.9523093    781.84045  0.026956297  0.026724007            8 
 2418000   0.84987761   -6.9675557    784.69449   0.02704351  0.026717478            7 
 2419000   0.84820848   -6.9395109    786.72057  0.027102128  0.026711037            6 
 2420000   0.87439788   -6.9306127    785.41852  0.027046092  0.026704562           13 
 2421000   0.86995326    -6.929509    784.54385  0.027004814  0.026698094            8 
 2422000   0.85613776   -6.9396439    786.19054  0.027050321  0.026691624            8 
 2423000    0.8663724   -6.9292222    786.26232  0.027041626  0.026685096            7 
 2424000   0.88018407   -6.9391588    785.18251  0.026993348  0.026678551           12 
 2425000   0.86943135   -6.9632276    785.21543  0.026983348  0.026671965           10 
 2426000   0.86227072   -6.9591578    784.72523  0.026955387  0.026665355            4 
 2427000   0.85723711   -6.9443785    787.18111  0.027028606  0.026658792            5 
 2428000   0.84489914   -6.9499048    785.91332  0.026973961  0.026652175            6 
 2429000    0.8422446   -6.9341419    788.01023  0.027034796  0.026645623           12 
 2430000   0.86335074   -6.9541978    785.48888  0.026937204  0.026639135           10 
 2431000   0.87267518   -6.9494328    787.20238  0.026984862  0.026632641            4 
 2432000   0.85240431   -6.9402839    787.94748  0.026999297  0.026626132            6 
 2433000   0.87798293   -6.9487278    786.74939  0.026947163  0.026619659            7 
 2434000   0.86617258   -6.9593059    786.55343  0.026929383   0.02661321            4 
 2435000   0.88480913    -6.964394     786.6809  0.026922686  0.026606661            6 
 2436000   0.87722875    -6.982367    786.06586  0.026890595   0.02660011            6 
 2437000   0.86218093   -7.0007653    783.92241  0.026806265  0.026593558            6 
 2438000   0.89430524   -6.9555468    788.10016  0.026938069  0.026587018            3 
 2439000   0.87160338   -6.9440497    787.41699  0.026903683  0.026580499            7 
 2440000   0.87897388   -6.9606549    787.42721  0.026893006  0.026573985            8 
 2441000   0.88542282   -6.9393598    787.63422  0.026889056   0.02656761            4 
 2442000   0.84497106   -6.9680854    789.57156  0.026944156  0.026561157            2 
 2443000   0.86079643   -6.9470171    788.70834  0.026903682  0.026554693           10 
 2444000   0.86923702   -6.9653536    786.60165  0.026820842  0.026548259            3 
 2445000   0.84879524   -6.9396036    788.48769  0.026874154  0.026541817            6 
 2446000   0.87218441   -6.9345016    789.32533  0.026891705  0.026535403            3 
 2447000   0.86235354   -6.9503942    788.24628  0.026843968  0.026528902            8 
 2448000   0.85808663   -6.9664463    790.31692   0.02690349   0.02652237            5 
 2449000   0.84667522   -6.9460425    788.34203  0.026825304   0.02651586            7 
 2450000   0.85297509   -6.9530454    789.31742  0.026847531  0.026509406            8 
 2451000   0.88236971   -6.9522344    786.88692  0.026753941  0.026502859            7 
 2452000   0.85193443   -6.9115847    790.17568  0.026854801  0.026496371            8 
 2453000   0.86588733   -6.9790015    790.67254  0.026860733  0.026489924            8 
 2454000   0.85864477   -6.9572227    789.97452  0.026826084  0.026483438            6 
 2455000    0.8636042   -6.9551147     789.3448  0.026793781  0.026476929            8 
 2456000   0.86690005    -6.948067     791.0069  0.026839268  0.026470431            4 
 2457000   0.85796157   -6.9514266    790.35155  0.026806117  0.026463888            6 
 2458000   0.84315219   -6.9309781    790.94745  0.026815414  0.026457365            5 
 2459000   0.84845669   -6.9517637    792.15933  0.026845578  0.026450874            5 
 2460000   0.84993575   -6.9584649      791.311  0.026805928  0.026444359            4 
 2461000   0.84949127   -6.9650671    789.31267  0.026727369  0.026437792            5 
 2462000    0.8691698   -6.9802037    787.89138  0.026668406  0.026431232            4 
 2463000   0.87218114   -6.9876219    790.86246  0.026758102  0.026424675            7 
 2464000     0.855457    -6.966366    792.44863  0.026800887  0.026418083            9 
 2465000   0.85773341   -6.9581746    789.82542  0.026701333  0.026411476            6 
 2466000     0.861667   -6.9826932    789.41402  0.026676602  0.026404875            5 
 2467000   0.86418871   -6.9528457    792.27678  0.026762491  0.026398284            4 
 2468000   0.85525588   -6.9875011    790.28868  0.026684518  0.026391667            7 
 2469000   0.85904507   -6.9615333    789.81601  0.026657757  0.026385083            4 
 2470000   0.85226981   -6.9667216    790.57722  0.026672646  0.026378489            6 
 2471000   0.86338118   -6.9586132    792.23062  0.026717612  0.026371894            3 
 2472000   0.84823592   -6.9791547    789.96703  0.026630496  0.026365318            6 
 2473000    0.8500088   -6.9706545     791.4958  0.026671243  0.026358732            4 
 2474000   0.85465915   -6.9807008    790.65889  0.026632272  0.026352202            5 
 2475000   0.82987904   -6.9479575    790.77042  0.026625267  0.026345671            7 
 2476000   0.86327235   -6.9921675    789.15223  0.026560051  0.026339041            5 
 2477000   0.86139892   -6.9799383    790.27263  0.026587021  0.026332438            6 
 2478000   0.84160933   -6.9819707    791.39153   0.02661392  0.026325839           15 
 2479000   0.85113085   -7.0112398    791.15295  0.026595164  0.026319198            7 
 2480000   0.84361589   -6.9845608    790.17389  0.026551542  0.026312554           13 
 2481000   0.87321751    -6.970731    789.20467  0.026508285  0.026305991           12 
 2482000   0.87521434   -6.9539083    792.72344  0.026615748  0.026299409            8 
 2483000   0.84475441   -6.9539422    792.32134  0.026591534  0.026292869            6 
 2484000   0.84942823   -6.9549893    791.49111  0.026552976  0.026286252            5 
 2485000   0.85650463   -6.9945217    794.86227  0.026655341  0.026279681            8 
 2486000   0.87128724   -6.9810287     793.3113  0.026592629  0.026273118            6 
 2487000   0.83394212   -6.9581689    793.36005   0.02658357  0.026266551            7 
 2488000   0.84021762   -6.9685899    794.38096  0.026607079  0.026259934            4 
 2489000   0.85552906   -6.9414573    795.25032  0.026625496  0.026253375            4 
 2490000   0.84748436   -6.9760627    793.73557  0.026564109  0.026246838            7 
 2491000   0.85867603   -6.9824754    792.00476  0.026495542  0.026240272            9 
 2492000   0.84682263   -6.9219773    793.54584  0.026536445  0.026233735            6 
 2493000     0.864979   -6.9810378    792.02806  0.026475065  0.026227176           10 
 2494000   0.85547637   -6.9723053    793.32316  0.026507724  0.026220618            9 
 2495000   0.84586922   -6.9912903    790.86176  0.026414888  0.026214014            7 
 2496000   0.84692076   -6.9523643    792.95602  0.026474226  0.026207356            8 
 2497000   0.85885335   -6.9420849    795.10487  0.026535338   0.02620079            5 
 2498000   0.83979663   -6.9774595     793.5952  0.026474353   0.02619422            4 
 2499000   0.84883154   -6.9613255     793.0838  0.026446705  0.026187644            6 
 2500000   0.84348626   -6.9447141    795.12184  0.026504061  0.026181114           13 
 2501000   0.85010606   -6.9555753    794.59119  0.026475783  0.026174611            7 
 2502000   0.86240065   -6.9533957    794.13118  0.026449879  0.026168087           13 
 2503000   0.85970587   -6.9569453    793.99504   0.02643478  0.026161511           10 
 2504000   0.86036891    -6.946116    794.75834  0.026449625  0.026154955            7 
 2505000   0.85632184   -6.9672188    792.80199  0.026373985  0.026148411           11 
 2506000   0.85869827   -6.9646088    796.40785  0.026483368  0.026141855            6 
 2507000    0.8472092   -6.9557912    797.01267  0.026492909  0.026135296            4 
 2508000   0.84929634   -6.9968262    795.69163  0.026438451  0.026128737            8 
 2509000   0.84577951    -6.980239    794.78699  0.026397867  0.026122129            4 
 2510000    0.8459788    -6.985937    795.35042  0.026406057  0.026115533            7 
 2511000   0.85096867   -7.0004212    794.13339   0.02635515  0.026108871            8 
 2512000   0.86214141   -6.9800163    792.47482  0.026289637  0.026102198            7 
 2513000   0.85006283   -6.9846099    794.22816  0.026337318  0.026095542           11 
 2514000   0.85046912   -6.9908204     793.1613  0.026291478  0.026088898            9 
 2515000   0.85976059   -6.9960459    795.24758  0.026350152  0.026082201            7 
 2516000   0.84894693   -6.9719056    795.08559  0.026334313  0.026075519            7 
 2517000   0.86265691   -6.9677805    793.93377  0.026285716  0.026068872            4 
 2518000   0.85038527    -6.985591    793.22564  0.026251841  0.026062221            7 
 2519000   0.84804655   -6.9567075    796.23821  0.026341082  0.026055613           11 
 2520000   0.84693855   -6.9848715    795.42356  0.026303689  0.026048918            4 
 2521000   0.86575816   -6.9472645    797.29873   0.02635524   0.02604222            4 
 2522000   0.84658924   -6.9766297    795.91301  0.026299002  0.026035596            6 
 2523000   0.83308782   -6.9870446    794.70916  0.026248816  0.026028927            5 
 2524000   0.84659064   -7.0072664    795.88392  0.026277203  0.026022228            6 
 2525000   0.86226602   -7.0069469    795.74799   0.02626231   0.02601551            7 
 2526000   0.84621834   -6.9820783    795.87027  0.026255947  0.026008784            6 
 2527000   0.85819113   -6.9939166     797.8584   0.02631112  0.026002078            4 
 2528000   0.85109008   -6.9896621    794.88116   0.02620257  0.025995369            3 
 2529000    0.8290903   -7.0441699    793.59419  0.026149802  0.025988612            5 
 2530000   0.84739246   -6.9983178    796.90521  0.026248525  0.025981869            5 
 2531000   0.85006409   -6.9840397    794.14125   0.02614715  0.025975241            9 
 2532000   0.83982798   -6.9860716    795.75974  0.026190092  0.025968591           11 
 2533000   0.85451022   -6.9784956    797.48431  0.026236489  0.025961926            5 
 2534000   0.88507345   -6.9670956    799.15174   0.02628097  0.025955293            8 
 2535000   0.84849495   -6.9610933    797.06969  0.026202159  0.025948691           10 
 2536000   0.85658179   -7.0156918    797.57406  0.026208401   0.02594207            7 
 2537000   0.85375888   -7.0037226    797.68198  0.026201616  0.025935423            5 
 2538000   0.84662538   -7.0118558    798.19552  0.026208153  0.025928738            7 
 2539000   0.83830417   -6.9970158    800.24739  0.026265176  0.025922083            6 
 2540000   0.83052421   -6.9989086    799.34308  0.026225167  0.025915424            7 
 2541000   0.82134204   -6.9686308    798.24156  0.026178721  0.025908852            2 
 2542000   0.84056058   -6.9518943    800.20119  0.026232664  0.025902293           11 
 2543000   0.85967962   -6.9780367    800.61659  0.026235961  0.025895784           11 
 2544000    0.8445449   -7.0082776    797.65125  0.026128513  0.025889209            3 
 2545000   0.83531941   -6.9818057    799.36981  0.026174519  0.025882643            5 
 2546000   0.84778247   -7.0124185    797.52676  0.026103913   0.02587604            8 
 2547000   0.84588031   -6.9618397    798.97801  0.026141147   0.02586942            7 
 2548000   0.85218912   -7.0024977    798.19022  0.026105122  0.025862816            3 
 2549000   0.85060333   -7.0177433    799.35452  0.026132945  0.025856205            7 
 2550000   0.84779662   -7.0088401    798.78317  0.026104025  0.025849592            8 
 2551000    0.8391046   -7.0187967    798.56817  0.026086769  0.025842915            5 
 2552000    0.8437364     -6.97938    800.37635  0.026135592  0.025836341            4 
 2553000   0.84961345   -6.9600395    799.80598  0.026106737   0.02582976            6 
 2554000   0.82596034    -6.970454    801.21821  0.026142594  0.025823174            6 
 2555000   0.84594283   -6.9585121    800.03569  0.026093793  0.025816558            4 
 2556000   0.85336575   -7.0058071    801.12209  0.026119004   0.02580995            5 
 2557000   0.85279656   -7.0358542    798.83957  0.026034401  0.025803366           12 
 2558000   0.84361413   -6.9953192    801.61928   0.02611478  0.025796772            5 
 2559000    0.8509056   -7.0195578    800.70886  0.026074927  0.025790211            4 
 2560000   0.85055639   -7.0082276    802.12783  0.026110932   0.02578366            5 
 2561000   0.83807455   -6.9672964     802.9202  0.026126519  0.025777122            8 
 2562000   0.85059913   -6.9704181    801.29125  0.026063337  0.025770587            4 
 2563000   0.83991452   -6.9856131    802.83647   0.02610341  0.025764032           10 
 2564000   0.85842556   -7.0041569    802.56553  0.026084423  0.025757441            5 
 2565000   0.82968809    -6.970468    801.53608  0.026040808  0.025750887            6 
 2566000   0.84842024   -6.9642398    801.85617  0.026041055  0.025744418            8 
 2567000   0.83148103    -7.008822    802.99004   0.02606772  0.025737948            5 
 2568000   0.85455308    -6.982937    804.48094  0.026105949  0.025731503            3 
 2569000   0.83440655   -6.9942729    802.48527  0.026031052  0.025725041            6 
 2570000   0.83123153   -7.0199025    802.80454  0.026031276  0.025718554            8 
 2571000    0.8316991   -7.0119149    801.92282  0.025992571  0.025712064            5 
 2572000   0.83802312   -6.9891492    806.63633  0.026135184   0.02570559            4 
 2573000   0.85561797   -7.0174153    804.28499  0.026048873  0.025699186            5 
 2574000   0.84841871   -7.0174205    806.47186  0.026109553  0.025692732            5 
 2575000   0.84080106   -6.9991962    804.32905  0.026030066  0.025686254            6 
 2576000   0.83730121   -6.9743879    804.36631  0.026021167  0.025679808            4 
 2577000   0.83806075   -7.0231668    805.64899  0.026052548  0.025673372            5 
 2578000   0.85219234   -6.9855947    804.80017  0.026015004  0.025666904            4 
 2579000   0.84485448   -6.9946804    804.28043  0.025988123  0.025660432           14 
 2580000   0.83555691   -7.0057134    803.39902  0.025949581  0.025653924            7 
 2581000   0.85485591   -7.0125937    804.68472  0.025981038  0.025647405           11 
 2582000   0.83649744   -6.9974648     802.9587  0.025915269  0.025640908           13 
 2583000   0.81873976   -7.0011769    805.00337  0.025971202  0.025634488            8 
 2584000   0.85355348   -7.0129529    803.98665  0.025928362  0.025627997           13 
 2585000   0.83698201   -7.0199212    805.15227  0.025955908  0.025621545            3 
 2586000   0.83999577   -6.9722784    805.78796  0.025966356  0.025615082            4 
 2587000   0.83682965   -6.9950701    803.15047  0.025871359    0.0256086            6 
 2588000    0.8344967   -6.9768111    806.15136  0.025957991  0.025602087            9 
 2589000   0.83689613   -7.0038621    807.44253  0.025989524  0.025595596            8 
 2590000   0.83693476   -7.0174979    805.79136  0.025926363  0.025589119            4 
 2591000   0.84272499   -7.0414758    805.36439  0.025902624  0.025582551            9 
 2592000   0.84633731   -7.0099902    806.55114  0.025930785  0.025575977            5 
 2593000    0.8219121   -7.0230038    804.11045  0.025842346  0.025569436           11 
 2594000   0.85743549   -6.9913016    805.48764  0.025876627  0.025562852            6 
 2595000   0.82302552   -7.0192756    807.11678  0.025918972  0.025556308            6 
 2596000   0.83081975   -6.9770937    805.33169  0.025851685  0.025549774            6 
 2597000   0.83693552   -7.0456731    804.97782  0.025830375  0.025543223            8 
 2598000    0.8495874   -7.0130633    804.96217  0.025819931   0.02553671            4 
 2599000   0.84100211   -6.9925288    805.70369  0.025833772  0.025530213            5 
 2600000   0.83740999   -7.0445628     804.9071  0.025798305  0.025523664            8 
 2601000   0.84352815   -7.0240574    806.31683  0.025833552  0.025517105            6 
 2602000   0.84577831   -7.0244411    806.75281  0.025837587  0.025510548            6 
 2603000   0.83338055   -7.0121546    805.15736  0.025776583  0.025504014            5 
 2604000   0.81920132   -7.0099775    803.54329  0.025715031  0.025497454           14 
 2605000   0.83824297   -7.0022446    806.07175  0.025786044  0.025490929            6 
 2606000   0.83033973   -6.9999151    804.33976  0.025720765   0.02548441            7 
 2607000   0.84373016   -7.0186585    806.54503  0.025781391  0.025477852            8 
 2608000   0.82727046   -7.0205805    807.03236  0.025787077  0.025471315            6 
 2609000   0.84977123   -7.0132415    806.41409  0.025757445   0.02546479            9 
 2610000   0.85476556   -6.9886238    806.63845   0.02575474  0.025458264            6 
 2611000   0.81968313   -6.9939562    807.96826  0.025787318  0.025451774           13 
 2612000   0.82955502   -7.0108342    805.37635  0.025694753  0.025445287            7 
 2613000   0.83413023   -7.0062209    809.37862   0.02581256  0.025438757           10 
 2614000   0.83993599   -7.0334047    809.10426  0.025793938  0.025432294            5 
 2615000   0.83589246    -7.020369    809.58776  0.025799482  0.025425862            6 
 2616000   0.82938641   -7.0245087    809.34532  0.025781897  0.025419462           17 
 2617000   0.81028142   -7.0072043    808.36139  0.025740714  0.025413013            5 
 2618000   0.82411035   -7.0209589    806.35459  0.025667004  0.025406563           10 
 2619000   0.82718432   -7.0346865    809.36739  0.025753067  0.025400127            7 
 2620000   0.84572024   -7.0006127    810.17133  0.025768808  0.025393675            6 
 2621000   0.84288915   -7.0011728    809.36099  0.025733212  0.025387256           10 
 2622000   0.81173999   -7.0295028    811.13912  0.025779911  0.025380887            7 
 2623000   0.81801642   -6.9798658    812.33164  0.025807969  0.025374542            5 
 2624000   0.81788356   -7.0040978    810.75201  0.025747968  0.025368196            4 
 2625000   0.83596914   -7.0112997     811.0371   0.02574721  0.025361854            5 
 2626000   0.82958385   -7.0310011    810.89795  0.025732989  0.025355532            8 
 2627000   0.82200514   -6.9970315     811.4325   0.02574015  0.025349153            6 
 2628000   0.84049992   -7.0054145    812.04552  0.025749795   0.02534278            8 
 2629000   0.81763006   -7.0284727    812.02766  0.025739434  0.025336369            7 
 2630000   0.82302071   -7.0354118    808.64526  0.025622473  0.025330019            8 
 2631000   0.85269948   -7.0161637    810.94183  0.025685476  0.025323658            3 
 2632000    0.8318986    -7.001258    812.90901  0.025738001  0.025317336           11 
 2633000   0.83169033   -7.0010603    812.73111  0.025722595  0.025310951            7 
 2634000   0.82955158   -7.0256668    810.82421    0.0256525  0.025304543            3 
 2635000   0.83544635   -7.0177848    810.54419  0.025633909  0.025298125            7 
 2636000   0.81468835   -7.0209948    809.95605  0.025605591  0.025291706           13 
 2637000   0.83428211    -6.989609    810.97952  0.025628224  0.025285312            4 
 2638000   0.83109639   -7.0503898    810.86978  0.025615042  0.025278944            4 
 2639000    0.8370929   -7.0095522    812.00114  0.025641062  0.025272534           11 
 2640000   0.82919564   -6.9969213    812.58773  0.025649865  0.025266231            5 
 2641000   0.82676751   -7.0179896    812.95921  0.025651875  0.025259904            6 
 2642000   0.83175155   -6.9979937    814.87758  0.025702674   0.02525362           14 
 2643000    0.8421546   -7.0379634    813.74024  0.025657089  0.025247359            7 
 2644000   0.84989986   -7.0198713    812.72938  0.025615525  0.025241031           10 
 2645000   0.82609452   -7.0003825    813.05706  0.025616164  0.025234734            5 
 2646000   0.82064236   -7.0416858     814.3876  0.025648388  0.025228398           11 
 2647000   0.84181696   -7.0341794    814.13717  0.025630814  0.025222039           13 
 2648000   0.83666368   -6.9965846    816.52835  0.025696386  0.025215699            8 
 2649000   0.83852416   -6.9896785    813.57037  0.025593632  0.025209359           13 
 2650000   0.82248959   -7.0552594    813.48201  0.025581195  0.025203082            6 
 2651000   0.84112192   -7.0383469    815.31054  0.025629025  0.025196798            4 
 2652000   0.82923532   -7.0281431    815.36109  0.025620949  0.025190554            7 
 2653000    0.8368422   -7.0278506    814.58576  0.025586938  0.025184281            7 
 2654000    0.8313759   -7.0152489      814.217  0.025565718  0.025178054            3 
 2655000   0.82823241   -7.0082928    814.68292  0.025570713  0.025171806            5 
 2656000    0.8378802   -7.0150363    814.80538  0.025564928  0.025165528            5 
 2657000   0.82622846    -7.053785    813.48163  0.025513788  0.025159245           13 
 2658000    0.8369675   -7.0221821    815.58859  0.025570247  0.025152896            4 
 2659000   0.83216839   -7.0837152    813.65226  0.025499945  0.025146515            9 
 2660000   0.81942955    -7.051472     813.7741  0.025494176  0.025140126            5 
 2661000    0.8345597   -7.0377443    815.93434  0.025552247  0.025133799            5 
 2662000   0.81156357   -7.0026488    815.37516  0.025525143  0.025127447           10 
 2663000   0.81031123   -7.0338178    815.38688  0.025515924  0.025121144            4 
 2664000    0.8378653   -7.0393078    816.40445  0.025538177  0.025114853            8 
 2665000   0.82685941   -7.0325001    816.48451  0.025531098  0.025108572            6 
 2666000   0.82752872   -7.0525345    817.03576  0.025538752  0.025102265           17 
 2667000   0.83623542   -7.0554613     814.1173  0.025437986  0.025095925            9 
 2668000   0.81482939   -7.0458656    816.53114  0.025503846  0.025089635           15 
 2669000   0.82730967   -7.0304617    815.30938  0.025456144  0.025083305            9 
 2670000   0.83274367   -7.0315795    816.42285  0.025481362  0.025076997            9 
 2671000   0.82002476   -7.0192411     820.3506  0.025594365   0.02507069            7 
 2672000   0.81946703   -7.0269211    818.62338  0.025530919  0.025064408            3 
 2673000   0.81202621   -7.0064567    817.37101  0.025482323  0.025058105           10 
 2674000   0.80735323   -7.0433624    814.65062  0.025388015  0.025051756            8 
 2675000   0.81575846   -7.0456772    816.76811  0.025444489  0.025045406           10 
 2676000   0.82098137   -7.0320798    816.62418  0.025430499  0.025039104           13 
 2677000   0.82606762   -7.0515407    818.13073  0.025467897  0.025032826            9 
 2678000   0.82860455   -7.0226211    817.01003  0.025423514  0.025026543            5 
 2679000   0.80374128   -7.0315557    817.17899  0.025419279  0.025020234            5 
 2680000   0.82252236   -7.0404163     817.9125  0.025432602  0.025013903            9 
 2681000   0.81538271   -7.0402833      817.291  0.025403798  0.025007595           10 
 2682000   0.83516333   -7.0197504    816.47944   0.02536911  0.025001276           13 
 2683000   0.80546475   -7.0200264    818.46703  0.025421389  0.024994965           11 
 2684000   0.82351415   -7.0433968     817.7668  0.025390176  0.024988669            8 
 2685000   0.79753364   -7.0243566    818.87198  0.025415021  0.024982392            9 
 2686000   0.83523763   -7.0148608    817.29136   0.02535652  0.024976117            7 
 2687000   0.83460155   -6.9966049     819.1925  0.025406045  0.024969808            8 
 2688000   0.82081925   -7.0268264    815.90364  0.025294632  0.024963512            7 
 2689000   0.80559184   -7.0548812    817.87664  0.025346369  0.024957186            6 
 2690000   0.81630608   -7.0312661    817.48379  0.025324777  0.024950863           11 
 2691000   0.79890731   -7.0442086    819.01886  0.025362903  0.024944499            4 
 2692000   0.83217936   -7.0312534     817.9847  0.025321468  0.024938181            5 
 2693000   0.81668846   -7.0281078    818.79321  0.025337084  0.024931882            6 
 2694000   0.83840879   -7.0518609    818.88095  0.025330393  0.024925602            5 
 2695000   0.81923787   -7.0599711     818.9497   0.02532312  0.024919306            6 
 2696000   0.82766961   -7.0551222    818.79057  0.025308808  0.024913031            5 
 2697000   0.81689603   -7.0251791    818.79173   0.02529946  0.024906709            4 
 2698000   0.81630054   -7.0330899    819.83546  0.025322321  0.024900453            5 
 2699000   0.81137517    -7.028996    818.19978  0.025262436  0.024894177            3 
 2700000    0.8085066   -7.0447823    819.61332  0.025296707  0.024887893            7 
 2701000   0.81940423    -7.015862    819.86862  0.025295219   0.02488159            5 
 2702000   0.80319298   -7.0419592    818.82333  0.025253619  0.024875319            7 
 2703000   0.80804703   -7.0381479    818.84046  0.025244804  0.024869048            7 
 2704000   0.82106482   -7.0065395    820.50341  0.025286718  0.024862801           12 
 2705000   0.84721317   -7.0423471    820.56325  0.025279213  0.024856531            5 
 2706000   0.81544988   -7.0619013    819.48865  0.025236778  0.024850226           11 
 2707000   0.81806058   -7.0316863    820.38849  0.025255156  0.024843961           12 
 2708000   0.80520339   -7.0573949    818.78676   0.02519654  0.024837654            9 
 2709000   0.81769713   -7.0539423    819.36106  0.025204905  0.024831314           14 
 2710000   0.81922082   -7.0144857    820.61514  0.025234168  0.024825032           13 
 2711000   0.81883009    -7.014996     820.3255  0.025215957  0.024818756           23 
 2712000   0.81917163   -7.0348009    821.11986  0.025231068  0.024812496            5 
 2713000   0.82696419   -7.0234894    820.51597  0.025203218  0.024806248            6 
 2714000   0.82523341   -7.0295005    821.64019  0.025228451   0.02480002           11 
 2715000    0.8202651    -7.027961    822.21786  0.025236889  0.024793791           10 
 2716000   0.82966853   -7.0408622    820.68014  0.025180417  0.024787541           10 
 2717000   0.81475399   -7.0539263    819.26003  0.025127593  0.024781201            7 
 2718000   0.82027995   -7.0463478    820.45256   0.02515491  0.024774872            5 
 2719000   0.82068511   -7.0086241    820.36087  0.025142849  0.024768561            3 
 2720000   0.81396802   -7.0420355    820.23242   0.02512967    0.0247623            5 
 2721000   0.81267984   -7.0162736    820.19815  0.025119385  0.024755992            7 
 2722000   0.82589642   -7.0578235    821.94527  0.025163644  0.024749717           10 
 2723000   0.82976356   -7.0263633    821.58901    0.0251435  0.024743426            8 
 2724000   0.82118506   -7.0512532    818.62245  0.025043516  0.024737103            3 
 2725000   0.82619441   -7.0504531    819.12224   0.02504961   0.02473075            7 
 2726000   0.81478354   -7.0793801    821.50545  0.025113275  0.024724449           12 
 2727000   0.80378925   -7.0235137    820.81218   0.02508288  0.024718143            9 
 2728000   0.81709443   -7.0364901    822.37457  0.025121413  0.024711899            5 
 2729000   0.82536504   -7.0417134     822.0894    0.0251035  0.024705582            6 
 2730000   0.82713613   -7.0634467    819.76833  0.025023453   0.02469925           15 
 2731000   0.82169445   -7.0778743    821.59132  0.025069917  0.024692917            6 
 2732000   0.82736271   -7.0666405    820.94572  0.025041048  0.024686579           16 
 2733000   0.82004933   -7.0781158    820.91852  0.025031056  0.024680281            3 
 2734000   0.80966403   -7.0599613    822.16132  0.025059782  0.024673934           10 
 2735000   0.80793236   -7.0521662    822.18403  0.025051311  0.024667597            4 
 2736000   0.83081797   -7.0804164    821.09294  0.025008922  0.024661232            6 
 2737000   0.83250651   -7.0633099    823.12646    0.0250617  0.024654872            4 
 2738000    0.8202508   -7.0368097    823.14166  0.025053009  0.024648559           11 
 2739000   0.82970414   -7.0462747    822.80638  0.025033661  0.024642276            5 
 2740000   0.79757258   -7.0427985    825.67416  0.025111744  0.024635987            3 
 2741000   0.81096293   -7.0458632    821.44964  0.024974147  0.024629687            5 
 2742000   0.81276009   -7.0576422    824.39273  0.025054484  0.024623371            6 
 2743000   0.79810458   -7.0426603    821.53699  0.024958591  0.024617034            5 
 2744000   0.81365204   -7.0749912    820.37507  0.024914209  0.024610697           12 
 2745000   0.81089564   -7.0779464    823.32256  0.024994613   0.02460438           10 
 2746000   0.81307354   -7.0538996    824.20272  0.025012222  0.024598074           13 
 2747000   0.80095986   -7.0826578    822.89473  0.024963437  0.024591811           11 
 2748000   0.81034743   -7.0797419    824.57737  0.025005379  0.024585524            3 
 2749000   0.80838374   -7.0664568    823.59565  0.024966523   0.02457922            6 
 2750000   0.81503023    -7.068883    822.12952  0.024913016  0.024572935            3 
 2751000   0.80952039   -7.0887702    822.75657  0.024922954  0.024566639           13 
 2752000   0.81992506   -7.0395931    824.96203  0.024980682  0.024560348            5 
 2753000   0.80723187   -7.0697379    824.06152  0.024944349  0.024554038            5 
 2754000   0.81588815   -7.0641596    823.84671  0.024928792  0.024547757            7 
 2755000   0.81438015   -7.0740509    824.19721  0.024930345  0.024541485           17 
 2756000   0.81846656    -7.075956    824.73356  0.024937517  0.024535168            7 
 2757000   0.80932298   -7.0677184    824.61253  0.024924814  0.024528886           10 
 2758000   0.81186609   -7.0733319    822.80674  0.024861214  0.024522572            7 
 2759000    0.8290443    -7.053433    824.34167  0.024898564  0.024516248           13 
 2760000   0.81624871   -7.0360641    825.61701   0.02492805  0.024509987            6 
 2761000   0.80972423   -7.0897246    823.30238   0.02484916  0.024503733            5 
 2762000   0.81305779   -7.0734473     825.4459  0.024904837  0.024497465            9 
 2763000   0.81854537   -7.0733793    824.27926  0.024860637  0.024491172           11 
 2764000   0.81027796    -7.076384    825.11155  0.024876735  0.024484887           10 
 2765000   0.81492224   -7.0671252     827.6277  0.024943572  0.024478573            8 
 2766000   0.80635042   -7.0383509      826.459  0.024899343  0.024472335            9 
 2767000   0.80321512   -7.0591675    826.05631  0.024878217  0.024466091           10 
 2768000   0.81611686   -7.0681908    825.65241  0.024857069  0.024459831            8 
 2769000   0.79197665   -7.0787418     827.1454  0.024893024  0.024453542            4 
 2770000   0.79923117   -7.0763591    824.37034  0.024800552  0.024447287            6 
 2771000   0.81163756   -7.0824049    824.44131  0.024793736  0.024441014            7 
 2772000   0.79943584   -7.0842742    824.86455  0.024797515  0.024434751           11 
 2773000   0.78586665   -7.0586886    824.69869  0.024783589  0.024428465            6 
 2774000   0.79827818   -7.0485512    826.67311  0.024833967  0.024422211            9 
 2775000   0.80378934   -7.0518693    826.12369  0.024808519  0.024415963            5 
 2776000   0.79815761   -7.0708198    826.04526  0.024797228  0.024409719            3 
 2777000   0.81270074   -7.0764415    827.04585  0.024818325  0.024403493            8 
 2778000   0.79646241   -7.0841546     828.4738  0.024852226  0.024397284           12 
 2779000   0.79367231   -7.0575285    828.22969  0.024835963  0.024391098           11 
 2780000   0.81149404   -7.0707613    827.68822  0.024810798    0.0243849            9 
 2781000   0.82878846   -7.1012364    827.53498  0.024797285  0.024378684            8 
 2782000    0.8166376   -7.0697256     830.2521  0.024869761  0.024372487           12 
 2783000   0.81362821   -7.0547333    829.40261  0.024835388  0.024366316            4 
 2784000   0.82533336   -7.0912531    826.64368  0.024743884  0.024360136            7 
 2785000   0.79026533   -7.0897782    827.39568  0.024757501  0.024353928            4 
 2786000   0.80879787   -7.0685436    827.83547  0.024761769  0.024347703            5 
 2787000   0.79222077   -7.0654104    828.49922  0.024772731  0.024341468            9 
 2788000   0.78739555   -7.0680434    828.14205   0.02475317  0.024335281           12 
 2789000   0.81445181   -7.0457682    828.12812  0.024743878  0.024329075            5 
 2790000   0.81034049   -7.0667597    827.92814  0.024729036  0.024322851           17 
 2791000   0.81492439   -7.0779629    828.97511  0.024751437  0.024316594            9 
 2792000   0.81526238   -7.0511028    827.65073  0.024703042  0.024310365           12 
 2793000   0.78709138   -7.0801081    825.97222  0.024644117  0.024304114            7 
 2794000    0.8237574   -7.0642533    828.11316  0.024699152    0.0242979            8 
 2795000   0.81053553   -7.0636243     830.9619  0.024775251  0.024291687            8 
 2796000   0.81695649    -7.055706    831.54633  0.024783808  0.024285529           10 
 2797000   0.79457642   -7.0794327    828.09211  0.024672033  0.024279347           11 
 2798000   0.80556111   -7.0957945    827.12548  0.024634426  0.024273127            8 
 2799000   0.79519941   -7.0923439    830.29567  0.024720009  0.024266901            3 
 2800000   0.80155675   -7.0802028    829.92351  0.024700105  0.024260702            4 
 2801000   0.81957352   -7.0834088    829.02582  0.024664579  0.024254484           11 
 2802000   0.80848949   -7.0716125    829.82051  0.024679411  0.024248277           11 
 2803000   0.80704727   -7.1034153    828.92815  0.024644076  0.024242049           12 
 2804000   0.78991594    -7.097686     830.7333  0.024688935  0.024235815            9 
 2805000   0.80521025   -7.0407041    829.12896   0.02463247  0.024229605            8 
 2806000   0.79263352   -7.0593907    830.12718  0.024653337  0.024223438            7 
 2807000   0.80564467   -7.0628758    830.65368  0.024660185   0.02421727            6 
 2808000    0.7968614   -7.0502935    829.67488  0.024622355  0.024211075            6 
 2809000   0.78890152    -7.064235    830.24128  0.024630393  0.024204874            4 
 2810000   0.77844594   -7.0742243    829.52054  0.024600253  0.024198658            5 
 2811000   0.81743627   -7.0497572     830.2029  0.024611731  0.024192488            7 
 2812000   0.81417507   -7.0715467    827.55045  0.024524373  0.024186284            9 
 2813000   0.80025793   -7.0744402    829.92812  0.024586092  0.024180092           10 
 2814000   0.79103535    -7.070558     829.8503   0.02457505   0.02417385            7 
 2815000   0.80999661   -7.0891425     830.7608  0.024593274  0.024167607            7 
 2816000    0.7862082   -7.1024211    831.22214  0.024598193  0.024161324            4 
 2817000   0.79978163   -7.0841544    828.89681  0.024520672   0.02415505            6 
 2818000   0.81734737    -7.082731    829.62644  0.024533547   0.02414875            9 
 2819000   0.78563095   -7.0731812     829.1222  0.024509939  0.024142486            4 
 2820000   0.80324382   -7.0788657    829.66002   0.02451714  0.024136254            8 
 2821000   0.80027337   -7.0599466    830.94254  0.024546335  0.024130081            9 
 2822000   0.80520588   -7.0539066    832.71666  0.024590026   0.02412391            5 
 2823000   0.80070828   -7.0741465    831.69268  0.024551089  0.024117682            4 
 2824000   0.78801637    -7.064247    830.24218  0.024499592  0.024111443           11 
 2825000   0.81851239   -7.0747677    830.57674  0.024500789  0.024105146           12 
 2826000   0.81125142   -7.0831501    829.22274  0.024452192  0.024098887           35 
 2827000   0.79646353   -7.0964496    830.40991  0.024478538  0.024092635            9 
 2828000   0.81198234   -7.0675035    829.64647  0.024447385  0.024086398            7 
 2829000   0.80851072   -7.0417863    831.91672  0.024505618  0.024080178           11 
 2830000   0.79443403   -7.0739094    831.97382   0.02449864  0.024073953           18 
 2831000   0.78971855   -7.0752722    829.41668  0.024414714  0.024067688           15 
 2832000   0.80011229   -7.1023822      832.253  0.024489554  0.024061482           15 
 2833000   0.80628814   -7.0928833    832.62685  0.024491906  0.024055277            9 
 2834000   0.80232248   -7.1213042    834.26134  0.024531326  0.024049047            5 
 2835000   0.80947267   -7.0694429    833.45159  0.024498871  0.024042889           18 
 2836000   0.80364556   -7.0855052    831.86945  0.024443743  0.024036676            4 
 2837000    0.8032306   -7.0705229    834.46298  0.024511308  0.024030484            5 
 2838000   0.80710889    -7.091868    831.10803  0.024404159  0.024024288           14 
 2839000   0.78264619   -7.1041175    832.92351  0.024448853  0.024018095           14 
 2840000   0.78942662   -7.0929871     833.3508  0.024452782  0.024011894           14 
 2841000   0.80260205   -7.0681274    833.37745  0.024444956  0.024005673           21 
 2842000   0.80576602   -7.0936007     830.5904  0.024354633  0.023999437            6 
 2843000   0.80408289   -7.0770226    831.35603  0.024368508  0.023993196            6 
 2844000   0.79940887   -7.1014784    834.02938  0.024438273  0.023986949           22 
 2845000   0.78225301   -7.0904426    833.43526  0.024412281   0.02398069           11 
 2846000   0.80891041   -7.1051578    833.28078   0.02439918   0.02397447           13 
 2847000   0.79243889   -7.1299832    832.06794  0.024355109   0.02396824           15 
 2848000   0.79461259   -7.1184929    830.28792  0.024294473  0.023961949            7 
 2849000   0.80107041   -7.0776742    832.48825  0.024350306  0.023955699            5 
 2850000   0.78968955   -7.1003449    834.20195   0.02439187  0.023949496           10 
 2851000   0.80101686   -7.0886258    834.83821  0.024401912  0.023943277            5 
 2852000   0.79416311   -7.0700247    833.31084  0.024348727  0.023937061            7 
 2853000   0.79141097   -7.0685216    834.63119  0.024378759  0.023930858           11 
 2854000   0.80061152    -7.096967    834.24818  0.024359034  0.023924647            8 
 2855000    0.7974251   -7.0471674    833.06126  0.024315857  0.023918441           12 
 2856000    0.7912587   -7.0828366    833.47084  0.024319294  0.023912223           20 
 2857000   0.81734925   -7.0852856    833.72894   0.02431831   0.02390599            5 
 2858000   0.78966359     -7.08508    833.30172  0.024297344  0.023899744           11 
 2859000   0.78904006   -7.1065182    834.16728  0.024314075  0.023893469           12 
 2860000   0.79425612   -7.0976505    835.25036  0.024337132  0.023887227           12 
 2861000    0.7793122     -7.10292    833.30182   0.02427187  0.023881009           11 
 2862000   0.79340748    -7.092691    833.29315  0.024263136  0.023874808           17 
 2863000   0.78962838   -7.0810159    834.92694  0.024302216  0.023868602            6 
 2864000   0.78859241   -7.1163879    834.01124  0.024267087  0.023862364           10 
 2865000   0.78590992   -7.0887242     834.4106  0.024270233  0.023856131            6 
 2866000   0.79202252    -7.093463    833.49212  0.024235058  0.023849896           17 
 2867000   0.78921827   -7.0992513    832.51157  0.024198104  0.023843669            7 
 2868000   0.79263188   -7.1083157    834.14403    0.0242371  0.023837463            6 
 2869000   0.79970248   -7.1067222    834.08969  0.024227074  0.023831229            9 
 2870000    0.7996468   -7.1144205    835.77044  0.024267434  0.023825037           12 
 2871000   0.79027455    -7.116311    834.58012  0.024224432  0.023818846           11 
 2872000   0.77890722   -7.1348545     835.4793  0.024242087  0.023812635           11 
 2873000   0.78159079   -7.0798428    835.68837  0.024239714  0.023806427            4 
 2874000   0.79299394   -7.0777794    834.08101  0.024184673  0.023800273            7 
 2875000   0.79832815   -7.0805738    835.30774  0.024211819  0.023794126            5 
 2876000   0.76926019   -7.1117763    836.73665  0.024244803  0.023787957            5 
 2877000   0.78578492   -7.1106085    834.50507  0.024171738  0.023781792            5 
 2878000   0.79550897   -7.0933507      836.185  0.024211982  0.023775635            7 
 2879000   0.78547566   -7.0853179    837.02392  0.024227855  0.023769467            7 
 2880000    0.7987647   -7.0865285    835.14383  0.024165041  0.023763298           12 
 2881000   0.77560165   -7.1113168    840.01329  0.024297503   0.02375712            9 
 2882000   0.79003227   -7.1074987    835.80789  0.024167473  0.023750943           11 
 2883000   0.79773503   -7.1135174    835.15346  0.024140174  0.023744774            8 
 2884000   0.81414013   -7.1206825    834.04284  0.024099712   0.02373859            7 
 2885000   0.78491831   -7.1242794    837.38551  0.024187912  0.023732383            7 
 2886000    0.7812822   -7.0988585    837.37406    0.0241792  0.023726212            9 
 2887000   0.79672251   -7.0961303    836.80157    0.0241543  0.023720063           16 
 2888000   0.78564931   -7.0984946     836.5315  0.024138144    0.0237139           18 
 2889000   0.78476093   -7.1260774    834.94773  0.024084104   0.02370771            9 
 2890000   0.78400396   -7.0751681     836.9139  0.024132465  0.023701517           10 
 2891000   0.79587424   -7.0901326    836.36974  0.024108432   0.02369531           12 
 2892000   0.81031162   -7.1126385    836.08366  0.024091853  0.023689122           13 
 2893000   0.80193038   -7.1114445    835.47336  0.024065945  0.023682908            7 
 2894000   0.76722389   -7.0964346    836.59479  0.024089921  0.023676695            7 
 2895000   0.78017188     -7.10955    836.74262  0.024085856  0.023670498            6 
 2896000   0.79002636   -7.1144528    836.87571  0.024081368  0.023664319           13 
 2897000   0.77819565   -7.0982196    835.53859  0.024034593  0.023658167           13 
 2898000   0.78137703   -7.1139317    835.36218  0.024021227  0.023651993            9 
 2899000   0.78672854   -7.0870664     837.5502  0.024075836  0.023645804           13 
 2900000    0.7991026   -7.1334657    837.43688  0.024064278  0.023639589            3 
 2901000   0.76916368   -7.0838499     835.1939  0.023991552  0.023633417           11 
 2902000   0.78539837    -7.097903    837.39007  0.024046349  0.023627174           12 
 2903000   0.79633686   -7.0702378    837.27911  0.024034881  0.023620976           13 
 2904000   0.78773647   -7.0941292    836.20635   0.02399582  0.023614776            8 
 2905000   0.77544087   -7.1082402    835.98198  0.023981124  0.023608543            4 
 2906000   0.79281172   -7.1007364    836.02164  0.023974009   0.02360233            5 
 2907000   0.79265062   -7.1470868    836.89272  0.023990733  0.023596094           35 
 2908000   0.77072705    -7.120578    837.19094  0.023991029   0.02358986           19 
 2909000    0.7799345   -7.1078742    837.27293   0.02398513  0.023583641            4 
 2910000   0.78641634   -7.1139946    837.79063  0.023991713  0.023577412            5 
 2911000   0.78776618   -7.1198965     835.6684  0.023922718  0.023571161            7 
 2912000   0.79515859   -7.1345268    835.82848  0.023919084  0.023564915           15 
 2913000    0.7957685    -7.128678    836.75418  0.023937355  0.023558641           12 
 2914000    0.7876817   -7.1361349     838.2195  0.023971045  0.023552351            9 
 2915000   0.78593175   -7.1225726    836.80461  0.023922373  0.023546062           22 
 2916000   0.77193759   -7.1378094    837.12865   0.02392343  0.023539782           19 
 2917000    0.7844587   -7.1260885    838.23056  0.023946708  0.023533536           22 
 2918000   0.76522594   -7.1080731    838.06109  0.023933661  0.023527301           19 
 2919000   0.78213812   -7.1396509    838.47877  0.023937386  0.023521052            4 
 2920000   0.80238303   -7.1383846    837.04808  0.023888359  0.023514809            5 
 2921000   0.77736953   -7.1377808    838.02081  0.023907931  0.023508582            7 
 2922000   0.78540478   -7.0957773    837.22419   0.02387703  0.023502374            8 
 2923000   0.78269814    -7.126427    837.55047  0.023878164  0.023496185           16 
 2924000   0.80212715   -7.1317887    837.54232  0.023869765  0.023489959           18 
 2925000   0.78983845   -7.1181933    837.94795  0.023873161  0.023483746            9 
 2926000   0.77949344   -7.0956701     839.0864  0.023897425  0.023477552            5 
 2927000   0.76704171   -7.1095928    839.64928  0.023905286  0.023471378            4 
 2928000   0.78572677   -7.1151067    840.45241   0.02391998  0.023465205            9 
 2929000   0.78717553   -7.0866446    837.98741  0.023841681  0.023459036            7 
 2930000   0.76329988   -7.1449651    837.93165  0.023831958   0.02345282            9 
 2931000   0.77882534   -7.1347371    839.43858  0.023866672  0.023446614            8 
 2932000   0.76887802   -7.1063307    840.43742  0.023886921  0.023440411            8 
 2933000   0.78584242   -7.1311847    839.63712  0.023856038  0.023434179           13 
 2934000   0.78859913   -7.1348273    838.75153  0.023822754  0.023427944            9 
 2935000   0.78135385   -7.1101985    837.17818  0.023769965  0.023421703           11 
 2936000   0.78186924   -7.1304036    840.37927  0.023852727  0.023415476           10 
 2937000   0.78112323   -7.0883101     838.6966  0.023796862  0.023409264            6 
 2938000   0.77765142    -7.125018    839.36428    0.0238077  0.023403037            9 
 2939000   0.79640141   -7.1374122    839.39286   0.02380041  0.023396818           16 
 2940000   0.78233454   -7.1234127    841.92977  0.023864222    0.0233906           19 
 2941000   0.76549969   -7.1408616    839.80663  0.023795949  0.023384396           13 
 2942000   0.77458004   -7.1215188    839.40561  0.023776501  0.023378179           11 
 2943000    0.7950375    -7.102848    839.62331  0.023774587  0.023372011           12 
 2944000   0.78311109   -7.1413175    840.00096  0.023777201  0.023365844            8 
 2945000   0.77351404   -7.1157098    840.55014  0.023784667  0.023359649           10 
 2946000   0.79695357   -7.1329517    839.62275  0.023750361  0.023353455           21 
 2947000   0.79795559   -7.1111291    841.10594  0.023784242  0.023347273            9 
 2948000   0.78646734   -7.1290038    841.48563  0.023786907  0.023341114            5 
 2949000   0.78494836   -7.0940313    842.33661  0.023802888  0.023334985           13 
 2950000   0.78795767   -7.1007592    841.04665   0.02375838  0.023328833           12 
 2951000   0.78444149   -7.1203381    840.68272  0.023740052  0.023322672            6 
 2952000   0.76942887    -7.128597    839.61328   0.02370182  0.023316519           11 
 2953000   0.77665487   -7.1434677     841.3188  0.023741924  0.023310354           24 
 2954000   0.78549949   -7.1422867    839.98749   0.02369633  0.023304152           16 
 2955000   0.75969152   -7.1314272    840.16126  0.023693211  0.023297932            8 
 2956000   0.78451355   -7.1328223    841.20398  0.023714591  0.023291738            7 
 2957000   0.78178141   -7.1242271    842.39117  0.023740028  0.023285545            7 
 2958000   0.77956409   -7.1315465    841.27188   0.02370047  0.023279344           21 
 2959000   0.78210034   -7.1238032    840.19303  0.023662077  0.023273165           14 
 2960000   0.76826202   -7.1413559    840.72729  0.023669124  0.023266981            4 
 2961000    0.7742251   -7.0948478    842.33937    0.0237065  0.023260825            5 
 2962000   0.78821527    -7.123478    840.77529  0.023654493  0.023254714            8 
 2963000   0.77441126   -7.1156025    842.24862  0.023687946   0.02324858            6 
 2964000   0.78587145   -7.1331285    841.79508  0.023667203  0.023242405            8 
 2965000   0.77255182   -7.1244786    841.51489  0.023651346  0.023236247            7 
 2966000    0.7616916   -7.1481877    841.38691  0.023639776  0.023230042            7 
 2967000   0.77959438   -7.1116636     841.5302  0.023635833  0.023223881            6 
 2968000   0.77553985   -7.1152889    842.40364  0.023652393  0.023217709            5 
 2969000   0.76545145   -7.1331977    840.67059  0.023595784  0.023211527            8 
 2970000   0.76533494   -7.1382988    843.20149  0.023658852   0.02320533           10 
 2971000    0.7778723   -7.1633549    843.02409  0.023645913  0.023199176            9 
 2972000   0.77111067    -7.105826    845.38601  0.023704184  0.023193075            9 
 2973000   0.78155938   -7.1478011    842.57927  0.023617538  0.023186931            7 
 2974000   0.78000937   -7.1439163    842.74246  0.023614169  0.023180763            9 
 2975000   0.76846087   -7.1531194    839.32129    0.0235104  0.023174582            8 
 2976000     0.769252   -7.1393382    843.91462  0.023631122  0.023168395           13 
 2977000   0.77492664   -7.1280885    840.71526  0.023533626  0.023162216            7 
 2978000   0.77816974   -7.1450151    841.84941  0.023557461  0.023156055            8 
 2979000   0.77265159   -7.1311614    844.01818  0.023610221  0.023149882           13 
 2980000   0.78888195   -7.1431382    842.11438   0.02354906  0.023143747           10 
 2981000   0.77126603   -7.1487725    842.96552  0.023564953  0.023137573           11 
 2982000   0.76765666   -7.1541473    841.14096  0.023506063  0.023131401            7 
 2983000   0.75828574   -7.1330289    842.89266  0.023547119  0.023125245            9 
 2984000   0.78570701    -7.116065    843.63713  0.023560018  0.023119043            7 
 2985000   0.74924647   -7.1442215    843.56757  0.023550183  0.023112885            7 
 2986000   0.76793931   -7.1070416    844.81096  0.023576997  0.023106713            3 
 2987000   0.76416015   -7.1401286    841.45284  0.023475417  0.023100532           13 
 2988000   0.77725125   -7.1454987    841.95748  0.023481634  0.023094346           10 
 2989000   0.76336448   -7.1331838    843.75826  0.023523984  0.023088169           14 
 2990000   0.76494645   -7.1325305     842.9618  0.023493919   0.02308198           11 
 2991000   0.77691505   -7.1386345    843.30716  0.023495686  0.023075841            9 
 2992000   0.76163989   -7.1569088    842.35886  0.023461421  0.023069681            9 
 2993000   0.78860445   -7.1247723    843.37844   0.02348197   0.02306351           10 
 2994000   0.76956858   -7.1633138    843.12562   0.02346709  0.023057317            9 
 2995000   0.77070896   -7.1398068    841.96168  0.023426869  0.023051135           21 
 2996000   0.78039898   -7.1314827    842.45144  0.023432672  0.023044936            6 
 2997000   0.77355206    -7.125048    842.15254  0.023416543  0.023038793            8 
 2998000   0.77096121   -7.1266874    843.39585  0.023443291  0.023032616            7 
 2999000   0.76127914   -7.1547181    842.64408  0.023414585  0.023026423           10 
 3000000    0.7687978   -7.1515388    844.30854  0.023453015  0.023020207            8 
 3001000   0.74961324   -7.1464319    842.88382  0.023405638   0.02301397           11 
 3002000   0.76973949   -7.1285467    843.76022  0.023422169  0.023007746           10 
 3003000   0.75772364   -7.1201788    844.73359  0.023441381  0.023001568            8 
 3004000   0.78468468   -7.1224405    844.73966  0.023433746  0.022995383            7 
 3005000   0.76234886   -7.1456685    844.08243  0.023407721  0.022989188            5 
 3006000   0.75549494   -7.1332822    842.69944  0.023361595  0.022982955            6 
 3007000   0.76831699   -7.1182807    844.03245  0.023390767  0.022976714           10 
 3008000    0.7756974   -7.1266407    843.07703  0.023356522  0.022970466            5 
 3009000    0.7682071    -7.159878    842.56705  0.023334636  0.022964226           18 
 3010000   0.77557762   -7.1195458    844.20483  0.023372227  0.022957997            8 
 3011000   0.77941202   -7.1160907    843.16152  0.023335589   0.02295178           12 
 3012000   0.76735981   -7.1129336    844.79007  0.023372899  0.022945603            8 
 3013000   0.77097686   -7.1492002    843.13213  0.023319287  0.022939397            8 
 3014000   0.78479687   -7.1183298    843.23758  0.023314465  0.022933167           19 
 3015000    0.7637259   -7.1692965    841.83128  0.023267863  0.022926916           14 
 3016000   0.76532546   -7.1510017    843.04277  0.023293622  0.022920625           12 
 3017000   0.76903011   -7.1608792    843.44537  0.023297022  0.022914337           17 
 3018000   0.77269648   -7.1657962    841.50266   0.02323566  0.022908015            7 
 3019000   0.76931096   -7.1485345    843.47166  0.023282314  0.022901741            6 
 3020000   0.77014647   -7.1471208    843.12904   0.02326515  0.022895438            9 
 3021000   0.76455831   -7.1782326    843.11567   0.02325708  0.022889125            7 
 3022000   0.78914068    -7.170438    843.99022    0.0232735  0.022882862            6 
 3023000    0.7853816   -7.1687013    843.49244   0.02325208  0.022876582            5 
 3024000   0.77041464   -7.1422205    843.17876  0.023235746  0.022870319           14 
 3025000   0.77480679   -7.1363926    843.13991  0.023226995  0.022864059           11 
 3026000    0.7672448   -7.1559067    845.19948  0.023276038  0.022857812           13 
 3027000    0.7644266   -7.1671078    843.67406  0.023226353  0.022851562           10 
 3028000   0.76400713   -7.1467994    842.22338  0.023178759  0.022845301           19 
 3029000   0.75365684   -7.1399753     843.6338   0.02320991  0.022839044           11 
 3030000   0.76491796   -7.1518738    842.10538  0.023160214  0.022832796            5 
 3031000   0.77433536   -7.1392198    843.49029  0.023190649  0.022826546            7 
 3032000    0.7845856   -7.1249113    844.86412   0.02322076  0.022820279           14 
 3033000    0.7684324   -7.1484267    842.77886   0.02315581   0.02281403            8 
 3034000   0.75843784   -7.1673572    841.94735  0.023125339  0.022807773            5 
 3035000   0.74022506   -7.1365674    844.36435  0.023184084  0.022801514            9 
 3036000   0.75975484   -7.1406077    844.62338  0.023183558  0.022795261           15 
 3037000   0.75786337   -7.1688354    844.17272  0.023163558   0.02278901           10 
 3038000    0.7562638   -7.1883084    844.05127  0.023152602  0.022782736            7 
 3039000   0.76914696   -7.1425491    844.78291  0.023165046  0.022776455            6 
 3040000   0.76027469   -7.1428754       843.58  0.023124452  0.022770187            8 
 3041000   0.76792585   -7.1375863    843.26439  0.023108199  0.022763956            9 
 3042000    0.7650528   -7.1295946    844.04688  0.023122038  0.022757746           13 
 3043000   0.77630758   -7.1692197    843.73741  0.023105965  0.022751502           19 
 3044000   0.77797901   -7.1475402    844.88629  0.023129826  0.022745219           16 
 3045000   0.75400803   -7.1798667    844.56053  0.023113315  0.022738918           20 
 3046000   0.77730562     -7.13306    844.15781  0.023094709  0.022732628           12 
 3047000   0.75350321   -7.1538037    843.99036   0.02308255  0.022726357            4 
 3048000   0.76536212   -7.1530157    843.62018  0.023064856  0.022720096            5 
 3049000    0.7633273   -7.1580126    845.94855  0.023120929  0.022713835            6 
 3050000   0.76473513   -7.1593296    844.80668   0.02308215  0.022707585            8 
 3051000   0.77314196   -7.1479691    846.01368  0.023107551  0.022701338            8 
 3052000   0.77019046   -7.1385592    843.39888  0.023028585  0.022695098            8 
 3053000   0.76261341    -7.132343      845.632  0.023081996  0.022688859            7 
 3054000   0.76772176   -7.1515113    846.99512  0.023111633  0.022682599            8 
 3055000   0.74843313   -7.1707626    844.19647  0.023027727  0.022676343            8 
 3056000   0.77385021   -7.1709086    845.04836  0.023043422  0.022670068           14 
 3057000   0.74735012   -7.1599153     846.1437  0.023065742  0.022663795           13 
 3058000   0.77235877   -7.1771999    845.17273   0.02303174  0.022657543           11 
 3059000   0.77468832   -7.1278914    846.07648  0.023048831  0.022651279            4 
 3060000    0.7770848   -7.1682359    844.59786  0.023001031  0.022645033            5 
 3061000   0.75771526   -7.1715911    844.22544  0.022983378  0.022638779           10 
 3062000   0.75469289   -7.1502686    843.26233  0.022949661  0.022632547           12 
 3063000   0.74836866   -7.1633894    845.80511  0.023011348  0.022626316            9 
 3064000    0.7516129   -7.1936826    846.48077  0.023022214  0.022620074            9 
 3065000   0.74626715   -7.1799148    845.07723  0.022976542  0.022613807            9 
 3066000   0.77525549   -7.1419358    845.75717  0.022987529   0.02260754           16 
 3067000   0.77177412   -7.1859724    844.56386  0.022947611   0.02260129           11 
 3068000   0.75561923   -7.1764097    848.09434  0.023036026  0.022595055           13 
 3069000   0.78211406   -7.1566209    846.11932  0.022974892  0.022588844           13 
 3070000    0.7723656   -7.0986998    847.57394  0.023006893  0.022582649            6 
 3071000   0.75043303   -7.1730937    846.55374  0.022971718  0.022576448           12 
 3072000    0.7577764   -7.1484948    844.86692  0.022918482  0.022570201           15 
 3073000   0.76468202   -7.1707316    844.67689  0.022905871  0.022563953            9 
 3074000   0.75156556   -7.1702675    844.72083   0.02289961  0.022557693            6 
 3075000   0.76603171   -7.1919981    845.73311  0.022919596  0.022551402            5 
 3076000   0.75588786   -7.1746867    846.72985  0.022939148   0.02254514           10 
 3077000   0.76207464   -7.1704493    847.04059  0.022940109  0.022538873           13 
 3078000   0.75180536   -7.1453567    846.85068  0.022927515  0.022532643            9 
 3079000   0.73824807    -7.179358    846.42793  0.022908627  0.022526381            6 
 3080000   0.76307674   -7.1868642    843.72387  0.022828027  0.022520091           12 
 3081000   0.75596875   -7.1716362    846.79607  0.022903713  0.022513843           10 
 3082000   0.74923819   -7.1705371    846.28597  0.022882489  0.022507584            5 
 3083000   0.75380728    -7.166414    847.69488  0.022913149  0.022501335           26 
 3084000   0.75697736   -7.1576756    846.14473  0.022863833  0.022495087            8 
 3085000   0.76741368   -7.1564043    847.03544  0.022880482  0.022488844           11 
 3086000   0.77069913   -7.2079784    844.77687  0.022812078   0.02248257           13 
 3087000   0.76022336   -7.1822372    842.52292  0.022743843    0.0224763           15 
 3088000    0.7625094   -7.1769294    846.55634  0.022845324  0.022470028           13 
 3089000   0.77140832   -7.1418847    846.15676  0.022827149  0.022463791            4 
 3090000   0.75916726   -7.1861368      845.603  0.022804827  0.022457568           12 
 3091000   0.74585869   -7.1643935    845.87727  0.022804844  0.022451329            5 
 3092000   0.76311131   -7.1444388     847.6607  0.022845534  0.022445131            6 
 3093000   0.75053537   -7.1792622    847.98542  0.022846897  0.022438914            8 
 3094000   0.74087024   -7.1791887    846.08578  0.022788348  0.022432667            5 
 3095000   0.76625291   -7.1777311    848.27977  0.022840058  0.022426443           11 
 3096000   0.74485182   -7.1959852    845.14774  0.022748378  0.022420194           16 
 3097000   0.75461984   -7.1737672    846.91473  0.022788578   0.02241396            5 
 3098000   0.76050218   -7.1696301    846.52449  0.022770725  0.022407731            8 
 3099000   0.75790152   -7.1639205    849.32024  0.022838557  0.022401498            6 
 3100000   0.75186733   -7.1673596    848.60199  0.022811881  0.022395255           12 
 3101000   0.77020882   -7.1809086     847.4961  0.022774807  0.022389038            7 
 3102000   0.75574618    -7.166735     845.5382  0.022714867   0.02238278            9 
 3103000   0.75308597   -7.1809052    847.55826  0.022761797  0.022376529           11 
 3104000   0.75504391   -7.1731432    847.61659  0.022756029  0.022370308           11 
 3105000   0.76374882   -7.1737394    847.76137  0.022752586  0.022364084           11 
 3106000   0.73778175    -7.155198    847.56367  0.022739957  0.022357881            8 
 3107000     0.755094   -7.1691497    846.20176   0.02269611  0.022351676           11 
 3108000   0.75035136   -7.1732487    848.49879  0.022750396  0.022345453           12 
 3109000   0.76192814   -7.1705015    846.02255  0.022676706  0.022339231           12 
 3110000   0.75505103   -7.1639713    845.34831  0.022651348  0.022333015            5 
 3111000   0.77282958   -7.1798299    847.59719  0.022704307   0.02232677            7 
 3112000   0.76041226   -7.1835328    847.48687  0.022694057  0.022320526            6 
 3113000   0.74759439   -7.1661907    847.73926  0.022693523  0.022314312           10 
 3114000   0.75045509   -7.1900782    846.99908  0.022666428  0.022308124           24 
 3115000   0.75750729    -7.163467    847.11186  0.022662168  0.022301924           19 
 3116000   0.76336567   -7.1970656    847.96477  0.022677706  0.022295726           15 
 3117000   0.74037857   -7.1822249    849.00376  0.022698208  0.022289525            8 
 3118000   0.76791555   -7.1648182    848.17654  0.022668819  0.022283311           10 
 3119000   0.75808219   -7.2001169     848.3405  0.022665932  0.022277101           13 
 3120000   0.73769052   -7.1837455    848.45392  0.022661697  0.022270843           10 
 3121000   0.73959938   -7.2042217      849.852  0.022691765  0.022264624           10 
 3122000   0.74604214   -7.1671777      850.438  0.022700139  0.022258433           11 
 3123000   0.75309121   -7.1935133    849.08797  0.022656846  0.022252278            4 
 3124000   0.75890785    -7.207483    848.09064   0.02262299    0.0222461            9 
 3125000   0.76048234   -7.1922254    848.89695  0.022637252  0.022239909           21 
 3126000   0.75875354   -7.2098753    848.60177  0.022622142  0.022233707           19 
 3127000   0.75304381   -7.1894288    848.40192  0.022609581  0.022227518            8 
 3128000   0.74706358   -7.2158934    849.61609    0.0226347  0.022221323           15 
 3129000   0.73385394    -7.174108    848.57592  0.022599764  0.022215135           11 
 3130000   0.77280719   -7.2073893    848.58018  0.022592657  0.022208948            6 
 3131000    0.7666407   -7.1978592    847.97879  0.022569434   0.02220272            8 
 3132000   0.74341812   -7.1864149    849.84381  0.022611851  0.022196552            9 
 3133000   0.75495199   -7.2014684    848.80368  0.022576968  0.022190368            8 
 3134000   0.75472007   -7.1941305    851.32283  0.022636748  0.022184183            4 
 3135000   0.75432543   -7.1988405    847.47178  0.022527161   0.02217799            9 
 3136000   0.73125396   -7.2068429    846.68411  0.022499046  0.022171808           13 
 3137000     0.754068   -7.1912339    849.43875   0.02256505  0.022165605           10 
 3138000   0.76310317   -7.2000924    850.37486  0.022582719  0.022159417           22 
 3139000   0.74749138   -7.1986574    850.94155  0.022590569  0.022153203            6 
 3140000   0.74368591   -7.1932536     849.9362  0.022556693  0.022146991           14 
 3141000   0.74602174   -7.2185598    848.78106  0.022518865  0.022140773            9 
 3142000   0.74258652    -7.199929    849.00396   0.02251761  0.022134582           10 
 3143000   0.74336117   -7.2219487    848.42477  0.022495089  0.022128369            9 
 3144000   0.74974632   -7.2115593    849.54023    0.0225175   0.02212215           22 
 3145000   0.74666218   -7.2297788    848.75502  0.022489534  0.022115925           13 
 3146000   0.74687184   -7.2001881    848.35212  0.022471713  0.022109703           17 
 3147000   0.76414487   -7.2165024    849.52587  0.022495654  0.022103504           24 
 3148000   0.74232236    -7.200979    849.65427  0.022491907  0.022097331           33 
 3149000   0.74991285   -7.1801894    850.97732  0.022519777  0.022091149           28 
 3150000   0.76522337   -7.1868545    851.35486  0.022522615  0.022084976           40 
 3151000   0.74038697   -7.1979435    851.16874  0.022510545  0.022078825           35 
 3152000   0.74687907   -7.1838075    851.57697  0.022514196  0.022072694           39 
 3153000   0.75736277   -7.1991804    850.59327  0.022481057  0.022066564           27 
 3154000   0.75468803   -7.2048358    851.13991  0.022488372  0.022060401           19 
 3155000      0.73567   -7.2303547    849.79718  0.022445779  0.022054218           18 
 3156000   0.74202171   -7.2066687     852.7233   0.02251593  0.022048041            9 
 3157000   0.75462973   -7.1912204    851.06267  0.022464963  0.022041894           13 
 3158000   0.74525355   -7.1912273    849.79743  0.022424463  0.022035743            6 
 3159000   0.74210106   -7.1615689    850.95621  0.022447932  0.022029614           12 
 3160000   0.73042197   -7.2018508    850.20744  0.022421082  0.022023456            7 
 3161000   0.73595791   -7.2174859     849.0694  0.022383987  0.022017276           18 
 3162000   0.74541359   -7.2110869    851.15971  0.022431998  0.022011117           17 
 3163000   0.74324725   -7.2237407    849.50973  0.022381435  0.022004952            8 
 3164000   0.72819483   -7.2151834    850.43768  0.022398801   0.02199877            8 
 3165000   0.75071032   -7.1924655    851.59228  0.022422124  0.021992598            9 
 3166000   0.74094802   -7.1952381    850.58812  0.022388611  0.021986475           17 
 3167000   0.74900877   -7.2064169    851.59851  0.022408128   0.02198034           21 
 3168000   0.73952091   -7.2004878     851.7107  0.022404006  0.021974215           21 
 3169000   0.73355881   -7.1971138     854.3792  0.022467108  0.021968095           14 
 3170000   0.75330432   -7.1946864    855.15638  0.022480452  0.021962009            8 
 3171000   0.73255248   -7.1682381    852.48521  0.022403164   0.02195594            9 
 3172000    0.7495479   -7.2022592     850.3359  0.022339636  0.021949856            6 
 3173000   0.73221744    -7.210024    852.34166  0.022385273  0.021943768            9 
 3174000      0.75552    -7.187884    854.00064  0.022421777  0.021937678            7 
 3175000   0.72391002   -7.1968269    853.90975  0.022412329  0.021931586           13 
 3176000   0.74156321   -7.2195865     852.9598  0.022380348  0.021925484           10 
 3177000   0.74751762   -7.1740479    853.59511  0.022389967  0.021919401            9 
 3178000   0.75258849   -7.1856206    853.20032   0.02237257  0.021913319           12 
 3179000   0.74068769   -7.1954408    851.54935  0.022322254  0.021907208           14 
 3180000   0.73264214    -7.217324    853.16513  0.022357577  0.021901116            6 
 3181000   0.74383079   -7.2127274    852.29833  0.022327841  0.021895053            8 
 3182000   0.74968814   -7.1743607    854.91714  0.022389408  0.021889002            8 
 3183000   0.73726599   -7.1890336    854.97287  0.022383833  0.021882972            7 
 3184000   0.73450782   -7.1780381    850.85263  0.022268965  0.021876893            7 
 3185000   0.76133164   -7.1893404    852.82706  0.022313633  0.021870829            5 
 3186000   0.75474425   -7.1863118     853.2278  0.022317111  0.021864779            8 
 3187000   0.74535634   -7.1789562    855.43864  0.022367918  0.021858742            9 
 3188000   0.72936804   -7.1861545    854.00156  0.022323336  0.021852718            6 
 3189000   0.75092972   -7.1903923    852.26866  0.022271053  0.021846696           13 
 3190000   0.74175434   -7.1886251    853.62135  0.022299408   0.02184068            7 
 3191000   0.73834082   -7.2085935    852.40601  0.022260681  0.021834629            6 
 3192000   0.75389261   -7.1921647    853.84407  0.022291251  0.021828591            6 
 3193000   0.75023886   -7.2204367    852.87162   0.02225889   0.02182252           12 
 3194000   0.72836269   -7.1800439    852.92115  0.022253213  0.021816424            6 
 3195000   0.74523265   -7.2138359    852.85504  0.022244524  0.021810339            7 
 3196000   0.73949845   -7.2254676    853.68289  0.022259149  0.021804255           17 
 3197000   0.74707164   -7.2223843    849.99619  0.022156089   0.02179813           16 
 3198000   0.74088827   -7.1873023     852.3742  0.022211127  0.021792021            7 
 3199000   0.73589239   -7.2002796    851.76828  0.022188399  0.021785937            7 
 3200000   0.73257542   -7.2431307    852.94839  0.022212198  0.021779842            8 
 3201000   0.72078201   -7.2161708    852.32305  0.022188979  0.021773732            7 
 3202000    0.7316023   -7.2121118    851.89624  0.022170941  0.021767606           24 
 3203000   0.73323831   -7.2288918    852.87658  0.022189525  0.021761497            9 
 3204000   0.73555361   -7.2229334    852.57162  0.022174668  0.021755431            5 
 3205000   0.73756354   -7.2504447    852.03827  0.022153881  0.021749333            5 
 3206000   0.74955695   -7.2235128    852.99748  0.022171904  0.021743226           11 
 3207000   0.72284676   -7.2488477    853.93708  0.022189406  0.021737134           27 
 3208000   0.72790996   -7.1920491    855.06555  0.022211802  0.021731042            5 
 3209000   0.74179498   -7.2015693    854.21057  0.022182678   0.02172497           24 
 3210000   0.71685686   -7.2166283    854.88319  0.022193229  0.021718911           27 
 3211000   0.73812654   -7.2243344    854.90126  0.022186787  0.021712863           21 
 3212000   0.72365179   -7.2154848    854.49056  0.022169224  0.021706805           13 
 3213000   0.73985278   -7.2256394    852.80744   0.02211867  0.021700736           21 
 3214000   0.74025023   -7.2126339    855.31078  0.022176695  0.021694687           21 
 3215000   0.73969922   -7.2218502     856.5634  0.022202265  0.021688645           17 
 3216000   0.73488643   -7.2200428    855.07731  0.022156854  0.021682619           20 
 3217000   0.73918923   -7.2301953    854.85571  0.022144226  0.021676605           20 
 3218000    0.7413832   -7.2272813    855.42099  0.022151983  0.021670582            8 
 3219000   0.72161473   -7.2154109    855.50574  0.022147296  0.021664558           13 
 3220000   0.74537174   -7.2019873    855.32119  0.022135641  0.021658512           10 
 3221000   0.72649732   -7.2005036    856.34683  0.022155305  0.021652475           15 
 3222000   0.74484834   -7.2086445     857.0212   0.02216587  0.021646447           10 
 3223000   0.74131923   -7.2340125     855.0379  0.022107713  0.021640439            8 
 3224000   0.72940747   -7.2371458    854.33457  0.022082676  0.021634419            8 
 3225000   0.73034652   -7.2202189     853.4926  0.022054072  0.021628386           14 
 3226000   0.74572179    -7.205545    858.44603  0.022175192  0.021622351            6 
 3227000   0.73355025   -7.2208471     854.5577  0.022067909  0.021616315           11 
 3228000   0.73899481   -7.2298787    854.31331  0.022054763  0.021610262            9 
 3229000   0.73039611   -7.2335178    856.09551  0.022093928  0.021604214           14 
 3230000   0.73066317   -7.2361464    855.33275  0.022067408  0.021598198           23 
 3231000   0.71982996   -7.2305254    855.36473  0.022061403  0.021592161            8 
 3232000   0.72846572   -7.2247802     855.0305   0.02204596  0.021586133           10 
 3233000   0.72542631   -7.2123936    856.36983  0.022073663  0.021580128            9 
 3234000   0.72262341   -7.2632896    855.44806  0.022043085  0.021574104            5 
 3235000   0.73863298   -7.2268387    854.96903  0.022023932   0.02156806           19 
 3236000   0.72590422   -7.2003765    855.02284  0.022018512  0.021562037            7 
 3237000   0.73062497   -7.2265132     855.8126  0.022032041   0.02155602           17 
 3238000   0.73997214   -7.2057263    855.26163  0.022011057  0.021550026            9 
 3239000   0.73050849   -7.2158117    855.87455  0.022020031  0.021544034           19 
 3240000    0.7224137   -7.2210446    855.07188  0.021992589  0.021538014           15 
 3241000   0.74246122   -7.2158127    857.64141  0.022051872  0.021532016            6 
 3242000   0.74137116   -7.2429951     858.4271  0.022065266  0.021526025           10 
 3243000   0.72882138   -7.2232579    855.38526  0.021980297  0.021520029           20 
 3244000    0.7161031   -7.2378512    856.36252  0.021998626  0.021514034           19 
 3245000   0.74036252   -7.2210654    856.37639  0.021992203  0.021508042           15 
 3246000   0.73575424   -7.2362581    856.95635  0.022000317   0.02150203           18 
 3247000   0.73701437    -7.169987    857.50265  0.022007562  0.021496065            8 
 3248000   0.73725164   -7.2225846    857.31847  0.021996061  0.021490098           19 
 3249000   0.71790521   -7.2294539    857.70772  0.021999275  0.021484139           12 
 3250000   0.75940034    -7.235459    856.18803  0.021953539  0.021478164           12 
 3251000   0.73465007   -7.2269343    857.15681  0.021971619  0.021472185           13 
 3252000   0.74707386   -7.2194729    855.61488   0.02192535  0.021466188            4 
 3253000   0.71814687    -7.216485    855.96687  0.021927628  0.021460198           11 
 3254000   0.73488772   -7.2083363    854.94181  0.021894638  0.021454212           16 
 3255000   0.73132115    -7.233489    857.18135  0.021945247    0.0214482           11 
 3256000    0.7299532   -7.2063687    856.73314  0.021927036    0.0214422           14 
 3257000   0.73475017   -7.2380719    857.05968  0.021928658  0.021436216           23 
 3258000   0.72963358   -7.1899082    856.72246  0.021913302  0.021430241            8 
 3259000   0.73372249   -7.1665803    858.14185  0.021942872  0.021424287           12 
 3260000   0.74263076   -7.2324207    858.03317  0.021933363  0.021418333            8 
 3261000   0.71736297   -7.1967067    856.50775  0.021887656  0.021412343            9 
 3262000    0.7274973   -7.2103651    857.37519  0.021903106  0.021406332           10 
 3263000   0.74227608   -7.2289565     858.3575  0.021921481  0.021400334           10 
 3264000    0.7266344   -7.2587684    856.92213  0.021878118   0.02139433           20 
 3265000   0.72699644   -7.2353102      856.955  0.021872256  0.021388308            6 
 3266000   0.72887625   -7.2304469    854.18995  0.021795008  0.021382297            5 
 3267000   0.72872462   -7.2468644    855.93551  0.021832862  0.021376255           10 
 3268000   0.72882582   -7.2523036    856.46451   0.02183967  0.021370229           11 
 3269000   0.71691475   -7.2367572    857.38492  0.021856452  0.021364197           17 
 3270000   0.73293175    -7.228323    857.40847  0.021850369  0.021358161           13 
 3271000   0.71781261   -7.2730299    855.84981   0.02180398  0.021352114           18 
 3272000   0.72130125   -7.2431924    857.62583  0.021842549  0.021346075           16 
 3273000   0.72459028   -7.2616652    853.81435  0.021738832  0.021340031           11 
 3274000   0.71373186   -7.2548075    856.38433  0.021797606  0.021333987           23 
 3275000   0.73015763   -7.2554497    856.30029  0.021788812  0.021327954           13 
 3276000   0.71647771     -7.27991    854.94056  0.021747572  0.021321909           32 
 3277000   0.73854255   -7.2376815    857.18107  0.021797912  0.021315869           16 
 3278000   0.72250366   -7.2267803    857.59772  0.021801854  0.021309833            9 
 3279000   0.74339904   -7.2111302    858.16158  0.021809535  0.021303812            8 
 3280000   0.74543263   -7.2469749     856.8119  0.021768595  0.021297811           11 
 3281000   0.71604665    -7.250413     856.8277  0.021762362  0.021291796           12 
 3282000   0.72665257   -7.2434904    857.94088  0.021783995  0.021285777            9 
 3283000    0.7226386   -7.2417579    856.67563  0.021745244  0.021279739           11 
 3284000   0.73434094     -7.25467    855.13308  0.021699479  0.021273723           11 
 3285000    0.7293217   -7.2240678    854.85334  0.021685777  0.021267691           13 
 3286000   0.72355794   -7.2349209     856.6896  0.021725746  0.021261671           16 
 3287000   0.71416633   -7.2215145    857.30938  0.021734849  0.021255645           17 
 3288000    0.7021863   -7.2453941    855.36621  0.021678989  0.021249645            9 
 3289000    0.7300075   -7.2527846    856.17198  0.021692814  0.021243618           16 
 3290000   0.72405882   -7.2296087    858.53232  0.021746006   0.02123759            8 
 3291000   0.72109709   -7.2267744    856.67098  0.021692266  0.021231552            9 
 3292000   0.71958534   -7.2419977    856.34419  0.021677405  0.021225518            6 
 3293000   0.72147909   -7.2398248    854.60338  0.021626768  0.021219491            9 
 3294000   0.72149814   -7.2371918    855.03469  0.021631114   0.02121346            7 
 3295000   0.71732428   -7.2340892    856.46146  0.021660634  0.021207412           10 
 3296000   0.72497488   -7.2414911    857.19709  0.021672661  0.021201393           12 
 3297000   0.75171825   -7.2583743    858.29392  0.021693811  0.021195378           15 
 3298000   0.72885371    -7.223204    857.23487  0.021660473  0.021189361           15 
 3299000   0.71920497   -7.2587205    856.85991  0.021644435  0.021183329           14 
 3300000    0.7415041   -7.2428167    856.43873  0.021627241  0.021177295           11 
 3301000   0.71467318    -7.238372    854.88391  0.021581438  0.021171274           16 
 3302000   0.73634722   -7.2464898    856.95983  0.021627292   0.02116524           20 
 3303000   0.70130746   -7.2433647    856.56653  0.021610822  0.021159176           21 
 3304000    0.7307917   -7.2486569    858.10912  0.021643188  0.021153132           24 
 3305000   0.72559368    -7.261432    856.13359  0.021586828  0.021147117           19 
 3306000   0.71738554   -7.2652955    856.87499  0.021598986   0.02114106           17 
 3307000   0.72248052   -7.2667254    856.12261  0.021573496  0.021134988           17 
 3308000   0.72408015   -7.2654173    855.04575  0.021539847  0.021128906           11 
 3309000    0.7190294   -7.2865662    855.44282  0.021543337  0.021122811           11 
 3310000   0.70820717   -7.2752405    855.34061  0.021534255  0.021116721           10 
 3311000   0.73408537   -7.2579964    856.01677  0.021544769  0.021110648           19 
 3312000   0.71869139   -7.2513769    858.01349  0.021588504  0.021104597            7 
 3313000   0.72479725   -7.2498428    855.11562  0.021509096  0.021098549            7 
 3314000   0.73250613   -7.2510075     855.2023  0.021504785  0.021092492            8 
 3315000   0.71814116   -7.2626924    855.51683  0.021506205  0.021086428           16 
 3316000   0.71770879   -7.2688238    856.45663  0.021523337  0.021080362            6 
 3317000      0.72092   -7.2584619    857.61602  0.021545976  0.021074315           23 
 3318000   0.70961598   -7.2553043    856.28389  0.021506025  0.021068262           18 
 3319000   0.71747431   -7.2612214    856.11828  0.021495387  0.021062197           23 
 3320000    0.7276212   -7.2605808    857.09905   0.02151353  0.021056135           18 
 3321000    0.7085495   -7.2448415    855.02619  0.021455038  0.021050068           12 
 3322000   0.71388335   -7.2493506    856.02889  0.021473733  0.021044009            9 
 3323000   0.71372501   -7.2924909    855.63059  0.021457282  0.021037935           12 
 3324000   0.71312977   -7.2586549    857.25367  0.021491518  0.021031872           10 
 3325000   0.71640875   -7.2387925    856.98194  0.021478244  0.021025808            8 
 3326000   0.72894931   -7.2619548     857.0386  0.021473206  0.021019753            8 
 3327000    0.7118541   -7.2609218    856.30258  0.021448316  0.021013712           11 
 3328000    0.7257055   -7.2484108    856.35272  0.021443127  0.021007679            7 
 3329000   0.73816099   -7.2772797     855.8543  0.021424209  0.021001617            5 
 3330000   0.70556168      -7.2418    857.53199   0.02145976  0.020995568           10 
 3331000    0.7171154   -7.2521685    856.17404  0.021419345  0.020989522            7 
 3332000   0.72007959   -7.2431251    858.91917  0.021481572    0.0209835            9 
 3333000   0.70549635   -7.2477337        859.5  0.021489649  0.020977488            9 
 3334000   0.70789493    -7.241268     856.9486  0.021419431  0.020971454           17 
 3335000   0.72666485   -7.2517729    855.58181  0.021378856  0.020965427           14 
 3336000   0.72253979   -7.2222528    857.41511  0.021418243  0.020959403           13 
 3337000   0.72810971   -7.2649212    858.42564   0.02143706  0.020953393            4 
 3338000   0.72242668   -7.2496527    857.68695  0.021412197   0.02094735           16 
 3339000   0.71928162   -7.2396695    857.54559  0.021402256  0.020941332           20 
 3340000   0.70306713   -7.2734429    858.25443  0.021413534  0.020935302            8 
 3341000   0.73490865   -7.2496404    857.31113  0.021383596  0.020929288            6 
 3342000   0.71509352   -7.2369692    855.70817  0.021337227   0.02092328           11 
 3343000   0.71902388   -7.2383661     859.1656  0.021417031  0.020917269           18 
 3344000   0.70674364   -7.2107896    857.88553  0.021378726  0.020911267           10 
 3345000   0.72463384   -7.2298715    859.63255  0.021415858  0.020905274            6 
 3346000   0.70946905   -7.2460383    856.24431  0.021325073  0.020899265           10 
 3347000   0.71054695   -7.2695203    856.70881  0.021330266  0.020893242            8 
 3348000   0.71925274   -7.2760776    857.24368  0.021337208  0.020887209           16 
 3349000   0.70755682   -7.2784074    857.90923  0.021347398  0.020881156           17 
 3350000   0.73027601    -7.267175    856.65471  0.021309819  0.020875108           36 
 3351000    0.7135603   -7.2597325    858.00952  0.021337151  0.020869058           15 
 3352000    0.7147107   -7.2617713    858.28538  0.021337644   0.02086301           21 
 3353000   0.71282266    -7.273963    856.71868  0.021292342  0.020856953           14 
 3354000   0.70042901   -7.2992606    855.05834  0.021244741  0.020850885           13 
 3355000   0.72450682   -7.2738327    855.69155  0.021254137  0.020844822           10 
 3356000   0.71948296   -7.2583224    858.93299  0.021328292  0.020838767           19 
 3357000   0.72429821   -7.2509763    856.42046  0.021259569  0.020832737            8 
 3358000   0.72917037   -7.2583859    856.79609  0.021262559  0.020826726           13 
 3359000    0.7148037    -7.241283    857.86385  0.021282719  0.020820708           12 
 3360000   0.72486087     -7.22957    856.79387  0.021249848  0.020814663            9 
 3361000   0.71596926   -7.2454361    857.84697  0.021269636  0.020808651            5 
 3362000   0.71757565   -7.2757715    858.29948  0.021274526  0.020802635           12 
 3363000   0.71554357   -7.2605081    858.75995   0.02127961  0.020796607            9 
 3364000   0.71505921   -7.2711807    858.15111  0.021258202  0.020790585            8 
 3365000   0.71491968   -7.2606543    857.92442  0.021246271  0.020784573            9 
 3366000    0.7078978   -7.2723386    858.47753  0.021253652  0.020778556           23 
 3367000   0.73417019   -7.2556785    858.72799  0.021253539  0.020772526           12 
 3368000   0.72331334   -7.2729713    857.84449  0.021225368  0.020766494           18 
 3369000   0.72216852   -7.2681057    856.48456   0.02118543  0.020760461           12 
 3370000   0.71428162   -7.2599679    857.16408  0.021195947  0.020754436           32 
 3371000   0.72113092   -7.2514624    857.89114  0.021207632  0.020748421           14 
 3372000   0.71692314   -7.2613801    857.23859  0.021185216  0.020742381           24 
 3373000   0.71370067   -7.2744959    856.32977  0.021156482  0.020736334           13 
 3374000   0.71552794   -7.2920721    856.57143   0.02115618  0.020730268           21 
 3375000   0.71716651   -7.2863281    856.79205  0.021155359  0.020724218           19 
 3376000   0.69724661   -7.2785435    857.20584  0.021159307  0.020718166           49 
 3377000   0.70774423   -7.2686356    857.88822   0.02116988   0.02071212           15 
 3378000   0.72937813   -7.2889982    857.44758  0.021152743  0.020706072           28 
 3379000   0.69859498   -7.2591643    858.36923  0.021169213  0.020700037           14 
 3380000   0.70579986   -7.3061002    856.27567  0.021111333  0.020693969           14 
 3381000   0.68878914   -7.2635602    857.18606  0.021127528  0.020687911           10 
 3382000   0.71425189   -7.2720965    857.32796  0.021124777  0.020681867            6 
 3383000   0.70581748   -7.2782651    857.05511  0.021111812  0.020675824           17 
 3384000   0.72406385   -7.2610049    857.36126  0.021113112  0.020669794            9 
 3385000   0.72732147   -7.2923595    858.67936  0.021139324  0.020663768            5 
 3386000   0.73427952   -7.2908539    857.32562  0.021099764  0.020657762            9 
 3387000   0.70997158   -7.2657152    857.95645  0.021109055  0.020651763            7 
 3388000   0.70619934    -7.280338    856.48273  0.021066576  0.020645763           18 
 3389000   0.72239265   -7.2846083    857.51152  0.021085657  0.020639763            8 
 3390000   0.71519871   -7.2714778    857.50694  0.021079325  0.020633774           15 
 3391000   0.70411883   -7.2734913    860.69339  0.021151415  0.020627792            8 
 3392000   0.70473569   -7.2489508    857.40777   0.02106446  0.020621815           14 
 3393000   0.70868671   -7.2805287    859.11949  0.021100292  0.020615869           13 
 3394000   0.70882644   -7.2486429    858.58068  0.021080846    0.0206099            9 
 3395000   0.71360699   -7.2793027    857.90833  0.021058133  0.020603929           16 
 3396000   0.69328259   -7.3022612    858.62113  0.021069423  0.020597967            7 
 3397000   0.69377356   -7.3017184    859.04476  0.021073613  0.020591993           10 
 3398000   0.70779618   -7.2831943    859.44378  0.021077197  0.020586039           17 
 3399000   0.70677759   -7.2758118    858.97869  0.021059593  0.020580075           17 
 3400000   0.71523134   -7.3089597    860.19486  0.021083207  0.020574112           19 
 3401000    0.7029863   -7.2837079     858.9571   0.02104668  0.020568148            9 
 3402000   0.71601541    -7.297552    859.09705  0.021043922   0.02056219            5 
 3403000   0.70774041   -7.2897428    860.65069  0.021075783  0.020556234           15 
 3404000   0.70796518   -7.2987184    859.75903  0.021047763  0.020550269            9 
 3405000    0.6945805   -7.3047721    860.19023  0.021052135  0.020544305           12 
 3406000   0.72162402   -7.2879119    858.33535  0.021000571  0.020538327           10 
 3407000   0.71266383   -7.2829308    860.51707  0.021047771  0.020532357           15 
 3408000   0.72199425   -7.2861455    861.67059  0.021069801  0.020526415            9 
 3409000   0.71226839   -7.2634535     859.6571  0.021014401  0.020520478           23 
 3410000   0.71497928   -7.2815787    860.42999  0.021027126  0.020514563            6 
 3411000   0.69372092   -7.2832578    859.53736  0.020999154  0.020508653           14 
 3412000   0.69655432   -7.3171366    860.58558  0.021018601  0.020502742           17 
 3413000   0.69258758   -7.2947775    861.76552  0.021041252  0.020496833            9 
 3414000   0.70221188   -7.2943668    861.70049  0.021033501  0.020490913           16 
 3415000   0.71246169   -7.2700749    861.17628   0.02101455  0.020484999           12 
 3416000   0.69609102   -7.2948357     861.1728  0.021008314   0.02047909           13 
 3417000   0.70064973   -7.2705207     859.9791  0.020973054  0.020473182           16 
 3418000   0.71269389   -7.2923876    860.21245  0.020972607  0.020467272           45 
 3419000   0.71131456   -7.2757051    863.01819  0.021034859  0.020461385           13 
 3420000   0.69672125   -7.2796099    861.78553  0.020998673  0.020455513           14 
 3421000   0.70463128   -7.2596909    862.24858  0.021003814  0.020449629           15 
 3422000   0.70116355   -7.2943065    860.37822  0.020952129  0.020443748           14 
 3423000   0.70915844   -7.2786337    860.08134   0.02093878  0.020437866           12 
 3424000   0.71299736   -7.2561798    861.08753  0.020957154  0.020431966           26 
 3425000   0.70846738   -7.2890631    858.84378  0.020896442  0.020426065           12 
 3426000   0.69528931   -7.2703046    861.70397  0.020959914  0.020420184           10 
 3427000   0.70336336   -7.3024442    861.26681  0.020943167  0.020414298           10 
 3428000   0.71443288   -7.2902549    862.43307  0.020965409  0.020408414           15 
 3429000   0.71380264   -7.2740754      861.254  0.020930641  0.020402533           12 
 3430000   0.70392045   -7.2474678    861.90651  0.020940392   0.02039666           19 
 3431000   0.70264576   -7.2537008    860.15542  0.020891757  0.020390794            9 
 3432000    0.7021721   -7.3054126    861.18365  0.020910636  0.020384901           17 
 3433000   0.70487957   -7.2973385    860.87457  0.020897043  0.020379025           16 
 3434000   0.70341253   -7.2699535    860.78543  0.020888794   0.02037315           10 
 3435000   0.71798597   -7.2907452    862.08454  0.020914229  0.020367279           17 
 3436000   0.69297435   -7.2812753    861.47405  0.020893336  0.020361383           14 
 3437000   0.70585286   -7.3254124    861.56151  0.020889378  0.020355469            6 
 3438000    0.7078381   -7.2942544    860.80857  0.020865052  0.020349554           13 
 3439000   0.70318136    -7.293264    860.72214   0.02085689  0.020343648           16 
 3440000   0.68926742   -7.2959911     861.0231  0.020858118  0.020337763           10 
 3441000   0.70447184    -7.277859    859.84593  0.020823548  0.020331858           16 
 3442000   0.68315537   -7.2906429    862.09765  0.020872014  0.020325944           24 
 3443000   0.69697351   -7.2920546    860.54401  0.020828348  0.020320036           16 
 3444000   0.70856874   -7.3017615    860.59186  0.020823458  0.020314119           15 
 3445000   0.68089181   -7.3025577     859.2911  0.020785948  0.020308201           11 
 3446000   0.70262985   -7.2988844    861.07716  0.020823108  0.020302262           20 
 3447000    0.6966821   -7.2968927    859.86045  0.020787652   0.02029632           18 
 3448000   0.69163355   -7.3067735    859.27839  0.020767556  0.020290369           36 
 3449000   0.70666723   -7.3116842    859.92055   0.02077705  0.020284403           16 
 3450000   0.68283064   -7.3282746    858.20869  0.020729679   0.02027842           10 
 3451000   0.68646759   -7.3092398    857.97676  0.020718071  0.020272428            8 
 3452000   0.68689197   -7.3023088    858.26232  0.020718963  0.020266452           10 
 3453000   0.71210257   -7.2989025    860.80308   0.02077428   0.02026048           12 
 3454000   0.69404555   -7.3025993    857.58135  0.020690536  0.020254505           24 
 3455000   0.69410335     -7.33559    860.37189  0.020751855  0.020248522           18 
 3456000    0.7016351   -7.3013998    860.20471  0.020741819  0.020242535           12 
 3457000   0.69602315   -7.3066764    860.28943  0.020737861  0.020236566           33 
 3458000   0.69786785   -7.3207356    858.55942  0.020690173  0.020230577           25 
 3459000   0.70543167   -7.3224698    858.98394  0.020694419  0.020224568           42 
 3460000   0.69563331   -7.3137983    859.00326  0.020688903  0.020218587           30 
 3461000   0.69494973   -7.3231182    857.85766  0.020655342   0.02021261           25 
 3462000   0.70210424   -7.3117486    859.24279  0.020682717  0.020206645           37 
 3463000   0.69219863   -7.3186506    858.39175  0.020656265  0.020200686           43 
 3464000   0.71337874   -7.3229723    858.38663  0.020650179   0.02019471           27 
 3465000   0.69397791   -7.2934728    858.38508  0.020644182  0.020188726           31 
 3466000   0.70478414    -7.302293    859.04168  0.020654012  0.020182774           17 
 3467000   0.70021566   -7.3118769    859.32056  0.020654758  0.020176827           13 
 3468000   0.70466677    -7.304284    859.52578  0.020653734  0.020170887           11 
 3469000   0.70657324   -7.3056272    859.39013  0.020644521  0.020164971           16 
 3470000    0.6967023    -7.296044    861.16724   0.02068125  0.020159057           15 
 3471000   0.69852879   -7.2982278    859.42287  0.020633412  0.020153131            7 
 3472000   0.68941997    -7.293034    861.05426  0.020666625  0.020147222            9 
 3473000   0.68500692   -7.2747492    862.20853   0.02068837  0.020141328            8 
 3474000   0.69856018   -7.2780823    859.88365  0.020626647   0.02013543           10 
 3475000   0.69246339   -7.2551589    861.99188  0.020671268  0.020129546            6 
 3476000   0.69866279   -7.3209674    862.41768  0.020675529  0.020123674           13 
 3477000   0.70198752   -7.3102433    860.97525  0.020635012  0.020117781           24 
 3478000   0.69521588   -7.2932634    860.49755  0.020617633  0.020111883           19 
 3479000   0.69303243   -7.2819319    861.68191  0.020640076  0.020105979           11 
 3480000   0.67714034   -7.3058432    859.87271  0.020590822  0.020100084           14 
 3481000   0.70692938   -7.2892003    863.07845   0.02066165   0.02009422           10 
 3482000   0.71005368   -7.2850443    861.98606  0.020629572  0.020088349           19 
 3483000   0.69765775   -7.3412126    860.04163  0.020577128  0.020082458           23 
 3484000   0.69437683   -7.3218254    862.46003  0.020629067   0.02007657           13 
 3485000   0.68566749   -7.3319221    860.97156  0.020587555  0.020070688           24 
 3486000   0.69804414    -7.295396    861.80469  0.020601566   0.02006482           28 
 3487000   0.69484272   -7.3241293    860.94253  0.020575053  0.020058945           23 
 3488000   0.68692388   -7.3135116    859.25497  0.020528836  0.020053035           29 
 3489000   0.70909162   -7.3163469    861.65948  0.020580383  0.020047134           31 
 3490000   0.70258159   -7.3200229    859.86744  0.020531696  0.020041242           21 
 3491000   0.71787744   -7.3407512    858.60576  0.020495697  0.020035341           25 
 3492000     0.706123   -7.3197604    859.74512  0.020517018   0.02002943           16 
 3493000   0.68592057   -7.3231572    859.99511  0.020517108  0.020023522           17 
 3494000   0.69639111    -7.324371    860.23171  0.020516879  0.020017629           20 
 3495000   0.69607428   -7.3097679    861.19763   0.02053404   0.02001174           18 
 3496000   0.69495109   -7.2919482    862.83093  0.020567099  0.020005877           17 
 3497000   0.67810611   -7.3273952    862.05169  0.020542648   0.02000001           15 
 3498000   0.68566167   -7.2896809    861.49423  0.020523495  0.019994151           23 
 3499000   0.68194419   -7.3158049    860.95679   0.02050483  0.019988286           17 
 3500000   0.69005298    -7.323738    859.50694  0.020464451  0.019982388           16 
 3501000   0.69306943    -7.346323    862.19369  0.020522558  0.019976487           10 
 3502000   0.69212938    -7.343073    860.70808  0.020481346  0.019970578            6 
 3503000   0.69263009   -7.3039202    862.10223  0.020508665  0.019964693           12 
 3504000   0.69283221   -7.3223691    861.97559    0.0204998  0.019958815            7 
 3505000   0.68525286   -7.3189011    862.02602   0.02049515  0.019952957            7 
 3506000   0.68424645   -7.3166432    860.55772  0.020454405  0.019947104           22 
 3507000   0.68785594   -7.3062816    860.65907  0.020450981  0.019941235           28 
 3508000   0.70355009   -7.3042314    862.72864  0.020494314  0.019935382           20 
 3509000   0.69343128     -7.31104    861.98768  0.020470877  0.019929536           28 
 3510000   0.67586464   -7.3192426    862.22028  0.020470567  0.019923684           35 
 3511000    0.6868529   -7.3118597    860.43478  0.020422358  0.019917812           14 
 3512000   0.68921212   -7.3260295    860.81908  0.020425662  0.019911956           17 
 3513000   0.68574441   -7.3245475    862.90568  0.020469344  0.019906109           16 
 3514000   0.69302581   -7.3140496    862.00204   0.02044209  0.019900272            7 
 3515000   0.65740367   -7.3080123     863.1287  0.020462985  0.019894431           19 
 3516000   0.67461629   -7.3103681    862.21674   0.02043555  0.019888592            9 
 3517000   0.69559632   -7.2996795    862.08338   0.02042658  0.019882757           23 
 3518000   0.70203375   -7.3162868    861.68399  0.020411313  0.019876915           13 
 3519000   0.68792336   -7.3346285    862.31093  0.020420359  0.019871075           11 
 3520000   0.70342555   -7.3142987    859.91121  0.020357746  0.019865227            7 
 3521000   0.68624049   -7.3241488    862.94693  0.020423813   0.01985938            9 
 3522000   0.70399648   -7.3067757    860.91678  0.020369979  0.019853521            8 
 3523000   0.68490969   -7.3492715    861.50086  0.020378013  0.019847664           20 
 3524000   0.68928751   -7.3220006     863.6927  0.020424061  0.019841822           25 
 3525000   0.70014592   -7.3193236    862.80407  0.020397259  0.019835973           18 
 3526000   0.68719416   -7.3006206    862.84198   0.02039237  0.019830138            7 
 3527000   0.65870153   -7.3225911    861.40588  0.020352658  0.019824299           25 
 3528000   0.70351038   -7.3242362    861.77449  0.020355595  0.019818461           19 
 3529000   0.68667021   -7.3257394    861.11305  0.020334208  0.019812623           15 
 3530000   0.69404703   -7.3449514    861.44641  0.020336318  0.019806796           16 
 3531000    0.6867273   -7.3399801    862.93467  0.020365682  0.019800965           12 
 3532000   0.67886521    -7.336248    862.24805  0.020343716  0.019795122           17 
 3533000   0.69009998   -7.3488314    861.78061  0.020326932  0.019789289           12 
 3534000   0.69537302   -7.3598544    861.24834  0.020308629   0.01978346           23 
 3535000   0.69126828   -7.3337559    860.82337  0.020292866  0.019777619           16 
 3536000   0.69810266   -7.3273844    863.16545  0.020342323  0.019771772           21 
 3537000   0.68971469   -7.2988982     864.4171  0.020366061  0.019765954           16 
 3538000    0.6782782   -7.3272813    861.27639  0.020286329  0.019760145           32 
 3539000   0.70441961   -7.3340413    862.24468  0.020303397  0.019754319           19 
 3540000   0.67649953   -7.3011749    862.00108  0.020291928  0.019748498           19 
 3541000   0.66408219   -7.3245576    863.04228    0.0203107  0.019742687           21 
 3542000   0.69771221    -7.312783    863.06278  0.020305448  0.019736863           31 
 3543000   0.68066315   -7.3192556     862.8321  0.020294292  0.019731046           18 
 3544000   0.67593428   -7.3215687    860.63762  0.020236964  0.019725225           26 
 3545000   0.68325002   -7.3332102    863.13959   0.02029007    0.0197194           46 
 3546000   0.68308056   -7.3173041    862.89515  0.020278604  0.019713563           35 
 3547000    0.6854859   -7.3101386     862.0656  0.020253397  0.019707728           28 
 3548000    0.6658873   -7.3200109    863.03827  0.020270534  0.019701911           60 
 3549000   0.69930491   -7.3221345    862.03295  0.020241217   0.01969608           58 
 3550000   0.68343237   -7.3370364    863.06409   0.02025972  0.019690261           50 
 3551000   0.68245235   -7.3366444    862.95489  0.020251452  0.019684434           23 
 3552000   0.69126395    -7.333275    863.21632  0.020251884  0.019678616           14 
 3553000    0.6743639   -7.3154404    860.05834  0.020172116  0.019672786           32 
 3554000   0.67729386   -7.3112385    861.87964  0.020209146  0.019666961           28 
 3555000   0.67708956   -7.3458633    862.34305  0.020214324  0.019661157           45 
 3556000   0.68688545   -7.3345454    860.89658  0.020174742  0.019655359           43 
 3557000   0.69031785   -7.3282385    861.15721  0.020175176  0.019649554           25 
 3558000   0.68118511    -7.340919    863.19972  0.020217344  0.019643745           40 
 3559000   0.66783444   -7.3271549    862.62124  0.020198118  0.019637945           38 
 3560000   0.67977412   -7.3329414     861.7648  0.020172397  0.019632134           35 
 3561000   0.66953162   -7.3342235    863.47449  0.020206742  0.019626312           35 
 3562000   0.66706636   -7.3312078    863.65013  0.020205178   0.01962051           17 
 3563000   0.68230443   -7.3241815    862.60202  0.020174993  0.019614714           20 
 3564000   0.67578746    -7.333348    862.32973  0.020162966  0.019608924           21 
 3565000   0.66604602   -7.3300865    863.35121  0.020181188   0.01960313           21 
 3566000   0.69687728   -7.3575171    862.90745  0.020165158  0.019597326           36 
 3567000   0.67764593   -7.3222815    862.62704  0.020152954  0.019591537           35 
 3568000   0.68081056   -7.3454327    863.92464  0.020177612  0.019585752           31 
 3569000   0.67407535   -7.3328681    862.58052  0.020140574  0.019579969           28 
 3570000    0.6845222   -7.3102341    864.44072  0.020178355  0.019574209           34 
 3571000   0.68297848   -7.3319649    865.19103  0.020190213  0.019568438           19 
 3572000   0.69946612   -7.3433793    863.75318  0.020151017  0.019562685           21 
 3573000   0.66513781   -7.3102502    863.30368  0.020134893  0.019556913           20 
 3574000    0.6766866   -7.3367689    863.89126   0.02014296  0.019551143           28 
 3575000   0.68392491   -7.3390638    864.85926   0.02015989  0.019545371           33 
 3576000    0.6841365   -7.3280896    863.73341  0.020128016  0.019539589           65 
 3577000    0.6796206   -7.3105313    861.80374  0.020077433  0.019533826           24 
 3578000   0.68898545   -7.3515069    865.42818  0.020156237  0.019528059           13 
 3579000   0.68713967   -7.3426185    861.89044  0.020068232  0.019522298           15 
 3580000   0.66125372   -7.3335099    864.52549  0.020123964  0.019516524           20 
 3581000   0.68200446   -7.3328199    863.12082  0.020085656   0.01951076           18 
 3582000   0.68000751   -7.3462464    864.77969  0.020118642  0.019505001           27 
 3583000   0.66686198   -7.3507171    863.33313  0.020079382  0.019499253           26 
 3584000   0.69942806   -7.3619844    863.34091  0.020073961  0.019493483           41 
 3585000   0.68183036   -7.3554486    862.30726  0.020044334  0.019487716           22 
 3586000    0.6830531   -7.3369474    861.33795  0.020016219  0.019481959           20 
 3587000   0.68278369   -7.3357777      864.466   0.02008331  0.019476208           11 
 3588000   0.67889927   -7.3336325    862.20513  0.020025203  0.019470468           19 
 3589000   0.67435432   -7.3501373    864.02491  0.020061877  0.019464744            8 
 3590000   0.67771409   -7.3558341    864.88965  0.020076361   0.01945902           15 
 3591000    0.6730263   -7.3347838    862.93306  0.020025366  0.019453303           26 
 3592000   0.66648049   -7.3571456    862.68905   0.02001413  0.019447568           14 
 3593000    0.6710748    -7.336667    861.32578  0.019976941   0.01944183           11 
 3594000   0.67892238   -7.3361892    865.03387  0.020057361  0.019436101           11 
 3595000   0.69668553   -7.3375317    863.67608  0.020020308  0.019430387           12 
 3596000   0.68548918   -7.3355444     865.5228  0.020057536  0.019424676            7 
 3597000   0.66719289   -7.3573663    863.84616  0.020013116  0.019418961           14 
 3598000   0.65396622   -7.3348861    866.04301  0.020058436  0.019413235           10 
 3599000   0.66110539   -7.3675636    863.55257  0.019995197  0.019407525           19 
 3600000   0.67214081   -7.3600775    863.98538  0.019999662  0.019401794           15 
 3601000   0.68475077   -7.3461552    865.26564  0.020023735  0.019396087            9 
 3602000   0.67968865   -7.3418539    863.90772   0.01998676  0.019390366           11 
 3603000   0.67475289     -7.36756    864.53976  0.019995831  0.019384661           17 
 3604000    0.6753764   -7.3340546    864.36758  0.019986302  0.019378965           24 
 3605000   0.67302618   -7.3287375    864.00415  0.019972357  0.019373267           33 
 3606000   0.66694932   -7.3409779    865.17699  0.019993922  0.019367565           14 
 3607000    0.6593491   -7.3575044    863.63197  0.019952684   0.01936187           35 
 3608000   0.68342177    -7.373378    865.43568  0.019988814  0.019356169           26 
 3609000   0.68107285   -7.3304679     864.9283  0.019971559  0.019350476           15 
 3610000   0.65776121   -7.3606194    863.55853  0.019934407   0.01934478           10 
 3611000   0.68335608   -7.3448735    864.97659  0.019961612  0.019339082            8 
 3612000    0.6742092   -7.3354848     864.9761  0.019956075  0.019333406           15 
 3613000   0.68489077   -7.3358182    863.91768  0.019926139  0.019327743           16 
 3614000   0.66272659   -7.3540415    864.21209  0.019927414  0.019322072           15 
 3615000   0.68301629   -7.3591811    864.03257  0.019917763  0.019316409           10 
 3616000   0.69250158   -7.3352111    865.86259  0.019954429  0.019310729           19 
 3617000   0.66893921   -7.3467048    864.56556  0.019919029  0.019305055           17 
 3618000   0.65648842   -7.3389425    868.49455   0.02000402  0.019299404           15 
 3619000   0.67114644   -7.3494096    865.73594  0.019934971   0.01929374            8 
 3620000   0.68132691   -7.3616965    865.05414  0.019913769  0.019288083           13 
 3621000   0.66367415   -7.3181335    865.20267  0.019911688  0.019282425           17 
 3622000   0.67608431   -7.3615069    865.00515  0.019901646  0.019276768           29 
 3623000   0.67938457   -7.3627428    864.78408  0.019891068  0.019271115            8 
 3624000   0.65265157   -7.3457274    866.09091   0.01991563  0.019265444           12 
 3625000    0.6704039   -7.3703062     864.8907  0.019882545  0.019259774            9 
 3626000   0.68011235   -7.3495133    865.11457  0.019882206  0.019254108           16 
 3627000   0.67915187   -7.3649733    865.71663  0.019890558  0.019248439           16 
 3628000   0.67271803   -7.3379767    866.46389  0.019902239  0.019242778           10 
 3629000   0.67060367   -7.3505275    865.37695  0.019871795  0.019237129           16 
 3630000    0.6687703   -7.3331187    865.89905  0.019878307  0.019231481            9 
 3631000   0.66868762   -7.3382525    866.41535  0.019884682  0.019225848           10 
 3632000   0.67747286    -7.352657    865.20687  0.019851479  0.019220215           36 
 3633000   0.67728943   -7.3446654    865.79113  0.019859417   0.01921456           21 
 3634000   0.66728036   -7.3413851    865.30129  0.019842719  0.019208921           24 
 3635000   0.67221862   -7.3539887    866.73801  0.019870197  0.019203277           13 
 3636000   0.67284092   -7.3614587    866.28422  0.019854332   0.01919763           34 
 3637000   0.65634385   -7.3671055     866.7187  0.019858828  0.019191995           12 
 3638000   0.66554048   -7.3519477    866.62283  0.019851173  0.019186365           20 
 3639000   0.67877489   -7.3522326    867.52397  0.019866354  0.019180736           11 
 3640000    0.6772863   -7.3628209    865.19519  0.019807582  0.019175101           13 
 3641000   0.67627397   -7.3620936    865.26852   0.01980382  0.019169479           25 
 3642000   0.65853403   -7.3515324    865.81633  0.019810917  0.019163838           16 
 3643000   0.68260541   -7.3605441    864.98807  0.019786533  0.019158211           10 
 3644000   0.66642965   -7.3404854    863.46179  0.019746199  0.019152564           28 
 3645000   0.66939862   -7.3321069    865.83991  0.019795151  0.019146923            7 
 3646000    0.6782585   -7.3597341    866.80537  0.019811789   0.01914129            7 
 3647000   0.66684557   -7.3644487    865.52525  0.019777106   0.01913566           11 
 3648000   0.66191333   -7.3609053    866.27121  0.019788725  0.019130028           16 
 3649000   0.67605798   -7.3563392    867.84407  0.019819222  0.019124396           27 
 3650000   0.67459452   -7.3695402    865.30108  0.019755732  0.019118772           27 
 3651000    0.6637677    -7.347547    865.15808  0.019747057  0.019113157           40 
 3652000   0.66554596   -7.3473161    866.72171   0.01977733  0.019107534           12 
 3653000   0.65271888   -7.3602775    865.67195  0.019747969  0.019101913           10 
 3654000   0.65348189   -7.3172932    868.17158  0.019799571  0.019096314            7 
 3655000    0.6668253   -7.3519172    867.49764  0.019778788  0.019090735            7 
 3656000   0.65494522   -7.3622311    865.64209  0.019731083  0.019085127           17 
 3657000   0.66222519   -7.3518233     866.0747  0.019735546   0.01907951           22 
 3658000   0.68109033   -7.3706945    867.25578  0.019757057  0.019073892           48 
 3659000   0.67022524   -7.3640761    865.26254  0.019706262  0.019068263           22 
 3660000   0.67035922   -7.3516844    864.11561  0.019674763  0.019062625           47 
 3661000   0.68195565   -7.3630114    865.64681  0.019704243  0.019056991           51 
 3662000   0.65164924   -7.3485477    865.13598  0.019687238  0.019051371           23 
 3663000   0.67921076   -7.3790573    865.72708  0.019695311  0.019045751           29 
 3664000   0.66816215   -7.3696797    865.10887  0.019675875  0.019040136           26 
 3665000   0.66361985    -7.368926    864.85946  0.019664835  0.019034512           48 
 3666000   0.66119677   -7.3578052    864.49166  0.019651111  0.019028895           27 
 3667000   0.67099055   -7.3826034    865.73588  0.019674027  0.019023275           35 
 3668000   0.66372185   -7.3715829     866.8936  0.019694965   0.01901767           37 
 3669000   0.65810911   -7.3743638    866.46975  0.019679971  0.019012048           30 
 3670000   0.67347268    -7.364923    865.68328   0.01965675  0.019006426           26 
 3671000   0.68194969   -7.3686032    866.76973  0.019676059  0.019000819           25 
 3672000   0.67119696   -7.3786511    864.34506  0.019615674  0.018995221           30 
 3673000   0.66607223   -7.3719231    866.70212  0.019663811  0.018989614           29 
 3674000   0.64861516   -7.3870549    866.68492  0.019658068  0.018984017           37 
 3675000   0.68261061    -7.357124    867.90869  0.019680469  0.018978425           26 
 3676000   0.68240121   -7.3473355    866.74763  0.019648795  0.018972837           21 
 3677000   0.65739171   -7.3669388     866.6522  0.019641288  0.018967241           13 
 3678000   0.65839495   -7.3660708    867.37955  0.019652428  0.018961647           28 
 3679000   0.64860563   -7.3530362    868.53116  0.019673171  0.018956049            9 
 3680000   0.66255614   -7.3594246    865.06013  0.019589224  0.018950463           31 
 3681000     0.670862   -7.3496558    867.27361  0.019634013  0.018944886           16 
 3682000   0.67142269   -7.3580442    866.56875  0.019612727  0.018939323           36 
 3683000   0.66475322   -7.3673722    867.17498  0.019621119  0.018933744           30 
 3684000   0.66359168   -7.3714132    867.24158    0.0196173  0.018928176           37 
 3685000   0.66544745   -7.3659426    866.49192  0.019595023  0.018922592           33 
 3686000   0.66922968   -7.3743125    866.04403  0.019579581  0.018917008           34 
 3687000   0.65449848   -7.3817139    866.55399  0.019585797  0.018911433           27 
 3688000   0.66116161   -7.3993881    866.80698  0.019586203  0.018905857           21 
 3689000   0.66826867   -7.3768553    866.86245  0.019582146  0.018900253           38 
 3690000   0.66950778   -7.3630286    866.09951   0.01955961  0.018894658           25 
 3691000   0.66485568   -7.3640783    867.79577  0.019592607  0.018889072           29 
 3692000   0.66716422   -7.3742945    868.24384  0.019597414  0.018883503           16 
 3693000   0.65101494   -7.3682413    866.36786  0.019549776  0.018877933           17 
 3694000   0.66031147   -7.3556494    865.28123   0.01951997  0.018872358           17 
 3695000   0.65654548   -7.3666549    863.91138  0.019483793  0.018866771           11 
 3696000   0.66406401   -7.3768073    865.38631  0.019511777  0.018861181           17 
 3697000   0.66475893    -7.375413    866.21392  0.019525154  0.018855597           13 
 3698000   0.66985396   -7.3738643    867.97773  0.019559621  0.018850026           26 
 3699000   0.65600778   -7.3923433    866.68245  0.019525152  0.018844446           34 
 3700000   0.65248945   -7.3788601     865.5213  0.019493723  0.018838869           25 
 3701000   0.66444716   -7.3757645    865.13708  0.019479805  0.018833303           14 
 3702000    0.6724413    -7.405681    865.50137  0.019482743   0.01882772           24 
 3703000   0.66356648    -7.390359    866.93732  0.019509797  0.018822117           12 
 3704000    0.6581344    -7.401332    865.29107  0.019467492  0.018816519           12 
 3705000   0.65439221   -7.3777127    865.63132   0.01946989  0.018810938           17 
 3706000   0.66116921   -7.3748837    865.85742  0.019469721  0.018805343           22 
 3707000   0.67226557   -7.3821949    866.30638  0.019474561  0.018799763           17 
 3708000   0.66343043   -7.3688699    865.45989  0.019450285  0.018794192           17 
 3709000    0.6542584   -7.3779174    868.01411  0.019502429  0.018788619           26 
 3710000   0.64208874    -7.380106    865.41179  0.019438719  0.018783061           19 
 3711000   0.65221272   -7.3728941     866.5065  0.019458064  0.018777501           13 
 3712000   0.64927122   -7.3705352    867.50463   0.01947523  0.018771943           21 
 3713000    0.6643736   -7.3784718    867.07459  0.019460333  0.018766373           22 
 3714000    0.6470222   -7.3938336     866.8485   0.01945002  0.018760808           23 
 3715000    0.6585939   -7.3988943    865.81424  0.019421585  0.018755253           19 
 3716000   0.65517466   -7.3806559     866.3054  0.019427373  0.018749697           20 
 3717000   0.65229835   -7.3977016    866.33798  0.019422877  0.018744133           25 
 3718000    0.6539605   -7.4024174     865.7681  0.019404879   0.01873856           23 
 3719000   0.65466613   -7.3767876     865.4812  0.019393233   0.01873299           23 
 3720000    0.6679845   -7.3864304    866.23403  0.019404884  0.018727421           14 
 3721000    0.6603297   -7.4018257    864.57067  0.019362418  0.018721845           17 
 3722000   0.67685819   -7.3848719    867.55184  0.019423962  0.018716288           22 
 3723000   0.64910911   -7.3733878    864.60791   0.01935285  0.018710718            8 
 3724000    0.6591787   -7.3937989    866.65837  0.019393537  0.018705154           25 
 3725000   0.66778085   -7.3999424    866.98813  0.019395708  0.018699598           15 
 3726000   0.64758325   -7.3864047    865.16936  0.019349825  0.018694044           11 
 3727000   0.64686063   -7.3790218    867.30783  0.019392448   0.01868849           21 
 3728000    0.6410913   -7.3916491    867.04566  0.019381385   0.01868294           17 
 3729000   0.64135967   -7.4084075    864.48034   0.01931886  0.018677379           35 
 3730000   0.66889648   -7.3903805    866.29054  0.019354123   0.01867183           26 
 3731000   0.65795951   -7.4152461    865.74342  0.019336715  0.018666281           10 
 3732000    0.6534706   -7.4065152    866.37387  0.019345612  0.018660714           13 
 3733000   0.66915175   -7.4161341    866.94958  0.019353281  0.018655155           17 
 3734000   0.66492613   -7.4020892    865.31762  0.019311677  0.018649607           19 
 3735000   0.67341391   -7.3905386    864.76861  0.019294257  0.018644047           15 
 3736000     0.645662   -7.4033172    865.25462  0.019299934  0.018638493           18 
 3737000   0.64940855   -7.4126387    866.83352  0.019329978  0.018632948           28 
 3738000   0.64574182   -7.4239042    867.88365  0.019348218  0.018627395           41 
 3739000   0.65764497   -7.4082275     865.6538  0.019293345  0.018621846           17 
 3740000   0.65064508   -7.4279517    866.44896  0.019305904  0.018616301           18 
 3741000   0.66131692    -7.402637    865.98185  0.019290338  0.018610755           29 
 3742000   0.65806366   -7.3946131    866.64527  0.019299957  0.018605207           17 
 3743000   0.64567269   -7.3946944    866.71084  0.019296261  0.018599671           29 
 3744000   0.66151121      -7.4226    864.97616  0.019252496   0.01859413           21 
 3745000   0.65439306    -7.418391    868.45417  0.019324748  0.018588584           18 
 3746000   0.64906148   -7.4032217    866.80433  0.019282887  0.018583035           22 
 3747000   0.66445299   -7.4216919    864.20203  0.019219866  0.018577493           15 
 3748000    0.6662543   -7.4135616    866.98765  0.019276673  0.018571956           23 
 3749000   0.65591909   -7.4081888    866.03221  0.019250294  0.018566434           22 
 3750000   0.64089051   -7.3965547    867.32651  0.019273922  0.018560897           15 
 3751000   0.65496831   -7.4144334    864.71541  0.019210775  0.018555358           20 
 3752000    0.6594993   -7.3890062    865.14573  0.019215213  0.018549822           15 
 3753000   0.66217701   -7.4150921     866.1556  0.019232516  0.018544285           11 
 3754000   0.65113147   -7.4062758    867.03136  0.019246834  0.018538743           20 
 3755000   0.65303265   -7.3916075    866.65551  0.019233367  0.018533227           28 
 3756000   0.65820139   -7.3989486    866.52991  0.019225459  0.018527706           28 
 3757000   0.64772251   -7.3831989    867.14276  0.019233936  0.018522203           51 
 3758000   0.63562569   -7.4013931    865.74979  0.019197929  0.018516696           49 
 3759000   0.65122233    -7.399168    866.39856  0.019207204  0.018511185           23 
 3760000   0.64714745   -7.4070032    866.59681   0.01920649  0.018505676           21 
 3761000   0.66332096   -7.3903491    867.23777  0.019215585  0.018500165           30 
 3762000   0.65005484   -7.4036388     865.7202  0.019176861  0.018494668           31 
 3763000   0.65415637   -7.4069143    867.98674  0.019221958  0.018489181           23 
 3764000    0.6490211   -7.4009184     867.9474   0.01921598  0.018483669           61 
 3765000   0.65653698   -7.4075929    866.30689  0.019174566  0.018478159           39 
 3766000   0.64913108   -7.4048203    864.58462  0.019131364  0.018472641           19 
 3767000   0.64457881   -7.4116256    868.38358  0.019210326  0.018467151           24 
 3768000   0.64172113   -7.4059917    867.45335  0.019184655  0.018461658           16 
 3769000   0.64153178   -7.3860179    866.75076   0.01916403  0.018456166           37 
 3770000   0.65108441   -7.4000586    868.04866  0.019187636  0.018450695           15 
 3771000   0.64554559   -7.3932056    867.51915  0.019170847  0.018445231           19 
 3772000    0.6584124     -7.39088    868.42775  0.019185838  0.018439753           26 
 3773000   0.65979833   -7.3854273    866.83945  0.019145672  0.018434271           20 
 3774000   0.64066313   -7.4085943    866.78339  0.019139361  0.018428792           23 
 3775000   0.65133023   -7.3893455    868.56105  0.019173533  0.018423321           28 
 3776000   0.64704763   -7.4062114     866.1029  0.019114206  0.018417851           25 
 3777000   0.64819189   -7.3979309    867.99093  0.019150802  0.018412381           17 
 3778000   0.65756469   -7.3917134    867.18594  0.019127977  0.018406919           27 
 3779000   0.65149665   -7.4053088    866.38341  0.019105218  0.018401448           24 
 3780000   0.64501208   -7.3989889    867.19247     0.019118   0.01839599           19 
 3781000   0.64851419   -7.3938597    867.85937  0.019127642  0.018390523           21 
 3782000   0.63654129   -7.3785821    867.85879  0.019122572  0.018385065           12 
 3783000   0.64319413   -7.3986899    867.40907   0.01910761  0.018379629           13 
 3784000   0.62099629    -7.377924    867.81946  0.019111598  0.018374196           14 
 3785000   0.65563203   -7.3803316      868.321  0.019117591  0.018368753           17 
 3786000   0.64935065   -7.3936595    867.20689  0.019088019  0.018363319            6 
 3787000   0.64059925   -7.3860432    869.09931  0.019124622  0.018357878           11 
 3788000   0.64463477   -7.3817464    866.87651  0.019070673  0.018352436           11 
 3789000   0.64202866   -7.3807302    867.26545  0.019074194  0.018346995           10 
 3790000   0.64681187   -7.3926135    868.55584  0.019097534  0.018341554           16 
 3791000   0.63949007   -7.3907729    868.59081  0.019093265  0.018336116           19 
 3792000   0.64441548    -7.394197    868.36512   0.01908327  0.018330663           11 
 3793000   0.66097062   -7.3979809    867.74222  0.019064554  0.018325221           19 
 3794000   0.64217771   -7.4062808    869.23933  0.019092412  0.018319763           21 
 3795000   0.63080249   -7.4089483     867.3041  0.019044886  0.018314312           22 
 3796000   0.64991939   -7.4192865    868.21221  0.019059804  0.018308855           26 
 3797000   0.65493921   -7.4230345    867.43607  0.019037751  0.018303394           22 
 3798000   0.64271673   -7.4050831     867.7648  0.019039951  0.018297943           26 
 3799000   0.64002681   -7.4093547    866.25567  0.019001835  0.018292478           19 
 3800000   0.64840423   -7.3870746    868.47515  0.019045508  0.018287025           28 
 3801000   0.64111869   -7.3905019    866.39212  0.018994829  0.018281561           15 
 3802000   0.63842077   -7.4331821    866.68979  0.018996357  0.018276096           23 
 3803000    0.6426337   -7.4166743    867.92947  0.019018526  0.018270635           19 
 3804000   0.64839809   -7.4176716    867.30246  0.018999791  0.018265168           21 
 3805000   0.64012871    -7.423847    867.21659  0.018992917    0.0182597           35 
 3806000   0.64943281   -7.4123669    868.47123  0.019015397  0.018254238           31 
 3807000   0.63895064   -7.4207405    866.59565  0.018969347  0.018248763           35 
 3808000   0.63589685   -7.4248785    865.45481    0.0189394  0.018243292           11 
 3809000   0.64713821   -7.4335023     866.7395  0.018962534  0.018237832           19 
 3810000   0.63641118   -7.4237807    866.59203  0.018954331  0.018232367           15 
 3811000   0.64163405   -7.4068948    867.08017  0.018960032  0.018226913           10 
 3812000   0.62619202   -7.4069794    867.17367  0.018957102  0.018221462           11 
 3813000   0.64434896   -7.4173455      868.225  0.018975107  0.018216011           38 
 3814000   0.64489801   -7.4193331    866.55527  0.018933649  0.018210567           29 
 3815000   0.64046205   -7.4083208    866.44962  0.018926379  0.018205134           16 
 3816000   0.64199372   -7.4150328    867.45206   0.01894331  0.018199705           18 
 3817000   0.63782372    -7.429221    867.53277  0.018940109  0.018194273           12 
 3818000   0.63975754    -7.426612    865.91721  0.018899887  0.018188828           17 
 3819000   0.63703055   -7.4236637    867.23392  0.018923669  0.018183381           11 
 3820000    0.6395884   -7.4093043    866.57159  0.018904267  0.018177927           31 
 3821000   0.65175417   -7.4286251    867.06857  0.018910158  0.018172481           29 
 3822000   0.62240612   -7.4285405    866.54418  0.018893777  0.018167036           19 
 3823000   0.64991831   -7.4207353    866.34611  0.018884517   0.01816159           16 
 3824000    0.6449843   -7.4349942    866.97331  0.018893247  0.018156139           11 
 3825000   0.64479612   -7.4551479    867.54394  0.018900739  0.018150698           16 
 3826000   0.63631629   -7.4367673    864.98761   0.01884012  0.018145275           13 
 3827000   0.64088966   -7.4408629    867.66115  0.018893414  0.018139836           15 
 3828000    0.6361532   -7.4308441    867.16651  0.018877711  0.018134406           28 
 3829000   0.63393966   -7.4308074    867.16004  0.018872639  0.018128982           13 
 3830000   0.64828217   -7.4231078    867.66086  0.018878609  0.018123563           23 
 3831000   0.65211837   -7.4241354    865.38818  0.018824245  0.018118123           54 
 3832000    0.6344359    -7.429268    866.38246  0.018840955  0.018112687           43 
 3833000   0.63822183   -7.4357237    866.95623  0.018848514  0.018107255           49 
 3834000   0.63465141   -7.4371977    866.66451  0.018837257  0.018101798           40 
 3835000   0.66292993   -7.4430774    866.50933  0.018828973  0.018096373           30 
 3836000   0.63701568   -7.4291641    866.91599  0.018832899  0.018090938           32 
 3837000   0.64419354   -7.4392468    865.67353  0.018801006  0.018085497           52 
 3838000   0.62662811   -7.4423433    866.41639  0.018812237   0.01808005           18 
 3839000   0.63608476   -7.4604032    866.81063  0.018815895  0.018074592           33 
 3840000   0.64029208   -7.4485017    866.03344  0.018794129  0.018069148           35 
 3841000   0.64461983   -7.4377585    865.39988   0.01877549  0.018063707           31 
 3842000   0.65388338   -7.4620549    865.05475  0.018763117  0.018058259           22 
 3843000   0.63804203   -7.4455698    865.93892  0.018777407  0.018052814           38 
 3844000   0.63732012   -7.4331068    866.21788   0.01877857  0.018047363           38 
 3845000   0.63420332   -7.4327278    865.48037  0.018757702   0.01804192           51 
 3846000    0.6387174   -7.4532099    865.67605  0.018757065  0.018036473           39 
 3847000    0.6400375   -7.4349201     866.3912   0.01876768  0.018031034           34 
 3848000   0.62425749   -7.4533257    865.66005  0.018746969  0.018025606           43 
 3849000   0.63027257   -7.4392335    866.05644  0.018750681  0.018020181           49 
 3850000   0.64049035    -7.437341    865.74184  0.018739001   0.01801474           46 
 3851000    0.6379342   -7.4573272    866.96431  0.018760588  0.018009304           67 
 3852000   0.65949682   -7.4549113    866.04966  0.018735931  0.018003879           29 
 3853000   0.62875897   -7.4691667    864.94364  0.018707147  0.017998453           41 
 3854000   0.63690479   -7.4453967    866.65073  0.018739205  0.017993015           44 
 3855000    0.6465451   -7.4325404    867.68073  0.018756609  0.017987589           19 
 3856000   0.62392128   -7.4394795    866.94829  0.018735916  0.017982174           37 
 3857000   0.61903294   -7.4503172    866.57211   0.01872293  0.017976739           55 
 3858000   0.62581748   -7.4609089    867.42395  0.018736477  0.017971316           48 
 3859000   0.62584778   -7.4582694    866.60963  0.018714037  0.017965891           44 
 3860000   0.63627035   -7.4486843    865.75339  0.018690704  0.017960479           27 
 3861000   0.62826472   -7.4508923     866.6452  0.018705111  0.017955079           24 
 3862000   0.63444911   -7.4347459    866.93351  0.018706489  0.017949686           21 
 3863000    0.6394782   -7.4410816    866.33121  0.018688653  0.017944292           25 
 3864000   0.63468702   -7.4255949     865.3049  0.018661683  0.017938888           23 
 3865000    0.6576575   -7.4650285    867.43018  0.018702677  0.017933494           29 
 3866000   0.62277329   -7.4474566    864.88912  0.018643066  0.017928095           26 
 3867000   0.63009643   -7.4607912    866.69794  0.018677225  0.017922689           12 
 3868000   0.62869814   -7.4432015    867.93727  0.018699097  0.017917281           34 
 3869000   0.62778768    -7.447689    867.58663  0.018686711  0.017911876           41 
 3870000   0.63272298   -7.4463562    866.90656  0.018667239  0.017906469           23 
 3871000   0.62443532   -7.4308543    864.46385  0.018609831  0.017901075           32 
 3872000   0.63137784   -7.4464468    866.78089  0.018654892  0.017895691           35 
 3873000   0.63920921   -7.4276858     868.7958  0.018693429  0.017890316           45 
 3874000   0.63439129   -7.4316716    867.28928  0.018656197   0.01788494           34 
 3875000   0.63172659   -7.4613786    867.02772  0.018645757  0.017879574           36 
 3876000   0.61968668   -7.4298833    866.26687  0.018624589  0.017874201           43 
 3877000   0.63845199   -7.4513614    866.10973  0.018616407  0.017868827           35 
 3878000   0.63517876   -7.4554094     869.0284  0.018674325  0.017863457           26 
 3879000   0.62435817   -7.4431587    865.88139  0.018601903  0.017858102           27 
 3880000   0.64596155   -7.4518018    867.29792  0.018627533  0.017852741           36 
 3881000    0.6237994    -7.451364    868.61439     0.018651  0.017847365           47 
 3882000   0.63137194   -7.4439168    865.80654  0.018585921   0.01784199           32 
 3883000   0.63559676     -7.45132    867.25986  0.018612324  0.017836624           38 
 3884000   0.61310724   -7.4452369    867.42612  0.018611099  0.017831254           41 
 3885000   0.63300695   -7.4486757    866.19145  0.018579825   0.01782588           25 
 3886000   0.63646623   -7.4551267    866.23408  0.018575958  0.017820509           26 
 3887000    0.6245584   -7.4594008     867.0827  0.018589373  0.017815123           40 
 3888000   0.62489407   -7.4618779    866.16416  0.018564904  0.017809742           47 
 3889000   0.63211724   -7.4449753    867.10195  0.018580225  0.017804369           57 
 3890000    0.6311867   -7.4718968    867.23966  0.018578399  0.017798996           53 
 3891000   0.63762736    -7.494912    867.09856  0.018570602  0.017793625           44 
 3892000   0.61843672   -7.4782027    866.23095  0.018547254  0.017788257           32 
 3893000   0.63053644   -7.4613905    867.50817   0.01856983  0.017782887           34 
 3894000   0.62071163   -7.4671934    866.08788  0.018534666  0.017777531           67 
 3895000     0.634835   -7.4660762    866.27567  0.018533925  0.017772164           35 
 3896000   0.62257294   -7.4427155    868.92222  0.018585777  0.017766801           22 
 3897000   0.63373296   -7.4610732    866.71125  0.018533728  0.017761446           19 
 3898000   0.62670463   -7.4697354    868.14206  0.018559562  0.017756105           19 
 3899000    0.6298158   -7.4673854    866.84092  0.018526992  0.017750767           16 
 3900000   0.64980199   -7.4504334    867.56988  0.018537818  0.017745428           10 
 3901000    0.6243868   -7.5005355     868.0625  0.018543589  0.017740092           30 
 3902000   0.63376666   -7.4502164    865.93664  0.018493436  0.017734766           23 
 3903000   0.62995491    -7.461937    869.03844  0.018554924  0.017729423           24 
 3904000   0.63626956   -7.4664384    868.04307  0.018528925  0.017724084           26 
 3905000   0.62454715    -7.445921    867.09899  0.018504033  0.017718744           19 
 3906000   0.64068197   -7.4539764    867.39799  0.018505675  0.017713405           28 
 3907000   0.61387111   -7.4646306    868.34199  0.018521073  0.017708065           41 
 3908000   0.61905818   -7.4612529    867.46765   0.01849769   0.01770272           13 
 3909000   0.63684582   -7.4668276    866.38438  0.018469864   0.01769738           29 
 3910000   0.62161805   -7.4632427    866.28715  0.018463068  0.017692038           14 
 3911000   0.63011514   -7.4707988    866.49163  0.018462704  0.017686698           15 
 3912000   0.63740481   -7.4625047    865.73619  0.018441892  0.017681344           26 
 3913000   0.63325465   -7.4528629    865.53298  0.018432852  0.017675994           23 
 3914000    0.6280083   -7.4577025    867.91138  0.018478781  0.017670648           38 
 3915000   0.61978423   -7.4719844    866.97316   0.01845409  0.017665293           30 
 3916000   0.61880411   -7.4622211    866.31263  0.018435322  0.017659947           31 
 3917000   0.63177992   -7.4413181    865.46599  0.018412603  0.017654601           58 
 3918000   0.60905263   -7.4665694    866.36194   0.01842696  0.017649247           37 
 3919000   0.62997859    -7.464575     866.7336  0.018430161  0.017643911           32 
 3920000   0.62748487   -7.4654532    866.50365  0.018420571  0.017638569           49 
 3921000   0.61004485   -7.4655235    867.04006  0.018427273  0.017633222           21 
 3922000   0.63099704   -7.4882868    868.09885  0.018445072  0.017627877           48 
 3923000   0.62992549   -7.4551941    866.62925  0.018409152  0.017622533           17 
 3924000    0.6411582   -7.4825791    865.13959  0.018372825  0.017617194           49 
 3925000   0.62227303   -7.4465608    867.62857  0.018420989  0.017611861           22 
 3926000   0.62217791   -7.4807719    866.69522  0.018396485  0.017606536           49 
 3927000   0.62519607   -7.4419068    866.75345  0.018393037   0.01760121           96 
 3928000   0.60567064   -7.4618403    866.71159  0.018387466  0.017595891           64 
 3929000   0.64668447   -7.4576524    866.47296  0.018377725  0.017590575           22 
 3930000   0.62354639      -7.4684    866.98334  0.018383871  0.017585255           78 
 3931000   0.62624708   -7.4706114    867.41263  0.018388295   0.01757993           37 
 3932000    0.6163169   -7.4783345    864.55651  0.018323086  0.017574597           22 
 3933000   0.62482012   -7.4583407    867.11608   0.01837266  0.017569269           54 
 3934000   0.61555699   -7.4908303    865.61635  0.018336222  0.017563958           25 
 3935000   0.61762386   -7.4884483    867.50938  0.018371651  0.017558626           16 
 3936000    0.6375322   -7.4860493    865.83049  0.018331438  0.017553311           29 
 3937000   0.63853414   -7.4678918    867.16603  0.018355051  0.017547986           28 
 3938000   0.61961667   -7.4550889    866.38382  0.018333837  0.017542663           12 
 3939000   0.62814795   -7.4745498    866.59129  0.018333572  0.017537332           25 
 3940000   0.61094276   -7.4922169     866.6097  0.018329308   0.01753201           23 
 3941000   0.61668678   -7.4582315    866.07528  0.018313357  0.017526686           23 
 3942000   0.62188125   -7.4703798     865.6326  0.018299353  0.017521355           24 
 3943000   0.61626642   -7.4775999    865.65028  0.018295086  0.017516018           22 
 3944000   0.60448915   -7.4952496    865.48377  0.018286929  0.017510674           37 
 3945000   0.62011559   -7.4990314    864.94073  0.018270822  0.017505329           26 
 3946000   0.61843061   -7.4931402    864.84773  0.018264228  0.017499995           25 
 3947000    0.6288514   -7.4977554    865.17017  0.018266408  0.017494663           32 
 3948000   0.61851537   -7.4816769    863.96646  0.018236374  0.017489325           39 
 3949000   0.61055467   -7.4679262    865.72517  0.018268869  0.017483981           35 
 3950000   0.61597374   -7.4792166    865.68287  0.018263352  0.017478641           43 
 3951000   0.63987736   -7.4866347    865.35063  0.018251722  0.017473309           24 
 3952000   0.60948195   -7.4883243    865.29076  0.018245841  0.017467981           51 
 3953000    0.6243426   -7.5134654    865.51057  0.018245859  0.017462659           62 
 3954000   0.62352724    -7.485336    866.97184  0.018272042  0.017457333           44 
 3955000   0.61913962   -7.4678018    866.95346  0.018267034  0.017452002           65 
 3956000   0.60261572   -7.4690873    863.89898  0.018198074  0.017446693           25 
 3957000   0.62128628   -7.4754277    866.39809  0.018246106  0.017441383           35 
 3958000   0.62142739   -7.4724735    867.84255  0.018271908  0.017436072           34 
 3959000   0.63629198   -7.4636267    866.95519  0.018248615  0.017430758          134 
 3960000   0.62367645   -7.4818086    864.78363  0.018198309   0.01742545           44 
 3961000   0.62067399   -7.4791721    866.49046  0.018229623  0.017420141           54 
 3962000   0.61051122   -7.4717363     865.6289  0.018206901  0.017414828           44 
 3963000   0.62875029   -7.4584477    866.32356  0.018216914  0.017409516           44 
 3964000   0.62182524   -7.4956793    866.83097  0.018222985  0.017404196           45 
 3965000   0.61014228   -7.5103118    864.38414  0.018166964  0.017398877           46 
 3966000   0.62406033   -7.4964165    865.62974  0.018188556  0.017393558           44 
 3967000   0.61939638   -7.4854156    866.27337  0.018197491   0.01738823           32 
 3968000   0.61945305   -7.5157093    863.83282   0.01814165  0.017382905           43 
 3969000   0.62739575   -7.5073023    865.88448  0.018180156  0.017377591           41 
 3970000   0.60975009    -7.513551    865.64503  0.018170551  0.017372279           43 
 3971000   0.61291667   -7.4804627    864.26919  0.018137102  0.017366955           32 
 3972000    0.6249025   -7.4884955    866.39634  0.018177164  0.017361643           22 
 3973000   0.60813975   -7.4953378     863.9269  0.018120792  0.017356324           61 
 3974000     0.612526   -7.4953452      864.982  0.018138358  0.017350994           79 
 3975000   0.62890915   -7.4947387    863.74568  0.018107876  0.017345676           21 
 3976000     0.608598   -7.4964991    865.64154  0.018143057  0.017340357           28 
 3977000   0.60020728   -7.4994406     864.4855  0.018114272  0.017335051           30 
 3978000   0.61589377   -7.5061345     864.5023   0.01811007  0.017329738           27 
 3979000   0.61232731   -7.4995628     864.7105  0.018109879  0.017324426           21 
 3980000   0.61295682   -7.4956646    864.98814  0.018111142  0.017319125           25 
 3981000   0.60326991   -7.5082597    866.02236  0.018128242  0.017313825           19 
 3982000   0.60716916   -7.4935125    866.43217  0.018132265  0.017308521           26 
 3983000    0.6148005   -7.4896028    865.90184  0.018116617  0.017303221           39 
 3984000   0.60628422   -7.4718585    864.91776  0.018091486  0.017297932          118 
 3985000   0.61360478   -7.5238948    865.63573   0.01810196  0.017292638           59 
 3986000   0.62569571   -7.4942341    866.01199  0.018105285  0.017287342           58 
 3987000   0.60032684   -7.4957004    865.10233  0.018081731  0.017282053           42 
 3988000   0.61178308   -7.4914191    867.49795  0.018127256  0.017276766           45 
 3989000   0.61612184   -7.4805127    867.85327  0.018130134    0.0172715           43 
 3990000   0.61326954   -7.4927677    866.60442  0.018099507  0.017266234           56 
 3991000   0.60771561   -7.4973079    866.09463  0.018084328  0.017260963           82 
 3992000   0.61455956   -7.4699301    867.49156  0.018108959  0.017255687           32 
 3993000   0.60444553   -7.4993429    866.30063  0.018079569  0.017250414           42 
 3994000   0.61304308   -7.4940892    865.15188  0.018051074  0.017245143           67 
 3995000   0.60683559   -7.4995649    865.80138  0.018060104  0.017239849           49 
 3996000   0.60666979   -7.4743782    865.73122  0.018054121  0.017234571           43 
 3997000   0.62393023   -7.4829451    864.25991  0.018018929  0.017229292           45 
 3998000   0.61115548   -7.4981699    864.60388  0.018021592  0.017224012           47 
 3999000   0.60871502   -7.5022539     865.5723  0.018037266  0.017218739           48 
 4000000   0.61197262   -7.5082946    866.37239  0.018049425  0.017213461           39 
 4001000   0.62034593   -7.5019775    864.80091  0.018012183   0.01720818           33 
 4002000   0.61056015   -7.4990916    864.18782  0.017994915  0.017202883           52 
 4003000   0.61403276   -7.5102111    864.89553  0.018005153  0.017197599           41 
 4004000   0.60982161    -7.502392    864.09861   0.01798407  0.017192313           39 
 4005000   0.60469012   -7.5114513      864.259  0.017982917  0.017187025           32 
 4006000    0.6194823   -7.5129638    863.97206  0.017972459  0.017181743           33 
 4007000   0.61547937   -7.5042805    864.18408  0.017972383  0.017176456           53 
 4008000   0.62374554   -7.5128555    863.98149  0.017963687  0.017171173           26 
 4009000   0.61781816   -7.4959234    864.96556  0.017979662  0.017165889           38 
 4010000   0.60888764   -7.4832659    864.24509  0.017960206  0.017160617           35 
 4011000   0.61306131   -7.4983128    862.17726  0.017912766  0.017155337           61 
 4012000   0.60807257   -7.5116224    863.29377  0.017931492  0.017150063           77 
 4013000   0.61590931   -7.5018555    864.30049  0.017947929  0.017144784           42 
 4014000   0.61268246   -7.5125531    864.69855  0.017951722  0.017139505           87 
 4015000   0.60528795   -7.4947323    864.89257  0.017951278  0.017134225           24 
 4016000   0.59092416   -7.4892878    865.18685  0.017952914   0.01712895           29 
 4017000    0.6023219   -7.5095597    865.69095  0.017958903  0.017123686           41 
 4018000   0.60897001   -7.5269212    863.61136  0.017911302  0.017118409           57 
 4019000    0.6038483   -7.4946173    865.76559  0.017951513  0.017113153           65 
 4020000   0.60288925   -7.5020949    864.12113  0.017912959  0.017107892          124 
 4021000   0.59764373   -7.4903605    865.11169  0.017929033  0.017102636           72 
 4022000   0.60872985   -7.5090461     865.4096  0.017930748  0.017097377           69 
 4023000   0.60219089   -7.4921443    865.87479  0.017935927  0.017092134           87 
 4024000   0.60547479   -7.5018526    864.83685  0.017909974  0.017086878           51 
 4025000   0.59883899    -7.492649    867.20892  0.017954636  0.017081636           65 
 4026000   0.60974345   -7.5076837    865.04878  0.017905464  0.017076391           29 
 4027000   0.60586331   -7.4837507    862.32078  0.017844565  0.017071141           64 
 4028000   0.61343326   -7.5109142    864.51407  0.017885511  0.017065897           84 
 4029000   0.60285975   -7.4943265    866.36752  0.017919408  0.017060659           38 
 4030000   0.60357668   -7.4847116    865.79923   0.01790321  0.017055425           49 
 4031000   0.60704526   -7.4909115    865.61491  0.017894958  0.017050198           31 
 4032000   0.59468292   -7.5255449    865.91616  0.017896746  0.017044967           94 
 4033000   0.61057211   -7.5144918    863.56093  0.017843643  0.017039729           91 
 4034000   0.60804711   -7.5080765    864.73985  0.017863573    0.0170345           68 
 4035000   0.60962722   -7.5101226    865.21563  0.017868972  0.017029276          124 
 4036000   0.60611177   -7.5148266     863.0182  0.017819173  0.017024043           74 
 4037000   0.61569177   -7.5062894    866.87697  0.017894414  0.017018819          109 
 4038000   0.60774665   -7.5201709    863.93513   0.01782927  0.017013596          147 
 4039000   0.61981652   -7.5202924    863.33826  0.017812542  0.017008375           88 
 4040000   0.60759833   -7.5119688     864.0885  0.017823608  0.017003146          102 
 4041000   0.60232401   -7.5320361    865.46351  0.017847552  0.016997923          107 
 4042000   0.60621849   -7.5107347    864.38911  0.017820986  0.016992715          126 
 4043000   0.61420201   -7.5062668    864.31427  0.017815036  0.016987493           72 
 4044000   0.60363227    -7.518671    865.32571  0.017831473  0.016982272           93 
 4045000   0.59770791   -7.5086796     864.8487  0.017817237  0.016977054           73 
 4046000     0.598056   -7.5054796    866.15553   0.01783975  0.016971845           57 
 4047000   0.60343343   -7.5169962    862.88571  0.017768012  0.016966632           25 
 4048000   0.60322813    -7.523729    865.23797  0.017812046  0.016961423           74 
 4049000   0.60014181   -7.5268776    864.98834   0.01780251  0.016956203           63 
 4050000   0.60663963    -7.523497    864.86755  0.017795629  0.016950988           43 
 4051000   0.60620876    -7.512889     865.2363  0.017798821  0.016945779           56 
 4052000   0.61377549   -7.5113339    864.83305  0.017786136  0.016940571           40 
 4053000   0.59426817   -7.5229097    864.93346  0.017783812  0.016935367           36 
 4054000   0.60664499   -7.5055885    864.02993  0.017760852  0.016930167           83 
 4055000   0.60595935   -7.4920165    863.28672  0.017741199  0.016924965           50 
 4056000   0.59856184   -7.5025069    864.76001  0.017767094   0.01691977           55 
 4057000   0.58199612   -7.5174599    863.03403  0.017727262  0.016914561           32 
 4058000   0.60177469   -7.5072576    864.77971  0.017758742  0.016909365           41 
 4059000   0.58712076   -7.5196006    863.57945  0.017729725  0.016904168          100 
 4060000   0.59628575   -7.5030758    864.99515  0.017754416  0.016898976           86 
 4061000   0.60312302    -7.517617    863.41116   0.01771754  0.016893787          183 
 4062000   0.59837668   -7.5145208     864.6053  0.017737676  0.016888585           52 
 4063000   0.61220141   -7.5049024    865.17378  0.017744971  0.016883389           54 
 4064000   0.61221677   -7.5161036    865.11384  0.017739375  0.016878199           52 
 4065000   0.59530738   -7.5403828    864.44689  0.017721338  0.016873003           77 
 4066000   0.59154178   -7.5371751    863.44433  0.017696433  0.016867803           63 
 4067000   0.59763667   -7.5325599    864.87013  0.017721296  0.016862609          138 
 4068000    0.6004851    -7.528934     864.3962  0.017707231  0.016857425           67 
 4069000   0.60511161   -7.5127776     863.9275  0.017693281  0.016852244          127 
 4070000   0.60754504   -7.5384716    865.49905  0.017721111  0.016847057           72 
 4071000   0.60606285   -7.5028154    863.97718  0.017685605  0.016841866           98 
 4072000   0.60454726   -7.5114625    865.60381  0.017714551  0.016836684          122 
 4073000   0.60277374    -7.527456    864.38022  0.017685167  0.016831506          159 
 4074000   0.60366551   -7.5086795    865.09429  0.017695432  0.016826328           80 
 4075000   0.60607053   -7.5281839    865.90267  0.017707621  0.016821152          105 
 4076000   0.59246914   -7.5134751     864.8904  0.017682581   0.01681598           84 
 4077000   0.59022098   -7.5016825    865.80661  0.017696971  0.016810815          151 
 4078000    0.5889046    -7.513613    865.42706  0.017684875  0.016805644           96 
 4079000    0.5986813    -7.518668    863.73287  0.017645928  0.016800482          138 
 4080000    0.6142126   -7.5091573    864.73172  0.017662004  0.016795319          115 
 4081000   0.62281684   -7.5284671    863.91709  0.017641042  0.016790158          108 
 4082000   0.59523583   -7.5103311    864.06385  0.017639716  0.016785001           73 
 4083000   0.59004904   -7.5184116     865.7082  0.017668957  0.016779847          141 
 4084000   0.60304864   -7.5318223    865.63719  0.017663181  0.016774693           76 
 4085000   0.60489415   -7.5195554    864.67187  0.017639165   0.01676955          154 
 4086000   0.59502105   -7.5209846    864.89566  0.017639412  0.016764402          136 
 4087000   0.58307486   -7.5138427    864.76483  0.017632429   0.01675925          108 
 4088000   0.59668903   -7.5329346    864.87305  0.017630322  0.016754102          114 
 4089000   0.59584032   -7.5277745    864.61855  0.017620823  0.016748948           86 
 4090000    0.5872344   -7.5426256    866.12755  0.017647261  0.016743793          124 
 4091000   0.59424362    -7.516895    865.42503  0.017628637  0.016738635          125 
 4092000   0.59227976   -7.5357506    863.16526  0.017578309  0.016733484          105 
 4093000   0.59859305   -7.5277755    862.63482  0.017563214   0.01672832          119 
 4094000   0.59839931   -7.5321162     864.9637  0.017606328  0.016723163          130 
 4095000   0.59860123   -7.5251893    862.72899  0.017556553  0.016718021           45 
 4096000   0.60133558   -7.5078486    864.32083  0.017584652  0.016712875          143 
 4097000   0.60224199   -7.5331321    863.73328  0.017568409  0.016707734          142 
 4098000   0.59140934   -7.5328278    864.66835  0.017583137  0.016702594          116 
 4099000    0.5943094   -7.5229941    865.21966  0.017590056  0.016697451          131 
 4100000   0.59172744   -7.5290272    864.72349  0.017575681  0.016692312          148 
 4101000   0.59312109   -7.5216862    865.20448  0.017581169  0.016687172           95 
 4102000   0.60027913   -7.5513556    864.46555  0.017561871  0.016682033          118 
 4103000   0.59035456   -7.5349744    864.03034  0.017548752  0.016676894          158 
 4104000    0.5955544    -7.512016    864.26723  0.017549286   0.01667176          148 
 4105000   0.60219052   -7.5229602    864.84925  0.017556826  0.016666622          199 
 4106000   0.59347312   -7.5475097    864.04093  0.017536145  0.016661482          115 
 4107000   0.59189013   -7.5202854    864.33688   0.01753788  0.016656342           92 
 4108000   0.59731136   -7.5412956    863.94653  0.017525692  0.016651206          148 
 4109000   0.59106896   -7.5559223     864.3374  0.017529354  0.016646071          117 
 4110000   0.59270893   -7.5417784    866.59755  0.017570916  0.016640941           79 
 4111000   0.60147714    -7.538204    862.65391    0.0174867  0.016635808          123 
 4112000   0.59801419   -7.5354598    863.71175  0.017503886   0.01663068          132 
 4113000   0.58933758   -7.5560992    864.01118  0.017505697  0.016625555          140 
 4114000   0.58465334   -7.5490219    864.46877  0.017510711  0.016620438          143 
 4115000   0.59509755   -7.5519645    864.01537  0.017497274  0.016615317          158 
 4116000   0.59351448   -7.5397299    866.05307  0.017534278  0.016610208          105 
 4117000   0.60017598   -7.5183695    865.15616  0.017511865  0.016605099          152 
 4118000   0.59813825   -7.5402511     865.7915  0.017520469  0.016599994          108 
 4119000   0.59564394   -7.5306173    865.59195  0.017512178  0.016594892          111 
 4120000   0.60284086   -7.5359188    864.66607    0.0174892  0.016589789          217 
 4121000   0.58794007   -7.5405465    864.64074  0.017484444  0.016584678          192 
 4122000   0.59117253   -7.5441287    865.89126  0.017505484  0.016579578          144 
 4123000   0.59237601   -7.5273621    864.46574  0.017472426  0.016574478          115 
 4124000   0.59899417    -7.525628    865.23376  0.017483708  0.016569375          107 
 4125000   0.58441129   -7.5476646    862.85217  0.017431357  0.016564275           96 
 4126000   0.59439357   -7.5255733    864.39201  0.017458233  0.016559179          144 
 4127000   0.58480157   -7.5321311    864.67526  0.017459722   0.01655409          116 
 4128000   0.61109107   -7.5396599    865.25472   0.01746719  0.016549001          105 
 4129000   0.59067746   -7.5602479    864.75304  0.017452835  0.016543912          109 
 4130000   0.59103523   -7.5288928    864.56962  0.017444908  0.016538823           79 
 4131000   0.59073026    -7.520993    866.76505  0.017484972  0.016533741           82 
 4132000   0.59790581   -7.5272397    866.66293  0.017478681  0.016528663          123 
 4133000   0.58919949   -7.5294138    863.18444  0.017404316   0.01652358           84 
 4134000   0.59134917   -7.5494339    863.98397  0.017416223  0.016518502           78 
 4135000   0.58528558   -7.5400983    864.79217  0.017428299  0.016513422           95 
 4136000   0.59118286    -7.525062    865.59167  0.017440193  0.016508349           97 
 4137000   0.59141247   -7.5370558    864.73749  0.017418771  0.016503276           97 
 4138000   0.58332788   -7.5399373    865.52995  0.017430521  0.016498209           88 
 4139000   0.59427082   -7.5492112    865.23186  0.017420308  0.016493141           98 
 4140000   0.57488268   -7.5207403    864.23264  0.017395987  0.016488066           72 
 4141000   0.58199485   -7.5422286    865.25853  0.017412431  0.016482993           90 
 4142000   0.58511357   -7.5403081     865.0517  0.017404066  0.016477922           98 
 4143000   0.59213086   -7.5366054    864.64133  0.017391611  0.016472855          106 
 4144000    0.5990109   -7.5441539     863.9665  0.017373844  0.016467789           76 
 4145000   0.59187727   -7.5360849    863.58051  0.017361892  0.016462718          110 
 4146000   0.57762521   -7.5519499    865.81997  0.017402717  0.016457659          113 
 4147000   0.58737114   -7.5441151    864.82806  0.017378588    0.0164526           68 
 4148000   0.59398453   -7.5487093      865.607  0.017390047  0.016447544          112 
 4149000   0.60000229   -7.5295333    863.99534  0.017353486   0.01644249          109 
 4150000    0.5929366   -7.5198325    863.69416  0.017343256  0.016437439          120 
 4151000   0.58627102   -7.5523312     864.3377  0.017351997  0.016432382           91 
 4152000   0.57864198   -7.5616126    866.38775  0.017388964  0.016427332           77 
 4153000    0.5677635   -7.5364168    866.15951  0.017380197  0.016422277           78 
 4154000   0.59776531   -7.5551388    863.51854  0.017323033  0.016417223           56 
 4155000     0.582915   -7.5509374    863.37822  0.017316049  0.016412169           83 
 4156000   0.59132642   -7.5342245    864.55833  0.017335546   0.01640712          107 
 4157000   0.58012575   -7.5205641    863.56006  0.017311363  0.016402073          184 
 4158000   0.57217267   -7.5457903    864.36138   0.01732326  0.016397029          111 
 4159000   0.59399638   -7.5364995     865.3125  0.017338152  0.016391979          153 
 4160000   0.58263781   -7.5313027    866.62065  0.017360189  0.016386936          126 
 4161000   0.58678922   -7.5460317    864.63537  0.017316257  0.016381902          118 
 4162000     0.597391   -7.5587227    865.16655  0.017322732  0.016376859          110 
 4163000   0.59148179   -7.5481689    867.12477   0.01735777  0.016371826           86 
 4164000   0.58174086   -7.5426008    864.94064  0.017309891  0.016366792          109 
 4165000   0.57919999   -7.5258882    864.35948  0.017294107  0.016361757           67 
 4166000   0.59801626   -7.5415534    864.26865  0.017288139  0.016356716          107 
 4167000   0.59140226   -7.5451414    864.73747  0.017293366  0.016351674          107 
 4168000   0.58743552    -7.546775    865.66247  0.017307711  0.016346628           92 
 4169000   0.58886889   -7.5286943    865.54824  0.017301276  0.016341589           57 
 4170000   0.58430519   -7.5502789    863.35303  0.017253258   0.01633656          134 
 4171000   0.57843204   -7.5568571    864.82949   0.01727862  0.016331524          105 
 4172000   0.58192078   -7.5466247    866.32142  0.017304279  0.016326493           97 
 4173000   0.58942454   -7.5370572    863.86576  0.017251093  0.016321463          187 
 4174000   0.57637192   -7.5458208    864.09893  0.017251616  0.016316428          225 
 4175000    0.5915491   -7.5526523    863.76496  0.017240818  0.016311394          128 
 4176000   0.59770726   -7.5504357    864.41681  0.017249697  0.016306371          219 
 4177000   0.58235659    -7.566518    862.28488  0.017203034  0.016301344           77 
 4178000   0.57568988   -7.5609429    865.88755  0.017270774  0.016296313          106 
 4179000   0.57660857   -7.5713889     864.2189  0.017233367  0.016291284           60 
 4180000   0.59433733   -7.5630037    865.03247  0.017245464  0.016286258          108 
 4181000   0.58603803   -7.5555994    864.64251  0.017233567  0.016281228           70 
 4182000   0.56714252    -7.559335    865.35881  0.017243719  0.016276197           81 
 4183000     0.579024   -7.5573426    863.12199  0.017195035  0.016271169           91 
 4184000   0.58364172   -7.5688461    864.59204  0.017220205  0.016266145           67 
 4185000   0.59073437   -7.5606488    865.58241  0.017235811  0.016261118          108 
 4186000   0.59604858   -7.5604264    863.03404  0.017180961  0.016256098           59 
 4187000   0.57927345   -7.5584591    864.20773  0.017200218  0.016251085           88 
 4188000   0.56866998   -7.5519417    864.95925  0.017211064  0.016246066           55 
 4189000   0.58564321   -7.5740386    863.12833  0.017170533  0.016241045           59 
 4190000   0.57770264   -7.5615302    864.24937  0.017188731  0.016236038           61 
 4191000   0.57373696   -7.5418106    863.31312  0.017166013  0.016231024           80 
 4192000   0.57841312   -7.5522433    864.36265  0.017182782  0.016226006           85 
 4193000   0.58094004   -7.5802982    864.54838  0.017182375  0.016220991          148 
 4194000   0.57025375   -7.5810384    864.45631  0.017176449  0.016215979           96 
 4195000    0.5750709   -7.5585078     864.8165  0.017179509  0.016210975          106 
 4196000   0.57807596   -7.5738957    863.92221  0.017157654   0.01620596           93 
 4197000     0.581258   -7.5918646    864.49543  0.017164948  0.016200949          131 
 4198000   0.57434413   -7.5531213     864.1599  0.017154198  0.016195941          132 
 4199000   0.58166194   -7.5529588    863.96167  0.017146179  0.016190924          108 
 4200000    0.5780252   -7.5715064    864.27959  0.017148405  0.016185917          136 
 4201000   0.57226916   -7.5601437    862.77212  0.017114419  0.016180909          121 
 4202000    0.5861415   -7.5497056    864.47755  0.017144168  0.016175909          101 
 4203000   0.58807178   -7.5511194     861.8322   0.01708764  0.016170911          137 
 4204000   0.56996195   -7.5709632      863.938  0.017125317  0.016165911          162 
 4205000   0.56945542   -7.5668981    863.33566  0.017109308  0.016160913           78 
 4206000   0.58567743   -7.5862139    864.14335  0.017121242  0.016155918          110 
 4207000    0.5734027   -7.5526991    863.30043  0.017100476  0.016150916           52 
 4208000   0.57476517   -7.5656663    863.54561  0.017101268  0.016145919          101 
 4209000   0.56421693    -7.575691    864.02901  0.017106775  0.016140925           84 
 4210000    0.5832317   -7.5837337    863.31458  0.017088571  0.016135936           99 
 4211000   0.57360666   -7.5751515    863.55555  0.017089281  0.016130945           81 
 4212000   0.57607797   -7.5852689    865.15512  0.017116871   0.01612596           72 
 4213000   0.56927279   -7.5650988    864.24773   0.01709486  0.016120974           59 
 4214000   0.57651844   -7.5980075    863.86711  0.017083276  0.016115986           67 
 4215000   0.58991711   -7.5863505    862.51519  0.017052495  0.016110995           67 
 4216000    0.5739023     -7.59088    864.81188  0.017093846  0.016106015           67 
 4217000   0.56681738   -7.5903209    863.53655  0.017064591  0.016101029           95 
 4218000   0.57533815   -7.5659322    863.83011  0.017066345  0.016096041           99 
 4219000   0.57125051   -7.5763447    862.96358  0.017045184  0.016091064           80 
 4220000    0.5701107   -7.5563412     862.2777  0.017027601  0.016086089           70 
 4221000   0.58361639   -7.5757806    864.73719  0.017072123  0.016081115          116 
 4222000   0.57648207   -7.5843804    864.24489  0.017058363  0.016076141           76 
 4223000   0.58110813   -7.5957749    864.11927  0.017051845  0.016071165           89 
 4224000   0.58492617   -7.5805182    863.43073  0.017034224  0.016066197           82 
 4225000   0.57966153   -7.5864815    862.51325  0.017012096  0.016061228          100 
 4226000   0.58100452   -7.5749226    862.94941  0.017016671  0.016056261           96 
 4227000   0.57419366   -7.5852325    862.73985  0.017008514  0.016051293           79 
 4228000   0.58042284   -7.5912192    862.33439  0.016996499  0.016046324           70 
 4229000   0.57648189   -7.5745612    863.64543  0.017018315   0.01604136           83 
 4230000   0.57645825   -7.5864995    863.44833  0.017010408  0.016036396           62 
 4231000   0.58195304   -7.5891312    864.30636  0.017023288  0.016031447           82 
 4232000   0.58719438   -7.5946538    866.07629  0.017054117  0.016026483           86 
 4233000    0.5652188   -7.5740367    864.37429  0.017016582  0.016021527           77 
 4234000   0.56453306   -7.5724028    862.70392  0.016979687  0.016016572          123 
 4235000   0.57644873   -7.5772957    863.80272  0.016997299  0.016011628           82 
 4236000   0.57798739   -7.5728643    863.86415  0.016994495  0.016006681           64 
 4237000   0.57314158    -7.560358    864.28039   0.01699867  0.016001734          104 
 4238000   0.58310027   -7.5918995      864.074  0.016990601  0.015996789          156 
 4239000   0.56767946   -7.5886919    863.60545  0.016977382  0.015991844          157 
 4240000   0.58392414   -7.5752128     863.8996  0.016979159  0.015986903           96 
 4241000   0.56832812   -7.5924179    862.80339  0.016953615   0.01598197          159 
 4242000   0.55989043   -7.5983819     865.4849  0.017002297  0.015977041          107 
 4243000   0.57062851   -7.5658783    864.03674  0.016969847  0.015972114           88 
 4244000    0.5717139   -7.5813394    863.98221  0.016964778  0.015967182          115 
 4245000   0.57434972   -7.5765043    862.72191  0.016936041  0.015962265           70 
 4246000   0.57807944   -7.5779408    863.64177  0.016950105  0.015957343          118 
 4247000   0.57371472   -7.5749115    864.33316  0.016959681  0.015952415           97 
 4248000   0.57615594   -7.5647633    864.66017  0.016962103  0.015947496           95 
 4249000    0.5733877   -7.6023017    864.05404  0.016946223  0.015942579           97 
 4250000   0.57473787    -7.591522    864.04004  0.016941962  0.015937661           77 
 4251000   0.56822918    -7.588562    864.70966  0.016951103  0.015932747          144 
 4252000   0.58318562   -7.5873533    864.84257  0.016949721  0.015927829          157 
 4253000   0.57516243   -7.5888882    863.85512  0.016926388  0.015922912          175 
 4254000   0.56870509   -7.5784831    863.73853  0.016920125  0.015918002           97 
 4255000   0.57522022   -7.5785949    865.56015  0.016951824  0.015913096          107 
 4256000   0.58275161    -7.578744    863.69263  0.016911275  0.015908196           90 
 4257000   0.56081379   -7.5752283    864.18849  0.016917009  0.015903297          141 
 4258000   0.58199841   -7.5605225    863.87365  0.016906874  0.015898395          116 
 4259000   0.57256146   -7.5866511    862.79494  0.016881798  0.015893493          119 
 4260000   0.56868177   -7.5760662    864.17674  0.016904866  0.015888589           69 
 4261000   0.56287643   -7.5484674    863.04199  0.016878706  0.015883688           97 
 4262000   0.57017016   -7.5826457    863.58528  0.016885368  0.015878792           80 
 4263000   0.57736321   -7.5791204    863.36748   0.01687715  0.015873891           51 
 4264000   0.57367866   -7.5723955    865.15846  0.016908194   0.01586899           61 
 4265000   0.56109468   -7.5840453    863.86246  0.016878907  0.015864092           70 
 4266000   0.57276502   -7.5746576    862.47095  0.016847768  0.015859193           79 
 4267000   0.57250697   -7.5760467    864.49261  0.016883302    0.0158543           74 
 4268000   0.56423658   -7.5612898    863.01002  0.016850399  0.015849404           54 
 4269000   0.57105107   -7.5885609    862.98473  0.016845958  0.015844504           52 
 4270000   0.57064176   -7.6042048    863.04371  0.016843164  0.015839604           52 
 4271000   0.57135279   -7.5863666    862.16971  0.016822167  0.015834708           69 
 4272000   0.57220072   -7.5854627    863.41786  0.016842577  0.015829811          113 
 4273000   0.56617964   -7.5999707    863.62714  0.016842717  0.015824915           85 
 4274000   0.57106097   -7.6090732    864.52018  0.016856188  0.015820025           81 
 4275000   0.56715462    -7.574675    863.11558  0.016824865  0.015815136           71 
 4276000     0.581056    -7.590103     862.9924   0.01681853  0.015810248           83 
 4277000   0.57877742   -7.5839273    863.49556  0.016824401  0.015805364           49 
 4278000   0.58003025   -7.5551048    864.44106  0.016838886  0.015800491           77 
 4279000   0.55378254   -7.5795254     862.5179  0.016797497  0.015795609           86 
 4280000   0.56885725   -7.5679934    863.60564  0.016814752  0.015790728          100 
 4281000   0.57834963   -7.5848248    863.16188  0.016802186  0.015785853           74 
 4282000   0.56239767   -7.6073658    864.77685  0.016829691  0.015780975          176 
 4283000   0.56513759   -7.5896568     864.0271  0.016811174  0.015776085           81 
 4284000   0.57561757   -7.5867786    864.20442  0.016810699  0.015771199           78 
 4285000   0.55956968   -7.5946147    861.44101  0.016753034  0.015766315          103 
 4286000   0.56707053   -7.5835056     862.9776  0.016779001  0.015761432           87 
 4287000   0.55730656   -7.5997728    863.72139  0.016789546   0.01575655           77 
 4288000   0.57376944   -7.5884305    862.90646  0.016769793  0.015751673           94 
 4289000   0.55283986   -7.5934726    863.00934  0.016767882    0.0157468           94 
 4290000   0.57181795   -7.5715055    863.90332  0.016781339  0.015741926           69 
 4291000   0.56511885   -7.5841433    861.90174  0.016738556  0.015737054           62 
 4292000   0.57267111   -7.6097978    862.88243  0.016753697  0.015732176           73 
 4293000   0.57033074   -7.5938469    862.28426  0.016738183  0.015727307           97 
 4294000   0.56198876   -7.5969259     863.1963  0.016751985  0.015722438           90 
 4295000   0.55613649   -7.5888272    862.45191  0.016733642  0.015717578           71 
 4296000   0.55737401   -7.5725523    863.34107  0.016746995   0.01571272           77 
 4297000   0.55709158   -7.5878511    862.66221  0.016729932  0.015707856           93 
 4298000   0.57428565   -7.6121857    863.76027   0.01674733  0.015702997           60 
 4299000   0.56923891   -7.5865914    863.29653  0.016734445  0.015698134           68 
 4300000   0.57202514   -7.6178603    862.50064  0.016715129  0.015693273           67 
 4301000   0.55234207   -7.5914398    862.67068  0.016714537  0.015688412          118 
 4302000   0.56450055   -7.6090528     862.6231   0.01670973  0.015683543           84 
 4303000   0.55378772   -7.6126308    863.68285   0.01672637  0.015678683          105 
 4304000    0.5553533   -7.5627395    862.77618  0.016704929  0.015673823           97 
 4305000   0.55303804   -7.5957752    862.03506  0.016686703  0.015668959           62 
 4306000   0.57151197   -7.6128309    862.86295  0.016698849  0.015664097           77 
 4307000    0.5754949   -7.6215755    861.71065  0.016672677  0.015659236           68 
 4308000   0.56557057   -7.5985906    863.19025  0.016697428  0.015654378           73 
 4309000   0.56046502   -7.6070481    862.88242    0.0166876  0.015649525           74 
 4310000   0.55890877   -7.6102788    861.88696  0.016664481  0.015644672           78 
 4311000   0.56207431   -7.6239134    862.86855   0.01667959  0.015639811           55 
 4312000   0.55283513   -7.5908032    863.26666  0.016683416  0.015634945           63 
 4313000   0.57348968   -7.5927117    862.93605   0.01667316  0.015630087           63 
 4314000   0.56459264   -7.5886146     860.7843  0.016627729  0.015625236          117 
 4315000   0.55208669   -7.6078346    865.30234  0.016711131  0.015620383           68 
 4316000   0.57247333   -7.6062344     863.3259  0.016669098  0.015615538           74 
 4317000   0.55769604   -7.6022338    862.18989  0.016643307  0.015610684           74 
 4318000   0.55813664   -7.6120358     862.6883  0.016649072  0.015605831           64 
 4319000   0.56637526   -7.6034824     863.3977  0.016658905  0.015600979           72 
 4320000    0.5530604   -7.6052376    860.51347  0.016599411  0.015596132           78 
 4321000   0.56413198   -7.6154038    861.46703  0.016613959  0.015591283           72 
 4322000   0.56744582   -7.6302425    861.31339  0.016607153  0.015586428           83 
 4323000    0.5682304    -7.600623    861.97375  0.016616041  0.015581581           71 
 4324000   0.56294972    -7.605862    861.96255  0.016611983  0.015576735          101 
 4325000   0.56119059   -7.6070825    860.41655  0.016578354  0.015571881           78 
 4326000   0.55869035   -7.5955149    861.87711  0.016602657  0.015567035           83 
 4327000   0.55651302   -7.6223216     862.8179  0.016616938  0.015562187           75 
 4328000   0.56213235   -7.6235939    861.98041  0.016596973  0.015557337          104 
 4329000   0.56258161   -7.6316686    862.96275  0.016612049   0.01555249           85 
 4330000   0.56426374   -7.6151585    863.29828  0.016614671  0.015547647           87 
 4331000   0.56276792    -7.624256    862.30467  0.016591716  0.015542807           68 
 4332000   0.57508518   -7.6095434     860.2576  0.016548507  0.015537966           88 
 4333000   0.55979117   -7.6201111    861.01367  0.016559229  0.015533123           86 
 4334000   0.55128026   -7.6232499    862.03308  0.016575009  0.015528286           86 
 4335000   0.56092073   -7.6106299    862.03592   0.01657124  0.015523449           94 
 4336000   0.56271033   -7.6190473    861.85309  0.016563905  0.015518614           76 
 4337000   0.56711344   -7.6163249     862.7869  0.016578028  0.015513782           65 
 4338000   0.57310237   -7.6151107     861.1276  0.016542331  0.015508949           74 
 4339000   0.55442416   -7.6257386    862.15116  0.016558177  0.015504123           67 
 4340000   0.57053575    -7.604671     862.9776   0.01657023  0.015499301           58 
 4341000   0.54874078   -7.6356483    859.80074  0.016505428  0.015494474           76 
 4342000   0.55642832   -7.6004574    861.29489  0.016530303  0.015489646           69 
 4343000     0.553075   -7.6013679    860.33775  0.016508131  0.015484817           74 
 4344000   0.55813799   -7.6043343     862.1376  0.016538858  0.015479997           68 
 4345000   0.55299586    -7.609695    862.72951  0.016546404  0.015475176           96 
 4346000   0.54990642   -7.6065358    861.85385  0.016525806  0.015470358           93 
 4347000   0.55474729   -7.6164149     863.3891  0.016551436   0.01546554          103 
 4348000   0.56990408   -7.6091679    862.49718  0.016530535  0.015460731           78 
 4349000   0.55706343   -7.6263058    862.05898  0.016518337  0.015455921           80 
 4350000   0.55537611   -7.6077743    861.69571  0.016507581  0.015451111           74 
 4351000    0.5507647   -7.6175983    860.87584  0.016488084  0.015446303           78 
 4352000   0.54792018   -7.5891925    861.55134   0.01649723  0.015441493           68 
 4353000   0.55471026   -7.6219262    862.27447  0.016507284  0.015436692           69 
 4354000   0.56269641   -7.6190147    860.69758  0.016473312  0.015431889           61 
 4355000   0.54972121   -7.6102382    862.72413  0.016508307  0.015427087           47 
 4356000   0.55538536   -7.6261392    862.42045  0.016498708  0.015422296           59 
 4357000   0.56892315   -7.6146056    862.46226  0.016495721  0.015417505           56 
 4358000   0.56152731   -7.6260379    862.49696  0.016492599  0.015412719           90 
 4359000   0.53773406   -7.6028168    862.46016  0.016488112  0.015407932           64 
 4360000    0.5612481   -7.6197659    861.95501  0.016474675  0.015403153           49 
 4361000   0.55754974   -7.6165967    862.21711  0.016475906  0.015398367           68 
 4362000   0.54544277   -7.6106712    863.76909  0.016501778  0.015393586           58 
 4363000   0.56251658   -7.6243457    863.15685  0.016486302  0.015388803           88 
 4364000   0.56130916   -7.6122385    861.18515  0.016444874   0.01538403           61 
 4365000   0.55618075   -7.6224129    862.15303  0.016459584  0.015379254           75 
 4366000   0.54792822    -7.601986    862.41543  0.016460823  0.015374472           41 
 4367000   0.56087291   -7.6084107    863.63634  0.016480352  0.015369696           57 
 4368000   0.54651559     -7.63075    862.81312  0.016460873  0.015364918           62 
 4369000    0.5471664   -7.6266367    862.20307  0.016445469  0.015360144           71 
 4370000   0.53840741   -7.6392507    861.51743  0.016428631  0.015355373           90 
 4371000    0.5375491   -7.6249941    861.99825   0.01643404  0.015350595           83 
 4372000   0.56776061   -7.6279194    862.36205  0.016437215  0.015345821           45 
 4373000   0.55852623    -7.629359    861.67321  0.016420329  0.015341061           86 
 4374000   0.55559305   -7.6116702    862.32503  0.016428994  0.015336298           79 
 4375000   0.55005371   -7.6191174    861.92635  0.016417645   0.01533153           81 
 4376000   0.55477241   -7.6150801    861.74058  0.016410355   0.01532677           97 
 4377000   0.54297424   -7.5963173    862.62122  0.016423373  0.015322011           87 
 4378000   0.54980929   -7.6029485    862.06098  0.016408957  0.015317258           72 
 4379000   0.56301084   -7.6276863    860.90129  0.016383141  0.015312494           78 
 4380000   0.55046122   -7.6193806    861.97678  0.016399863  0.015307735           63 
 4381000   0.54505756   -7.6106295    861.90683  0.016394789  0.015302977           66 
 4382000   0.56248238   -7.6060643    860.26846   0.01635989   0.01529822           60 
 4383000   0.55417839   -7.6021807     861.8161  0.016385583  0.015293469           59 
 4384000   0.55235453   -7.6140238    861.25862  0.016371248  0.015288715           49 
 4385000   0.54872839   -7.6227202    860.58151  0.016354647  0.015283966           82 
 4386000   0.55341314    -7.631574    861.55668  0.016369446  0.015279217           73 
 4387000   0.55647803   -7.6322618    862.65174  0.016386516  0.015274471           81 
 4388000    0.5513751   -7.6366846    861.53744   0.01636162  0.015269721           60 
 4389000   0.53124102    -7.621167    862.17064  0.016369914  0.015264973           54 
 4390000   0.53967931   -7.6233436    862.76945  0.016377552  0.015260232           41 
 4391000   0.54283261   -7.6362984     861.7208  0.016353921  0.015255491           65 
 4392000   0.55329682   -7.6249513    861.56705   0.01634728   0.01525075           50 
 4393000   0.55284193   -7.6327934    861.82383   0.01634843   0.01524601           74 
 4394000   0.55419669   -7.6335868    863.19108  0.016370639  0.015241273           65 
 4395000   0.56097488   -7.6432062    861.62642  0.016337247  0.015236538           77 
 4396000   0.55363619   -7.6301672    862.26274  0.016345593  0.015231803           55 
 4397000   0.54990663   -7.6297047     860.6802  0.016311883  0.015227072           74 
 4398000   0.55089879   -7.6145128     860.5337  0.016305398  0.015222332           65 
 4399000   0.56036429   -7.6462892    860.21334  0.016295623  0.015217599           68 
 4400000   0.56251506   -7.5986196    861.33533  0.016313169  0.015212865           70 
 4401000   0.55292332   -7.6364022    861.18311   0.01630658   0.01520813           59 
 4402000   0.54146917   -7.6165906    860.95463   0.01629855  0.015203396           81 
 4403000   0.54191592   -7.6234935     861.1572  0.016298683  0.015198672           59 
 4404000    0.5551001   -7.6180495    859.73532  0.016268077  0.015193945           60 
 4405000   0.55066702   -7.6366555    861.04437  0.016289148  0.015189215           74 
 4406000   0.55368183   -7.6327982    861.25394  0.016289415  0.015184488           66 
 4407000   0.54777479   -7.6446071    862.05255   0.01630082  0.015179765           58 
 4408000    0.5329594   -7.6378656    861.96044   0.01629538  0.015175041           50 
 4409000   0.54628488   -7.6415873    860.42588   0.01626268  0.015170314           61 
 4410000   0.54398821   -7.6188532    862.00876  0.016288903  0.015165596           62 
 4411000   0.54003272   -7.6395198    860.63022  0.016259167   0.01516088           62 
 4412000   0.55505222   -7.6280335    860.91742  0.016260906  0.015156162           65 
 4413000   0.54561748   -7.6475264    861.90479  0.016275867  0.015151443           73 
 4414000   0.54544865   -7.6315814     860.4038  0.016243842  0.015146723           67 
 4415000   0.55439995    -7.626709    860.67127  0.016245211  0.015142006           58 
 4416000   0.54637846   -7.6500413    862.97775  0.016285057  0.015137294           77 
 4417000     0.538745   -7.6439713    861.75767  0.016258352  0.015132588           53 
 4418000   0.55088852   -7.6254473    861.70662  0.016253709   0.01512789           59 
 4419000   0.52386913   -7.6239986    860.90334  0.016234882  0.015123193          101 
 4420000   0.54906657   -7.6315131    862.31421  0.016257809  0.015118493           59 
 4421000   0.53925395   -7.6230198    861.34024  0.016235773  0.015113788           61 
 4422000   0.54718634   -7.6366776    860.50816  0.016216421  0.015109088           54 
 4423000   0.53364982   -7.6390688    862.69385  0.016253935  0.015104392           95 
 4424000   0.54585198   -7.6087304    860.43162  0.016207648  0.015099695          130 
 4425000   0.53769007   -7.6248395    862.63706  0.016245519  0.015095011           41 
 4426000   0.54137489   -7.6314433    861.36108  0.016217824  0.015090321           55 
 4427000   0.53327129   -7.6212819    862.26043   0.01623109   0.01508564           66 
 4428000   0.54376296   -7.6373441    860.81546  0.016200231  0.015080961           55 
 4429000   0.54796611     -7.62648    860.54635   0.01619151  0.015076278          122 
 4430000   0.55551795   -7.6405179    860.77406  0.016192138  0.015071597           88 
 4431000   0.55410081   -7.6375167    861.17402  0.016196006  0.015066916          111 
 4432000   0.54368225   -7.6467355    861.68497  0.016201959  0.015062234           77 
 4433000   0.54247271   -7.6348202    860.29555  0.016172185  0.015057557           67 
 4434000    0.5440602   -7.6187952    862.64207  0.016212639  0.015052882           75 
 4435000   0.54982991   -7.6248332    861.84609  0.016194026   0.01504821           57 
 4436000   0.54712023   -7.6170464    861.33868  0.016180844  0.015043536           63 
 4437000   0.54705073   -7.6122559    861.97014  0.016189057  0.015038852          100 
 4438000   0.54075381   -7.6638115    861.65662  0.016179522   0.01503417           66 
 4439000   0.54734799   -7.6252174    861.58678  0.016174566  0.015029493           50 
 4440000   0.54611428   -7.6600867    860.58449  0.016152111  0.015024815           79 
 4441000   0.53410754   -7.6418036     861.9526  0.016174146  0.015020137           88 
 4442000   0.54940498   -7.6446433    862.39529   0.01617881  0.015015461          155 
 4443000   0.53988622   -7.6461091    861.19149   0.01615259  0.015010782           98 
 4444000   0.53656251   -7.6593357    861.61932  0.016156978  0.015006108           79 
 4445000   0.54587054   -7.6330526    862.40908  0.016168149  0.015001438           82 
 4446000   0.53077487   -7.6403583    859.20945  0.016104541  0.014996769           61 
 4447000   0.52877418   -7.6461975    861.09228  0.016136202  0.014992103           87 
 4448000   0.54954069   -7.6290945    860.85593  0.016128146  0.014987433           77 
 4449000   0.54910907   -7.6400551    859.59443  0.016100892  0.014982767           85 
 4450000   0.54176114   -7.6546489    859.99622  0.016104798  0.014978108          111 
 4451000   0.54329522   -7.6483538    860.52762  0.016111129  0.014973445           49 
 4452000   0.53854972   -7.6516325    861.52834  0.016126242  0.014968781           66 
 4453000   0.53753432   -7.6240786    859.87691  0.016091715  0.014964126           95 
 4454000   0.53898187   -7.6549175    859.96337   0.01608972  0.014959466           83 
 4455000   0.53375848   -7.6488491     859.3912  0.016075406  0.014954806           87 
 4456000   0.53612772   -7.6328093    860.86468  0.016099354  0.014950142          104 
 4457000   0.53207712   -7.6416151    859.45538  0.016069392  0.014945485           74 
 4458000   0.53359246   -7.6278236     861.2972  0.016100217  0.014940826           89 
 4459000   0.54004189   -7.6471862    861.51083  0.016100599  0.014936172          108 
 4460000   0.53403441   -7.6623039    860.57536   0.01607951  0.014931516           74 
 4461000   0.55072819   -7.6709006    860.48923  0.016074296  0.014926862           80 
 4462000   0.54668302   -7.6683411    860.79242  0.016076356   0.01492221           60 
 4463000   0.54211095   -7.6425637    860.62741  0.016069673  0.014917553           49 
 4464000    0.5555929   -7.6469262    860.35798  0.016061043  0.014912902           55 
 4465000   0.53158527    -7.665242    860.24309  0.016055302   0.01490825          106 
 4466000   0.53360523     -7.64907    860.06326  0.016048352  0.014903602           94 
 4467000   0.54568514   -7.6475938    860.92965  0.016060922  0.014898953           64 
 4468000   0.52520917   -7.6624809    860.35171  0.016046548  0.014894307           88 
 4469000   0.54222578   -7.6661219      859.301  0.016023365  0.014889663           89 
 4470000   0.54095731   -7.6544271    860.97861  0.016051055  0.014885017           62 
 4471000   0.52524047   -7.6475861    861.17167  0.016051064  0.014880374          104 
 4472000   0.53351367   -7.6584968    861.01703  0.016044593  0.014875731           81 
 4473000   0.53218914   -7.6426428    860.67762  0.016034682  0.014871089          101 
 4474000   0.53599283   -7.6403869    859.00804  0.016000001  0.014866451          104 
 4475000   0.53727834   -7.6411571    860.42091  0.016022736  0.014861816           95 
 4476000   0.53446944   -7.6557778    860.69615   0.01602428  0.014857185           58 
 4477000   0.53605807    -7.646708    860.15839  0.016010692  0.014852559           89 
 4478000   0.53692648   -7.6539116    859.27294  0.015990638  0.014847932           58 
 4479000   0.53345891   -7.6618245    862.39703  0.016045193  0.014843303          123 
 4480000   0.53436882   -7.6506214    859.99561  0.015996942  0.014838674          109 
 4481000   0.54328201   -7.6442359    861.01618  0.016012352  0.014834053           97 
 4482000   0.54098374   -7.6353307    861.23779    0.0160129  0.014829432          227 
 4483000   0.53528372   -7.6487685    859.65787  0.015979959  0.014824813          193 
 4484000   0.54789339   -7.6488518    860.46495  0.015991394  0.014820195          190 
 4485000   0.54251256   -7.6616944    859.65507  0.015972781  0.014815574          113 
 4486000   0.53626093   -7.6594229    861.04771  0.015995091  0.014810957           64 
 4487000   0.53723164   -7.6575138    860.98337  0.015990331  0.014806343           92 
 4488000   0.53001691   -7.6639824    859.83831  0.015965506  0.014801728          100 
 4489000    0.5212478   -7.6362843     860.8432  0.015980605  0.014797109          182 
 4490000   0.53567986   -7.6532089    860.74301  0.015975186  0.014792498          214 
 4491000    0.5337591   -7.6525599    861.14196  0.015979031  0.014787893           60 
 4492000   0.53377514   -7.6339896    860.08026  0.015955778   0.01478328          146 
 4493000   0.52402483   -7.6426659    859.84414  0.015947847  0.014778673          111 
 4494000   0.53244485   -7.6692585    858.41615  0.015917819  0.014774071          128 
 4495000   0.52421016   -7.6464767    858.49407  0.015915722  0.014769466           97 
 4496000    0.5419524   -7.6480374     860.2904  0.015945477  0.014764861          151 
 4497000   0.52194812   -7.6581469    859.70726  0.015931126  0.014760262          105 
 4498000   0.52888148   -7.6395427    860.03738    0.0159337  0.014755668           66 
 4499000   0.53018937   -7.6545433    861.07514   0.01594938   0.01475107          113 
 4500000   0.52731219   -7.6634676    859.30258  0.015913011  0.014746479           72 
 4501000   0.53204728    -7.665601     859.3205  0.015909807  0.014741884           78 
 4502000   0.53451866   -7.6729789    860.07426  0.015920225  0.014737285          115 
 4503000   0.53574303   -7.6536447    859.96112  0.015914596  0.014732697           87 
 4504000   0.51887889   -7.6501398     860.2789  0.015916942  0.014728107          124 
 4505000   0.53016759   -7.6487426    860.06986  0.015909542  0.014723518          139 
 4506000   0.52958245   -7.6631397    860.77983  0.015919142  0.014718933          107 
 4507000    0.5340566   -7.6792686    859.59789  0.015893756  0.014714344           73 
 4508000   0.52728493   -7.6406248    859.79931  0.015893953  0.014709757           81 
 4509000   0.53067103   -7.6629317    858.51014  0.015866603  0.014705167           52 
 4510000   0.53053484   -7.6598013    861.04908  0.015909998   0.01470058          101 
 4511000   0.54393325   -7.6628344    860.68158  0.015899682  0.014695999          194 
 4512000   0.52943292   -7.6594609    861.07858   0.01590349  0.014691425          124 
 4513000   0.52242064   -7.6726895    860.19058  0.015883569  0.014686839          168 
 4514000   0.54871031    -7.676591    859.75304  0.015871973  0.014682265          215 
 4515000   0.52100658   -7.6545819    859.42249  0.015862357  0.014677682          142 
 4516000   0.52913647   -7.6656936    860.26214  0.015874338  0.014673106          213 
 4517000   0.51724264   -7.6713232    860.21906  0.015870029  0.014668527          206 
 4518000   0.53080349   -7.6536063    860.13348  0.015864938  0.014663961          189 
 4519000   0.53122984   -7.6649597    859.11351  0.015842618  0.014659395          133 
 4520000   0.51660519   -7.6692807    860.37093  0.015862296  0.014654829          214 
 4521000   0.52446099   -7.6610903    859.37728  0.015840472  0.014650258          245 
 4522000   0.52688647   -7.6627679    860.03564  0.015849101  0.014645683          163 
 4523000   0.52746273   -7.6643298     860.6649  0.015857191  0.014641113          140 
 4524000   0.53541225   -7.6713219    859.92887  0.015840128  0.014636545          269 
 4525000   0.53217482   -7.6810521    859.70388  0.015832484  0.014631979          198 
 4526000   0.53249594   -7.6713307    860.76652  0.015848551  0.014627413          269 
 4527000   0.51796307   -7.6642517    858.19077  0.015797636  0.014622847          144 
 4528000   0.50646025   -7.6749618    859.19163  0.015812567  0.014618279          239 
 4529000   0.52448975   -7.6826672    858.72431  0.015800477  0.014613713          225 
 4530000   0.52007996   -7.6713181    859.53196  0.015811846  0.014609152          204 
 4531000    0.5353647   -7.6789725    860.19531  0.015820557  0.014604589          273 
 4532000   0.52148095   -7.6686123    858.40254  0.015784101  0.014600026          246 
 4533000   0.52247519   -7.6884873    858.54376  0.015783215  0.014595466          186 
 4534000   0.53226419   -7.6591477    859.67705  0.015800563   0.01459091          196 
 4535000   0.53032737   -7.6625255    858.62464   0.01577774  0.014586353          140 
 4536000   0.53359099   -7.6626641    860.28291  0.015804727  0.014581803          143 
 4537000    0.5400808   -7.6654618    859.97991  0.015795678  0.014577255          177 
 4538000   0.52969229   -7.6684961    859.66321  0.015786382  0.014572704          238 
 4539000   0.52943685    -7.678643    858.39003  0.015759529  0.014568155          186 
 4540000   0.53363186   -7.6706929    858.87415  0.015764944  0.014563603           72 
 4541000   0.52906166    -7.668045    859.81185   0.01577868  0.014559056          234 
 4542000   0.52023571   -7.6706742    859.91817  0.015777157  0.014554509          190 
 4543000   0.52415181   -7.6705184    858.92406  0.015755449  0.014549972          267 
 4544000    0.5224638   -7.6704176     860.8064  0.015786502  0.014545433          172 
 4545000   0.52367467   -7.6781916    858.54552  0.015741575  0.014540887          182 
 4546000   0.52796892   -7.6888645    859.54672  0.015756466  0.014536347          235 
 4547000   0.51797687   -7.6782763    859.41256  0.015750542  0.014531811          162 
 4548000   0.53651569   -7.6723903     858.8184  0.015736192  0.014527271          139 
 4549000    0.5249826   -7.6667399    858.83506  0.015733038  0.014522736          198 
 4550000   0.54082962   -7.6793794    858.92264  0.015731184  0.014518202          202 
 4551000   0.52415334   -7.6695781    858.43136  0.015718731  0.014513668          199 
 4552000   0.52446411   -7.6613886    858.28613   0.01571262  0.014509139          244 
 4553000   0.52802057   -7.6871998    858.48001  0.015712717  0.014504605          174 
 4554000   0.52077806    -7.657428    857.45773   0.01569056  0.014500073          235 
 4555000    0.5183001   -7.6634836    859.01397  0.015715587  0.014495543          228 
 4556000   0.53548416   -7.6705415    858.37372  0.015700427  0.014491023          115 
 4557000   0.51256179   -7.6819858    859.31218  0.015714143  0.014486499          163 
 4558000   0.53383285   -7.6673703    859.66564  0.015717157  0.014481978          107 
 4559000   0.51332111   -7.6588368    857.92018  0.015681805  0.014477463          194 
 4560000   0.52529355   -7.6762998    858.56993   0.01569024  0.014472947          215 
 4561000   0.51617904   -7.6807223    858.44658  0.015684546   0.01446843          243 
 4562000   0.52721152   -7.6650585    860.18282  0.015712824  0.014463918          204 
 4563000   0.52728168   -7.6672078    858.00897   0.01566968  0.014459404          125 
 4564000   0.52362023   -7.6833607    858.37862  0.015672995  0.014454893          201 
 4565000   0.51991029   -7.6635739    858.31181  0.015668343  0.014450384          184 
 4566000   0.51829796   -7.6625183    858.42877  0.015667046  0.014445876          188 
 4567000   0.51257945   -7.6719433    858.93333  0.015672822  0.014441373          185 
 4568000   0.51862012   -7.6692776    858.25743  0.015657061  0.014436872          166 
 4569000   0.51965052   -7.6949261    859.11903  0.015669348  0.014432368          215 
 4570000   0.52160529   -7.6694944    857.32329  0.015633174  0.014427869          198 
 4571000     0.521087   -7.6808344    858.68716  0.015654619  0.014423371          258 
 4572000   0.52465998   -7.6524556    858.39401  0.015645852  0.014418876          168 
 4573000   0.52031647   -7.6769244    857.40961  0.015624492  0.014414385          184 
 4574000   0.52681973   -7.6908148    860.00578  0.015668375  0.014409887          246 
 4575000   0.51500255   -7.6990609    859.66226  0.015658693  0.014405395          199 
 4576000   0.50852238   -7.6706107    858.98023  0.015642851  0.014400905          145 
 4577000   0.51594447   -7.6788666    857.69553  0.015616043  0.014396413          227 
 4578000     0.516105   -7.6614386    857.37988  0.015606886  0.014391926          186 
 4579000    0.5190607   -7.6631403    857.70126  0.015609326  0.014387435          233 
 4580000   0.51880755   -7.7064183    859.46748  0.015638055  0.014382953          247 
 4581000    0.5295056   -7.6731408    859.09763  0.015627913  0.014378469          174 
 4582000   0.52759857   -7.6744486    859.38714  0.015629767  0.014373992          228 
 4583000   0.51734186   -7.6690063    860.28469  0.015642677  0.014369515          155 
 4584000   0.51875467   -7.6673279     859.6843   0.01562835  0.014365042          216 
 4585000   0.51725528   -7.6801982    858.35246  0.015600735  0.014360569          225 
 4586000   0.50932681   -7.6544105     858.3421  0.015597145  0.014356098          248 
 4587000   0.52342359    -7.691305    858.24769   0.01559203  0.014351629          209 
 4588000   0.52116562    -7.676195    859.69615   0.01561494  0.014347158          219 
 4589000   0.51425914   -7.6647769    859.33126  0.015604911  0.014342687          246 
 4590000   0.51431185   -7.6723326    859.43323  0.015603363  0.014338218           96 
 4591000   0.52046664   -7.6840185    858.75064  0.015587574  0.014333754          193 
 4592000   0.51852099   -7.6896904    858.14073  0.015573111  0.014329286          192 
 4593000   0.51267726   -7.6582374    858.62009  0.015578418  0.014324828          191 
 4594000    0.5298059   -7.6886306    859.12413   0.01558417  0.014320369          232 
 4595000   0.52562431   -7.6923514    858.80722  0.015575031   0.01431591          284 
 4596000   0.51067153   -7.6862012    860.47192  0.015601826  0.014311448          168 
 4597000   0.50821793   -7.6665958    858.62358  0.015564926  0.014306985          239 
 4598000   0.51995894    -7.694495    858.81461  0.015565003  0.014302525          236 
 4599000   0.51272198    -7.693123    859.10508  0.015566882  0.014298062          257 
 4600000   0.50978208   -7.6686678    858.49287  0.015552407  0.014293606          232 
 4601000   0.52864045   -7.6862925    858.41284  0.015547577  0.014289152          211 
 4602000   0.51471755   -7.6815518    858.35627  0.015543174  0.014284702          230 
 4603000   0.52351196   -7.6714442    859.71638  0.015564421  0.014280256          203 
 4604000   0.51657972   -7.6867598    858.31272  0.015535634  0.014275809          172 
 4605000   0.52538354   -7.6747796    858.24335  0.015531005  0.014271363           99 
 4606000   0.51685715   -7.6798107    858.69847  0.015535868  0.014266914          154 
 4607000     0.524211   -7.6916437    857.43519  0.015509645  0.014262462          227 
 4608000   0.51051451   -7.6935338    858.24218  0.015520873  0.014258016           88 
 4609000   0.51208962   -7.6856014    858.38684  0.015520121   0.01425357          158 
 4610000   0.50673563   -7.6907526    859.43942  0.015535781  0.014249131          210 
 4611000   0.51626402   -7.6682216    858.51887  0.015515775  0.014244696          230 
 4612000   0.51231704   -7.6799842      858.184   0.01550636   0.01424026          266 
 4613000   0.50709022   -7.6900097    858.00574  0.015499778  0.014235823          291 
 4614000   0.51246417   -7.6710713     859.2347  0.015518616  0.014231388          148 
 4615000   0.52041568   -7.6769015    859.19512  0.015514538  0.014226956           91 
 4616000   0.51003193   -7.6790565    858.06053  0.015490694  0.014222521          175 
 4617000   0.51459035   -7.6755497    858.42419  0.015493903  0.014218089          237 
 4618000   0.50496647   -7.6953892    859.44183  0.015508911  0.014213659          164 
 4619000    0.5112684   -7.6767736    858.28727  0.015484724  0.014209228          269 
 4620000   0.51662077   -7.6913523    858.24626  0.015480632    0.0142048          201 
 4621000   0.50347113   -7.7037336    858.91106  0.015489271  0.014200379          153 
 4622000   0.51613049   -7.6863624     858.9279  0.015486223  0.014195952          216 
 4623000   0.51267528   -7.6992802    858.23906  0.015470457  0.014191525          170 
 4624000   0.52696401   -7.6768784    857.99598   0.01546273  0.014187105          143 
 4625000    0.5106642   -7.6868412    857.48373  0.015450157  0.014182686          202 
 4626000    0.5169069   -7.6938083    859.01859  0.015474467  0.014178266          193 
 4627000   0.50751804    -7.701195    858.32036  0.015458547  0.014173846          239 
 4628000   0.51096914   -7.6847994    857.55189  0.015441369  0.014169433          220 
 4629000   0.50726792   -7.6938655     858.8446  0.015461306  0.014165022          164 
 4630000   0.51152112   -7.6840164    858.41005  0.015450145  0.014160609          176 
 4631000   0.49017119   -7.6877924    858.73608  0.015452675  0.014156198          184 
 4632000   0.50479216   -7.6896824    857.35797  0.015424546  0.014151792          217 
 4633000   0.50871244   -7.6888458    858.58749  0.015443332  0.014147384          207 
 4634000   0.50787105   -7.6750883    859.21368   0.01545126  0.014142983          213 
 4635000   0.50714782   -7.6800109    858.62004  0.015437253  0.014138584          193 
 4636000   0.51392058   -7.6893216    858.72617  0.015435831  0.014134183          264 
 4637000   0.50739011    -7.696998    858.73355  0.015432635  0.014129792          245 
 4638000   0.50520581   -7.6952968    858.52129  0.015425494    0.0141254          240 
 4639000   0.50498682   -7.6815783     857.8327  0.015409799  0.014121008          187 
 4640000   0.51449382   -7.6665904    857.16248  0.015394441  0.014116615          169 
 4641000   0.50357945   -7.6861219    857.84495  0.015403378   0.01411222          231 
 4642000    0.5091561   -7.6891857     857.2834  0.015389979  0.014107824          122 
 4643000   0.51208664   -7.7031393    858.11726  0.015401631  0.014103432          184 
 4644000   0.50319105    -7.705585    857.66856  0.015390263  0.014099041          175 
 4645000   0.50221329   -7.6846347    858.54565  0.015402685  0.014094652          231 
 4646000   0.52087022   -7.6916441    858.12703  0.015391861  0.014090265          272 
 4647000   0.51458086   -7.6929441     857.8824  0.015384162  0.014085879          192 
 4648000   0.50867496   -7.6811938     858.3308  0.015388891  0.014081492           93 
 4649000   0.51058293   -7.7068498    858.28181  0.015384703  0.014077111          249 
 4650000   0.49923294   -7.6861782    857.47468   0.01536693  0.014072726          256 
 4651000   0.50970112   -7.6910712     857.9767  0.015372621  0.014068344          162 
 4652000   0.51350748   -7.6744321    858.68676  0.015382036  0.014063962          252 
 4653000   0.51199118   -7.7016412    857.05978  0.015349591  0.014059581          227 
 4654000    0.5066894   -7.7038152    857.54134  0.015354916  0.014055198          203 
 4655000   0.49381417    -7.688503    856.35124  0.015330312   0.01405082          237 
 4656000    0.5179612   -7.6761987    856.59147  0.015331319   0.01404644          140 
 4657000   0.51640575   -7.6827731    857.59079  0.015345909  0.014042067          245 
 4658000   0.49914683    -7.688363    856.60378  0.015324957  0.014037691          260 
 4659000   0.50438349   -7.6921324    857.95062  0.015345758  0.014033318          193 
 4660000   0.50771087   -7.7067756    858.43766  0.015351174  0.014028949          233 
 4661000   0.50083482   -7.6968333    858.20024  0.015343636  0.014024575          111 
 4662000   0.50163101   -7.6970033    857.87639  0.015334556  0.014020207          184 
 4663000   0.50848931   -7.6896754    857.16944  0.015318633  0.014015839          185 
 4664000   0.50992126    -7.693766    856.55583  0.015304385  0.014011472          204 
 4665000   0.50538495   -7.6890794    857.18813    0.0153124   0.01400711          100 
 4666000   0.49952268   -7.6915405    857.26245  0.015310445  0.014002749          171 
 4667000   0.50488348   -7.6983731    857.40567  0.015309722   0.01399839          124 
 4668000   0.49393709   -7.6926034    857.18126  0.015302436  0.013994031          240 
 4669000   0.50614481   -7.6921317    857.17337  0.015299018   0.01398967          190 
 4670000   0.51440614   -7.6974289    857.41826  0.015300112  0.013985314          271 
 4671000   0.50447915   -7.7049067    858.72672   0.01532018  0.013980961          215 
 4672000    0.4914795   -7.6906515    856.97712  0.015285693  0.013976602          229 
 4673000   0.50783415   -7.7061179    857.91571   0.01529916  0.013972253          229 
 4674000   0.49097767   -7.7096976    856.54623   0.01527147  0.013967895          233 
 4675000   0.51019993   -7.7114188    857.55784  0.015286236  0.013963545          216 
 4676000   0.50158173   -7.7042719    858.24736  0.015295255    0.0139592          222 
 4677000   0.49926458   -7.6993892     857.5934  0.015280333  0.013954858          228 
 4678000   0.51264888   -7.6986825    857.06231  0.015267606  0.013950515          262 
 4679000   0.50430559   -7.6924972    857.59227  0.015273781  0.013946175          223 
 4680000   0.49872182   -7.7057495    857.48822  0.015268665  0.013941834          242 
 4681000    0.5063912   -7.7060035    856.71535  0.015251644  0.013937501          165 
 4682000   0.49342291   -7.6853353     858.3708  0.015277851  0.013933168          181 
 4683000    0.5025011   -7.7028794    856.69478  0.015244764   0.01392883          216 
 4684000   0.50467439   -7.7006297    857.31018  0.015252458  0.013924494          210 
 4685000   0.49782649   -7.6996726     854.9959  0.015208038  0.013920165          218 
 4686000   0.50738974   -7.6948179    857.22046  0.015244353  0.013915834          214 
 4687000    0.5013358   -7.7107622    857.96199  0.015254285  0.013911504          170 
 4688000   0.50175396    -7.714646    857.74619  0.015247195  0.013907179          254 
 4689000    0.5072694    -7.690273    856.71065  0.015225539  0.013902852          175 
 4690000    0.4969247   -7.7038342    857.86628  0.015242827  0.013898527          227 
 4691000   0.49927711   -7.7079189    857.06544  0.015225351    0.0138942          157 
 4692000   0.49049561   -7.7174654    857.14215  0.015223468  0.013889872          264 
 4693000   0.50862039   -7.7197775    857.71088  0.015230323  0.013885546          259 
 4694000   0.51184856    -7.695243    857.16791  0.015217439  0.013881226          195 
 4695000    0.4989812   -7.7127872    857.87059   0.01522667  0.013876906          219 
 4696000   0.50172526   -7.6975709    856.65917   0.01520193  0.013872585          190 
 4697000   0.50643955   -7.7045934    858.07373  0.015223791   0.01386827          212 
 4698000   0.50166706   -7.7066565    858.23026  0.015223327  0.013863956          169 
 4699000   0.50072458   -7.7202576    857.14536  0.015200847  0.013859648          218 
 4700000   0.49964625   -7.7014931    856.65697  0.015188953  0.013855333          149 
 4701000   0.49609795   -7.7094534    858.63134  0.015220721  0.013851023          194 
 4702000   0.49966038   -7.7018095    857.64044  0.015199923  0.013846713          257 
 4703000   0.50790014   -7.7047846    856.67699  0.015179619  0.013842401          279 
 4704000    0.4956577   -7.7066967    857.32387  0.015187852  0.013838096          253 
 4705000   0.49704282   -7.7086137    857.29805  0.015184167  0.013833795          235 
 4706000   0.50195449    -7.696988    856.23256  0.015162072  0.013829494          207 
 4707000   0.50885732   -7.7219782    856.63269  0.015165935  0.013825193          253 
 4708000   0.50183168   -7.7117105    857.12137  0.015171364  0.013820894          198 
 4709000   0.49153744   -7.7012415     857.0988  0.015167743  0.013816594          197 
 4710000   0.49053221   -7.7000685    857.49717  0.015171571  0.013812295          269 
 4711000   0.48945449   -7.7087028    855.29794  0.015129448     0.013808          304 
 4712000   0.50047694   -7.7127646    857.74298  0.015169478  0.013803706          238 
 4713000   0.49890694   -7.6961253    858.11835  0.015172897  0.013799416          290 
 4714000   0.49097141    -7.702924    857.20335  0.015153503  0.013795127          250 
 4715000   0.50419124   -7.7197326    856.75118  0.015142297  0.013790839          245 
 4716000   0.50189284   -7.7223877    855.61678  0.015119041  0.013786548          227 
 4717000   0.49833649   -7.7161062    856.52213   0.01513183  0.013782262          264 
 4718000    0.5004388   -7.7132078    857.47855  0.015145516  0.013777976          247 
 4719000   0.49528642   -7.7109217    856.69668    0.0151285  0.013773693          256 
 4720000   0.49285426   -7.6990291    856.74518  0.015126151  0.013769409          280 
 4721000   0.50544728   -7.7006827     857.7456  0.015140606  0.013765133          195 
 4722000   0.49167875   -7.7007622    856.37274  0.015113171  0.013760853          208 
 4723000   0.48696727   -7.7134602    857.40124  0.015128118  0.013756574          224 
 4724000   0.49754868   -7.7142507    857.44793   0.01512574    0.0137523          262 
 4725000   0.50340323    -7.714454    855.88306  0.015094939   0.01374802          167 
 4726000   0.49951291   -7.7150171     857.2886  0.015116529  0.013743746          211 
 4727000   0.50152162   -7.6997342     856.6072  0.015101319  0.013739475          277 
 4728000   0.50399393   -7.6986048    857.33882   0.01511102  0.013735208          283 
 4729000   0.48998088   -7.7232508    856.51793  0.015093359  0.013730938          233 
 4730000   0.48664415   -7.7281171    857.90516  0.015114608  0.013726671          239 
 4731000   0.50045297   -7.7204107    856.83749  0.015092607  0.013722406          179 
 4732000   0.50394876   -7.7165056    857.09784  0.015094003  0.013718143          194 
 4733000   0.49068491   -7.7140066    856.58969  0.015081867   0.01371388          240 
 4734000   0.49540207   -7.7060735    856.18072  0.015071482  0.013709618          232 
 4735000    0.4921002   -7.7057939    856.70502  0.015077526  0.013705358          217 
 4736000   0.49146146   -7.7152699    856.16599  0.015064858  0.013701099          228 
 4737000   0.48690473   -7.7024345    857.00549  0.015076446  0.013696843          119 
 4738000   0.49725789   -7.7286066    857.61108  0.015083915  0.013692587          135 
 4739000   0.49146338   -7.7229854    856.74351  0.015065476  0.013688328          243 
 4740000   0.49939462   -7.7268805    857.38085  0.015073503  0.013684075          216 
 4741000   0.48967843   -7.7142332    858.41891   0.01508857  0.013679826          253 
 4742000   0.48969873   -7.7345769    856.88484  0.015058429  0.013675573          269 
 4743000   0.50657933   -7.7093766    857.82191  0.015071718  0.013671325          171 
 4744000   0.49079965   -7.7103463    856.97829  0.015053722  0.013667081          254 
 4745000   0.50260737   -7.7249998    855.79063  0.015029691  0.013662838          265 
 4746000   0.49453882   -7.7212903     857.1686   0.01505072  0.013658594          212 
 4747000   0.48517774   -7.6948184    856.41005  0.015034233  0.013654352          275 
 4748000   0.48281701    -7.697453    856.61736  0.015034705   0.01365011          219 
 4749000   0.48874521    -7.720515    856.29613  0.015025903  0.013645868          295 
 4750000   0.49558347   -7.7233889    855.48634  0.015008532  0.013641627          233 
 4751000   0.50108696   -7.7404721    857.54868  0.015041547  0.013637392          223 
 4752000   0.49630605   -7.7299199    857.54842  0.015038377  0.013633162          307 
 4753000   0.49150971   -7.7311636    856.75144   0.01502124  0.013628928          303 
 4754000   0.50251637    -7.719783    855.56278  0.014997244  0.013624693          277 
 4755000   0.48767773   -7.7099132    856.77032  0.015015253  0.013620457          292 
 4756000   0.48631104   -7.7119318    855.82943   0.01499561  0.013616228          262 
 4757000   0.48013707   -7.7107994    854.97733   0.01497753  0.013612001          273 
 4758000   0.49471549   -7.7080426    857.41607  0.015017095  0.013607774          210 
 4759000   0.49327543   -7.7072651    856.90884  0.015005058   0.01360355          261 
 4760000   0.49259959   -7.7160064    855.62424  0.014979416  0.013599329          259 
 4761000   0.48643606   -7.7331812    855.61482  0.014976105  0.013595109          192 
 4762000    0.4954351    -7.730378    856.93216  0.014996013  0.013590893          250 
 4763000   0.48583251   -7.7213241    856.52868  0.014985805  0.013586675          290 
 4764000   0.47559903   -7.7206435    857.10274  0.014992701  0.013582458          291 
 4765000   0.49495578    -7.728861    857.16158  0.014990584  0.013578245          290 
 4766000   0.48578131   -7.7366905    855.35394  0.014955832  0.013574029          271 
 4767000   0.48760486   -7.7174354    856.69989  0.014976223  0.013569815          278 
 4768000   0.49333853   -7.7298854    854.96762  0.014942807  0.013565603          261 
 4769000   0.49258148   -7.7290095    855.70938  0.014952635  0.013561392          285 
 4770000   0.48923933   -7.7159664    856.17994  0.014957721  0.013557181          235 
 4771000   0.49059266   -7.7336088    856.85355  0.014966351  0.013552976          226 
 4772000   0.48480448   -7.7242126    858.03989  0.014983932  0.013548772          256 
 4773000   0.49368642   -7.7227444    855.33384  0.014933547  0.013544569          221 
 4774000   0.49343649   -7.7118347    855.13214  0.014926898  0.013540367          289 
 4775000   0.49338647   -7.7338094    856.06865  0.014940116  0.013536172          211 
 4776000   0.48485907   -7.7297023    856.14757  0.014938365  0.013531973          229 
 4777000   0.49327714   -7.7280668    856.26911  0.014937358  0.013527779          218 
 4778000   0.48933248   -7.7216981    856.86481  0.014944621  0.013523584          303 
 4779000   0.48499325   -7.7286303    856.23439  0.014930501  0.013519389          251 
 4780000   0.47933429   -7.7225061    855.94838  0.014922392  0.013515201          206 
 4781000   0.48466487    -7.731585    856.94396  0.014936623  0.013511007          221 
 4782000    0.4865043   -7.7205554    856.23606  0.014921164  0.013506816          267 
 4783000   0.48287159     -7.72708    855.74025  0.014909406  0.013502625          262 
 4784000   0.49830826   -7.7392746    855.82695  0.014907799  0.013498438          257 
 4785000   0.48599309   -7.7278318    856.10015  0.014909442  0.013494251          277 
 4786000    0.4869605   -7.7383876    856.72285  0.014917169   0.01349007          263 
 4787000   0.48381268   -7.7225232    855.47373  0.014892308  0.013485892          289 
 4788000   0.47992101   -7.7254096    857.22852  0.014919739  0.013481715          287 
 4789000    0.4856707   -7.7321663    855.05079  0.014878729  0.013477535          223 
 4790000   0.48384741   -7.7348268    856.55718   0.01490183  0.013473363          233 
 4791000   0.49569678   -7.7213538     856.4359   0.01489661  0.013469192          272 
 4792000   0.48488759    -7.745555    857.16884  0.014906247  0.013465019          269 
 4793000   0.48492395   -7.7419627    856.14254  0.014885293  0.013460844          250 
 4794000   0.48461406   -7.7371087    856.94667  0.014896167  0.013456674          239 
 4795000    0.4843204   -7.7282341    854.89814  0.014857458  0.013452499          271 
 4796000   0.48240593   -7.7252678    856.30014  0.014878721  0.013448328          315 
 4797000   0.48096379   -7.7408405    854.97207  0.014852548   0.01344416          200 
 4798000   0.48674784   -7.7313555     856.1601  0.014870086  0.013439991          246 
 4799000   0.48269621   -7.7331564    856.32432   0.01486984  0.013435824          167 
 4800000   0.47461868   -7.7390392    855.70614  0.014856009  0.013431659          263 
 4801000   0.48525304   -7.7260085    855.70513  0.014852898  0.013427495          199 
 4802000   0.47539631   -7.7362152    856.45235  0.014862772  0.013423334          283 
 4803000   0.48030818    -7.726881    855.21582  0.014838223  0.013419173          275 
 4804000   0.48761116   -7.7212442    855.06004  0.014832432  0.013415018          192 
 4805000   0.49043649   -7.7318338    855.33329  0.014834084  0.013410861          203 
 4806000   0.48520064   -7.7405178    856.83056  0.014856959  0.013406703          301 
 4807000   0.48593627   -7.7281701    856.44039  0.014847105  0.013402548          246 
 4808000   0.48681205   -7.7318549    855.56489  0.014828842  0.013398392          284 
 4809000   0.47194728    -7.738077    855.01186  0.014816176  0.013394238          232 
 4810000   0.47454167   -7.7311118    855.75218  0.014825921  0.013390087          239 
 4811000   0.47615652   -7.7415386    856.73064  0.014839788  0.013385939          305 
 4812000   0.47281185   -7.7326495    856.46439  0.014832093  0.013381795          218 
 4813000   0.47631685   -7.7318784    857.13276  0.014840584  0.013377648          259 
 4814000   0.49063627    -7.719978    855.21339  0.014804276  0.013373502          234 
 4815000   0.47608524   -7.7340901    856.45717  0.014822727  0.013369358          284 
 4816000   0.47846239   -7.7413423    856.21999  0.014815545  0.013365213          356 
 4817000   0.47951826   -7.7291023    855.20279  0.014794872  0.013361072          239 
 4818000   0.47139403    -7.739926    856.56893   0.01481543  0.013356932          293 
 4819000   0.48415367   -7.7300001     856.7135  0.014814856   0.01335279          193 
 4820000   0.48315138   -7.7433452    855.48316  0.014790511  0.013348653          295 
 4821000   0.48125354   -7.7340944     855.6447  0.014790235  0.013344515          230 
 4822000   0.47492249    -7.744064    854.60914  0.014769272  0.013340378          309 
 4823000   0.47245152    -7.741613    857.66874  0.014819074  0.013336244          230 
 4824000   0.47877628   -7.7387263    856.18668    0.0147904  0.013332113          285 
 4825000   0.48378304   -7.7355448    854.34858  0.014755589  0.013327979          282 
 4826000   0.47966272   -7.7441325    855.84199  0.014778319  0.013323853          265 
 4827000   0.47495237   -7.7395574    856.22906  0.014781939  0.013319724          171 
 4828000   0.47546729   -7.7545505    856.77054  0.014788224  0.013315597          256 
 4829000   0.48662696   -7.7305447    855.21394    0.0147583  0.013311473          259 
 4830000   0.47226145   -7.7421293    856.71165  0.014781084   0.01330735          226 
 4831000    0.4852713   -7.7370856    856.85505  0.014780498  0.013303229          161 
 4832000   0.48091194   -7.7400141    854.04438  0.014728966  0.013299111          278 
 4833000    0.4768168   -7.7296149    855.43999  0.014749983  0.013294992          207 
 4834000   0.47412043   -7.7425683    854.87757  0.014737236  0.013290875          279 
 4835000   0.48467294   -7.7444246    854.32681  0.014724695  0.013286757          282 
 4836000   0.46739504     -7.74008    856.73391  0.014763129  0.013282644          190 
 4837000   0.47633066   -7.7408543    856.29015  0.014752432  0.013278529          288 
 4838000   0.48782967   -7.7474355    856.21595  0.014748104  0.013274416          268 
 4839000   0.47830233   -7.7389024    856.48741  0.014749731  0.013270304          172 
 4840000   0.47583412    -7.747119    855.24942  0.014725369    0.0132662          319 
 4841000   0.47320837   -7.7425414    854.90157  0.014716339  0.013262093          179 
 4842000   0.47698653   -7.7296342    854.60108  0.014708128  0.013257991          241 
 4843000   0.46826838   -7.7300465    856.08218  0.014730576  0.013253887          239 
 4844000   0.47565935   -7.7322782    854.62647  0.014702492  0.013249782          204 
 4845000    0.4812274    -7.739075    856.16463  0.014725914  0.013245683          302 
 4846000   0.47852983   -7.7375836    855.92949  0.014718831  0.013241587          268 
 4847000   0.47489366   -7.7256144    855.28233  0.014704668  0.013237489          282 
 4848000   0.46977998   -7.7313216     856.5416  0.014723281  0.013233393          180 
 4849000   0.47006537    -7.747619    856.25103  0.014715251  0.013229298          266 
 4850000   0.48068456    -7.734706    855.42409  0.014698008  0.013225206          299 
 4851000   0.48836325   -7.7512706     855.7608  0.014700763  0.013221116          265 
 4852000   0.48192341   -7.7233293    855.46859  0.014692714  0.013217027          295 
 4853000   0.47692795   -7.7409342    855.45519  0.014689457  0.013212942          292 
 4854000   0.48845759   -7.7258727    855.16763  0.014681494  0.013208858          259 
 4855000   0.48161058   -7.7559016    856.79829  0.014706459  0.013204772          243 
 4856000    0.4783104   -7.7435181    855.87185  0.014687532  0.013200686          188 
 4857000   0.47428136   -7.7516024    855.81956  0.014683611  0.013196604          221 
 4858000   0.47757091   -7.7353825    855.19997   0.01466996  0.013192523          292 
 4859000   0.46610767   -7.7392238    855.13501  0.014665826  0.013188447          194 
 4860000    0.4664679   -7.7359998    855.41388  0.014667591  0.013184372          168 
 4861000   0.46856749    -7.757037    855.21635  0.014661187  0.013180296          333 
 4862000   0.47630688   -7.7540855    854.70084  0.014649336   0.01317622          287 
 4863000   0.48074373   -7.7482874    854.95363  0.014650655  0.013172147          211 
 4864000   0.46820939   -7.7445347    854.74599  0.014644086  0.013168074          265 
 4865000   0.47508798   -7.7394517    856.01055  0.014662736  0.013164005          278 
 4866000   0.47697809   -7.7534812    854.55313  0.014634764  0.013159936          285 
 4867000   0.47324728   -7.7328964    855.59276  0.014649558  0.013155866          192 
 4868000   0.47505855   -7.7385708     856.7519  0.014666391  0.013151802          255 
 4869000   0.45921329   -7.7308029    855.88851  0.014648602  0.013147736          281 
 4870000   0.48285565   -7.7468523    854.57232  0.014623072  0.013143672          330 
 4871000   0.48661021   -7.7420934    853.85763  0.014607843  0.013139609          333 
 4872000   0.48126784   -7.7380373    855.35013  0.014630373   0.01313555          287 
 4873000   0.48136664   -7.7349057    853.85661   0.01460183  0.013131491          316 
 4874000   0.46636409    -7.759236    855.57537  0.014628221  0.013127436          247 
 4875000   0.47603217   -7.7556462    856.28269  0.014637311  0.013123381          226 
 4876000   0.46910457   -7.7395114    855.81253  0.014626274  0.013119323          255 
 4877000     0.457824   -7.7542767    855.70099  0.014621369  0.013115271          238 
 4878000    0.4785064    -7.740936    857.03136  0.014641099  0.013111223          191 
 4879000   0.46279143   -7.7466587    855.14782  0.014605927  0.013107174          187 
 4880000   0.47064753   -7.7493292    854.64987  0.014594431  0.013103124          214 
 4881000   0.46122796   -7.7469753    854.38416  0.014586904  0.013099075          271 
 4882000   0.48007683    -7.746319    855.64961  0.014605517  0.013095028          222 
 4883000   0.46333819   -7.7575439    854.08405  0.014575808  0.013090983          273 
 4884000    0.4852438    -7.747735    854.51482  0.014580174  0.013086939          223 
 4885000   0.47052019   -7.7471624    855.22576  0.014589317  0.013082898          205 
 4886000   0.46664786   -7.7464407     855.6533  0.014593623  0.013078856          260 
 4887000   0.48203953   -7.7361125    855.11097  0.014581389  0.013074818          259 
 4888000    0.4751978    -7.745329    854.60274  0.014569741  0.013070782          234 
 4889000   0.47577791   -7.7512045    854.65307  0.014567619   0.01306675          256 
 4890000   0.46007651   -7.7555671    854.47173   0.01456155  0.013062716          241 
 4891000   0.46758262   -7.7434724    855.42691  0.014574847  0.013058683          182 
 4892000   0.46553197   -7.7439005    854.86673  0.014562325  0.013054649          271 
 4893000   0.46046774   -7.7371227    855.40362  0.014568493  0.013050615          268 
 4894000   0.46216149   -7.7500721    854.36962  0.014547909  0.013046584          244 
 4895000   0.47118065   -7.7434109    855.36534  0.014561889  0.013042555          242 
 4896000   0.47053854   -7.7569788    855.19409     0.014556  0.013038527          221 
 4897000    0.4594941   -7.7512192    854.73182  0.014545161  0.013034502          228 
 4898000   0.47442465   -7.7677955    856.89054  0.014578919  0.013030476          217 
 4899000   0.46694729   -7.7591045    854.99984  0.014543782  0.013026452          279 
 4900000   0.47096892    -7.744421     855.0791  0.014542162  0.013022432          183 
 4901000   0.47422047   -7.7426345    854.92586  0.014536589  0.013018412          248 
 4902000     0.462396   -7.7561164     856.0127    0.0145521  0.013014393          264 
 4903000   0.46787959   -7.7541439    855.75219  0.014544704  0.013010378          236 
 4904000   0.46938914   -7.7539164    854.45527  0.014519699  0.013006363          225 
 4905000   0.46779775   -7.7633868    855.81932  0.014539914  0.013002351          201 
 4906000   0.46802107   -7.7533766    853.77539  0.014502232  0.012998343          213 
 4907000   0.46775281   -7.7438135    854.20537  0.014506579  0.012994333          267 
 4908000   0.46326381   -7.7600322     854.5497  0.014509469  0.012990322          184 
 4909000   0.46806707    -7.750887    854.37252  0.014503506  0.012986314          243 
 4910000   0.46930299   -7.7534747    853.81372  0.014491068  0.012982309          180 
 4911000   0.47565519   -7.7527707    855.96697  0.014524655  0.012978308          200 
 4912000   0.45529146   -7.7512743    854.78901  0.014501714  0.012974306          181 
 4913000   0.46004962   -7.7693341    854.39321  0.014492048  0.012970304          190 
 4914000   0.46879982   -7.7519087    855.68768  0.014511051  0.012966302          195 
 4915000   0.46233255   -7.7636121     855.8284  0.014510485  0.012962302          270 
 4916000   0.46579966   -7.7549393    854.85102  0.014490965  0.012958305          244 
 4917000   0.47062488   -7.7563919      854.536  0.014482679  0.012954305          254 
 4918000   0.46896514    -7.771613    854.70233  0.014482553  0.012950307          255 
 4919000   0.47034565   -7.7493173     853.6288  0.014461422  0.012946311          244 
 4920000   0.46493295   -7.7590315     855.0826  0.014483106   0.01294232          197 
 4921000   0.46655856   -7.7455117    854.95522  0.014478006  0.012938331          195 
 4922000   0.46969157   -7.7524923    854.53272  0.014467911  0.012934342          260 
 4923000   0.46978727     -7.74661    854.55855   0.01446541  0.012930356          215 
 4924000   0.45632146    -7.770583    855.01826  0.014470252  0.012926372          241 
 4925000   0.45748793   -7.7392253    853.69872  0.014444987  0.012922388          322 
 4926000   0.46319426   -7.7569785    853.24011  0.014434296  0.012918401          282 
 4927000   0.46211426   -7.7533562    854.22534   0.01444803   0.01291442          192 
 4928000   0.45522565   -7.7591122    855.70434  0.014470108  0.012910441          269 
 4929000   0.47149648    -7.766586     855.8764  0.014470082  0.012906466          246 
 4930000   0.45515418    -7.739741    854.85168  0.014449826  0.012902485          149 
 4931000   0.47341875   -7.7418014    855.25952  0.014453788  0.012898511          167 
 4932000   0.44887338   -7.7753466    855.68779  0.014458093  0.012894537          185 
 4933000   0.46497415    -7.762052    855.47313  0.014451536  0.012890562          168 
 4934000    0.4630833   -7.7615771    855.88453  0.014455555  0.012886592          194 
 4935000   0.45904207   -7.7386935    854.54512  0.014430009  0.012882621          202 
 4936000   0.46505486   -7.7614477    855.02073  0.014435115   0.01287865          223 
 4937000   0.46162038   -7.7701858    855.73505  0.014444248  0.012874681          274 
 4938000   0.46071866   -7.7655824     854.6136  0.014422398  0.012870718          163 
 4939000    0.4494837   -7.7702822    854.87053  0.014423813  0.012866751          229 
 4940000   0.47055301   -7.7661083    854.34031  0.014411949   0.01286279          203 
 4941000   0.47114799   -7.7632028    853.78846  0.014399724  0.012858831          266 
 4942000   0.46433735   -7.7683804    854.34833  0.014406251  0.012854869          215 
 4943000   0.46477841   -7.7718064    855.88195  0.014429192  0.012850911          221 
 4944000   0.46441374   -7.7680604    854.43255  0.014401843  0.012846951          193 
 4945000   0.45939773   -7.7711045    854.72986  0.014403941  0.012842993          275 
 4946000    0.4697615   -7.7679091    853.71202   0.01438388  0.012839037          263 
 4947000   0.45567905   -7.7722055     855.4734  0.014410643  0.012835085          198 
 4948000   0.46827895   -7.7675049    854.58772  0.014392814  0.012831138          247 
 4949000   0.46174405   -7.7658357    855.65886  0.014407942  0.012827193          215 
 4950000   0.44003782   -7.7655946    855.00531  0.014394029  0.012823248          229 
 4951000   0.45370836   -7.7528454    854.35038  0.014380098  0.012819303          230 
 4952000   0.45885271   -7.7607322    854.14404  0.014373722  0.012815361          200 
 4953000   0.45667281   -7.7515273    855.24732  0.014389382  0.012811421          239 
 4954000   0.46123997   -7.7613819    854.95448  0.014381552   0.01280748          276 
 4955000   0.45945909   -7.7642139    853.59038  0.014355708   0.01280354          205 
 4956000     0.466413     -7.77136    854.98481  0.014376258  0.012799603          238 
 4957000   0.45093008    -7.758552    853.78713  0.014353223  0.012795665          227 
 4958000   0.45548839   -7.7438395    854.50608  0.014362412  0.012791729          144 
 4959000   0.46580792   -7.7471095    854.45601  0.014358675  0.012787796          234 
 4960000   0.45878232   -7.7832535    855.13129  0.014367125  0.012783863          215 
 4961000   0.45695588   -7.7632529    854.33403  0.014350837  0.012779936          305 
 4962000   0.46462109   -7.7728775    856.16733  0.014378734  0.012776005          264 
 4963000   0.45186022   -7.7625861    855.35123  0.014362134  0.012772078          240 
 4964000   0.45944811   -7.7610107     854.0483  0.014337367  0.012768151          190 
 4965000   0.45788688   -7.7569923    854.31361  0.014338933  0.012764223          215 
 4966000   0.45651638   -7.7652579    853.37712   0.01432033  0.012760297          241 
 4967000   0.45420423   -7.7764388    855.31186  0.014349907  0.012756373          232 
 4968000   0.45322911   -7.7654841    854.04291  0.014325733  0.012752453          253 
 4969000    0.4648094   -7.7620235    853.69145  0.014316956  0.012748534          147 
 4970000   0.45676763   -7.7732222    853.70511  0.014314304  0.012744619          303 
 4971000   0.46637816   -7.7767893    854.23677  0.014320337  0.012740702          233 
 4972000   0.45749491   -7.7859237    855.16308  0.014332983  0.012736784          173 
 4973000   0.45440522   -7.7610894    854.55558  0.014319921  0.012732869          300 
 4974000   0.45089858   -7.7625258    853.29886  0.014295987  0.012728953          265 
 4975000   0.45035903    -7.767459    854.58683  0.014314687  0.012725038          208 
 4976000   0.45867369   -7.7589698    853.82096  0.014298984  0.012721126          177 
 4977000   0.45536375   -7.7617194    854.59418  0.014309058  0.012717215          236 
 4978000   0.44582781    -7.765872    853.60215  0.014289577  0.012713305          206 
 4979000   0.44788156    -7.763064    854.83461  0.014307334  0.012709395          275 
 4980000   0.46133202   -7.7675805    855.81685  0.014320898  0.012705493          246 
 4981000   0.46728911   -7.7814748    854.09458  0.014289209  0.012701588          184 
 4982000   0.44783084   -7.7799831    853.67202  0.014279272  0.012697686          194 
 4983000   0.45481188   -7.7882675    854.24625   0.01428601  0.012693784          260 
 4984000    0.4486129   -7.7656518    855.79068  0.014308967  0.012689883          263 
 4985000   0.45254741   -7.7600106    853.99262  0.014276038  0.012685985          273 
 4986000   0.44755418   -7.7764259    855.32883  0.014295508  0.012682088          208 
 4987000   0.44607741   -7.7768696    854.76035  0.014283142  0.012678192          194 
 4988000   0.45247746   -7.7702789     854.8521  0.014281811    0.0126743          221 
 4989000   0.44702386   -7.7536773    853.66649  0.014259145  0.012670404          261 
 4990000    0.4492822   -7.7718968    853.39274  0.014251716  0.012666517          198 
 4991000   0.46553473   -7.7589726    854.97526  0.014275283  0.012662632          229 
 4992000   0.45687626   -7.7732375    856.25905  0.014293854  0.012658751          224 
 4993000   0.46643879   -7.7650881    853.64987  0.014247444  0.012654868          235 
 4994000   0.45482462    -7.758754    854.71864  0.014262426  0.012650984          202 
 4995000   0.45252664   -7.7585362    855.17538   0.01426719  0.012647102          261 
 4996000   0.46267385   -7.7703662    854.23129  0.014248587  0.012643223          234 
 4997000   0.45429916   -7.7687472    854.52037  0.014250556  0.012639342          276 
 4998000   0.45411996   -7.7777866    854.18598   0.01424213  0.012635463          302 
 4999000   0.46255394   -7.7666058    855.06792  0.014253983  0.012631588          216 
 5000000   0.45712194   -7.7660752    854.54991  0.014242498  0.012627711          245 
 5001000   0.45152258   -7.7584619     853.8626  0.014228198  0.012623839          253 
 5002000   0.45197405     -7.76466    853.71733  0.014222933  0.012619967          182 
 5003000   0.44826519   -7.7522624    853.52427  0.014216874  0.012616097          252 
 5004000   0.45215314   -7.7795886    854.15953  0.014224612  0.012612232          296 
 5005000   0.44654252   -7.7715925    853.79257   0.01421566  0.012608364          109 
 5006000   0.46081763   -7.7677015    854.53136  0.014225119  0.012604498          236 
 5007000   0.45456442   -7.7802128    853.97085  0.014212949  0.012600632          194 
 5008000   0.45390352   -7.7806962    853.24438  0.014198023  0.012596766          242 
 5009000   0.45004628   -7.7729588    853.85099   0.01420528  0.012592901          200 
 5010000   0.45248674   -7.7709695    854.73919  0.014217219  0.012589039          236 
 5011000   0.45417091   -7.7778546    853.83823  0.014199398  0.012585179          235 
 5012000   0.45382454   -7.7700031    854.31466  0.014204487   0.01258132          173 
Loop time of 10883.8 on 48 procs for 5000000 steps with 4000 atoms

Performance: 79384.174 tau/day, 459.399 timesteps/s
99.4% CPU use with 48 MPI tasks x no OpenMP threads

MPI task timing breakdown:
Section |  min time  |  avg time  |  max time  |%varavg| %total
---------------------------------------------------------------
Pair    | 707.05     | 728.54     | 750.2      |  39.1 |  6.69
Neigh   | 68.982     | 69.914     | 72.562     |   6.9 |  0.64
Comm    | 602.24     | 638.14     | 662.87     |  53.0 |  5.86
Output  | 13.381     | 13.386     | 13.478     |   0.4 |  0.12
Modify  | 9277.5     | 9316.7     | 9348.7     |  20.6 | 85.60
Other   |            | 117.1      |            |       |  1.08

Nlocal:        83.3333 ave          91 max          75 min
Histogram: 2 2 3 5 5 14 10 2 2 3
Nghost:        1815.60 ave        1841 max        1792 min
Histogram: 3 5 5 5 8 6 5 4 5 2
Neighs:        11181.5 ave       12886 max        9836 min
Histogram: 2 1 11 6 12 6 4 2 3 1
FullNghs:      22362.4 ave       24437 max       19918 min
Histogram: 2 2 3 4 7 11 9 4 4 2

Total # of neighbors = 1073393
Ave neighs/atom = 268.34825
Neighbor list builds = 269429
Dangerous builds = 1

#clear
#
#next RN
#
#jump SELF
Total wall time: 3:01:26
