
units lj                  # Use reduced LJ style units
atom_style atomic         # Uncharged point particles
atom_modify map hash      # Needed for indexing of clusters etc
                          # Used to be able to find where atoms are in relation to each other.

lattice fcc 1.0 spacing 1 1 1
Lattice spacing in x,y,z = 1.5874011 1.5874011 1.5874011
region box block 0 10 0 10 0 10 units lattice
create_box 2 box
Created orthogonal box = (0.0000000 0.0000000 0.0000000) to (15.874011 15.874011 15.874011)
  3 by 4 by 4 MPI processor grid
create_atoms 1 box
Created 4000 atoms
  using lattice units in orthogonal box = (0.0000000 0.0000000 0.0000000) to (15.874011 15.874011 15.874011)
  create_atoms CPU = 0.003 seconds
set type 1 type/fraction 2 0.21 78393
Setting atom values ...
  872 settings made for type/fraction
mass 1 1.0
mass 2 1.0
pair_style lj/cut  3.5
pair_modify tail  yes
pair_coeff 1  1  1.0  1.0   # Intearaction between 1 and 1 set with epsilon = 1 and sigma = 1
pair_coeff 1  2  1.5  0.8
pair_coeff 2  2  0.5  0.88

write_data data.0
System init for write_data ...
Neighbor list info ...
  update every 1 steps, delay 10 steps, check yes
  max neighbors/atom: 2000, page size: 100000
  master list distance cutoff = 3.8
  ghost atom cutoff = 3.8
  binsize = 1.9, bins = 9 9 9
  1 neighbor lists, perpetual/occasional/extra = 1 0 0
  (1) pair lj/cut, perpetual
      attributes: half, newton on
      pair build: half/bin/atomonly/newton
      stencil: half/bin/3d
      bin: standard
WARNING: Not all mixed pair coeffs generated from mixing. Use write_data with 'pair ij' option to store all pair coeffs. (../write_data.cpp:312)


#############################
#   M E L T   S Y S T E M   #
#############################

velocity all create 2.4 2750902 mom yes dist gaussian # Assign velocities
                                                    # Temperature 2.4, random number seed, zero linear momentum
                                                                                # Gaussian distribution

timestep 0.002   # simulation timestep
thermo 1000       # output thermodynamic data every 1000 steps bf 100

# Define a fix  in this case with index 1 applied to all
# particles in the simulation. This fix is for simulations
# in the anisotropic NPT ensemble. Note that we use the MTK
# correction.
fix 1 all npt temp 2.4 2.4 0.1 iso 5.68 5.68 0.5 mtk yes tchain 5 pchain 5 # Use NPT ensemble
                                                                         # Set temperature and pressure and damping
                                                                         # Numbers of thermostats in chain and in barostat
run 10000          # run for 10000 steps
Per MPI rank memory allocation (min/avg/max) = 3.642 | 3.644 | 3.648 Mbytes
Step Temp E_pair E_mol TotEng Press Volume 
       0          2.4   -6.9803555            0   -3.3812555   -3.6586826         4000 
    1000    2.4415356   -4.8315535            0   -1.1701658     5.977508    4417.8225 
    2000    2.3835941   -4.8276764            0    -1.253179    5.8157867    4435.5699 
    3000     2.402503   -4.8498671            0   -1.2470135    5.5374438    4451.5021 
    4000    2.3823029   -4.8146238            0   -1.2420628    6.0468862    4415.4506 
    5000    2.4349095    -4.870973            0   -1.2195218    5.7200062    4429.1364 
    6000    2.4116683    -4.822202            0   -1.2056039    6.0127695    4421.4119 
    7000     2.504724   -4.8200043            0   -1.0638576     6.013508     4436.576 
    8000     2.384547   -4.8646876            0   -1.2887613    5.7677142    4415.7753 
    9000    2.4128125   -4.9057543            0   -1.2874404    5.4708473    4431.2734 
   10000    2.4038913   -4.8826255            0     -1.27769    5.8177303    4406.0343 
Loop time of 2.35233 on 48 procs for 10000 steps with 4000 atoms

Performance: 734589.956 tau/day, 4251.099 timesteps/s
99.6% CPU use with 48 MPI tasks x no OpenMP threads

MPI task timing breakdown:
Section |  min time  |  avg time  |  max time  |%varavg| %total
---------------------------------------------------------------
Pair    | 0.97918    | 1.0404     | 1.1995     |   3.8 | 44.23
Neigh   | 0.19654    | 0.20605    | 0.27354    |   2.4 |  8.76
Comm    | 0.68362    | 0.82532    | 0.92211    |   5.3 | 35.09
Output  | 0.00023522 | 0.00024118 | 0.00030796 |   0.0 |  0.01
Modify  | 0.19897    | 0.26579    | 0.34889    |   7.6 | 11.30
Other   |            | 0.01452    |            |       |  0.62

Nlocal:        83.3333 ave          91 max          71 min
Histogram: 1 2 1 2 6 7 9 7 8 5
Nghost:        1536.33 ave        1570 max        1502 min
Histogram: 2 2 3 4 13 10 7 3 3 1
Neighs:        8649.31 ave        9546 max        7331 min
Histogram: 3 1 0 5 8 5 10 5 7 4

Total # of neighbors = 415167
Ave neighs/atom = 103.79175
Neighbor list builds = 907
Dangerous builds = 223

# Equilibrate just above the melting temperature to avoid step fn in T

fix 1 all npt temp 1.25 1.25 0.1 iso 5.68 5.68 0.5 mtk yes tchain 5 pchain 5
run 2000
Per MPI rank memory allocation (min/avg/max) = 3.643 | 3.645 | 3.649 Mbytes
Step Temp E_pair E_mol TotEng Press Volume 
   10000    2.4038913   -4.8826255            0     -1.27769    5.8177303    4406.0343 
   11000    1.2664268   -6.5885332            0    -4.689368    5.7185728    3612.7328 
   12000    1.2356043   -6.6179781            0   -4.7650349    5.5811231    3610.1212 
Loop time of 0.507596 on 48 procs for 2000 steps with 4000 atoms

Performance: 680856.937 tau/day, 3940.144 timesteps/s
99.6% CPU use with 48 MPI tasks x no OpenMP threads

MPI task timing breakdown:
Section |  min time  |  avg time  |  max time  |%varavg| %total
---------------------------------------------------------------
Pair    | 0.22584    | 0.24548    | 0.29498    |   2.3 | 48.36
Neigh   | 0.032313   | 0.034206   | 0.039351   |   0.7 |  6.74
Comm    | 0.12995    | 0.17288    | 0.19913    |   3.4 | 34.06
Output  | 4.6742e-05 | 4.8763e-05 | 6.0224e-05 |   0.0 |  0.01
Modify  | 0.036886   | 0.050605   | 0.070051   |   4.1 |  9.97
Other   |            | 0.004377   |            |       |  0.86

Nlocal:        83.3333 ave          91 max          75 min
Histogram: 1 2 3 11 4 9 9 2 4 3
Nghost:        1764.46 ave        1785 max        1736 min
Histogram: 3 4 0 2 5 11 7 6 5 5
Neighs:        10582.2 ave       11969 max        9258 min
Histogram: 1 3 4 7 13 5 9 2 3 1

Total # of neighbors = 507948
Ave neighs/atom = 126.98700
Neighbor list builds = 141
Dangerous builds = 4

#############################
# L I N E A R  Q U E N C H  #
#############################

# Define solid atoms. This closely follows ten Wolde  Ruiz-Montero and Frenkel  Faraday Discuss  1996  104  93-110
# Compute components of the per-atom q6 vector
compute q6 all orientorder/atom degrees 1 6 components 6 nnn NULL cutoff 1.3 # compute the Q6 parameter.
                                                                             # Use all neighbours within 1.3 unit cell.

# get number of connections
compute coord_number all coord/atom orientorder q6 0.5

# An atom is solid if it has 8 or more connections (of a possible 14)
variable is_solid atom c_coord_number>=8
group solid dynamic all var is_solid    # Must be dynamic to update
dynamic group solid defined

# do clustering
compute cluster solid cluster/atom 1.3 # Create a cluster where all atoms within are solid and max 1.3 units from another member

# define chunks one chunk per cluster
compute clus_chunks solid chunk/atom c_cluster nchunk every compress yes  # Says which atoms are in which chunk

# count the size of each chunk
compute size_chunks solid property/chunk clus_chunks count


# Find the maximum entry in the vector of chunk sizes
variable max_n equal max(c_size_chunks)


# Thermo style which includes this variable
# thermo_style custom step temp pe vol v_max_n

thermo ${N}  # Print the thermo information every 100 steps
thermo 1000  

# Reset the npt fix at a lower temperature (below freezing)
fix 1  all npt temp  ${temp} ${temp}  0.1  iso  5.68  5.68  0.5  mtk yes tchain  5  pchain  5
fix 1  all npt temp  0.45 ${temp}  0.1  iso  5.68  5.68  0.5  mtk yes tchain  5  pchain  5
fix 1  all npt temp  0.45 0.45  0.1  iso  5.68  5.68  0.5  mtk yes tchain  5  pchain  5

dump dmp2 all dcd ${N} traj.dcd
dump dmp2 all dcd 1000 traj.dcd


compute msd all msd com yes
variable twopoint equal c_msd[4]/6/(step*dt+1.0e-6)
fix 9 all vector 10 c_msd[4]
variable fit equal slope(f_9)/6/(10*dt)
thermo_style custom step temp pe c_msd[4] v_twopoint v_fit v_max_n

fix 1 all npt temp 1.25 ${temp} 0.1 iso 5.68 5.68 0.5 mtk yes tchain 5 pchain 5
fix 1 all npt temp 1.25 0.45 0.1 iso 5.68 5.68 0.5 mtk yes tchain 5 pchain 5
run 500000 # 5000000  # Run for this many steps
Neighbor list info ...
  update every 1 steps, delay 10 steps, check yes
  max neighbors/atom: 2000, page size: 100000
  master list distance cutoff = 3.8
  ghost atom cutoff = 3.8
  binsize = 1.9, bins = 9 9 9
  4 neighbor lists, perpetual/occasional/extra = 1 3 0
  (1) pair lj/cut, perpetual
      attributes: half, newton on
      pair build: half/bin/atomonly/newton
      stencil: half/bin/3d
      bin: standard
  (2) compute orientorder/atom, occasional
      attributes: full, newton on
      pair build: full/bin/atomonly
      stencil: full/bin/3d
      bin: standard
  (3) compute coord/atom, occasional
      attributes: full, newton on
      pair build: full/bin/atomonly
      stencil: full/bin/3d
      bin: standard
  (4) compute cluster/atom, occasional
      attributes: full, newton on
      pair build: full/bin/atomonly
      stencil: full/bin/3d
      bin: standard
Per MPI rank memory allocation (min/avg/max) = 9.778 | 9.784 | 9.789 Mbytes
Step Temp PotEng c_msd[4] v_twopoint v_fit v_max_n 
   12000    1.2356043   -6.6179781 3.1584018e-30 2.1933345e-32 8.3333333e+20            2 
   13000     1.252767   -6.6018428   0.52265513 0.0033503533   0.04352808            2 
   14000    1.2423719   -6.6431735    1.0287623  0.006123585  0.042273139            1 
   15000    1.2526449   -6.6238146    1.5295003 0.0084972234  0.041949252            2 
   16000    1.2334897   -6.6133251    1.9876716  0.010352456   0.04124018            1 
   17000    1.2675452    -6.593169     2.509385  0.012300906  0.041054676            3 
   18000    1.2274089   -6.6388796    3.0185767  0.013974892  0.041237267            2 
   19000    1.2317659   -6.6212264    3.5407999  0.015529824  0.041473415            2 
   20000    1.2260737   -6.6275737    4.1305767  0.017210736   0.04195625            1 
   21000    1.2340962   -6.6031127    4.6947999  0.018630158  0.042778174            1 
   22000    1.2441033   -6.6713994    5.2277493   0.01980208  0.043229671            1 
   23000    1.2387691    -6.649101    5.6633534  0.020519396  0.043398897            1 
   24000    1.2157397   -6.6704647    6.1567381  0.021377562   0.04335344            2 
   25000    1.2368881   -6.6439798    6.7193335  0.022397778  0.043239878            1 
   26000    1.1877357   -6.6281808    7.1272827  0.022843854  0.043138678            2 
   27000    1.2342855   -6.6265492    7.5671675  0.023355455  0.042945081            1 
   28000    1.2136364   -6.6699008    8.0294393   0.02389714  0.042661881            2 
   29000    1.2076155   -6.6527779    8.5162044  0.024471851  0.042379612            4 
   30000    1.2065826   -6.6739882    8.9731089  0.024925302  0.042094128            5 
   31000    1.2132607   -6.6578543    9.3296702  0.025079758  0.041769211            2 
   32000     1.205543   -6.6672011     9.723112  0.025320604  0.041455455            1 
   33000    1.1997113   -6.6481317    10.257045  0.025901627  0.041160439            1 
   34000    1.2278499   -6.6939907    10.703293   0.02623356  0.040921424            2 
   35000    1.2140921   -6.6772839    11.110661  0.026453956  0.040675959            1 
   36000    1.2016978   -6.6520699    11.523855   0.02667559  0.040434095            1 
   37000    1.2121859   -6.6398118    11.945278  0.026903779  0.040195045            3 
   38000      1.20151   -6.6680766    12.449213  0.027300905  0.039997157            4 
   39000    1.1794407   -6.6920399    12.854984  0.027467913  0.039823924            2 
   40000    1.1949774   -6.6814404    13.369787  0.027853723  0.039655502            2 
   41000    1.2026778   -6.6940257     13.72068  0.027887561   0.03948825            1 
   42000     1.205317   -6.6987005    14.225899   0.02822599  0.039314897            3 
   43000    1.1915199   -6.6905189    14.607831  0.028309749   0.03916331            2 
   44000    1.1986137   -6.7103776    15.129052  0.028653507  0.039072826            1 
   45000    1.1677251   -6.7336443    15.485602   0.02867704  0.038957818            1 
   46000    1.1865498   -6.7200806    15.895494  0.028796185  0.038822412            1 
   47000    1.2095017   -6.6937944    16.401413   0.02908052  0.038715309            1 
   48000    1.1987211    -6.691431    16.928816  0.029390305  0.038636069            1 
   49000    1.1972803     -6.74619    17.254312  0.029344067  0.038561763            2 
   50000    1.2034717   -6.6793941    17.746625  0.029577708  0.038481796            2 
   51000    1.1968075   -6.7203737    18.079586  0.029541807  0.038395917            2 
   52000    1.1823203   -6.7626407     18.55041  0.029728221  0.038300287            2 
   53000    1.1530973    -6.684719    18.904647  0.029724287  0.038205156            3 
   54000     1.198257   -6.7317204    19.380717  0.029908514  0.038105842            2 
   55000    1.1780504   -6.7128212    19.880184  0.030121491  0.038030667            2 
   56000    1.1697543   -6.7283526    20.294258  0.030199789  0.037974962            3 
   57000    1.1757947   -6.7553855    20.842324  0.030471233  0.037921246            1 
   58000    1.1584412   -6.7418337    21.331673  0.030648956  0.037896969            1 
   59000    1.1690369   -6.7566817    21.787872   0.03077383  0.037880751            2 
   60000     1.183073   -6.7814751    22.148571  0.030761904  0.037870129            2 
   61000    1.1810695   -6.7774713    22.677575  0.030980294   0.03785514            3 
   62000    1.1342039   -6.7019626    23.027157   0.03095048  0.037816143            2 
   63000    1.1759387   -6.7549862    23.319751  0.030846231  0.037769382            1 
   64000    1.1685403   -6.7551092    23.738163  0.030909066  0.037700666            1 
   65000    1.1672336   -6.8285112       24.202  0.031028205  0.037649662            3 
   66000     1.184206   -6.7584582    24.795277  0.031307167  0.037606995            1 
   67000    1.1372892   -6.7924936    25.212679  0.031359053  0.037581314            2 
   68000    1.1508892   -6.7443398    25.624019  0.031401983  0.037551802            1 
   69000    1.1616374   -6.7541265     25.91234  0.031295097  0.037508161            2 
   70000    1.1708681    -6.770407    26.141107  0.031120366    0.0374488            1 
   71000    1.1455174   -6.8397175    26.587126  0.031205547  0.037370118            2 
   72000    1.1454212   -6.7875319    26.925715  0.031164022  0.037301123            2 
   73000    1.1478327    -6.773357     27.23109  0.031085719   0.03721175            1 
   74000    1.1383868   -6.7772088    27.552645  0.031027754   0.03712417            2 
   75000    1.1446648   -6.8236519    28.013463   0.03112607  0.037037939            3 
   76000    1.1339285   -6.7824437    28.538614  0.031292339  0.036965925            3 
   77000    1.1539537   -6.7759992     28.89602  0.031272748  0.036901633            1 
   78000    1.1389644   -6.7765709    29.528281  0.031547309  0.036838663            2 
   79000    1.1772647   -6.7895226    29.819035  0.031454678  0.036781613            1 
   80000    1.1451277   -6.8094851    30.161358  0.031418081   0.03671651            3 
   81000     1.154281   -6.8367366    30.418562  0.031294816  0.036645866            4 
   82000    1.1311808   -6.7976253     30.70538  0.031204654  0.036568149            2 
   83000    1.1326429   -6.8101469    30.960335  0.031084674  0.036482717            1 
   84000    1.1325782    -6.810241    31.386232  0.031137135  0.036392885            1 
   85000    1.1155623   -6.8471523      31.8198  0.031195882  0.036308381            5 
   86000    1.1340475   -6.8042971    32.214996  0.031216081  0.036227155            2 
   87000    1.1233879   -6.8403604    32.439887  0.031072689  0.036147618            4 
   88000    1.1159403   -6.8592064    32.760155  0.031022874  0.036057658            2 
   89000    1.1404332   -6.8962282    33.351094  0.031227616  0.035973121            3 
   90000    1.1352238   -6.8276122    33.762248  0.031261341  0.035902885            4 
   91000    1.1202682   -6.7935314    34.347954   0.03145417  0.035837723            2 
   92000    1.1297374   -6.8449507    34.560527  0.031304825  0.035776325            2 
   93000    1.1155194   -6.8381578    35.049515  0.031406375  0.035720598            2 
   94000    1.1171976   -6.8444053    35.581884  0.031544224  0.035674762            2 
   95000    1.1236227    -6.845296    35.899345  0.031490654  0.035624565            3 
   96000    1.0838172   -6.8395842    36.146947  0.031377558  0.035570291            3 
   97000     1.134229   -6.8577165    36.367855  0.031243861  0.035507009            1 
   98000    1.0894551   -6.8593284     36.58257  0.031107627  0.035432711            2 
   99000    1.1177529   -6.8463981    36.959531  0.031110716  0.035357254            3 
  100000    1.0955199   -6.8531472     37.34111  0.031117591  0.035282456            3 
  101000    1.0982871    -6.880548    37.609571  0.031030999  0.035206568            3 
  102000    1.0859854   -6.8962048    38.119646  0.031143502  0.035134858            3 
  103000    1.1037156   -6.8614024    38.428654  0.031091143  0.035061276            2 
  104000    1.1236676   -6.8889721     38.50591  0.030854094  0.034985852            3 
  105000    1.1063178   -6.8939626    39.109593   0.03103936  0.034910263            4 
  106000    1.1189533   -6.8963981    39.287125  0.030886104  0.034834141            2 
  107000    1.0911974   -6.8676307    39.498095  0.030761756  0.034755534            2 
  108000    1.0936124   -6.9122245    39.696355  0.030629903  0.034667086            3 
  109000    1.1144113   -6.9159306    40.032286  0.030605723  0.034580198            2 
  110000    1.0940877   -6.9215114    40.277149  0.030512992  0.034490484            3 
  111000    1.0848123   -6.8614419     40.82565  0.030649887  0.034399479            2 
  112000    1.0723769   -6.9080636    41.018472  0.030519696  0.034314606            2 
  113000    1.0914429    -6.900342    41.475053  0.030586322  0.034233805            4 
  114000    1.0790637   -6.8902267    41.908783  0.030635075  0.034154324            2 
  115000    1.0668465   -6.9196672    42.164381  0.030553899  0.034075917            2 
  116000    1.0829097   -6.8800983     42.74232   0.03070569  0.034004085            1 
  117000    1.1028603   -6.9016184    43.083358  0.030686153  0.033938613            2 
  118000    1.0834363   -6.9156411    43.419194  0.030663272   0.03386808            7 
  119000    1.0793444     -6.93761    43.523609  0.030478718  0.033798277            4 
  120000     1.079001   -6.9425752     44.00882   0.03056168  0.033727438            1 
  121000    1.0652423   -6.9606824    43.955629  0.030272472  0.033652332            4 
  122000    1.0766416   -6.9535929    44.087296  0.030114273  0.033573095            2 
  123000    1.0469477   -6.9501466    44.473398  0.030131029  0.033489462            1 
  124000    1.0622773   -6.9586714    44.885729   0.03016514  0.033403115            3 
  125000    1.0849905   -6.9657356    45.151665   0.03010111  0.033321022            2 
  126000    1.0818409   -6.9722887    45.531504  0.030113429   0.03324128            5 
  127000    1.0765858   -6.9543761    45.914166  0.030127406  0.033167485            3 
  128000     1.076309   -7.0015982    46.196492  0.030075841  0.033095893            1 
  129000    1.0609372   -6.9501204    46.679605  0.030154784  0.033026384            2 
  130000    1.0598864    -6.978537    46.925512  0.030080456  0.032954413            2 
  131000    1.0636106   -6.9642135    47.154902  0.029996757  0.032882871            2 
  132000    1.0608006   -7.0023082    47.277444  0.029846871  0.032808311            3 
  133000    1.0538676   -6.9688634    47.807525  0.029954589  0.032739114            2 
  134000    1.0549659   -6.9501839    48.376685  0.030085003  0.032674712            1 
  135000    1.0641119   -7.0340477    48.484267   0.02992856  0.032611341            4 
  136000    1.0627798   -7.0186531    48.756475  0.029875291  0.032550483            5 
  137000    1.0481595   -7.0215441     49.05999  0.029841843  0.032487812            3 
  138000    1.0512926    -7.044159    49.131619  0.029668852  0.032419282            2 
  139000    1.0542799   -6.9956616    49.509416  0.029681904  0.032346772            2 
  140000    1.0512635   -7.0256741    49.681449  0.029572291  0.032274267            4 
  141000      1.05059   -7.0092731    49.877021  0.029478145  0.032199816            1 
  142000     1.038239   -7.0396309    50.274415  0.029503764  0.032124903            2 
  143000    1.0524752   -7.0108171    50.534848  0.029449212  0.032052517            2 
  144000    1.0660438   -7.0071175    50.804814  0.029400934  0.031981965            2 
  145000    1.0603079   -7.0135448    51.062405   0.02934621  0.031910216            5 
  146000    1.0243563   -7.0125773    51.251318  0.029253035  0.031836932            4 
  147000     1.030951   -7.0428211     51.52909  0.029211502  0.031763862            2 
  148000    1.0264019   -7.0564159    51.660614  0.029088184  0.031689017            3 
  149000    1.0388404   -7.0734353    51.729652  0.028931573  0.031610871            3 
  150000    1.0432872   -7.0512415    52.215679  0.029008711  0.031529754            3 
  151000    1.0096054   -7.0491794    52.227125  0.028822917    0.0314489            1 
  152000    1.0330073   -7.0592712    52.403513  0.028729996  0.031367404            1 
  153000    1.0229737   -7.0230035    52.692408  0.028699569  0.031284888            2 
  154000    1.0292265    -7.047739    53.029652  0.028695699  0.031202619            4 
  155000    1.0258897   -7.0371695    53.146481  0.028573377   0.03112116            3 
  156000   0.98037352   -7.0838195    53.239178  0.028439732   0.03103769            2 
  157000    1.0353403   -7.0255189    53.622525  0.028462062  0.030951314            3 
  158000    1.0230285   -7.0543483    53.910445  0.028433779  0.030867128            3 
  159000    1.0366059   -7.0360973    54.313695  0.028466297  0.030786112            5 
  160000     1.033983   -7.0895373    54.306379  0.028284572  0.030705398            2 
  161000    1.0049561   -7.0518632    54.490196  0.028204035  0.030623301            3 
  162000    1.0099805   -7.0390585     54.64849  0.028111363  0.030540512            2 
  163000    1.0033218   -7.0772697    54.724317  0.027977667  0.030453416            2 
  164000    1.0209678   -7.0877064    55.024791  0.027959752  0.030367666            4 
  165000    1.0183873   -7.0687475    55.473969  0.028017156  0.030285418            2 
  166000    1.0156893   -7.0823844    55.588455  0.027905851  0.030204606            1 
  167000   0.99609023   -7.0946741    55.973763  0.027931019  0.030123243            3 
  168000   0.99440029   -7.0799423    56.086789  0.027820828    0.0300442            3 
  169000     1.003535   -7.0690703    56.308324  0.027765446  0.029964903            3 
  170000   0.94539496   -7.1033587    56.457337  0.027675165  0.029884185            3 
  171000    1.0051345   -7.0954729     56.88742  0.027722914  0.029803932            3 
  172000   0.98824116   -7.1224778    56.984608  0.027608822  0.029724515            4 
  173000    1.0075535   -7.0952181    57.290338  0.027596502  0.029647449            3 
  174000   0.98996306   -7.1219683    57.617213  0.027594451  0.029571678            1 
  175000   0.99043783    -7.167162    57.698604  0.027475525  0.029494845            3 
  176000   0.99319854   -7.1266776    57.880849  0.027405705  0.029417044            8 
  177000   0.97700662    -7.105432    58.113072  0.027360203  0.029337021            2 
  178000   0.97949462   -7.1066335    58.233952  0.027263086   0.02925858            2 
  179000   0.99130135   -7.1439749    58.435574  0.027204643  0.029180811            2 
  180000    0.9782188   -7.1427808    58.637564   0.02714702  0.029102165            2 
  181000   0.96901613   -7.1330482    58.733435  0.027041176   0.02902306            2 
  182000   0.97956697   -7.1917754    58.705794  0.026879942  0.028941406            3 
  183000   0.96419581   -7.1521775    58.997008  0.026865669  0.028860283            7 
  184000   0.97355924   -7.1508117    59.273129  0.026844714   0.02878001            3 
  185000   0.98917097   -7.1438885    59.705906  0.026894552  0.028701523            1 
  186000   0.96534586   -7.1547159    59.815198  0.026798924  0.028624029            2 
  187000   0.97229309    -7.173595     59.80038  0.026649011  0.028546018            3 
  188000   0.97179226   -7.1339641    60.241973  0.026703002  0.028466795            2 
  189000   0.98617341   -7.1496422    60.556072  0.026700208  0.028390177            3 
  190000   0.97433825   -7.1518577    60.565538  0.026563832   0.02831428            5 
  191000   0.97500351   -7.2038217    60.837996  0.026543628  0.028239774            2 
  192000   0.96347975    -7.158522     60.86833  0.026418546  0.028165238            2 
  193000   0.97941277   -7.1805012    60.920099  0.026304015  0.028089229            2 
  194000   0.97523591   -7.1784654    61.202564  0.026289761  0.028012562            5 
  195000   0.96755674   -7.1639543    61.536648  0.026297713  0.027938291            3 
  196000   0.94504142    -7.189791    61.921039  0.026326972   0.02786382            3 
  197000   0.95877122   -7.1696508    62.080117  0.026260625    0.0277903            3 
  198000   0.95405828   -7.2211447    62.143464  0.026154657  0.027715258            7 
  199000   0.94277247   -7.1996394    62.439854  0.026147343  0.027641292            3 
  200000   0.94394731   -7.2576265     62.38163  0.025992346  0.027567367            4 
  201000   0.94091959   -7.2285653    62.722981  0.026004553  0.027493986            5 
  202000   0.94325694   -7.1951746    63.014219  0.025995965  0.027422568            4 
  203000   0.95098952   -7.2152561    63.210153  0.025948339  0.027350789            2 
  204000   0.94355999   -7.2453668     63.32633  0.025868599  0.027280252            3 
  205000   0.90694538   -7.2178216    63.491908  0.025809719  0.027209842            6 
  206000   0.94739599   -7.2320642    63.721353  0.025777246  0.027140036            2 
  207000   0.94777629   -7.2372618    64.064582  0.025790894  0.027071173            2 
  208000   0.90358823   -7.2430884    64.202101  0.025721996  0.027001582            3 
  209000   0.92854356   -7.2309891    64.157623  0.025581189  0.026932669            2 
  210000   0.92057824   -7.2415028     64.42713  0.025566321    0.0268638            2 
  211000    0.9499426    -7.246935    64.705774  0.025555203  0.026795115            3 
  212000   0.90463117   -7.2463757     64.79157  0.025468384  0.026726744            3 
  213000   0.92151985   -7.2673569    64.797745   0.02535123  0.026656769            4 
  214000   0.91166413   -7.2390141     65.25052  0.025409081  0.026587961            2 
  215000   0.93574922   -7.2763034    65.216864  0.025277854  0.026520393            6 
  216000   0.92625353   -7.2588478    65.500021   0.02527007  0.026453469            3 
  217000   0.91956725   -7.2774537    65.640984  0.025207751  0.026386866            3 
  218000   0.92188646   -7.2604568    65.933609  0.025203979  0.026320434            3 
  219000     0.919125   -7.3034642    65.999789  0.025114075  0.026253695            2 
  220000    0.9339108   -7.2620821    66.107698  0.025040795  0.026186528            3 
  221000   0.91867391   -7.2904833    66.214018  0.024967578  0.026119448            3 
  222000   0.91584232   -7.2953925    66.417956  0.024931665  0.026052607            2 
  223000   0.90033398   -7.3180441     66.47054  0.024839514   0.02598514            6 
  224000    0.8978409   -7.3142838    66.651012  0.024795763  0.025918468            3 
  225000   0.91039805   -7.2899454    66.802211   0.02474156  0.025851225            1 
  226000   0.90433327    -7.297076    67.121112  0.024749672  0.025784871            2 
  227000   0.91282227   -7.2887776    67.290634  0.024702876  0.025720092            5 
  228000   0.92008676   -7.3061641    67.616592  0.024713667  0.025655548            4 
  229000   0.89907923   -7.3274759     67.43419   0.02453937  0.025590955            3 
  230000   0.91600514   -7.3430888    67.528591  0.024466881  0.025524456            1 
  231000    0.9032118   -7.3146286    67.784925  0.024453436   0.02545846            2 
  232000   0.89242752   -7.2933609    67.973167  0.024415649  0.025393388            3 
  233000   0.90788252   -7.3223854    68.133391  0.024368165  0.025326934            3 
  234000   0.93439513   -7.3202447     68.22036     0.024295  0.025260745            2 
  235000   0.88581383   -7.3231875    68.261497  0.024206205  0.025195303            3 
  236000   0.91220152   -7.3493961     68.22451  0.024090575  0.025129017            3 
  237000   0.88782445   -7.3692514    68.334997  0.024027777  0.025061953            4 
  238000    0.8940171    -7.308343    68.355113  0.023933863  0.024993957            1 
  239000   0.88858158   -7.3316182    68.481928  0.023877939  0.024926335            3 
  240000   0.89334193   -7.3400599    68.769486  0.023878294   0.02485829            2 
  241000   0.87208276   -7.3269155    68.766955  0.023778338  0.024791162            5 
  242000   0.89057267   -7.3626535    69.261097   0.02385024  0.024723999            4 
  243000   0.88529966   -7.3524377    69.067284  0.023685625  0.024657016            3 
  244000   0.89108448   -7.3498447     68.94248  0.023545929  0.024588824            4 
  245000   0.88765052   -7.3758124    69.266599  0.023560068  0.024521023            2 
  246000   0.88353819   -7.3482517    69.568311  0.023566501  0.024453601            4 
  247000   0.87421581   -7.3818727    69.717205  0.023521324  0.024387066            3 
  248000    0.8583672   -7.3537887    69.773968  0.023445554  0.024320954            6 
  249000   0.89678994   -7.4048451    70.097234  0.023459583  0.024255621            5 
  250000   0.85166056   -7.3881412    70.092596  0.023364199  0.024190949            2 
  251000   0.88877746   -7.3866283     70.32267    0.0233475  0.024126118            3 
  252000   0.87101797   -7.4009125    70.232669  0.023225089  0.024061528            5 
  253000   0.87435349   -7.4007123    70.604626  0.023255806  0.023996901            5 
  254000   0.86390535   -7.3714508    71.013667  0.023298447  0.023934373            2 
  255000   0.87043106   -7.3797549    71.128866  0.023244727  0.023872562            3 
  256000   0.86495528    -7.393457    71.014876  0.023116821  0.023810544            6 
  257000    0.8669617   -7.3896409    71.249245  0.023102868  0.023749349            4 
  258000   0.85216588   -7.4119242    71.258326  0.023016255  0.023688185            2 
  259000   0.85761384   -7.4026089    71.543914  0.023019277  0.023627475            2 
  260000   0.83711798   -7.3921105    71.573684  0.022940283  0.023567088            2 
  261000   0.86714762   -7.4415396    71.744299  0.022906864  0.023506832            2 
  262000   0.84539388   -7.4028251    72.062493   0.02292064  0.023446668            2 
  263000   0.85051204   -7.3926784    72.176872  0.022869731  0.023387079            3 
  264000   0.86247535    -7.405432    72.446148  0.022868102   0.02332739            3 
  265000   0.84506634   -7.4226248    72.292301  0.022733428   0.02326807            3 
  266000   0.83384833    -7.420127     72.42857  0.022690655   0.02320894            2 
  267000   0.84808839   -7.3896568    72.469372  0.022618406  0.023149889            3 
  268000   0.84038892   -7.4524017    72.639033  0.022586764  0.023090643            2 
  269000   0.83029661   -7.4091198    72.868235  0.022573803  0.023031648            3 
  270000   0.84474259   -7.4357727    72.715524  0.022443063  0.022973385            4 
  271000   0.83973789   -7.4483114     72.93363  0.022427315  0.022914829            2 
  272000   0.84667467    -7.435572    73.231747  0.022436197  0.022856488            3 
  273000   0.82666813   -7.4891243    73.101301  0.022314194  0.022798146           12 
  274000   0.82740154   -7.4566376    73.352819  0.022309251  0.022739154            8 
  275000   0.83394176   -7.4876562    73.276057  0.022204866  0.022679641            4 
  276000   0.83323422    -7.464468    73.462341  0.022180659   0.02262119            4 
  277000   0.81773656   -7.4362491    73.489536  0.022108765  0.022562447            6 
  278000   0.81751196   -7.4945191    73.563553  0.022051425  0.022504121            4 
  279000   0.82421676    -7.508623    73.430603  0.021932677  0.022445313            6 
  280000   0.85403549   -7.5009174    73.722184  0.021941126  0.022386488            2 
  281000   0.81564179   -7.4565645    73.995341  0.021944051  0.022328425            4 
  282000   0.81232327   -7.4972953    74.072521  0.021889043  0.022270525            2 
  283000   0.82392198   -7.5103649    73.943905  0.021773823  0.022212141            3 
  284000    0.8084162   -7.5202724    74.214026  0.021776416   0.02215363            2 
  285000   0.81922534   -7.4874773    74.178068  0.021689494  0.022094683            1 
  286000   0.81833524   -7.4769179    74.269009  0.021640154  0.022036014            6 
  287000   0.81399712   -7.5312451    74.368313  0.021593587  0.021977408            9 
  288000   0.80253388   -7.5054013    74.618071  0.021590877  0.021919703            5 
  289000   0.79371315   -7.5106782    74.647439  0.021524636  0.021862503            1 
  290000   0.79715789   -7.4908523    74.658788  0.021453675  0.021805174            3 
  291000   0.81202564     -7.51991     74.84946  0.021434553  0.021747924            4 
  292000   0.79978875   -7.5284426    74.794353   0.02134542  0.021690986            7 
  293000   0.78839741   -7.5409042    74.995019  0.021329641    0.0216344            7 
  294000   0.79426853   -7.5243664    75.151579  0.021301468  0.021578067            3 
  295000   0.79812283   -7.5455358    75.250518  0.021257209  0.021522056            3 
  296000   0.79550159   -7.5462599    75.396115  0.021226384  0.021465912            4 
  297000   0.79862289   -7.5423759    75.442841  0.021168025  0.021410116            4 
  298000   0.79379289   -7.5436059    75.516697  0.021117644  0.021354609            2 
  299000   0.79705057     -7.53558    75.625884  0.021077448  0.021299106            6 
  300000   0.79252457   -7.5539231    75.547945   0.02098554  0.021242594            4 
  301000   0.76881558   -7.5432316    75.728495  0.020965807  0.021186608            4 
  302000    0.7849196   -7.5702303    75.659112  0.020877238  0.021130599            2 
  303000   0.78855658   -7.5809877    75.904748  0.020875893  0.021074801            3 
  304000   0.78864221   -7.5797062    75.845595  0.020791007  0.021018883            3 
  305000   0.77559904   -7.5927603    75.881046  0.020732526  0.020962762            4 
  306000    0.7716561   -7.5721443    76.096158  0.020723355  0.020906724            3 
  307000    0.7773037   -7.5597878    76.106939  0.020658778  0.020851384            2 
  308000      0.76592   -7.5750521    76.326719  0.020651168  0.020796496            4 
  309000    0.7943306   -7.5964817    76.145996  0.020535598  0.020741444            2 
  310000   0.77748133   -7.5951461    76.279373  0.020505208  0.020685531            2 
  311000   0.78331217   -7.6044424    76.040829  0.020375356  0.020629305            3 
  312000   0.77998735   -7.6048372    76.257319  0.020367874   0.02057273            2 
  313000   0.76504201   -7.6134376    76.242914  0.020298965  0.020516421            5 
  314000   0.76187802   -7.6008577    76.363412  0.020266298  0.020460764            4 
  315000   0.76238626   -7.6375088    76.244949  0.020170621  0.020404727            2 
  316000   0.75843534   -7.6187863    76.339601  0.020131751  0.020348949            7 
  317000   0.76669804   -7.6070265    76.553304  0.020124423  0.020293213            6 
  318000     0.738742   -7.6187269    76.472022  0.020039838  0.020237265            4 
  319000   0.76374482   -7.6424371    76.409944    0.0199608  0.020181361            3 
  320000    0.7587764   -7.6275882    76.750713  0.019987165  0.020125552            3 
  321000   0.75374837   -7.6484782    76.618493  0.019890574  0.020070256            4 
  322000   0.76846515   -7.6205182    76.602392  0.019824636   0.02001468            4 
  323000   0.75406121   -7.6367756    76.811949  0.019817324   0.01995924            3 
  324000   0.74372236   -7.6400092     76.74286   0.01973839  0.019903404            4 
  325000   0.73041183   -7.6704641     76.71744  0.019671138  0.019847484            4 
  326000   0.74610591   -7.6521261    76.874859  0.019651038  0.019791483            6 
  327000   0.74049865   -7.6779578    76.721126  0.019551765  0.019735586            4 
  328000   0.74688275   -7.6858137    76.728645  0.019494066  0.019679493            9 
  329000   0.73799546   -7.6503137    76.736537  0.019436813  0.019623405            4 
  330000   0.75336357   -7.6884283    76.756049  0.019382841  0.019567373            3 
  331000   0.76730933   -7.6982596    76.683975  0.019306137  0.019510921            3 
  332000   0.75104717   -7.7132907    76.775804  0.019271035  0.019454592            5 
  333000   0.72645833   -7.6595979    76.789955  0.019216706  0.019398196            4 
  334000   0.73680161    -7.702464    76.872009  0.019179643  0.019341665            4 
  335000   0.72394754   -7.7057001    76.787539  0.019101378  0.019285636            4 
  336000    0.7282685    -7.683871     76.89917  0.019072215  0.019229551            5 
  337000   0.72748764   -7.6610111    77.134906  0.019073913  0.019173731            3 
  338000   0.71672411   -7.7168793    76.944641  0.018970572  0.019117755            2 
  339000   0.73078152   -7.7353282    76.748427  0.018866378  0.019061314            4 
  340000   0.72117514   -7.6783093    76.976883  0.018866883  0.019004838            2 
  341000   0.73106413   -7.6831415    77.123406  0.018847362  0.018949008            4 
  342000   0.73776401   -7.7369097    77.014445  0.018765703  0.018893256            6 
  343000   0.73128035    -7.712944    76.901888  0.018683646  0.018837332            5 
  344000   0.71996963   -7.7229367    77.109863  0.018679715  0.018781148            3 
  345000   0.71891631   -7.7137533    77.193078  0.018645671  0.018725966            6 
  346000   0.72298841   -7.7296868     77.10763  0.018571202  0.018670885            7 
  347000   0.71674655   -7.7319215    77.156432  0.018529403  0.018615577            7 
  348000   0.70920527   -7.7474321    77.009446  0.018440959  0.018560192            6 
  349000   0.71368035   -7.7415539    77.253078  0.018446294   0.01850458            6 
  350000   0.71130967   -7.7590808     77.10995  0.018359512  0.018449633            2 
  351000   0.68858646   -7.7438992    77.258011  0.018342358  0.018394525            4 
  352000   0.69689393   -7.7619972    77.155248   0.01826592  0.018339545            3 
  353000   0.70408508   -7.7640358    77.164923   0.01821646  0.018284671            4 
  354000   0.69196566   -7.7764366    77.255603  0.018186347  0.018229682            5 
  355000   0.70784704   -7.7500248    77.120013  0.018103289  0.018174452            5 
  356000   0.70092515   -7.7906809    77.298588  0.018094239  0.018119622            3 
  357000   0.69890798   -7.7598761    77.210459  0.018022983  0.018065017            2 
  358000   0.69274066   -7.7609309    77.217869  0.017974364  0.018009975            3 
  359000   0.69990611   -7.7752574    77.165596  0.017912162  0.017954982            3 
  360000    0.6980897   -7.7905647    77.097717  0.017846694  0.017899981            6 
  361000   0.69098629   -7.8092411    77.143907  0.017807919  0.017844969            3 
  362000   0.69604445   -7.7925168    77.371832  0.017811195  0.017789964            2 
  363000   0.69396734   -7.7787578    77.409502  0.017770776  0.017735079            5 
  364000   0.68342664   -7.7876409     77.21117   0.01767655  0.017680484            6 
  365000   0.68306094   -7.7987549    77.083067  0.017598874  0.017625821            6 
  366000   0.68484721   -7.7968879    77.212321  0.017580219  0.017571116            8 
  367000   0.68446386   -7.8148059    77.064864  0.017498834  0.017516355            4 
  368000   0.67912768   -7.8073502    77.156075  0.017471937   0.01746186            3 
  369000   0.68847137   -7.8079463    77.210656  0.017436914  0.017407585           13 
  370000   0.67487548   -7.8030944    77.124679  0.017370423  0.017353318           16 
  371000   0.67518706   -7.8312792    77.329895  0.017369698  0.017299393            7 
  372000   0.67382413   -7.8717195    77.164881   0.01728604  0.017245425            5 
  373000    0.6639432   -7.8400294    77.053511  0.017214815  0.017191285            5 
  374000   0.67750352   -7.8364347    77.060782  0.017170406  0.017137517            3 
  375000   0.67866691   -7.8408296    77.197329  0.017154962  0.017083491            7 
  376000    0.6660642   -7.8347171    77.212317  0.017112659  0.017029852            7 
  377000   0.65825383   -7.8530584     77.05068  0.017031539  0.016976217            5 
  378000   0.66734957   -7.8368145    77.179908  0.017014971  0.016922891            5 
  379000   0.65978791    -7.868298    77.168906  0.016967657  0.016869674            3 
  380000   0.66795231   -7.8959802    77.165818  0.016922328  0.016816737            3 
  381000   0.65073245    -7.874498    77.257549  0.016897977   0.01676382            3 
  382000    0.6568205   -7.8454304    77.488344  0.016904089  0.016711215            4 
  383000    0.6500631   -7.8631611    77.326991  0.016824846  0.016658866            3 
  384000   0.64757061   -7.8689459    77.193932  0.016752155  0.016606597            5 
  385000   0.66283421   -7.8536656    77.336219  0.016739441  0.016554438            4 
  386000   0.64740536   -7.8978933    77.307104  0.016689789  0.016502402           12 
  387000   0.65685454   -7.8874708    77.190253  0.016621501  0.016450396            6 
  388000   0.64417817   -7.8836039    77.319498  0.016606421   0.01639834            3 
  389000   0.64846124   -7.8872336    77.267473  0.016552586  0.016346517            2 
  390000   0.62384637   -7.9241485    77.271738  0.016511055   0.01629493            3 
  391000    0.6485125   -7.9145825    77.274379   0.01646939  0.016243322            4 
  392000   0.63395491   -7.9106692    77.006653  0.016370462  0.016191864            7 
  393000   0.65805441   -7.9268496    77.197507  0.016369276  0.016140287            4 
  394000   0.63341719   -7.9210301    77.111843  0.016309611  0.016088788            4 
  395000   0.64040537   -7.9491986    77.098687  0.016265546  0.016037485            3 
  396000   0.62352828   -7.9232045     77.17512  0.016240556  0.015986405            4 
  397000   0.62822271   -7.9221728    77.056107  0.016174666  0.015935494            3 
  398000   0.62412468   -7.9210956    77.003387  0.016122987  0.015884609            5 
  399000   0.62222252   -7.9213744    77.065495   0.01609555  0.015834081            5 
  400000   0.62641215   -7.9462153    77.050662  0.016052221  0.015783677            3 
  401000   0.63110295   -7.9269962    77.119505  0.016026497   0.01573338            3 
  402000   0.63219159   -7.9258013    77.062195   0.01597475  0.015683355            4 
  403000   0.63618871   -7.9467406    77.162536  0.015955859  0.015633391            5 
  404000   0.61619929   -7.9344082    77.064826   0.01589621  0.015583632            4 
  405000   0.62010551   -7.9507602    77.174847  0.015879598   0.01553401            4 
  406000   0.61927715   -7.9357107     77.20958  0.015847615    0.0154845            5 
  407000   0.60895811   -7.9781054    77.190801  0.015804832   0.01543511            4 
  408000   0.61964908   -7.9573829    77.107669  0.015749115  0.015385835            4 
  409000   0.61492018   -7.9415081    77.214119  0.015732298  0.015336712            3 
  410000   0.60467467    -7.975079    77.031679  0.015656845  0.015287956            3 
  411000   0.60541416   -7.9470887     77.19246   0.01565135  0.015239342            7 
  412000   0.60729161   -7.9390122     77.26297  0.015627623  0.015190902            5 
  413000   0.60672357   -7.9776236    77.256052  0.015588388   0.01514267            2 
  414000   0.60191554   -7.9673956    77.128381  0.015525036  0.015094539            4 
  415000   0.60889826   -7.9791952    77.035299  0.015468935  0.015046446            3 
  416000   0.60899256    -7.977359    77.015991  0.015427883  0.014998384            4 
  417000   0.58876121     -7.99178    77.126855  0.015413041  0.014950466            7 
  418000   0.60113108   -7.9851582     77.07972   0.01536677  0.014902635            8 
  419000   0.60401452   -8.0006026    77.082317  0.015330612  0.014855011            6 
  420000   0.58819079   -8.0024509    77.061812  0.015290042  0.014807549            4 
  421000    0.5912143    -7.997084    77.219007  0.015284839  0.014760213            6 
  422000   0.58540863   -8.0163939     77.14867  0.015234729  0.014713095            9 
  423000   0.60222963   -8.0101369    77.165135  0.015201957  0.014666013            7 
  424000   0.58722362   -8.0222062    76.969244  0.015127603  0.014619079           10 
  425000   0.57868793   -8.0241255    77.064952  0.015110775  0.014572224            5 
  426000   0.58685481   -8.0178905    76.997887  0.015062185   0.01452557            6 
  427000    0.5903477   -8.0121562    77.174576  0.015061393  0.014479131            5 
  428000   0.59058461   -8.0276888    77.018383  0.014995791  0.014432871            7 
  429000   0.58583323    -8.039343    77.007666  0.014958754  0.014386674            5 
  430000   0.57868773   -8.0427739    76.958125  0.014914365  0.014340558            6 
  431000   0.57510607   -8.0443645    77.022555  0.014892219  0.014294587           10 
  432000   0.57183531    -8.033415    77.029789  0.014859141  0.014248897            4 
  433000   0.57116673   -8.0523708    77.034455  0.014825723  0.014203389            7 
  434000   0.56875021   -8.0287766     77.01913  0.014788619  0.014158038           10 
  435000   0.57617987   -8.0346266     77.06695  0.014763784  0.014112737            8 
  436000    0.5686572   -8.0399481    76.993658  0.014715913  0.014067726            7 
  437000   0.56321203   -8.0449914    76.908011  0.014665906  0.014022745           11 
  438000   0.57080469   -8.0561148    76.994185  0.014648817  0.013977999            8 
  439000   0.56081041   -8.0492147    76.926745  0.014602647  0.013933456            4 
  440000   0.55127518   -8.0669051    76.998251  0.014583002  0.013888978            9 
  441000   0.56504281   -8.0270026    76.803345  0.014513104   0.01384467            6 
  442000   0.55911416   -8.0679527    77.053348  0.014527403  0.013800563            5 
  443000    0.5577081   -8.0860872    76.950515  0.014475266  0.013756627           13 
  444000   0.54186586   -8.0542054    76.967518  0.014445856  0.013712787            8 
  445000   0.55574794   -8.0663029    76.979986  0.014415728  0.013669124           11 
  446000   0.54672572     -8.08354    76.948118  0.014377451  0.013625588            8 
  447000   0.55828918   -8.1003621    76.843929  0.014325863  0.013582198            5 
  448000   0.55761334   -8.0878994    76.985723  0.014320261  0.013538999            7 
  449000   0.55084677   -8.1114217    76.918631  0.014275915  0.013495802            4 
  450000    0.5467458   -8.0788516     76.85205  0.014231861  0.013452783            7 
  451000   0.53786003    -8.095159    76.992393  0.014226237   0.01340991            9 
  452000   0.54824055   -8.0937993    76.854009   0.01416925   0.01336719           10 
  453000   0.55562776   -8.1063833    76.857969  0.014138699  0.013324617            4 
  454000   0.55264221   -8.0843278     76.90459  0.014116114  0.013282242            9 
  455000   0.55179444    -8.090016    76.879023  0.014080407  0.013240074            5 
  456000   0.53397496   -8.1006669    76.712925  0.014019175  0.013197989           10 
  457000   0.53187678   -8.0963533    76.945887  0.014030979  0.013156018            5 
  458000   0.52898183    -8.129165     76.76401  0.013967251  0.013114238            7 
  459000   0.54035827   -8.1172921    76.850626  0.013952546  0.013072503            9 
  460000   0.52850343   -8.1290321    76.829429  0.013918375  0.013030964            8 
  461000   0.53195236   -8.1314322    76.831943  0.013888637  0.012989512            8 
  462000   0.53306149   -8.1203524    76.856104  0.013862934  0.012948282            5 
  463000   0.52444976   -8.1278247    76.667989  0.013799134  0.012907085            5 
  464000    0.5278441   -8.1256243    76.816225  0.013796017   0.01286613           12 
  465000   0.52093997   -8.1184238    76.823866  0.013767718  0.012825279            7 
  466000   0.52616347   -8.1399393     76.74594  0.013724238  0.012784622            7 
  467000   0.51660554   -8.1239195    76.925555  0.013726901  0.012744145            9 
  468000   0.51702198    -8.162291    76.801382   0.01367546  0.012703719            7 
  469000   0.54247615   -8.1530248    76.649698  0.013619349  0.012663499            7 
  470000   0.51424738   -8.1556061    76.696129  0.013598604  0.012623377            5 
  471000   0.52130253   -8.1526674    76.792038  0.013586702  0.012583401            6 
  472000   0.52030354   -8.1451368     76.65063   0.01353295  0.012543542            8 
  473000   0.50833599    -8.159683    76.727886   0.01351795  0.012503811            4 
  474000   0.50992152   -8.1700999    76.722313  0.013488452   0.01246422           13 
  475000   0.51264591   -8.1495983    76.767722  0.013468021  0.012424829            6 
  476000   0.51390809   -8.1545213    76.708766  0.013429406  0.012385597            7 
  477000   0.50122133   -8.1695424    76.634984  0.013388362  0.012346485            7 
  478000   0.50445696   -8.1450964    76.653988  0.013363666   0.01230753            7 
  479000    0.5032892   -8.1686128     76.61233  0.013328519   0.01226862            9 
  480000   0.50733207   -8.1649212    76.527583  0.013286039   0.01222985            6 
  481000   0.49226626   -8.1841335    76.670043  0.013283098  0.012191251            5 
  482000   0.49675905   -8.1839913    76.533963  0.013232013  0.012152797            9 
  483000   0.50429633   -8.1782165    76.522919  0.013202712  0.012114518            6 
  484000   0.49867434   -8.1829453    76.619698  0.013192097  0.012076386            6 
  485000   0.49172939   -8.1643812    76.561989  0.013154981  0.012038324            5 
  486000   0.49085292   -8.1994555    76.611966  0.013136483  0.012000404            3 
  487000   0.48261314   -8.2048735    76.493081  0.013089165  0.011962627            5 
  488000   0.49442824   -8.1962085     76.49974   0.01306348  0.011924981            7 
  489000   0.48273741   -8.1972602    76.621138  0.013057454  0.011887511            8 
  490000    0.4894885   -8.1867069    76.464472  0.013004162  0.011850208            4 
  491000   0.48582031   -8.1920862    76.409187  0.012968294  0.011813067            6 
  492000   0.48284576   -8.2177123    76.546447  0.012965184  0.011775984            5 
  493000    0.4806998   -8.2053153    76.667918  0.012959418  0.011739059            5 
  494000   0.49579548   -8.2234173    76.398001  0.012887652  0.011702297            6 
  495000   0.48349384   -8.2039169    76.306399  0.012846195  0.011665552            4 
  496000   0.47224852   -8.2064179    76.436613  0.012842173  0.011629047            5 
  497000   0.47709977    -8.208984    76.459175  0.012820117  0.011592635            4 
  498000   0.47770949   -8.2254114    76.417633  0.012787422  0.011556325            4 
  499000   0.47250018   -8.1973812    76.390973  0.012757344   0.01152019            3 
  500000   0.46561846    -8.218361    76.415608  0.012735935  0.011484217            3 
  501000   0.47454686    -8.221146    76.399666  0.012707862  0.011448395            7 
  502000   0.47690442   -8.2197646    76.523082  0.012703035  0.011412606            7 
  503000   0.47276691   -8.2366616    76.365046  0.012651598  0.011377002            5 
  504000   0.46679666   -8.2512838    76.267308  0.012610335  0.011341519            5 
  505000   0.46964265   -8.2379811    76.286444  0.012588522  0.011306177            6 
  506000   0.46487517    -8.236181       76.456  0.012591568  0.011270976            4 
  507000   0.45787258   -8.2407228    76.405579  0.012558445  0.011235917            6 
  508000   0.46317535   -8.2494461    76.337923  0.012522625  0.011201014            3 
  509000   0.45203856    -8.251611    76.351759  0.012500288   0.01116627            5 
  510000   0.43530632    -8.252502    76.462515  0.012493875  0.011131616            9 
  511000   0.45522387   -8.2529432    76.328711  0.012447605  0.011097089            5 
  512000   0.45391471   -8.2492809    76.496674  0.012450631   0.01106277            4 
Loop time of 1159.45 on 48 procs for 500000 steps with 4000 atoms

Performance: 74517.906 tau/day, 431.238 timesteps/s
99.4% CPU use with 48 MPI tasks x no OpenMP threads

MPI task timing breakdown:
Section |  min time  |  avg time  |  max time  |%varavg| %total
---------------------------------------------------------------
Pair    | 70.204     | 75.004     | 82.007     |  33.6 |  6.47
Neigh   | 7.4255     | 7.7289     | 8.1018     |   6.5 |  0.67
Comm    | 70.294     | 79.464     | 86.038     |  38.7 |  6.85
Output  | 0.82657    | 0.82704    | 0.83615    |   0.1 |  0.07
Modify  | 981.35     | 984.17     | 988.08     |   4.2 | 84.88
Other   |            | 12.26      |            |       |  1.06

Nlocal:        83.3333 ave          92 max          76 min
Histogram: 2 2 5 11 4 14 7 1 1 1
Nghost:        1937.85 ave        1963 max        1920 min
Histogram: 4 7 4 13 4 5 5 1 2 3
Neighs:        12280.5 ave       14130 max       11282 min
Histogram: 10 3 7 12 3 6 6 0 0 1
FullNghs:      24560.3 ave       27212 max       22042 min
Histogram: 1 2 4 8 9 15 4 1 3 1

Total # of neighbors = 1178894
Ave neighs/atom = 294.72350
Neighbor list builds = 26878
Dangerous builds = 0

#clear
#
#next RN
#
#jump SELF
Total wall time: 0:19:22
