
units lj                  # Use reduced LJ style units
atom_style atomic         # Uncharged point particles
atom_modify map hash      # Needed for indexing of clusters etc
                          # Used to be able to find where atoms are in relation to each other.

lattice fcc 1.0 spacing 1 1 1
Lattice spacing in x,y,z = 1.5874011 1.5874011 1.5874011
region box block 0 10 0 10 0 10 units lattice
create_box 2 box
Created orthogonal box = (0.0000000 0.0000000 0.0000000) to (15.874011 15.874011 15.874011)
  3 by 4 by 4 MPI processor grid
create_atoms 1 box
Created 4000 atoms
  using lattice units in orthogonal box = (0.0000000 0.0000000 0.0000000) to (15.874011 15.874011 15.874011)
  create_atoms CPU = 0.016 seconds
set type 1 type/fraction 2 0.76 78393
Setting atom values ...
  3028 settings made for type/fraction
mass 1 1.0
mass 2 1.0
pair_style lj/cut  3.5
pair_modify tail  yes
pair_coeff 1  1  1.0  1.0   # Intearaction between 1 and 1 set with epsilon = 1 and sigma = 1
pair_coeff 1  2  1.5  0.8
pair_coeff 2  2  0.5  0.88

write_data data.0
System init for write_data ...
Neighbor list info ...
  update every 1 steps, delay 10 steps, check yes
  max neighbors/atom: 2000, page size: 100000
  master list distance cutoff = 3.8
  ghost atom cutoff = 3.8
  binsize = 1.9, bins = 9 9 9
  1 neighbor lists, perpetual/occasional/extra = 1 0 0
  (1) pair lj/cut, perpetual
      attributes: half, newton on
      pair build: half/bin/atomonly/newton
      stencil: half/bin/3d
      bin: standard
WARNING: Not all mixed pair coeffs generated from mixing. Use write_data with 'pair ij' option to store all pair coeffs. (../write_data.cpp:312)


#############################
#   M E L T   S Y S T E M   #
#############################

velocity all create 2.4 5833274 mom yes dist gaussian # Assign velocities
                                                    # Temperature 2.4, random number seed, zero linear momentum
                                                                                # Gaussian distribution

timestep 0.002   # simulation timestep
thermo 1000       # output thermodynamic data every 1000 steps bf 100

# Define a fix  in this case with index 1 applied to all
# particles in the simulation. This fix is for simulations
# in the anisotropic NPT ensemble. Note that we use the MTK
# correction.
fix 1 all npt temp 2.4 2.4 0.1 iso 5.68 5.68 0.5 mtk yes tchain 5 pchain 5 # Use NPT ensemble
                                                                         # Set temperature and pressure and damping
                                                                         # Numbers of thermostats in chain and in barostat
run 10000          # run for 10000 steps
Per MPI rank memory allocation (min/avg/max) = 3.642 | 3.644 | 3.648 Mbytes
Step Temp E_pair E_mol TotEng Press Volume 
       0          2.4   -3.9031684            0  -0.30406845   -3.4881309         4000 
    1000    2.3691888   -3.3642838            0   0.18861095    5.6627361    3739.9223 
    2000    2.4078208   -3.3535466            0   0.25728162    5.7974618    3725.9826 
    3000    2.4143621   -3.4057252            0   0.21491258    5.8852869    3687.0507 
    4000    2.3869724   -3.4079247            0   0.17163879    5.7710827    3683.9274 
    5000    2.4363963    -3.410985            0   0.24269575    5.8981049    3683.6356 
    6000    2.4036555   -3.4038806            0   0.20070122    5.5378113     3734.958 
    7000    2.3776835   -3.3463307            0   0.21930287    5.6118004    3762.8172 
    8000    2.4001801   -3.3655827            0   0.23378738    5.6495245    3729.4909 
    9000    2.4217901   -3.4060857            0   0.22569133    5.7906561    3703.5173 
   10000    2.4129127   -3.3820561            0   0.23640809    5.5770611    3739.2072 
Loop time of 2.75802 on 48 procs for 10000 steps with 4000 atoms

Performance: 626537.490 tau/day, 3625.796 timesteps/s
99.4% CPU use with 48 MPI tasks x no OpenMP threads

MPI task timing breakdown:
Section |  min time  |  avg time  |  max time  |%varavg| %total
---------------------------------------------------------------
Pair    | 1.1679     | 1.2239     | 1.346      |   2.9 | 44.38
Neigh   | 0.21267    | 0.22039    | 0.22978    |   0.8 |  7.99
Comm    | 0.77417    | 0.88249    | 0.98697    |   4.8 | 32.00
Output  | 0.00024371 | 0.00025551 | 0.00059444 |   0.0 |  0.01
Modify  | 0.33134    | 0.41578    | 0.46272    |   4.2 | 15.08
Other   |            | 0.01517    |            |       |  0.55

Nlocal:        83.3333 ave          94 max          74 min
Histogram: 1 2 6 6 12 6 10 1 1 3
Nghost:        1715.60 ave        1763 max        1688 min
Histogram: 3 4 13 9 9 6 1 2 0 1
Neighs:        10206.0 ave       11949 max        8664 min
Histogram: 1 3 3 8 16 6 7 0 2 2

Total # of neighbors = 489888
Ave neighs/atom = 122.47200
Neighbor list builds = 906
Dangerous builds = 215

# Equilibrate just above the melting temperature to avoid step fn in T

fix 1 all npt temp 1.25 1.25 0.1 iso 5.68 5.68 0.5 mtk yes tchain 5 pchain 5
run 2000
Per MPI rank memory allocation (min/avg/max) = 3.644 | 3.646 | 3.649 Mbytes
Step Temp E_pair E_mol TotEng Press Volume 
   10000    2.4129127   -3.3820561            0   0.23640809    5.5770611    3739.2072 
   11000    1.2443787   -4.9820321            0   -3.1159307    5.7665324    2848.4801 
   12000    1.2497878   -5.0233865            0   -3.1491735    5.5619162    2847.7214 
Loop time of 0.67341 on 48 procs for 2000 steps with 4000 atoms

Performance: 513209.248 tau/day, 2969.961 timesteps/s
99.5% CPU use with 48 MPI tasks x no OpenMP threads

MPI task timing breakdown:
Section |  min time  |  avg time  |  max time  |%varavg| %total
---------------------------------------------------------------
Pair    | 0.27729    | 0.31155    | 0.34743    |   2.5 | 46.26
Neigh   | 0.040045   | 0.042464   | 0.044892   |   0.6 |  6.31
Comm    | 0.21564    | 0.25996    | 0.29851    |   3.5 | 38.60
Output  | 5.029e-05  | 5.2094e-05 | 6.8107e-05 |   0.0 |  0.01
Modify  | 0.042977   | 0.054674   | 0.092174   |   4.2 |  8.12
Other   |            | 0.004709   |            |       |  0.70

Nlocal:        83.3333 ave          94 max          75 min
Histogram: 3 2 3 11 14 7 4 3 0 1
Nghost:        2065.60 ave        2081 max        2049 min
Histogram: 1 3 3 8 5 12 7 2 4 3
Neighs:        13397.7 ave       15658 max       11490 min
Histogram: 1 4 3 10 10 11 5 2 1 1

Total # of neighbors = 643090
Ave neighs/atom = 160.77250
Neighbor list builds = 142
Dangerous builds = 11

#############################
# L I N E A R  Q U E N C H  #
#############################

# Define solid atoms. This closely follows ten Wolde  Ruiz-Montero and Frenkel  Faraday Discuss  1996  104  93-110
# Compute components of the per-atom q6 vector
compute q6 all orientorder/atom degrees 1 6 components 6 nnn NULL cutoff 1.3 # compute the Q6 parameter.
                                                                             # Use all neighbours within 1.3 unit cell.

# get number of connections
compute coord_number all coord/atom orientorder q6 0.5

# An atom is solid if it has 8 or more connections (of a possible 14)
variable is_solid atom c_coord_number>=8
group solid dynamic all var is_solid    # Must be dynamic to update
dynamic group solid defined

# do clustering
compute cluster solid cluster/atom 1.3 # Create a cluster where all atoms within are solid and max 1.3 units from another member

# define chunks one chunk per cluster
compute clus_chunks solid chunk/atom c_cluster nchunk every compress yes  # Says which atoms are in which chunk

# count the size of each chunk
compute size_chunks solid property/chunk clus_chunks count


# Find the maximum entry in the vector of chunk sizes
variable max_n equal max(c_size_chunks)


# Thermo style which includes this variable
# thermo_style custom step temp pe vol v_max_n

thermo ${N}  # Print the thermo information every 100 steps
thermo 1000  

# Reset the npt fix at a lower temperature (below freezing)
fix 1  all npt temp  ${temp} ${temp}  0.1  iso  5.68  5.68  0.5  mtk yes tchain  5  pchain  5
fix 1  all npt temp  0.45 ${temp}  0.1  iso  5.68  5.68  0.5  mtk yes tchain  5  pchain  5
fix 1  all npt temp  0.45 0.45  0.1  iso  5.68  5.68  0.5  mtk yes tchain  5  pchain  5

dump dmp2 all dcd ${N} traj.dcd
dump dmp2 all dcd 1000 traj.dcd


compute msd all msd com yes
variable twopoint equal c_msd[4]/6/(step*dt+1.0e-6)
fix 9 all vector 10 c_msd[4]
variable fit equal slope(f_9)/6/(10*dt)
thermo_style custom step temp pe c_msd[4] v_twopoint v_fit v_max_n

fix 1 all npt temp 1.25 ${temp} 0.1 iso 5.68 5.68 0.5 mtk yes tchain 5 pchain 5
fix 1 all npt temp 1.25 0.45 0.1 iso 5.68 5.68 0.5 mtk yes tchain 5 pchain 5
run 5000000 # 5000000  # Run for this many steps
Neighbor list info ...
  update every 1 steps, delay 10 steps, check yes
  max neighbors/atom: 2000, page size: 100000
  master list distance cutoff = 3.8
  ghost atom cutoff = 3.8
  binsize = 1.9, bins = 8 8 8
  4 neighbor lists, perpetual/occasional/extra = 1 3 0
  (1) pair lj/cut, perpetual
      attributes: half, newton on
      pair build: half/bin/atomonly/newton
      stencil: half/bin/3d
      bin: standard
  (2) compute orientorder/atom, occasional
      attributes: full, newton on
      pair build: full/bin/atomonly
      stencil: full/bin/3d
      bin: standard
  (3) compute coord/atom, occasional
      attributes: full, newton on
      pair build: full/bin/atomonly
      stencil: full/bin/3d
      bin: standard
  (4) compute cluster/atom, occasional
      attributes: full, newton on
      pair build: full/bin/atomonly
      stencil: full/bin/3d
      bin: standard
Per MPI rank memory allocation (min/avg/max) = 9.841 | 9.845 | 9.849 Mbytes
Step Temp PotEng c_msd[4] v_twopoint v_fit v_max_n 
   12000    1.2497878   -5.0233865 9.7720145e-31 6.7861209e-33 8.3333333e+20            3 
   13000    1.2625844   -5.0229342   0.74554922 0.0047791615  0.062776918            2 
   14000    1.2437408   -4.9754385    1.5397421 0.0091651311  0.064705772            2 
   15000    1.2555659   -5.0424283    2.2642083  0.012578934  0.064348508            6 
   16000    1.2629709   -4.9759543     3.011499   0.01568489  0.063649907            5 
   17000    1.2449453   -5.0187893    3.6837273  0.018057486  0.062197834            2 
   18000     1.246503   -5.0412352    4.3585985  0.020178696  0.060960868            3 
   19000    1.2676416   -5.0005457    5.0357192  0.022086487  0.059844837            2 
   20000    1.2519191   -5.0251424    5.8097089   0.02420712  0.059473699            5 
   21000    1.2547025   -5.0075474    6.5431516  0.025964887  0.059535405            1 
   22000    1.2419622   -5.0253365    7.3511395  0.027845225  0.059892419            3 
   23000    1.2483211   -4.9883083    8.1905043   0.02967574  0.060420747            4 
   24000     1.214709   -5.0214182    9.0554386  0.031442495  0.061262732            3 
   25000    1.2728102   -5.0902837    9.8624835  0.032874944   0.06190303            2 
   26000    1.2500094   -5.0205016    10.631083  0.034073984  0.062543092            2 
   27000    1.2523718   -5.0142371    11.347782  0.035024017  0.062912456            2 
   28000    1.2305142   -5.0721979    12.014304  0.035756855  0.063052935            2 
   29000    1.2218225    -5.017095    12.769845  0.036694955  0.063072026            2 
   30000    1.2263601   -5.0437071    13.401459  0.037226274  0.062908001            2 
   31000    1.2726995   -5.0336095    14.115764  0.037945602  0.062702727            2 
   32000    1.2569993   -5.0416989    14.753686  0.038421057  0.062556317            3 
   33000    1.2678224   -5.0230047    15.551915  0.039272512  0.062365806            1 
   34000    1.2389138    -4.976078    16.172903  0.039639467  0.062156952            3 
   35000    1.2450994   -5.0151314    16.779682  0.039951623  0.061898783            3 
   36000    1.2432198    -5.037058     17.45132  0.040396574  0.061630191            2 
   37000    1.2373619   -5.0314424    18.348777  0.041326073  0.061424712            1 
   38000    1.2674385    -5.006136    18.995226  0.041656197  0.061269222            2 
   39000    1.2569849    -5.016368    19.617993  0.041918788  0.061085062            3 
   40000    1.2627127   -5.0718043    20.153333  0.041986111   0.06086538            2 
   41000    1.2159553   -4.9914321    21.022155  0.042727956  0.060666976            2 
   42000    1.2474471   -5.0390654    21.612543   0.04288203  0.060501674            2 
   43000    1.2447182   -5.0298083     22.10365  0.042836531  0.060326941            2 
   44000    1.2290025   -5.0242111    22.929667    0.0434274  0.060152566            2 
   45000    1.2467524   -5.0733172     23.63789  0.043773869  0.060001129            1 
   46000    1.2449651   -4.9819163    24.500558  0.044385068  0.059898328            2 
   47000    1.2560115   -5.0092835    25.097598  0.044499287  0.059769351            2 
   48000    1.2336036   -5.0359974    25.733673  0.044676515    0.0596653            2 
   49000    1.2492336   -5.0958432    26.300685  0.044729056   0.05955261            2 
   50000    1.2540123   -5.0219722    27.233065  0.045388441  0.059464751            4 
   51000    1.2465486    -5.032383    28.041592  0.045819594   0.05945093            2 
   52000    1.2174323   -5.0172101     28.90432  0.046321026  0.059449709            1 
   53000    1.2285584   -5.1071801    29.617937  0.046569083  0.059460039            3 
   54000    1.2435487    -4.984641      30.7513  0.047455709   0.05954356            2 
   55000    1.2327449   -5.0540854    31.440261  0.047636758  0.059650079            3 
   56000     1.233154   -5.0771586    32.107551  0.047779094  0.059752886            3 
   57000    1.2345755   -5.0468681    32.825415  0.047990372  0.059831267            1 
   58000    1.2365511   -5.0108877    33.760551  0.048506538  0.059910059            4 
   59000    1.2570149   -5.0629016    34.180846   0.04827803  0.059977415            1 
   60000    1.2611681   -5.0429096    34.935105  0.048520979  0.060027911            2 
   61000    1.2583518   -5.0516322    35.390579  0.048347785  0.060029651            4 
   62000    1.2188491   -5.0468061    35.933528  0.048297752  0.059990716            5 
   63000    1.2200999   -5.0476361     36.47523  0.048247658  0.059935793            2 
   64000    1.2269225   -5.0468943    37.195066  0.048431076  0.059846058            1 
   65000    1.2582219   -5.0262402    37.600218  0.048205407  0.059764541            3 
   66000    1.2322858   -5.0308294    38.643187  0.048791902  0.059678724            3 
   67000    1.2560438   -5.0402548    39.286587  0.048863913  0.059602071            1 
   68000    1.2161586   -5.0472856    39.958147  0.048968317  0.059543168            8 
   69000    1.2624115   -5.0789826    40.567048  0.048994019  0.059490608            3 
   70000    1.2438561   -5.0335762    41.333102  0.049206073  0.059434302            6 
   71000    1.2573011   -5.0427202     41.84089  0.049109025  0.059363539            7 
   72000    1.2168098   -5.0118048    42.438953  0.049119158  0.059265053            4 
   73000    1.2348791   -5.0620338    42.786882  0.048843473  0.059176644            3 
   74000      1.23782    -5.021817    44.088478  0.049649187  0.059109947            4 
   75000    1.2479394   -5.0598727    44.887117  0.049874574  0.059070065            3 
   76000    1.2569767   -5.0477572    45.576977  0.049974755  0.059050503            2 
   77000    1.2319372   -4.9848027    46.539184  0.050367082  0.059046842            2 
   78000    1.2325128   -5.0177563    47.384118  0.050624058   0.05905354            1 
   79000    1.2609286   -5.0087657    47.603867  0.050215049  0.059032358            3 
   80000     1.266777   -5.0329559    48.349572  0.050364137  0.059004271            2 
   81000    1.2340114   -5.0435975    49.067273  0.050480734  0.058978586            4 
   82000    1.2465885   -5.0304315    49.594468  0.050400882  0.058948493            2 
   83000    1.2191207   -5.0606917    49.662091  0.049861537   0.05888806            1 
   84000    1.2645763   -5.0497505    50.505704  0.050104865  0.058819062            6 
   85000    1.2331914   -5.0078423    51.639508  0.050626969  0.058762841            1 
   86000    1.2281632   -5.0714529    51.819567  0.050212758  0.058715958            2 
   87000    1.2379644   -5.0619789      52.6733  0.050453352  0.058665617            3 
   88000    1.2401415   -5.0581572    53.678165  0.050831596  0.058615488            2 
   89000    1.2106677   -5.0445257    54.488014   0.05101874  0.058595313            2 
   90000    1.2284327   -5.0410784    54.842397  0.050779997  0.058567767            2 
   91000    1.2515457   -5.0311762    55.584319  0.050901391  0.058530993            7 
   92000    1.2474055    -5.033531     56.23075   0.05093365  0.058496872            1 
   93000    1.2180838   -5.0716079    56.766799  0.050866307  0.058452087            2 
   94000    1.2703608   -5.0785506    57.212078  0.050719927   0.05839764            3 
   95000    1.2274168   -5.0111221    58.186988  0.051041217  0.058353627            1 
   96000    1.2562238   -5.0921044    58.564725  0.050837434  0.058302098            1 
   97000    1.2662727   -4.9928971    59.935451  0.051490937  0.058267347            2 
   98000    1.2410717   -5.0487674    60.171275   0.05116605  0.058237667            1 
   99000    1.2449688   -5.0411865     60.80949  0.051186439  0.058202457            2 
  100000    1.2374337    -5.037181     61.76637  0.051471975  0.058175254            2 
  101000    1.2566061   -5.0431976    62.442906  0.051520549  0.058158673            2 
  102000    1.2491209   -5.0271688    63.410921  0.051806308  0.058138684            2 
  103000    1.2183735   -5.0866745    63.817854  0.051632567   0.05812216            3 
  104000    1.2339888    -5.052472    64.911142  0.052012133  0.058109496            2 
  105000     1.229795   -5.0223982    65.516512  0.051997231  0.058103805            2 
  106000    1.2170837   -5.0637081    65.766859  0.051703506  0.058095211            2 
  107000    1.2261643   -5.0352584    66.890067  0.052095068  0.058078682            4 
  108000    1.2248833   -5.0800206    67.164655   0.05182458   0.05807047            3 
  109000    1.2363935   -5.0387355    68.310317  0.052225013  0.058052902            3 
  110000    1.2281601   -5.0880822    68.536183  0.051921351  0.058033599            4 
  111000    1.2379891   -5.0478067    69.414207  0.052112768  0.058023955            5 
  112000     1.218346   -5.0557386    70.214335  0.052242809  0.058008056            2 
  113000    1.2135925   -5.0297732    71.223262  0.052524529  0.057996469            4 
  114000     1.220623   -4.9894316     71.58465  0.052327961  0.057988506            2 
  115000    1.2363666    -5.037027     72.39939  0.052463326  0.057990607            1 
  116000    1.2426084   -5.0598904     72.85791  0.052340453  0.057989106            2 
  117000    1.2255458   -5.0703227    73.894871  0.052631675  0.057990223            2 
  118000    1.2343073   -5.0644918    74.290219  0.052464844  0.057985924            1 
  119000    1.2276563   -5.0380088    75.236224  0.052686431  0.057977195            1 
  120000    1.2383294   -5.0636069    75.758895  0.052610344  0.057975973            4 
  121000    1.2410793    -5.055859    76.379199  0.052602754  0.057984014            1 
  122000    1.2461183    -5.035573    77.273251  0.052782275  0.057980036            3 
  123000    1.2299376   -5.0901796    78.258117  0.053020404  0.057986946            2 
  124000     1.213045      -5.0393    78.938162   0.05304984  0.057991611            2 
  125000    1.2246287   -5.0646906    79.380781   0.05292052  0.057992803            2 
  126000    1.2320098   -5.0745232    80.218176  0.053054349  0.057994632            2 
  127000     1.248053   -5.0819169    80.695865  0.052950042  0.057995783            2 
  128000    1.2131519   -5.0851256    82.041609  0.053412506  0.058001807            1 
  129000    1.2106262   -5.0173851    82.690857  0.053417866  0.058015223            2 
  130000    1.2341133   -5.0701576    83.421254  0.053475162   0.05802802            2 
  131000    1.2256708     -5.06347    84.050956  0.053467529  0.058043546            1 
  132000    1.2292022   -5.0890124    84.701021  0.053472867  0.058057927            3 
  133000    1.2350481   -5.0820109    85.479282  0.053558447  0.058074907            2 
  134000     1.214696   -5.0879128    86.373375  0.053714785  0.058086224            5 
  135000    1.2052292    -5.062859    87.046233  0.053732242  0.058099839            3 
  136000    1.2517203   -5.0271563    87.280756  0.053480855  0.058107207            2 
  137000    1.2148519   -5.1197301    87.394902  0.053159916  0.058110392            2 
  138000    1.2437734   -5.0350185    88.851271  0.053654149   0.05811225            1 
  139000    1.2039359   -5.0869546    89.356533  0.053571063   0.05811364            2 
  140000    1.1940001   -5.0731105     89.55458  0.053306298  0.058110826            1 
  141000    1.2305929   -5.0173574    90.452944  0.053459187  0.058100749            3 
  142000    1.2394515   -5.0366063    91.559038   0.05373183  0.058094561            4 
  143000    1.2238348   -5.0641477    91.663389  0.053416893  0.058083242            2 
  144000    1.2119631   -5.0242117    92.739917  0.053668933  0.058072848            3 
  145000     1.236139   -5.0904223    92.912127  0.053397774   0.05806895            1 
  146000    1.2223818   -5.0689848    94.017874   0.05366317  0.058064622            3 
  147000    1.2361254   -5.0118978    95.045827  0.053880854  0.058065727            1 
  148000    1.2524497   -5.0706081    95.539789  0.053794926  0.058070144            4 
  149000    1.2230372   -5.0572102    96.515604  0.053979644  0.058071252            2 
  150000    1.2257953   -5.0818597     96.77078  0.053761544  0.058071752            2 
  151000    1.2113532   -5.0526933    97.808703  0.053978313   0.05807353            2 
  152000    1.2408245   -5.0545051    98.306664  0.053896197  0.058076118            4 
  153000     1.230229   -5.0624447    98.764914  0.053793526  0.058081297            2 
  154000    1.2139876   -5.0678933    99.612798  0.053903029  0.058079347            3 
  155000    1.2361894   -5.0875085    100.01172  0.053769744  0.058080778            3 
  156000    1.2436783   -5.0881873    100.92016  0.053910341  0.058085544            3 
  157000    1.2108627   -5.1006179    101.88035  0.054076617  0.058090057            3 
  158000    1.2292226   -5.0541319     102.8696  0.054256119  0.058092645            4 
  159000     1.237409   -5.0318205    103.31006  0.054145733  0.058093658            2 
  160000    1.2255945   -5.0707886    103.68063  0.054000329  0.058092128            4 
  161000    1.2263082   -5.0991461    104.43855  0.054057219  0.058084879            3 
  162000    1.2428661   -5.0639082    105.20527   0.05411794  0.058085133            4 
  163000    1.2150967   -5.0691804    105.97823  0.054181101  0.058083572            2 
  164000    1.2366103   -5.0760947     106.5701  0.054151476  0.058082297            3 
  165000    1.2327551   -5.0521869    107.29098  0.054187363  0.058081501            4 
  166000    1.1970108   -5.0345638    108.48822  0.054461958  0.058080244            3 
  167000    1.2219445   -5.0718597    109.09987  0.054441054  0.058082174            3 
  168000    1.2096637   -5.0908002    109.63551  0.054382694  0.058086686            2 
  169000    1.2146756   -5.0856292    110.04375  0.054262204  0.058088469            1 
  170000    1.2351034    -5.100567    110.59118  0.054211365  0.058089809            3 
  171000    1.2143375   -5.0746253    111.03463  0.054110444  0.058087965            3 
  172000    1.2460253   -5.0639267    112.19163  0.054356409  0.058083693            2 
  173000    1.2107957   -5.0669585    112.24678  0.054068775  0.058076945            3 
  174000    1.2125943   -5.0897475    112.90415  0.054072866  0.058070168            3 
  175000    1.2431307    -5.058812    114.43973   0.05449511   0.05806644            2 
  176000    1.2262555    -5.044044    115.33386  0.054608837  0.058068272            2 
  177000    1.2049269   -5.0853983     116.4211  0.054812195  0.058073631            1 
  178000    1.2365984   -5.0499385    116.60633  0.054590978  0.058077048            1 
  179000    1.2612912   -5.1020635    117.56068  0.054730297  0.058086529            3 
  180000    1.2368562   -5.0680834    118.75658  0.054979897  0.058097484            1 
  181000    1.2265104    -5.060257    119.15942  0.054861613  0.058111169            1 
  182000    1.2299691   -5.0691465    119.51272  0.054721943  0.058119616            1 
  183000    1.2376269   -5.0685761    120.16133  0.054718273  0.058119753            4 
  184000    1.2194782   -5.0363247    121.55332  0.055051321  0.058120776            1 
  185000    1.1999456    -5.116534    121.90472  0.054912037  0.058127314            2 
  186000    1.2513164   -5.1030759    122.53021  0.054897047  0.058136811            3 
  187000    1.2270733    -5.103852    123.26691  0.054931777  0.058143879            1 
  188000    1.2437054   -5.0557086    124.33213   0.05511176  0.058152937            3 
  189000    1.2283264   -5.0835283     124.8457  0.055046604   0.05816348            3 
  190000    1.2215447   -5.0952129    124.49101  0.054601319  0.058163259            6 
  191000    1.2114503   -5.0633909    125.39533  0.054710004   0.05816504            5 
  192000    1.2117645   -5.0429904    126.37826  0.054851676  0.058167688            2 
  193000    1.1944429   -5.0780723    126.97751  0.054826212  0.058166527            1 
  194000    1.2199779   -5.0944385    127.41949  0.054733458  0.058161418            1 
  195000    1.2067378   -5.0984072    127.70479  0.054574696  0.058159506            4 
  196000    1.2266688   -5.0771378     128.5717  0.054664838  0.058153001            8 
  197000    1.2259927   -5.0795822    129.66324  0.054849086  0.058148328            4 
  198000    1.2582597   -5.0494453    130.45852  0.054906785   0.05814578            2 
  199000    1.2268573   -5.0602328    130.83561  0.054788781  0.058146478            2 
  200000    1.2566366   -5.0669096    131.37303  0.054738763  0.058143617            2 
  201000    1.2285433   -5.0861964    131.63336  0.054574363  0.058136918            1 
  202000     1.214252   -5.0629429    132.84088  0.054802344  0.058131053            3 
  203000    1.2213473   -5.1044301    132.56335  0.054418451  0.058120388            2 
  204000    1.2192996   -5.1091465    133.31874  0.054460268  0.058106947            1 
  205000    1.2074988    -5.054484    134.43579  0.054648693  0.058093257            2 
  206000    1.2315689   -5.0388247    135.98826   0.05501143  0.058081679            4 
  207000     1.210378    -5.096677    135.72867   0.05464117  0.058069494            1 
  208000    1.1791901   -5.0884289    136.94811   0.05486703  0.058057629            1 
  209000    1.2364791   -5.0747934    136.44562  0.054404154  0.058048894            2 
  210000    1.2343053    -5.054079    138.08827  0.054796934  0.058037255            3 
  211000    1.2315724   -5.0948677    138.54889  0.054719151    0.0580295            3 
  212000    1.1991431   -5.0831138    138.96348  0.054624007  0.058020918            4 
  213000    1.2161366   -5.0664068    139.64665  0.054634839  0.058012769            1 
  214000     1.209589    -5.060401    140.60523  0.054752815  0.058000644            2 
  215000    1.2271289   -5.0853433    141.20076  0.054728978  0.057989181            2 
  216000    1.2292068   -5.0682007    141.73992  0.054683613  0.057977132            3 
  217000    1.2004369   -5.0977864    142.54993  0.054742678  0.057963082            4 
  218000    1.2033979   -5.1124196     143.0368  0.054677674  0.057951695            2 
  219000    1.1939253   -5.1074051    143.69847  0.054679783  0.057935434            2 
  220000    1.2083818   -5.0773126    144.41662  0.054703265  0.057922311            6 
  221000    1.2301568   -5.0862372    145.25888  0.054773334  0.057909116            3 
  222000    1.2015547   -5.0360304    145.94817  0.054785348  0.057896301            5 
  223000    1.2100338    -5.089724    146.10919  0.054599848   0.05788197            3 
  224000    1.2184723   -5.0351082    147.46911  0.054862019  0.057867235            3 
  225000    1.2601593    -5.111476    147.00347  0.054445731  0.057854422            6 
  226000    1.2388301   -5.0807616    147.78271  0.054492151  0.057837795            2 
  227000    1.1953789   -5.1030072    148.32506  0.054451197   0.05782149            2 
  228000    1.2201365   -5.0812259    149.20125  0.054532621   0.05780511            1 
  229000    1.2279788    -5.044494       150.46  0.054752549  0.057789384            3 
  230000     1.233511   -5.0251397    151.01805  0.054716685  0.057776071            2 
  231000    1.1945653    -5.069849    151.59038  0.054686286  0.057762965            2 
  232000    1.2200913   -5.1376568    151.83172  0.054537257   0.05774906            2 
  233000    1.2079989   -5.0734281    153.48514  0.054894543  0.057734798            4 
  234000    1.2416162   -5.0558116    153.72646   0.05474589  0.057721833            3 
  235000    1.2326038   -5.0844075    154.28561   0.05471121  0.057710769            3 
  236000    1.2202523   -5.0996144    155.31682  0.054843508  0.057698582            2 
  237000    1.2067997   -5.0888789     155.5483  0.054693493  0.057687246            1 
  238000    1.2177813   -5.0783008    156.29897  0.054726529  0.057676089            4 
  239000     1.212593   -5.1205362     157.0235  0.054750174  0.057667193            3 
  240000    1.2059435   -5.1307201     157.0618  0.054535345  0.057657126            2 
  241000    1.2225358   -5.0959578    158.75715  0.054895281   0.05764732            2 
  242000    1.2280103    -5.047492    158.92732  0.054727037  0.057638786            2 
  243000    1.1920366   -5.0970023    159.38116  0.054657463  0.057627554            3 
  244000    1.1971102   -5.0936195    160.58037  0.054843023  0.057614269            3 
  245000    1.1897026   -5.0289083    162.17192  0.055160517  0.057600751            3 
  246000    1.2163661   -5.0830071    160.79371  0.054469412  0.057586474            6 
  247000    1.1948814   -5.0916611    161.82457  0.054596684  0.057571676            2 
  248000    1.2012589    -5.091656    161.95987     0.054422   0.05755367            3 
  249000    1.1943715   -5.1129619    163.25067  0.054635431  0.057537986            6 
  250000    1.2017567    -5.067702    163.80236  0.054600786   0.05752094            3 
  251000    1.1901829   -5.1061839     164.4539  0.054599569  0.057504805            2 
  252000    1.2211589   -5.0870347    165.90676  0.054863348  0.057497291            4 
  253000    1.2260632   -5.1088658    166.54692  0.054857352  0.057490729            2 
  254000    1.2172414    -5.107214    167.18226  0.054849822  0.057483259            3 
  255000    1.2324139   -5.0771477    167.68957  0.054800514  0.057476803            3 
  256000    1.2071514   -5.1171089    168.92128  0.054987397  0.057469881            2 
  257000    1.1842137   -5.1335672    168.61475  0.054674044  0.057461795            2 
  258000    1.2216772   -5.0839142    169.85236  0.054861872  0.057451766            1 
  259000    1.2226546   -5.0714392    170.22978  0.054771485  0.057442763            3 
  260000    1.2107453   -5.0531264    170.82369  0.054751184  0.057434342            3 
  261000    1.2033897   -5.0946541    171.82227   0.05486024  0.057425923            2 
  262000    1.2066935    -5.126403    172.46251  0.054854487  0.057417827            2 
  263000    1.2234859   -5.0886644    172.72667  0.054729617  0.057410111            2 
  264000     1.210889   -5.1178551    173.43155  0.054744806  0.057403952            5 
  265000    1.1951109   -5.1262982    173.84682  0.054668811  0.057395131            3 
  266000    1.2042201   -5.0734994    175.75191  0.055060121  0.057388547            4 
  267000    1.2129527   -5.1147491     176.1364  0.054973909  0.057381405            6 
  268000    1.2184839   -5.1032154    176.59761  0.054912191  0.057373761            1 
  269000    1.2408697   -5.0844597     177.8695  0.055102076  0.057366077            2 
  270000    1.1847692   -5.0930889    178.18557  0.054995546  0.057361938            2 
  271000    1.1994867   -5.1063573    178.39578   0.05485725  0.057355449            2 
  272000    1.1981053   -5.0925763    179.21311  0.054905977  0.057350353            1 
  273000    1.2167328   -5.1200701    180.11987  0.054981644  0.057344081            3 
  274000    1.2345838   -5.1068379    180.20634   0.05480728  0.057335247            3 
  275000    1.2048985   -5.1033156    181.82895  0.055099683  0.057328539            4 
  276000    1.1923911   -5.1010469    182.19255  0.055009827  0.057323009            3 
  277000    1.2422327   -5.1042459    182.51805  0.054909159  0.057315406            2 
  278000    1.2270784   -5.1307584    183.75653  0.055082894  0.057309602            2 
  279000    1.1963764   -5.1174074    185.23342  0.055326588  0.057305186            3 
  280000    1.2062936   -5.1040817    185.29816  0.055148261  0.057300659            4 
  281000    1.2389837   -5.1374897    185.72657  0.055079053   0.05729959            2 
  282000    1.1922549   -5.1028197    186.01737  0.054969673  0.057296341            3 
  283000    1.2122473   -5.0860584    187.63167  0.055250786  0.057291414            3 
  284000    1.1899232   -5.1124528     188.2019  0.055223561  0.057288247            3 
  285000    1.2086666   -5.0631738    188.84053   0.05521653  0.057286052            1 
  286000    1.2170606   -5.0745302    189.13834   0.05511024  0.057282217            5 
  287000    1.2049382   -5.0832725     189.6129   0.05505601  0.057276214            4 
  288000    1.2008333   -5.0929168     188.9369  0.054669242  0.057269487            3 
  289000    1.2245789   -5.0791602    191.30517  0.055162966  0.057261774            1 
  290000    1.2160609    -5.080433    190.99303  0.054883055  0.057252998            2 
  291000    1.2110743   -5.1101868    191.43753  0.054821745  0.057245247            4 
  292000    1.2124304   -5.1196329    192.01755  0.054799529  0.057235033            3 
  293000     1.202476   -5.0950521    192.28826  0.054689493  0.057222649            3 
  294000    1.1743706   -5.0873227    193.13234  0.054742727  0.057210601            3 
  295000    1.2096222   -5.0623069    194.69117  0.054997506   0.05719744            3 
  296000    1.1980184   -5.1047811    195.55145    0.0550539  0.057189408            2 
  297000    1.1990884   -5.1339263    195.38757   0.05482255  0.057180683            2 
  298000    1.1976942   -5.1145325    197.08716  0.055113859  0.057173854            2 
  299000    1.2139221   -5.1407466    197.04901  0.054918899   0.05716975            2 
  300000    1.1834737   -5.1104295    197.51279  0.054864664  0.057161926            2 
  301000    1.2069084   -5.0985338       199.53  0.055240864  0.057155804            4 
  302000    1.1809949   -5.1021081    199.07737  0.054933048  0.057150109            5 
  303000    1.1820809   -5.1028719    200.23705  0.055070697  0.057144701            2 
  304000    1.2008171   -5.1134745    199.93599  0.054807014  0.057136974            2 
  305000    1.2300144   -5.1201107    201.25403  0.054987441  0.057129618            7 
  306000    1.2028195   -5.0904433    201.95727  0.054999257  0.057121746            3 
  307000    1.1999497   -5.1245931    201.50529  0.054697419  0.057114362            2 
  308000    1.1775023   -5.1034263    202.69942  0.054842916  0.057106837            1 
  309000    1.2020461   -5.0979681    203.45682  0.054869692  0.057099987            2 
  310000    1.2024896   -5.1012268    204.82889  0.055061529  0.057093809            3 
  311000    1.2110053   -5.1468655    204.96212  0.054920181  0.057087782            2 
  312000    1.2161862   -5.1147723    205.49522  0.054886543  0.057080255            3 
  313000    1.2026095    -5.113543    206.00039  0.054845683  0.057070771            4 
  314000    1.2215916   -5.1323403    206.77607  0.054876876  0.057062812            2 
  315000    1.2070715   -5.0703973    208.01672  0.055030878  0.057055925            2 
  316000    1.2274957   -5.1398836    207.48185  0.054715676  0.057048876            5 
  317000     1.187699   -5.1257041    209.47301  0.055066512  0.057040997            3 
  318000    1.1825067    -5.090159    210.13143  0.055065889  0.057033307            2 
  319000    1.1991161   -5.1264958    210.01199  0.054862065  0.057027739            6 
  320000    1.1905133   -5.1000764    211.88126  0.055177412  0.057022846            2 
  321000    1.1673919   -5.1140636    211.18886  0.054825768   0.05701823            7 
  322000    1.2032592   -5.1087504    213.37226  0.055220564  0.057011836            4 
  323000    1.2112792   -5.0965746    212.44638  0.054810727  0.057003543            3 
  324000    1.1674183   -5.0823314    213.77999  0.054984565  0.056994225            1 
  325000    1.2041773    -5.110367    213.92104  0.054851549  0.056985577            5 
  326000    1.1966858   -5.1263066    214.52656  0.054838078  0.056976234            2 
  327000    1.2161922      -5.0593    215.75406  0.054983195  0.056966577            2 
  328000    1.1838325    -5.136128    216.78487  0.055077458  0.056959485            2 
  329000    1.2009739   -5.1241324    216.56875  0.054855306  0.056950418            2 
  330000     1.214878   -5.1238192    217.18344  0.054844302  0.056939804            3 
  331000     1.237051   -5.1461177    216.46883  0.054498698  0.056928673            2 
  332000     1.188585    -5.107385    218.11902  0.054748751   0.05691796            3 
  333000    1.2027173   -5.1422539    218.45392  0.054668149  0.056905473            2 
  334000    1.2110733   -5.1440144    218.26849  0.054458207  0.056893184            2 
  335000    1.1500343    -5.129072    219.81524  0.054680408  0.056880417            1 
  336000    1.1878923   -5.1486118    220.94186  0.054797087  0.056867306            2 
  337000    1.2002685   -5.1360227    220.73519  0.054583381  0.056855798            3 
  338000    1.2006624   -5.1203167    222.72074  0.054911425  0.056847214            3 
  339000    1.1718945   -5.1607866    223.06705  0.054834575    0.0568384            6 
  340000    1.1991584   -5.1095947    224.71091  0.055076204  0.056831663            1 
  341000    1.1936759   -5.1272507    225.00571  0.054986733  0.056823468            2 
  342000    1.1955345   -5.1307682    225.69307  0.054993438  0.056815153            2 
  343000    1.1718037     -5.11233    226.01129  0.054910421  0.056807135            3 
  344000    1.2003026   -5.1201733    225.53935  0.054636471  0.056797776            2 
  345000    1.2074297   -5.0849765    226.82631  0.054788965  0.056787272            3 
  346000    1.2109039   -5.1083455    226.84748  0.054635713   0.05677627            5 
  347000     1.210514   -5.1304534    227.98619  0.054751727  0.056766765            2 
  348000    1.1651336   -5.1380231    228.10052  0.054621772  0.056754102            3 
  349000    1.2162227   -5.1248452    229.25419  0.054740733  0.056741579            2 
  350000    1.1868708   -5.0975187    230.23524  0.054817915  0.056729408            2 
  351000    1.1923007    -5.143207    230.48591  0.054721251  0.056718283            1 
  352000    1.1779834   -5.1463474    231.02974  0.054694541  0.056708763            2 
  353000    1.2083173   -5.1338163    232.05478  0.054781582  0.056698968            2 
  354000    1.2053703   -5.1116331    233.05787  0.054862964  0.056690189            4 
  355000    1.1970733   -5.1308792    234.07505  0.054947194  0.056680497            2 
  356000    1.1916647   -5.1452347    233.37306  0.054628526  0.056671498            1 
  357000    1.1949461   -5.1543424    234.04193  0.054631637  0.056661891            2 
  358000    1.1991359   -5.1121353    235.78641  0.054885105   0.05665357            2 
  359000    1.2189702   -5.1172019    236.59119  0.054919031  0.056645981            2 
  360000    1.1910773    -5.152207    235.55365  0.054526308  0.056637737            3 
  361000    1.1994452   -5.1338338    236.03333  0.054485994  0.056626411            1 
  362000    1.2023643   -5.1055964    237.58157  0.054691889  0.056616464            2 
  363000     1.196926   -5.0993998    239.37535  0.054953019  0.056606312            5 
  364000    1.2202879   -5.1345359    238.83277  0.054677832  0.056596998            3 
  365000    1.2312345   -5.1515452    238.48478  0.054448579  0.056586414            3 
  366000    1.1712615   -5.0931437    239.42682  0.054514302  0.056573079            5 
  367000    1.2065912   -5.1235566    239.11415  0.054294767  0.056559816            3 
  368000     1.199286   -5.1039911    241.25773  0.054632639  0.056546419            1 
  369000    1.1958045   -5.0958844    242.10302  0.054675478    0.0565345            5 
  370000    1.1813776   -5.1478707    241.63922  0.054423248  0.056521466            4 
  371000    1.1885499   -5.1199269    242.79983  0.054537249  0.056507976            2 
  372000    1.1880378   -5.1669518    242.82979  0.054397355   0.05649338            2 
  373000    1.1808399   -5.0995046    244.47388  0.054618829  0.056479304            2 
  374000    1.2038183   -5.1363079    244.24588  0.054421988  0.056465637            2 
  375000    1.1943933   -5.1503088    243.29369  0.054065264  0.056450131            4 
  376000    1.2015986   -5.0934165    245.65541  0.054444904  0.056433649            4 
  377000    1.1977143    -5.102935    246.31743  0.054446823  0.056416513            2 
  378000    1.1963083   -5.0985841     246.6264  0.054370899  0.056400619            2 
  379000    1.2020907   -5.1284319    245.74548  0.054033747  0.056383919            3 
  380000    1.1603234   -5.1102623    247.44616  0.054264509  0.056368213            2 
  381000    1.1847606   -5.1398312    247.27523  0.054084695  0.056352541            1 
  382000    1.1622304   -5.1251971    249.04056  0.054328219  0.056336266            2 
  383000    1.2136737   -5.1093315    250.30217  0.054460873  0.056320122            1 
  384000    1.1924673   -5.1455844    249.58303  0.054162984   0.05630679            2 
  385000    1.1890428   -5.1393184    250.37484  0.054193688  0.056291432            3 
  386000    1.2145594   -5.1193791    251.58353  0.054314234  0.056276442            1 
  387000    1.2023668   -5.1302414    253.04047  0.054487612  0.056263672            1 
  388000    1.1786255   -5.1297568    253.17991  0.054377128  0.056251637            3 
  389000     1.175134   -5.1711763    253.01389  0.054201775  0.056239232            3 
  390000    1.1602159   -5.1314394    254.30652     0.054339  0.056226384            2 
  391000    1.2009713   -5.1486828    253.70125  0.054071025   0.05621249            3 
  392000    1.1790377    -5.113721    255.40695  0.054295694  0.056198992            2 
  393000    1.1851336   -5.0939982    257.45867  0.054592593  0.056186397            3 
  394000    1.2065739   -5.1087302    257.88601  0.054544418  0.056176267            1 
  395000    1.1794924   -5.1508244     257.8624   0.05440135  0.056166333            6 
  396000    1.1987677   -5.1429394    257.71534  0.054233026  0.056156462            4 
  397000    1.1653806    -5.136016    260.18038   0.05461385  0.056148327            4 
  398000    1.1923509   -5.1124374    260.23907  0.054488917  0.056139818            1 
  399000    1.2039173   -5.1464358    260.59362  0.054426403  0.056131026            2 
  400000    1.1989317   -5.1408131    262.04734  0.054593195  0.056121898            1 
  401000    1.1767307   -5.1394665    263.91863  0.054845932  0.056114236            2 
  402000    1.2042526   -5.1036949    263.71707  0.054667718  0.056106668            1 
  403000    1.1947052   -5.1206306    264.42974  0.054679434  0.056099366            2 
  404000    1.1648227   -5.1369178    264.36273  0.054530267  0.056090401            6 
  405000    1.1777806   -5.1343992    265.00931  0.054528665  0.056081111            2 
  406000    1.2173057   -5.1326449     264.9321  0.054378509  0.056071476            2 
  407000    1.1936692   -5.1438423    266.06268  0.054476388  0.056061424            2 
  408000    1.1955625   -5.1785672    265.30488  0.054188089  0.056051178            1 
  409000    1.1835183   -5.1064327    266.49716  0.054298526  0.056042119            4 
  410000    1.1952818   -5.1151095    266.38515  0.054143322  0.056030437            2 
  411000     1.188607    -5.150721    266.52714  0.054040376  0.056017617            3 
  412000    1.1760036   -5.1674931    266.89785  0.053984193   0.05600297            2 
  413000     1.173638   -5.1843991    267.56113  0.053987314  0.055988473            2 
  414000    1.1962941   -5.1324815    269.71337  0.054290131  0.055976019            3 
  415000    1.1983145   -5.1494052    269.03561  0.054023215  0.055962883            5 
  416000    1.1976656   -5.1669679    269.86606  0.054059707   0.05594838            5 
  417000    1.1840407   -5.1498426    271.47472  0.054251542   0.05593447            1 
  418000    1.1704174   -5.1382828    270.90701  0.054008574  0.055920415            3 
  419000    1.1803894   -5.1901642    271.60815  0.054019123   0.05590518            4 
  420000    1.1876141    -5.136188     271.9523  0.053958789  0.055890544            2 
  421000    1.1813457   -5.1659771    271.56468  0.053753896  0.055874742            3 
  422000    1.1795163    -5.178316    272.46268  0.053803846  0.055859377            3 
  423000    1.1984756   -5.1762299    273.73715  0.053927729  0.055842697            4 
  424000    1.2054236   -5.1747587     273.7378  0.053800668  0.055827036            3 
  425000    1.1735421   -5.1191358    275.48433  0.054016534  0.055810307            1 
  426000    1.1832894   -5.1165957    276.21209  0.054032098  0.055794555            2 
  427000    1.2142577   -5.1594683    275.52335  0.053771146  0.055779279            1 
  428000    1.1674918   -5.1666818    275.63917  0.053668062  0.055763734            1 
  429000    1.1937071   -5.1585085    277.73292  0.053949674  0.055749054            2 
  430000    1.1602622   -5.1565933    279.57907   0.05418199  0.055735855            3 
  431000    1.1888865    -5.140089    278.34758  0.053818171  0.055721819            5 
  432000    1.2216997   -5.1539298    279.96264  0.054005138  0.055708047            6 
  433000    1.1874525   -5.1415658    280.57218  0.053997724  0.055693343            2 
  434000    1.2002435   -5.1664924    279.85833  0.053736238  0.055677053            2 
  435000     1.177657   -5.1085667    280.64065  0.053762576  0.055660457            3 
  436000    1.1875597   -5.1601099    280.88675  0.053686305  0.055644506            1 
  437000    1.1775445   -5.1195393    283.17382  0.053999585  0.055630071            2 
  438000    1.2063805    -5.183906    281.82919   0.05362047  0.055615122            2 
  439000    1.1866446   -5.1297297    283.86774  0.053885296  0.055600143            2 
  440000    1.1756166    -5.129166     283.8467  0.053758845  0.055586765            4 
  441000    1.1906737   -5.1469626    286.10863  0.054064366  0.055573775            1 
  442000    1.1638648   -5.1524237    285.71228  0.053867323  0.055559095            1 
  443000    1.1743016    -5.154662    285.05089  0.053621312  0.055544471            1 
  444000    1.2055925   -5.1647161    286.14181  0.053705295  0.055529796            4 
  445000     1.190758   -5.1381586    287.23868  0.053790016  0.055514944            3 
  446000    1.1632467   -5.1632759    287.57127  0.053731552  0.055499645            3 
  447000    1.1780005   -5.1931607    287.25938  0.053553202  0.055483928            5 
  448000    1.1724668    -5.163145    287.47542   0.05347385  0.055467978            4 
  449000    1.1920235   -5.1584818    287.97939   0.05344829  0.055451518            6 
  450000    1.1675044   -5.1668292    289.16204  0.053548526  0.055435697            2 
  451000    1.2081196   -5.1805229     289.3007  0.053455413  0.055419217            4 
  452000    1.1747385    -5.154214    290.59217  0.053575252  0.055402791            2 
  453000    1.1544509   -5.1186835    291.48482  0.053621196  0.055386167            3 
  454000    1.2074586   -5.1432634    291.29507  0.053468258  0.055370206            1 
  455000    1.1887367   -5.1289285    292.21656  0.053519517  0.055353247            8 
  456000     1.154586   -5.1455273    293.12963  0.053569012  0.055336738            2 
  457000    1.1624743   -5.1397138    292.51569  0.053339841  0.055320806            2 
  458000    1.1773675   -5.1677059    293.50855  0.053404031  0.055304249            3 
  459000    1.1684578   -5.1498226    295.47374   0.05364447  0.055287602            1 
  460000    1.1694498   -5.1280139    294.81934  0.053409301  0.055270616            5 
  461000    1.1556041   -5.1140491    295.15797  0.053354658   0.05525356            2 
  462000    1.1996278   -5.1428618    296.93355  0.053559443   0.05523707            2 
  463000    1.1852436   -5.1523031    295.99799  0.053275376   0.05521963            4 
  464000    1.1999743    -5.184249    295.39819  0.053052836  0.055201139            3 
  465000     1.171999   -5.1353474     297.6874  0.053348996  0.055183634            2 
  466000    1.1739752   -5.1405443    297.92136  0.053276352   0.05516718            2 
  467000    1.1599341   -5.1526709    298.20311  0.053212546  0.055151189            2 
  468000     1.160329   -5.1739962    300.03869  0.053425692  0.055135195            4 
  469000    1.1636467    -5.146936    299.97281  0.053300072  0.055119003            2 
  470000    1.1518018    -5.194926    300.76206  0.053326606   0.05510314            4 
  471000     1.149487   -5.1617776     301.8636  0.053408281  0.055088525            2 
  472000    1.1779342   -5.1425041    303.69465  0.053618406  0.055076218            2 
  473000    1.1767145   -5.1488487    303.65319  0.053497744  0.055062093            1 
  474000    1.1857278   -5.1704142    304.65912   0.05356173  0.055047819            3 
  475000    1.1896602   -5.1798816    304.61513   0.05344125  0.055033558            3 
  476000    1.1765528   -5.1557586    306.39705   0.05364094  0.055021019            2 
  477000    1.1784798    -5.143158    307.53154  0.053726684  0.055009069            6 
  478000     1.196939   -5.1828676    306.31935  0.053402956  0.054996322            3 
  479000     1.199135   -5.1347302    307.66421  0.053525437  0.054982702            2 
  480000    1.1754343   -5.1707581    308.76326  0.053604733  0.054970264            2 
  481000    1.1514544   -5.1800401    308.55713  0.053457576  0.054957184            1 
  482000    1.1600376   -5.1617269    309.90941  0.053580466  0.054944871            3 
  483000    1.1842564   -5.1444226    309.51235  0.053401027  0.054932929            3 
  484000     1.132201   -5.1434131    310.28157  0.053423136  0.054918106            2 
  485000    1.1777752   -5.1652209    309.49085  0.053177123  0.054903792            3 
  486000    1.1774253   -5.1482885    312.08745  0.053512937  0.054888776            3 
  487000    1.1659059   -5.2202126    309.35142  0.052934877  0.054873217            5 
  488000    1.1599788    -5.157065    313.06228  0.053460089   0.05485783            2 
  489000     1.177273    -5.185343    312.01867  0.053172916  0.054842947            2 
  490000    1.2015523   -5.1591006    312.57157  0.053158431  0.054828838            4 
  491000    1.1870488   -5.1599773     313.7071  0.053242889  0.054815242            4 
  492000    1.2087438   -5.1367775    313.91921  0.053170599  0.054800691            3 
  493000    1.1571134   -5.1670214     315.4809  0.053326723  0.054787314            2 
  494000     1.187286   -5.1977547     315.6175  0.053241818  0.054771967            2 
  495000    1.1768879   -5.1836419    316.40011  0.053266012   0.05475745            1 
  496000    1.1747242   -5.1902681    316.89485  0.053241742  0.054743201            3 
  497000    1.1562779   -5.1972749    316.99373  0.053151196  0.054729149            4 
  498000    1.1696352   -5.1537204    318.85077  0.053355216  0.054714694            4 
  499000    1.1587945   -5.1537849    317.26358  0.052983229  0.054698801            2 
  500000    1.1751666   -5.1567371    319.81524   0.05330254   0.05468377            1 
  501000    1.1867969   -5.2134314    318.00235  0.052894602  0.054668969            5 
  502000    1.1677995   -5.1884485    318.17774   0.05281835  0.054651887            4 
  503000    1.1775917   -5.1883547    319.67004  0.052960576   0.05463473            3 
  504000    1.1811761   -5.1673999     319.9101  0.052895188  0.054617499            3 
  505000    1.1758656   -5.1755725    320.24152  0.052845135  0.054600733            3 
  506000    1.1571463   -5.1742305    322.23481  0.053068975    0.0545841            2 
  507000    1.1768766   -5.1590253    322.56058  0.053017846  0.054568217            2 
  508000    1.1926745   -5.1400125    324.60639  0.053249079  0.054553233            3 
  509000    1.1727558    -5.192142     321.8973  0.052700933  0.054538436            1 
  510000    1.1668493   -5.1564613    324.45055  0.053014796  0.054523403            4 
  511000     1.174618   -5.1707443    324.71153  0.052953609  0.054509311            4 
  512000    1.1546199   -5.1600125    326.02043  0.053063221  0.054495855            1 
  513000     1.152115   -5.1998683    326.44096  0.053028096  0.054481819            2 
  514000    1.1975465   -5.1954922     327.3847  0.053077935  0.054466814            3 
  515000    1.1714341   -5.1934031     327.3482  0.052968964   0.05445311            4 
  516000    1.1799232   -5.2033534    328.27958  0.053016728  0.054438176            2 
  517000    1.1846511   -5.1639586    330.80527  0.053321288  0.054425585            2 
  518000    1.1694028   -5.1963172     329.5291  0.053013047  0.054411658            3 
  519000    1.1667069   -5.1341661    330.40184  0.053051034  0.054397602            2 
  520000    1.1691649   -5.1408896    330.54232  0.052971526   0.05438429            2 
  521000    1.1764892   -5.2197242     330.8488  0.052918874  0.054370715            2 
  522000    1.1738251   -5.1595611     331.6613  0.052947206  0.054357134            1 
  523000    1.1747031   -5.1788651    331.94967  0.052891916  0.054342911            2 
  524000    1.1711154    -5.174288    333.37331  0.053017383  0.054329536            4 
  525000    1.1668473   -5.1792646    333.07784  0.052869498  0.054316695            4 
  526000    1.1755081   -5.1659733     333.4468   0.05282744  0.054303265            1 
  527000    1.1735105   -5.1908909    334.56095  0.052903376  0.054289312            2 
  528000    1.1524749   -5.1915293    334.80818    0.0528422  0.054274523            4 
  529000    1.1821598   -5.1735227    336.34409   0.05298426  0.054260971            2 
  530000    1.1513819   -5.1798151    335.80286  0.052799193  0.054247986            3 
  531000    1.1571663   -5.1706459    337.18974  0.052917411   0.05423432            2 
  532000    1.1863642   -5.1761066    338.57298  0.053034615  0.054222065            6 
  533000    1.1482813    -5.200543    338.06771  0.052856115  0.054209612            1 
  534000    1.1635868   -5.1776326     339.8741   0.05303903  0.054197822            7 
  535000    1.1749985   -5.1912089    340.40181  0.053022089  0.054185781            5 
  536000    1.1627422   -5.1671017    339.88992  0.052843581  0.054174001            2 
  537000    1.1811192   -5.1710317    341.56497  0.053005117  0.054163113            3 
  538000    1.1524717   -5.1883627    341.38499  0.052878715  0.054151179            3 
  539000    1.1695872   -5.1863286    341.95242  0.052868339  0.054139031            2 
  540000    1.1703489   -5.2267356    341.35033   0.05267752  0.054126156            2 
  541000    1.1540359   -5.2042779    342.72664  0.052792151   0.05411378            2 
  542000    1.1564639   -5.1738968     345.6318  0.053141421  0.054102275            3 
  543000    1.1686681   -5.1791022    345.62041  0.053041806  0.054090307            2 
  544000     1.139476   -5.1873994    344.91237  0.052835841  0.054078138            2 
  545000    1.1685445   -5.1890329    345.22018   0.05278596  0.054064863            3 
  546000    1.1628481   -5.2035995    345.30246  0.052701841  0.054051013            3 
  547000    1.1763473   -5.1481325    347.84758  0.052993232  0.054037557            2 
  548000    1.1736692   -5.1962949    346.91355  0.052754494  0.054024052            2 
  549000    1.1410251   -5.1665685    348.13488  0.052843788  0.054009556            2 
  550000    1.1872122   -5.1515594    346.83597  0.052550905  0.053996404            4 
  551000     1.155905   -5.1679171    348.07158  0.052642405   0.05398332            6 
  552000    1.1409251   -5.2109585    346.80453  0.052355757  0.053968895            7 
  553000    1.1587417   -5.1891595    347.77027  0.052406611   0.05395452            4 
  554000    1.1918725   -5.2358248    348.45386   0.05241484  0.053939372            8 
  555000    1.1662465   -5.1600433    351.41915  0.052765638  0.053925188            3 
  556000    1.1707875   -5.1635442    352.19859  0.052787558  0.053911323            2 
  557000    1.1571745   -5.1984123    351.15861  0.052537195  0.053897931            2 
  558000    1.1598612   -5.2300136    350.50421  0.052345312  0.053884589            6 
  559000     1.169994   -5.1833135    352.33929  0.052525237  0.053871462            3 
  560000     1.124178   -5.1868132    353.97234  0.052674455   0.05385815            3 
  561000    1.1755134    -5.205362    352.33928   0.05233798  0.053844584            3 
  562000    1.1589627   -5.2001237    354.79596  0.052609129  0.053831452            5 
  563000    1.1571729   -5.1969066    355.79822  0.052664035  0.053818338            2 
  564000    1.1485216   -5.2100998    354.78024  0.052420248  0.053805169            3 
  565000    1.1453166   -5.2009999    356.53981  0.052586993   0.05379208            2 
  566000    1.1623492    -5.167314    356.91515  0.052549344  0.053777708            1 
  567000    1.1609338   -5.2005564    355.92065  0.052310501  0.053763525            2 
  568000    1.1833904    -5.165569    357.06545  0.052386363  0.053749988            3 
  569000    1.1575715   -5.2060236    359.28633  0.052619556  0.053736179            5 
  570000    1.1729128   -5.2005652    358.24153  0.052374493  0.053722373            4 
  571000    1.1509582   -5.2000261    358.49656  0.052319988  0.053708434            1 
  572000    1.1628568    -5.250858    357.46595  0.052078372  0.053693705            2 
  573000    1.1437975   -5.1444868    359.03483  0.052215653  0.053678514            3 
  574000    1.1480617   -5.1894984    360.11953  0.052282162   0.05366386            2 
  575000    1.1751159   -5.1910326    361.18506  0.052345661  0.053650164            2 
  576000    1.1671782   -5.1860297    361.88625  0.052356228    0.0536351            2 
  577000    1.1869777   -5.2126005    361.55425  0.052217541  0.053619595            2 
  578000    1.1719864   -5.2031249    362.94333   0.05232747  0.053604401            2 
  579000    1.1523955   -5.1820643     363.5145    0.0523193  0.053589784            4 
  580000    1.1617953   -5.1685504    363.95414  0.052292262  0.053575189            2 
  581000    1.1635919   -5.2300161    364.08804  0.052221463  0.053561214            4 
  582000    1.1553682   -5.2287336    365.08935  0.052275107  0.053546126            2 
  583000    1.1697658   -5.1961941     364.9137  0.052160335  0.053532103            1 
  584000    1.1449271    -5.206728    364.99208  0.052082203  0.053517578            4 
  585000    1.1735225   -5.1863166    364.85109   0.05197309  0.053502893            2 
  586000    1.1621572   -5.1914567    366.72985  0.052151572  0.053487111            1 
  587000    1.1438477   -5.2312183    366.46344  0.052024907  0.053471972            4 
  588000    1.1718945   -5.2263213    368.35367  0.052204318  0.053457255            7 
  589000    1.1401755   -5.1699625    368.97237  0.052203222  0.053442988            2 
  590000    1.1580325   -5.2202125      368.995  0.052117938  0.053428895            3 
  591000    1.1542909   -5.2214013    370.09169  0.052184389  0.053414263            2 
  592000     1.165261   -5.2035016    370.43346   0.05214435  0.053400579            3 
  593000    1.1511957   -5.1715019     372.0946  0.052289854   0.05338731            1 
  594000    1.1950971   -5.2001147    373.63312  0.052417665  0.053374113            2 
  595000    1.1641646   -5.2197848    371.74019  0.052064453  0.053361591            4 
  596000    1.1606838   -5.2208384    372.83921  0.052130762  0.053349058            1 
  597000    1.1678278   -5.2030471    373.89775  0.052191198  0.053335808            2 
  598000    1.1696751   -5.1629784    375.15523  0.052279156  0.053323489            2 
  599000    1.1550254   -5.2079342    374.28763  0.052071178  0.053309796            6 
  600000    1.1572888   -5.2258553    374.58344  0.052025477  0.053296291            3 
  601000    1.1603035    -5.205424    375.20154  0.052024617  0.053282003            3 
  602000    1.1494749   -5.2046109    376.37792   0.05210104  0.053268072            5 
  603000    1.2034867   -5.2101525    375.15264  0.051845307  0.053253363            3 
  604000    1.1466235   -5.1659536    377.38266  0.052067144  0.053238945            4 
  605000    1.1705802   -5.1692863    376.65731  0.051881172  0.053224552            2 
  606000    1.1631466   -5.2241224    375.64948  0.051656969  0.053210942            4 
  607000    1.1641471   -5.1853726    377.90766  0.051881887  0.053196181            5 
  608000    1.1621242   -5.2481588    376.61139  0.051618886  0.053180401            5 
  609000    1.1406911   -5.2187549    379.93421  0.051988808  0.053165706            2 
  610000    1.1492546   -5.2098565    380.94325  0.052041428  0.053151622            5 
  611000     1.152784    -5.205966     379.7326  0.051791135  0.053137922            3 
  612000    1.1390437   -5.2163509    381.46816  0.051942833  0.053123634            4 
  613000    1.1724306   -5.2090338     382.4202   0.05198752  0.053109621            5 
  614000    1.1612983   -5.1724399    382.67477  0.051937401  0.053096125            3 
  615000    1.1270819   -5.1713275    384.61971  0.052116492  0.053082463            2 
  616000     1.152889   -5.2558697    384.20855  0.051976265  0.053069585            2 
  617000    1.1590495   -5.2301907    385.04986  0.052005654   0.05305631            2 
  618000    1.1423424    -5.213533    385.34633  0.051961479  0.053043332            2 
  619000    1.1353205   -5.1983428    388.50573  0.052302871  0.053031892            2 
  620000    1.1338961   -5.2115136    387.96838  0.052146288  0.053020513            2 
  621000    1.1388774   -5.1988833    388.72971  0.052164481  0.053009575            3 
  622000    1.1331606   -5.1967469    389.31178  0.052158599  0.052998399            2 
  623000    1.1488177   -5.2148198    390.56017  0.052241863  0.052988004            3 
  624000    1.1616378    -5.215967    389.97969  0.052080621  0.052977488            4 
  625000    1.1520446   -5.1945368    391.53187  0.052204249  0.052967234            1 
  626000    1.1470425   -5.2395695    390.82508  0.052026767   0.05295641            3 
  627000    1.1607237   -5.2165108    392.93913  0.052224764  0.052946442            2 
  628000    1.1356592    -5.222563    393.28669  0.052187724  0.052935947            2 
  629000    1.1345385   -5.2021653    394.98269   0.05232945  0.052926422            3 
  630000    1.1401767   -5.1833855    394.90493  0.052236102  0.052916953            2 
  631000     1.165941   -5.1954451    395.34203  0.052211045  0.052908018            3 
  632000    1.1573779   -5.2200331    394.90096  0.052070274  0.052898529            3 
  633000       1.1638   -5.2269076     396.0452  0.052138652  0.052889509            5 
  634000    1.1385176   -5.1936359    398.36729  0.052361631  0.052880089            1 
  635000    1.1286758   -5.2603805    396.76523  0.052068928  0.052871132            2 
  636000    1.1420117   -5.2064369    398.34891  0.052194564  0.052861664            3 
  637000    1.1205419   -5.2126059    398.64123  0.052150867  0.052852535            4 
  638000    1.1688661   -5.2172607     399.2358  0.052146786  0.052842629            2 
  639000    1.1626967   -5.1919917    399.12702  0.052050994  0.052833134            5 
  640000    1.1715007   -5.2056993    399.67497  0.052041012  0.052823249            6 
  641000    1.1431462    -5.216524    401.01203  0.052133649  0.052813334            2 
  642000    1.1523977   -5.2042718    401.87042  0.052163866  0.052804276            3 
  643000    1.1418308   -5.2644659    400.44845  0.051898452  0.052793903            2 
  644000    1.1399448    -5.208102    401.37967  0.051938364  0.052783829            2 
  645000    1.1568715   -5.2453199    401.28884  0.051846103  0.052774546            2 
  646000    1.1296841   -5.2339382    403.70258  0.052077216  0.052765723            5 
  647000    1.1487911   -5.2363382    404.11591  0.052049962  0.052756606            1 
  648000    1.1416782   -5.2041164    405.15513  0.052103284  0.052747539            3 
  649000    1.1334718   -5.2241139    405.04108  0.052008356  0.052737937            3 
  650000    1.1327481   -5.2057966    406.19783  0.052076645  0.052727551            3 
  651000    1.1445584   -5.2391211    405.48629  0.051905567  0.052717398            2 
  652000    1.1544174    -5.237286    405.56576  0.051836114  0.052707737            4 
  653000    1.1260562   -5.2254592    407.49918  0.052003469  0.052698049            3 
  654000    1.1511465   -5.1915381    406.00091  0.051733041   0.05268801            2 
  655000    1.1633892   -5.1995411    409.09781  0.052048067   0.05267773            3 
  656000    1.1779306   -5.2542154    406.83619  0.051681427  0.052666454            1 
  657000     1.128377   -5.1748817    410.76872  0.052101562   0.05265565            5 
  658000    1.1453217   -5.2293997      409.205  0.051824341  0.052644775            4 
  659000    1.1415386   -5.1976588    409.83114  0.051824879  0.052634647            2 
  660000    1.1685983   -5.2406695    411.10751  0.051907514  0.052624663            2 
  661000    1.1504395    -5.254637    409.82277  0.051667016  0.052613697            2 
  662000    1.1493438   -5.2132645    412.19995  0.051888212  0.052603118            2 
  663000    1.1416541   -5.2014692    413.31639  0.051950275  0.052592763            3 
  664000    1.1489971   -5.1956772    412.21946   0.05173437  0.052582402            3 
  665000    1.1507629   -5.2527946    412.44606   0.05168497  0.052571734            3 
  666000    1.1231441   -5.2186874    413.68495  0.051762382  0.052561695            4 
  667000    1.1513117   -5.2016127    415.37725  0.051896208  0.052551947            1 
  668000    1.1520383   -5.2181061    415.86016  0.051878762  0.052542105            3 
  669000     1.140585   -5.2565803    415.02447  0.051697119  0.052531404            4 
  670000    1.1537864    -5.229041    416.91881  0.051855574  0.052520656            2 
  671000     1.149455     -5.20983    417.14659   0.05180658  0.052510369            2 
  672000    1.1790023   -5.2388972    417.63243  0.051789736  0.052499305            2 
  673000    1.1678931   -5.2458219     417.1034  0.051647275  0.052488304            3 
  674000    1.1425464   -5.1973806    420.15783  0.051948298  0.052478146            6 
  675000    1.1494082   -5.2411861    418.86292  0.051711471  0.052468514            2 
  676000    1.1491838   -5.2363788    419.57575  0.051722849  0.052458038            1 
  677000    1.1350687   -5.2676284    420.65324  0.051779079  0.052448139            3 
  678000    1.1091209    -5.226532    420.77669  0.051717883  0.052438472            7 
  679000    1.1252027   -5.2456122    421.36652  0.051714104  0.052428468            3 
  680000    1.1439727   -5.2619945    422.69786  0.051801209  0.052418859            6 
  681000    1.1407551   -5.2304091    422.80099  0.051737762  0.052409695            2 
  682000    1.1133858   -5.1894662    426.32631  0.052092657  0.052400686            3 
  683000    1.1452277   -5.2049933    425.33476  0.051895408  0.052392073            3 
  684000    1.1639072   -5.1842491    425.00698  0.051779603  0.052383397            2 
  685000    1.1131666   -5.2514976    424.94807  0.051696845  0.052374276            4 
  686000    1.1375353   -5.2615235    425.93753  0.051741682  0.052365221            3 
  687000    1.1266701   -5.1879692    427.05958  0.051802472  0.052356128            2 
  688000    1.1301883   -5.2643514    426.88011  0.051705439  0.052347685            4 
  689000    1.1493768   -5.2368102    426.85493  0.051627349  0.052338316            2 
  690000    1.1370954   -5.2411155    429.56225  0.051879499  0.052329264            1 
  691000    1.1367563   -5.2181803    427.43688  0.051548104  0.052320282            5 
  692000    1.1295368    -5.265081    428.48923  0.051600341  0.052310746            1 
  693000    1.1297384    -5.232804    429.46877  0.051643671  0.052301659            2 
  694000    1.1305124   -5.1785858    431.38666  0.051799551  0.052293482            2 
  695000    1.1250974   -5.2432348    429.62886  0.051514252  0.052284806            2 
  696000    1.1368083   -5.2297286    431.50836  0.051665273  0.052276107            2 
  697000    1.1286041   -5.2043043    432.69188  0.051732649  0.052267075            1 
  698000    1.1362084   -5.2494732    432.78381   0.05166951  0.052259302            3 
  699000    1.1736416   -5.2088502     435.6568  0.051938102  0.052250512            5 
  700000    1.1136806   -5.2595829    432.55655  0.051494827  0.052242398            3 
  701000    1.1454409   -5.2292461    433.43108   0.05152533  0.052233583            4 
  702000    1.1314233   -5.2675469    433.95976  0.051514691  0.052225159            3 
  703000    1.1300071   -5.2217793    436.06166  0.051690572  0.052216137            2 
  704000    1.1598986   -5.2309645    436.02057  0.051612283  0.052207329            8 
  705000    1.1545385   -5.2500125    436.57985  0.051605183  0.052198249            2 
  706000    1.1409848   -5.2491679    437.04402  0.051586877  0.052189456            3 
  707000    1.1414737   -5.2144918    437.14205  0.051525465  0.052180127            2 
  708000    1.1521898   -5.2402198    438.41646   0.05160269  0.052170009            4 
  709000    1.1330571   -5.2493121    438.89914   0.05158664  0.052160316            2 
  710000    1.1344071   -5.2261918    440.15506  0.051661392  0.052151374            2 
  711000    1.1475228   -5.2122383    440.70468  0.051653151  0.052141914            2 
  712000    1.1399473   -5.2594593    439.57705  0.051448625  0.052132024            4 
  713000    1.1463597   -5.2664014    439.14177  0.051325593  0.052122718            3 
  714000     1.133247   -5.2542844    440.97412  0.051467567  0.052113319            3 
  715000     1.153937   -5.1772014    442.82593  0.051611414  0.052104133            3 
  716000    1.1509432   -5.2348104    441.52998  0.051388498  0.052094654            1 
  717000    1.1123641   -5.2434785    442.41103  0.051419227  0.052084765            3 
  718000    1.1305275   -5.2272232    443.82907  0.051512195  0.052074933            2 
  719000    1.1307197   -5.2460121    441.91613  0.051218838  0.052064589            2 
  720000    1.1347806   -5.2650814    442.84231  0.051254897  0.052054201            3 
  721000      1.12285   -5.2550994    443.26916  0.051233144   0.05204359            4 
  722000     1.118109   -5.2621688     442.8861  0.051117971  0.052032609            4 
  723000    1.1370512   -5.2079776    446.51918  0.051466019  0.052022511            2 
  724000    1.1203449   -5.2514974    446.01502  0.051336904  0.052012413            2 
  725000     1.166539   -5.2160346    447.14833   0.05139636  0.052002801            2 
  726000    1.1378541   -5.2062423    448.89304  0.051525831  0.051992889            5 
  727000    1.1428265   -5.2332512    448.75236  0.051438831  0.051983733            5 
  728000    1.1492389   -5.2384328    446.83431  0.051148616  0.051974092            2 
  729000    1.1499051   -5.2499368    447.85812  0.051195487  0.051964081            3 
  730000    1.1119441   -5.2595862    450.04068  0.051374507  0.051954521            3 
  731000    1.1293944   -5.2515777    450.19619  0.051321955  0.051944058            4 
  732000    1.1230465   -5.2300209    449.60118  0.051184105  0.051934423            5 
  733000     1.142708    -5.206479     453.1783  0.051520953  0.051925579            2 
  734000    1.1216339   -5.2690592    452.04726   0.05132235  0.051916963            2 
  735000    1.1328181   -5.2475419    453.06325  0.051367715  0.051908434            3 
  736000    1.1000077   -5.2140675    454.18322  0.051424731  0.051899594            4 
  737000    1.1033191   -5.2600418    453.83908  0.051316042  0.051890976            2 
  738000    1.1043291   -5.2617012    456.21815  0.051515148  0.051882338            3 
  739000    1.1443971   -5.2655311    455.10141   0.05131951  0.051873789            2 
  740000     1.126821    -5.285349    456.42385  0.051399082  0.051864342            1 
  741000    1.1342644   -5.2405466    457.07012  0.051402398  0.051855861            3 
  742000    1.1076521   -5.2603073    456.79084  0.051301757  0.051847222            2 
  743000    1.1402128   -5.2773998    456.80117  0.051233869  0.051838133            1 
  744000    1.1411151    -5.250258    458.41368  0.051345619    0.0518303            4 
  745000    1.1553874   -5.2276132    460.21945  0.051478685  0.051822468            2 
  746000    1.1500932   -5.2399913    459.28044  0.051304786  0.051814938            3 
  747000    1.1272631   -5.2152515    461.99879  0.051539356    0.0518076            3 
  748000    1.1320711   -5.2836956    460.18665  0.051268567  0.051799061            4 
  749000     1.146429   -5.2802906    461.73134  0.051371978  0.051790871            3 
  750000    1.1378203    -5.239454    461.30092  0.051255658  0.051781898            4 
  751000    1.1318778   -5.2739774    462.72079  0.051344961  0.051773222            5 
  752000    1.1042991   -5.2606908    461.72128  0.051165922   0.05176501            2 
  753000    1.1344729   -5.2383722    466.15892  0.051589079  0.051756402            6 
  754000    1.1027103   -5.2701047    463.39696  0.051215402  0.051747501            3 
  755000    1.1224891    -5.266438    464.50588  0.051269964  0.051739311            5 
  756000    1.1504588   -5.2410867    465.16162  0.051274429  0.051730519            2 
  757000    1.1284853   -5.1946686    466.53571   0.05135796  0.051722798            2 
  758000    1.1279745    -5.246739    465.87736  0.051217828  0.051715538            2 
  759000    1.1279065   -5.2252658    467.21323  0.051297017  0.051707529            5 
  760000    1.1231064   -5.2659467    465.65882  0.051059081   0.05169916            4 
  761000    1.1395506    -5.258667    468.27618    0.0512786  0.051691024            1 
  762000     1.111048   -5.2433074    468.60228  0.051246969  0.051682875            2 
  763000    1.1292772   -5.2675039     467.4799  0.051057219  0.051674594            4 
  764000    1.1467729   -5.2658569    470.16309  0.051283059  0.051666025            3 
  765000    1.1144785   -5.2775984    469.94527  0.051192295  0.051656804            2 
  766000     1.107733   -5.2627249    472.24109  0.051375228  0.051648515            3 
  767000    1.1164868   -5.2588433    469.97972  0.051062551  0.051640213            2 
  768000     1.139982   -5.2337227    471.40345  0.051150548  0.051631615            1 
  769000    1.1239447   -5.2373398    472.64507  0.051218581    0.0516227            3 
  770000    1.1270275   -5.2860653    471.40164  0.051017494  0.051613186            5 
  771000    1.1443885   -5.2654199     472.4044  0.051059705  0.051603633            4 
  772000     1.144972   -5.2614552    473.14329  0.051073326  0.051594309            2 
  773000    1.1545242    -5.237608    472.68919    0.0509583  0.051584449            3 
  774000    1.1374044   -5.2600248    473.08802  0.050935403  0.051575038            2 
  775000    1.1241051   -5.2471788    475.84907  0.051166567  0.051566476            1 
  776000    1.1033747   -5.2590816    476.83157  0.051206139  0.051558381            5 
  777000    1.1200082   -5.2539469    476.46118  0.051100512  0.051549683            1 
  778000    1.1209245   -5.2321879    475.64961  0.050947901  0.051541286            1 
  779000    1.1188164   -5.2869506    476.74112  0.050999263  0.051532618            2 
  780000    1.1370675   -5.2293342    478.47062  0.051118656    0.0515243            4 
  781000    1.1307499   -5.2600327    479.14782  0.051125461  0.051516095            1 
  782000    1.1319526    -5.283044     478.8008  0.051023103  0.051507499            4 
  783000    1.1251194   -5.2505012    478.35737  0.050910746  0.051498393            2 
  784000    1.1476484   -5.2777442    477.59328  0.050764592  0.051489439            2 
  785000    1.1250382   -5.2612716    478.04911  0.050748313  0.051479858            3 
  786000    1.1114879   -5.2935885    478.39947  0.050720893  0.051470334            2 
  787000    1.1385505   -5.2876399    480.40253  0.050868544  0.051460927            3 
  788000    1.1141929   -5.2411004     481.8734  0.050959539   0.05145167            2 
  789000    1.1056674   -5.2741629     482.7948  0.050992269  0.051442774            4 
  790000    1.1356232   -5.2555504    482.32009  0.050877647  0.051433279            2 
  791000    1.1421545   -5.2791294     481.1309  0.050688042   0.05142426            2 
  792000    1.1387279   -5.2101922     485.7611  0.051111227  0.051415621            1 
  793000    1.1036555   -5.2808323    484.14777  0.050877235  0.051406791            2 
  794000    1.1105282   -5.2682864     486.1052  0.051018597  0.051398113            3 
  795000    1.1236601   -5.2912334    483.77731   0.05071041  0.051389053            3 
  796000    1.1451623   -5.2239338     486.0312  0.050882663  0.051379682            2 
  797000      1.13008   -5.2768967    485.22285    0.0507343  0.051370583            5 
  798000    1.1209137   -5.2937895    486.90274   0.05084615  0.051361413            2 
  799000    1.1229341   -5.2868598    486.59004    0.0507499  0.051352018            2 
  800000    1.1402095    -5.303506    487.53499  0.050784895  0.051342838            2 
  801000    1.1256967   -5.2571135    488.27481  0.050798462  0.051333783            2 
  802000    1.1048956   -5.2987322    487.96493  0.050702923   0.05132455            3 
  803000    1.1354591   -5.2373435     490.2606   0.05087802  0.051315306            3 
  804000    1.1247843    -5.268238    490.57197  0.050847012  0.051305896            7 
  805000    1.1054328    -5.257395     489.0269  0.050623903  0.051297069            2 
  806000    1.1122329   -5.2691118    490.50488  0.050713904  0.051287788            5 
  807000    1.1385428   -5.2829207     489.7429  0.050572377  0.051278911            2 
  808000    1.1180161   -5.2560431    492.64753  0.050809357  0.051269683            2 
  809000    1.0955519   -5.2200318    492.60556  0.050742229  0.051260061            3 
  810000    1.1059003    -5.249521    492.94104  0.050714099  0.051250483            4 
  811000       1.1041   -5.2682127    492.59979  0.050616502  0.051240824            4 
  812000    1.1210591    -5.251521    492.82819  0.050577606  0.051230326            4 
  813000    1.1165748   -5.3116257     494.2035  0.050656365  0.051220017            2 
  814000    1.1265173    -5.277776    493.26432  0.050497985  0.051209603            3 
  815000    1.0988259   -5.2316175    495.01634  0.050615167  0.051199678            2 
  816000    1.1283819   -5.2559824     497.9383  0.050851542  0.051189803            3 
  817000    1.1080971   -5.2653245    497.78187  0.050773344   0.05118057            2 
  818000     1.122138   -5.2871105    497.28946   0.05066111  0.051171318           10 
  819000    1.1310219   -5.2887304     497.4297  0.050613523  0.051162324            4 
  820000    1.1059156   -5.2541848    496.88856  0.050496805  0.051152899            2 
  821000    1.1186533   -5.2881677    497.89119  0.050537067  0.051144028            3 
  822000    1.1317905   -5.2753131    500.36622  0.050726503  0.051134638            2 
  823000    1.1348712   -5.2532914    500.11271  0.050639197  0.051125454            3 
  824000    1.1175938   -5.2979743    499.92248  0.050558503  0.051116391            2 
  825000    1.1454534   -5.2887947    502.44623  0.050752144  0.051107347            2 
  826000    1.1277747   -5.2767008    504.03307  0.050850794  0.051098717            1 
  827000    1.1006664   -5.2822953    502.22289  0.050606901   0.05109122            8 
  828000    1.1036066   -5.2970104    503.57364  0.050681727  0.051083229            2 
  829000     1.104774   -5.2810284    502.95398  0.050558301  0.051075351            3 
  830000    1.1027447   -5.2893471    505.14046  0.050716913  0.051067287            2 
  831000      1.12221   -5.2396066    505.57986  0.050699946  0.051059185            5 
  832000    1.1382607   -5.2876049    506.80465  0.050761684  0.051050746            5 
  833000    1.1395235   -5.2847735    508.27073  0.050847412  0.051042899            3 
  834000    1.1207829   -5.2415793     505.9331  0.050552867  0.051034628            3 
  835000    1.1208542   -5.2808532    507.53217  0.050651913  0.051025962            3 
  836000    1.1190101   -5.2729797     507.6356  0.050601635  0.051017665            2 
  837000    1.1363062   -5.2968306    508.16567  0.050593953  0.051009718            2 
  838000    1.1171458   -5.2463719    510.97571  0.050813018  0.051001316            2 
  839000    1.1269534   -5.2438636    511.00859   0.05075572  0.050993466            2 
  840000    1.1053164   -5.2914877    510.44072  0.050638961  0.050985099            8 
  841000    1.1071559   -5.2718657    511.07492   0.05064159  0.050976802            2 
  842000    1.1135213   -5.3049783    510.34566  0.050509269  0.050967844            2 
  843000    1.0961766   -5.2955347    511.02157  0.050516169   0.05095935            6 
  844000    1.1013388   -5.2848427    512.54539  0.050606772   0.05095081            4 
  845000    1.1091428   -5.2316193    513.94652  0.050685061  0.050942027            2 
  846000    1.0975891   -5.2722574    511.98282  0.050431719  0.050933264            2 
  847000    1.1244928   -5.2515528    513.45088  0.050516616  0.050923753            4 
  848000     1.109331   -5.2796966    513.83011  0.050494311  0.050914037            1 
  849000    1.1188648   -5.2883708    512.53432  0.050307648  0.050904247            2 
  850000    1.1210722   -5.2782898    515.58076  0.050547134  0.050894725            3 
  851000    1.1484046    -5.209702    514.31139  0.050363434  0.050885621            5 
  852000    1.0973251   -5.2683687    513.87869     0.050262  0.050876059            5 
  853000       1.1254   -5.2877709    515.77656  0.050388488  0.050866781            3 
  854000    1.0943673   -5.3131509     512.3641  0.049996497  0.050856835            2 
  855000    1.1177752   -5.2378193    516.28462  0.050320138  0.050847038            3 
  856000    1.1608478   -5.2953499    515.08744  0.050144805  0.050837299            3 
  857000    1.1194205   -5.3044381    517.31589  0.050302985  0.050827721            4 
  858000    1.1186359   -5.3256857    516.54814  0.050169788    0.0508177            3 
  859000    1.1211509   -5.2330356    520.68323  0.050512537  0.050808031            6 
  860000    1.1137488   -5.2991288    517.93458   0.05018746  0.050798619            2 
  861000    1.1067866    -5.297267    519.03393  0.050235572  0.050788734            1 
  862000    1.0999735   -5.2890225    519.34434  0.050207303  0.050779046            2 
  863000     1.120383   -5.3157848    520.86764  0.050296219  0.050769451            6 
  864000    1.0856313   -5.3035008    519.97387  0.050151801    0.0507595            2 
  865000    1.1157872   -5.3024476    520.54625  0.050148964  0.050749091            2 
  866000     1.137787   -5.3082856    520.75239  0.050110892  0.050738996            4 
  867000    1.1005027   -5.2691516    523.27481  0.050295541  0.050729242            2 
  868000    1.1054176   -5.3128263    520.56776  0.049977703  0.050719395            5 
  869000    1.1261072   -5.2954587     522.6004  0.050115113  0.050709074            4 
  870000    1.1164535   -5.2538565     524.0338  0.050194809  0.050699359            3 
  871000    1.1147049   -5.2984082    524.24426  0.050157315  0.050690089            3 
  872000    1.0990256   -5.2943175     524.9925  0.050171302  0.050680129            3 
  873000    1.1152204   -5.2879861    525.55112  0.050167156  0.050670672            2 
  874000    1.1210923   -5.2586923    525.74436  0.050128181  0.050661221            5 
  875000    1.1047895   -5.2974469    525.60226  0.050057358   0.05065167            6 
  876000    1.1154678   -5.2899889    527.91937  0.050220641  0.050642987            1 
  877000    1.1086763   -5.3058635    528.16729  0.050186933  0.050634077            3 
  878000    1.0896611   -5.2805259    529.10381  0.050218661  0.050625399            3 
  879000    1.1050484   -5.3127558    528.63435  0.050117022  0.050616721            4 
  880000    1.0939241   -5.2881708    530.12552  0.050201281  0.050608322           10 
  881000    1.1319431   -5.2520962    531.25371  0.050251013  0.050599654            2 
  882000     1.126082   -5.2749542    532.32052  0.050294834  0.050590901            2 
  883000    1.1096828   -5.2979782    530.15989  0.050033964  0.050581757            3 
  884000    1.1120748   -5.2464593    533.63698  0.050305145  0.050572856            2 
  885000    1.1138236   -5.2990377    532.67951  0.050158146  0.050563656            4 
  886000    1.1054819   -5.2849015    531.44669   0.04998558  0.050554102            2 
  887000    1.1271427    -5.288627     532.6729  0.050044429  0.050544099            4 
  888000    1.0909451   -5.2795235    530.80131  0.049812436  0.050534783            2 
  889000    1.1212653   -5.3338224    532.94957  0.049957777  0.050524924            4 
  890000    1.0980579   -5.3159561    531.70932  0.049785516  0.050514957            1 
  891000    1.1011693   -5.3030375    533.23146  0.049872003   0.05050525            4 
  892000    1.1150413   -5.2966968     532.0081  0.049701803   0.05049503            2 
  893000    1.1034776   -5.2825992    535.76577  0.049996805  0.050484673            3 
  894000     1.104563   -5.2735421    535.11083  0.049879831  0.050474775            4 
  895000    1.0865616   -5.3041295    535.29458  0.049841208  0.050465059            3 
  896000    1.1184201   -5.3147437    536.28266  0.049877479  0.050455021            1 
  897000    1.1080692   -5.3098574    537.53825  0.049938522  0.050445023            5 
  898000    1.1033733   -5.3245302    537.49104   0.04987853  0.050434524            4 
  899000    1.1131992   -5.2992458     537.4041  0.049814989  0.050423943            2 
  900000    1.1019287   -5.2948234    537.32885  0.049752671  0.050413404            2 
  901000    1.0984987    -5.296581     536.7618  0.049645005  0.050402792            3 
  902000    1.1076167   -5.2908185    540.40596  0.049926641  0.050392201            3 
  903000    1.1083793    -5.220267    542.26418  0.050042837  0.050382797            2 
  904000    1.1041342   -5.2530458    538.90834  0.049678128  0.050371908            3 
  905000    1.1005822   -5.2725326    539.49862  0.049677589  0.050360981            3 
  906000    1.0882812   -5.2835921    541.53526  0.049810087  0.050350117            3 
  907000    1.1087161   -5.2863593    538.76665  0.049500794  0.050338927            2 
  908000    1.0886419   -5.3149764    539.21152  0.049487107  0.050327423            2 
  909000    1.1049558   -5.2787598    541.35362  0.049629045   0.05031622            2 
  910000    1.0925138    -5.285659    541.69087  0.049605391  0.050304906            2 
  911000    1.1169267   -5.2945533    539.93997  0.049390777  0.050293634            6 
  912000    1.0961805   -5.2901193    541.24717  0.049456065   0.05028214            2 
  913000    1.1091462    -5.264776    540.37007  0.049321839  0.050270133            2 
  914000    1.1127182   -5.3350535    542.58577  0.049469892  0.050257834            3 
  915000      1.10483   -5.3015917     542.9816  0.049451876  0.050245714            3 
  916000    1.0899183   -5.3212773    541.86856   0.04929663  0.050233556            2 
  917000    1.1001724   -5.2615479    543.58425  0.049398787  0.050221375            2 
  918000    1.1079916   -5.3453957    540.90463  0.049101727  0.050209162            4 
  919000    1.0950318   -5.3095341    541.92932  0.049141215    0.0501967            2 
  920000    1.1087011   -5.3346512    541.62846  0.049060549  0.050184134            3 
  921000    1.1098622   -5.2766465    545.23233  0.049333363  0.050171571            3 
  922000    1.0852731    -5.295174     545.5498   0.04930855  0.050159297            2 
  923000    1.1174356   -5.3088888    545.49782  0.049250435  0.050147526            3 
  924000    1.1143967   -5.3314971     546.6864  0.049304329  0.050135739            4 
  925000    1.0892011   -5.3619372    544.93844  0.049093553  0.050123498            3 
  926000    1.1169587   -5.2917026    547.57925   0.04927819  0.050111142            2 
  927000    1.0762149   -5.2974931    547.21771  0.049192531  0.050098927            3 
  928000    1.1039905   -5.3296283    548.47789  0.049252684  0.050086799            3 
  929000    1.1050377    -5.263475    551.14068  0.049438526  0.050074423            2 
  930000    1.1043732   -5.3002305    549.06264  0.049199161  0.050062099            6 
  931000    1.0960073   -5.3074694    548.58105  0.049103209  0.050049593            4 
  932000    1.1410452   -5.3182011    549.37746  0.049121732  0.050037112            1 
  933000     1.088501   -5.3133501    548.73491  0.049011693  0.050024467            4 
  934000    1.0712844   -5.2988713    552.37174  0.049283702  0.050012166            2 
  935000     1.123031   -5.3019223    551.79405  0.049179505  0.050000151            4 
  936000    1.0885499   -5.3069566     551.7991  0.049127413  0.049987952            2 
  937000    1.1075296   -5.2984024    552.83584  0.049167186  0.049975314            6 
  938000     1.071937   -5.2873629    553.10074  0.049138303  0.049963124            3 
  939000    1.0884318   -5.3462084    551.83004  0.048973202  0.049950478            4 
  940000    1.1149936   -5.3191471    554.27688  0.049138022   0.04993816            5 
  941000    1.0981289   -5.3025532    553.95272  0.049057095  0.049925995            2 
  942000    1.0844097   -5.3065453    554.30608  0.049036277  0.049913372            2 
  943000    1.1115548    -5.317457    556.58937  0.049186053   0.04990092            2 
  944000    1.0968799    -5.306588    554.17613  0.048920915  0.049888679            4 
  945000     1.111397   -5.3566935    553.54651  0.048813625  0.049876369            1 
  946000    1.0971836   -5.3275076    555.30725  0.048917129  0.049863952            4 
  947000    1.0979364   -5.3084752    559.35666  0.049221811  0.049851625            4 
  948000      1.10189   -5.3279042    556.45435  0.048914764  0.049839097            2 
  949000    1.1007083   -5.3314249    558.97457  0.049084525  0.049826783            4 
  950000    1.0953159   -5.3124848    557.85732  0.048934853    0.0498145            4 
  951000    1.1105899   -5.3466196    558.24059  0.048916981  0.049802403            3 
  952000    1.0962978   -5.2776104    562.59987  0.049247188  0.049790159            4 
  953000     1.070121   -5.3151441    559.74139  0.048945557  0.049777874            2 
  954000    1.0956425   -5.2998752    559.96742  0.048913995  0.049765638            2 
  955000    1.0951358   -5.3265964    560.28502   0.04889049  0.049753103            3 
  956000    1.0713566   -5.3269294    561.61527  0.048955306  0.049741527            4 
  957000    1.1132463   -5.3201506    560.24228  0.048784594  0.049729176            2 
  958000    1.0928665   -5.3103259    563.42106  0.049010183   0.04971715            3 
  959000    1.0888196   -5.2918364    564.51895   0.04905448  0.049705095            2 
  960000    1.0952152   -5.3751487    560.05792  0.048616138  0.049692853            2 
  961000    1.0699738   -5.3661447    563.64599   0.04887669  0.049680926            3 
  962000    1.0785578   -5.3311042    562.43545  0.048721019  0.049668652            6 
  963000    1.0944895   -5.3421902    564.32596  0.048834022  0.049656006            1 
  964000    1.0638105   -5.3203317    566.57516  0.048977798  0.049644079            2 
  965000    1.0797508   -5.3247512    566.41643  0.048913336  0.049632259            2 
  966000    1.0797036    -5.328435    567.93652  0.048993834  0.049621121           10 
  967000    1.0980172   -5.3080577    571.55625  0.049255106  0.049610103            5 
  968000    1.0944345   -5.3214251    567.72367  0.048874283  0.049599188            2 
  969000    1.0967036   -5.3274306    568.41734    0.0488835  0.049587718            3 
  970000    1.1092686   -5.2994306    571.43831  0.049092638   0.04957678            4 
  971000    1.0870722   -5.3075351    568.63448  0.048801448  0.049565492            2 
  972000    1.0890454    -5.313939    571.53595  0.048999996  0.049554299            3 
  973000    1.0755206   -5.3146459    569.26821  0.048755414  0.049543216            3 
  974000    1.0867192   -5.2834943    572.18779   0.04895515  0.049532027            3 
  975000    1.0974211      -5.3413      571.998  0.048888718  0.049520705            5 
  976000    1.0959917   -5.3102647    570.49737    0.0487105  0.049509185            2 
  977000    1.0815668   -5.3282479    572.71863  0.048850105  0.049497648            3 
  978000    1.0918499    -5.339337    574.83312  0.048980328  0.049486594            1 
  979000    1.0989883   -5.3237341    573.00958  0.048775075  0.049475874            3 
  980000    1.0748886   -5.3678873    574.02798  0.048811903  0.049465178            4 
  981000    1.1021229   -5.3001048    574.29133  0.048784516  0.049454069            2 
  982000    1.0897695   -5.2873667    576.39157  0.048913066  0.049443287            5 
  983000    1.0901361   -5.3064014    577.48461  0.048955969  0.049432806            5 
  984000     1.116565   -5.3198957    576.30722  0.048806506  0.049422045            4 
  985000     1.105486   -5.2931383    577.23057  0.048835073  0.049410847            3 
  986000    1.0977125   -5.3157575    577.77124  0.048831241  0.049399899            3 
  987000    1.0996829   -5.3500585    576.83483  0.048702704  0.049388962            3 
  988000    1.0663769   -5.3052609    578.14183  0.048763649  0.049378193            1 
  989000    1.0871543    -5.344358    578.22902   0.04872169  0.049367399            4 
  990000    1.1153398   -5.3342405    579.93612  0.048816171  0.049356547            3 
  991000    1.0951188   -5.3214362       580.05  0.048776488   0.04934565            3 
  992000    1.0972286   -5.3146875    578.65108  0.048609802  0.049334572            3 
  993000    1.1160585   -5.3324579     581.8713  0.048831093  0.049323892            5 
  994000     1.099511   -5.3222601    582.61862  0.048844619  0.049313165            4 
  995000    1.0843898   -5.2950017    582.97391  0.048825285  0.049302736            2 
  996000    1.0905563   -5.2973824    585.74581  0.049008184  0.049292349            4 
  997000    1.1033706   -5.3349886    583.31917  0.048756199  0.049282133            2 
  998000    1.0854382   -5.3227875    584.45316  0.048802034  0.049271678            2 
  999000    1.0772231   -5.3575937    583.19006  0.048647819  0.049261523            8 
 1000000    1.1056831    -5.330058    585.69371  0.048807809  0.049251077            2 
 1001000    1.1058855    -5.321213    583.67655  0.048591122  0.049240505            2 
 1002000    1.0848138    -5.313086    584.52057  0.048612822  0.049229702            2 
 1003000    1.0964554   -5.3166465    584.66424  0.048576291  0.049219254            4 
 1004000    1.1064952   -5.3590203    587.36489  0.048752066  0.049208649            6 
 1005000     1.106704   -5.3303051    587.67444  0.048729224   0.04919817            2 
 1006000    1.1217495   -5.3684471    586.43572  0.048578175  0.049187544            3 
 1007000    1.0925416    -5.331225    586.77176  0.048557743   0.04917717            4 
 1008000    1.0800886   -5.3844551    585.55477  0.048408959  0.049166931            3 
 1009000    1.1012043   -5.3416838    588.60865  0.048613202   0.04915642            3 
 1010000     1.091784   -5.3155577    590.22931  0.048698788  0.049146407            4 
 1011000    1.0860642   -5.3166041    590.14708  0.048643841  0.049136183            2 
 1012000    1.0727439   -5.3139973    590.88305  0.048656378  0.049125827            3 
 1013000    1.1049218   -5.3477996    589.62332  0.048504715  0.049115227            2 
 1014000    1.0960004   -5.2993528    589.88092   0.04847805  0.049104672            2 
 1015000    1.0869193   -5.3233795    591.88529  0.048594851  0.049094036            3 
 1016000    1.0942848   -5.3505147    590.13307  0.048403303    0.0490835            3 
 1017000    1.0761964   -5.3569559    591.61975  0.048477528  0.049072067            5 
 1018000    1.0876226   -5.3233118    592.40042  0.048493813  0.049061054            3 
 1019000    1.0615953   -5.2958375    594.29531  0.048601187  0.049049842            3 
 1020000    1.0832873   -5.3222562    591.16824  0.048298059  0.049038812            3 
 1021000    1.0752834   -5.3630017    594.85538  0.048551696  0.049027331            2 
 1022000    1.0656072   -5.3523975    593.73894  0.048413156  0.049015647            4 
 1023000    1.0882841   -5.3050825      595.695  0.048525171  0.049004676            3 
 1024000    1.0997636   -5.3588548    592.65156  0.048230107  0.048993604            3 
 1025000    1.0901069   -5.3432886    594.68383  0.048348279  0.048982636            2 
 1026000    1.1155244   -5.3781905    594.84617  0.048314341  0.048971898            2 
 1027000    1.0740727   -5.3463479    597.72558   0.04850094  0.048961068            2 
 1028000    1.0786693   -5.3389973    597.36074  0.048424185  0.048950348            4 
 1029000    1.1042184    -5.325317    598.04717  0.048432715  0.048939298            2 
 1030000    1.0830144   -5.3486001    596.84744  0.048288628  0.048929018            2 
 1031000    1.0838419   -5.3423524    599.02381  0.048417702  0.048918351            4 
 1032000    1.1179176   -5.3344664    600.28462  0.048472595  0.048908014            5 
 1033000    1.0822489   -5.3047307      600.594  0.048450629  0.048897703            2 
 1034000    1.0996886   -5.3198153    601.23034  0.048455056  0.048887003            2 
 1035000     1.071386   -5.3478523     599.4817  0.048267447  0.048876214            6 
 1036000    1.0716138   -5.3416611    598.79263   0.04816543   0.04886548            5 
 1037000     1.091409   -5.3335218    600.77437  0.048278236  0.048854476            4 
 1038000    1.0720068   -5.3265078    602.94663   0.04840612  0.048844012            4 
 1039000    1.1043743   -5.3680224     599.6469  0.048094875  0.048833277            8 
 1040000    1.0882434   -5.3143543    604.85209  0.048465713  0.048822396            4 
 1041000    1.0761918   -5.3625652     600.4895  0.048069925  0.048811661            8 
 1042000    1.0878481   -5.3619125    603.85636  0.048293055  0.048800693            3 
 1043000    1.0534654   -5.3639748    604.55436  0.048302522  0.048789912            3 
 1044000    1.0706727   -5.3788333    603.69084  0.048187328  0.048779138            5 
 1045000    1.0614518   -5.3018006    606.83137  0.048391657  0.048768355            1 
 1046000    1.0807374   -5.3107936    606.57792  0.048325201  0.048757619            2 
 1047000     1.076479   -5.3379334    607.54849  0.048356295  0.048746975            4 
 1048000    1.0730191   -5.3434915     604.0088  0.048028689  0.048736253            5 
 1049000    1.0834444    -5.368658    605.62402  0.048111218  0.048725448            3 
 1050000    1.0556846   -5.3334687    607.23551  0.048193295   0.04871461            3 
 1051000    1.0736741   -5.3387557    608.76459   0.04826868  0.048704162            2 
 1052000    1.1004283   -5.3272044    608.99043  0.048240687  0.048693617            3 
 1053000    1.0590759   -5.3513158    609.51865  0.048236677   0.04868315            1 
 1054000    1.0738505   -5.3193516    609.42419  0.048183443  0.048672695            3 
 1055000    1.0760339   -5.3620314    608.64988   0.04807661   0.04866223            2 
 1056000    1.0889354   -5.3365369    612.04334  0.048298875  0.048651698            3 
 1057000    1.0710748    -5.371301    609.83254  0.048078882  0.048640895            6 
 1058000    1.0951246   -5.3457053    611.37787  0.048155157  0.048630464            2 
 1059000    1.0928915   -5.3341655    611.48062   0.04811777  0.048619518            4 
 1060000    1.0883018   -5.3270501    611.73096  0.048092057  0.048609123            4 
 1061000    1.0936258   -5.3469234    609.57298  0.047877237  0.048598303            3 
 1062000    1.0766701   -5.3368471    613.51073  0.048141143  0.048587246            2 
 1063000    1.0985806   -5.3444847    614.81599  0.048198181   0.04857663            2 
 1064000    1.0876165   -5.3906181    612.85094  0.047998977  0.048565803            2 
 1065000    1.0927557   -5.3703557     610.5827  0.047776424  0.048554908            6 
 1066000    1.0943873   -5.3632217    615.53526  0.048118766  0.048544141            3 
 1067000    1.0774657   -5.3667498    615.62373  0.048080578  0.048533513            4 
 1068000    1.0617861   -5.3416177    613.25377  0.047850638  0.048522807            5 
 1069000    1.0874427   -5.3810486    614.12111  0.047873489  0.048512339            4 
 1070000    1.0742724   -5.3692664    614.06844  0.047824645  0.048501784            4 
 1071000    1.0513436   -5.3442507    616.69991  0.047984742  0.048490695            3 
 1072000    1.0783898   -5.3561044    616.77783  0.047946037  0.048480163            3 
 1073000    1.1064846   -5.3109437    617.06353  0.047923542  0.048469227            4 
 1074000    1.0605131   -5.3490046    617.82808  0.047938243  0.048458349            2 
 1075000    1.0908012   -5.3381936    620.41633  0.048094289  0.048447554            5 
 1076000    1.0762278   -5.3805644    617.57152  0.047829269  0.048436791            4 
 1077000    1.0736441   -5.3783659    619.00794  0.047896003  0.048425754            3 
 1078000     1.089671   -5.3503792    619.66999  0.047902751  0.048414534            5 
 1079000    1.0891598   -5.3740915      621.172  0.047974359  0.048403647            3 
 1080000     1.087128   -5.3749717    620.03779  0.047842422  0.048392658            5 
 1081000    1.0788795     -5.36947    619.06942  0.047723514  0.048381429            3 
 1082000    1.0600731   -5.3577609    619.74831  0.047731693  0.048370324            3 
 1083000    1.0616543   -5.3572124    621.19988  0.047799314  0.048359363            2 
 1084000    1.0917457   -5.3259194    621.56665  0.047783414  0.048348497            3 
 1085000    1.0926038   -5.3512295    623.16105  0.047861831  0.048337615            2 
 1086000    1.0804191   -5.3674536    622.06691  0.047733802  0.048326447            2 
 1087000    1.0905096   -5.3841656    621.47727  0.047644685   0.04831532            2 
 1088000    1.0804274   -5.3681239    623.72717  0.047773221  0.048304198            6 
 1089000    1.0873688   -5.3528789    621.79833  0.047581752  0.048293086            2 
 1090000    1.0684357   -5.3706699    624.24408  0.047725082  0.048282091            2 
 1091000    1.1000366   -5.3438266    623.30706  0.047609766  0.048270866            3 
 1092000    1.0897422   -5.3413568    625.74703  0.047752368  0.048260126            3 
 1093000     1.055596   -5.3321149    625.57614   0.04769565   0.04824943            3 
 1094000    1.0802259    -5.351626    625.90006  0.047676726  0.048238874            3 
 1095000    1.0865764   -5.3291044    629.52386   0.04790897  0.048228575            2 
 1096000    1.0819733   -5.3749141    626.95566  0.047669986  0.048218297            4 
 1097000    1.0788364   -5.3344619    627.81631  0.047691911  0.048208084            3 
 1098000    1.0694173   -5.3857807    628.28652  0.047684162  0.048197296            2 
 1099000    1.0803943    -5.330879    629.76862  0.047753156  0.048186673            3 
 1100000    1.0956882   -5.3403586    633.10998  0.047962877  0.048176456            4 
 1101000     1.085195   -5.3717867    629.87199  0.047674235  0.048165845            5 
 1102000    1.0632536   -5.3628967    629.43315  0.047597788  0.048154797            4 
 1103000    1.0863249   -5.3690478    631.13486  0.047683202  0.048143994            5 
 1104000    1.0800261    -5.332064    630.85533  0.047618911  0.048133564            3 
 1105000    1.0850197   -5.3675869    633.34745   0.04776376  0.048123418            3 
 1106000     1.079703   -5.3939763    631.27756  0.047564614  0.048112769            5 
 1107000    1.0698143   -5.3481157    634.03261  0.047729043  0.048102446            3 
 1108000    1.0668879   -5.4161099     631.7098  0.047511267  0.048092414            5 
 1109000    1.0767305   -5.3789645    635.03744  0.047718473  0.048082163            1 
 1110000    1.1073137    -5.384171    637.60821  0.047868484  0.048072653            4 
 1111000     1.050655   -5.3596842    636.57205  0.047747679  0.048063003            1 
 1112000    1.0934277   -5.3693731    638.31587  0.047835422  0.048053569            4 
 1113000    1.0425692   -5.3885729    636.02704  0.047621072   0.04804374            2 
 1114000     1.089253   -5.3496414    639.94229  0.047871207  0.048034229            3 
 1115000    1.0616451   -5.3604504    641.49244  0.047944129  0.048024809            2 
 1116000    1.0783443   -5.3532021    639.37288  0.047742897  0.048015448            3 
 1117000    1.0788558   -5.3763864     638.6126  0.047643435  0.048006035            4 
 1118000    1.0658421   -5.3898134    641.87434  0.047843943  0.047996468            5 
 1119000     1.073703   -5.3654532    643.77963  0.047943076  0.047987556            3 
 1120000    1.0528142   -5.3476888    643.93855  0.047912095  0.047978256            5 
 1121000    1.0833871    -5.377867     642.4883  0.047761545    0.0479692           11 
 1122000    1.0658165   -5.3682191    644.69368  0.047882775   0.04795998            3 
 1123000    1.0757592   -5.3527568    645.04006   0.04786584   0.04795094            2 
 1124000    1.0752597   -5.3791165    643.66743  0.047721488  0.047941989            9 
 1125000    1.0798869    -5.371256    645.48191  0.047813475  0.047933365            1 
 1126000    1.0789537   -5.3761623    645.23426  0.047752684  0.047924556            2 
 1127000    1.0871407    -5.376051     644.9491  0.047689227  0.047916068            2 
 1128000    1.0542817   -5.3456983    647.82102  0.047859118  0.047907759            3 
 1129000    1.0973816   -5.4108698    648.26113  0.047849212  0.047899031            3 
 1130000    1.0769184   -5.3374204    649.85796  0.047924629  0.047890486            5 
 1131000    1.0579542   -5.3662193    648.12387  0.047754485  0.047881767            3 
 1132000    1.0828619   -5.3503714    649.25027   0.04779522  0.047872948            4 
 1133000     1.077189   -5.3809106    648.63988  0.047708141  0.047864833            3 
 1134000    1.0793935   -5.3550657    651.80264  0.047898489  0.047856213            2 
 1135000    1.0820372    -5.385644     648.7131  0.047629449  0.047848273            3 
 1136000    1.0624272    -5.366462    652.61535  0.047873778  0.047840032            3 
 1137000    1.0769334   -5.3605856    650.86679  0.047703518  0.047831202            3 
 1138000    1.0442468   -5.3951529    648.59863  0.047495506  0.047822043            4 
 1139000    1.0435636   -5.3594122    651.17456  0.047642271  0.047813034            2 
 1140000    1.0762919   -5.3686481    652.37461  0.047688202  0.047803964            6 
 1141000    1.0639642   -5.3950728    651.14945  0.047556927  0.047794925            5 
 1142000    1.0740503   -5.3270026    654.24352  0.047741062  0.047786351            8 
 1143000    1.0835251   -5.3457556    651.82221  0.047522762  0.047777645            2 
 1144000    1.0664977   -5.3633264    652.95477  0.047563721  0.047768907            5 
 1145000    1.0567938   -5.3898376    652.72718  0.047505617  0.047759534            3 
 1146000    1.0498147   -5.3733235    653.76604  0.047539706  0.047750129            2 
 1147000    1.0762644   -5.3831638    654.17972  0.047528315  0.047741261            3 
 1148000    1.0684538   -5.3914495     655.8297  0.047606686  0.047732193            2 
 1149000    1.0417475   -5.3505764    655.61545  0.047549713  0.047723365            8 
 1150000    1.0679627   -5.3285717    657.84059  0.047669608  0.047714325            4 
 1151000     1.059697   -5.3685718    660.13209  0.047794099  0.047705852            2 
 1152000    1.0816537   -5.3686292    659.27525  0.047690629  0.047697321            3 
 1153000    1.0657677   -5.3993838     657.2487  0.047502797  0.047688566            3 
 1154000    1.0668241   -5.3812151    657.53545  0.047482341  0.047679768            2 
 1155000    1.0600019   -5.3780307    659.59539  0.047589855  0.047670896            2 
 1156000    1.0664644   -5.3399941    659.81947  0.047564841  0.047662234            2 
 1157000    1.0431963   -5.4101024    658.13444  0.047402365  0.047653217            6 
 1158000    1.0456293   -5.3859184    658.88661  0.047415559  0.047643965            2 
 1159000    1.0635771   -5.3476111    660.63347  0.047500249   0.04763502            3 
 1160000    1.0609975   -5.3787284    661.01164  0.047486468    0.0476258            2 
 1161000    1.0637322   -5.3778498    662.09149  0.047523076  0.047616927            1 
 1162000    1.0675628   -5.3913545    663.04929  0.047550867  0.047607907            2 
 1163000    1.0589795   -5.4111877    660.71146  0.047342466  0.047598685            6 
 1164000    1.0575475   -5.3865159    660.24983  0.047268745   0.04758972            4 
 1165000    1.0593267   -5.3734017    664.54369  0.047535314  0.047580551            4 
 1166000    1.0343943   -5.3847302    661.90381  0.047305875  0.047571227            2 
 1167000    1.0736214   -5.3639611     663.4474  0.047375564  0.047562369            3 
 1168000     1.081101   -5.4081766    661.72073   0.04721181  0.047553144            2 
 1169000    1.0430235   -5.3903423    664.88523  0.047397008  0.047544053            2 
 1170000    1.0772137   -5.3834671    662.60507  0.047194093  0.047534902            1 
 1171000    1.0617561   -5.3572655    667.80477  0.047523823  0.047525589            4 
 1172000    1.0925401    -5.375751    666.83574  0.047414373  0.047516671            4 
 1173000    1.0621156   -5.4136866    664.94843  0.047239872  0.047507613            2 
 1174000    1.0673878   -5.4035233    669.15499  0.047498225   0.04749819            3 
 1175000    1.0729124   -5.4019139    665.28832  0.047183569  0.047489137            3 
 1176000    1.0786186   -5.3828796     667.2624  0.047283333  0.047480053            6 
 1177000    1.0557538   -5.3915079    668.91894  0.047360446  0.047471023            2 
 1178000    1.0619036   -5.3860209    666.82006  0.047171764  0.047461873            3 
 1179000    1.0585271   -5.3795493      668.883  0.047277565  0.047452806            4 
 1180000    1.0820557   -5.3961738    668.99609  0.047245486   0.04744382            4 
 1181000    1.0774072    -5.395036    668.75669  0.047188589  0.047434853            3 
 1182000    1.0337588   -5.4054911    669.26576  0.047184557  0.047425467            4 
 1183000    1.0725022   -5.4040243    669.55586  0.047165107  0.047416245            3 
 1184000     1.073235   -5.4168785    669.51318  0.047122268    0.0474073            1 
 1185000    1.0614408   -5.4387633    668.47784  0.047009694  0.047398204            2 
 1186000    1.0710553   -5.3786189    674.68746   0.04740637  0.047389603            5 
 1187000     1.081828   -5.4140865    674.39504  0.047345903  0.047380673            4 
 1188000    1.0605128   -5.4027047    674.92591  0.047343288  0.047371961            4 
 1189000    1.0513244   -5.4133934    675.34804  0.047333056  0.047363469            2 
 1190000    1.0675041    -5.378751    671.99011  0.047058131  0.047354766            3 
 1191000    1.0514456    -5.416315    674.37711  0.047185636  0.047345836            5 
 1192000    1.0607462   -5.3835295    674.45809  0.047151712  0.047336667            1 
 1193000    1.0603927    -5.403947    675.98255  0.047218675   0.04732766            6 
 1194000    1.0570159    -5.416709    673.96464  0.047038292  0.047319091            3 
 1195000     1.033854   -5.4032835    676.45123  0.047172331  0.047310008            4 
 1196000    1.0377921   -5.3855658    673.82081  0.046949611  0.047300956            3 
 1197000    1.0282744   -5.3676502    678.47237  0.047234222  0.047291938            2 
 1198000    1.0770227   -5.4087813    677.20592    0.0471067  0.047282721            3 
 1199000    1.0634231   -5.3828655    677.57184  0.047092844  0.047273515            3 
 1200000    1.0544439   -5.3717654    679.82128  0.047209811  0.047264358            7 
 1201000    1.0679665   -5.3991205    677.74242  0.047026258  0.047255149            2 
 1202000    1.0629709   -5.3770544    677.02359  0.046937298  0.047245784            2 
 1203000    1.0587299   -5.4107506      678.537  0.047003117  0.047236181            4 
 1204000    1.0647762   -5.4024212    677.97577  0.046925233  0.047226715            3 
 1205000    1.0766387   -5.3851112    679.75929  0.047009633  0.047217319            3 
 1206000    1.0483774     -5.41772    678.83094  0.046906505  0.047207995            3 
 1207000     1.066134   -5.4353353    678.81735  0.046866704  0.047198107            2 
 1208000    1.0728134   -5.3959116    680.61825  0.046952142  0.047188556            3 
 1209000     1.072897   -5.4005499    679.35708  0.046826377  0.047179379            5 
 1210000    1.0478918   -5.3916203    679.65234  0.046808012  0.047169988            4 
 1211000    1.0665768   -5.3874695    681.10189  0.046869109  0.047160507            3 
 1212000    1.0639069   -5.4300435    681.50901   0.04685843  0.047150994            3 
 1213000    1.0697619   -5.4062804    682.31371  0.046875083  0.047141593            5 
 1214000    1.0594762   -5.3948977    683.50049  0.046917936  0.047132203            2 
 1215000    1.0671006   -5.4232438    683.22707  0.046860567  0.047122845            2 
 1216000    1.0662318   -5.4158159    682.97202  0.046804551  0.047113193            4 
 1217000    1.0665548   -5.4429106    680.99989  0.046631052  0.047103411            5 
 1218000    1.0742524   -5.3943147    685.04712  0.046869671  0.047093517            4 
 1219000    1.0564441   -5.3993979    683.55986   0.04672955  0.047083657            2 
 1220000    1.0439028   -5.4397772    683.00157  0.046653113  0.047073982            3 
 1221000    1.0532875   -5.4199448    687.52099  0.046923355  0.047064435            2 
 1222000    1.0431025   -5.3887302    687.56309  0.046887826  0.047054943            2 
 1223000    1.0725661   -5.4613008    683.20466  0.046552512  0.047045342            3 
 1224000    1.0344855   -5.3734997    689.30631  0.046929896  0.047035404            4 
 1225000    1.0619294   -5.4271991    685.39148   0.04662527   0.04702583            3 
 1226000     1.056855   -5.4182801    686.63159  0.046671533  0.047016131            4 
 1227000    1.0350477   -5.4168072    686.39212  0.046617232  0.047006126            2 
 1228000    1.0370271   -5.3779459    688.27907   0.04670732  0.046996294            3 
 1229000    1.0587264    -5.415829    688.94875  0.046714724  0.046986515            3 
 1230000    1.0551673   -5.3974245    688.84378  0.046669633   0.04697682            5 
 1231000    1.0452463   -5.3751176    692.85303   0.04690313  0.046967459            5 
 1232000    1.0243721    -5.398367    687.81671  0.046524398  0.046958101            4 
 1233000    1.0679478   -5.3540769    692.19864  0.046782822  0.046948342            4 
 1234000    1.0620708    -5.398802     690.8745   0.04665549  0.046938843            3 
 1235000    1.0592463   -5.4220988    692.44778  0.046723872  0.046928948            2 
 1236000    1.0462894   -5.4226892     690.3408  0.046544013  0.046919185            3 
 1237000     1.048621   -5.3864871     691.8783  0.046609963  0.046909149            2 
 1238000    1.0563955   -5.4275759    690.70549  0.046493369  0.046899226            3 
 1239000    1.0691956   -5.4171418    692.23364  0.046558625  0.046889588            4 
 1240000    1.0830586   -5.4330151     691.0226  0.046439691  0.046879544            4 
 1241000    1.0465099   -5.4691852    688.31926   0.04622074  0.046869423            6 
 1242000    1.0706814   -5.4217467     691.7741  0.046415331  0.046859361            4 
 1243000    1.0489561   -5.4247802    695.26592  0.046612089  0.046849321            2 
 1244000    1.0541216   -5.4157808    695.37512  0.046581934  0.046839169            4 
 1245000    1.0852442   -5.4055722    694.05247  0.046455988  0.046829305            5 
 1246000    1.0447704   -5.3861705    693.84437  0.046404786  0.046819391            5 
 1247000    1.0403218   -5.4127312    691.80906  0.046231559  0.046809192            4 
 1248000    1.0710677   -5.3657315     696.2247  0.046489363  0.046798956            6 
 1249000    1.0662916    -5.428018    693.77777  0.046288882  0.046788868            2 
 1250000    1.0238753   -5.4158073    694.11061  0.046274041  0.046778353            6 
 1251000    1.0859541   -5.3993013    697.77382   0.04648107  0.046768005            1 
 1252000    1.0394382   -5.4092547     695.4672  0.046290415  0.046758138            2 
 1253000    1.0837105   -5.4160368     696.6587  0.046332715  0.046747797            5 
 1254000    1.0357442   -5.4334817    694.47382  0.046150573  0.046737756            3 
 1255000    1.0500296   -5.3937567    700.99542  0.046546841  0.046727807            2 
 1256000    1.0540692   -5.4223793    698.32552  0.046332638  0.046717486            3 
 1257000    1.0332223   -5.4320228    697.19605    0.0462209  0.046707235            2 
 1258000    1.0463163   -5.3942762    701.87743  0.046494266     0.046697            4 
 1259000    1.0653404   -5.4381195    700.60049  0.046372815  0.046686943            6 
 1260000    1.0510092   -5.4136366     702.3736   0.04645328  0.046676736            3 
 1261000    1.0356154    -5.410237    703.11624  0.046465519  0.046666814            6 
 1262000      1.05222   -5.4056342    700.98569  0.046288014  0.046656489            9 
 1263000    1.0567667   -5.4261761     700.8931  0.046245256  0.046646422            2 
 1264000    1.0356513   -5.3691238    704.31775  0.046434451  0.046636413            2 
 1265000     1.064209   -5.4438478    702.06299  0.046249209  0.046626413            4 
 1266000    1.0539212   -5.4145183    703.71641  0.046321512  0.046616496            5 
 1267000    1.0677571   -5.4325873    703.33871   0.04626011  0.046606458            3 
 1268000    1.0258075   -5.4589599    702.49145  0.046167945  0.046596194            4 
 1269000    1.0710375    -5.391775     703.1106  0.046172222  0.046585751            3 
 1270000     1.050306   -5.3923905    704.15215  0.046204209  0.046575268            6 
 1271000    1.0536219   -5.4317519     702.8742  0.046084067  0.046564959            3 
 1272000    1.0496667   -5.4002259    704.42675  0.046149551  0.046554209            2 
 1273000    1.0537947   -5.4339746    703.87238  0.046077008   0.04654359            3 
 1274000    1.0607673   -5.4426695    705.71152  0.046161141  0.046532713            7 
 1275000    1.0616883   -5.4328285     702.9464  0.045944209  0.046521971            3 
 1276000     1.059604   -5.4100503    703.91251  0.045971298  0.046511252            2 
 1277000    1.0450433   -5.4417469      704.315  0.045961564  0.046500388            6 
 1278000    1.0610416   -5.4437983    704.76567  0.045954986  0.046489388            3 
 1279000    1.0425358   -5.4157182    703.64484  0.045846028  0.046478651            2 
 1280000    1.0318297   -5.4486374    703.07961  0.045773412  0.046467385            4 
 1281000    1.0598574   -5.4572538    703.50164  0.045765134   0.04645664            3 
 1282000    1.0510122   -5.4298542    706.77478  0.045942198  0.046446217            5 
 1283000    1.0613099   -5.4307224    710.73333  0.046163506  0.046435974            6 
 1284000    1.0540564   -5.4187031    709.61782  0.046055154  0.046425636            4 
 1285000    1.0542476   -5.4440451    710.18767  0.046056269   0.04641523            5 
 1286000    1.0503789    -5.432987    709.33011  0.045964885  0.046405009            2 
 1287000    1.0606389   -5.4043899    711.02402  0.046038852  0.046394734            2 
 1288000    1.0471029   -5.4365801    709.70533  0.045917788  0.046384492            6 
 1289000    1.0437813   -5.4552631    710.80458  0.045953231  0.046373846            7 
 1290000    1.0464056    -5.472916    709.26681   0.04581827  0.046363224            2 
 1291000    1.0310455   -5.4156755    711.56382   0.04593105  0.046352546            3 
 1292000    1.0301727   -5.4320076    710.93893  0.045855194  0.046342036            2 
 1293000    1.0496811   -5.4405532    713.74383  0.046000505  0.046331978            3 
 1294000    1.0337771    -5.431874    713.43796  0.045945257  0.046321797            7 
 1295000    1.0613214   -5.4241177    714.85239  0.046000797  0.046311505            3 
 1296000    1.0389574    -5.455742     712.4833   0.04581297   0.04630101            2 
 1297000    1.0485831   -5.4429009    712.77023  0.045796083  0.046290329            4 
 1298000    1.0521828   -5.4065083    716.82985  0.046021434  0.046279978            5 
 1299000    1.0491406   -5.4503929    713.68683  0.045784375  0.046269462            4 
 1300000    1.0429925   -5.4363339    715.32116  0.045853921  0.046259068            3 
 1301000    1.0623976   -5.4348683    714.90622  0.045792097  0.046248752            2 
 1302000    1.0656345   -5.3997215    716.67948  0.045870423  0.046238789            2 
 1303000     1.046109   -5.4412219    718.30815   0.04593938  0.046228973            6 
 1304000    1.0728788   -5.4293648    718.52263  0.045917857   0.04621907            5 
 1305000    1.0442563     -5.41752    717.86595  0.045840737  0.046209099            2 
 1306000    1.0638707   -5.4418988    716.09407  0.045692577   0.04619917            3 
 1307000    1.0584083   -5.4392997    717.24189  0.045730801  0.046189092            2 
 1308000    1.0561987   -5.4160716    722.67812  0.046042184   0.04617904            4 
 1309000    1.0475077   -5.3856345    722.79123  0.046014211  0.046169158            2 
 1310000    1.0289115    -5.439583    720.68476  0.045845087  0.046159295            2 
 1311000    1.0388664   -5.4345484    720.39154  0.045791478  0.046149164            2 
 1312000    1.0333137   -5.4229243    723.23877  0.045937422  0.046139102            2 
 1313000    1.0435131   -5.4371373    723.80063  0.045938095  0.046129512            4 
 1314000    1.0266566   -5.3972234    723.27538  0.045869823  0.046119985            4 
 1315000    1.0480704   -5.4130054      723.064  0.045821546  0.046110656            5 
 1316000    1.0594571   -5.4524541    723.43765  0.045810388  0.046100984            3 
 1317000    1.0463399   -5.4409142    724.19382  0.045823451  0.046091668            4 
 1318000     1.063908   -5.4238108      728.072  0.046033889  0.046082233            7 
 1319000    1.0614955    -5.415015    726.28731  0.045886234  0.046072945            5 
 1320000    1.0533881   -5.4596533     728.0434  0.045962336  0.046063746            3 
 1321000    1.0512584   -5.4197413    727.32289   0.04588209  0.046054321            4 
 1322000    1.0292346   -5.4521346    730.17358  0.046027079  0.046044774            5 
 1323000    1.0052531   -5.4214615    727.75651  0.045840042  0.046035762            5 
 1324000    1.0561035   -5.4418231    729.73149  0.045929726  0.046026515            2 
 1325000    1.0445669   -5.4182543    728.67326  0.045828507  0.046017002            5 
 1326000    1.0349954   -5.3995217      730.606   0.04591541  0.046007759            6 
 1327000    1.0574263   -5.4391838    729.55966    0.0458151  0.045998782            5 
 1328000    1.0331805     -5.43352    732.08986  0.045939374  0.045989592            3 
 1329000    1.0583533   -5.4288438    733.22418  0.045975933   0.04598074            3 
 1330000    1.0554398   -5.4409649    733.03983  0.045929814  0.045972029            5 
 1331000    1.0327635   -5.4584975    732.79243  0.045879816  0.045963122            3 
 1332000    1.0258103   -5.4133468    736.35102  0.046068007   0.04595445            4 
 1333000    1.0409556   -5.4533368     733.6264  0.045863116  0.045945606            6 
 1334000    1.0408226     -5.44142     732.3164  0.045746902  0.045936649            4 
 1335000      1.03025   -5.3812668    736.19423  0.045954696  0.045928051            3 
 1336000    1.0309367   -5.4566972    733.41961  0.045747231   0.04591931            2 
 1337000    1.0543594   -5.4298308    736.49789   0.04590488  0.045910527            3 
 1338000     1.031427   -5.4442967    734.37209  0.045738172  0.045901751           10 
 1339000    1.0482036   -5.4379895    737.76014   0.04591487  0.045893066            5 
 1340000    1.0158451   -5.4514201    737.93916  0.045891739  0.045884241            4 
 1341000     1.005447    -5.406119    737.82206   0.04585024  0.045874985            2 
 1342000    1.0418702   -5.4745328    735.46598   0.04566977  0.045865876            3 
 1343000    1.0184673   -5.4212947    737.57081   0.04576637  0.045856536            6 
 1344000    1.0081524    -5.442051    738.95096  0.045817892  0.045847323            5 
 1345000    1.0542294   -5.4607056    736.43427  0.045627898  0.045838146            3 
 1346000    1.0465806   -5.4438271    737.82256  0.045679951   0.04582899            4 
 1347000    1.0332726   -5.4218325    737.54182   0.04562867   0.04581932            2 
 1348000     1.047917   -5.5035337    736.27962  0.045516791  0.045809888            5 
 1349000    1.0294761   -5.4401433    738.98693  0.045650292   0.04580069            4 
 1350000    1.0183623   -5.4309967    743.26657  0.045880652  0.045791424            6 
 1351000    1.0456203    -5.460061    741.08679  0.045712237  0.045782115            4 
 1352000    1.0391638    -5.452798    742.33033  0.045755075  0.045772966            3 
 1353000    1.0342353   -5.4255174    743.42918  0.045788937  0.045764106            5 
 1354000    1.0248749   -5.4263229    741.89243  0.045660539  0.045755285            2 
 1355000    1.0458755   -5.4471053    745.45864  0.045846165  0.045746472            2 
 1356000    1.0326218   -5.4229434    744.37314  0.045745645  0.045737523            3 
 1357000    1.0792976   -5.4519905    744.26402  0.045705233  0.045728815            6 
 1358000    1.0237167    -5.491556    744.56813  0.045690239  0.045719841            2 
 1359000    1.0527681   -5.4575444    743.73296  0.045605406  0.045710967            4 
 1360000    1.0285896   -5.4482328    745.00885  0.045650052  0.045702524            2 
 1361000    1.0084441   -5.4723675    745.26273  0.045632056  0.045693699            3 
 1362000    1.0077484   -5.4302393    747.30147  0.045723291     0.045685            5 
 1363000    1.0478943   -5.4457307    747.91592  0.045727312  0.045676534            7 
 1364000     1.020728   -5.4120724    751.20251  0.045894582   0.04566815            4 
 1365000    1.0174114    -5.484302    747.51226  0.045635669  0.045659605            5 
 1366000    1.0116436   -5.4350088    747.54666   0.04560436   0.04565085            5 
 1367000    1.0138532   -5.4231418    750.35758  0.045742354  0.045642364            2 
 1368000    1.0333146   -5.4284887    750.39549  0.045711226  0.045633808            3 
 1369000    1.0298519   -5.4533131    748.88751  0.045586043  0.045625206            4 
 1370000    1.0017512   -5.4752131    750.44985  0.045647801  0.045616686            2 
 1371000    1.0531396   -5.4697693    750.90517  0.045642182  0.045607877           12 
 1372000    1.0386785   -5.4282815    748.61661  0.045469911  0.045599098            5 
 1373000     1.015653   -5.4602771    750.48115   0.04554996  0.045590528            2 
 1374000      1.05082   -5.4158019    750.59854  0.045523929  0.045581724            4 
 1375000      1.00375   -5.4615281    752.62417  0.045613586  0.045573236            6 
 1376000     1.008345    -5.450837    752.33312   0.04556281  0.045564446            4 
 1377000    1.0347834   -5.4599719    751.91311  0.045504303  0.045555997            3 
 1378000    1.0329799    -5.417116     754.1352   0.04560566  0.045547117            3 
 1379000    1.0468906   -5.5072119    751.31685  0.045402275  0.045538314            5 
 1380000    1.0366862   -5.4470778    753.90996  0.045525964   0.04552939            6 
 1381000    1.0422479   -5.4624527     752.5336  0.045409944   0.04552075            5 
 1382000    1.0232276   -5.4548492    752.79311  0.045392735  0.045511865            4 
 1383000     1.034849   -5.4440526    756.86878  0.045605494  0.045503033            8 
 1384000     1.016659   -5.4400234    755.26351  0.045475885  0.045494145            2 
 1385000    1.0367251    -5.450585    754.54034  0.045399539  0.045485149            2 
 1386000    1.0275693   -5.4420071    753.95413  0.045331537  0.045476244            2 
 1387000    1.0266941   -5.4709199    755.88559    0.0454149  0.045467259            4 
 1388000    1.0348121   -5.4395023    755.53067  0.045360871  0.045458418            4 
 1389000    1.0264505   -5.4324066    758.33989  0.045496754  0.045449345            4 
 1390000    1.0246302   -5.4259501    756.94923  0.045380649  0.045440549            4 
 1391000    1.0275841   -5.4554418    756.02656  0.045292749  0.045431763            4 
 1392000    1.0359173   -5.4489455    758.06277   0.04538211  0.045422884            3 
 1393000    1.0415871   -5.4568504    760.01607  0.045466384   0.04541406            2 
 1394000      1.02011    -5.463527     759.3674   0.04539499  0.045405499            2 
 1395000    1.0307834   -5.5254742    755.82153  0.045150629  0.045396322            6 
 1396000    1.0212989   -5.4850483    756.80064  0.045176734  0.045387369            2 
 1397000    1.0147378    -5.435873     761.3424  0.045415318  0.045378511            3 
 1398000    1.0198986    -5.489147    758.97538  0.045241737  0.045369634            2 
 1399000    1.0370397   -5.4753785    758.90856  0.045205418  0.045360568            6 
 1400000    1.0464442   -5.4561414    762.35014  0.045377984  0.045351509            5 
 1401000    1.0274656    -5.474786    760.92923  0.045261077  0.045342348            3 
 1402000    1.0355536   -5.4889423    758.92353  0.045109577  0.045333208            3 
 1403000    1.0244825   -5.4410315    764.04119  0.045381396   0.04532392            4 
 1404000    1.0218436   -5.4490879    761.13419  0.045176531  0.045314602            2 
 1405000     1.034795   -5.4694186    757.90625  0.044952921  0.045305227            4 
 1406000    1.0196718   -5.4859866    759.49834  0.045015312  0.045295963            2 
 1407000    1.0317469   -5.4663249    760.67755   0.04505316  0.045286724            2 
 1408000       1.0271   -5.4756945    761.93072  0.045095331  0.045277304            3 
 1409000    1.0347972   -5.4695971    762.46808  0.045095107  0.045267884            3 
 1410000    1.0232386   -5.4767405    763.75708  0.045139308  0.045258434            4 
 1411000    1.0472225   -5.4724153    763.92005  0.045116941  0.045249264            3 
 1412000    1.0028281   -5.4873771     764.8268  0.045138503  0.045239934            3 
 1413000    1.0326878   -5.4480318    763.46232  0.045026086  0.045230494            4 
 1414000    1.0089179   -5.4338269    767.50806  0.045232677  0.045221425            5 
 1415000    1.0195645   -5.5251674     764.5987   0.04502937  0.045212249            3 
 1416000    1.0211639    -5.478141    764.92279  0.045016643   0.04520295            2 
 1417000   0.99991758   -5.4374448    765.18283  0.045000167  0.045193613            4 
 1418000    1.0254272   -5.4778109     766.2944  0.045033756  0.045184275           13 
 1419000    1.0464588   -5.5078897    764.43069   0.04489257  0.045174874            6 
 1420000    1.0432625   -5.5045853    767.46435  0.045038988  0.045165297            3 
 1421000    1.0218315   -5.4652896    768.28564  0.045055456  0.045155832            5 
 1422000    1.0254226   -5.4755748    768.78001  0.045052743  0.045146483            3 
 1423000    1.0192515   -5.4899382    767.89704  0.044969374  0.045137178            5 
 1424000    1.0096949   -5.4504964    769.33861  0.045022156  0.045128296            3 
 1425000    1.0188956   -5.4651088    767.90648  0.044906812  0.045119046            5 
 1426000    1.0199297   -5.4884524    770.93397  0.045052242  0.045110085            3 
 1427000    1.0282946   -5.4832414    767.54257  0.044822622  0.045100833            7 
 1428000    1.0195778   -5.5155604    770.69183  0.044975014  0.045091697            1 
 1429000    1.0133421   -5.4981024    773.12868  0.045085647   0.04508267            3 
 1430000    1.0240185   -5.4815494    771.42829  0.044955029  0.045073874            1 
 1431000     1.045452   -5.4660239    772.63526  0.044993901  0.045065175            3 
 1432000    1.0215314   -5.4823306    773.87619  0.045034695  0.045056549            4 
 1433000    1.0286929   -5.4601058    775.18696  0.045079493  0.045047826            3 
 1434000    1.0098244   -5.5243027    772.31165  0.044880965  0.045039104            3 
 1435000    1.0132718   -5.4851946    774.18663  0.044958573  0.045030026            3 
 1436000   0.99680068   -5.4757048    775.10081  0.044980316  0.045020965            4 
 1437000    1.0276607   -5.4714053    775.85345  0.044992661  0.045012003            2 
 1438000    1.0112552   -5.4636674    776.86095  0.045019759  0.045003409            3 
 1439000    1.0043907    -5.506186      777.883   0.04504766  0.044994584            3 
 1440000    1.0141052   -5.4379007    779.72301  0.045122859  0.044985968            3 
 1441000    1.0257531   -5.4812538    775.31763  0.044836782  0.044977158            3 
 1442000    1.0248207   -5.4829727    777.04527  0.044905529  0.044968532            3 
 1443000    1.0150481   -5.4511639    778.01981  0.044930689  0.044959959            4 
 1444000    1.0283078   -5.4528205    780.42483  0.045038367  0.044951265            2 
 1445000    1.0152136   -5.4875337    779.64469  0.044962208  0.044942845            2 
 1446000    1.0303471   -5.4770936     778.8447   0.04488501  0.044934167            5 
 1447000    0.9969853   -5.4714424    780.63834  0.044957287   0.04492544            3 
 1448000    1.0379165   -5.4785086    782.04851  0.045007396  0.044917081            5 
 1449000    1.0215953    -5.495186    781.73959  0.044958568  0.044908447            2 
 1450000     1.018053   -5.5059955     782.2931  0.044959374   0.04490029            8 
 1451000    1.0098815   -5.4384065    785.21067   0.04509595  0.044891928            4 
 1452000    1.0243109   -5.4785101    784.89284  0.045046651    0.0448839            3 
 1453000    1.0339301   -5.4647246    786.08432  0.045083983  0.044875814            1 
 1454000    1.0147777   -5.4350589    785.89374  0.045042053  0.044867742            2 
 1455000    1.0327976   -5.4411529    789.33578  0.045208235  0.044859561            3 
 1456000    1.0376036   -5.4511178    786.58257  0.045019607  0.044851318            3 
 1457000   0.99556169   -5.4587013    786.81761  0.045002151  0.044842974            3 
 1458000    1.0191938   -5.4969981    782.98576  0.044752272  0.044834609            3 
 1459000    1.0123508    -5.488327    789.54089  0.045096007  0.044826288            2 
 1460000    1.0192282   -5.4807248    786.26909  0.044878373  0.044818136            5 
 1461000   0.97863071   -5.4844538    788.74544  0.044988902   0.04480977            2 
 1462000    1.0020433   -5.4675076    784.27537  0.044703339   0.04480129            6 
 1463000     1.036419    -5.471629    787.66092  0.044865625  0.044792963            7 
 1464000    1.0135925   -5.5070678     787.6337   0.04483343  0.044784547            5 
 1465000    1.0012203   -5.4587441    789.40834  0.044903773  0.044776229            7 
 1466000    1.0127856   -5.4821798    787.57568  0.044768968  0.044768058            5 
 1467000     0.990907    -5.490765    789.57106  0.044851799  0.044759585            5 
 1468000    1.0164909   -5.5210065    788.68956  0.044771206  0.044751053            3 
 1469000    1.0073898   -5.4678456    789.96931  0.044813326  0.044742532            4 
 1470000    1.0089262   -5.5216489    791.22082  0.044853788  0.044734166            2 
 1471000    1.0337607   -5.5138401    790.51872  0.044783522  0.044725934            9 
 1472000    1.0282885   -5.4964189    790.87723  0.044773394   0.04471758            4 
 1473000    1.0340533   -5.4736017    795.03967  0.044978483  0.044709512            4 
 1474000    1.0038478   -5.4982047    792.14271  0.044784188  0.044701517            3 
 1475000    1.0160443   -5.4898093    792.45897  0.044771693  0.044693392            2 
 1476000    1.0382227   -5.4801136    796.66947   0.04497908   0.04468545            3 
 1477000    1.0105363   -5.5090958    794.87134  0.044847175  0.044677282            3 
 1478000     1.031501   -5.4926883    794.50446  0.044796147  0.044669302            5 
 1479000    1.0137622   -5.4922634    795.58909  0.044826971  0.044661629            2 
 1480000    1.0038885   -5.5103626    794.97881   0.04476232  0.044653666            2 
 1481000    1.0075576   -5.5087401    793.46049  0.044646663  0.044645627            4 
 1482000    1.0184063   -5.5241287    794.13754  0.044654608   0.04463728            6 
 1483000    1.0238881   -5.5044058    794.75818  0.044659372   0.04462897            3 
 1484000    1.0196347   -5.5222948    797.72733  0.044796009  0.044620432            3 
 1485000     1.025215   -5.5016593    796.01642  0.044669833  0.044612267            7 
 1486000   0.99738107   -5.5005266    799.65595  0.044843874  0.044604204            3 
 1487000   0.98967294   -5.5241117    797.18686  0.044675345  0.044595569            5 
 1488000    1.0015566   -5.5085555    799.64428  0.044782946  0.044587036            3 
 1489000     1.000895   -5.4983874    798.46617  0.044686936  0.044578534            6 
 1490000   0.99148466   -5.4913223    798.31235  0.044648342  0.044570085            2 
 1491000    1.0142607   -5.5238833    800.22319  0.044725195  0.044561809            3 
 1492000    1.0092057   -5.4966151     799.8635  0.044675129  0.044553403            4 
 1493000    1.0144209   -5.5065624     802.4167  0.044787715  0.044545175            3 
 1494000    1.0264471   -5.5046463    799.48322  0.044594111  0.044536809            1 
 1495000    1.0056051   -5.5013845    800.88942  0.044642666  0.044528662            2 
 1496000    0.9928619   -5.5259961    801.52159  0.044648038  0.044520464            3 
 1497000    1.0021657   -5.5122314    798.33187  0.044440652  0.044512173            4 
 1498000    1.0103321   -5.4810706    804.24671  0.044740026  0.044504074            4 
 1499000     1.030706    -5.497831    801.85544  0.044577243  0.044495884            8 
 1500000      1.01516   -5.5049319    802.92502  0.044606945  0.044487705            2 
 1501000   0.98995151   -5.4921903    805.62257  0.044726992  0.044479637            3 
 1502000   0.99326547   -5.5060222    802.90388  0.044546376  0.044471591            3 
 1503000    1.0230501   -5.4964585     806.5076  0.044716545  0.044463775            3 
 1504000    1.0176006   -5.4855155     805.8088  0.044648094  0.044455833            5 
 1505000    1.0135556   -5.4899202    804.99701  0.044573478  0.044447816            4 
 1506000    1.0058126   -5.4950756    808.14834  0.044718257  0.044439923            5 
 1507000    1.0168566   -5.5058113    806.47288  0.044595934  0.044431958            3 
 1508000    1.0014258   -5.4894515    809.48204   0.04473265  0.044424258            2 
 1509000    1.0109703   -5.4870644     807.3841  0.044587149  0.044416493            2 
 1510000    1.0415595   -5.4928579    808.21688   0.04460358   0.04440882            5 
 1511000    1.0135112   -5.5074878    807.19646  0.044517784  0.044400846            2 
 1512000   0.99421965   -5.5166531    808.89695  0.044582063  0.044393158            3 
 1513000    1.0045692   -5.5068805    809.50838  0.044586274  0.044385652            3 
 1514000    1.0161979   -5.4947837    809.08505  0.044533523    0.0443778            3 
 1515000    1.0243001   -5.5249907     806.9346  0.044385841  0.044369801            4 
 1516000   0.99712196   -5.5093917     806.5743  0.044336758  0.044362122            3 
 1517000    1.0350911   -5.5345451    809.19631  0.044451566  0.044354032            2 
 1518000    1.0087231   -5.5245404    812.49814  0.044603543  0.044346262            2 
 1519000    1.0180983   -5.5072117     810.5305  0.044466234  0.044338457            6 
 1520000   0.97698223   -5.5056422    811.49502  0.044489859  0.044330623            4 
 1521000    1.0066236   -5.5300864    809.88272  0.044372273  0.044322716            6 
 1522000   0.99201353   -5.5001513    813.48326  0.044540257  0.044314843            5 
 1523000    1.0014743   -5.4992035    812.98061  0.044483509  0.044306913            3 
 1524000   0.99029005   -5.5147196    813.83415  0.044500993  0.044299018            5 
 1525000   0.98172452   -5.5387465    812.86702  0.044418963  0.044290886            3 
 1526000    1.0239831   -5.5226264    812.81717  0.044387132  0.044282914            2 
 1527000    1.0090706   -5.5142263    812.49673  0.044340577  0.044275143            2 
 1528000    1.0066371   -5.4944254    817.74605  0.044597843  0.044267356            2 
 1529000    1.0174569   -5.5001926    813.39045  0.044331287  0.044259626            5 
 1530000   0.98832061   -5.5298061    814.27758  0.044350631  0.044251699            3 
 1531000   0.97910278   -5.5484626     812.9716  0.044250577  0.044243802            4 
 1532000    1.0069275   -5.5469804     815.7793  0.044374418  0.044235714            5 
 1533000    1.0156997    -5.537373    816.48686  0.044383935    0.0442279            5 
 1534000   0.98255692   -5.5038088    815.70129  0.044312326  0.044219851            4 
 1535000    1.0311083    -5.496768     817.5996  0.044386515  0.044211726            5 
 1536000    1.0005875   -5.5300278    815.66874  0.044252861  0.044203586            3 
 1537000    1.0119859   -5.5022184     820.7997  0.044502261  0.044195523            4 
 1538000    1.0189175   -5.5252316     818.6453  0.044356594   0.04418748           10 
 1539000     1.002967   -5.5131726    817.63984  0.044273329  0.044179386            4 
 1540000    1.0058435   -5.5261582    818.30281  0.044280455  0.044171423            4 
 1541000     1.013596   -5.5282657    819.46553  0.044314597  0.044163633            7 
 1542000    1.0335545   -5.5258287    819.83827  0.044306003   0.04415568            4 
 1543000   0.99152009   -5.5071042    820.75347  0.044326716  0.044147597            3 
 1544000    1.0123171   -5.4901717    823.57542  0.044450314  0.044139565            2 
 1545000    1.0068246   -5.4802109    820.29552  0.044244634  0.044131949            5 
 1546000    1.0155218   -5.5025657    823.05413  0.044364711   0.04412391            5 
 1547000    1.0056733    -5.504565    823.85948  0.044379416  0.044115974            4 
 1548000    1.0117337    -5.561848    820.84063  0.044188233  0.044107828            5 
 1549000   0.99769957   -5.5100445    824.63502  0.044363838  0.044099819            3 
 1550000   0.99117883   -5.5426203    822.43903  0.044217152  0.044091809            3 
 1551000   0.97579761   -5.5177789    820.70506  0.044095479  0.044083822            3 
 1552000   0.97178048   -5.5190654    823.40825  0.044212213   0.04407572            5 
 1553000    1.0186646   -5.5045969    821.81768  0.044098394  0.044067489            3 
 1554000   0.98393983   -5.5206297    825.50199  0.044267589  0.044059391            2 
 1555000    1.0049305    -5.507054    822.86614  0.044097864  0.044051543            1 
 1556000   0.99148763   -5.5534587    825.67363  0.044219882    0.0440435            4 
 1557000    1.0034119    -5.515786    824.59493  0.044133747  0.044035485            2 
 1558000   0.97904523   -5.5573646    824.03714  0.044075585  0.044027384            3 
 1559000   0.98349435   -5.5211694    825.77883  0.044140412  0.044019197            2 
 1560000    1.0021861   -5.5453509     824.4762  0.044042532  0.044011057            4 
 1561000   0.99789452   -5.5147129     829.2651  0.044269971    0.0440027            5 
 1562000    1.0024974   -5.5472305    825.69021  0.044050908  0.043994339            4 
 1563000    1.0024927   -5.5695842    825.64568   0.04402035  0.043985746            3 
 1564000    1.0204572    -5.545443    824.42338  0.043927077  0.043977322            6 
 1565000    1.0078234    -5.539955     826.6014  0.044014984  0.043968982            7 
 1566000    1.0070194   -5.5122677    828.32806   0.04407876  0.043960711            4 
 1567000   0.99088993   -5.5159906    827.20563   0.04399094  0.043952341            7 
 1568000    1.0073857   -5.5266602    827.47584  0.043977245  0.043944129            3 
 1569000   0.98508015   -5.5176598    827.96113  0.043974991  0.043935857            3 
 1570000    1.0192589   -5.5382486    827.14556  0.043903692   0.04392733            3 
 1571000    1.0097998   -5.5486329    825.23249  0.043774267  0.043918568            1 
 1572000   0.98512614   -5.5266051    827.87957  0.043886746  0.043909892            5 
 1573000   0.99212619   -5.5163464    827.80045  0.043854654  0.043901549            3 
 1574000    0.9783924   -5.5029247    830.87212  0.043989418   0.04389303            2 
 1575000   0.98971465   -5.5470879    830.43948  0.043938597  0.043884543            4 
 1576000   0.99747325   -5.5370272    829.21646  0.043846048  0.043875943            2 
 1577000    1.0109928   -5.5073625    828.92475   0.04380283  0.043867172            2 
 1578000   0.99658137   -5.5554452    828.59244  0.043757522  0.043858283            4 
 1579000   0.98005018    -5.544897    827.67539  0.043681412   0.04384945            4 
 1580000    1.0076799   -5.5374272    828.97076  0.043722086  0.043840541            2 
 1581000     1.002016   -5.5188308    832.40677  0.043875541  0.043831916            2 
 1582000     1.000266   -5.5372376    831.21724  0.043785147  0.043822927            5 
 1583000    1.0089756   -5.5525084    826.67536  0.043518391  0.043813785            2 
 1584000   0.96714941   -5.5438715    830.19463  0.043676064  0.043804703            3 
 1585000   0.99052144   -5.5637775     831.3423  0.043708848  0.043795568           13 
 1586000    1.0160364   -5.5296252    834.12161  0.043827323  0.043786731            3 
 1587000   0.99117929   -5.5386478    830.33148  0.043600687  0.043777912            3 
 1588000    1.0051785   -5.5266876    834.64884  0.043799792  0.043769111            4 
 1589000   0.97280805   -5.5283096    833.71164  0.043723077  0.043760524            2 
 1590000    1.0112306   -5.5232794    834.13528  0.043717782  0.043751702            3 
 1591000   0.99254603   -5.5369556    833.02066  0.043631922  0.043743046            4 
 1592000   0.98528391   -5.4955308    835.87285  0.043753814  0.043734039           14 
 1593000    1.0099287   -5.5184308    832.49716  0.043549757  0.043725308            4 
 1594000   0.99367787   -5.5468741    834.92724  0.043649479  0.043716334            6 
 1595000    1.0048881   -5.5188864    832.91073  0.043516757  0.043707481            4 
 1596000    1.0024184   -5.5622899     833.6726  0.043529271  0.043698738            6 
 1597000   0.99205135   -5.4945173     836.3963   0.04364414  0.043689933            2 
 1598000   0.99026766   -5.5027296    837.54244  0.043676598  0.043681314            7 
 1599000   0.98540561    -5.546511    835.27138  0.043530924  0.043672348            6 
 1600000    1.0106258   -5.5290982    838.61332  0.043677777  0.043663523            3 
 1601000    0.9914709   -5.5027846    838.89437  0.043665124  0.043654517            3 
 1602000    1.0058928   -5.5370878    836.92707  0.043535532  0.043645546            3 
 1603000   0.99565063   -5.5490482     837.8826  0.043558047  0.043636614            2 
 1604000   0.97936047   -5.5338997    836.98994  0.043484515  0.043627535            4 
 1605000    0.9949428   -5.5126957    841.28891  0.043680629  0.043618538            4 
 1606000   0.99431345   -5.5401626    839.84215   0.04357836  0.043609609            3 
 1607000   0.99457245     -5.48817    844.28618  0.043781694  0.043600655            6 
 1608000    1.0109011    -5.565922    838.77991  0.043469108  0.043591793            4 
 1609000   0.99790797   -5.5141232    842.52281  0.043635944  0.043582838            3 
 1610000    1.0035609   -5.5260039    840.31211  0.043494416  0.043573998            3 
 1611000    1.0027619   -5.5391196    840.93768  0.043499777  0.043565465            6 
 1612000   0.99036299   -5.5268915    844.36423  0.043649929  0.043556839            7 
 1613000   0.99261279    -5.507828    844.51975  0.043630903  0.043548224            4 
 1614000   0.99201465   -5.5640312    841.85482  0.043466276  0.043539569            2 
 1615000   0.99942486   -5.5250185    844.35587  0.043568415  0.043530863            4 
 1616000    1.0061773   -5.5213835     842.2969  0.043435278  0.043522133            5 
 1617000    1.0085001   -5.5397257    844.72749  0.043533678  0.043513492            5 
 1618000   0.99328247   -5.5378138    846.28017  0.043586741  0.043504822            3 
 1619000   0.98246867   -5.5361103    844.85455   0.04348644  0.043496286            3 
 1620000   0.99629764   -5.5542331    846.55241  0.043546935  0.043487831            6 
 1621000   0.95659565   -5.5878972    843.87997  0.043382684   0.04347939            8 
 1622000   0.98467602   -5.6029738    843.25503   0.04332383   0.04347078            5 
 1623000   0.98861985   -5.5438706    845.42978    0.0434088  0.043462197            3 
 1624000   0.97261236   -5.5332296    848.19513   0.04352397  0.043453715            2 
 1625000    0.9744897   -5.5258069    848.94206   0.04353549  0.043445132            5 
 1626000   0.99278313   -5.5455075    845.93415  0.043354559  0.043436561            4 
 1627000   0.99533142   -5.5425232    847.76798  0.043421839  0.043427775            4 
 1628000    1.0000947   -5.5565602    846.64356   0.04333761  0.043418872            6 
 1629000   0.99140669   -5.5421857    849.67412  0.043466038  0.043409882            4 
 1630000   0.98198546   -5.5464315     849.1415  0.043412142  0.043401051            3 
 1631000   0.99664661   -5.5416075    847.29866  0.043291368  0.043392159            7 
 1632000   0.97577004   -5.5391241    850.01608  0.043403599   0.04338341            3 
 1633000   0.96775606   -5.5415869    847.68325  0.043257973  0.043374689            2 
 1634000    1.0031146   -5.5373595    849.89498  0.043344297   0.04336587            5 
 1635000   0.99594358   -5.5627298    849.45461  0.043295342  0.043356966           11 
 1636000   0.99769616   -5.5548424    850.95931  0.043345523  0.043348264            3 
 1637000   0.97431466   -5.5650701     851.0448  0.043323397  0.043339732            9 
 1638000   0.96924723   -5.5517624    850.39264  0.043263769  0.043331027            3 
 1639000   0.98010039   -5.5519175    853.98435  0.043419989    0.0433224            5 
 1640000   0.98191215   -5.5498984    850.57841  0.043220448   0.04331383            5 
 1641000   0.98552077   -5.5582621    852.59539  0.043296536  0.043305093            4 
 1642000   0.97486844   -5.5734243    851.70213  0.043224834  0.043296357            4 
 1643000   0.97669623   -5.5361777    852.38013  0.043232914  0.043287655            7 
 1644000   0.99265201   -5.5692124     854.6959  0.043324001   0.04327886            3 
 1645000   0.99931199   -5.5775722    853.01851   0.04321269  0.043270108            4 
 1646000   0.98481631   -5.5477892    854.98489  0.043285991  0.043261465            3 
 1647000    0.9934794   -5.5634422     852.5333  0.043135666  0.043252771            5 
 1648000   0.98461395   -5.5643912    853.47028  0.043156871  0.043244012            2 
 1649000   0.97567317   -5.5174453    858.09804  0.043364567   0.04323535            3 
 1650000   0.97345201   -5.5419409    854.62745  0.043163002  0.043226749            9 
 1651000    1.0067818   -5.5521619    857.00083  0.043256654   0.04321813            5 
 1652000   0.97791888   -5.5458824    855.11479   0.04313533  0.043209528            7 
 1653000    1.0068519   -5.5393317    856.78426  0.043193399  0.043200828            4 
 1654000   0.99443772     -5.54722    856.60572  0.043158289  0.043191942            6 
 1655000   0.99014416   -5.5181012    856.95482  0.043149789  0.043183054            2 
 1656000    1.0015301   -5.5514283    857.83508  0.043168029  0.043174183            4 
 1657000   0.99466644   -5.5511497    856.97165  0.043098554  0.043165206            3 
 1658000   0.98658273    -5.528273    861.31118   0.04329067  0.043156299            3 
 1659000   0.99596267   -5.5632439    855.51523  0.042973439  0.043147439            4 
 1660000   0.99000673   -5.5266139    857.26033  0.043035157  0.043138327            6 
 1661000   0.98534902   -5.5392254    858.08386  0.043050565  0.043129311            4 
 1662000    0.9864207   -5.5354792    857.74763  0.043007803  0.043120381            5 
 1663000    1.0017732   -5.5601488    856.27204  0.042907999  0.043111356            3 
 1664000     1.002947   -5.5770844    857.88719  0.042963101  0.043102311            7 
 1665000   0.96827993   -5.5801444     857.4576  0.042915796  0.043093088            3 
 1666000   0.99355123   -5.5710742    859.92153  0.043013282  0.043084093            3 
 1667000   0.97801195   -5.5770778    856.13081  0.042797981  0.043074948            5 
 1668000   0.98597017   -5.5754707      854.021  0.042666917  0.043065675            6 
 1669000   0.95219551   -5.5381811    859.35997  0.042907927  0.043056233            2 
 1670000    1.0039744   -5.5410319    860.74398  0.042951297  0.043047098            3 
 1671000    0.9669529   -5.5373134    862.31022  0.043003701  0.043037914            5 
 1672000   0.97699517   -5.5844488    857.19062  0.042722818  0.043028599            3 
 1673000    1.0032596   -5.5424927    861.36078     0.042905  0.043019434            2 
 1674000    1.0135702   -5.5328191    861.77666  0.042900073  0.043010538            1 
 1675000   0.97325158   -5.5920827    861.44495  0.042857958  0.043001308            4 
 1676000   0.96760675   -5.5828376    860.41189  0.042781021  0.042991985            3 
 1677000   0.97919215    -5.585256    860.32264  0.042751075  0.042982359            6 
 1678000    1.0018712   -5.5706779    862.34044  0.042825806  0.042972933            3 
 1679000   0.98692107    -5.551346    862.89995   0.04282807   0.04296356            5 
 1680000   0.97963391   -5.5822558    861.99028  0.042757455  0.042954264            3 
 1681000   0.96553603   -5.5421619    863.69602  0.042816578  0.042944893            6 
 1682000   0.98258851   -5.5771436    865.39935  0.042875513  0.042935437            3 
 1683000   0.97847915   -5.5668068    863.37585  0.042749844  0.042926227            6 
 1684000   0.96523041   -5.5353573    866.34149  0.042871214  0.042917088            4 
 1685000   0.95964121   -5.5564251    865.30486  0.042794503  0.042907864            7 
 1686000   0.99152224   -5.5402879    866.46405  0.042826416  0.042898513            3 
 1687000    0.9890317   -5.5431861    867.15166  0.042834996  0.042889211            5 
 1688000   0.98094205   -5.5865076    866.74541  0.042789564   0.04288003            4 
 1689000   0.99707665   -5.5965086    864.61318  0.042659028  0.042870649            3 
 1690000   0.98095097   -5.5737593    865.99235  0.042701792   0.04286168            5 
 1691000   0.98689853   -5.5306071    868.71007  0.042810471  0.042852645            2 
 1692000   0.97862783   -5.5620235    868.39645  0.042769723  0.042843662            6 
 1693000    0.9822854   -5.5277558    867.35263  0.042693081  0.042834576            3 
 1694000    1.0021119   -5.5812784    865.47109  0.042575319  0.042825657            2 
 1695000   0.96779924   -5.5258081    867.40494  0.042645277  0.042816658            3 
 1696000   0.97173195    -5.582572    869.66622  0.042731241  0.042807455            4 
 1697000   0.98636896   -5.5425471    870.89736  0.042766518  0.042798189            3 
 1698000   0.97183646   -5.5403031    868.82789  0.042639767  0.042788923            4 
 1699000   0.96720858   -5.5637397    869.70668  0.042657773   0.04277968            3 
 1700000   0.98017544    -5.566012      867.088  0.042504314  0.042770235            5 
 1701000   0.99945415   -5.5587695    871.78721  0.042709544  0.042760948            3 
 1702000   0.98001395   -5.5891072    868.21016   0.04250931  0.042751641            5 
 1703000    0.9909093   -5.5487166    870.22743  0.042583061  0.042742081            3 
 1704000   0.97414938   -5.5799072    870.38509  0.042565781  0.042732529            4 
 1705000   0.97406319   -5.5683249    868.95757  0.042471045  0.042723016           10 
 1706000   0.97932127   -5.5370703    870.53884   0.04252339  0.042713662            4 
 1707000   0.99291001   -5.6031897    868.52575  0.042400202  0.042704211            4 
 1708000   0.96883588   -5.5906285    869.08518  0.042402673  0.042694699            4 
 1709000   0.96969357   -5.5845262    868.34122  0.042341585  0.042684957            4 
 1710000   0.99128119   -5.5654118    874.06222  0.042595625   0.04267527            3 
 1711000    0.9926741   -5.5436885    871.77489  0.042459326  0.042665519            3 
 1712000    0.9697405    -5.578647    869.36912  0.042317422  0.042655636            6 
 1713000   0.96875371   -5.5506434    871.97338  0.042419409  0.042645782            4 
 1714000   0.98847125   -5.5734986    872.42245  0.042416494  0.042635974            3 
 1715000   0.98235707   -5.5626479    871.73557  0.042358385  0.042626077            5 
 1716000   0.97143609   -5.5789839    868.53778  0.042178408  0.042616081            8 
 1717000   0.98386966   -5.5884189    871.91475  0.042317741  0.042606347            3 
 1718000   0.98310103   -5.5613912    871.71179  0.042283265  0.042596596            7 
 1719000   0.98467666    -5.606537    869.55411  0.042154068  0.042586856            2 
 1720000   0.97678265   -5.5789929     872.9589   0.04229452  0.042577216           10 
 1721000   0.97824949   -5.5889397    873.70298  0.042305974  0.042567717            4 
 1722000   0.97497098   -5.5584751    876.84903  0.042433654  0.042558205           10 
 1723000   0.97812436   -5.5959654    876.65186   0.04239949  0.042548635            5 
 1724000   0.97688117   -5.5351376     877.4387   0.04241293   0.04253923            4 
 1725000   0.97269311   -5.5649374    876.86164  0.042360466   0.04252985            4 
 1726000    1.0043542   -5.5674747    878.32598  0.042406623  0.042520413            6 
 1727000   0.98264686   -5.5964799    874.35997  0.042190695  0.042510759            5 
 1728000   0.98562591   -5.6012742    873.90516  0.042144346  0.042500901            7 
 1729000   0.98280367   -5.5633264    876.01458  0.042221639   0.04249138            7 
 1730000   0.94180779     -5.60885    873.71831  0.042086624    0.0424817            3 
 1731000   0.96605999   -5.5949746    876.23005   0.04218323  0.042471989            5 
 1732000    0.9434888   -5.5712455    876.90162  0.042191187  0.042462367            5 
 1733000   0.97020643   -5.5773624    876.41882  0.042143625   0.04245288            9 
 1734000   0.96174971   -5.5744936    880.31752  0.042306686  0.042443128            4 
 1735000   0.98637133   -5.5798572    880.21798  0.042277521   0.04243345            5 
 1736000   0.99957004   -5.5629011    879.79178  0.042232708  0.042423832            8 
 1737000   0.98091837   -5.5918851    879.03907  0.042172283  0.042414371            2 
 1738000   0.96185291   -5.5856882    881.94162  0.042287189  0.042404761            5 
 1739000    0.9789454    -5.559079       878.72  0.042108491  0.042395281            4 
 1740000   0.96193362   -5.5931689    881.58108  0.042221316  0.042385629            3 
 1741000    0.9741769   -5.5925429    882.80076  0.042255445  0.042376149            3 
 1742000   0.97131292   -5.5910589    880.73181  0.042132214  0.042366606            7 
 1743000   0.97450842   -5.6102653      883.533  0.042241968  0.042357169            4 
 1744000   0.97494375   -5.5629891    884.60147  0.042268801  0.042347853            3 
 1745000   0.99466845   -5.5817613    884.49822  0.042239648  0.042338495            3 
 1746000   0.96805206   -5.5736842    885.22993  0.042250378  0.042329221            6 
 1747000   0.94512221   -5.5824268    884.55848  0.042194165  0.042320036            5 
 1748000   0.98246637   -5.5915873    883.70886  0.042129522  0.042310659            4 
 1749000   0.98761601   -5.5917743    886.18414  0.042223373  0.042301473           11 
 1750000   0.97260587   -5.5794212    887.47542  0.042260734   0.04229228            8 
 1751000   0.97531052   -5.5784332    888.01842  0.042262441   0.04228326            3 
 1752000    0.9642444    -5.575204    885.57158  0.042121936  0.042274237            8 
 1753000   0.97041053   -5.6234304    886.50854  0.042142448  0.042265091            5 
 1754000   0.96447728   -5.5884672    886.31056  0.042109016   0.04225601            6 
 1755000   0.97781614   -5.5756516    886.89879  0.042112953  0.042246941            4 
 1756000   0.97618825    -5.619334    890.39116  0.042254706  0.042237757            2 
 1757000   0.94459981     -5.60168    884.14301  0.041934311  0.042228603            3 
 1758000   0.94852396   -5.5776881    887.28758  0.042059517  0.042219335            4 
 1759000   0.96701844   -5.5901439    886.99422  0.042021708  0.042210089            5 
 1760000   0.96008774   -5.5347109    891.10348    0.0421924  0.042200903            1 
 1761000   0.98366487   -5.5883051    889.51115  0.042093089   0.04219188            3 
 1762000   0.95307621   -5.5797709    890.07107  0.042095681  0.042182686            3 
 1763000   0.96246962   -5.5974832    891.72674  0.042150063  0.042173645            5 
 1764000   0.97900352   -5.5932508    889.46904  0.042019512  0.042164587            2 
 1765000    0.9572072    -5.594927    889.42651  0.041993698  0.042155327            6 
 1766000   0.95001402   -5.5759102    889.24391  0.041961302  0.042146133            6 
 1767000   0.98126696   -5.5683062    892.32055  0.042082652  0.042136903            5 
 1768000   0.98519766   -5.5925312    891.35021  0.042013113  0.042127821            6 
 1769000   0.95959855   -5.6065899    890.19058  0.041934736  0.042118652            9 
 1770000   0.95704838   -5.6015827    889.79235  0.041892295  0.042109316            2 
 1771000   0.97860186    -5.606148    888.78266   0.04182113  0.042100016            6 
 1772000     1.009583   -5.5678046    891.35726  0.041918607  0.042090724            4 
 1773000   0.98265532   -5.5689488    894.86951  0.042060045  0.042081719            4 
 1774000   0.96258464   -5.5495392    895.15666  0.042049824  0.042072503            6 
 1775000    0.9707554   -5.6307173    889.93306  0.041780895  0.042063166            3 
 1776000   0.93096425    -5.576325    891.36518  0.041824567  0.042053883            3 
 1777000   0.95510569   -5.6014998    891.69824   0.04181665  0.042044458            2 
 1778000   0.96377257   -5.6075336    892.49441  0.041830447   0.04203521            3 
 1779000   0.95993745   -5.5747659    895.40073  0.041943074  0.042026049            7 
 1780000   0.95177088   -5.6269016    892.51715  0.041784511  0.042016603            4 
 1781000   0.96942205   -5.6070638    893.60828  0.041812103  0.042007098            5 
 1782000    0.9469565   -5.5821297    893.40391  0.041779083   0.04199786            6 
 1783000   0.97866745   -5.5769404    894.48204   0.04180604  0.041988639            3 
 1784000   0.96756331   -5.6128814    896.60368  0.041881711  0.041979303            4 
 1785000   0.98484921   -5.5852241    896.72496   0.04186391  0.041970151            4 
 1786000   0.96808227   -5.6409473    896.22509  0.041817147  0.041960767            4 
 1787000   0.99049133   -5.5788563     898.0321  0.041878013  0.041951322            2 
 1788000   0.95360706   -5.5913265    900.85815  0.041986305  0.041942104            5 
 1789000   0.97481284   -5.6142374    896.99689  0.041782974  0.041933011            3 
 1790000   0.96111907   -5.6317958    896.47973  0.041735555  0.041923839            4 
 1791000   0.97615199   -5.5768426    898.49986  0.041806247   0.04191461            5 
 1792000   0.96672872   -5.6078099    899.25192   0.04181789  0.041905731            3 
 1793000   0.96431383    -5.608986    899.70761  0.041815747  0.041896729            6 
 1794000   0.94336641   -5.5725021    901.17821  0.041860749   0.04188779            3 
 1795000   0.97702597   -5.6053803    898.68123  0.041721505   0.04187873            6 
 1796000   0.94364847   -5.6256979    899.58748  0.041740325  0.041869422            3 
 1797000   0.95150367   -5.6185481    898.48791  0.041666106  0.041860265            5 
 1798000   0.97865852    -5.636375    899.60076   0.04169451  0.041851154            2 
 1799000   0.97090581   -5.5991231    899.56419   0.04166964  0.041841975            5 
 1800000   0.94393956   -5.6276208    900.39116  0.041684776  0.041832949            6 
 1801000   0.97694945   -5.5871153     903.7828  0.041818564  0.041823958            5 
 1802000   0.95444174   -5.6243318    901.62668  0.041695647  0.041814927            8 
 1803000   0.97437384    -5.615745    902.86536  0.041729773  0.041805936            6 
 1804000   0.96152857   -5.6185421    902.01792  0.041667494  0.041796748            5 
 1805000   0.97041962   -5.6116442    904.99669  0.041781934  0.041787647            4 
 1806000   0.96802799   -5.5915452    904.42395  0.041732371  0.041778775            4 
 1807000   0.97096938   -5.5776927    906.93733  0.041825186  0.041769821            3 
 1808000     0.945603   -5.6251848    902.03613  0.041576149  0.041760742            3 
 1809000   0.97808622   -5.6151205    901.78849  0.041541758  0.041751731            4 
 1810000   0.94637622   -5.6072408     902.4373  0.041548678   0.04174278            7 
 1811000   0.96601136   -5.6130498    905.46089  0.041664867  0.041733724            5 
 1812000   0.96479174   -5.5929449    908.42342  0.041778119   0.04172479            2 
 1813000   0.96685105   -5.6164471    906.13113  0.041649712  0.041715801           12 
 1814000   0.95667724   -5.6088628    905.99664  0.041620573  0.041706792            8 
 1815000   0.94540071   -5.6295135    907.13283  0.041649808  0.041697816            4 
 1816000   0.96336264   -5.6029637    906.52014  0.041598758  0.041688957            4 
 1817000   0.95765695   -5.6076418     906.4579  0.041573009  0.041679927            2 
 1818000   0.93015635   -5.5964335    910.34902  0.041728503  0.041671243            4 
 1819000   0.95063043    -5.630831    906.94865  0.041549783  0.041662562            5 
 1820000   0.96586243   -5.6079975    912.77288   0.04179363  0.041653749            4 
 1821000   0.97603808   -5.6358805    909.26781  0.041610279  0.041645103            4 
 1822000   0.97648535   -5.5709663    914.74468  0.041837938  0.041636646            3 
 1823000   0.95947613   -5.6160063    911.77837  0.041679391  0.041628079            1 
 1824000   0.95502556   -5.5988146    912.10265  0.041671356  0.041619449            5 
 1825000   0.98327376   -5.6112134    912.02706  0.041645071  0.041610791            6 
 1826000   0.95127303   -5.6386698    911.95581  0.041619013  0.041602084           12 
 1827000   0.96101708   -5.5825948    912.81147  0.041635261  0.041593441            3 
 1828000   0.96911618   -5.6033048    913.64544  0.041650503  0.041584844            7 
 1829000   0.94365133   -5.6172037    913.67502  0.041629079  0.041576132            9 
 1830000   0.95632823   -5.5763334    915.38963  0.041684409  0.041567317            3 
 1831000   0.96790795    -5.598122    915.30735  0.041657899  0.041558656            9 
 1832000   0.93606116   -5.6261243    913.02254  0.041531229  0.041549909            5 
 1833000   0.95564402   -5.6346426     912.0137  0.041462707  0.041541035            4 
 1834000   0.96482358   -5.6253733    912.03364  0.041441005  0.041532183            6 
 1835000   0.96886375   -5.6025048      915.738  0.041586649  0.041523407            4 
 1836000   0.98675456   -5.6219011    914.79984  0.041521416  0.041514624            4 
 1837000   0.97094496    -5.597138     915.9926  0.041552921   0.04150581            3 
 1838000   0.95170851   -5.5739234    915.27721  0.041497879  0.041497001            9 
 1839000   0.95875739   -5.6255879    915.94921  0.041505764  0.041488294            3 
 1840000   0.96496151   -5.6070173    916.24534  0.041496619  0.041479395            4 
 1841000    0.9767082   -5.6224291    914.87485  0.041412043  0.041470537            6 
 1842000   0.94400432   -5.6266299    914.97911  0.041394278   0.04146175            3 
 1843000   0.95587622   -5.6369399    915.69639   0.04140425  0.041452863            3 
 1844000   0.92734014   -5.6219083    915.10239  0.041354952  0.041444164           14 
 1845000   0.94369907   -5.6368319    917.72037  0.041450785  0.041435369            3 
 1846000   0.94706985   -5.6092843    918.13214  0.041446919  0.041426669            4 
 1847000   0.96574781   -5.6027574    917.73963  0.041406769  0.041417745            5 
 1848000    0.9603588   -5.6117808    917.10943  0.041355945  0.041408805            4 
 1849000   0.96783587   -5.6315143     919.2483  0.041429976  0.041400159            3 
 1850000   0.93418479   -5.6247936    918.86501  0.041390316  0.041391564            4 
 1851000   0.94669271   -5.6275673    920.18076  0.041427191  0.041382766            6 
 1852000   0.95046162   -5.6427504     920.5248  0.041420302   0.04137394            5 
 1853000   0.97092008   -5.6456893     917.8002  0.041275418  0.041365022            7 
 1854000   0.96931522   -5.6223262    919.05511  0.041309561   0.04135611            7 
 1855000   0.93325815   -5.6159163     921.2415  0.041385512  0.041347259            7 
 1856000   0.97483705   -5.5926043    922.66681   0.04142721  0.041338475            2 
 1857000   0.95257338   -5.6065333    922.56085  0.041400146  0.041329921            2 
 1858000   0.97431806   -5.6422498    915.29602  0.041052028  0.041321252            2 
 1859000    0.9467873   -5.6188129    925.84754  0.041502938  0.041312511            7 
 1860000   0.95965236   -5.6145992    923.46668  0.041373955  0.041303679            6 
 1861000   0.97577101   -5.6183973     921.6968   0.04127247  0.041294852            3 
 1862000   0.94314537   -5.5933924    923.90908  0.041349314  0.041286063            5 
 1863000   0.96558851   -5.6187749     920.7881  0.041187516  0.041277222            3 
 1864000   0.98010705   -5.6342906    923.37145  0.041280912  0.041268235            2 
 1865000   0.95124137   -5.6269369    925.48908    0.0413534  0.041259336            3 
 1866000   0.95695292   -5.6290209    923.51197  0.041242942  0.041250605           11 
 1867000   0.96761226   -5.6841942    921.19995  0.041117655   0.04124171            3 
 1868000    0.9557267   -5.6333036    921.61382  0.041114107  0.041232837            4 
 1869000    0.9583148   -5.6069765    925.88979  0.041282762  0.041224053            6 
 1870000    0.9324979   -5.6422089     927.3957  0.041327794  0.041215134            3 
 1871000   0.96054239    -5.616336    927.89592  0.041327985  0.041206383            5 
 1872000   0.94987732   -5.6586789    925.51162   0.04119977  0.041197791            5 
 1873000   0.94853839   -5.6436496    928.10925  0.041293346  0.041189032            3 
 1874000   0.94274473    -5.633054     926.8681   0.04121612  0.041180359            9 
 1875000   0.93979273   -5.6339995    926.26814  0.041167473  0.041171623            3 
 1876000   0.94156786   -5.6143422    927.10439  0.041182676  0.041163052            5 
 1877000   0.97892009   -5.6429975    925.60476  0.041094156  0.041154131            3 
 1878000   0.94577229   -5.6204752    925.88011  0.041084492  0.041145178            4 
 1879000   0.93403457   -5.6653977    927.55042  0.041136705  0.041136283            4 
 1880000   0.96668809   -5.6045952    929.80703  0.041214851   0.04112743            5 
 1881000   0.96395656   -5.6314829    923.79336  0.040926518   0.04111863            6 
 1882000   0.93581375   -5.6359024    925.19384  0.040966784  0.041109786            5 
 1883000   0.93737312    -5.659378    925.89076   0.04097587  0.041100839            5 
 1884000   0.96811425   -5.6042612    930.03299   0.04113734  0.041091731            3 
 1885000   0.96576409   -5.6438178    928.13554  0.041031633  0.041082648            5 
 1886000   0.95572074   -5.6512436    929.38036   0.04106488  0.041073658           10 
 1887000    0.9222288   -5.6578844    928.70951  0.041013492   0.04106466            5 
 1888000   0.97383239   -5.6655804    929.57114  0.041029799  0.041055534            6 
 1889000   0.94854644   -5.6600244    927.40589  0.040912559  0.041046589            4 
 1890000   0.93219685   -5.6312973    929.15967  0.040968239  0.041037529            5 
 1891000   0.94647153   -5.6731528    930.08363  0.040987292   0.04102868            3 
 1892000   0.93978032   -5.6206332      931.691  0.041036425  0.041019947            5 
 1893000   0.94116374   -5.6526325     928.4359  0.040871452  0.041011216            4 
 1894000    0.9501117   -5.6647373     931.1081  0.040967446  0.041002171            4 
 1895000   0.96226826   -5.6153479    934.23733  0.041083436  0.040993274            5 
 1896000    0.9274165      -5.6582    932.83871  0.041000295  0.040984381            7 
 1897000   0.94041138   -5.6497108    932.35796  0.040957563  0.040975656            5 
 1898000   0.95599849   -5.6182513    932.67543  0.040949922  0.040966895            3 
 1899000   0.94425043   -5.6013358    932.11567  0.040903794  0.040957873            7 
 1900000   0.94252627   -5.6405151    932.09452  0.040881339  0.040949088            6 
 1901000   0.93464881   -5.6564523    931.12377  0.040817279  0.040940361            7 
 1902000   0.96221428   -5.6503454    932.06576  0.040837091  0.040931428            3 
 1903000   0.95622404     -5.65677    936.33471  0.041002571  0.040922705            5 
 1904000   0.93557769   -5.6328031     936.9891  0.041009677     0.040914            7 
 1905000   0.95867529    -5.668634    933.87911  0.040852105  0.040905358            3 
 1906000   0.95237746   -5.6578104    935.02312  0.040880689   0.04089657            3 
 1907000   0.93780195   -5.6115757    936.16165  0.040909004  0.040887714            9 
 1908000   0.94009464   -5.6195724    935.06445  0.040839642  0.040878826            5 
 1909000   0.93402057   -5.6888319    932.23624   0.04069479  0.040869891            5 
 1910000   0.93579561   -5.6703565    932.04571   0.04066517  0.040860747            3 
 1911000   0.96392277   -5.6384732    935.28994  0.040785363  0.040851783            2 
 1912000   0.95172555   -5.6370708    935.87446  0.040789508  0.040842834            4 
 1913000    0.9317122   -5.6326265    937.84259   0.04085392  0.040833956            2 
 1914000   0.93524018   -5.6290712    939.00138  0.040883028  0.040825255            5 
 1915000   0.96898433   -5.6733568    934.58438  0.040669468  0.040816336            8 
 1916000   0.93084983   -5.6291102    939.85926  0.040877664  0.040807349            4 
 1917000   0.94397921   -5.6857952    935.26946  0.040656819  0.040798225            3 
 1918000   0.94471297   -5.6298052    939.12468  0.040803123  0.040789243            4 
 1919000    0.9478913   -5.6649835    937.55698  0.040713782  0.040780384            7 
 1920000   0.94341588   -5.6693011    935.99836  0.040624929  0.040771394            6 
 1921000   0.95034462   -5.6454473    935.90209  0.040599605  0.040762285            4 
 1922000   0.93264673    -5.637018    940.67803  0.040785555  0.040753288            3 
 1923000     0.929297    -5.646198    942.55331  0.040845611  0.040744375            4 
 1924000   0.93726303    -5.624733    938.11639  0.040632207  0.040735421            4 
 1925000   0.95504858   -5.6551383    939.49744  0.040670885  0.040726389            3 
 1926000   0.95173322   -5.6650387    942.70807  0.040788684  0.040717399            4 
 1927000    0.9310868   -5.6216056    944.63692   0.04085093  0.040708514            9 
 1928000    0.9660454     -5.62122    943.45307  0.040778573  0.040699663            3 
 1929000   0.95062087   -5.6704072    939.11209  0.040569902  0.040691025            6 
 1930000   0.94149066   -5.6390828    944.39271  0.040776887  0.040682181            5 
 1931000   0.93889456   -5.6218638    940.21449  0.040575457  0.040673492            4 
 1932000    0.9422421   -5.6461245    941.47155  0.040608676  0.040664654            4 
 1933000   0.95450022   -5.6185923    943.51851  0.040675914  0.040655865            5 
 1934000   0.93701536   -5.6139611    947.49613  0.040826273  0.040647084            4 
 1935000   0.93125657   -5.6853188    940.74434  0.040514399  0.040638129            4 
 1936000   0.94685248   -5.6439236    943.03655  0.040592138  0.040629045            2 
 1937000   0.93300039   -5.6381978    944.11466  0.040617564  0.040620093            3 
 1938000   0.93398881   -5.6845067    941.44087  0.040481634  0.040611253            4 
 1939000   0.95761592   -5.6718328    940.96482  0.040440296  0.040602244            6 
 1940000   0.92578016   -5.6637979    944.85341  0.040586487  0.040593382            3 
 1941000   0.94219198    -5.621096    945.18876  0.040579974  0.040584496            5 
 1942000   0.93026968   -5.6657259    942.99565   0.04046497  0.040575605            6 
 1943000   0.95730908   -5.6336698    943.74398  0.040476239   0.04056657            4 
 1944000   0.93121977   -5.6566702     944.5983  0.040492039  0.040557703            4 
 1945000   0.94195368   -5.6552017     947.2005  0.040582712  0.040548948            2 
 1946000   0.92433237   -5.6595771    948.80106  0.040630398  0.040539995            5 
 1947000   0.94822385   -5.6663287    943.67141  0.040389977  0.040530868            4 
 1948000   0.93055027   -5.6453002     943.9665  0.040381866  0.040521866            4 
 1949000    0.9295927   -5.6240389    950.35142  0.040634147  0.040512849            8 
 1950000   0.94651504   -5.6428592    945.20752  0.040393484  0.040504011            4 
 1951000    0.9777577   -5.6638102    950.07638  0.040580744  0.040495174            3 
 1952000   0.93275232   -5.6776403    948.10374   0.04047574  0.040486293            5 
 1953000   0.94624948   -5.6657053    947.84464   0.04044396  0.040477447            4 
 1954000   0.93108106   -5.6692203     947.7435  0.040418948  0.040468633            2 
 1955000   0.93344551   -5.6543826    948.14198  0.040415259  0.040459713            4 
 1956000   0.93743554   -5.6764989    947.43228  0.040364361  0.040450707            4 
 1957000    0.9345403   -5.6540069    950.53621  0.040475907  0.040441743            2 
 1958000   0.92670868   -5.6427745    947.69974  0.040334514  0.040432841            7 
 1959000   0.94343983   -5.6883929    949.65833   0.04039724  0.040423993            4 
 1960000    0.9497853   -5.6640574    950.30752  0.040404231  0.040415074           10 
 1961000    0.9534304    -5.652335    948.88542  0.040323195  0.040406271            6 
 1962000   0.95139362   -5.6616791    950.01432  0.040350591  0.040397337            2 
 1963000   0.93233182   -5.6408248    949.90799  0.040325522  0.040388423            6 
 1964000     0.947297   -5.6822143    949.56065  0.040290252  0.040379638            4 
 1965000   0.95199418   -5.6397841    954.57367  0.040482344   0.04037077            4 
 1966000   0.90379917   -5.6671652    953.42561   0.04041309   0.04036197            6 
 1967000   0.91562731   -5.6706997    948.28027  0.040174558  0.040353129            8 
 1968000   0.92988582   -5.6377246    955.58334  0.040463387  0.040344225            4 
 1969000   0.94868176   -5.6677025    949.29427  0.040176666  0.040335277            4 
 1970000   0.95826054   -5.6523185    951.33294   0.04024251  0.040326198            4 
 1971000   0.95179048   -5.6278306    954.48439  0.040355335  0.040317167            3 
 1972000   0.92065402   -5.6276244    955.68533  0.040385621   0.04030828            3 
 1973000   0.92977881   -5.6263911    955.29775  0.040348781  0.040299409            5 
 1974000   0.93323414   -5.6794612    953.63499  0.040258147  0.040290488            4 
 1975000   0.94452982   -5.6735086    952.07119   0.04017178  0.040281452            7 
 1976000   0.95341796   -5.6940696    950.75897   0.04009611  0.040272257            2 
 1977000   0.93950911   -5.6455182    952.29277  0.040140481   0.04026317            4 
 1978000   0.95528415   -5.6560403    951.42565  0.040083656  0.040254063            5 
 1979000   0.93841825    -5.641439    955.38548  0.040230145   0.04024504           10 
 1980000   0.92547249   -5.6837432    953.30385  0.040122216   0.04023606            8 
 1981000   0.91879008   -5.6896762    951.19497   0.04001325  0.040226911            3 
 1982000   0.93582051   -5.6854232    952.85524  0.040062867   0.04021795            5 
 1983000   0.91730718   -5.6603629    955.37878  0.040148713  0.040209112            4 
 1984000   0.94301503   -5.6483354    956.87827   0.04019146  0.040200099            5 
 1985000   0.93734356   -5.6841852    957.90374  0.040214263  0.040191269            3 
 1986000   0.92107315   -5.6707143    954.03167   0.04003154    0.0401823            9 
 1987000   0.95448012   -5.6864814    955.68819  0.040080867  0.040173373            5 
 1988000   0.92639783   -5.6684417    955.61679  0.040057713  0.040164451            4 
 1989000    0.9193589   -5.6691383    958.46725  0.040156999  0.040155499            2 
 1990000   0.94026801   -5.6402405    960.03442  0.040202447  0.040146607            5 
 1991000   0.93081772   -5.6966363    958.41368  0.040114418  0.040137664            3 
 1992000   0.94260204   -5.6925708    958.70903  0.040106636  0.040128737            3 
 1993000   0.93150884   -5.7093289    956.04929  0.039975301   0.04011985            5 
 1994000   0.94197904   -5.6983753    960.14046  0.040126231  0.040110943            7 
 1995000   0.95179955   -5.6491436    963.03692  0.040227106  0.040102121            4 
 1996000   0.91885385   -5.6515024    963.26508  0.040216478  0.040093322            3 
 1997000   0.90910638   -5.6548974    964.65234  0.040254229  0.040084516            7 
 1998000   0.94229251   -5.6548651    962.26528  0.040134521  0.040075836            5 
 1999000   0.94293266   -5.6576275    964.07341   0.04018982  0.040067083            4 
 2000000    0.9266653   -5.6466172    964.57432  0.040190597  0.040058387            9 
 2001000     0.941946   -5.7029465    962.47693  0.040083164   0.04004961            9 
 2002000   0.93377169   -5.6363106    963.98708  0.040126002  0.040041083            5 
 2003000   0.91639136   -5.6407095    967.09577  0.040235304  0.040032501            2 
 2004000   0.92586176   -5.7019756    963.50471  0.040065898  0.040023789            4 
 2005000    0.9276022   -5.6907465    961.21641  0.039950807  0.040015138            4 
 2006000   0.94288505   -5.6745373    963.65005   0.04003199  0.040006384            3 
 2007000   0.92268026   -5.7124866    959.55076  0.039841835  0.039997467            9 
 2008000   0.94470838   -5.6556916    964.62773  0.040032691  0.039988632           15 
 2009000   0.91169273   -5.6775042    962.65909  0.039931105  0.039979837            3 
 2010000   0.93516594   -5.6724679    966.76466  0.040081453  0.039971061            5 
 2011000   0.93473776   -5.6776411    963.29749  0.039917847  0.039962182            7 
 2012000    0.9123876   -5.6600585    964.29699  0.039939405  0.039953536            7 
 2013000   0.93649412   -5.6884576    964.18176  0.039914794  0.039944771            7 
 2014000   0.91725999   -5.7000981    964.06459  0.039890127  0.039935982            7 
 2015000   0.91304445   -5.6522089    964.93674    0.0399064   0.03992726            4 
 2016000   0.92675536   -5.6708201    963.89208  0.039843423  0.039918427            5 
 2017000   0.91236337   -5.6746682    968.27932   0.04000493   0.03990981            3 
 2018000   0.93829041   -5.7021165    964.36314  0.039823387   0.03990117            3 
 2019000   0.91526467   -5.6531745    969.97463  0.040035274  0.039892457            4 
 2020000   0.94515309   -5.6852873    966.91878  0.039889389  0.039883814            2 
 2021000   0.93798677   -5.6778732    969.35301  0.039970024  0.039875057           11 
 2022000   0.96060526   -5.6756357    965.02439  0.039771859  0.039866249            5 
 2023000   0.93208716   -5.6839974    968.76153  0.039906143  0.039857442            3 
 2024000   0.92776709   -5.7133896    969.35923  0.039911036  0.039848567            5 
 2025000   0.93934749   -5.6871489    965.61322   0.03973717  0.039839689           10 
 2026000   0.94770357   -5.6973425    968.78105  0.039847855  0.039830902            4 
 2027000   0.91786393   -5.6795958     967.3046  0.039767497  0.039822087            8 
 2028000   0.93836899   -5.6605235       971.75  0.039930555  0.039813393            2 
 2029000   0.91196999   -5.7033415    969.92446  0.039835899  0.039804579            3 
 2030000   0.93187984   -5.6856216    972.76211  0.039932763  0.039795873            4 
 2031000   0.91814256   -5.6440704    972.10106  0.039885978  0.039787145            4 
 2032000   0.92607298   -5.6984891    966.96938  0.039655897  0.039778519            4 
 2033000   0.94498765   -5.6808745    971.26786  0.039812586  0.039769767            3 
 2034000   0.91515404   -5.6729195    972.75312  0.039853864  0.039761302            4 
 2035000   0.91167926   -5.6848546    974.55947   0.03990825  0.039752662            6 
 2036000   0.93586544   -5.6873024    972.36239  0.039798723  0.039744073            9 
 2037000   0.91898685   -5.7197832    972.30539  0.039776853  0.039735438            6 
 2038000   0.93614359   -5.6507946    978.18283  0.039997662  0.039726885            4 
 2039000   0.89092117   -5.6980066    972.95009  0.039764186  0.039718247            7 
 2040000    0.9109255   -5.7025983    973.03815   0.03974829  0.039709557            8 
 2041000   0.93620257   -5.7371963     972.0323  0.039687747  0.039700925            6 
 2042000   0.93423994   -5.6727576    976.32561   0.03984352  0.039692212            3 
 2043000   0.89965594   -5.6956599    975.30153  0.039782246  0.039683484            5 
 2044000   0.90762634   -5.7274086    971.16225  0.039594025  0.039674624            4 
 2045000   0.92586766   -5.7430905    971.20996  0.039576608  0.039665747            4 
 2046000   0.91091669   -5.6831502    974.75406  0.039701615  0.039656996            9 
 2047000   0.90552967    -5.722549    972.08144  0.039573418  0.039648267            3 
 2048000   0.94182765   -5.7014948    975.82394  0.039706378   0.03963954           10 
 2049000   0.94386831   -5.6655077     976.4645  0.039713051  0.039631001            4 
 2050000   0.90667701   -5.6591289    976.85651  0.039709614   0.03962252            3 
 2051000   0.89874604   -5.6936388    975.37709  0.039630143  0.039613972            3 
 2052000   0.92667511   -5.7083013    974.94373  0.039593231  0.039605237            6 
 2053000   0.92349486   -5.7134324    976.16805  0.039623642  0.039596558            5 
 2054000   0.91451409    -5.690512    978.92248  0.039716102  0.039587834           15 
 2055000   0.92009337   -5.6908356    979.85281  0.039734502  0.039579057            9 
 2056000   0.92324574   -5.6920184    975.24673  0.039528483  0.039570299            3 
 2057000   0.92453031   -5.7010691    976.63929  0.039565682  0.039561568            6 
 2058000   0.92151326    -5.718845    979.05119   0.03964412  0.039552911            9 
 2059000   0.92633966   -5.7154203    977.17032  0.039548742  0.039544107            2 
 2060000   0.93527437    -5.710226    981.15285  0.039690649  0.039535466            5 
 2061000   0.91435567   -5.6749399    981.11898  0.039670022  0.039526923            3 
 2062000   0.90411256   -5.7199126    979.31537  0.039577892  0.039518295            4 
 2063000   0.91835852   -5.7305809    976.32379  0.039437865  0.039509475            9 
 2064000    0.9238519   -5.7324658    976.44723  0.039423741  0.039500658            5 
 2065000   0.92295973   -5.7089742    978.72668  0.039496638  0.039491678            4 
 2066000   0.89931711   -5.7144126    981.26472  0.039579893  0.039482848            3 
 2067000   0.93087751   -5.6868079    982.45361  0.039608677  0.039474165           10 
 2068000   0.95598608   -5.6857319    981.29608  0.039542879  0.039465406            7 
 2069000   0.93200482   -5.7017602    981.25098   0.03952195  0.039456729           20 
 2070000   0.91828103   -5.7009519    979.20082  0.039420323  0.039447965            6 
 2071000   0.93369615   -5.6810682    983.37387  0.039569204  0.039439227            7 
 2072000   0.93626364   -5.7236439    979.93152   0.03941166  0.039430553            7 
 2073000   0.92569081   -5.7102735    981.24939  0.039445626  0.039421824            5 
 2074000   0.91735409   -5.6973976    980.35068  0.039390497  0.039413108            5 
 2075000   0.91358948   -5.6980711    979.85038  0.039351421   0.03940428            5 
 2076000   0.91241053   -5.7379249    982.51369  0.039439374  0.039395504            8 
 2077000   0.90942189   -5.7127941    984.36784  0.039494778  0.039386842            7 
 2078000   0.93228512   -5.7186746    985.32147  0.039514015   0.03937838            8 
 2079000   0.91255303    -5.709874    982.24116  0.039371539  0.039369757            5 
 2080000   0.90929377   -5.7316126    981.13641   0.03930835   0.03936102            5 
 2081000   0.93619025    -5.710643    985.79358  0.039475956  0.039352461            2 
 2082000   0.91046114   -5.6982514    984.74604  0.039415067  0.039343882            3 
 2083000   0.92143666   -5.6713276    987.98648  0.039525783  0.039335487            3 
 2084000   0.90382283   -5.7211473    983.91972  0.039344199  0.039327186            2 
 2085000   0.91132427   -5.7309734    986.49517  0.039428264  0.039318657            9 
 2086000   0.91377452   -5.7222967    986.26523  0.039400177  0.039310187            5 
 2087000   0.89633472   -5.7236235    984.80536  0.039323006  0.039301687            7 
 2088000   0.90998772   -5.6772156    987.99276  0.039431384   0.03929313            3 
 2089000   0.91988461   -5.7287635    985.39273  0.039308789  0.039284556            5 
 2090000   0.91775559   -5.7051829    987.88477  0.039389345  0.039276039            3 
 2091000   0.92823596   -5.7153587    985.77208   0.03928631    0.0392676            4 
 2092000   0.92329481   -5.6924489    985.10095  0.039240796  0.039259182            8 
 2093000   0.90432586   -5.6972557    988.56306  0.039359893  0.039250688            2 
 2094000   0.91436939   -5.7152142    987.57035   0.03930159  0.039242241            4 
 2095000   0.90721692   -5.6788493    989.40471  0.039355796  0.039233757            8 
 2096000   0.90251646   -5.7000628    988.59835   0.03930496  0.039225104            3 
 2097000   0.92001386   -5.7301528    988.01332  0.039262968  0.039216424            3 
 2098000   0.92156158   -5.7247213    986.76223   0.03919456  0.039207698            3 
 2099000   0.90329368   -5.7155118      987.627  0.039210219   0.03919904            2 
 2100000    0.9227825   -5.6853413    991.33724  0.039338779  0.039190451            6 
 2101000   0.91895751   -5.7125532    990.93944  0.039304277  0.039181687            4 
 2102000   0.91218195     -5.73926    985.05687  0.039052366  0.039172885            5 
 2103000   0.89516009   -5.7088784    992.19368  0.039316598  0.039164008            9 
 2104000   0.92203077   -5.7016398    991.35608  0.039264737  0.039155204            5 
 2105000   0.91596807   -5.7455318    990.41642  0.039208884  0.039146546            6 
 2106000   0.88709826   -5.7232045    988.45922  0.039112821  0.039137737            9 
 2107000   0.92271576   -5.7417251    987.18141   0.03904372  0.039128919            6 
 2108000   0.89573603   -5.7159295    990.26533  0.039147111  0.039120027            7 
 2109000   0.92422877   -5.7035897     991.0628   0.03916006  0.039111345            4 
 2110000   0.92491062   -5.7226247    989.04522  0.039061818  0.039102436            3 
 2111000   0.91927939   -5.7155828    986.70947  0.038951108  0.039093594            8 
 2112000   0.90818034   -5.7397015    991.13215  0.039107171  0.039084714            5 
 2113000   0.90466625   -5.7202996     987.8841  0.038960565    0.0390759            6 
 2114000   0.89593361   -5.7249874    989.08106   0.03898932  0.039067067            2 
 2115000   0.92152334   -5.7246024     990.4004  0.039022869  0.039058199            4 
 2116000   0.89469021   -5.6878077    995.16941  0.039192242  0.039049304            4 
 2117000   0.90777015   -5.7243028    992.52609  0.039069677  0.039040531            5 
 2118000   0.89507354   -5.7320327    991.02942  0.038992344   0.03903159            8 
 2119000   0.89393614    -5.719118    994.44115  0.039108115  0.039022774            3 
 2120000   0.91368525   -5.6996079    991.26336  0.038964755  0.039013989            5 
 2121000   0.91976114   -5.7222869    993.74414  0.039043853  0.039005253            7 
 2122000   0.92970034   -5.7173002     992.4448  0.038974427  0.038996538            4 
 2123000   0.93147251   -5.7198402    993.29117  0.038989291  0.038987831           10 
 2124000    0.9063573   -5.7120181    995.96872  0.039075986  0.038979177            5 
 2125000    0.9241592   -5.7182147    994.53015  0.039001182  0.038970566            6 
 2126000   0.92371896   -5.7463135    992.07716  0.038886687  0.038961882            3 
 2127000   0.91960028   -5.7369366    995.25126  0.038992762  0.038953047            8 
 2128000   0.90639168   -5.6920887    996.56562  0.039025909  0.038944387            8 
 2129000   0.90679164   -5.7331962    997.67976  0.039051188  0.038935721            4 
 2130000   0.90566462   -5.6810754    995.00106  0.038928054  0.038926979            3 
 2131000   0.89529558   -5.7028281    995.44135  0.038927004  0.038918168            5 
 2132000   0.92109527   -5.7214332    995.08741  0.038894911  0.038909316            5 
 2133000   0.90660064   -5.7277222    996.19256  0.038919853  0.038900571            5 
 2134000   0.90190792    -5.713298      996.957  0.038931467  0.038891821            5 
 2135000   0.91602639   -5.7269996    997.97325  0.038952898  0.038883254            8 
 2136000   0.91082717   -5.7040394    996.14969  0.038863518  0.038874557            2 
 2137000   0.92547507   -5.7232038    995.69026  0.038827416   0.03886573           10 
 2138000   0.91475122   -5.7421116    993.84343  0.038737271  0.038856924            3 
 2139000   0.89108771   -5.6921405    997.84034  0.038874877   0.03884799            2 
 2140000   0.89742724   -5.7158971    993.74482  0.038697228  0.038839116            4 
 2141000   0.91819496   -5.7224038    1000.3081  0.038934612  0.038830223            8 
 2142000   0.90745705   -5.7397411    994.92409  0.038706975  0.038821335            3 
 2143000   0.91502836   -5.7309978    999.69755  0.038874535  0.038812483            6 
 2144000   0.89009575   -5.7404714    995.52807  0.038694344  0.038803503            5 
 2145000   0.89279946    -5.709427    996.96216  0.038732019  0.038794569            6 
 2146000    0.8992374    -5.753238    999.54289  0.038814185  0.038785766            4 
 2147000   0.91700037   -5.6924517    1003.4607  0.038948173   0.03877689            5 
 2148000    0.9075775   -5.7307249    997.36032  0.038693371  0.038767843            5 
 2149000   0.90616391   -5.7198154    1000.7319  0.038806107  0.038758906            6 
 2150000   0.92002982   -5.6989292    1001.1263  0.038803344  0.038750081            4 
 2151000   0.91017212   -5.7465392    1000.1283  0.038746643  0.038741244            9 
 2152000   0.90014062   -5.7045497    1001.8003  0.038793383  0.038732363            6 
 2153000   0.91782018   -5.7156219    998.64128  0.038653092  0.038723427            5 
 2154000   0.91704598   -5.7553262    998.32905  0.038623068  0.038714283            8 
 2155000   0.92123375   -5.7217403    998.52985   0.03861291  0.038705306            3 
 2156000    0.8935544   -5.7165637     1000.586  0.038674476  0.038696317            2 
 2157000   0.91416516   -5.7207575    998.98875  0.038594837  0.038687316            6 
 2158000   0.90372127   -5.7390267    998.25958  0.038548795  0.038678422            6 
 2159000   0.89477167   -5.7348952    1000.6103  0.038621672  0.038669485            9 
 2160000   0.89977779   -5.7238155    1001.4674   0.03863686  0.038660427            3 
 2161000   0.90374451   -5.7488325    1000.7451  0.038591126  0.038651606            5 
 2162000   0.91762474   -5.7191572     1003.581  0.038682585  0.038642775           17 
 2163000   0.90004127   -5.6847477    1003.3905  0.038657361  0.038634098            3 
 2164000   0.89851881   -5.7322575    1003.1792  0.038631361  0.038625375            8 
 2165000    0.9013472   -5.7482037    1005.5886  0.038706258  0.038616517            4 
 2166000   0.91744156   -5.7370991    1001.7658  0.038541314  0.038607675            6 
 2167000   0.89741709   -5.7251158    1003.6467   0.03859586  0.038598756            3 
 2168000   0.90690726   -5.7375576    1001.6249  0.038500341  0.038589711            7 
 2169000   0.89763409   -5.7501508    1000.6551   0.03844533  0.038580639            4 
 2170000    0.9088493    -5.739303    1002.5884  0.038501858  0.038571486            4 
 2171000   0.90385221   -5.7119753    1002.8824  0.038495408  0.038562401            4 
 2172000   0.88656259   -5.7160297    1004.2795  0.038531286  0.038553441           12 
 2173000   0.90608686   -5.7123349    1003.7711  0.038494058  0.038544345            4 
 2174000   0.89441043     -5.74542    1001.2449  0.038379517  0.038535338            6 
 2175000   0.88493122   -5.7349818    1006.1872  0.038551233  0.038526037            4 
 2176000   0.89413031   -5.7524599    1000.1859   0.03830369   0.03851686            9 
 2177000   0.90288884   -5.7768925    999.74804  0.038269333  0.038507593            3 
 2178000   0.91095684   -5.7477707    1003.8161  0.038407412   0.03849832            3 
 2179000   0.87395079   -5.7463015     1003.642  0.038383127  0.038489067            3 
 2180000   0.91299359    -5.763386    1005.8314  0.038449213  0.038479968            3 
 2181000   0.89994656   -5.7444483    1006.3815  0.038452602  0.038470909            5 
 2182000    0.9004942    -5.714261    1006.5065  0.038439754  0.038461864            5 
 2183000   0.90622665   -5.7428015     1008.542  0.038499846  0.038452878            6 
 2184000   0.91262829   -5.7185808    1007.1124  0.038427671  0.038443987            3 
 2185000   0.88768767   -5.7149467    1005.5654  0.038351083  0.038435036            5 
 2186000   0.91284918   -5.7743995    1004.7707  0.038303244  0.038426048           11 
 2187000   0.89393831   -5.7494568    1006.1769  0.038339311   0.03841695            4 
 2188000   0.89282555   -5.7147935    1007.1601  0.038359238  0.038407962            4 
 2189000     0.905583   -5.7389521    1006.4275  0.038313822  0.038399014            6 
 2190000    0.8890372   -5.7174128    1009.7816  0.038423958  0.038390108            9 
 2191000   0.89087713   -5.7163307    1006.2174  0.038270856  0.038381179            8 
 2192000   0.91152105   -5.7316288    1007.6841  0.038309156  0.038372372            5 
 2193000   0.90381777   -5.7599175     1007.005  0.038265882  0.038363379            2 
 2194000   0.88984297   -5.7673039    1008.7142  0.038313361  0.038354528            6 
 2195000   0.89407368   -5.7497673    1008.7009  0.038295402  0.038345649            3 
 2196000   0.91091361   -5.7033129    1010.7549  0.038355908  0.038336805            9 
 2197000   0.91239968   -5.7023949    1011.7845  0.038377503     0.038328            6 
 2198000   0.89804632   -5.7443101    1013.4702  0.038423953  0.038319319            7 
 2199000   0.89409937   -5.7611634     1008.892  0.038232986  0.038310409            5 
 2200000   0.89343936   -5.7395214    1011.5856  0.038317638  0.038301567           10 
 2201000   0.89230722   -5.7231678    1013.2447  0.038363042  0.038292662            7 
 2202000   0.90324347   -5.7575234    1010.5274  0.038242786  0.038283873            5 
 2203000   0.87594505   -5.7608715    1010.3696   0.03821946  0.038274908            7 
 2204000   0.90888433   -5.7579888    1011.3507  0.038239211  0.038266053            8 
 2205000   0.88601835   -5.7426628    1011.9623  0.038244986  0.038257237            5 
 2206000   0.90285507   -5.7326585    1011.6502  0.038215859  0.038248325            3 
 2207000   0.90359258   -5.7963839    1012.1733  0.038218293  0.038239505            4 
 2208000   0.89480731   -5.7587455    1013.2724  0.038242469  0.038230559            4 
 2209000   0.89194799   -5.7497687    1014.5425  0.038273068  0.038221661            7 
 2210000   0.89382469   -5.7747703    1009.9115  0.038081127  0.038212776            3 
 2211000   0.91420233   -5.7350748    1012.9084  0.038176856  0.038203876            1 
 2212000   0.87736148   -5.7530685    1014.3929  0.038215524  0.038195094            8 
 2213000   0.90094839   -5.7383779    1011.5552  0.038091399  0.038186168           11 
 2214000   0.90625901   -5.7382578    1013.6285  0.038152232  0.038177328            5 
 2215000   0.89498256   -5.7350596    1013.5036  0.038130307  0.038168511            4 
 2216000    0.8967184   -5.7694612     1012.105  0.038060506  0.038159555            6 
 2217000    0.9108561   -5.7614399    1016.3485  0.038202844  0.038150753            4 
 2218000   0.90536155   -5.7089537    1018.7848  0.038277156   0.03814192            3 
 2219000   0.89844982   -5.7854436    1014.6186  0.038103446  0.038133039            5 
 2220000   0.91798487   -5.7687193    1014.8845  0.038096264  0.038124058            8 
 2221000    0.8921807   -5.7560186    1018.2436  0.038205147  0.038115333           11 
 2222000   0.88222881   -5.7321448    1020.4276  0.038269863  0.038106568            6 
 2223000   0.88408526   -5.7445973    1017.6777  0.038149561  0.038097847            4 
 2224000    0.8949592   -5.7738695    1018.3166  0.038156349  0.038089084            2 
 2225000   0.89466854   -5.7242722    1021.5461  0.038260155  0.038080406            3 
 2226000   0.87277309   -5.7284469    1019.4896  0.038165979  0.038071682            8 
 2227000   0.89348475   -5.7439019    1017.4517  0.038072584  0.038062827            5 
 2228000   0.90371907   -5.7759463    1012.8447  0.037883182  0.038053915            5 
 2229000     0.908302   -5.7758814    1017.5733  0.038042967  0.038045091            3 
 2230000   0.89547503   -5.7553658    1017.1077  0.038008509  0.038036278            6 
 2231000   0.89286854   -5.7480831    1019.2232  0.038070492  0.038027515            2 
 2232000   0.87841638    -5.759248    1021.9528  0.038155347  0.038018745            3 
 2233000   0.86523537   -5.7775055    1018.4173  0.038006318  0.038009828            5 
 2234000   0.89274791    -5.727714    1018.7849  0.038003017  0.038000997           11 
 2235000   0.88421376   -5.7499898      1021.47   0.03808613  0.037992224            3 
 2236000   0.87258355   -5.7627012    1020.8575  0.038046268  0.037983398            4 
 2237000   0.88109259   -5.7499769    1020.0436  0.037998941   0.03797451            6 
 2238000   0.90329232   -5.7691811    1018.0729  0.037908584  0.037965767            4 
 2239000   0.88738952    -5.755653    1023.8101  0.038105183  0.037957055            3 
 2240000   0.88523536   -5.7544637    1022.9719  0.038056992  0.037948285            3 
 2241000   0.89440289    -5.733531    1023.2024  0.038048581  0.037939667            6 
 2242000   0.89008236   -5.7655379    1023.6573  0.038048515  0.037930831            5 
 2243000   0.90502811   -5.7682963    1021.1324  0.037937747  0.037922137           11 
 2244000   0.87649005   -5.7330938    1026.5937  0.038123651  0.037913442            5 
 2245000   0.88639812   -5.7696974    1021.8485  0.037930531  0.037904711            3 
 2246000   0.90514347    -5.774986    1020.1292  0.037849851  0.037895981            6 
 2247000   0.89758083   -5.7489873    1024.3792  0.037990624  0.037887153            5 
 2248000   0.90046626   -5.7776232    1023.7865  0.037951753  0.037878507            6 
 2249000    0.8775972    -5.757908    1021.3517   0.03784466  0.037869727            8 
 2250000     0.874062   -5.7511061    1023.5241  0.037908298  0.037861009            5 
 2251000   0.89311296   -5.7658185    1025.4435  0.037962515  0.037852342            5 
 2252000   0.90163544   -5.7627629    1023.7588  0.037883318  0.037843631            5 
 2253000   0.88019881   -5.7778131    1023.8449  0.037869689  0.037834957           11 
 2254000   0.88596674    -5.738238    1024.7635   0.03788685  0.037826313            6 
 2255000   0.89361026   -5.7773717    1023.7462  0.037832454  0.037817705            4 
 2256000   0.89513985    -5.726638    1027.7802  0.037964694  0.037809102           10 
 2257000   0.89321103   -5.8063875     1023.107  0.037775329  0.037800392            5 
 2258000    0.8837839   -5.7722951    1024.2787  0.037801841  0.037791675            5 
 2259000   0.90852269   -5.7821425     1024.395  0.037789397  0.037782888            7 
 2260000   0.87457728   -5.7382926    1025.8926  0.037827899  0.037774066            4 
 2261000   0.90695622   -5.7427639    1025.9491  0.037813249  0.037765239            4 
 2262000   0.90195803   -5.7625241    1022.3212  0.037662879  0.037756518            4 
 2263000   0.90124207   -5.7851057    1020.9866  0.037597092   0.03774766            6 
 2264000   0.88739337   -5.7654696     1028.592  0.037860422  0.037738858            6 
 2265000   0.90119433   -5.7697099    1028.2128  0.037829757  0.037730049            4 
 2266000   0.88386538   -5.7551699    1029.5389  0.037861832  0.037721268            3 
 2267000   0.91413795   -5.7575218    1026.2643  0.037724759  0.037712514            8 
 2268000   0.87701389   -5.7485608    1029.2709  0.037818595  0.037703761            7 
 2269000   0.88267568   -5.7575488    1026.6471  0.037705564  0.037694998            5 
 2270000   0.90861577   -5.7745322    1027.4821  0.037719606  0.037686269            5 
 2271000   0.89217018   -5.7865523    1024.1209  0.037579659  0.037677485            3 
 2272000   0.88861882   -5.7706203    1027.9471   0.03770346  0.037668717            6 
 2273000   0.89832161   -5.7462415    1030.3666  0.037775576  0.037659888            6 
 2274000   0.89514224   -5.7484087    1027.0452  0.037637247  0.037651196            3 
 2275000   0.89308308   -5.7984459    1029.0743  0.037695028  0.037642469            5 
 2276000   0.88172079   -5.8011418    1028.0575  0.037641237  0.037633569            8 
 2277000   0.86118799   -5.7518511    1029.5053  0.037677695  0.037624631            3 
 2278000     0.879021   -5.7674849    1027.8264  0.037599737  0.037615868            6 
 2279000   0.89670905   -5.7846259    1028.3369  0.037601904  0.037606956           12 
 2280000   0.88191606   -5.7456487    1025.6227  0.037486211  0.037598086            7 
 2281000   0.89519556   -5.7641292    1029.7726  0.037621385   0.03758907            4 
 2282000   0.89222094   -5.7577167    1030.1633  0.037619168  0.037580109            5 
 2283000   0.90704367   -5.8194562    1023.5713  0.037362072  0.037571118            7 
 2284000    0.8646866   -5.7601501    1027.1485  0.037476228  0.037562208            7 
 2285000   0.89151006   -5.7626902    1031.7398  0.037627273  0.037553229            6 
 2286000   0.88451154   -5.7977541    1027.2398   0.03744677  0.037544225            6 
 2287000    0.8948255   -5.7870578    1030.4487  0.037547321  0.037535276            9 
 2288000    0.8704787   -5.7929532    1026.9923  0.037405021   0.03752641            7 
 2289000   0.87445826   -5.7877319     1028.968  0.037460608  0.037517596            6 
 2290000   0.88169814    -5.820975    1029.4013  0.037460018  0.037508655            4 
 2291000   0.90815291   -5.7871587    1028.0352  0.037393975  0.037499724            9 
 2292000   0.88793266   -5.7458608     1032.873  0.037553556  0.037490925            6 
 2293000   0.86738938   -5.8069824    1026.0667   0.03728982  0.037481914            2 
 2294000    0.8892356   -5.7484154    1031.3447  0.037465298    0.0374731           10 
 2295000   0.89434955   -5.7716266    1032.5359  0.037492224  0.037464337            3 
 2296000   0.89742496   -5.8209693    1029.2421  0.037356348  0.037455501            8 
 2297000   0.88386388    -5.751762    1033.8083  0.037505743  0.037446576            4 
 2298000   0.88869725   -5.7721538    1030.7224  0.037377518  0.037437695            4 
 2299000   0.88589361   -5.7964797    1029.7935  0.037327588   0.03742862            7 
 2300000    0.8939756    -5.786785    1031.2506  0.037364152  0.037419619            4 
 2301000   0.87281171   -5.7498477    1035.9689  0.037518791  0.037410747           13 
 2302000   0.87206825   -5.7800736    1032.2634  0.037368353  0.037401801            3 
 2303000   0.88328754   -5.8015756    1030.8977   0.03730271  0.037393008            6 
 2304000   0.85924202   -5.7863743    1031.7032  0.037315656  0.037384093            5 
 2305000   0.87380214   -5.7641782    1032.8287  0.037340156  0.037375139            5 
 2306000   0.89371054   -5.7830577    1033.1407  0.037335238  0.037366171            4 
 2307000   0.89042212   -5.8044402    1031.1082  0.037245638  0.037357201           10 
 2308000   0.86644317   -5.7969081    1030.1357  0.037194385  0.037348046            4 
 2309000   0.87123844   -5.7953198    1032.9638  0.037280345  0.037339043            7 
 2310000   0.88319239   -5.7855651     1031.088  0.037196536  0.037330022            8 
 2311000   0.87265547   -5.7919733    1033.5131  0.037267888  0.037320985            4 
 2312000   0.88381435   -5.7639018    1036.8612  0.037372449  0.037311935            4 
 2313000   0.88250769   -5.8260496    1031.4084  0.037159837  0.037302824            5 
 2314000   0.87844562   -5.7891278    1036.9592  0.037343675  0.037293795            4 
 2315000   0.86953072   -5.7790485    1032.9291  0.037182472   0.03728474            3 
 2316000   0.88249166   -5.7740141    1033.6058  0.037190765  0.037275757            4 
 2317000   0.87819801   -5.7965256    1032.2428  0.037125694  0.037266644            8 
 2318000   0.89246673   -5.8025557    1033.3113  0.037148091  0.037257634            4 
 2319000   0.86713638   -5.7877416    1033.9734  0.037155864  0.037248586            5 
 2320000   0.88315553   -5.7929042    1034.8882  0.037172709  0.037239573            4 
 2321000   0.86658537   -5.7864363     1036.228  0.037204797  0.037230615            3 
 2322000   0.88554061    -5.795791    1030.0302  0.036966345  0.037221663            4 
 2323000   0.88923117   -5.7733963    1033.8889  0.037088854  0.037212661            8 
 2324000   0.87670665   -5.8027474    1037.7387   0.03721094  0.037203699            5 
 2325000   0.86961141   -5.8030641    1036.4883  0.037150117  0.037194712            4 
 2326000   0.87027321   -5.8084473    1036.6398  0.037139573  0.037185611            4 
 2327000   0.85114834   -5.7723794    1040.5318  0.037262993  0.037176663            3 
 2328000   0.86764807     -5.79822    1036.3908  0.037098754  0.037167751            3 
 2329000   0.88885975   -5.8239686    1034.0538  0.036999204   0.03715881            4 
 2330000   0.87023278   -5.7750012    1037.6355  0.037111428  0.037149842            4 
 2331000   0.87714898   -5.7826248    1037.1447  0.037077961  0.037141004            9 
 2332000   0.87610329   -5.7894995    1038.8782  0.037124008  0.037132205            8 
 2333000   0.86657263   -5.7628302    1043.0226  0.037256131  0.037123297            6 
 2334000   0.89472784   -5.7921494    1038.1872  0.037067523  0.037114507            6 
 2335000   0.89795392   -5.7747674     1041.523  0.037170701  0.037105732            6 
 2336000   0.88907235   -5.7774233    1039.7126  0.037090205  0.037096862            7 
 2337000   0.86735363   -5.7977569    1038.0445  0.037014851  0.037087994            6 
 2338000    0.8742723    -5.785496    1039.0273  0.037034048   0.03707907            7 
 2339000   0.89735501   -5.8232581    1036.2555  0.036919462  0.037070099            7 
 2340000   0.89561197   -5.8089175    1038.8891  0.036997474  0.037061107            4 
 2341000   0.86932555   -5.8035654    1040.6802   0.03704543  0.037052062            4 
 2342000   0.88061229   -5.8096105    1039.2636  0.036979207  0.037043014            5 
 2343000   0.88866276   -5.7596812     1038.404  0.036932851  0.037033983            8 
 2344000   0.90175983    -5.774508    1044.7006  0.037140949  0.037025145            3 
 2345000   0.86908046    -5.813588    1042.9585  0.037063201   0.03701629            7 
 2346000   0.86836791   -5.8301394    1040.2327  0.036950579  0.037007334            4 
 2347000   0.87587614   -5.8449132      1040.09  0.036929768  0.036998333            6 
 2348000   0.88196525   -5.8075823    1040.8663  0.036941593  0.036989432            4 
 2349000   0.87152998   -5.7710231    1043.6518  0.037024683  0.036980731            6 
 2350000    0.8619968   -5.8069053    1045.1602  0.037062417  0.036971852            6 
 2351000   0.86602335   -5.7909999    1039.0739  0.036830918  0.036963055            7 
 2352000   0.87006638   -5.8004551    1044.9241  0.037022538   0.03695415            5 
 2353000   0.86944884    -5.774095    1046.5677  0.037065012  0.036945214            4 
 2354000   0.87557359   -5.7983089    1044.5292  0.036977103  0.036936374            4 
 2355000   0.87298866   -5.8461854    1039.9947  0.036800946  0.036927554            6 
 2356000   0.87102646   -5.8115996    1043.0326  0.036892776  0.036918609            4 
 2357000   0.88742871   -5.7920189    1044.6602  0.036934669  0.036909737            5 
 2358000   0.86618188   -5.7788896     1046.137  0.036971196  0.036900883            4 
 2359000   0.87454517   -5.7702592     1046.536  0.036969621  0.036892113            4 
 2360000   0.85482543    -5.796223    1042.4554  0.036809867  0.036883402            5 
 2361000   0.88691867   -5.8177366    1047.1247   0.03695908   0.03687471            6 
 2362000   0.89299226   -5.7973677    1044.9989  0.036868434  0.036865811           10 
 2363000   0.87379566   -5.7915472    1045.4196  0.036867669  0.036856996            3 
 2364000    0.8766201   -5.8080079    1046.7805  0.036900047  0.036848155            7 
 2365000   0.89379464   -5.8232642    1047.0047  0.036892344  0.036839208            7 
 2366000   0.88229376   -5.8293759    1043.7417  0.036761822  0.036830263            8 
 2367000   0.85948034   -5.8056397    1043.7605  0.036746956  0.036821209           21 
 2368000   0.87334826   -5.8053951    1051.1803  0.036992551  0.036812348            4 
 2369000   0.87908241    -5.798791    1048.8791  0.036895985  0.036803474            4 
 2370000   0.88335987   -5.8319308    1044.9203   0.03674122  0.036794559            3 
 2371000   0.86925724   -5.8031033    1044.2828  0.036703316  0.036785616            7 
 2372000   0.87843516   -5.8077969    1047.5885  0.036803981  0.036776715            5 
 2373000   0.86871238   -5.8020922    1049.1261  0.036842468  0.036767758            4 
 2374000   0.87012029    -5.803676     1049.525  0.036840951  0.036758923            3 
 2375000   0.86850401   -5.7953522    1048.4946  0.036789284   0.03675006            5 
 2376000   0.87751115   -5.7929253    1049.3328    0.0368032   0.03674125            4 
 2377000   0.87516315   -5.8045507    1046.1748  0.036677001  0.036732415            2 
 2378000   0.86681286   -5.7861541    1048.5849  0.036746037  0.036723698            6 
 2379000   0.85413792   -5.7930107     1048.244  0.036718651  0.036714865            8 
 2380000   0.86456192   -5.8232478    1050.1973  0.036771616  0.036706106            6 
 2381000    0.8858356   -5.7925423    1049.3339  0.036725953  0.036697358            4 
 2382000   0.88542289   -5.8279983    1050.2469  0.036742476  0.036688613            2 
 2383000   0.88028853   -5.8173489    1051.4295  0.036768411  0.036679807            5 
 2384000   0.88084338   -5.7818505    1050.3413   0.03671495  0.036670916            6 
 2385000   0.87092089   -5.8247352    1047.8823  0.036613637  0.036662137            3 
 2386000    0.8759644   -5.7767553    1053.7127  0.036801926  0.036653381            2 
 2387000   0.85729946     -5.81325    1049.7036  0.036646543  0.036644519            4 
 2388000   0.88244902   -5.8111941    1051.4434  0.036691911  0.036635629            3 
 2389000   0.87596976   -5.7775571    1049.9206  0.036623434  0.036626748            6 
 2390000   0.86639683   -5.7925896    1050.4311  0.036625911  0.036617971            4 
 2391000   0.87269895   -5.7977192     1051.137  0.036635193  0.036609121           10 
 2392000   0.85771026   -5.8303067    1050.6992  0.036604628  0.036600281            5 
 2393000   0.87537861   -5.7868441    1052.3678  0.036647435  0.036591467            6 
 2394000   0.87635299   -5.8145452    1049.4096  0.036529155  0.036582619            5 
 2395000   0.87303914   -5.7978877    1053.0415  0.036640275  0.036573689            7 
 2396000   0.86572747    -5.808011    1050.4414  0.036534551  0.036564803            5 
 2397000   0.89532973   -5.8187101     1051.985  0.036572973  0.036555965            5 
 2398000   0.87631208   -5.8263594     1053.022  0.036593759  0.036547181            8 
 2399000   0.87062224   -5.8197004    1055.1464  0.036652301  0.036538377            5 
 2400000   0.86900852   -5.8235847    1054.2289  0.036605171  0.036529635            5 
 2401000   0.88403763   -5.8334583    1052.2065  0.036519731  0.036520867            8 
 2402000   0.87259839   -5.7940102    1053.4569  0.036547907  0.036512143            4 
 2403000   0.87057379   -5.8232032    1050.2686  0.036422132  0.036503404            7 
 2404000   0.84949735   -5.8574904     1052.152  0.036472269  0.036494603           16 
 2405000    0.8568862   -5.8176562    1055.1341  0.036560434  0.036485883            5 
 2406000   0.86723679   -5.8531849    1054.4371  0.036521095  0.036477089           11 
 2407000   0.86429924   -5.8326611    1053.3079  0.036466829  0.036468337            9 
 2408000   0.87620632   -5.8257141    1051.0491  0.036373517  0.036459617           11 
 2409000   0.86393748   -5.8280423    1055.3274  0.036506412  0.036450824            4 
 2410000   0.86987749   -5.8441186    1053.1224  0.036415021  0.036442086            4 
 2411000   0.85579105   -5.8416304    1056.0962  0.036502702  0.036433302            4 
 2412000   0.86867108    -5.824619    1054.3456  0.036427086  0.036424537            3 
 2413000   0.85080657   -5.8534511    1056.3263  0.036480394  0.036415818            7 
 2414000   0.82380075   -5.8163177     1056.075  0.036456609  0.036407105            6 
 2415000   0.84607825   -5.8411502    1056.6042  0.036459771  0.036398429            5 
 2416000   0.87560954   -5.8258896    1059.8101  0.036555259  0.036389809            3 
 2417000   0.85646334   -5.8111795    1057.5529  0.036462313  0.036381175            3 
 2418000   0.86657048   -5.8460194    1055.7247  0.036384225  0.036372483            7 
 2419000   0.87490625   -5.8426845    1057.5416  0.036431777  0.036363752            6 
 2420000   0.87542945   -5.8352175    1059.0155  0.036467475  0.036355069            4 
 2421000   0.88862008   -5.8093263    1061.4071  0.036534735  0.036346499            4 
 2422000    0.8665545   -5.8284976     1059.379  0.036449871   0.03633786            7 
 2423000   0.88153044   -5.8552988    1057.9916  0.036387109  0.036329244            4 
 2424000   0.87535254   -5.8337182    1057.1162  0.036342005  0.036320484            9 
 2425000   0.86031164   -5.8311036    1059.4388  0.036406833  0.036311881            3 
 2426000    0.8542167   -5.8083949    1061.5868  0.036465607  0.036303205            6 
 2427000   0.85449799   -5.8295838    1060.4382  0.036411145  0.036294546            8 
 2428000   0.87457054    -5.825238    1060.4193    0.0363955  0.036285899            5 
 2429000   0.87284706   -5.8414884    1059.6768  0.036355042  0.036277217            4 
 2430000   0.87036815   -5.8683375    1057.3079  0.036258844  0.036268498            3 
 2431000   0.85541589   -5.8609776     1059.796  0.036329219  0.036259836           12 
 2432000   0.84462956    -5.826602    1059.3443  0.036298805  0.036251123           12 
 2433000   0.88192134   -5.8398397    1057.9235  0.036235221  0.036242424            5 
 2434000   0.87100333   -5.8368962     1057.384  0.036201863  0.036233643            5 
 2435000   0.84998782   -5.8484426    1059.6961  0.036266121   0.03622493           16 
 2436000   0.85213314   -5.8226643    1062.5313  0.036348223  0.036216278           13 
 2437000    0.8466847   -5.8270954     1062.026  0.036316029  0.036207598            4 
 2438000    0.8393026   -5.8192203    1061.7022  0.036290067  0.036199033            8 
 2439000   0.85988327   -5.8358946    1060.3502  0.036228996  0.036190291            6 
 2440000   0.87788485   -5.8462471    1061.3312   0.03624765  0.036181545            7 
 2441000   0.87090028    -5.836661    1060.8284  0.036215635   0.03617283            3 
 2442000   0.85933466   -5.8224407    1061.8682   0.03623629  0.036164207            7 
 2443000   0.86380043   -5.8333047    1060.2386  0.036165868  0.036155607            4 
 2444000    0.8557515    -5.816889    1063.8271  0.036273427  0.036146979            5 
 2445000   0.86147228   -5.8313485    1066.8796   0.03636263  0.036138405           12 
 2446000   0.85257732   -5.8192126    1065.8569  0.036312921  0.036129848            6 
 2447000   0.85751145   -5.8335615    1062.9032  0.036197492  0.036121299            4 
 2448000   0.88040168   -5.8475245    1063.9631  0.036218789  0.036112607            5 
 2449000   0.85341569   -5.8322214    1063.0609  0.036173297  0.036103949            6 
 2450000   0.86830284    -5.861596    1063.3807  0.036169412  0.036095322            2 
 2451000    0.8692876   -5.8604368    1060.1826  0.036045918  0.036086606            4 
 2452000   0.84671473   -5.8341757    1064.6927  0.036184501   0.03607799            9 
 2453000   0.87443115   -5.8490323    1064.5658  0.036165436  0.036069473            5 
 2454000    0.8628176   -5.8460662     1063.528  0.036115459  0.036061007            5 
 2455000   0.85399558   -5.8168085    1069.7298  0.036311262  0.036052543           11 
 2456000   0.86255772   -5.8822814    1064.4592  0.036117644  0.036044083            8 
 2457000    0.8615426   -5.8547176     1066.577  0.036174772  0.036035524            7 
 2458000   0.85382105   -5.8387372    1065.6878  0.036129908  0.036026967            3 
 2459000   0.84598924   -5.8536277    1065.1426  0.036096741  0.036018221            6 
 2460000   0.85315949   -5.8204193    1067.9009  0.036175506  0.036009759            6 
 2461000   0.84443183   -5.8430177    1066.3567  0.036108517   0.03600126           10 
 2462000   0.84965502   -5.8173554    1069.1132  0.036187151  0.035992703            4 
 2463000   0.84735609   -5.8159338    1068.3716  0.036147369  0.035984244            9 
 2464000   0.86068128   -5.8635169    1066.2477  0.036060865  0.035975673           10 
 2465000   0.86792984   -5.8814883    1066.6551  0.036060011  0.035966942           10 
 2466000   0.85401906   -5.8237037    1068.5489  0.036109386  0.035958277            7 
 2467000   0.83606633   -5.8493454    1064.1387  0.035945775  0.035949686            5 
 2468000    0.8655491   -5.8567305    1067.1187   0.03603183  0.035941011            3 
 2469000   0.86311291   -5.8228261    1068.3312  0.036058163  0.035932377            6 
 2470000   0.84287601    -5.866943    1068.7979  0.036059307  0.035923887            3 
 2471000   0.86065565   -5.8329352    1068.0578  0.036019757  0.035915385            8 
 2472000   0.86841461   -5.8609889    1068.0524  0.036005002  0.035906744            6 
 2473000   0.86738915   -5.8682729    1067.7562  0.035980462  0.035898112            2 
 2474000   0.86515156    -5.819033    1073.3806  0.036155368  0.035889591            5 
 2475000   0.85387625   -5.8559664    1065.9055  0.035889075  0.035881133            7 
 2476000   0.85849683    -5.847559    1070.2917  0.036022203  0.035872598            4 
 2477000   0.85036375   -5.8289502    1071.6945  0.036054856  0.035864032            6 
 2478000   0.84298984   -5.8902975    1067.8115  0.035909724   0.03585547            8 
 2479000   0.86474634   -5.8514417     1068.873  0.035930919  0.035846891           12 
 2480000   0.87772445   -5.8518367    1072.0424  0.036022929  0.035838213            4 
 2481000   0.84811787   -5.9059511    1069.7745  0.035932236  0.035829606            8 
 2482000   0.82790835   -5.8693025    1070.6995  0.035948814  0.035820977            6 
 2483000   0.86612261   -5.8481004     1071.732  0.035968988  0.035812466           10 
 2484000   0.83973378   -5.8574436     1071.463  0.035945484   0.03580394            6 
 2485000   0.87224674   -5.8381306    1070.9415  0.035913531  0.035795364            7 
 2486000   0.86542345   -5.8680965    1070.2161  0.035874767  0.035786827            8 
 2487000   0.85932393   -5.8644079    1072.9035  0.035950391  0.035778338            4 
 2488000   0.85548032   -5.8473051    1073.7954  0.035965815  0.035769829            6 
 2489000   0.86336987    -5.864176    1073.1707  0.035930451  0.035761225            5 
 2490000   0.85600549   -5.8812288    1070.7093  0.035833645  0.035752739            6 
 2491000    0.8480477   -5.8557368    1069.3357  0.035773308  0.035744223            3 
 2492000   0.85724539   -5.8702201    1071.8091  0.035841663   0.03573566            9 
 2493000   0.84140649    -5.848925    1074.7987  0.035927219  0.035727168           13 
 2494000   0.85877116   -5.8645447     1073.602  0.035872828  0.035718743            5 
 2495000   0.83534396   -5.8203064    1072.7057  0.035828513  0.035710296            5 
 2496000   0.84171059    -5.841426    1073.8039  0.035850823  0.035701832            4 
 2497000   0.85180212   -5.8696861    1073.7175  0.035833583  0.035693177            7 
 2498000    0.8497865   -5.8664984    1073.0236  0.035796091  0.035684609            8 
 2499000    0.8432519   -5.8779872    1076.0658  0.035883212  0.035676053           17 
 2500000   0.85108998   -5.8598195    1077.7641   0.03592547  0.035667624            4 
 2501000   0.84510287   -5.8393938     1077.824    0.0359131  0.035659217            5 
 2502000   0.84729682   -5.8541914    1077.6933  0.035894394  0.035650831           10 
 2503000   0.85118072   -5.8729327    1074.0013  0.035757133  0.035642466            9 
 2504000   0.86034466   -5.8589536    1077.8446  0.035870761  0.035634069            3 
 2505000   0.85422934   -5.8709338    1074.4235  0.035742631  0.035625673            8 
 2506000   0.84907476   -5.8741514    1075.5454  0.035765676  0.035617329            3 
 2507000   0.84824466    -5.832126    1079.0232  0.035867012  0.035608938            4 
 2508000   0.84648507   -5.8657879    1078.4832  0.035834769  0.035600643            5 
 2509000   0.85316206   -5.8521046    1075.9373  0.035735929  0.035592289            5 
 2510000   0.84124461   -5.8662445    1077.6282   0.03577783  0.035583894            2 
 2511000     0.833905   -5.8676131    1076.0496   0.03571119  0.035575442            6 
 2512000   0.85552352   -5.8405429     1075.567  0.035680964  0.035566954            6 
 2513000   0.85979873   -5.8614779    1078.3356  0.035758574  0.035558619            6 
 2514000   0.85732421    -5.839645    1076.7805  0.035692802  0.035550243            5 
 2515000   0.84203277   -5.8517914    1078.4989  0.035735549  0.035541883            8 
 2516000   0.87786402   -5.8794739    1078.8573  0.035733217  0.035533505            3 
 2517000   0.85309575   -5.8548475    1080.3419  0.035768173  0.035525232            8 
 2518000   0.82518082   -5.8556494    1078.9162  0.035706784  0.035516919            2 
 2519000   0.84789093   -5.8574542    1080.6899  0.035751288  0.035508591           12 
 2520000    0.8461999   -5.8660342    1080.3342  0.035725337  0.035500214            5 
 2521000   0.82834898   -5.8758645     1075.431  0.035549089  0.035491901            6 
 2522000   0.83052309   -5.8858439    1074.6511  0.035509224  0.035483487           10 
 2523000   0.84696314   -5.8707701    1079.8018  0.035665271  0.035475144           14 
 2524000   0.86206088   -5.8601649    1082.6991    0.0357468  0.035466899            9 
 2525000   0.85138208   -5.8394141    1080.6703  0.035665685  0.035458554            9 
 2526000   0.85285669   -5.8439334    1083.7857  0.035754346  0.035450218            7 
 2527000   0.83918674   -5.8511508    1083.6012  0.035734111  0.035441986            3 
 2528000   0.84631168    -5.870554    1084.3052  0.035743184    0.0354338            4 
 2529000    0.8493514   -5.8658912    1082.6954  0.035676006  0.035425626           10 
 2530000   0.85433224   -5.8783441    1083.4826  0.035687832  0.035417362            6 
 2531000   0.84405559   -5.8657745     1084.337  0.035701864  0.035409181            6 
 2532000   0.84225462   -5.8739259    1084.3744  0.035688994  0.035401081            4 
 2533000   0.82600066   -5.8788551    1081.6396  0.035584934  0.035393024            2 
 2534000    0.8436818   -5.8916511    1082.7124  0.035606169  0.035384751            5 
 2535000   0.84365625   -5.8737584    1085.4134  0.035680915  0.035376588            3 
 2536000   0.84021009   -5.8630684    1086.0973  0.035689319  0.035368442           13 
 2537000   0.85437858   -5.8793829    1083.3358   0.03558454  0.035360219           11 
 2538000   0.84011143   -5.8795841    1084.9247  0.035622693  0.035351971            4 
 2539000   0.84982927   -5.8434479    1085.9459  0.035642177  0.035343795            8 
 2540000   0.85234096   -5.8586941    1085.1547   0.03560219  0.035335658            7 
 2541000   0.85470726   -5.8420385    1087.4777   0.03566436  0.035327548            9 
 2542000   0.83304432   -5.8735603    1086.5546  0.035620069  0.035319439            3 
 2543000   0.86022404   -5.8591755    1085.9848  0.035587389  0.035311323            5 
 2544000    0.8472102   -5.8755803     1085.958  0.035572525  0.035303138            4 
 2545000   0.84507935   -5.8945694    1084.1251  0.035498529  0.035294923            3 
 2546000    0.8517508   -5.8696362    1084.1516  0.035485453  0.035286755            7 
 2547000   0.82841693   -5.8827558    1084.9925  0.035499034  0.035278644            8 
 2548000   0.85995351   -5.8953683    1084.6053  0.035472438  0.035270421            6 
 2549000   0.82676122   -5.8668023    1086.7456  0.035528496  0.035262207            6 
 2550000   0.84970783    -5.864398    1089.3592  0.035599974  0.035254131            4 
 2551000    0.8443008    -5.878008    1087.4727  0.035524392  0.035245869            7 
 2552000   0.84378096    -5.867772    1087.1575  0.035500179  0.035237622            8 
 2553000   0.85484613   -5.8891524    1085.5921  0.035435179  0.035229435            6 
 2554000   0.84227206   -5.8988368    1084.6356  0.035390094  0.035221178            9 
 2555000   0.85081145   -5.8717508    1089.0164  0.035519124   0.03521294            5 
 2556000   0.84613106   -5.8843857     1086.834  0.035434075  0.035204644            6 
 2557000   0.84027167   -5.8652574    1086.2747  0.035401991  0.035196511            7 
 2558000   0.83066991   -5.8693802    1088.6511  0.035465569  0.035188361            7 
 2559000   0.84862857   -5.8997305    1088.3974  0.035443449  0.035180135            4 
 2560000   0.84127094   -5.8883937    1089.5114  0.035465867  0.035171832            6 
 2561000   0.83409812   -5.8597149    1092.6663  0.035554676  0.035163591            6 
 2562000   0.84593949   -5.8862933    1088.2186  0.035396128  0.035155477           26 
 2563000   0.82784286   -5.8419255    1092.8955  0.035534383  0.035147396            3 
 2564000   0.85531905   -5.8740149    1092.7836  0.035516888  0.035139329            3 
 2565000   0.83190909   -5.8952808    1090.3643  0.035424442  0.035131169            6 
 2566000    0.8446247   -5.8614338    1088.7724  0.035358937   0.03512301            5 
 2567000   0.83403123   -5.9026538    1089.4129  0.035365957  0.035114783            3 
 2568000   0.82547658   -5.8988011    1089.1176  0.035342602  0.035106602            4 
 2569000   0.85625512   -5.8691011    1089.2345  0.035332635  0.035098433            3 
 2570000   0.85018561   -5.8833957    1088.5274  0.035295959  0.035090228            6 
 2571000   0.84495162   -5.8636633    1092.1904  0.035400958  0.035082007            5 
 2572000   0.83692605   -5.8867494    1087.9977  0.035251352   0.03507378            5 
 2573000   0.83019703   -5.9237416    1088.7499  0.035262014  0.035065457            6 
 2574000   0.83270562   -5.9036863    1090.9749  0.035320348  0.035057118            6 
 2575000   0.83810643   -5.9045418    1093.4353  0.035386256  0.035048846            9 
 2576000   0.84482847   -5.8828501    1091.0152  0.035294228  0.035040623            6 
 2577000   0.85323155   -5.8995424    1092.9618  0.035343481   0.03503243            5 
 2578000    0.8364704   -5.9070406    1088.7046  0.035192158  0.035024146            7 
 2579000   0.82884146   -5.8772567     1091.926  0.035282603  0.035015806            4 
 2580000   0.85213235   -5.8924665    1089.1347  0.035178769  0.035007616           13 
 2581000   0.82715675   -5.8961146    1094.1737  0.035327835  0.034999438           10 
 2582000   0.84605998   -5.9112001    1091.8655  0.035239657  0.034991235            7 
 2583000    0.8396292   -5.8689775    1096.6785   0.03538129  0.034983046            9 
 2584000   0.82305095   -5.8754227    1091.6911  0.035206756  0.034974886            4 
 2585000   0.82774162    -5.844441     1093.096  0.035238426  0.034966779            6 
 2586000   0.82947716   -5.8877444    1097.8472  0.035377906  0.034958718            7 
 2587000   0.83496799   -5.8858792    1094.8806  0.035268669   0.03495063            7 
 2588000   0.86570569   -5.8948578    1093.4726  0.035209705  0.034942558            9 
 2589000   0.84700707   -5.9213007    1094.5129   0.03522959  0.034934377            4 
 2590000   0.82967496   -5.9111988    1092.8972  0.035164001  0.034926128            4 
 2591000   0.84072129   -5.8877013    1094.2676  0.035194506  0.034917922            7 
 2592000     0.836515   -5.8801184    1096.6635  0.035257956  0.034909752            5 
 2593000   0.85943804   -5.8937641    1092.8585  0.035122075  0.034901651            4 
 2594000   0.86469317    -5.906421    1094.0632  0.035147236   0.03489352           12 
 2595000    0.8330111   -5.9069138    1093.7242  0.035122807  0.034885321            4 
 2596000   0.85867839   -5.8887453    1096.2819  0.035191382  0.034877128           12 
 2597000   0.83777005   -5.8820236    1097.6763  0.035222574  0.034868879            6 
 2598000   0.83028537   -5.8957043    1095.0385  0.035124407  0.034860698            3 
 2599000   0.82591653   -5.9043853    1096.8319  0.035168396   0.03485255           10 
 2600000   0.84185595   -5.8994941    1093.3523  0.035043343  0.034844294            5 
 2601000   0.84648775     -5.89518    1095.4947  0.035098511  0.034836135            6 
 2602000   0.82561257   -5.8744133    1096.8708  0.035129094  0.034827908            4 
 2603000   0.83426749   -5.8920669    1094.6737  0.035045259   0.03481976            7 
 2604000    0.8268153   -5.8960784    1096.7339  0.035097732  0.034811597           13 
 2605000   0.83394162   -5.8988429     1093.679  0.034986532  0.034803452            5 
 2606000   0.83200662   -5.8964669    1099.4592  0.035157942  0.034795271            3 
 2607000   0.85048631   -5.9313456    1092.7906  0.034931294  0.034787044           18 
 2608000   0.82503348   -5.9188342    1096.9099  0.035049525  0.034778818           17 
 2609000   0.83090694   -5.8849934    1098.7434  0.035094652   0.03477063            6 
 2610000   0.82562571    -5.909205    1095.4341  0.034975547  0.034762486            5 
 2611000   0.82871783   -5.9280137    1096.2742  0.034988963  0.034754259            5 
 2612000    0.8325501   -5.8680193     1099.804  0.035088184  0.034746136           11 
 2613000   0.83791668   -5.9015717    1099.7216  0.035072127     0.034738            6 
 2614000   0.84620833    -5.888499    1098.9536  0.035034227  0.034729743            3 
 2615000   0.81057586   -5.9030688    1097.3904  0.034971014  0.034721452           15 
 2616000   0.82543291   -5.9050413     1099.793  0.035034181  0.034713216            5 
 2617000   0.82713011    -5.914081    1098.6106  0.034983144  0.034705098           10 
 2618000   0.83276667   -5.9082645    1097.1852  0.034924408  0.034696826            6 
 2619000   0.82630744   -5.9232235    1095.8504  0.034868602  0.034688578           10 
 2620000   0.82964486   -5.9341928    1098.2367  0.034931194  0.034680315            9 
 2621000   0.83035363   -5.8856041    1101.1268  0.035009756  0.034672211            6 
 2622000   0.83253206   -5.8900591    1100.0994   0.03496375  0.034664007            4 
 2623000   0.83836461      -5.9081    1097.7465  0.034875666   0.03465576            4 
 2624000   0.81957165   -5.9053947    1099.8108  0.034927933  0.034647549            6 
 2625000   0.85009523   -5.8900323    1101.2841    0.0349614   0.03463937            6 
 2626000   0.81895472    -5.924655     1099.133  0.034879823  0.034631173            6 
 2627000   0.85941244   -5.9014377     1097.589  0.034817567   0.03462293            5 
 2628000   0.82124169   -5.9062527    1098.8099  0.034843032  0.034614666            9 
 2629000   0.82930034   -5.9074555    1099.0644  0.034837848  0.034606397            8 
 2630000   0.82412786   -5.9141243    1099.3083  0.034832328  0.034598095            6 
 2631000   0.83275664    -5.896812    1099.7515  0.034833127  0.034589716            8 
 2632000   0.82374146   -5.8866592    1100.8336  0.034854154  0.034581489            4 
 2633000   0.83622772   -5.9137101    1099.3832  0.034795013  0.034573204            9 
 2634000   0.85314699   -5.9296729    1102.3198  0.034874708  0.034564933            3 
 2635000   0.81828661   -5.9224098    1101.6822   0.03484131   0.03455663            4 
 2636000   0.81879413   -5.8713605    1098.6489  0.034732198  0.034548339            7 
 2637000   0.83224379   -5.9137236    1102.8692  0.034852395  0.034540031            8 
 2638000   0.83258728   -5.9306382    1102.7099  0.034834151   0.03453183            4 
 2639000   0.83177516   -5.8909369    1103.8641    0.0348574  0.034523624            5 
 2640000   0.83216813   -5.9159055    1100.6562  0.034742936  0.034515382            5 
 2641000   0.83086379   -5.9041035    1099.7727  0.034701904  0.034507133           12 
 2642000   0.81846057   -5.9336918    1102.8041  0.034784385  0.034498876           17 
 2643000   0.83108237    -5.919418    1101.6572  0.034735061  0.034490628            7 
 2644000   0.83644607    -5.906049     1099.486  0.034653492  0.034482459            8 
 2645000   0.83194947   -5.8793663    1106.2751  0.034854288  0.034474374            6 
 2646000   0.83005535    -5.958304    1098.6098  0.034599703  0.034466164           12 
 2647000   0.83042402   -5.9272024    1101.8693  0.034689249  0.034457957            5 
 2648000   0.83916752   -5.8828296     1108.757  0.034892906  0.034449822            4 
 2649000   0.83626807   -5.9316767    1100.6659    0.0346252  0.034441666           16 
 2650000   0.82555052    -5.935345     1099.961  0.034589967  0.034433509            4 
 2651000   0.84320246    -5.918557    1104.0641    0.0347059  0.034425262            7 
 2652000   0.83410932   -5.9242294    1103.0288  0.034660282  0.034417011            6 
 2653000   0.82515685   -5.9100953    1103.8846  0.034674098  0.034408786            7 
 2654000    0.8344763    -5.936505    1103.8801  0.034660891   0.03440062            5 
 2655000   0.82505775   -5.9376751    1101.6791  0.034578755  0.034392425           16 
 2656000   0.85312743   -5.9253624    1106.4811  0.034716401  0.034384189            6 
 2657000   0.84338464    -5.895013    1102.5954  0.034581463  0.034375991            6 
 2658000   0.82263414   -5.9283902    1104.0791  0.034614972  0.034367833           14 
 2659000   0.82389317   -5.9160245    1104.4225  0.034612716  0.034359706            5 
 2660000   0.81661804    -5.931026    1104.7373  0.034609564  0.034351521            7 
 2661000   0.81798655   -5.9135395    1106.9919  0.034667165  0.034343252            6 
 2662000   0.84633708   -5.9184353    1104.8747  0.034587862  0.034335062            6 
 2663000   0.82025049   -5.8940355    1106.0844  0.034612728   0.03432679           12 
 2664000    0.8133495   -5.9251748    1106.4566  0.034611379  0.034318574            5 
 2665000   0.84156377   -5.9383732    1105.2615  0.034561022  0.034310354            5 
 2666000   0.83442388   -5.9010804    1105.0857  0.034542565  0.034302146            4 
 2667000   0.82247522   -5.9198141    1103.4239  0.034477686  0.034293935            4 
 2668000   0.82808926   -5.9414212    1103.8756  0.034478873  0.034285749            3 
 2669000   0.83186039   -5.9159737    1105.7402  0.034524174  0.034277512            7 
 2670000   0.84056972   -5.9133876    1108.9268    0.0346107  0.034269254            2 
 2671000   0.82966018   -5.9415619    1107.8765  0.034564974  0.034261045            5 
 2672000    0.8130312   -5.9128689    1106.3132  0.034503281   0.03425281            8 
 2673000   0.81744899   -5.8916963    1108.6737  0.034563964  0.034244628            4 
 2674000   0.82358611   -5.9276083    1108.7201  0.034552485  0.034236474            6 
 2675000    0.8227927   -5.9169839    1108.5024  0.034532785  0.034228249            7 
 2676000   0.81858996   -5.9403495    1108.7286  0.034526925  0.034219951           14 
 2677000    0.8186999   -5.9149067    1103.0124  0.034336086  0.034211628            4 
 2678000   0.83501857   -5.9839415    1103.7535  0.034346325  0.034203344            4 
 2679000   0.81773676   -5.9473372     1106.302  0.034412779   0.03419497            5 
 2680000   0.80239504   -5.9242165     1107.977   0.03445202  0.034186723            6 
 2681000   0.80875292   -5.9187619    1104.2271  0.034322614   0.03417844            8 
 2682000   0.82042697   -5.9371695    1107.6268   0.03441545  0.034170118            9 
 2683000   0.83521184   -5.8922645    1105.5187  0.034337145  0.034161873            9 
 2684000   0.82811809   -5.9296559    1109.0012  0.034432476  0.034153663           11 
 2685000   0.81117495    -5.937444    1107.6611   0.03437806  0.034145297           10 
 2686000   0.80729686   -5.9152812    1106.0078  0.034313969  0.034136969            6 
 2687000   0.82628713   -5.8978649    1106.4292  0.034314267  0.034128664            4 
 2688000     0.823556   -5.9143349    1106.8697  0.034315158  0.034120365            8 
 2689000   0.80658009   -5.9363664    1106.2732   0.03428391   0.03411194            4 
 2690000   0.81068264   -5.9622923    1107.2811  0.034302389  0.034103562            7 
 2691000    0.8280216     -5.90867    1109.3961  0.034355138  0.034095176            6 
 2692000   0.82290061   -5.9388498    1104.2185  0.034182098  0.034086771            7 
 2693000   0.81730318   -5.9098141    1108.0144  0.034286867   0.03407838            5 
 2694000   0.82564404   -5.9357728    1102.2576  0.034096064  0.034069836            3 
 2695000   0.82606891   -5.9374677    1107.7829  0.034254265  0.034061308            5 
 2696000   0.82749924   -5.9398285    1105.3522  0.034166425  0.034052812            6 
 2697000   0.82102178   -5.9425243    1104.9841  0.034142385  0.034044261           15 
 2698000   0.81876522   -5.9524219    1105.0437  0.034131569  0.034035726            6 
 2699000   0.80318204   -5.9454644    1106.5189  0.034164472  0.034027158            6 
 2700000   0.81260426   -5.9496455    1107.8916  0.034194186  0.034018691            7 
 2701000   0.80100602   -5.9465841    1104.1419  0.034065837    0.0340101            3 
 2702000   0.81016019   -5.9642672    1105.7436  0.034102628  0.034001492           19 
 2703000   0.80766231   -5.9557666    1106.9088  0.034125935  0.033992959           15 
 2704000    0.7986232   -5.9383929    1107.5729   0.03413378   0.03398448            5 
 2705000   0.81937146   -5.9694353     1105.773  0.034065713  0.033975978            3 
 2706000   0.80666768    -5.940059    1110.6756  0.034204102  0.033967466           11 
 2707000   0.81169635   -5.9474125    1106.8171  0.034072684  0.033959007            5 
 2708000    0.8250191   -5.9733293    1105.8311  0.034029761   0.03395044            9 
 2709000   0.81978135   -5.9315724    1105.5076  0.034007248  0.033941851           12 
 2710000   0.81493233   -5.9327048    1109.1341  0.034106216  0.033933339            7 
 2711000   0.80986188   -5.9426931    1106.3107  0.034006845  0.033924842            7 
 2712000    0.8217523   -5.9292624    1105.5975  0.033972391  0.033916348            9 
 2713000   0.81676061   -5.9482155    1104.9937  0.033941324  0.033907796           10 
 2714000   0.82475797   -5.9333887    1107.1156  0.033993971  0.033899177            5 
 2715000     0.818161   -5.9152615     1106.947  0.033976275  0.033890622            6 
 2716000    0.8122193   -5.9034305    1110.7092  0.034079198  0.033882144            6 
 2717000   0.81113444   -5.8941545    1109.0407   0.03401548  0.033873722            7 
 2718000   0.80912566   -5.9194625    1109.8199  0.034026854  0.033865227            8 
 2719000   0.82845482    -5.920168    1108.7225  0.033980708  0.033856752            5 
 2720000   0.81596929   -5.9483044    1109.6961  0.033998041  0.033848234           12 
 2721000   0.81788704   -5.9608117    1109.3119   0.03397378  0.033839676           11 
 2722000    0.7959716   -5.9564271    1108.0096   0.03392143  0.033831143            4 
 2723000   0.81811627   -5.9414284    1107.4199  0.033890926  0.033822624            5 
 2724000   0.81021322   -5.9244752    1109.2298  0.033933854  0.033814026            9 
 2725000   0.81265122   -5.9330931    1110.6949  0.033966205  0.033805463            7 
 2726000   0.80348508   -5.9546279    1108.2592  0.033879287  0.033796884            9 
 2727000   0.83365357   -5.9619803    1107.8487  0.033854319  0.033788352            5 
 2728000   0.79045245   -5.9382929    1111.3158   0.03394782  0.033779893           13 
 2729000   0.80830511   -5.9698688    1109.0027  0.033864746  0.033771361           14 
 2730000   0.81465227   -5.9364034    1109.7891  0.033876345  0.033762799            7 
 2731000   0.83704556   -5.9286609    1108.2869  0.033818102  0.033754212            4 
 2732000   0.80945029   -5.9459738    1108.3275  0.033806963  0.033745684            7 
 2733000   0.81702559   -5.9568819    1111.4799  0.033890714  0.033737105           10 
 2734000   0.82323852   -5.9443837    1110.0093  0.033833496  0.033728578            6 
 2735000   0.80544626     -5.89096     1114.392   0.03395466  0.033720046           10 
 2736000   0.79488595   -5.9228386    1111.9182  0.033866905  0.033711595            8 
 2737000   0.80772159     -5.95928    1107.8069  0.033729353  0.033703037            9 
 2738000   0.80823333   -5.9850193     1108.083  0.033725438  0.033694405            4 
 2739000   0.81884438   -5.9526467    1109.4414  0.033754454  0.033685815            5 
 2740000   0.80092852   -5.9747182    1111.4404  0.033802931  0.033677243           10 
 2741000    0.8183048   -5.9394402    1113.4544   0.03385183  0.033668749            7 
 2742000   0.80712053   -5.9492551    1113.7996  0.033849974  0.033660357            4 
 2743000   0.81779131   -5.9269212    1113.6826  0.033834079  0.033651912           11 
 2744000   0.80499909   -5.9223644    1111.7428  0.033762841  0.033643438            5 
 2745000   0.80436157   -5.9510529      1111.22  0.033734669  0.033634953            6 
 2746000   0.82119429   -5.9203459    1112.4675  0.033760241  0.033626515           10 
 2747000   0.83837886   -5.9820176    1112.0546  0.033735426  0.033618055            6 
 2748000   0.80770616    -5.982697    1109.8716  0.033656951  0.033609527            6 
 2749000   0.80732503    -6.009807    1109.5621  0.033635326  0.033601017            6 
 2750000    0.8138165   -5.9658899    1115.3146  0.033797412   0.03359255            5 
 2751000   0.82160856   -5.9281756    1115.6977  0.033796731  0.033584186           12 
 2752000   0.81650887   -5.9436196    1114.8098  0.033757565  0.033575741            5 
 2753000   0.80696061   -5.9624994    1116.8985  0.033808527  0.033567317            9 
 2754000   0.80079875   -5.9620821    1117.1429  0.033803646  0.033558971            7 
 2755000   0.80670291   -5.9652626    1116.0946  0.033759668  0.033550643            5 
 2756000   0.82107589   -5.9399714    1117.4328  0.033787882  0.033542282            6 
 2757000   0.81659279   -5.9632246    1117.2788   0.03377097  0.033534011           10 
 2758000   0.81226846   -5.9289888    1119.9118  0.033838284  0.033525788           12 
 2759000      0.79856   -5.9513091     1116.125  0.033711639  0.033517502            4 
 2760000   0.81562078   -5.9342174    1116.0247  0.033696399  0.033509202            3 
 2761000   0.80317109   -5.9855262    1119.8407  0.033799368  0.033500898            6 
 2762000   0.80380919   -5.9811753    1119.5407  0.033778081  0.033492529            5 
 2763000    0.8330288   -5.9748858     1118.277  0.033727741  0.033484189            3 
 2764000   0.82001986   -5.9817482    1115.6511  0.033636369  0.033475724            5 
 2765000   0.80417371   -5.9399844    1119.7997  0.033749238  0.033467387            7 
 2766000   0.77959717   -5.9648025    1114.9858  0.033592005  0.033459012            4 
 2767000   0.80297309   -5.9595244    1116.4033  0.033622556  0.033450647            5 
 2768000   0.80887057   -5.9620401    1117.3513  0.033638948  0.033442271           10 
 2769000   0.80427944   -5.9441915    1118.4344  0.033659396  0.033433941           11 
 2770000   0.81406985   -5.9521907    1115.9676  0.033573033  0.033425591            5 
 2771000   0.80489979   -5.9851743    1117.4754   0.03360626  0.033417302            7 
 2772000   0.81703539   -5.9614337    1118.6013  0.033627986  0.033408915            5 
 2773000   0.80106695   -5.9632652    1116.1904  0.033543408  0.033400556           13 
 2774000   0.79604461   -5.9744753    1113.9776   0.03346484  0.033392146            9 
 2775000   0.82940928   -5.9628207    1117.0788   0.03354591  0.033383733            4 
 2776000    0.7955333    -5.991858    1115.6951  0.033492288  0.033375289            6 
 2777000   0.81684961   -5.9717141    1118.9114  0.033576744  0.033366815            8 
 2778000   0.81243663   -5.9682375     1118.387  0.033548926  0.033358399           11 
 2779000   0.80060066   -5.9548161    1116.3556  0.033475937  0.033349989            9 
 2780000   0.78459288   -5.9734391    1117.8112   0.03350753  0.033341552            4 
 2781000   0.80940538   -5.9710621     1118.426  0.033513905   0.03333315            4 
 2782000   0.81119025   -5.9695633    1114.0455  0.033370643  0.033324801            8 
 2783000   0.80504886   -5.9600916     1118.781   0.03350045   0.03331645            7 
 2784000   0.82723272    -5.963446    1117.8707  0.033461168  0.033308093            5 
 2785000   0.80577122   -5.9903601    1116.8976  0.033420035  0.033299681            4 
 2786000   0.80920169   -5.9555194    1120.2484  0.033508269  0.033291299            7 
 2787000   0.81903877   -5.9733125    1119.9654  0.033487781  0.033282912            6 
 2788000   0.80078162   -5.9546771    1120.8458  0.033502087  0.033274617            8 
 2789000   0.81856729   -5.9530389    1124.8849  0.033610759  0.033266319            7 
 2790000    0.8071284   -5.9448366    1124.6591  0.033591968  0.033258086           10 
 2791000   0.81064238   -5.9470034    1121.6404  0.033489802  0.033249747           11 
 2792000   0.79697465   -5.9957246    1118.4004  0.033381099  0.033241309            9 
 2793000   0.81113854   -5.9775408     1119.939  0.033415055  0.033232893            6 
 2794000   0.81112176   -5.9542237    1121.6153  0.033453092  0.033224492            8 
 2795000    0.7951882   -5.9756124    1118.6106  0.033351538  0.033216128            6 
 2796000   0.78805263   -5.9612306    1117.3986  0.033303487  0.033207757            6 
 2797000   0.80166454   -6.0095419    1119.9653  0.033368053  0.033199261           15 
 2798000    0.7939696   -5.9844028    1118.2524   0.03330511  0.033190738            6 
 2799000   0.79477273   -5.9802223    1118.6523  0.033305119  0.033182285            6 
 2800000   0.80051232    -5.949179    1119.1737  0.033308741  0.033173879            9 
 2801000   0.81533787   -6.0058379    1120.2017  0.033327435  0.033165475           12 
 2802000   0.80506982   -5.9607746    1124.5951  0.033446201  0.033157089            8 
 2803000   0.79360412   -5.9853091    1117.5583  0.033225067  0.033148806           12 
 2804000   0.80399808    -5.973503    1119.0217  0.033256708  0.033140346            6 
 2805000   0.80419249   -5.9903695    1117.4015  0.033196716  0.033131869            7 
 2806000    0.7940459   -5.9873996    1120.4921  0.033276671   0.03312341            6 
 2807000   0.78107438   -5.9755822    1122.2258  0.033316287  0.033114893            9 
 2808000   0.80645053   -6.0068541    1119.2975  0.033217519  0.033106402           11 
 2809000   0.81112322   -5.9859381    1119.5845  0.033214208  0.033097842           11 
 2810000   0.79983339   -5.9696477    1119.6789  0.033205188  0.033089317           12 
 2811000   0.80709667   -5.9889508     1120.821  0.033227232  0.033080857            6 
 2812000   0.80501492      -5.9584    1122.4423  0.033263462  0.033072386            6 
 2813000   0.80632355   -5.9970611    1118.5586  0.033136586  0.033063898            5 
 2814000   0.79548822   -5.9860159    1117.6197  0.033097007  0.033055423            7 
 2815000   0.78158958   -5.9644425    1121.9522  0.033213506  0.033046997           10 
 2816000   0.81721165   -5.9430372    1120.9932  0.033173332  0.033038552           11 
 2817000   0.78494598   -5.9582368    1122.9176  0.033218484  0.033030109            6 
 2818000    0.8107862   -5.9392758    1120.2672  0.033128317  0.033021621            6 
 2819000   0.80224585    -5.980917     1120.625  0.033127142   0.03301316            6 
 2820000   0.80041657   -5.9907222    1122.1827  0.033161427  0.033004653            8 
 2821000   0.78911704   -5.9601561    1123.1511   0.03317828  0.032996171            3 
 2822000   0.79698913   -5.9627712    1121.8217  0.033127265  0.032987691            6 
 2823000   0.78259735   -6.0162734    1118.9016  0.033029331  0.032979094            8 
 2824000   0.79973651    -5.998271    1121.2784  0.033087773  0.032970486            6 
 2825000   0.78133699   -5.9876925    1123.9191  0.033153954   0.03296199           13 
 2826000   0.81477797   -5.9813486    1122.0102  0.033085933  0.032953489            7 
 2827000   0.80222086   -5.9607726    1125.9652  0.033190816  0.032944982           13 
 2828000   0.79531691   -6.0120632    1119.3406  0.032983871  0.032936449           11 
 2829000   0.77964524   -5.9650091    1119.4604   0.03297574  0.032927899            8 
 2830000   0.80787916     -5.99564    1122.7626  0.033061324  0.032919345           11 
 2831000   0.82135531   -5.9921395    1120.6796  0.032988331  0.032910849           11 
 2832000   0.78326015   -5.9799744    1121.5091   0.03300109  0.032902313            7 
 2833000    0.8070031   -5.9814348    1123.4719   0.03304718  0.032893878            9 
 2834000   0.79302833   -5.9728567    1121.7476  0.032984815  0.032885344            6 
 2835000   0.80504269   -5.9884585    1124.0481  0.033040804  0.032876907            9 
 2836000   0.79063349   -5.9505025    1123.7776  0.033021203  0.032868451            7 
 2837000   0.80184613    -5.977907    1125.4793  0.033059551  0.032859993           21 
 2838000   0.79351443   -5.9999177    1120.8241  0.032911208  0.032851466           15 
 2839000   0.79378158    -6.020298    1122.0383  0.032935257  0.032842958            6 
 2840000   0.77943678   -5.9909553    1124.2753  0.032989298  0.032834471            6 
 2841000   0.79928023   -5.9971918    1124.8623  0.032994904  0.032825965            9 
 2842000   0.81329188    -5.986312     1128.137  0.033079317  0.032817509            5 
 2843000   0.79187375   -5.9683206    1125.9498   0.03300357   0.03280907            3 
 2844000   0.80040013   -5.9921489    1126.9435  0.033021081  0.032800568            3 
 2845000   0.82268052   -5.9602828    1128.4198  0.033052717  0.032792226            6 
 2846000   0.78685054   -5.9764093    1128.3514  0.033039103  0.032783892            6 
 2847000   0.79589217   -5.9779862     1127.855  0.033012968  0.032775531            4 
 2848000   0.78713081   -5.9883403    1126.5784   0.03296402  0.032767214            4 
 2849000   0.80916441   -5.9883583     1126.999  0.032964754  0.032758848            7 
 2850000   0.78713062   -6.0158723    1126.7176  0.032944958  0.032750461            7 
 2851000   0.79899006   -5.9896782    1124.9655  0.032882192  0.032742034            4 
 2852000   0.79986971   -5.9801835    1126.8985  0.032927141   0.03273364            6 
 2853000    0.8064445   -5.9831741    1129.4499  0.032990124  0.032725287            4 
 2854000    0.7852841    -6.029769     1124.416  0.032831583  0.032716864            6 
 2855000   0.80697973   -6.0204057    1125.8698  0.032862516   0.03270845            9 
 2856000   0.77969859    -5.961657    1129.7217  0.032963402  0.032700084           11 
 2857000     0.784444   -5.9949252    1126.5762  0.032860115  0.032691731            6 
 2858000   0.78692334   -5.9960464    1127.9608   0.03288899  0.032683411            9 
 2859000   0.77840879   -6.0143841    1130.0563  0.032938565  0.032675062            6 
 2860000   0.81527957   -5.9946958    1125.8425  0.032804268  0.032666729           10 
 2861000   0.77705409   -5.9797576    1127.8249  0.032850544  0.032658441            6 
 2862000   0.79388878   -5.9990793    1129.1821  0.032878584  0.032650032           11 
 2863000   0.77692775   -5.9814776    1131.0846  0.032922477  0.032641708            3 
 2864000   0.78846478   -6.0031314    1130.7211  0.032900405  0.032633501           10 
 2865000   0.79549435   -5.9933479    1128.2106  0.032815898  0.032625204            4 
 2866000   0.79810094   -6.0012543    1129.1608  0.032832077  0.032616953            8 
 2867000   0.80797918   -6.0136346    1128.6569   0.03280598  0.032608722            5 
 2868000   0.80046608    -6.016872    1129.4311  0.032817036  0.032600478            4 
 2869000   0.78584172    -5.985243    1130.0361  0.032823171  0.032592252            4 
 2870000   0.80886246   -5.9946239    1128.0628  0.032754438  0.032584051            8 
 2871000   0.80171069   -6.0102255    1130.3174  0.032808469  0.032575751            9 
 2872000   0.80741329   -6.0040771    1129.2266  0.032765396   0.03256749            3 
 2873000   0.79143579   -5.9924309    1132.5529  0.032850474   0.03255925            6 
 2874000   0.80446378   -6.0110713     1131.614  0.032811817  0.032550968            5 
 2875000   0.80282434   -5.9823955    1133.0998  0.032843473  0.032542752            7 
 2876000    0.7836447   -6.0023716    1129.9875  0.032741871  0.032534547            5 
 2877000    0.7735421   -6.0096665     1131.375  0.032770681  0.032526304           18 
 2878000    0.7963082   -6.0268478     1131.108  0.032751562  0.032518065            9 
 2879000   0.79671457   -6.0023616    1133.4852  0.032808997  0.032509831            7 
 2880000   0.78884999   -5.9855228    1131.7326  0.032746893  0.032501577            5 
 2881000   0.79062152   -5.9989564    1132.5577  0.032759391  0.032493329            5 
 2882000   0.78761642   -5.9994486    1131.1558  0.032707488  0.032485046            4 
 2883000   0.79311312   -5.9923028    1129.0627  0.032635642    0.0324768            8 
 2884000   0.80790018   -6.0098765    1131.2359  0.032687122  0.032468562            7 
 2885000   0.78069107   -6.0299747    1131.0634   0.03267081  0.032460295            6 
 2886000   0.79858764   -5.9674259    1134.1085  0.032747416  0.032451982           14 
 2887000   0.78613522   -5.9860272    1132.9517  0.032702681  0.032443734           13 
 2888000   0.80622997   -5.9923904    1129.6001  0.032594646  0.032435391           12 
 2889000   0.80761315   -6.0179597    1131.7199  0.032644511  0.032427052            5 
 2890000   0.80264244   -6.0334862      1130.05  0.032585062   0.03241872            5 
 2891000   0.79414403   -5.9966223    1132.3522  0.032640155  0.032410436           10 
 2892000   0.78652804   -6.0041358    1129.0011  0.032532306  0.032402117            7 
 2893000   0.78115615   -6.0086572    1131.2059  0.032584568  0.032393852           10 
 2894000   0.77168196   -5.9911307      1132.61  0.032613742  0.032385522           26 
 2895000    0.7885917   -5.9995986    1134.1776    0.0326476  0.032377206            4 
 2896000   0.79034396   -6.0262795    1132.9322  0.032600489  0.032368893            3 
 2897000   0.78063268   -6.0076098    1134.8502  0.032644407  0.032360614           10 
 2898000   0.78525845    -6.000042    1131.8104  0.032545732  0.032352256            6 
 2899000   0.79577527   -5.9896865    1130.7884  0.032505129  0.032343934            6 
 2900000   0.79557241   -5.9949499    1131.5769  0.032516579  0.032335605            6 
 2901000   0.78534616   -6.0146762    1131.9821  0.032517009  0.032327289            6 
 2902000   0.79110326   -5.9875084    1136.2229  0.032627581  0.032319001            6 
 2903000   0.80248934   -6.0089637    1133.4867  0.032537799  0.032310726            4 
 2904000   0.78882279   -6.0407374    1130.8717  0.032451553  0.032302398            8 
 2905000   0.78267352   -6.0258294    1135.0739  0.032560926  0.032293998            6 
 2906000   0.79778077   -6.0346664    1129.8004  0.032398496  0.032285687           11 
 2907000   0.78776593   -6.0183048    1132.9862  0.032478679  0.032277362            6 
 2908000    0.7834386   -6.0253221    1132.0924  0.032441896  0.032269052            4 
 2909000    0.7808165   -6.0485147    1133.3555  0.032466929  0.032260719           10 
 2910000     0.784615   -6.0222622    1133.8364  0.032469543  0.032252394            9 
 2911000   0.80394598   -5.9770418    1136.0524  0.032521824  0.032244113            7 
 2912000   0.78991493   -6.0484008    1134.9056  0.032477838  0.032235842            8 
 2913000   0.78919663   -6.0126235    1135.0658  0.032471272  0.032227519            6 
 2914000   0.78311191   -6.0321408    1131.6151  0.032361447  0.032219225           13 
 2915000    0.7822337   -5.9991251    1132.3957  0.032372663  0.032210962            5 
 2916000   0.79325359    -6.008284    1134.7736  0.032429514  0.032202717            7 
 2917000   0.77967071   -6.0193702    1134.0208  0.032396891  0.032194449            5 
 2918000   0.78241886   -6.0093969    1134.2278  0.032391701  0.032186167            6 
 2919000   0.79097769     -6.02084    1132.6657  0.032336008  0.032177892            7 
 2920000   0.79607115   -6.0088696    1134.3855  0.032374014  0.032169594            3 
 2921000   0.80330093    -6.003355    1140.2431  0.032530045  0.032161317            6 
 2922000   0.80514166   -5.9930408    1135.1145  0.032372646  0.032153041            9 
 2923000   0.78095387   -6.0021529    1134.3444  0.032339616  0.032144717           15 
 2924000   0.78450898   -6.0413987    1132.9561  0.032288991  0.032136384           10 
 2925000   0.77806381   -6.0042506    1135.3656  0.032346599  0.032128081            4 
 2926000   0.78381845   -6.0325975    1134.1352  0.032300502  0.032119832            5 
 2927000   0.78860847    -6.001407    1135.2237  0.032320456  0.032111623            9 
 2928000   0.78247289   -6.0047482     1137.958  0.032387238  0.032103381            6 
 2929000   0.78245165   -5.9955328    1137.5712  0.032365176  0.032095221            9 
 2930000   0.77582419   -6.0247456    1136.3307  0.032318849  0.032087015            6 
 2931000   0.78829504   -6.0220946    1135.0131  0.032270359  0.032078736            5 
 2932000   0.77537689    -6.013911    1137.0438   0.03231707  0.032070444            5 
 2933000    0.7798576   -6.0226696    1136.7023   0.03229635  0.032062182            5 
 2934000   0.78293111   -6.0587954    1132.3204  0.032160883  0.032053816            8 
 2935000    0.7878268   -6.0201425    1137.5253   0.03229771  0.032045542            9 
 2936000   0.78449337   -6.0437716    1135.4512  0.032227839  0.032037337           10 
 2937000   0.79025411   -6.0036406    1137.7643  0.032282496  0.032029141            6 
 2938000   0.77180852   -6.0432295    1137.2855  0.032257928  0.032020923           11 
 2939000   0.79179249   -6.0320553    1136.5568  0.032226291  0.032012666           11 
 2940000   0.78607266   -6.0269262    1139.2263  0.032290996  0.032004418            9 
 2941000   0.77904052   -6.0545812    1136.6496  0.032207003  0.031996133            8 
 2942000    0.7847434     -6.05678    1138.8947   0.03225965  0.031987767            7 
 2943000   0.79618945   -6.0026249    1143.7712  0.032386772  0.031979532           11 
 2944000   0.80233293   -6.0557578    1135.3673  0.032137889  0.031971346            6 
 2945000   0.79797103   -6.0327044    1137.5664  0.032189202  0.031963119            6 
 2946000   0.76827786   -6.0386909    1138.9363  0.032217025  0.031954936            4 
 2947000   0.77248432   -6.0401768     1140.165  0.032240837  0.031946753           10 
 2948000   0.77837748   -6.0210848    1137.7535  0.032161734  0.031938532            7 
 2949000   0.79255718    -6.030429    1140.8299  0.032237762  0.031930395           11 
 2950000   0.78678079   -6.0439597    1137.5234   0.03213343  0.031922229            7 
 2951000   0.79556525   -6.0357266    1140.9475  0.032219232  0.031914074            6 
 2952000   0.78332285   -6.0349542    1137.9742  0.032124384  0.031905935            5 
 2953000   0.77294007   -6.0685581    1137.7763  0.032107921  0.031897674            6 
 2954000   0.77312882   -6.0561165    1140.2192  0.032165967  0.031889376           10 
 2955000   0.80192227   -6.0377232    1140.9714  0.032176295  0.031881141           15 
 2956000   0.76754333   -6.0305123    1141.1874  0.032171497  0.031872981            5 
 2957000   0.77721812    -5.999269    1140.1228  0.032130616  0.031864824            3 
 2958000   0.80132384   -6.0208948    1137.7742  0.032053588  0.031856704           12 
 2959000   0.79201962   -6.0244158    1141.5762  0.032149831  0.031848529            9 
 2960000   0.79223581    -6.022831    1141.9707  0.032150076  0.031840333           14 
 2961000   0.77618898   -6.0363551    1143.0776  0.032170372  0.031832101           10 
 2962000   0.77611934   -6.0001452    1143.6847  0.032176589   0.03182391            7 
 2963000   0.79126605   -6.0329566    1141.9486  0.032116903  0.031815742            6 
 2964000   0.78994359   -6.0426263    1139.0775  0.032025346   0.03180759           11 
 2965000   0.77159789   -6.0436527    1139.9998  0.032040468  0.031799407            4 
 2966000   0.76846558   -6.0218258    1142.5627  0.032101672   0.03179124           11 
 2967000   0.76991678   -6.0490304    1141.3221  0.032056007  0.031783068           13 
 2968000    0.7818625    -6.044386     1140.823  0.032031195  0.031774866           16 
 2969000   0.76306558   -6.0420637    1139.4858  0.031982873  0.031766656            5 
 2970000   0.76471808   -6.0436324    1142.0865  0.032045076  0.031758476            7 
 2971000   0.79288664   -6.0427925    1141.7477  0.032024787  0.031750354           10 
 2972000   0.76466988   -6.0431294    1143.3044  0.032057661  0.031742221            5 
 2973000   0.77297393   -6.0253228    1144.6203  0.032083761  0.031734079            8 
 2974000   0.78097786   -6.0458514    1143.2109  0.032033481  0.031725998           12 
 2975000   0.78374678   -6.0234811    1143.0695  0.032018753   0.03171789           19 
 2976000     0.764986   -6.0383467      1141.21  0.031955925  0.031709799            8 
 2977000   0.77707162   -6.0269709    1142.1108  0.031970405   0.03170168            6 
 2978000   0.76948502   -6.0386596    1143.1062  0.031987524  0.031693519            6 
 2979000    0.7761642   -6.0428218    1140.5422  0.031905064  0.031685421            7 
 2980000   0.78927128   -6.0515335    1144.9229  0.032016859  0.031677287            6 
 2981000   0.76440382   -6.0469431    1145.1998  0.032013861  0.031669191           10 
 2982000   0.77952777   -6.0258894    1142.0499  0.031915099   0.03166114            9 
 2983000   0.76639201   -6.0460799    1143.3538  0.031940826  0.031653073            4 
 2984000   0.77683088   -6.0454285    1145.6177  0.031993346   0.03164505            7 
 2985000   0.79341099   -6.0779978    1141.4406  0.031866015  0.031636956            5 
 2986000   0.76539433   -6.0741975    1142.4243  0.031882796  0.031628894           10 
 2987000   0.79523311   -6.0217182    1144.6443  0.031934055  0.031620908            4 
 2988000   0.77019766   -6.0494935     1145.498  0.031947179  0.031612963            9 
 2989000   0.77055855    -6.052918    1145.0284  0.031923398  0.031605011           12 
 2990000   0.77419112   -6.0400583    1148.7308  0.032015909   0.03159706            7 
 2991000   0.77519604   -6.0471033    1146.1619  0.031933632  0.031589045            4 
 2992000   0.77799338   -6.0609574    1144.4221    0.0318745  0.031580996            8 
 2993000   0.77236045   -6.0745572    1144.0394  0.031853197  0.031572942           10 
 2994000   0.76432073    -6.030007    1150.3638  0.032018588  0.031564971            6 
 2995000   0.76483089   -6.0550956     1147.881  0.031938815     0.031557            8 
 2996000   0.77405296   -6.0565373    1147.0995  0.031906418  0.031549004           10 
 2997000   0.78788802   -6.0611117     1145.823  0.031860276  0.031541021           11 
 2998000    0.7779812   -6.0571247    1145.4224  0.031838514  0.031533003            6 
 2999000   0.76670135   -6.0404506    1146.7146  0.031863805  0.031524952            9 
 3000000   0.75695155   -6.0795783    1143.8398  0.031773329  0.031516861           15 
 3001000   0.76183964   -6.0524576    1146.3934  0.031833649  0.031508771            5 
 3002000   0.75989734   -6.0583269    1145.7244  0.031804474  0.031500699           14 
 3003000    0.7775302   -6.0795804    1146.2956  0.031809735  0.031492644            8 
 3004000   0.76330279   -6.0662325    1148.4339  0.031858463   0.03148457            5 
 3005000   0.77090397   -6.0485788    1148.1213  0.031839193  0.031476602            6 
 3006000   0.78035597   -6.0404426    1150.1073  0.031883658  0.031468634           13 
 3007000   0.75328275   -6.0486712    1147.8118  0.031809438  0.031460646           13 
 3008000   0.77190458   -6.0720764    1149.3951  0.031842728  0.031452676            7 
 3009000   0.75673502    -6.056071    1146.8387  0.031761347  0.031444657            6 
 3010000   0.78786415   -6.0589238    1150.8997  0.031863224  0.031436697            9 
 3011000   0.76444639   -6.0240482    1154.3007   0.03194677  0.031428756            7 
 3012000    0.7645233   -6.0581523    1148.0173  0.031762321  0.031420832            8 
 3013000   0.77419141   -6.0685719    1147.3456    0.0317332  0.031412805           10 
 3014000   0.77021791   -6.0461972    1150.2898  0.031804075    0.0314048           12 
 3015000   0.75691374    -6.075279    1146.9637  0.031701595  0.031396775            5 
 3016000   0.76480085   -6.0553322    1150.4663  0.031787861  0.031388737           11 
 3017000   0.76097157   -6.0695949    1147.0125  0.031681926  0.031380719            6 
 3018000   0.78205249   -6.0450745    1150.4684  0.031766855  0.031372669            7 
 3019000   0.78192703   -6.0810565    1145.4888  0.031618882  0.031364559            5 
 3020000   0.76658327   -6.0842353    1147.0955  0.031652747  0.031356503            8 
 3021000   0.77684809   -6.0872457    1146.0942  0.031614647   0.03134841           12 
 3022000   0.76740724   -6.0373997    1150.8562  0.031735502  0.031340388            8 
 3023000   0.77037254   -6.0721398    1152.2356  0.031763028  0.031332387           10 
 3024000   0.76705792   -6.0562734    1150.2971  0.031699104   0.03132444            8 
 3025000   0.76049326   -6.0714435    1150.4367  0.031692472  0.031316449           11 
 3026000   0.78919533   -6.0525476    1149.0558   0.03164397  0.031308497            4 
 3027000   0.76598838   -6.0304188    1150.2902  0.031667497  0.031300479            7 
 3028000   0.76794636   -6.0473807    1150.5724  0.031664806   0.03129248            6 
 3029000   0.75365014   -6.0535244    1152.9259  0.031719101  0.031284491            6 
 3030000   0.75339173   -6.0421311    1152.1386  0.031686981  0.031276547            9 
 3031000   0.78494324   -6.0572599    1150.6937    0.0316368   0.03126863            4 
 3032000   0.78066973   -6.0525555    1151.7247  0.031654703  0.031260663           13 
 3033000   0.76410612   -6.0512533    1152.0476  0.031653137  0.031252762            3 
 3034000   0.77415043   -6.0853395    1148.7683  0.031552635  0.031244814            7 
 3035000   0.76634827   -6.0510749    1151.0859  0.031605873  0.031236826           10 
 3036000   0.76297743   -6.0581944    1154.0487  0.031676788  0.031228881           11 
 3037000   0.74403559   -6.0887101    1151.2149  0.031588598  0.031220886           19 
 3038000   0.76453246   -6.0322444    1154.3746  0.031664872  0.031212892           11 
 3039000     0.764458   -6.0489643    1150.6699  0.031552866   0.03120497           15 
 3040000   0.77120093    -6.093195      1147.24  0.031448465  0.031196991           11 
 3041000   0.77372318   -6.0614994    1154.4728  0.031636325   0.03118901            5 
 3042000   0.76871148    -6.056783    1151.2165  0.031536722  0.031181036           10 
 3043000    0.7790858   -6.0502912     1151.551  0.031535519  0.031173017           11 
 3044000   0.74760914   -6.0394273    1150.6219  0.031499725  0.031165001           10 
 3045000   0.75446773   -6.0689937    1152.4177  0.031538525  0.031156994           12 
 3046000   0.77943333   -6.0794047    1151.6578  0.031507381  0.031148943            8 
 3047000    0.7631884   -6.0760282    1150.9068  0.031476501  0.031141003           16 
 3048000    0.7689094   -6.0442841    1154.7345  0.031570826  0.031133049            9 
 3049000   0.75304248   -6.0497088    1151.5528  0.031473509  0.031125179            6 
 3050000   0.74518978   -6.0763532    1152.2242  0.031481535  0.031117175            9 
 3051000   0.75957776   -6.0672504    1154.2719  0.031527148  0.031109215            8 
 3052000    0.7582329   -6.0733382    1153.9868  0.031509032  0.031101326           10 
 3053000   0.76423378   -6.0874789    1150.0423  0.031391044  0.031093348           13 
 3054000   0.77518978   -6.0694441    1152.6621  0.031452252  0.031085376            6 
 3055000   0.74328127   -6.0517949     1152.924  0.031449101  0.031077482           11 
 3056000   0.75114301   -6.0777685    1149.6605  0.031349818  0.031069585            7 
 3057000   0.74300281   -6.0470978     1154.494  0.031471322  0.031061622            7 
 3058000   0.74334532   -6.0529822    1153.4747  0.031433253  0.031053601            7 
 3059000    0.7626579   -6.0937546    1150.9297  0.031353647  0.031045511            7 
 3060000     0.772367   -6.0819423    1150.6872  0.031336798  0.031037424            8 
 3061000   0.74972309   -6.0870484    1150.9073  0.031332551  0.031029386           12 
 3062000   0.75942885   -6.0715132     1151.983  0.031351596  0.031021378           13 
 3063000    0.7808902   -6.0769566    1154.7146  0.031415676  0.031013417            9 
 3064000   0.75587442   -6.0456746    1155.2963  0.031421245  0.031005484            6 
 3065000   0.75884773   -6.0736601    1154.9058  0.031400377  0.030997541            5 
 3066000   0.75885708   -6.1122308    1152.3103  0.031319588   0.03098952            8 
 3067000   0.77543479    -6.100472    1150.7418  0.031266758  0.030981481           24 
 3068000   0.76281606   -6.0650321    1155.7426    0.0313924  0.030973471            6 
 3069000   0.77250406   -6.0716862    1157.2659  0.031423534  0.030965458           11 
 3070000   0.77139653   -6.0808719    1154.0021  0.031324705  0.030957429           16 
 3071000   0.75251354   -6.0966632    1152.8804  0.031284066  0.030949413           17 
 3072000   0.75783313   -6.0851577    1153.0192  0.031277646  0.030941327            5 
 3073000   0.77616365   -6.0418322     1156.451  0.031360532   0.03093335            6 
 3074000   0.76586428   -6.0581433    1154.5573  0.031298995  0.030925419           10 
 3075000   0.77761815   -6.0707532    1154.4249  0.031285228  0.030917424           10 
 3076000   0.75337365   -6.0924671    1152.8284  0.031231806  0.030909384           10 
 3077000   0.76236931   -6.0948839    1153.8563  0.031249494  0.030901339            5 
 3078000    0.7658091   -6.0912569    1150.1247  0.031138312    0.0308933           11 
 3079000   0.76749451   -6.0607638    1153.9703  0.031232281  0.030885293            9 
 3080000   0.76510693   -6.0525975    1156.9388  0.031302457  0.030877341            6 
 3081000   0.75165476   -6.0640858    1155.1433  0.031243732  0.030869369            8 
 3082000   0.75512563   -6.0516044    1157.5169  0.031297774   0.03086143           16 
 3083000    0.7454956   -6.0715519    1153.1093  0.031168486  0.030853413            9 
 3084000   0.76349581   -6.0805777    1152.1651  0.031132865  0.030845385            4 
 3085000   0.76517979   -6.0593435    1154.3575  0.031181996  0.030837375            7 
 3086000   0.73833047   -6.0690027    1157.0861  0.031245573  0.030829383           13 
 3087000   0.76952944   -6.0659717    1155.0594  0.031180741  0.030821364           12 
 3088000     0.758304   -6.0879028    1153.6029  0.031131338  0.030813345            8 
 3089000   0.75288641   -6.0601806    1159.4201  0.031278194   0.03080533            9 
 3090000   0.75693301   -6.0631273    1156.2316  0.031182082  0.030797341            8 
 3091000   0.76389175   -6.0731421    1154.1261  0.031115229  0.030789363            9 
 3092000   0.75315849   -6.0590618    1157.7517  0.031202881   0.03078141            8 
 3093000   0.75171605   -6.0765728    1155.9226  0.031143513  0.030773394           12 
 3094000   0.76923829   -6.0867446    1156.0532  0.031136963    0.0307654           16 
 3095000   0.76636988   -6.0799768    1156.1828  0.031130394  0.030757439           16 
 3096000   0.76119268   -6.0921771    1154.0545  0.031063051  0.030749435            6 
 3097000   0.76676852   -6.0873806     1153.807  0.031046361  0.030741407           13 
 3098000   0.75986166   -6.0962703    1156.4883  0.031108464  0.030733449           10 
 3099000   0.76328973   -6.0686457    1156.3607  0.031094996  0.030725487            7 
 3100000   0.74181655   -6.0962645    1157.8105  0.031123939  0.030717534            7 
 3101000   0.75739626   -6.0711052    1155.5996  0.031054488  0.030709537            5 
 3102000   0.75885056   -6.0905534    1154.6329  0.031018507   0.03070151            6 
 3103000   0.74186984   -6.0933518    1156.3388  0.031054323  0.030693488            6 
 3104000   0.75492379   -6.1072731    1153.1115  0.030957674  0.030685501            8 
 3105000   0.74737804   -6.1089702    1156.5328  0.031039527  0.030677478            9 
 3106000   0.74730263   -6.1129317    1152.7029  0.030926779  0.030669374           13 
 3107000   0.74610483   -6.0826487    1156.3152  0.031013711  0.030661255            4 
 3108000   0.75079487   -6.0912696     1156.135  0.030998901  0.030653189            5 
 3109000   0.74899312   -6.1111757    1156.4083  0.030996256  0.030645182            6 
 3110000   0.75619768   -6.0848414    1157.8079  0.031023792  0.030637166           11 
 3111000   0.75447838   -6.0846878     1158.623  0.031035654  0.030629194           10 
 3112000   0.76257781   -6.0642741    1158.5529  0.031023804  0.030621208            4 
 3113000   0.77723645    -6.079109    1154.7262  0.030911397  0.030613223           15 
 3114000   0.75085579   -6.1019996    1156.6374  0.030952617  0.030605246           10 
 3115000   0.74921722   -6.0853233    1156.8605   0.03094865  0.030597239            8 
 3116000   0.74150526   -6.0857995    1159.2974  0.031003889  0.030589239           10 
 3117000   0.74190296   -6.1050119    1153.9951  0.030852183   0.03058121            6 
 3118000    0.7525281   -6.0786611    1158.6709  0.030967258  0.030573252            5 
 3119000   0.77166885   -6.0602721    1159.6194   0.03098267  0.030565307           17 
 3120000   0.74484384   -6.1165194    1153.6077  0.030812171  0.030557314           10 
 3121000   0.74965644   -6.1091509     1154.324  0.030821426  0.030549307           13 
 3122000   0.74322407   -6.0960659    1156.5085  0.030869862  0.030541212           11 
 3123000   0.75044322   -6.1153465    1154.7977  0.030814326  0.030533137            9 
 3124000   0.75060048   -6.0947209    1157.5754  0.030878557  0.030525112            2 
 3125000    0.7530541   -6.0697249    1158.4664  0.030892437  0.030517019            7 
 3126000   0.75043145    -6.058698    1157.7681  0.030863939  0.030508992           10 
 3127000   0.74704831    -6.099251    1154.7808  0.030774458  0.030500987           23 
 3128000   0.74897673   -6.1223042    1152.6833   0.03070874  0.030492924           12 
 3129000   0.75355054   -6.0989313    1155.1177  0.030763761  0.030484867           10 
 3130000   0.75190693   -6.1316262    1154.7037  0.030742911  0.030476774           18 
 3131000   0.74277615   -6.0888485    1157.4628  0.030806526  0.030468643           10 
 3132000   0.75175435   -6.1161416    1157.3727  0.030794292   0.03046055           24 
 3133000    0.7475766   -6.0974805    1157.7679  0.030794975    0.0304525           28 
 3134000   0.73896063    -6.070204     1159.062   0.03081956  0.030444554           12 
 3135000   0.74442594   -6.1226855     1158.371  0.030791362  0.030436573            8 
 3136000   0.75252507   -6.1171403     1159.341  0.030807319   0.03042855           15 
 3137000   0.75160336   -6.0848699    1160.1411  0.030818752   0.03042059            7 
 3138000   0.74991288   -6.1011805    1158.0589  0.030753635  0.030412612            7 
 3139000   0.75805666   -6.0802667    1159.8742   0.03079203  0.030404631            5 
 3140000   0.76644114   -6.0924725    1160.7978  0.030806735  0.030396638           10 
 3141000   0.74701773   -6.1251756    1160.1019  0.030778466   0.03038863            7 
 3142000   0.73186321   -6.1232444     1157.655  0.030703771  0.030380635           11 
 3143000   0.75604988   -6.1062275    1157.2518  0.030683312  0.030372621            3 
 3144000    0.7444101   -6.1023966    1160.1789  0.030751138  0.030364617            5 
 3145000   0.74168958   -6.1169216    1157.7938  0.030678161   0.03035663           10 
 3146000   0.74660241   -6.1183577    1158.5018  0.030687163  0.030348617           12 
 3147000   0.75493258   -6.0973846    1160.9162  0.030741347  0.030340626           22 
 3148000   0.75748874   -6.0991296    1159.6631   0.03069841  0.030332681           12 
 3149000   0.74150527    -6.089278    1159.6244  0.030687635  0.030324726           18 
 3150000   0.74617643   -6.1023199    1159.1198  0.030664544  0.030316698            8 
 3151000   0.75097179   -6.1178461    1159.4558  0.030663698  0.030308696           10 
 3152000   0.73741287   -6.0960578    1159.5858  0.030657409  0.030300678            6 
 3153000   0.74987084    -6.108405    1160.1701  0.030663129  0.030292683           12 
 3154000   0.73994576    -6.092082    1158.2814  0.030603504  0.030284718           12 
 3155000   0.74895133   -6.0996189    1162.0323  0.030692876  0.030276748           10 
 3156000   0.74928437   -6.0722665    1162.8578  0.030704947  0.030268754            9 
 3157000   0.74288833   -6.0945489    1160.3694  0.030629538  0.030260774            9 
 3158000   0.73458865   -6.1226421    1160.0476  0.030611348  0.030252764           15 
 3159000   0.74738804   -6.1031215    1160.6002  0.030616235  0.030244776            6 
 3160000   0.74810894   -6.1296807    1156.0474  0.030486482  0.030236675            7 
 3161000      0.76714   -6.0931375    1159.8283  0.030576514  0.030228649           12 
 3162000   0.74817475    -6.136617    1155.2652  0.030446585  0.030220597           12 
 3163000   0.73461644   -6.1186676    1160.2661  0.030568713  0.030212531            5 
 3164000   0.74700051   -6.1195674    1158.4924  0.030512337  0.030204452           10 
 3165000   0.74033149   -6.0923651    1157.5374  0.030477551  0.030196324           10 
 3166000   0.74248622   -6.0985271    1158.3176  0.030488461   0.03018824            7 
 3167000   0.75301927   -6.1216593    1159.2336  0.030502937  0.030180173           10 
 3168000   0.76427949   -6.1161406    1157.7344  0.030453871  0.030172123           12 
 3169000   0.74175282   -6.1397316    1154.2732  0.030353246  0.030163991           10 
 3170000   0.74218459   -6.1291715    1158.6623  0.030459052  0.030155904            9 
 3171000   0.73379467   -6.1148703    1162.6842   0.03055514  0.030147773           15 
 3172000   0.73497774   -6.1103763    1156.8965  0.030393455  0.030139717            9 
 3173000   0.77185591   -6.1397853     1157.716    0.0304054  0.030131606            6 
 3174000   0.74090611   -6.1257941    1158.5723  0.030418303  0.030123488           11 
 3175000   0.74009876    -6.117327    1158.1752    0.0303983  0.030115336            8 
 3176000   0.73657013   -6.1057562    1157.8121  0.030379201  0.030107225            6 
 3177000   0.74240917   -6.1080014    1156.3069  0.030330158  0.030099103            4 
 3178000   0.73046863   -6.1276017      1156.58  0.030327775  0.030090967            7 
 3179000   0.74457127   -6.1574543    1154.5806  0.030265823  0.030082748            6 
 3180000   0.73769271   -6.1356467    1156.7456  0.030313039  0.030074588           11 
 3181000   0.75182176   -6.1160771    1159.3575  0.030371936  0.030066524           10 
 3182000   0.73977736   -6.1316052    1159.9103  0.030376868  0.030058348            6 
 3183000   0.76535812   -6.1436654    1155.0028  0.030238841  0.030050192           16 
 3184000   0.73245864   -6.0933758    1160.0306  0.030360934  0.030042086           13 
 3185000    0.7412412    -6.143687     1156.674  0.030263579  0.030033952            8 
 3186000   0.74223384   -6.1308271    1159.5885  0.030330312  0.030025856           15 
 3187000   0.74614263   -6.1236786    1159.8361  0.030327269  0.030017738            6 
 3188000   0.74199903    -6.126156    1158.5503  0.030284145  0.030009628           13 
 3189000   0.74401656   -6.1328419    1159.8087  0.030307532  0.030001488            4 
 3190000    0.7472605   -6.1285611    1156.7411  0.030217898  0.029993356           10 
 3191000   0.73564103   -6.1494798    1156.7778  0.030209385  0.029985157           11 
 3192000   0.73202127   -6.1418854    1156.6018  0.030195326  0.029976989            8 
 3193000   0.71988515   -6.1474761    1156.6517  0.030187172  0.029968779           15 
 3194000   0.72482231   -6.1519394    1157.1194  0.030189923  0.029960609           21 
 3195000   0.74099695   -6.1061905     1160.202  0.030260876  0.029952502           13 
 3196000   0.75197415   -6.1234197    1158.4764  0.030206413  0.029944359           10 
 3197000   0.73450146   -6.1515929     1156.285  0.030139844  0.029936187            7 
 3198000   0.73644527   -6.1172043    1159.2323  0.030207221  0.029928051            7 
 3199000   0.74203483   -6.1208927    1162.7345   0.03028901  0.029919939            7 
 3200000     0.737121   -6.1238825    1160.3813  0.030218262  0.029911878            5 
 3201000   0.72801996   -6.1163242    1161.6269   0.03024125   0.02990379            5 
 3202000   0.73113856   -6.0959809    1160.3195  0.030197779  0.029895752            9 
 3203000   0.73039433   -6.1032302    1160.9771   0.03020546  0.029887677           11 
 3204000   0.74690691   -6.1150413    1159.2378  0.030150796  0.029879548            8 
 3205000   0.74321353   -6.1468652    1158.0247  0.030109846  0.029871393           13 
 3206000   0.74033889   -6.1073415    1158.5665  0.030114538  0.029863264           11 
 3207000   0.72702205   -6.1486012    1161.1594  0.030172523  0.029855172            7 
 3208000   0.74316004   -6.1145487     1158.162  0.030085254  0.029847002            7 
 3209000   0.72359754   -6.1246921    1159.6717  0.030115086  0.029838832           12 
 3210000   0.73695496   -6.1549386    1160.8299  0.030135771  0.029830698           11 
 3211000   0.73921437   -6.1321728    1160.0163   0.03010527  0.029822526           16 
 3212000   0.74257586   -6.1362949    1160.9581  0.030120333  0.029814353           19 
 3213000     0.744354   -6.1452265     1162.467  0.030150094  0.029806205           15 
 3214000   0.74194344   -6.1112377    1165.2181  0.030212044  0.029798129           13 
 3215000   0.73727401   -6.1484403    1159.6965  0.030059526   0.02979004            8 
 3216000   0.75716785   -6.1630094    1157.5811  0.029995365  0.029781883           13 
 3217000   0.74718024   -6.1397777    1159.9312  0.030046916  0.029773731           10 
 3218000   0.73256503   -6.1273603     1163.149  0.030120908  0.029765629           10 
 3219000   0.74356777   -6.1417312    1161.0908  0.030058268    0.0297575            8 
 3220000   0.72069595   -6.1363669     1164.113  0.030127148  0.029749409            6 
 3221000   0.73719771   -6.1451024    1161.3871   0.03004727  0.029741279            7 
 3222000   0.72070816   -6.1248261    1163.8837  0.030102517  0.029733214            9 
 3223000   0.73936854   -6.1416064    1161.2763   0.03002576  0.029725143           17 
 3224000   0.72262404   -6.1211085    1162.4867  0.030047734  0.029717113           11 
 3225000   0.73042407   -6.1421371    1164.5845  0.030092622  0.029709099           17 
 3226000   0.73279564   -6.1264998    1162.8563  0.030038652  0.029701046            7 
 3227000   0.73094837   -6.1282229    1159.9896  0.029955314  0.029692952           14 
 3228000    0.7223207   -6.1284551    1159.9567  0.029945186  0.029684845            7 
 3229000   0.74776304   -6.1517949    1162.5731  0.030003435  0.029676699           10 
 3230000   0.74633755   -6.1464695    1159.6248   0.02991808  0.029668543            7 
 3231000    0.7473215   -6.1453511    1159.0445  0.029893854  0.029660409           12 
 3232000   0.74502195   -6.1760083    1160.1407  0.029912868  0.029652253            9 
 3233000   0.72125253   -6.1434251    1159.4369  0.029885474  0.029644114           15 
 3234000   0.74070207   -6.1291567    1162.1798  0.029946912   0.02963595            6 
 3235000   0.73884329   -6.1725932    1161.7155  0.029925695  0.029627796           12 
 3236000   0.73563811   -6.1684417    1159.2254  0.029852323  0.029619628           15 
 3237000   0.73858694   -6.1676047    1158.3701  0.029821082   0.02961146            9 
 3238000    0.7245886   -6.1764009    1160.0734  0.029855708  0.029603281           22 
 3239000   0.73299807   -6.1605754    1161.2903    0.0298778  0.029595126           11 
 3240000   0.73195559   -6.1440022    1159.7305   0.02982846  0.029586971           17 
 3241000     0.750252   -6.1646639    1160.5624  0.029840645  0.029578757            7 
 3242000   0.72633408   -6.1523735    1159.2791  0.029798455   0.02957062           12 
 3243000   0.72518984   -6.1532669    1161.1114  0.029836349  0.029562427           11 
 3244000   0.72908467   -6.1625462     1161.944  0.029848542  0.029554225            8 
 3245000    0.7241212   -6.1512179    1161.7793  0.029835112  0.029546099            3 
 3246000     0.737197   -6.1436368    1160.8159  0.029801188  0.029537988           16 
 3247000   0.74304646   -6.1647262    1159.2877  0.029752791  0.029529814           22 
 3248000   0.72559655   -6.1506293    1163.9875  0.029864212  0.029521709            8 
 3249000   0.73098732   -6.1559275    1160.0798   0.02975479  0.029513524           15 
 3250000   0.72938104   -6.1701451    1161.7907  0.029789504  0.029505307            8 
 3251000    0.7292073    -6.167802    1159.6267  0.029724872  0.029497146           16 
 3252000   0.72179895   -6.1601199    1161.1691  0.029755256  0.029489002            9 
 3253000   0.73542183   -6.1342364    1161.6552  0.029758561  0.029480792            8 
 3254000   0.73930764   -6.1438244    1162.0283  0.029758972  0.029472624           10 
 3255000   0.72033952   -6.1584509    1161.3465  0.029732374  0.029464502            7 
 3256000   0.73191789   -6.1391931    1164.2419  0.029797346  0.029456384           14 
 3257000   0.73072498   -6.1443532    1162.2666  0.029737658   0.02944828           11 
 3258000   0.73098895   -6.1752372    1158.1366  0.029622892  0.029440117           11 
 3259000   0.72729726   -6.1570187    1160.0894  0.029663736  0.029431974           12 
 3260000   0.73023012   -6.1507961    1160.3229  0.029660605  0.029423816           10 
 3261000   0.73934436   -6.1516134    1158.7967  0.029612509  0.029415571            6 
 3262000   0.72808257   -6.1827981    1161.2608   0.02966638  0.029407384           15 
 3263000   0.73700707   -6.1417177    1162.7601  0.029695578  0.029399288            5 
 3264000   0.72346155   -6.1717123    1158.7595  0.029584343  0.029391123           11 
 3265000   0.72839807   -6.1565524     1159.512  0.029594487  0.029382939           10 
 3266000   0.72448939   -6.1667578    1158.6259  0.029562817  0.029374775           10 
 3267000   0.73433926   -6.1656958     1160.314  0.029596826  0.029366623            7 
 3268000   0.72776565   -6.1373696     1162.334  0.029639279  0.029358483           10 
 3269000   0.72441398   -6.1809628    1158.7131  0.029537909  0.029350339            8 
 3270000   0.73203629   -6.1562817    1161.5115  0.029600192  0.029342195           14 
 3271000   0.73030419    -6.153967    1164.7709  0.029674179  0.029334054           22 
 3272000   0.72769727   -6.1591958    1162.7668  0.029614069   0.02932592            5 
 3273000   0.71832786   -6.1455512    1162.9633  0.029610023  0.029317748           18 
 3274000   0.72157378   -6.1463087    1164.6148  0.029643016   0.02930969            9 
 3275000   0.73385147   -6.1535273    1161.5526  0.029556046  0.029301565           23 
 3276000   0.72414439   -6.1695913    1162.6244  0.029574289  0.029293405           35 
 3277000   0.72493898   -6.1876659    1160.6052  0.029513916  0.029285232           24 
 3278000   0.72963461   -6.1797282    1164.3509  0.029600134  0.029277055           17 
 3279000   0.72416463   -6.1746091    1161.0891  0.029508212  0.029268903           20 
 3280000   0.70641055   -6.1523992    1164.4819  0.029585414  0.029260753            7 
 3281000   0.71793822   -6.1683821    1163.4015  0.029548956   0.02925262            7 
 3282000   0.72541956   -6.1655838    1160.7833  0.029473475  0.029244519           12 
 3283000   0.72402297   -6.1605989    1160.0851  0.029446775  0.029236406            9 
 3284000   0.72306412   -6.1550822    1163.3784  0.029521376  0.029228311            4 
 3285000   0.72486628   -6.1624872    1163.0521  0.029504113  0.029220263           12 
 3286000   0.73750326   -6.1825125    1161.5472   0.02945697  0.029212185           30 
 3287000   0.72581776   -6.1842555    1161.7887   0.02945413  0.029204084           10 
 3288000   0.72830956   -6.1832443    1164.2753  0.029508194  0.029195984           23 
 3289000   0.72212312   -6.1747155    1165.7084  0.029535533  0.029187895           16 
 3290000   0.72325378   -6.1914152     1163.217  0.029463451  0.029179825           10 
 3291000   0.73263653   -6.1720824     1166.247  0.029531222  0.029171719           12 
 3292000   0.72861779   -6.1821847    1164.1658  0.029469569  0.029163628           12 
 3293000   0.70869877    -6.141623    1166.3639  0.029516243  0.029155583            7 
 3294000   0.73335085    -6.159798    1168.2189  0.029554213  0.029147564           10 
 3295000   0.70599798   -6.1608642    1165.5354  0.029477376  0.029139566           21 
 3296000   0.73744597   -6.1830964    1164.3556  0.029438603  0.029131541           11 
 3297000   0.73464234   -6.1793853    1165.1788   0.02945048  0.029123501           11 
 3298000   0.74062372   -6.1965946    1163.5367  0.029400059  0.029115518           12 
 3299000   0.72958147   -6.1874313    1166.0972  0.029455826  0.029107432           13 
 3300000    0.7050492   -6.1450933    1166.7066  0.029462287  0.029099405            6 
 3301000   0.74397167   -6.1774928    1165.0468  0.029411461  0.029091399           13 
 3302000   0.71310919   -6.1783919     1166.028  0.029427318  0.029083411           10 
 3303000   0.71537277   -6.1657135    1165.6393    0.0294086  0.029075405            9 
 3304000   0.71987689   -6.1505373     1169.279  0.029491499  0.029067441            8 
 3305000   0.73432713   -6.1604601    1167.3804  0.029434704  0.029059505           29 
 3306000   0.73400856   -6.1969606    1163.1707  0.029319688   0.02905151           11 
 3307000   0.72113636   -6.1523394    1167.6775  0.029424391   0.02904352           15 
 3308000   0.72078691   -6.1682316     1163.262  0.029304262  0.029035565            6 
 3309000   0.72079121   -6.1633032    1166.5734  0.029378799  0.029027567           12 
 3310000   0.72519888   -6.1754891    1164.9872   0.02932999  0.029019568           27 
 3311000   0.73088659   -6.1926903    1165.2258  0.029327137  0.029011525           20 
 3312000   0.71373939   -6.1915604    1166.8935  0.029360242  0.029003483           11 
 3313000   0.70564595   -6.1878676    1164.0222  0.029279158  0.028995456            9 
 3314000   0.70590088   -6.1383648    1167.9039  0.029367932  0.028987481            8 
 3315000   0.71532883   -6.1616044    1165.3222  0.029294174  0.028979493           13 
 3316000   0.73541683   -6.1672935     1164.734  0.029270556  0.028971545            7 
 3317000    0.7307352   -6.2046221    1166.4927  0.029305916  0.028963541           10 
 3318000   0.72059452   -6.2093003    1167.1361  0.029313245  0.028955473           19 
 3319000   0.72169731   -6.1959354    1167.6106  0.029316325  0.028947465            7 
 3320000   0.71735874   -6.1880585    1167.3989  0.029302182  0.028939446           14 
 3321000   0.71892888   -6.1825505    1168.1676  0.029312646  0.028931437            8 
 3322000   0.71383614    -6.195434    1168.1965  0.029304548  0.028923456           14 
 3323000   0.73437572   -6.1783593    1168.0087   0.02929102  0.028915445           10 
 3324000   0.71200856   -6.1810342    1166.1181  0.029234811  0.028907377            9 
 3325000    0.7222887   -6.2107344    1163.5808  0.029162427  0.028899334           15 
 3326000   0.72850329   -6.1783874    1165.4674  0.029200928  0.028891323           13 
 3327000   0.71474873   -6.1904938    1161.6136  0.029095622  0.028883317           10 
 3328000   0.71583836   -6.1960494    1164.9556  0.029170562  0.028875289           14 
 3329000   0.72095634   -6.1873529    1166.0439  0.029189043  0.028867283            9 
 3330000   0.72201074   -6.2055965    1164.6979  0.029146595  0.028859257           17 
 3331000   0.70927128   -6.1762432    1167.2168  0.029200862  0.028851232           16 
 3332000   0.71925749   -6.1904529    1169.0956  0.029239087  0.028843265           17 
 3333000     0.715516   -6.1988785    1163.7539  0.029096758  0.028835228           10 
 3334000   0.68827989   -6.2052155    1164.7364  0.029112588  0.028827204            9 
 3335000   0.70702172   -6.2118941    1166.1717  0.029139724  0.028819166            9 
 3336000   0.73120799   -6.2151521    1161.5907  0.029016555  0.028811129           12 
 3337000   0.72759003   -6.2306626    1165.8252  0.029113604  0.028803094           18 
 3338000   0.73459399    -6.210474    1163.3402  0.029042846  0.028795102           20 
 3339000   0.73785702   -6.1964404    1167.3134  0.029133308  0.028787065            6 
 3340000   0.72321237   -6.1996678    1167.1163  0.029119667  0.028779087            6 
 3341000   0.72295176   -6.2017775    1166.7667  0.029102232  0.028771143            5 
 3342000   0.71793869   -6.1733986    1168.5637  0.029138332  0.028763233           12 
 3343000   0.70484658   -6.1717976    1170.2476  0.029171592    0.0287553            4 
 3344000      0.70634   -6.1857397    1168.6067  0.029121978  0.028747352            8 
 3345000   0.70859949   -6.1598201    1168.2689  0.029104855  0.028739412            7 
 3346000   0.71388444   -6.1756051    1167.4927  0.029076824  0.028731455            7 
 3347000   0.71291437   -6.1661403    1171.8816  0.029177411  0.028723481            9 
 3348000   0.70642133   -6.1884823    1168.8274  0.029092678   0.02871557            9 
 3349000   0.72590703   -6.1524215    1168.3497  0.029072102  0.028707705            9 
 3350000   0.71781109   -6.1629197    1172.4885  0.029166381  0.028699858           15 
 3351000   0.72663989   -6.1975883    1171.3753  0.029129994  0.028691987           15 
 3352000    0.7244102   -6.1578049    1170.7254  0.029105145  0.028684125           11 
 3353000   0.71642445   -6.2119321    1169.2923  0.029060848  0.028676244           17 
 3354000   0.72006086   -6.2122462    1170.2663  0.029076383  0.028668336           10 
 3355000   0.71301555   -6.2170253    1166.0669  0.028963411  0.028660388            7 
 3356000   0.70758266   -6.1789869     1168.609  0.029017903  0.028652458           13 
 3357000   0.71699232    -6.172937     1169.959  0.029042771  0.028644511           20 
 3358000   0.72566353   -6.2129572    1168.0714  0.028987279  0.028636511            8 
 3359000   0.71853628   -6.2207068    1166.1149  0.028930112   0.02862852           15 
 3360000    0.7107994   -6.1936915    1170.1829  0.029022395  0.028620514            6 
 3361000   0.71298002   -6.1942996    1169.5325  0.028997631  0.028612643            6 
 3362000   0.72440048   -6.1858452     1172.143  0.029053714  0.028604731           14 
 3363000   0.70363274   -6.1738125    1170.9863   0.02901641  0.028596829           10 
 3364000   0.71840917   -6.2021702    1170.4286  0.028993969  0.028588891           12 
 3365000   0.70173367   -6.1722806    1170.0141  0.028975089  0.028580996           20 
 3366000   0.69977425   -6.1868319    1170.0959  0.028968506  0.028573124           10 
 3367000   0.71014042   -6.1929878    1168.6451  0.028923994  0.028565263           16 
 3368000   0.71052117   -6.2176443     1169.839  0.028944948  0.028557384           14 
 3369000     0.718289   -6.1918236     1168.961  0.028914639  0.028549475           12 
 3370000   0.69323563   -6.2303909    1166.6007  0.028847693  0.028541573           11 
 3371000   0.72255039   -6.2237348    1170.8276  0.028943627  0.028533658           13 
 3372000    0.7234369   -6.1753331    1169.8872  0.028911802  0.028525776           11 
 3373000   0.69608841   -6.1830037    1172.1042  0.028958004  0.028517906            9 
 3374000   0.71461449   -6.1738205     1172.258  0.028953221  0.028510061            9 
 3375000   0.73481754   -6.1995189    1169.6931   0.02888131  0.028502224            4 
 3376000   0.71035141   -6.2228031    1170.2052  0.028885397  0.028494349            9 
 3377000   0.69914646   -6.2102581     1168.297  0.028829756  0.028486413            8 
 3378000   0.71292155   -6.2187519    1166.9313  0.028787529  0.028478491           20 
 3379000   0.70414609   -6.2133751    1171.8312  0.028899851  0.028470561           14 
 3380000   0.71622261   -6.2043637    1167.7403  0.028790441  0.028462599            9 
 3381000   0.72561802   -6.2148651    1165.6058  0.028729317  0.028454655           13 
 3382000   0.70631286   -6.2094535      1170.04  0.028830081  0.028446692            4 
 3383000    0.7257911   -6.2147524    1165.0436  0.028698483  0.028438727           13 
 3384000   0.70698512   -6.2126364    1169.1216  0.028790425   0.02843079            7 
 3385000   0.70169477   -6.1951884    1167.9899   0.02875406  0.028422844           11 
 3386000   0.70741875   -6.2041515    1170.1727  0.028799288  0.028414884            9 
 3387000    0.7150342   -6.2017379    1169.6306  0.028777449  0.028406968           10 
 3388000   0.73193348   -6.2195949    1167.8728  0.028725719  0.028399054           20 
 3389000   0.70473176   -6.2119763    1172.5849  0.028833111  0.028391155            3 
 3390000   0.71284734   -6.1994045     1171.642  0.028801426  0.028383256           11 
 3391000    0.6973984    -6.185335    1174.1857  0.028855444  0.028375361           12 
 3392000   0.71434748   -6.1881604    1169.2185  0.028724904  0.028367481           10 
 3393000   0.70433787   -6.2063566    1171.0008  0.028760212   0.02835958           13 
 3394000    0.7040805   -6.2134667    1169.5735  0.028716692  0.028351649           12 
 3395000   0.69191067   -6.2133163    1166.4629  0.028631882  0.028343687            9 
 3396000   0.69809455   -6.2106575    1170.3733  0.028719408  0.028335731            9 
 3397000   0.71388034   -6.1951672    1171.4729  0.028737929  0.028327811           11 
 3398000   0.69653444    -6.219464     1168.697  0.028661394   0.02831988            6 
 3399000   0.68807066   -6.2229974    1168.8065  0.028655646  0.028311898           13 
 3400000   0.71126732   -6.2173499    1169.1428  0.028655461  0.028303909            5 
 3401000   0.72199448   -6.2124953    1169.9884  0.028667754   0.02829598            8 
 3402000   0.70363213   -6.2013705    1171.5063  0.028696509  0.028288066            6 
 3403000   0.70302387   -6.1740983    1172.4819  0.028711968  0.028280213            6 
 3404000   0.71054588   -6.2182199    1169.6362  0.028633867  0.028272349           11 
 3405000   0.71240593    -6.187805    1170.6918  0.028651293  0.028264486           12 
 3406000   0.70866799   -6.1831667    1173.3242  0.028707285   0.02825658           18 
 3407000   0.71361283   -6.1856747    1174.0857  0.028717487  0.028248756           12 
 3408000   0.70934744   -6.1854593    1173.0522  0.028683788  0.028240897           19 
 3409000   0.69961954   -6.2108527    1171.3881  0.028634696   0.02823307            8 
 3410000   0.71492952   -6.2153503    1169.9801  0.028591888  0.028225202           14 
 3411000   0.70990415   -6.2290899    1170.5548  0.028597546  0.028217306           11 
 3412000   0.71115755   -6.2336782    1169.5577  0.028564813  0.028209442           10 
 3413000   0.70804927   -6.2079177    1172.2884  0.028623119  0.028201588           15 
 3414000   0.70564085    -6.206561    1174.4134  0.028666602  0.028193715           10 
 3415000   0.69939174   -6.1941168     1174.223  0.028653563   0.02818589           17 
 3416000   0.70075306   -6.2216979    1172.2811  0.028597801  0.028178043           11 
 3417000    0.7123831   -6.2098054    1171.3105  0.028565762  0.028170213           17 
 3418000   0.69660134   -6.2241629    1171.5522  0.028563298  0.028162368           10 
 3419000    0.7230231   -6.2397342     1170.898  0.028538998   0.02815451            9 
 3420000   0.71571233   -6.2043019    1172.9184  0.028579884  0.028146667            8 
 3421000   0.70801655   -6.2079314    1169.4389  0.028486771  0.028138789           37 
 3422000   0.68801244   -6.1964667    1172.4301  0.028551287  0.028130943           15 
 3423000   0.71137886   -6.2104031    1171.4017   0.02851791  0.028123082           21 
 3424000    0.7026623   -6.2218156    1175.3843  0.028606511  0.028115191           12 
 3425000   0.70675115   -6.2247907    1171.9422  0.028514408   0.02810738           14 
 3426000   0.68465154    -6.246735    1172.7656  0.028526115  0.028099494           17 
 3427000   0.70553303   -6.2131819    1171.1243   0.02847788  0.028091561            9 
 3428000   0.68565635   -6.2129298    1171.0863  0.028468648  0.028083693           14 
 3429000   0.70557796   -6.2348368    1172.9028  0.028504492  0.028075788            7 
 3430000    0.7035102   -6.2198323    1172.4896  0.028486141  0.028067951           11 
 3431000   0.70461139   -6.2279308    1170.2943  0.028424518   0.02806009           26 
 3432000   0.71215284   -6.1828264    1172.4691  0.028469045   0.02805222            9 
 3433000   0.69740935   -6.1903269    1170.6712  0.028417109  0.028044413           15 
 3434000   0.71668201   -6.2007648    1171.7638  0.028435348  0.028036637           34 
 3435000   0.69911643     -6.21476    1171.9846  0.028432425  0.028028832           19 
 3436000   0.71363786   -6.2493104      1173.11  0.028451446  0.028021011            8 
 3437000   0.69163692   -6.2191688    1176.4037  0.028523026  0.028013114           35 
 3438000   0.70757727   -6.2397388    1172.6421  0.028423553  0.028005246           13 
 3439000   0.69771665    -6.238145    1173.1097  0.028426619  0.027997353           26 
 3440000   0.69372777   -6.2259441    1172.9658   0.02841487   0.02798949           19 
 3441000   0.71158778    -6.206536    1175.7452  0.028473922  0.027981639            9 
 3442000   0.70065888   -6.2010682    1174.5115   0.02843578  0.027973859           13 
 3443000   0.71007003    -6.217932    1174.2093  0.028420207  0.027966026            9 
 3444000   0.71770933   -6.1949624     1173.463  0.028393898  0.027958242           10 
 3445000     0.704474   -6.2359791    1170.3884  0.028311281  0.027950392           14 
 3446000   0.69505647   -6.2325548    1171.9153  0.028339992  0.027942514            7 
 3447000   0.69723463   -6.2228057    1172.8253   0.02835377   0.02793464           21 
 3448000   0.69933481   -6.2639456    1167.8893  0.028226249  0.027926747           12 
 3449000    0.7092771   -6.2023265     1171.607  0.028307892  0.027918886           10 
 3450000    0.7049793   -6.2269099    1170.9732  0.028284376  0.027911044           10 
 3451000   0.69683648   -6.2056788    1173.1536  0.028328833  0.027903187           14 
 3452000   0.70880448   -6.2465919    1169.8809  0.028241621  0.027895328           11 
 3453000   0.69389072   -6.2333704    1171.3518   0.02826894  0.027887507           16 
 3454000    0.6903819   -6.2286701     1173.368  0.028309399  0.027879676           23 
 3455000   0.69356889   -6.2154895    1172.2147   0.02827339  0.027871831            8 
 3456000   0.68682172   -6.2383035    1172.0853  0.028262089   0.02786404           14 
 3457000   0.69500419   -6.2549844    1173.5003  0.028288023   0.02785626            8 
 3458000   0.69610805   -6.2613514    1174.0213  0.028292396  0.027848479           15 
 3459000   0.68634678   -6.2246756    1174.9629  0.028306901  0.027840716           17 
 3460000   0.68839338   -6.2135037    1178.7229  0.028389281  0.027832972           17 
 3461000   0.69891002   -6.2205396    1176.8879  0.028336893  0.027825228           27 
 3462000   0.69835996   -6.2188108     1169.581  0.028152827  0.027817491           20 
 3463000    0.7046813   -6.2183531    1174.0244  0.028251622  0.027809723           19 
 3464000   0.70503107   -6.2185455    1179.1425  0.028366592  0.027802003           15 
 3465000   0.70414688   -6.2327653    1172.6097  0.028201291   0.02779425           13 
 3466000    0.7042409   -6.2233066    1178.4235  0.028332937  0.027786532           18 
 3467000   0.68779623   -6.2259012    1176.8972  0.028288078  0.027778837           11 
 3468000   0.67872033   -6.1990563    1176.0715  0.028260079  0.027771118           11 
 3469000   0.71337068   -6.2186752      1178.09  0.028300424   0.02776342            6 
 3470000   0.69610808   -6.2403322    1173.9343  0.028192467  0.027755697           13 
 3471000   0.69209176   -6.2527688     1172.888  0.028159223  0.027747977           13 
 3472000   0.70860947     -6.22154    1179.5558  0.028311151  0.027740284           20 
 3473000   0.68837907   -6.2482917    1174.8263  0.028189516  0.027732552           17 
 3474000   0.68646485   -6.2465432    1177.9178  0.028255561  0.027724783           24 
 3475000   0.69458972   -6.2234288    1176.1229  0.028204385  0.027717044           12 
 3476000   0.69159107   -6.2275392    1176.5776  0.028207173  0.027709371            6 
 3477000   0.68394889   -6.2320631    1176.1285  0.028188298   0.02770165           14 
 3478000   0.71253138   -6.2280892    1175.7131  0.028170239  0.027693957           19 
 3479000   0.69305407   -6.2223895    1175.2422  0.028150863  0.027686207            9 
 3480000    0.6923401   -6.2693306    1172.6625  0.028080998  0.027678387           13 
 3481000   0.69797851   -6.2318598    1174.3548  0.028113444  0.027670608           10 
 3482000   0.67964135   -6.2461876    1175.7994  0.028139942  0.027662839           13 
 3483000    0.7105327   -6.2348576    1177.2557  0.028166707  0.027655098            9 
 3484000   0.69504607   -6.2549544    1174.6855  0.028097145   0.02764735           21 
 3485000   0.69823946   -6.2489121    1175.3664  0.028105365  0.027639541           20 
 3486000   0.68605683   -6.2429828    1174.2871  0.028071503  0.027631716            8 
 3487000   0.69147795   -6.2664688    1171.2178  0.027990102  0.027623929           11 
 3488000   0.69758752   -6.2509482    1174.1203  0.028051421  0.027616157            9 
 3489000   0.68855877   -6.2296077    1176.4548   0.02809914  0.027608387           17 
 3490000   0.69502403   -6.2565082    1174.2074  0.028037425  0.027600646           17 
 3491000    0.6953142   -6.2489804    1177.4699  0.028107272  0.027592935           24 
 3492000   0.70600286   -6.2457073    1172.0565  0.027970038  0.027585135            7 
 3493000   0.69832229   -6.2469927    1174.0035   0.02800848   0.02757738           17 
 3494000   0.69340017   -6.2407694    1174.7504  0.028018278  0.027569655           15 
 3495000   0.69983396   -6.2574457    1174.3793  0.028001415  0.027561925           17 
 3496000     0.685962   -6.2398532    1177.8798  0.028076845  0.027554185           14 
 3497000   0.69797463   -6.2619578    1176.4328  0.028034333  0.027546441           11 
 3498000   0.69905347   -6.2227981    1178.7517  0.028081564  0.027538744           10 
 3499000   0.68862914   -6.2647737    1174.4816  0.027971838  0.027531005           11 
 3500000   0.69309558   -6.2423811    1177.4201  0.028033811   0.02752324           13 
 3501000   0.70235855   -6.2446251    1174.0693  0.027946046  0.027515441           24 
 3502000   0.69636393   -6.2424855    1174.9547  0.027959136  0.027507671           11 
 3503000   0.69948268   -6.2653667    1176.9142  0.027997767  0.027499904           17 
 3504000   0.68833551   -6.2558686    1176.7855  0.027986718  0.027492132            7 
 3505000   0.69611327   -6.2542981    1176.1396  0.027963377   0.02748436           16 
 3506000   0.69714208   -6.2404751    1174.8362   0.02792442  0.027476618           11 
 3507000   0.70668304   -6.2663654    1175.3274   0.02792813  0.027468869           13 
 3508000     0.691914   -6.2634166    1174.8484  0.027908789   0.02746111           11 
 3509000   0.69153443   -6.2248487    1175.4579   0.02791531  0.027453378           18 
 3510000   0.68332137    -6.217799    1177.3006  0.027951107  0.027445664           16 
 3511000   0.70344545   -6.2607577    1174.7832  0.027883396  0.027437894            5 
 3512000    0.6980715   -6.2656753    1174.4714  0.027868056  0.027430127            8 
 3513000   0.69430719   -6.2464688    1173.4754  0.027836498  0.027422347            7 
 3514000   0.69557596   -6.2387294    1176.7329  0.027905826  0.027414575           24 
 3515000   0.68831261   -6.2599097    1174.9566  0.027855776  0.027406787           21 
 3516000   0.66293413   -6.2539169    1175.5019  0.027860777  0.027398998           10 
 3517000   0.68652391   -6.2594251    1175.3476  0.027849198  0.027391218           14 
 3518000   0.69677822   -6.2559771     1174.016  0.027809741   0.02738341           15 
 3519000   0.68819312   -6.2478203    1173.8916  0.027798891  0.027375587           15 
 3520000   0.69199288   -6.2494566    1174.8852  0.027814517  0.027367782           21 
 3521000   0.69230367   -6.2625022    1175.7765  0.027827712  0.027359993           14 
 3522000   0.69327282   -6.2525168    1176.9265  0.027847021  0.027352218           17 
 3523000   0.68060547   -6.2845694    1173.9139  0.027767856  0.027344443           15 
 3524000   0.69066744   -6.2687723    1173.5092  0.027750408   0.02733666           10 
 3525000   0.67512653    -6.263642    1171.6532  0.027698658  0.027328862           14 
 3526000   0.69678275   -6.2582194    1175.1655  0.027773811  0.027321123           14 
 3527000   0.68497826    -6.245822    1174.6732  0.027754306  0.027313337           11 
 3528000   0.69092421   -6.2302318    1178.3278  0.027832761  0.027305562            6 
 3529000   0.70669434   -6.2588474    1171.4509  0.027662484  0.027297774            6 
 3530000   0.69510411   -6.2698478    1174.3113  0.027722175  0.027290003           11 
 3531000   0.69118821   -6.2547557    1175.2188  0.027735741  0.027282184           12 
 3532000   0.68675965   -6.2709718    1175.4264  0.027732785  0.027274364           19 
 3533000   0.69492375    -6.273933    1174.2398  0.027696949  0.027266556            9 
 3534000   0.68184413   -6.2510096    1173.4684   0.02767092  0.027258782           20 
 3535000   0.67809198   -6.2572733    1172.0087  0.027628681  0.027251013           48 
 3536000   0.69978846   -6.2569701    1175.7679  0.027709463  0.027243242           22 
 3537000   0.69925883   -6.2852512    1173.8393  0.027656189  0.027235464            8 
 3538000   0.67796642   -6.2666913    1173.2476  0.027634435   0.02722766           13 
 3539000   0.68998905   -6.2930571    1173.7437  0.027638308  0.027219835           12 
 3540000   0.68970098   -6.2555655     1175.379  0.027668997  0.027212021           11 
 3541000   0.68022282   -6.2828014    1176.5941  0.027689779  0.027204205           36 
 3542000   0.68664822   -6.2670429    1175.5271  0.027656859  0.027196365           18 
 3543000     0.699789   -6.2924612    1172.6685  0.027581815  0.027188543           25 
 3544000   0.68135977   -6.2393733     1176.987  0.027675578  0.027180748           25 
 3545000   0.68508824   -6.2435558     1175.262  0.027627222  0.027172977           16 
 3546000   0.67050022   -6.2809038    1175.1314   0.02761636  0.027165213           15 
 3547000   0.67790297   -6.2760644    1175.4451  0.027615945  0.027157419           23 
 3548000   0.66649702   -6.2598474    1175.5041  0.027609548  0.027149638           22 
 3549000   0.67498205    -6.265835     1174.514   0.02757852  0.027141881           23 
 3550000   0.67532549   -6.2586542    1174.8855  0.027579471  0.027134102           23 
 3551000   0.68310687   -6.2581734     1177.597  0.027635337  0.027126365           11 
 3552000   0.68558116   -6.2530146    1176.0955  0.027592331  0.027118576           21 
 3553000    0.6801702   -6.2845371    1172.4928  0.027500066  0.027110823           10 
 3554000   0.69353706   -6.2859466    1174.6486  0.027542878  0.027103029            8 
 3555000   0.68381161   -6.2873158    1176.5744  0.027580271  0.027095266           22 
 3556000   0.68679489   -6.2794934    1173.2564  0.027494759  0.027087481           15 
 3557000   0.67405583   -6.2685584    1173.5679  0.027494329  0.027079724           15 
 3558000   0.66793519   -6.2695267    1172.5446  0.027462633  0.027071968           20 
 3559000   0.68023737   -6.2601583    1176.6039  0.027549966  0.027064206           15 
 3560000   0.69214536   -6.2555825    1175.9487  0.027526889  0.027056491           18 
 3561000   0.68210533   -6.2773789     1175.151  0.027500491   0.02704876            8 
 3562000   0.68196839   -6.2623033    1177.3388  0.027543954  0.027041037           11 
 3563000    0.6756254   -6.2484089    1176.8453  0.027524681  0.027033328           17 
 3564000   0.68433082   -6.2904878    1174.0997  0.027452761  0.027025609           12 
 3565000   0.67228389   -6.2868291    1173.2473  0.027425136  0.027017876           10 
 3566000   0.68452067   -6.2858715    1177.0555  0.027506437  0.027010144           24 
 3567000   0.67822708   -6.2632834    1174.3082  0.027434545  0.027002435           14 
 3568000   0.67640853   -6.2574366    1176.2215  0.027471541   0.02699473           18 
 3569000    0.6858349    -6.258513    1180.5394  0.027564664   0.02698703           46 
 3570000   0.68464606   -6.2921851    1176.1891  0.027455395  0.026979328           27 
 3571000   0.68037009   -6.2770557     1177.386  0.027475637  0.026971614           19 
 3572000   0.68352484   -6.2719234    1174.3769  0.027397744  0.026963883           14 
 3573000   0.69630004   -6.2944638    1173.2886  0.027364694  0.026956157           19 
 3574000   0.70256771   -6.2830558    1173.9379  0.027372175  0.026948415            8 
 3575000   0.67758121   -6.3025328    1174.0566  0.027367287  0.026940697           13 
 3576000   0.68369861   -6.2692411    1176.2006  0.027409596  0.026932988           10 
 3577000   0.68449914   -6.3053627    1175.5793  0.027387458   0.02692529           14 
 3578000    0.6858107   -6.2828708    1174.9438  0.027365003  0.026917548           57 
 3579000   0.67717901   -6.2837957    1178.2338  0.027433963  0.026909842           13 
 3580000   0.67840581    -6.283404    1174.5349  0.027340199  0.026902155           12 
 3581000   0.67378271    -6.281375    1175.0539   0.02734464   0.02689445            8 
 3582000   0.67533233    -6.280038    1179.3267  0.027436412  0.026886758           11 
 3583000   0.68729775   -6.2759042    1176.8828  0.027371913  0.026879075           12 
 3584000   0.67626089   -6.2583983    1175.0657  0.027322026  0.026871389           10 
 3585000   0.68543845   -6.3069364    1176.1764  0.027340222   0.02686369            8 
 3586000   0.68911632   -6.2852597    1177.9134  0.027372964  0.026855985           17 
 3587000   0.69057949   -6.2778124    1177.2324  0.027349513  0.026848263           12 
 3588000   0.69440905   -6.2572412    1174.7713   0.02728473  0.026840561            8 
 3589000   0.68173233   -6.2666301      1174.36  0.027267577  0.026832847           14 
 3590000   0.68419403   -6.3015227    1172.0148  0.027205544  0.026825128           14 
 3591000   0.69299625   -6.2808881    1176.9212  0.027311826  0.026817401           17 
 3592000   0.67666525    -6.282032    1175.9433  0.027281534  0.026809693            8 
 3593000   0.67670223   -6.2840224     1176.129  0.027278248  0.026801962           15 
 3594000   0.67934423   -6.3084307    1173.5402  0.027210635  0.026794227            8 
 3595000   0.67574605   -6.3104601     1176.156    0.0272637  0.026786515           11 
 3596000   0.68941443   -6.2966606    1178.0413  0.027299807  0.026778797            9 
 3597000   0.67736281   -6.3163125    1172.8242  0.027171351  0.026771066            8 
 3598000   0.66880284   -6.2732859    1175.1308  0.027217223  0.026763362           15 
 3599000   0.66258251   -6.2662218    1179.0649  0.027300753  0.026755684            7 
 3600000   0.67548254   -6.2888234    1177.1892  0.027249749  0.026748008           18 
 3601000   0.66970596   -6.3238397     1176.546  0.027227298  0.026740305           16 
 3602000   0.67025057   -6.2946591    1177.0139  0.027230563  0.026732574           13 
 3603000   0.68403316   -6.3122411    1177.0808  0.027224553  0.026724871            9 
 3604000   0.67429947   -6.2931013    1177.4005  0.027224392  0.026717183           11 
 3605000   0.66213281   -6.3338924    1174.6369  0.027152957  0.026709444           21 
 3606000   0.67611028   -6.2810022    1178.5331  0.027235466  0.026701748           45 
 3607000   0.67673248   -6.3027071     1175.607  0.027160313  0.026694026           35 
 3608000   0.68766831    -6.297258    1176.1249  0.027164746  0.026686334           17 
 3609000   0.66446533   -6.2950529    1174.9805  0.027130795  0.026678653           18 
 3610000   0.67666655   -6.3005505    1175.6189  0.027138017  0.026670975           11 
 3611000   0.69626056   -6.2824028    1174.9713  0.027115556  0.026663316            6 
 3612000   0.66370397   -6.3111467    1175.7467   0.02712594  0.026655645            6 
 3613000   0.67911961   -6.3018954    1176.4889  0.027135549  0.026647953           18 
 3614000   0.66568556   -6.3252424    1173.7847  0.027065687  0.026640206            9 
 3615000   0.65703482   -6.2950308    1177.6623  0.027147586  0.026632469           12 
 3616000   0.67689915   -6.2857381    1175.0457  0.027079777  0.026624761           22 
 3617000   0.66869259   -6.3288445     1174.111  0.027050755  0.026617054            8 
 3618000   0.67093574   -6.2956495    1177.0817  0.027111704  0.026609336            8 
 3619000   0.67233774   -6.3243217    1175.3978  0.027065436  0.026601653           10 
 3620000   0.66991323   -6.3127599    1175.1421  0.027052073  0.026593982            8 
 3621000   0.67989566   -6.2776673    1178.6383  0.027125065  0.026586315           10 
 3622000   0.67732062   -6.3064728    1176.2652  0.027062977   0.02657863           14 
 3623000   0.66638865    -6.314555    1176.9763  0.027071863   0.02657098           15 
 3624000   0.67037241    -6.299251    1176.1031  0.027044313  0.026563318            6 
 3625000   0.68479663    -6.297574     1175.555  0.027024254  0.026555685           16 
 3626000   0.67774621   -6.2903107    1176.4877  0.027038237  0.026548042           12 
 3627000   0.67187706   -6.3126991    1178.2833  0.027072036  0.026540399           15 
 3628000   0.67453196   -6.3152019     1178.952  0.027079934  0.026532746           23 
 3629000   0.67636863   -6.3001501    1179.6669  0.027088888  0.026525084           14 
 3630000   0.67554616   -6.3123716    1174.2699  0.026957528   0.02651745           24 
 3631000    0.6706459   -6.3050773    1177.2363  0.027018184  0.026509791           20 
 3632000   0.67825388   -6.3003971    1179.6354  0.027065791  0.026502168           35 
 3633000   0.67100813   -6.3128211    1176.5353   0.02698723  0.026494563           28 
 3634000   0.67974728   -6.2921154    1178.5685  0.027026428  0.026486918           36 
 3635000   0.68396793   -6.3047668    1175.2489  0.026942891  0.026479298           18 
 3636000   0.67859065   -6.2993282    1176.4272  0.026962487  0.026471689           25 
 3637000   0.68147829   -6.3128944    1178.6872  0.027006856  0.026464086           29 
 3638000   0.66990693   -6.3016137    1175.6142  0.026929041  0.026456453           30 
 3639000   0.66952276   -6.2963819    1179.4565  0.027009628  0.026448796           21 
 3640000   0.66812487   -6.3042117    1177.9959  0.026968771  0.026441168           18 
 3641000   0.67043941   -6.3039698    1179.7589  0.027001715   0.02643354           24 
 3642000    0.6550301   -6.3171516     1177.689  0.026946938  0.026425903            8 
 3643000   0.67389946   -6.3165618    1179.7531  0.026986757  0.026418243           11 
 3644000    0.6632306   -6.3100635     1178.024  0.026939809  0.026410586           11 
 3645000   0.67153104   -6.3197381    1174.7735  0.026858104  0.026402925            9 
 3646000   0.66360543   -6.3245394    1176.5202   0.02689066  0.026395263           14 
 3647000   0.68202725   -6.3101367     1179.415  0.026949432  0.026387631            8 
 3648000   0.67183294    -6.277781    1182.2507  0.027006823  0.026380014           20 
 3649000    0.6687818   -6.3012627    1177.2389  0.026884967  0.026372405           30 
 3650000    0.6683638   -6.2883214    1179.0607  0.026919193  0.026364775           15 
 3651000   0.66378519   -6.3047362    1175.9455  0.026840717  0.026357144           13 
 3652000   0.66608953   -6.2934308    1174.9014  0.026809544  0.026349496           11 
 3653000    0.6743678    -6.312509    1179.4985  0.026907074  0.026341892           10 
 3654000   0.66457943   -6.3004806    1177.7114  0.026858953  0.026334264           23 
 3655000   0.65472751   -6.3368043    1176.7772  0.026830305  0.026326595           17 
 3656000   0.66066365   -6.3260857    1178.3413  0.026858617   0.02631892           13 
 3657000   0.67773236    -6.296076    1177.7988  0.026838911  0.026311289           17 
 3658000   0.67378384   -6.3375708    1176.3984  0.026799672  0.026303667           16 
 3659000   0.66433703   -6.3214727    1174.3127  0.026744846  0.026295983            8 
 3660000   0.68385251   -6.2958691    1177.2613  0.026804673  0.026288327           17 
 3661000   0.66152685   -6.3263848    1174.4842  0.026734139  0.026280697           15 
 3662000    0.6596002   -6.3148026    1175.6082  0.026752417  0.026273049           27 
 3663000   0.66036729   -6.3163669    1175.8864  0.026751441  0.026265379           20 
 3664000   0.66604233   -6.3318418    1177.2245  0.026774575  0.026257713           11 
 3665000   0.66618517   -6.3520583    1176.6074  0.026753239  0.026250059           10 
 3666000   0.65826126   -6.3267566    1175.9716  0.026731488  0.026242416           33 
 3667000   0.65218827   -6.3207347    1176.4438  0.026734929   0.02623478           24 
 3668000   0.66731524   -6.2989779    1178.8566  0.026782456  0.026227133           41 
 3669000   0.65968385   -6.3214805    1174.4763  0.026675668  0.026219478           24 
 3670000   0.66247109   -6.2972635    1181.0344  0.026817312  0.026211837           18 
 3671000   0.65972525   -6.3370867    1174.4051  0.026659518  0.026204196           11 
 3672000   0.66614267   -6.3358152    1174.8004  0.026661228  0.026196489           19 
 3673000    0.6573324   -6.3364022    1175.5874  0.026671826  0.026188776           11 
 3674000   0.66157516    -6.357667    1176.6232  0.026688061  0.026181097           11 
 3675000    0.6495485   -6.3231087      1176.52  0.026678457  0.026173411           25 
 3676000   0.68152342    -6.318023    1175.8724  0.026656521   0.02616574           19 
 3677000   0.65336919   -6.3214564    1174.3006  0.026613647  0.026158068           25 
 3678000   0.66626159   -6.3480032    1175.0526   0.02662345   0.02615041           18 
 3679000   0.67161754   -6.3511167      1177.24   0.02666576  0.026142754           13 
 3680000   0.65014945   -6.3183869    1175.7361   0.02662446  0.026135084           10 
 3681000   0.66566233   -6.3455592    1179.1507  0.026694529  0.026127395           21 
 3682000   0.68320015   -6.3503977    1176.6046  0.026629654  0.026119689           37 
 3683000   0.66579977   -6.3311401    1175.5306  0.026598122  0.026111975           33 
 3684000   0.66809255   -6.3324096     1177.216  0.026629026  0.026104258           32 
 3685000   0.65373532   -6.3239095    1175.6351   0.02658605  0.026096603           29 
 3686000   0.64760214   -6.3241866    1175.4395  0.026574414  0.026088926           17 
 3687000   0.65377535   -6.3446075    1173.0904  0.026514113   0.02608127           17 
 3688000   0.66098592   -6.3344097    1174.7917  0.026545366  0.026073604           23 
 3689000   0.65733688   -6.3177398    1172.3613  0.026483268  0.026065953           13 
 3690000   0.67230978   -6.3244526    1178.4295  0.026613133  0.026058294           12 
 3691000   0.66254287   -6.3203114    1177.7826  0.026591317   0.02605063           15 
 3692000   0.66417428   -6.3278255    1175.8923  0.026541449  0.026042979           15 
 3693000   0.66286357   -6.3333932    1176.4634  0.026547147  0.026035351           27 
 3694000   0.65911736   -6.2988853    1175.3294  0.026514379    0.0260277           16 
 3695000   0.65888935   -6.3342269    1173.7122   0.02647073  0.026020084           17 
 3696000   0.65797845   -6.3435634     1177.613  0.026551521  0.026012448            7 
 3697000   0.64319309   -6.3430739    1174.9993  0.026485424  0.026004835           18 
 3698000   0.65653058   -6.3064365    1175.5688  0.026491094  0.025997191           26 
 3699000   0.67042635    -6.318026    1177.9884  0.026538443  0.025989538           16 
 3700000   0.64660492   -6.3678004    1173.6688  0.026433983  0.025981854           18 
 3701000   0.67864156   -6.3619031    1175.7915  0.026474635  0.025974174           15 
 3702000   0.66003293   -6.3443608    1172.1146  0.026384716  0.025966485           29 
 3703000   0.66400082   -6.3537903    1175.5819  0.026455619  0.025958828           10 
 3704000   0.65192442   -6.3537391     1175.212  0.026440155  0.025951186           11 
 3705000   0.65859077   -6.3626374    1173.2755  0.026389462   0.02594351           13 
 3706000   0.65191203   -6.3575185    1172.9683  0.026375433  0.025935831           17 
 3707000   0.66025226   -6.3553555    1176.2522  0.026442142  0.025928167           16 
 3708000   0.66680978   -6.3461367    1175.9542  0.026428313  0.025920489           15 
 3709000   0.66435737   -6.3445169     1173.478  0.026365551  0.025912805           30 
 3710000   0.66487548   -6.3423371    1175.4181  0.026402023   0.02590514           18 
 3711000   0.66265682   -6.3540944    1175.0147   0.02638585  0.025897473           24 
 3712000   0.65057441   -6.3230858    1176.7233  0.026417101  0.025889849           24 
 3713000   0.66027765   -6.3348553    1178.9252  0.026459403  0.025882268           33 
 3714000   0.67060535   -6.3301299    1177.3621  0.026417208  0.025874678           15 
 3715000   0.66795828   -6.3308638    1175.6651   0.02637203    0.0258671           15 
 3716000   0.66493956    -6.313117    1178.0247  0.026417848  0.025859544           27 
 3717000   0.65133478   -6.3342187    1176.1929  0.026369674  0.025851956           11 
 3718000   0.65522187   -6.3028124    1176.7904  0.026375974  0.025844391            8 
 3719000   0.65894811   -6.3251608    1176.6597  0.026365951  0.025836814           12 
 3720000   0.65346831   -6.3389322    1178.1416   0.02639206  0.025829206           15 
 3721000   0.64646575   -6.3447935    1178.0085  0.026381987  0.025821599           14 
 3722000   0.64134013   -6.3700111    1175.7607  0.026324573  0.025814002           16 
 3723000   0.66237995   -6.3339397    1178.4617  0.026377959  0.025806385           26 
 3724000   0.65692015   -6.3530399     1175.985  0.026315453  0.025798774           17 
 3725000   0.65617598   -6.3232697    1175.9072  0.026306649  0.025791171           17 
 3726000   0.65770486   -6.3276439    1177.4214  0.026333454  0.025783581           13 
 3727000   0.66262425    -6.319271     1179.188  0.026365889  0.025775973           24 
 3728000   0.65655432   -6.3320071    1173.6661  0.026235384  0.025768394           17 
 3729000   0.64706805     -6.32688    1176.3146  0.026287534  0.025760814           11 
 3730000   0.65309746   -6.3558127     1175.861  0.026270354  0.025753253           20 
 3731000   0.63423609   -6.3616946    1176.5556  0.026278825   0.02574568           49 
 3732000   0.65913958   -6.3506211    1178.5273  0.026315811  0.025738124           15 
 3733000   0.65617996   -6.3468157     1179.972  0.026341013  0.025730574           23 
 3734000   0.65532095   -6.3470442    1177.9887  0.026289697  0.025723022           26 
 3735000    0.6610505   -6.3372956    1177.3257  0.026267865  0.025715499           19 
 3736000   0.66098182   -6.3167221    1179.2736  0.026304282  0.025707993           12 
 3737000   0.65761303   -6.3256517    1178.8742  0.026288338  0.025700498           10 
 3738000   0.65287679   -6.3263549    1180.3311  0.026313784  0.025693013            8 
 3739000   0.65142478   -6.3594563    1181.2817  0.026327934  0.025685548           14 
 3740000   0.65833133   -6.3190645    1180.2112  0.026297041  0.025678079           24 
 3741000   0.65758175   -6.3296682    1180.5231  0.026296959  0.025670607            8 
 3742000   0.66004734   -6.3328338    1180.8504  0.026297221  0.025663138           10 
 3743000   0.65127858   -6.3556777    1175.4853  0.026170748  0.025655665           30 
 3744000   0.66162553   -6.3404151    1178.2723   0.02622579  0.025648162           17 
 3745000   0.65139335   -6.3266038    1181.9833  0.026301363  0.025640653           13 
 3746000    0.6443403   -6.3547244    1178.3822  0.026214234  0.025633149           16 
 3747000   0.66534784   -6.3728198    1176.9765  0.026175973  0.025625627           12 
 3748000   0.65980153   -6.3655534    1177.6377  0.026183692  0.025618101           15 
 3749000   0.65711872   -6.3462032    1178.6282  0.026198725  0.025610604           21 
 3750000   0.64608387   -6.3699289    1175.8546  0.026130102  0.025603079           17 
 3751000    0.6514953   -6.3599045    1178.4094  0.026179894  0.025595534           30 
 3752000    0.6546305   -6.3631424    1179.5701  0.026198696  0.025588001           21 
 3753000   0.64650305   -6.3467529    1181.1737  0.026227322  0.025580504           26 
 3754000   0.65503439   -6.3424341    1177.5308  0.026139468  0.025573023           21 
 3755000   0.66250977    -6.356168     1180.322  0.026194451  0.025565542           17 
 3756000   0.65466247   -6.3785125    1177.5221  0.026125357  0.025558023           27 
 3757000   0.64572978   -6.3516177    1177.3346  0.026114244  0.025550493           35 
 3758000   0.66205798   -6.3411699    1178.4231  0.026131434  0.025542965           30 
 3759000   0.63851587   -6.3544578    1177.3824  0.026101409  0.025535482           32 
 3760000   0.64550544   -6.3487953    1178.5407   0.02612014  0.025528009           26 
 3761000   0.64918275   -6.3516925    1178.3026  0.026107919  0.025520492           16 
 3762000    0.6486633   -6.3660549    1174.6078  0.026019135  0.025512992           11 
 3763000   0.65081484   -6.3781891    1176.4663  0.026053376  0.025505482           27 
 3764000   0.66188979   -6.3686754    1176.7314  0.026052324  0.025497963           26 
 3765000   0.66579675   -6.3375841    1176.3148  0.026036183  0.025490475           20 
 3766000   0.62968318   -6.3412527    1178.3946  0.026075293  0.025483011           17 
 3767000   0.63857675   -6.3248173    1178.8339  0.026078088  0.025475543           15 
 3768000   0.64377749   -6.3699035    1179.6607  0.026089453  0.025468076           42 
 3769000   0.63067949   -6.3465032     1178.909   0.02606591  0.025460597           25 
 3770000    0.6435823    -6.341678    1179.3696  0.026069179  0.025453095           16 
 3771000   0.65057906   -6.3226847    1180.4348  0.026085804  0.025445662           17 
 3772000   0.65018031   -6.3480809    1180.8103  0.026087184  0.025438215           25 
 3773000   0.65275021   -6.3683049    1178.9932  0.026040137  0.025430766           13 
 3774000   0.64029955   -6.3862223    1179.6262  0.026047214  0.025423296           18 
 3775000   0.64776905   -6.3598376    1178.6158  0.026018009  0.025415839           21 
 3776000   0.63790932   -6.3820051    1178.3016  0.026004184  0.025408346           20 
 3777000   0.64364799   -6.3526327    1179.6622  0.026027318  0.025400831           19 
 3778000   0.65205417   -6.3590622    1176.9352  0.025960278  0.025393316           14 
 3779000   0.63712506   -6.3609021    1178.1624  0.025980472  0.025385816            8 
 3780000   0.64692547    -6.366502    1176.3034  0.025932615  0.025378322            8 
 3781000   0.65125352   -6.3600253    1177.0102  0.025941334  0.025370839           10 
 3782000   0.63963618   -6.3528701    1177.8892  0.025953843  0.025363361           13 
 3783000   0.65807644   -6.3743244    1177.9355  0.025948003  0.025355912           15 
 3784000   0.64014023   -6.3631575    1180.1632  0.025990204  0.025348465           11 
 3785000   0.66414324   -6.3834449    1179.2414  0.025963042  0.025341019           11 
 3786000   0.66490322   -6.3456653    1181.1833  0.025998928  0.025333566            9 
 3787000   0.65676544   -6.3320509    1182.2194  0.026014861  0.025326154           19 
 3788000   0.64686454    -6.341649    1177.9433  0.025913923  0.025318726           10 
 3789000   0.63548127    -6.367073    1178.8947  0.025928009  0.025311279           18 
 3790000   0.63567482   -6.3768335    1180.1313  0.025948358   0.02530382           18 
 3791000   0.64511249   -6.3775645    1179.0425  0.025917578  0.025296388           21 
 3792000   0.64667722   -6.3803117    1178.9874  0.025909533  0.025288938           17 
 3793000   0.63673614    -6.359742    1178.5069  0.025892146  0.025281486           29 
 3794000   0.65819945   -6.3606832    1177.4403  0.025861893   0.02527404           13 
 3795000    0.6442826   -6.3589084    1178.3512  0.025875081  0.025266615           17 
 3796000   0.64746102   -6.3753077     1177.859   0.02585746  0.025259158           19 
 3797000    0.6416311   -6.3663913    1177.1418  0.025834909   0.02525172           18 
 3798000   0.64172602   -6.3712452    1178.9792  0.025868422   0.02524426           24 
 3799000   0.63381836   -6.3866382    1177.6749  0.025833003   0.02523679           11 
 3800000    0.6361719   -6.4020917    1175.7272   0.02578349  0.025229317           20 
 3801000   0.65134422   -6.3901777    1176.2608  0.025788408  0.025221841           17 
 3802000   0.63905735   -6.3844995    1177.5395  0.025809651  0.025214383           28 
 3803000   0.63672106   -6.3813709    1180.2263  0.025861738  0.025206924           17 
 3804000   0.65012244   -6.3861376    1178.8022  0.025823742  0.025199475           29 
 3805000   0.63569205   -6.3923671    1180.8228  0.025861208  0.025192015           41 
 3806000   0.62901786   -6.3840676    1179.0553  0.025815715  0.025184558           33 
 3807000   0.63925974   -6.3548035    1181.9312  0.025871884  0.025177122           20 
 3808000   0.63717293   -6.3728982    1177.4337   0.02576667  0.025169699           42 
 3809000   0.64051669   -6.3822261    1179.1845  0.025798208  0.025162288           27 
 3810000   0.64388558   -6.3895036    1178.3475  0.025773129  0.025154869           22 
 3811000   0.62998287   -6.3593449    1178.8212  0.025776725  0.025147483           15 
 3812000   0.65192633   -6.3555737    1181.6841  0.025832548    0.0251401           14 
 3813000    0.6400084   -6.3844562    1175.8954  0.025699262  0.025132694           14 
 3814000   0.63719363   -6.3577196    1180.5852  0.025794993  0.025125304           16 
 3815000    0.6337535   -6.3850315    1180.7181  0.025791134  0.025117926           22 
 3816000   0.64421797   -6.3676766    1177.8139  0.025720952  0.025110499           12 
 3817000    0.6151289    -6.401759    1177.4649  0.025706596  0.025103078           31 
 3818000   0.63810343   -6.3662871    1177.5918  0.025702632  0.025095658           13 
 3819000   0.63413991   -6.3737647    1178.0968  0.025706921  0.025088244           20 
 3820000   0.64678738    -6.349958    1179.3559  0.025727659  0.025080861           15 
 3821000   0.64307292   -6.3819778     1176.183  0.025651728  0.025073476           18 
 3822000    0.6393517   -6.3627149    1178.9562  0.025705482  0.025066077           21 
 3823000   0.63310844   -6.3828959    1177.3307  0.025663325  0.025058677           15 
 3824000   0.64557784   -6.3975998    1177.9624  0.025670381  0.025051276           22 
 3825000   0.64105451    -6.369552    1178.0048  0.025664592  0.025043854           13 
 3826000   0.64557733   -6.3752317    1179.0883  0.025681484  0.025036425           19 
 3827000   0.64250535   -6.4086518    1178.3654  0.025659031  0.025028975           36 
 3828000   0.63467891   -6.4023444    1178.2934  0.025650763  0.025021534           12 
 3829000   0.65135463    -6.408826    1178.3208  0.025644659  0.025014094           14 
 3830000   0.64157606   -6.3724529    1177.5973  0.025622221  0.025006644            9 
 3831000   0.64217979   -6.3959344     1177.054  0.025603716  0.024999193           12 
 3832000   0.63863442   -6.4079075    1179.4532  0.025649209  0.024991737           18 
 3833000   0.63541108   -6.3858175     1178.522  0.025622272  0.024984302           20 
 3834000   0.64384349    -6.395618    1178.3645  0.025612166  0.024976854           21 
 3835000   0.63275832   -6.3839535    1178.7078  0.025612947  0.024969398           14 
 3836000   0.62604365   -6.4112423    1175.9559  0.025546488   0.02496195           22 
 3837000   0.64982611   -6.4028062    1175.2954  0.025525485  0.024954504           32 
 3838000   0.63073061   -6.4010901    1175.3468   0.02551995  0.024947069           18 
 3839000   0.62543639   -6.4089383    1178.1461  0.025574066  0.024939673            9 
 3840000   0.63130945   -6.4112393    1175.5164  0.025510339  0.024932246           17 
 3841000   0.63524502    -6.406834    1176.7436  0.025530321  0.024924834           18 
 3842000   0.64097428   -6.3823355    1178.4566  0.025560832  0.024917417           20 
 3843000   0.63964252    -6.389602    1178.3899  0.025552735  0.024910037           16 
 3844000   0.63558624   -6.3998654    1178.5818  0.025550247  0.024902633           37 
 3845000   0.62638789   -6.3932451    1177.6915  0.025524307  0.024895253           33 
 3846000   0.62982257   -6.3747799    1179.2332  0.025551076   0.02488784           27 
 3847000   0.63837801   -6.3999319    1178.2805  0.025523795   0.02488046           20 
 3848000   0.62582255   -6.3893109    1176.8042  0.025485192  0.024873081           15 
 3849000   0.64882743   -6.3965811    1178.5977  0.025517401    0.0248657           21 
 3850000   0.64169607   -6.3774113    1181.8824   0.02558187   0.02485833           26 
 3851000   0.64461919    -6.392014    1181.3061  0.025562757  0.024850984           26 
 3852000   0.62475035   -6.4002986    1179.2266  0.025511133  0.024843596           38 
 3853000   0.63876135   -6.4029383    1178.8843  0.025497108  0.024836212           44 
 3854000   0.64598868   -6.3798605    1179.1748  0.025496773   0.02482882           30 
 3855000   0.64179912   -6.4072691    1175.9443  0.025420326  0.024821427           47 
 3856000   0.64533204   -6.3975818    1178.7348  0.025474041  0.024814001           51 
 3857000   0.63695888   -6.4083115    1180.3407  0.025502133  0.024806602           22 
 3858000   0.64030448   -6.4060079     1178.116  0.025447469  0.024799207           44 
 3859000    0.6432872    -6.388449    1178.5667  0.025450608  0.024791824           17 
 3860000   0.62513239   -6.3956342    1175.2663  0.025372762  0.024784432           35 
 3861000   0.64025763   -6.4212094    1176.6039  0.025395059   0.02477703           32 
 3862000    0.6471081   -6.4394504    1174.9426  0.025352638  0.024769617           17 
 3863000   0.63503845   -6.4070102    1176.8408  0.025387022  0.024762199           29 
 3864000   0.63989287   -6.4131213    1175.4552  0.025350569   0.02475479           17 
 3865000   0.63386424   -6.4008804    1176.9575  0.025376402  0.024747371           21 
 3866000   0.64783905   -6.4049987    1174.9576   0.02532673  0.024739981           15 
 3867000   0.62977011   -6.3914568    1176.5623  0.025354761  0.024732598           28 
 3868000    0.6315001    -6.394707     1177.246  0.025362936  0.024725198           38 
 3869000   0.63174162   -6.4050042    1177.7889  0.025368073  0.024717824           33 
 3870000    0.6239593   -6.4124111    1178.7038  0.025381218  0.024710474           61 
 3871000   0.64827131   -6.3880972    1176.6195  0.025329792  0.024703147           37 
 3872000   0.63912329   -6.3799842    1181.0093  0.025417728   0.02469583           17 
 3873000   0.63837901    -6.392334    1181.1991  0.025415249  0.024688507            8 
 3874000    0.6457147   -6.3995962    1183.3341  0.025454613  0.024681167           15 
 3875000   0.63587926   -6.4067635    1179.9351  0.025374948  0.024673835           12 
 3876000    0.6288588   -6.3901643    1178.1921  0.025330928  0.024666516            7 
 3877000   0.62509519   -6.3923141    1181.9389  0.025404929  0.024659216           11 
 3878000   0.63841973   -6.4148209    1176.6036   0.02528373   0.02465189           12 
 3879000   0.62175095   -6.3990972    1179.5508  0.025340527  0.024644535           20 
 3880000   0.63622061   -6.4005615     1178.205  0.025305091  0.024637185           18 
 3881000   0.62661778   -6.4230471    1176.0601  0.025252514  0.024629834           29 
 3882000    0.6252274   -6.4007244    1179.7481  0.025325179  0.024622501           49 
 3883000   0.62355594   -6.4281574    1180.9799  0.025345092  0.024615189           18 
 3884000   0.63740517   -6.4081714    1180.6455  0.025331392  0.024607864           27 
 3885000   0.62143423   -6.4234675    1179.3172  0.025296379  0.024600523           25 
 3886000   0.62439116   -6.4187758    1176.3374   0.02522597  0.024593168           16 
 3887000   0.63190539   -6.4191074    1178.0607  0.025256425  0.024585836           18 
 3888000   0.62550067   -6.4276294    1179.2005   0.02527436  0.024578519           35 
 3889000   0.62340304   -6.4026669    1179.2423  0.025268757  0.024571207           12 
 3890000   0.62632695   -6.4011823    1178.5003  0.025246365  0.024563881           19 
 3891000   0.61812501   -6.3994172    1177.5114  0.025218698  0.024556554           20 
 3892000    0.6248875   -6.3961768    1180.4883  0.025275956  0.024549286           12 
 3893000   0.62852137    -6.404494    1178.9187  0.025235865  0.024541981           13 
 3894000   0.62785155   -6.3943222    1182.5945  0.025308048  0.024534693           27 
 3895000   0.62486967   -6.4112882    1178.5302  0.025214595  0.024527388           18 
 3896000   0.61730676   -6.4199325    1178.2234  0.025201562  0.024520075           19 
 3897000   0.61211679   -6.4266145    1179.4818  0.025222005  0.024512775           42 
 3898000   0.62745975   -6.4288842    1179.3666  0.025213071  0.024505477           43 
 3899000   0.64011013   -6.4307406    1176.7256  0.025150158  0.024498156           39 
 3900000    0.6254438   -6.4218596    1177.7852  0.025166351  0.024490849           23 
 3901000   0.62968923   -6.4387454    1177.2795  0.025149097  0.024483559           16 
 3902000    0.6147063   -6.4129951     1178.756  0.025174184  0.024476264           14 
 3903000   0.63469269   -6.4332787    1178.1945  0.025155746   0.02446899           44 
 3904000   0.61643219   -6.4107058    1179.7036  0.025181514  0.024461702           37 
 3905000   0.63723707   -6.4297572    1176.5164  0.025107051  0.024454411           24 
 3906000   0.63069249   -6.4233922    1178.4739  0.025142385  0.024447142           19 
 3907000   0.62351366   -6.4257246    1180.3311  0.025175562  0.024439869           36 
 3908000   0.63518518   -6.4200144    1180.1158  0.025164529  0.024432606           19 
 3909000   0.63664399   -6.4384814      1178.11  0.025115333  0.024425338           80 
 3910000    0.6187022   -6.4088034    1178.3212  0.025113411  0.024418096           38 
 3911000   0.63161305   -6.4081863    1182.7068  0.025200434  0.024410847           43 
 3912000   0.61201714   -6.4384142    1179.6826  0.025129571  0.024403609           88 
 3913000   0.63660732   -6.4361135    1177.4035  0.025074612  0.024396359           93 
 3914000   0.62524019   -6.4214352    1180.6247   0.02513679  0.024389082          118 
 3915000   0.62595617   -6.4375146    1181.4749  0.025148464    0.0243818          106 
 3916000   0.61536395   -6.4452654    1176.3924  0.025033886  0.024374514           93 
 3917000   0.61816469    -6.440182     1177.655  0.025054357  0.024367233           79 
 3918000   0.60929242   -6.4142636    1178.2538  0.025060699  0.024359981           56 
 3919000   0.61688362   -6.4355971    1179.5787  0.025082476  0.024352726           57 
 3920000   0.62605326   -6.4492288    1179.0799  0.025065474  0.024345456           60 
 3921000   0.62747322   -6.4073244    1179.3631    0.0250651  0.024338221           43 
 3922000   0.62104449   -6.4175478    1178.6748  0.025044084  0.024330968           74 
 3923000   0.63270038   -6.4497664    1177.0064  0.025002261  0.024323717          107 
 3924000   0.62282111    -6.419148    1180.3145  0.025066143  0.024316459           98 
 3925000   0.61657584   -6.4335806    1180.6859  0.025067642  0.024309175           58 
 3926000   0.61246195   -6.4101801     1179.708  0.025040498  0.024301888           75 
 3927000   0.63078256   -6.4156175    1178.9268  0.025017546  0.024294616           89 
 3928000   0.63471458   -6.4203652     1179.293  0.025018946  0.024287356           83 
 3929000    0.6243843    -6.413968    1177.9044  0.024983126  0.024280085           52 
 3930000   0.62725129   -6.4396942    1180.2743  0.025027021  0.024272835           21 
 3931000   0.63085977   -6.4387918    1177.8861  0.024970027  0.024265563           70 
 3932000   0.63330974   -6.4608096    1176.3216  0.024930518  0.024258285           53 
 3933000   0.61200608   -6.4248537    1179.4538  0.024990545  0.024251044           54 
 3934000   0.62402378   -6.4545895    1176.5698  0.024923102  0.024243771           74 
 3935000   0.62441173   -6.4324554    1179.7662   0.02498446  0.024236493           88 
 3936000   0.61753899   -6.4548008     1175.822  0.024894606  0.024229219           86 
 3937000   0.62469333   -6.4610351     1179.512  0.024966386  0.024221927           73 
 3938000   0.63391111   -6.4651247    1177.5367  0.024918247  0.024214638           80 
 3939000   0.62042003   -6.4459497    1177.1186  0.024903077  0.024207336           88 
 3940000   0.62010795   -6.4561568    1179.1543  0.024939813  0.024200073           83 
 3941000   0.61247612   -6.4367545    1178.4652  0.024918912  0.024192819           89 
 3942000   0.62862839   -6.4469747    1177.7177  0.024896788  0.024185582           95 
 3943000   0.62616964   -6.4556727    1178.9845  0.024917249  0.024178354           86 
 3944000   0.63397164   -6.4484903    1178.9678  0.024910577  0.024171121           55 
 3945000   0.63339907    -6.409605    1184.7261  0.025025899  0.024163906           60 
 3946000   0.62992374   -6.4351414    1178.6257  0.024890726  0.024156712           51 
 3947000   0.63309915   -6.4561002    1179.4594  0.024902023   0.02414952           68 
 3948000   0.62433598   -6.4496356    1178.5725  0.024876994  0.024142326           99 
 3949000   0.60892556   -6.4213853    1178.1454  0.024861682  0.024135098           73 
 3950000   0.62620386   -6.4427376    1178.5923  0.024864817  0.024127858           90 
 3951000   0.61751559   -6.4800085    1179.4942  0.024877547  0.024120631           89 
 3952000   0.61602612   -6.4401035    1180.4983  0.024892423  0.024113429          114 
 3953000   0.61091635   -6.4444936    1178.2001  0.024837678  0.024106226          124 
 3954000   0.61745913   -6.4589737    1178.5661  0.024839109   0.02409903           86 
 3955000   0.62786906    -6.453371    1181.6965  0.024898788  0.024091795           91 
 3956000   0.62082796   -6.4417746    1180.0088  0.024856943  0.024084595          132 
 3957000   0.61463694   -6.4644889    1178.3024  0.024814724  0.024077382          133 
 3958000   0.60928389   -6.4494384     1178.424  0.024811016  0.024070184           89 
 3959000   0.60741855   -6.4396925    1177.6861  0.024789218  0.024062978          111 
 3960000   0.62412595   -6.4541174    1178.7209  0.024804734  0.024055804          119 
 3961000   0.61958283   -6.4581062    1177.4704  0.024772161  0.024048591           83 
 3962000   0.61978593   -6.4730237    1174.7095  0.024707839  0.024041396          182 
 3963000   0.61419748   -6.4314649    1180.1795  0.024816627  0.024034209           96 
 3964000   0.59899185   -6.4458964    1176.3233  0.024729299  0.024027022          109 
 3965000   0.61985675   -6.4448754    1180.5322  0.024811521  0.024019847          119 
 3966000    0.6061921   -6.4335231    1182.1724   0.02483973  0.024012678           73 
 3967000   0.61290434   -6.4320027    1178.5312  0.024756979  0.024005502          142 
 3968000   0.62349121   -6.4425496    1178.5743  0.024751645  0.023998329           98 
 3969000   0.61545885   -6.4508852    1178.7558  0.024749219  0.023991162          127 
 3970000   0.62762296   -6.4262921    1179.2526  0.024753413  0.023983995           84 
 3971000   0.62388696   -6.4579525    1180.7951   0.02477955  0.023976825           83 
 3972000   0.61874444   -6.4369852    1179.3132   0.02474222  0.023969681           84 
 3973000   0.61288805   -6.4394401    1177.5845  0.024699734  0.023962521           67 
 3974000    0.6309739   -6.4537342    1180.3867  0.024752279  0.023955353           81 
 3975000    0.6174692   -6.4556074    1178.8424  0.024713677  0.023948195          102 
 3976000   0.62055304   -6.4490438    1179.2003  0.024714963  0.023941023           90 
 3977000   0.60934348   -6.4533277    1176.8233  0.024658942  0.023933854           99 
 3978000   0.61542716   -6.4707413     1176.462  0.024645173  0.023926692          118 
 3979000   0.61919292   -6.4450547    1179.4548  0.024701658  0.023919558           75 
 3980000   0.61197884   -6.4559141    1183.2301    0.0247745  0.023912423          119 
 3981000   0.60828773   -6.4535002    1180.4219  0.024709493  0.023905295          100 
 3982000   0.62107113   -6.4451919    1180.0034  0.024694529   0.02389815          110 
 3983000   0.61967633   -6.4447317    1180.7499  0.024703947  0.023891012          135 
 3984000   0.60964668    -6.460181    1180.4335  0.024691129  0.023883862           98 
 3985000   0.59979934   -6.4964091    1179.6429    0.0246684  0.023876713          144 
 3986000   0.60440398   -6.4606294    1179.9791  0.024669241  0.023869571          167 
 3987000   0.61622599   -6.4674101    1177.2344  0.024605684   0.02386244          128 
 3988000   0.61071039   -6.4860041    1179.5277  0.024647437  0.023855307          147 
 3989000   0.60380387   -6.4479391    1181.0461  0.024672977  0.023848188          104 
 3990000   0.61598992    -6.464259    1179.1948  0.024628128  0.023841078          160 
 3991000   0.61227541   -6.4724154    1180.1288   0.02464146  0.023833968          243 
 3992000   0.61815426   -6.4638841    1178.3718  0.024598611  0.023826833           93 
 3993000   0.62358839   -6.4705441    1179.0959   0.02460756   0.02381969          214 
 3994000   0.61924968   -6.4657329    1177.5638  0.024569433  0.023812571          215 
 3995000   0.61091616   -6.4634972    1180.2499  0.024619313  0.023805465          141 
 3996000   0.60027458   -6.4623286    1179.0638  0.024588417  0.023798347          238 
 3997000   0.60433159   -6.4706544    1178.3803  0.024568016  0.023791232          263 
 3998000   0.61706127   -6.4628009    1180.6503  0.024609186  0.023784138          203 
 3999000   0.59958414   -6.4923179    1176.0155  0.024506449  0.023777035          218 
 4000000   0.62503741   -6.4613765    1178.6141   0.02455446  0.023769931          107 
 4001000   0.59984107   -6.4543378    1180.2181  0.024581731  0.023762865          174 
 4002000   0.60205063   -6.4980129    1179.0394  0.024551045  0.023755782          132 
 4003000   0.59809949   -6.4698001    1178.3537  0.024530638  0.023748671          154 
 4004000   0.60311159   -6.4785871    1179.2122  0.024542378  0.023741556          126 
 4005000   0.62360069   -6.4589712    1181.2346  0.024578332  0.023734471          132 
 4006000   0.60474112   -6.4894317    1179.3636  0.024533274  0.023727351          158 
 4007000    0.6074933   -6.4792492    1178.7211   0.02451379  0.023720222          144 
 4008000   0.60627647   -6.5038945    1178.4695  0.024502443  0.023713113          113 
 4009000   0.61623903   -6.4724407     1178.758  0.024502328  0.023705966          134 
 4010000   0.62116205   -6.5127454    1178.8509  0.024498148   0.02369883          193 
 4011000   0.60668653      -6.4655    1180.1108  0.024518217   0.02369172          160 
 4012000   0.60274335   -6.4984238    1181.2362  0.024535481  0.023684621          141 
 4013000   0.59466131   -6.4730373    1180.8957  0.024522297  0.023677529          122 
 4014000   0.60815652   -6.4704075    1182.3265  0.024545892  0.023670482           85 
 4015000   0.58582054   -6.4601255    1179.9935  0.024491355    0.0236634          111 
 4016000   0.60783121   -6.4718442    1177.5731  0.024435032  0.023656325          183 
 4017000   0.60583913   -6.4834817    1180.6001  0.024491745  0.023649255          181 
 4018000   0.60007808   -6.4853408    1180.4056  0.024481617  0.023642184          142 
 4019000   0.61799119   -6.4820624    1178.1017  0.024427754  0.023635129           74 
 4020000   0.58861489    -6.456355    1179.3518  0.024447591  0.023628039          165 
 4021000   0.60635917   -6.4801555    1182.6194  0.024509231  0.023620969          139 
 4022000   0.60070538   -6.4772114    1178.5317  0.024418442    0.0236139          121 
 4023000   0.60225984   -6.4701861     1177.931   0.02439993  0.023606829          141 
 4024000   0.60081395    -6.465707      1177.22  0.024379141  0.023599735          206 
 4025000   0.60733696   -6.4995255    1177.5306  0.024379516  0.023592651          229 
 4026000   0.61210029   -6.4967321    1177.7733  0.024378483  0.023585544           91 
 4027000   0.61784525   -6.4970491    1178.3252  0.024383851  0.023578453          125 
 4028000   0.59565017   -6.4691834    1178.8581  0.024388822  0.023571378          129 
 4029000   0.60590475   -6.5043284    1179.5734  0.024397563  0.023564297          122 
 4030000   0.61607016   -6.5043859    1178.2196  0.024363514  0.023557219          109 
 4031000   0.61335466   -6.4873451    1177.9277  0.024351437  0.023550124          208 
 4032000   0.60797868   -6.4618882    1179.7137   0.02438231  0.023543036          119 
 4033000   0.60661399   -6.4943435    1180.3284  0.024388966  0.023535953          138 
 4034000   0.59685964   -6.4857665    1176.5567  0.024305006  0.023528886          140 
 4035000   0.61719035   -6.4912689    1177.3499  0.024315363  0.023521818          102 
 4036000   0.61211719   -6.4958701    1180.4089    0.0243725  0.023514726          102 
 4037000    0.5984936   -6.4910897    1179.1998  0.024341503  0.023507653          154 
 4038000   0.60447063   -6.4904086    1179.6559  0.024344887  0.023500585          113 
 4039000   0.59638753   -6.4826483    1177.6978  0.024298462    0.0234935           85 
 4040000   0.59747189   -6.4854397     1179.312  0.024325742  0.023486433           66 
 4041000   0.60514024   -6.4931838    1177.4465  0.024281253  0.023479358           81 
 4042000   0.60634719   -6.4928317    1178.8841  0.024304883   0.02347229          106 
 4043000   0.60451503   -6.4803587    1178.0294  0.024281255  0.023465228          100 
 4044000   0.59426995   -6.5005875    1178.1796  0.024278347  0.023458174           61 
 4045000   0.60156046   -6.4766335    1178.9804  0.024288843   0.02345112          100 
 4046000   0.60819595   -6.4970176    1177.2278  0.024246741  0.023444085          106 
 4047000   0.60797871   -6.4885978    1181.5496  0.024329743  0.023437039           63 
 4048000   0.60459878   -6.5078274    1178.8286  0.024267718  0.023429976           56 
 4049000   0.59801117    -6.492934    1178.4212  0.024253339  0.023422913           66 
 4050000   0.60507427   -6.4833156    1177.1172  0.024220518  0.023415895           63 
 4051000   0.61189098   -6.5039097    1179.0943   0.02425521  0.023408866           79 
 4052000    0.5942391   -6.4938079    1178.4995  0.024236992  0.023401822          105 
 4053000   0.60846506   -6.5011113    1177.3571  0.024207524  0.023394784           83 
 4054000   0.59399554   -6.4715571    1180.4585  0.024265305  0.023387774           61 
 4055000   0.60188628    -6.484262    1181.0179  0.024270816  0.023380785           77 
 4056000   0.59455166   -6.4761399    1180.4213  0.024252574  0.023373776           41 
 4057000   0.60244384   -6.4801591     1178.877  0.024214876  0.023366764           90 
 4058000   0.60582908   -6.4803349    1178.3335  0.024197747  0.023359736           71 
 4059000   0.60437087   -6.4923856    1178.4671  0.024194529  0.023352736           51 
 4060000   0.60574118   -6.4988053    1181.6269  0.024253426  0.023345743           87 
 4061000   0.59857377   -6.4566427    1180.2151  0.024218484  0.023338792           37 
 4062000   0.59782666   -6.4863132    1176.8122  0.024142708  0.023331796           91 
 4063000   0.58942672   -6.4738348    1179.6042  0.024194031  0.023324792          119 
 4064000   0.59844394   -6.4727953    1178.5882  0.024167245  0.023317818           78 
 4065000   0.60084868   -6.4990816    1176.8714  0.024126105  0.023310823           60 
 4066000    0.5978095   -6.5067161     1177.946  0.024142194  0.023303833          177 
 4067000   0.60129556   -6.4992692    1181.2397  0.024203749  0.023296817          140 
 4068000   0.59192324   -6.5145888    1176.9898  0.024110738  0.023289812          197 
 4069000   0.59257984    -6.492378     1180.758  0.024181986   0.02328279          143 
 4070000   0.59727326   -6.4905229     1176.283  0.024084419  0.023275797           82 
 4071000   0.59623184   -6.4792409    1181.9499  0.024194503  0.023268792          140 
 4072000   0.60268489   -6.4906807    1178.4166  0.024116254  0.023261799          152 
 4073000    0.5938485   -6.5038721    1179.4926  0.024132348  0.023254801          114 
 4074000   0.60409933   -6.4946681    1180.5174  0.024147386  0.023247805          167 
 4075000   0.61056274   -6.4992425    1180.4806  0.024140707  0.023240786          138 
 4076000   0.60238483   -6.5219233    1176.1516  0.024046278  0.023233767           78 
 4077000   0.60489238   -6.5133706    1178.5746  0.024089906  0.023226742          155 
 4078000   0.60324209   -6.4989729    1180.9476  0.024132491  0.023219729           61 
 4079000   0.58962022   -6.4865651    1180.7916  0.024123388  0.023212736          113 
 4080000   0.61718873   -6.4736587    1178.8557  0.024077935  0.023205745          146 
 4081000   0.60952078   -6.5000482    1181.1257  0.024118388  0.023198769           97 
 4082000   0.60103241   -6.4994017    1179.1024  0.024071174  0.023191783           95 
 4083000   0.60297651   -6.4948869    1176.2377  0.024006812  0.023184801           63 
 4084000   0.60362784   -6.5115542    1177.8055  0.024032922  0.023177804           78 
 4085000   0.58585547    -6.487644    1179.8421  0.024068586  0.023170807           72 
 4086000   0.58881169   -6.4886818    1180.0144  0.024066209  0.023163839           54 
 4087000   0.61268542    -6.504828    1180.5946  0.024072151  0.023156864           72 
 4088000   0.58829968   -6.5118949    1180.1251  0.024056693  0.023149886           62 
 4089000   0.60625762   -6.5056095    1177.3096   0.02399343  0.023142904           76 
 4090000   0.59077121    -6.489665    1180.3503  0.024049517  0.023135924          132 
 4091000   0.59159408   -6.4948206    1178.5702  0.024007377  0.023128951          103 
 4092000   0.59706064   -6.4856742     1179.479   0.02402002  0.023122005           78 
 4093000    0.5999915   -6.5023402    1178.0819  0.023985706  0.023115038           75 
 4094000    0.5884011   -6.4890353    1179.6151  0.024011054   0.02310808          185 
 4095000   0.60830843   -6.5238333    1177.9324  0.023970949  0.023101105           63 
 4096000   0.60236307   -6.4968705    1178.9877  0.023986565  0.023094131           59 
 4097000   0.59196382   -6.4978295    1182.4264  0.024050655  0.023087188           46 
 4098000   0.58507937   -6.4883671    1178.5302  0.023965557  0.023080225           35 
 4099000   0.60023198   -6.5097609    1175.8647   0.02390552  0.023073268           47 
 4100000   0.58804846   -6.4942939    1178.9844  0.023963098  0.023066321           28 
 4101000   0.58830506   -6.5039199    1177.2644  0.023922304  0.023059366           57 
 4102000   0.60178919    -6.507091    1179.7184  0.023966326  0.023052414           36 
 4103000   0.60929236   -6.5053592    1177.9415  0.023924394  0.023045485           26 
 4104000   0.59382646   -6.4883888    1180.1467  0.023963342  0.023038551           12 
 4105000   0.59751317   -6.5015508    1179.5889  0.023946182  0.023031602           22 
 4106000   0.58313791   -6.5055905    1178.7178  0.023922669  0.023024668           38 
 4107000   0.57830355    -6.506914    1177.2351   0.02388676  0.023017734           40 
 4108000   0.58881966   -6.4942318    1179.7611  0.023932188  0.023010799           20 
 4109000   0.58880004   -6.4844133    1180.0626  0.023932477  0.023003869           43 
 4110000   0.58723114   -6.5209534    1179.0953  0.023907042  0.022996932           34 
 4111000   0.59045315   -6.4993349    1178.3315  0.023885743  0.022989986           44 
 4112000   0.57636956   -6.5002297    1177.2522  0.023858062   0.02298305           48 
 4113000   0.60910038   -6.5055549    1179.1232   0.02389017  0.022976135           64 
 4114000   0.59413812   -6.5411295    1177.0233  0.023841828   0.02296921           71 
 4115000   0.58921366   -6.5123402    1180.8433  0.023913392   0.02296229           86 
 4116000   0.58870559   -6.5010333    1178.5152  0.023860446  0.022955372           33 
 4117000   0.58496024   -6.5074348    1179.0919  0.023866324  0.022948451           33 
 4118000   0.58917408   -6.4918717    1178.6373  0.023851329  0.022941534           32 
 4119000   0.59401636   -6.5035581    1180.3189   0.02387956  0.022934635           66 
 4120000   0.61240841   -6.5233574    1179.1964  0.023851059  0.022927724           42 
 4121000   0.58472835   -6.5080465    1176.7267  0.023795331  0.022920813           37 
 4122000   0.58817742   -6.4975322    1180.5515  0.023866884  0.022913895           25 
 4123000   0.57159503    -6.509645    1178.4062  0.023817734  0.022906975           36 
 4124000   0.58367848   -6.4977055    1179.4335  0.023832716   0.02290005           20 
 4125000   0.60144951   -6.5095226    1179.7711  0.023833759  0.022893137           17 
 4126000   0.59116972    -6.530781    1177.5113  0.023782342  0.022886215           35 
 4127000   0.60082453   -6.5085505    1176.7889  0.023761993  0.022879294           17 
 4128000   0.58256007   -6.5088616    1179.7107  0.023815219  0.022872375           22 
 4129000   0.59108105    -6.515592    1179.3455  0.023802081  0.022865451           46 
 4130000   0.57430317   -6.5151229    1179.8066  0.023805621   0.02285856           19 
 4131000   0.58467966   -6.5150346    1178.2464  0.023768385  0.022851676           30 
 4132000   0.59487586   -6.5225027    1176.8437  0.023734343  0.022844778           25 
 4133000   0.58884935   -6.5148856    1178.1564   0.02375507  0.022837876           29 
 4134000   0.57494968   -6.5133851    1179.5167  0.023776744  0.022830974           12 
 4135000   0.59486653    -6.513821    1175.7018  0.023694111  0.022824084           15 
 4136000   0.59189277   -6.5144683    1179.7364  0.023769673  0.022817178           34 
 4137000   0.59019563   -6.5083869     1179.367  0.023756487  0.022810305           18 
 4138000   0.58724095   -6.4927953    1181.5923  0.023795559  0.022803437           14 
 4139000     0.587331   -6.5107499    1176.1332  0.023679899  0.022796561           30 
 4140000   0.59250388   -6.5353051    1175.6049  0.023663544  0.022789671           47 
 4141000    0.5930997   -6.5284707    1177.9113  0.023704244  0.022782771           67 
 4142000   0.58777123   -6.5394341      1177.14  0.023683004  0.022775854           39 
 4143000   0.60658538   -6.5314521    1174.9925  0.023634092  0.022768924           58 
 4144000   0.58865432   -6.5268289    1177.7619   0.02368408  0.022762007           34 
 4145000   0.59227877   -6.5360715    1177.8289  0.023679712  0.022755097           49 
 4146000   0.59076733   -6.5391339      1175.51  0.023627392   0.02274818           32 
 4147000   0.58852471   -6.5228745     1178.807  0.023687946  0.022741251           48 
 4148000   0.58327093   -6.5308564    1176.5286  0.023636464  0.022734321          120 
 4149000   0.59439078    -6.523292    1177.7711  0.023655723  0.022727386           42 
 4150000    0.5770012   -6.5326826    1177.0782  0.023636108  0.022720465           88 
 4151000   0.58443634   -6.5286805    1175.6903  0.023602551  0.022713539           25 
 4152000   0.58252059   -6.5311579    1174.7602    0.0235782  0.022706634           42 
 4153000   0.58801682   -6.5262139    1176.8102  0.023613657  0.022699729           44 
 4154000   0.59128439    -6.519043    1176.2413   0.02359656  0.022692833           33 
 4155000   0.58096915   -6.5395656    1175.6164  0.023578347  0.022685937           53 
 4156000   0.59148634   -6.5167642    1175.1077  0.023562473   0.02267903           56 
 4157000   0.57903545   -6.5401653    1176.7943  0.023590616  0.022672133           20 
 4158000   0.58766995   -6.5260417    1177.0862  0.023590792  0.022665237           59 
 4159000   0.58654715   -6.5415776     1178.025   0.02360393   0.02265834           44 
 4160000   0.58227639   -6.5250766     1174.945  0.023536559  0.022651447           36 
 4161000    0.5840775   -6.5195238    1179.9751  0.023631641  0.022644557           49 
 4162000   0.59163583   -6.5195654    1180.5969  0.023638414   0.02263769           92 
 4163000   0.58205025   -6.5135353    1176.5685  0.023552097  0.022630817           56 
 4164000   0.58919608   -6.5537163    1176.8477  0.023552028  0.022623921           76 
 4165000   0.58736231   -6.5371442    1173.9254  0.023487904   0.02261703           46 
 4166000   0.57836391   -6.5532985    1176.2258  0.023528281  0.022610124           45 
 4167000    0.5901639   -6.5346884    1178.0224  0.023558563  0.022603244           84 
 4168000   0.57724631    -6.545655    1175.4028  0.023500535  0.022596361          105 
 4169000   0.58096747   -6.5457566    1175.1707   0.02349026  0.022589481           63 
 4170000   0.59355292   -6.5202564    1176.5069   0.02351133  0.022582579          153 
 4171000   0.60241257    -6.543271    1175.8873  0.023493312  0.022575688           28 
 4172000   0.58282086   -6.5686355    1174.1062  0.023452106  0.022568786          102 
 4173000   0.58187295   -6.5462874     1176.541  0.023495107  0.022561896           95 
 4174000   0.57759909   -6.5502483    1177.7352   0.02351332  0.022555017           86 
 4175000    0.5791756   -6.5459955    1175.8889  0.023470837  0.022548149           62 
 4176000   0.57340809   -6.5450017     1176.129  0.023470007  0.022541283          134 
 4177000   0.57469906   -6.5415201    1177.6016  0.023493768  0.022534404          116 
 4178000   0.57803116   -6.5393413    1178.6169  0.023508395  0.022527528          147 
 4179000   0.59327758   -6.5807699    1177.6536   0.02348356  0.022520649           98 
 4180000   0.57531717   -6.5591392    1176.3841  0.023452634  0.022513782          167 
 4181000    0.5976795    -6.537056    1179.2882  0.023504906  0.022506911           42 
 4182000   0.58716457   -6.5485297     1176.327  0.023440279  0.022500053          140 
 4183000   0.58535746   -6.5402689    1176.1676    0.0234315  0.022493194           53 
 4184000   0.57595356    -6.563189     1177.968   0.02346176  0.022486345           77 
 4185000   0.58921635   -6.5543779    1178.0139  0.023457066    0.0224795           60 
 4186000   0.58716265   -6.5218471    1176.1474  0.023414305  0.022472649           45 
 4187000   0.57365932   -6.5321187    1176.8064   0.02342183  0.022465814           52 
 4188000   0.57498215   -6.5393733    1176.0592  0.023401369  0.022458972           31 
 4189000   0.57271005   -6.5521935    1177.9405  0.023433208  0.022452136           46 
 4190000   0.57584418    -6.535909     1178.999  0.023448667  0.022445302           43 
 4191000   0.59043568   -6.5467038    1177.3459  0.023410202  0.022438499           70 
 4192000   0.58901467     -6.56359    1175.3609  0.023365158   0.02243168           35 
 4193000   0.56757364   -6.5288868    1175.4251  0.023360862  0.022424878           39 
 4194000   0.59116792   -6.5392913    1174.5187  0.023337281  0.022418072           38 
 4195000   0.57986543   -6.5274888    1175.5705  0.023352613  0.022411285           49 
 4196000   0.58956759   -6.5412761    1179.0127  0.023415409  0.022404498           72 
 4197000   0.57547515   -6.5491236    1177.3643  0.023377101  0.022397712           75 
 4198000   0.59087032   -6.5397457    1175.7292  0.023339073  0.022390906           64 
 4199000   0.58649367   -6.5485223    1178.3597   0.02338572  0.022384097           65 
 4200000   0.56568797   -6.5486479    1174.8169  0.023309858  0.022377268           67 
 4201000    0.5848752   -6.5708782    1174.2001  0.023292076  0.022370446           55 
 4202000   0.58885048   -6.5608994    1174.1436  0.023285412  0.022363605           62 
 4203000   0.58785338     -6.55461    1174.5928  0.023288777  0.022356748           81 
 4204000   0.57819228   -6.5459768    1173.8981  0.023269467  0.022349907           41 
 4205000   0.59209307   -6.5626316    1173.5092  0.023256227   0.02234306           48 
 4206000   0.57145017   -6.5633202    1176.0661  0.023301358  0.022336219           30 
 4207000   0.57862199   -6.5565644    1176.9954  0.023314226  0.022329393           55 
 4208000   0.59778303   -6.5666958    1175.5104  0.023279278  0.022322564           36 
 4209000   0.56601489   -6.5665123    1173.9855  0.023243556  0.022315744           91 
 4210000    0.5666623   -6.5603479    1176.2886  0.023283621  0.022308923           69 
 4211000   0.57025794   -6.5535994    1174.5734  0.023244151  0.022302098          143 
 4212000   0.57870634   -6.5536791    1177.5222  0.023296973   0.02229527           78 
 4213000   0.58377867   -6.5594038     1176.926  0.023279651  0.022288458          189 
 4214000   0.58604763   -6.5765147    1174.4969   0.02322609  0.022281642           95 
 4215000   0.56669495   -6.5654412    1173.6683  0.023204198  0.022274822           92 
 4216000   0.57824845   -6.5505958    1175.9896  0.023244576  0.022267998          120 
 4217000   0.57456562    -6.562897    1174.2573  0.023204832  0.022261183          141 
 4218000   0.57776275   -6.5479468    1172.8275  0.023171082  0.022254357          139 
 4219000   0.57067817   -6.5583911    1174.8058  0.023204666  0.022247562          150 
 4220000   0.57687502   -6.5671736    1175.9525  0.023221812  0.022240779          128 
 4221000   0.58190472   -6.5446299    1177.4899  0.023246662  0.022233989          143 
 4222000   0.57227726   -6.5689085    1176.2357    0.0232164  0.022227202          178 
 4223000   0.58599086   -6.5763176    1176.8043  0.023222123  0.022220416          183 
 4224000   0.56956889   -6.5512136     1176.914  0.023218789  0.022213652          121 
 4225000    0.5777972    -6.563726    1174.5634  0.023166931  0.022206872          151 
 4226000   0.57574632   -6.5671079    1175.9178  0.023188157   0.02220009           83 
 4227000   0.58191122   -6.5653284    1176.2021  0.023188276  0.022193315          129 
 4228000   0.57052981   -6.5782488    1176.1597  0.023181956  0.022186528          102 
 4229000   0.58011391   -6.5661759     1176.196   0.02317719  0.022179745           86 
 4230000   0.57609024   -6.5772744    1174.0853  0.023130128  0.022172949           94 
 4231000   0.57676986   -6.5834542    1173.0917  0.023105091  0.022166159          129 
 4232000   0.57726216   -6.5742905    1176.4271   0.02316531  0.022159369           91 
 4233000   0.58036907   -6.5756768       1172.9  0.023090402  0.022152594          126 
 4234000   0.58046115   -6.5599914    1174.6172  0.023118745  0.022145833          164 
 4235000   0.57131507   -6.5548776    1175.1278  0.023123333  0.022139063          136 
 4236000   0.57422448   -6.5594009    1175.6981  0.023129094  0.022132311          117 
 4237000   0.56875747   -6.5763402    1173.6873  0.023084086  0.022125546           99 
 4238000   0.57651356    -6.576898    1177.6709  0.023156971  0.022118786           87 
 4239000   0.58534506    -6.570215    1175.9319  0.023117321  0.022112041          114 
 4240000   0.57310545    -6.564604    1174.1318   0.02307649  0.022105283          138 
 4241000   0.57121845   -6.5736825    1171.9324  0.023027831  0.022098517          246 
 4242000   0.57373901   -6.5721078    1173.0159  0.023043688  0.022091729          147 
 4243000   0.57041519   -6.5759778    1171.4062  0.023006642  0.022084931          132 
 4244000   0.56504493   -6.5756236    1173.5083  0.023042497  0.022078142          148 
 4245000   0.56031916   -6.5633602    1175.7148  0.023080385  0.022071377          220 
 4246000   0.56987543   -6.5813546    1174.5854  0.023052783  0.022064612          188 
 4247000    0.5912047   -6.5553449    1175.0477  0.023056426  0.022057856          135 
 4248000   0.56997046   -6.5840554    1173.0969   0.02301273  0.022051099          151 
 4249000    0.5719229   -6.5567657     1174.829  0.023041284  0.022044349          199 
 4250000   0.56271125   -6.5704068    1177.8088  0.023094289  0.022037614          155 
 4251000   0.56866495   -6.5669558    1174.6589  0.023027109   0.02203088          143 
 4252000   0.57507983    -6.566585    1176.3827  0.023055478  0.022024143          167 
 4253000    0.5790279    -6.556725    1172.6158  0.022976248  0.022017414          178 
 4254000    0.5713004   -6.5694638    1173.4825  0.022987825  0.022010691          144 
 4255000    0.5741578   -6.5650003    1176.6631  0.023044714  0.022003965          248 
 4256000   0.57199573   -6.5918906     1173.266  0.022972783  0.021997238          186 
 4257000   0.58260218   -6.5826672    1175.1431  0.023004133  0.021990508          261 
 4258000   0.57902706   -6.5686477     1175.954    0.0230146  0.021983798          234 
 4259000   0.56688179    -6.568435    1173.4984  0.022961149  0.021977085          200 
 4260000   0.56255994   -6.5843524    1174.4547  0.022974465  0.021970378           89 
 4261000   0.56652061   -6.5715463     1173.905  0.022958323  0.021963647          139 
 4262000   0.57486115   -6.5739548    1173.8024  0.022950931  0.021956919          106 
 4263000      0.56755   -6.5746717    1172.5163  0.022920406  0.021950184          114 
 4264000   0.56434413   -6.5800785    1174.1428  0.022946817  0.021943462          155 
 4265000   0.57904667   -6.5768342    1172.4291  0.022907953  0.021936743          134 
 4266000   0.56878687   -6.5780154    1173.7169   0.02292774   0.02193002          151 
 4267000   0.56985743    -6.584954    1174.8168  0.022943848  0.021923286          185 
 4268000   0.58131769   -6.5650831     1174.895  0.022939999  0.021916552          107 
 4269000   0.56589696   -6.5899861    1174.1276  0.022919646  0.021909826          217 
 4270000   0.57303577   -6.5836583    1173.9331  0.022910482  0.021903104          244 
 4271000   0.58328963   -6.5749627    1175.0018   0.02292597   0.02189638          159 
 4272000   0.58207944   -6.5667101     1176.733  0.022954373  0.021889675          133 
 4273000   0.56177862    -6.589645    1173.9409  0.022894549  0.021882964          108 
 4274000    0.5734856   -6.5707603    1173.9949  0.022890245  0.021876254           88 
 4275000   0.55085119   -6.5572483     1175.654  0.022917233  0.021869558          167 
 4276000   0.57292024     -6.57747    1173.1188  0.022862464  0.021862862          129 
 4277000   0.56181589   -6.5692946    1174.9584  0.022892962  0.021856163          103 
 4278000   0.57149077   -6.5905076    1174.0607  0.022870125  0.021849479           79 
 4279000   0.57172472   -6.5896794    1175.9346  0.022901273  0.021842775           67 
 4280000   0.56464502   -6.5841996    1174.8568  0.022874938  0.021836072           93 
 4281000    0.5856489   -6.5922494    1174.5938  0.022864476  0.021829377           75 
 4282000   0.56896169    -6.573131    1174.6739  0.022860694  0.021822687           44 
 4283000   0.56490206   -6.6049104    1174.1529  0.022845219  0.021815995           56 
 4284000   0.56313286   -6.5694371    1173.9247  0.022835449  0.021809298           62 
 4285000   0.56447972   -6.5966935    1173.8718  0.022829091  0.021802602          116 
 4286000   0.57230412   -6.5936763    1174.8509  0.022842801  0.021795934           63 
 4287000   0.55856639   -6.5754143    1173.0089  0.022801666  0.021789261           68 
 4288000   0.56453521   -6.5938213    1174.9173  0.022833436  0.021782591           91 
 4289000   0.56318845   -6.6023792     1175.222  0.022834032  0.021775908          155 
 4290000   0.56772448   -6.5835676    1176.6928  0.022857281  0.021769238           70 
 4291000   0.56698945    -6.593673    1175.2834  0.022824583  0.021762565           64 
 4292000   0.56537593   -6.5811265    1174.7865  0.022809616  0.021755892          119 
 4293000   0.56707303   -6.5964873    1174.1494  0.022791936  0.021749222          106 
 4294000   0.57142957   -6.5805689    1175.0956  0.022804991  0.021742555          136 
 4295000   0.56447981   -6.5769123    1172.8709  0.022756518  0.021735896          145 
 4296000   0.56687283   -6.5814261    1172.8857  0.022751507   0.02172923          183 
 4297000   0.55777075   -6.5920091     1175.281  0.022792666  0.021722548          112 
 4298000   0.55714089   -6.6188333    1172.7291  0.022737885  0.021715873          128 
 4299000   0.57301589   -6.5750358     1174.237  0.022761825  0.021709213          106 
 4300000   0.55636806   -6.5958205    1174.4105  0.022759894  0.021702573          180 
 4301000   0.56063478   -6.5972637     1174.813  0.022762399  0.021695931          221 
 4302000   0.55630777   -6.5918643    1174.8487  0.022757801  0.021689274           92 
 4303000   0.55736155   -6.5930012    1174.3051  0.022741985  0.021682617          126 
 4304000   0.55276977   -6.5895815    1173.1483  0.022714302  0.021675976          150 
 4305000   0.57347319   -6.5864119    1174.4412  0.022734053  0.021669329          229 
 4306000   0.55475757   -6.5910984    1175.4489  0.022748275  0.021662683          154 
 4307000   0.57792243   -6.5890585    1173.0906  0.022697364  0.021656042          160 
 4308000   0.56049837   -6.6053701    1172.3119  0.022677034  0.021649408          227 
 4309000    0.5600558   -6.5870872    1173.5189  0.022695112   0.02164277          193 
 4310000   0.55877732    -6.572243    1174.2976  0.022704904  0.021636143          249 
 4311000   0.56555155   -6.5767532    1176.6931  0.022745943  0.021629544          131 
 4312000   0.57335749   -6.6056318    1175.1924  0.022711666  0.021622948          148 
 4313000    0.5579244   -6.5961928    1173.1425  0.022666792  0.021616322          138 
 4314000    0.5538954   -6.5984687    1174.8472  0.022694468  0.021609697          285 
 4315000   0.55567289   -6.5792743    1173.9311  0.022671517  0.021603076          234 
 4316000   0.56707514   -6.6044016    1175.1067  0.022688961  0.021596456          236 
 4317000   0.56609828   -6.5962284     1171.457  0.022613255  0.021589813          230 
 4318000   0.55447197   -6.6063428     1174.151  0.022660009  0.021583199          227 
 4319000    0.5605562   -6.6054802    1173.6502  0.022645099  0.021576564          219 
 4320000   0.55507501   -6.6068734    1173.5408  0.022637747  0.021569936          194 
 4321000   0.56357193   -6.6077455    1174.5683  0.022652324   0.02156333          183 
 4322000   0.56193908   -6.5958199    1173.5027  0.022626538  0.021556712          339 
 4323000   0.55638332    -6.602597    1173.1372  0.022614256  0.021550116          229 
 4324000    0.5653713   -6.5945165    1175.2337  0.022649431  0.021543512          251 
 4325000   0.56212674   -6.6011833     1174.538   0.02263079  0.021536915          167 
 4326000   0.57052691   -6.6004798    1176.2739  0.022658998  0.021530314          133 
 4327000   0.56054921   -6.6074562    1174.5144  0.022619875  0.021523719          275 
 4328000   0.55431637    -6.612981    1172.5763  0.022577332  0.021517118          198 
 4329000   0.54929619   -6.6088916    1173.3492  0.022586996  0.021510524          204 
 4330000   0.56730936   -6.5836406    1174.4903  0.022603739  0.021503933          221 
 4331000   0.55746122   -6.6043476    1174.2537  0.022593968  0.021497343          230 
 4332000   0.55096596   -6.5898633    1175.4764  0.022612274  0.021490759          188 
 4333000   0.55505558   -6.6121756    1173.1774   0.02256284  0.021484155          157 
 4334000   0.56072501   -6.6058414    1174.0547  0.022574501  0.021477567          230 
 4335000   0.55038162   -6.6119599     1171.347  0.022517243  0.021470971          204 
 4336000   0.56849816   -6.6035068    1173.2648  0.022548908  0.021464387          184 
 4337000   0.55081044   -6.5894499    1175.0107  0.022577255  0.021457806          175 
 4338000   0.55585305   -6.5961573    1174.0291  0.022553195  0.021451228          188 
 4339000   0.55653411   -6.6147948    1173.9851  0.022547153  0.021444659          185 
 4340000   0.55433404   -6.6157567    1173.7012  0.022536506  0.021438078          229 
 4341000   0.56519059   -6.6269122    1171.7539  0.022493932   0.02143148          170 
 4342000   0.55652089   -6.6036214    1172.6653  0.022506244  0.021424896          303 
 4343000   0.56040233   -6.6135149    1172.9969  0.022507425  0.021418317          154 
 4344000    0.5694387   -6.6161714    1173.6187  0.022514171  0.021411741          147 
 4345000   0.55459575   -6.6073321    1173.7747  0.022511981  0.021405177          125 
 4346000   0.55322426   -6.5989967    1174.2838  0.022516563  0.021398601          140 
 4347000   0.55545298   -6.6222766    1171.6802  0.022461472  0.021392032          129 
 4348000   0.55169402   -6.6276571    1175.2564  0.022524847  0.021385448          142 
 4349000   0.55636065   -6.6050585     1174.033  0.022496226  0.021378864          135 
 4350000   0.56746866   -6.6048883    1174.2408  0.022495035  0.021372296          143 
 4351000   0.55222728   -6.6115332    1174.1746  0.022488597  0.021365735          271 
 4352000    0.5390545   -6.6235711    1172.1654  0.022444957  0.021359189          183 
 4353000   0.55055647   -6.6012353    1173.5141  0.022465619  0.021352648          144 
 4354000   0.55412693   -6.6142571     1174.712  0.022483387  0.021346111          235 
 4355000   0.56317015   -6.6195099    1174.7446  0.022478848  0.021339564          214 
 4356000   0.54659537   -6.5878451    1175.8026  0.022493928  0.021333023          162 
 4357000    0.5482086   -6.6268604    1172.6863  0.022429162  0.021326483          135 
 4358000   0.55709974   -6.6025839    1173.6698  0.022442821   0.02131995          134 
 4359000   0.55550429   -6.6244188    1171.6043  0.022398186  0.021313403          137 
 4360000   0.55800631    -6.619285    1174.1958  0.022442581  0.021306847           89 
 4361000   0.54801361   -6.6207001    1172.0495  0.022396421  0.021300288          247 
 4362000   0.55802854   -6.6193126    1174.1534   0.02243148  0.021293741          119 
 4363000   0.55500445   -6.6242997    1173.8909  0.022421325  0.021287195          147 
 4364000   0.55017738    -6.642498    1174.1864  0.022421831  0.021280648          145 
 4365000   0.54727094   -6.6111116    1174.1741  0.022416459  0.021274099          214 
 4366000   0.55538642   -6.6264873    1172.9302  0.022387581  0.021267557          150 
 4367000   0.55789933   -6.6331557    1171.0806  0.022347161  0.021261009          225 
 4368000   0.54700064    -6.624699    1172.4409  0.022367997  0.021254464          170 
 4369000   0.55547119   -6.6338096    1171.9452  0.022353421  0.021247927          138 
 4370000   0.54990258    -6.636693    1174.1583  0.022390509  0.021241383          236 
 4371000   0.54380343   -6.6214553    1172.9282  0.022361935  0.021234861          172 
 4372000   0.54283503   -6.6231036     1174.484  0.022386474   0.02122833          160 
 4373000   0.54872221   -6.6300124    1173.8443  0.022369166  0.021221804          151 
 4374000   0.54004767   -6.6065367      1172.38  0.022336153  0.021215271          145 
 4375000    0.5534266     -6.62673    1172.7171  0.022337469  0.021208746          197 
 4376000   0.55601469   -6.6370791    1173.5038  0.022347345  0.021202212          248 
 4377000   0.54458763   -6.6387421    1169.9523  0.022274622  0.021195675          278 
 4378000   0.55589785   -6.6525222    1170.2902  0.022275967  0.021189138          283 
 4379000   0.56061845   -6.6304753    1171.5326  0.022294522  0.021182607          250 
 4380000   0.55692806   -6.6287724    1172.2547  0.022303171  0.021176081          313 
 4381000   0.55002698   -6.6433519    1172.9806  0.022311889  0.021169556          447 
 4382000   0.56512164   -6.6343798      1172.38  0.022295375  0.021163031          415 
 4383000    0.5435506   -6.6405074    1170.1304  0.022247518    0.0211565          405 
 4384000   0.54263585    -6.633976    1170.8989  0.022257051  0.021149969          398 
 4385000   0.56080133   -6.6103245    1169.4633  0.022224692  0.021143439          206 
 4386000   0.55503912   -6.6326136    1172.8716  0.022284383  0.021136917          297 
 4387000   0.54687414   -6.6342603    1170.9583  0.022242959  0.021130389          228 
 4388000   0.55550256     -6.64265     1168.899  0.022198781  0.021123865          371 
 4389000   0.55708175   -6.6295449    1172.2526  0.022257397  0.021117343          313 
 4390000      0.56905   -6.6531522    1169.1159  0.022192784  0.021110805          428 
 4391000   0.56110703   -6.6570426    1169.9692  0.022203924  0.021104279          426 
 4392000     0.545588   -6.6424919    1170.9583  0.022217637   0.02109775          398 
 4393000   0.55862038   -6.6527357    1170.2555  0.022199246  0.021091228          462 
 4394000    0.5616401   -6.6575168    1170.5649  0.022200062  0.021084697          400 
 4395000   0.55115651   -6.6427814    1169.7505   0.02217957  0.021078165          421 
 4396000    0.5383533   -6.6443664    1168.2039  0.022145206  0.021071639          483 
 4397000   0.54377639   -6.6511489    1170.5726  0.022185061  0.021065105          437 
 4398000   0.53872542   -6.6599175    1169.8987  0.022167248  0.021058576          302 
 4399000   0.54433645   -6.6532692    1170.4646  0.022172929  0.021052043          342 
 4400000   0.55464536   -6.6419139    1170.2571   0.02216396  0.021045538          393 
 4401000   0.56422173   -6.6578587    1170.7979  0.022169165   0.02103903          387 
 4402000   0.54765903   -6.6498861    1170.2709  0.022154152   0.02103251          368 
 4403000   0.54801601   -6.6380509    1170.1805  0.022147409  0.021025997          381 
 4404000   0.54567057   -6.6369834    1173.2091  0.022199687  0.021019495          334 
 4405000   0.54271374    -6.622624    1172.2005  0.022175567   0.02101299          311 
 4406000   0.55224779   -6.6378685    1172.4121  0.022174537  0.021006503          280 
 4407000   0.55658824   -6.6524406    1171.3179  0.022148815  0.020999999          324 
 4408000   0.56119348   -6.6401648    1171.2732  0.022142945  0.020993496          324 
 4409000   0.55088959   -6.6468279    1172.3995   0.02215921  0.020986997          378 
 4410000    0.5492743   -6.6370749     1171.856  0.022143915  0.020980502          286 
 4411000   0.54244561    -6.646735    1171.1686   0.02212591  0.020974008          268 
 4412000   0.54319347   -6.6437537     1171.736  0.022131611  0.020967526          420 
 4413000    0.5300224    -6.657293    1170.1364   0.02209639  0.020961035          302 
 4414000   0.54681752   -6.6462515    1171.0667  0.022108948  0.020954536          450 
 4415000   0.54518942   -6.6513612    1170.1296  0.022086251  0.020948036          255 
 4416000   0.54984785   -6.6493025    1171.7767  0.022112331  0.020941551          296 
 4417000   0.54779787   -6.6479052    1169.5038  0.022064445  0.020935061          353 
 4418000   0.54254804   -6.6565092    1169.6868  0.022062902  0.020928551          465 
 4419000   0.54690606   -6.6458743     1170.552  0.022074224  0.020922071          417 
 4420000   0.55809205   -6.6589737    1169.3944  0.022047406  0.020915592          583 
 4421000   0.55460956    -6.658598    1168.1972  0.022019853  0.020909103          405 
 4422000   0.53698639   -6.6464927    1170.5254  0.022058748  0.020902612          449 
 4423000   0.53240952   -6.6541926    1170.7846  0.022058644  0.020896127          463 
 4424000   0.54076812   -6.6537714     1169.587  0.022031099  0.020889643          512 
 4425000   0.54279705    -6.651077    1171.1938   0.02205638  0.020883156          480 
 4426000   0.55537853   -6.6561853    1170.3995  0.022036443  0.020876687          498 
 4427000   0.54501007   -6.6592709    1171.9303   0.02206028  0.020870222          568 
 4428000   0.54852174   -6.6458052     1170.974    0.0220373  0.020863763          483 
 4429000   0.54099347   -6.6582944    1170.1907  0.022017588  0.020857301          456 
 4430000   0.54195001   -6.6364655    1170.1897  0.022012598  0.020850834          371 
 4431000   0.53739521   -6.6637188    1170.6301  0.022015913  0.020844381          435 
 4432000   0.53600369   -6.6575608    1168.9908  0.021980122  0.020837913          440 
 4433000   0.54052954    -6.644927    1170.8132  0.022009422  0.020831439          387 
 4434000   0.54222215    -6.672391    1168.5271  0.021961492  0.020824972          412 
 4435000   0.55710627   -6.6682034    1168.3388  0.021953003  0.020818492          468 
 4436000   0.53893672   -6.6755274    1167.4495  0.021931348  0.020812031          361 
 4437000    0.5532673     -6.65042    1168.5308  0.021946713  0.020805569          389 
 4438000   0.54657966   -6.6514138    1170.1657  0.021972466  0.020799106          469 
 4439000   0.55225677   -6.6503752    1169.1365  0.021948196   0.02079266          518 
 4440000   0.54845582   -6.6747751    1169.0017  0.021940723    0.0207862          476 
 4441000   0.55247698    -6.679198    1167.6671  0.021910738   0.02077974          532 
 4442000   0.53822127    -6.658499    1169.5313   0.02194078  0.020773285          390 
 4443000   0.54217045   -6.6498459    1171.4269  0.021971394  0.020766844          370 
 4444000    0.5400679   -6.6640304    1169.0309  0.021921522  0.020760407          412 
 4445000   0.53891772   -6.6368973    1169.1781  0.021919349   0.02075396          342 
 4446000   0.53356981   -6.6844811    1170.2912  0.021935283  0.020747501          494 
 4447000    0.5535291   -6.6799098     1170.855  0.021940916  0.020741054          503 
 4448000   0.54761853    -6.647856    1169.8138  0.021916475  0.020734607          477 
 4449000   0.53929831   -6.6638457    1170.0969  0.021916851  0.020728175          490 
 4450000   0.53870861   -6.6631015    1171.0851  0.021930433  0.020721732          449 
 4451000   0.53221075    -6.663323     1167.218  0.021853104  0.020715287          529 
 4452000   0.55147621     -6.66799    1169.4111  0.021889247  0.020708851          462 
 4453000    0.5432328   -6.6691584    1169.2756  0.021881795  0.020702415          441 
 4454000   0.54878103   -6.6502179    1169.9081  0.021888716  0.020695974          472 
 4455000   0.53492085   -6.6687872    1169.9059  0.021883761   0.02068954          384 
 4456000   0.53388761   -6.6700424    1169.2166  0.021865959  0.020683097          514 
 4457000   0.53355418   -6.6744901    1167.9846   0.02183802  0.020676667          606 
 4458000    0.5341119   -6.6890547    1167.3056  0.021820428   0.02067023          549 
 4459000    0.5480745   -6.6755056    1169.3412  0.021853577   0.02066379          698 
 4460000   0.54703629   -6.6568851    1168.7311  0.021837277  0.020657356          586 
 4461000   0.52541422   -6.6780325    1169.1187  0.021839623  0.020650934          625 
 4462000   0.53926946   -6.6763084    1169.5243  0.021842304  0.020644517          559 
 4463000   0.53058278   -6.6768335    1169.5388   0.02183768  0.020638098          538 
 4464000   0.53263318   -6.6729717    1168.8927  0.021820727  0.020631685          513 
 4465000   0.53700633   -6.6840899    1169.4819  0.021826836  0.020625271          593 
 4466000   0.55671498   -6.6626276    1168.9597  0.021812204  0.020618855          509 
 4467000    0.5404584   -6.6482658    1171.9545  0.021863192  0.020612446          617 
 4468000   0.53145591   -6.6935092    1167.3126  0.021771721  0.020606029          719 
 4469000   0.55066048   -6.6768358    1166.6765  0.021754989  0.020599603          630 
 4470000   0.52417784   -6.6726817    1165.1574  0.021721801  0.020593185          618 
 4471000   0.53923522    -6.665068    1166.7769  0.021747128  0.020586769          584 
 4472000   0.53741819   -6.6500574    1170.5382  0.021812354  0.020580361          622 
 4473000   0.52584418   -6.6626141     1169.344  0.021785229  0.020573969          629 
 4474000   0.53368645    -6.679431    1167.4425  0.021744944  0.020567574          556 
 4475000   0.54133908   -6.6747392    1167.5852  0.021742742  0.020561176          493 
 4476000   0.53007225   -6.6808752    1167.7824  0.021741555  0.020554784          510 
 4477000   0.52824996   -6.6652775    1167.7586  0.021736255  0.020548394          589 
 4478000   0.54340178   -6.6609906    1169.2494  0.021759145  0.020542012          488 
 4479000   0.54664607   -6.6604582    1168.2383  0.021735474  0.020535635          431 
 4480000    0.5309145   -6.6657945    1169.7695  0.021759106  0.020529257          525 
 4481000   0.54566625   -6.6695109    1169.9875  0.021758304  0.020522871          516 
 4482000   0.54455679   -6.6526643    1168.3615  0.021723217  0.020516504          640 
 4483000   0.54228079    -6.668213    1168.9348  0.021729028  0.020510126          603 
 4484000   0.53135644   -6.6756322    1167.7035  0.021701299  0.020503748          552 
 4485000   0.53646973   -6.6835559    1166.6208  0.021676343  0.020497366          580 
 4486000   0.54711989   -6.6564245    1172.6335  0.021783205  0.020490992          636 
 4487000   0.53505343   -6.6628403    1168.5063    0.0217017  0.020484618          597 
 4488000    0.5375255   -6.6617622    1166.4426  0.021658544  0.020478234          589 
 4489000   0.53857815   -6.6981918    1166.0448  0.021646336  0.020471857          588 
 4490000   0.53333766   -6.6811692    1167.6409  0.021671137  0.020465484          700 
 4491000   0.52127781   -6.6777138    1166.8488  0.021651615  0.020459107          682 
 4492000   0.53539021   -6.6802476    1168.3072   0.02167385  0.020452726          672 
 4493000   0.53453708   -6.6778083    1170.4495  0.021708759  0.020446348          593 
 4494000   0.53466225   -6.6690808    1166.9453   0.02163895  0.020439981          674 
 4495000   0.53676778   -6.6856403    1168.5363  0.021663632  0.020433617          701 
 4496000   0.52218213   -6.6794093    1169.4669  0.021676062  0.020427245          625 
 4497000   0.53041934   -6.6976033     1168.765  0.021658235   0.02042089          669 
 4498000    0.5331946   -6.6858579    1167.1091  0.021622742  0.020414538          684 
 4499000   0.52528826   -6.6742527     1168.271  0.021639457  0.020408179          769 
 4500000   0.54310496   -6.6803847    1169.5015  0.021657436  0.020401827          621 
 4501000   0.52090651   -6.6829599    1166.9307  0.021605027  0.020395465          680 
 4502000   0.54356549   -6.6994883    1166.4226  0.021590822    0.0203891          620 
 4503000   0.51911986   -6.6965779    1167.4437  0.021604924  0.020382744          721 
 4504000   0.52835631    -6.677571    1168.7152  0.021623652  0.020376398          588 
 4505000   0.52671248   -6.6790373    1169.2366  0.021628498  0.020370063          689 
 4506000    0.5334626   -6.6756707    1169.6098    0.0216306  0.020363727          695 
 4507000   0.53488612   -6.6911387    1169.0635    0.0216157  0.020357397          589 
 4508000   0.53321946   -6.6779828    1168.3396  0.021597524  0.020351062          585 
 4509000   0.53083864   -6.6796852    1168.7863  0.021600988   0.02034472          619 
 4510000   0.52425908   -6.6752954    1166.2142  0.021548673  0.020338383          545 
 4511000    0.5348244   -6.6947401    1168.3843  0.021583985  0.020332046          686 
 4512000   0.52534173   -6.6983714    1167.5227  0.021563288  0.020325689          745 
 4513000   0.53876004   -6.6899515    1167.2449  0.021553382  0.020319332          704 
 4514000   0.53979432    -6.693133    1167.2608  0.021548899  0.020312986          748 
 4515000   0.53069092   -6.6875839    1165.0182  0.021502735  0.020306644          713 
 4516000   0.53360039   -6.7147114    1166.6352  0.021527813  0.020300305          747 
 4517000   0.52712745   -6.6856057    1167.2631  0.021534631  0.020293967          756 
 4518000   0.52632554   -6.6968256    1166.4484  0.021514836  0.020287632          809 
 4519000   0.54200792   -6.6898577    1165.8955  0.021499879  0.020281295          575 
 4520000   0.53034556   -6.7172814    1168.4968  0.021543082   0.02027496          797 
 4521000   0.51791907     -6.69548     1168.716  0.021542358  0.020268627          811 
 4522000   0.53160844   -6.6770818    1168.0593  0.021525491  0.020262307          832 
 4523000   0.51537169   -6.6915609    1167.7534  0.021515097  0.020255991          865 
 4524000   0.52399539   -6.7093446    1165.7845  0.021474073  0.020249685          897 
 4525000   0.52975846   -6.6984692    1165.3571  0.021461456  0.020243358          997 
 4526000   0.53132747   -6.7126282    1164.1046  0.021433654  0.020237031          928 
 4527000   0.53510474   -6.6994783    1166.8929  0.021480247  0.020230713          873 
 4528000   0.52822951   -6.6916315    1166.9209  0.021476017  0.020224404          876 
 4529000   0.52939994   -6.7028514    1167.2537    0.0214774  0.020218103          851 
 4530000   0.53460845   -6.6871715    1165.7718  0.021445398  0.020211791          793 
 4531000   0.53067868   -6.7050641    1164.7994  0.021422781  0.020205479          844 
 4532000   0.52412286    -6.695377     1168.424  0.021484702   0.02019917          756 
 4533000   0.53217504   -6.6963429    1167.9751  0.021471708  0.020192862          890 
 4534000   0.52019806   -6.6799369    1167.6043  0.021460158  0.020186557          901 
 4535000   0.52703233   -6.6866797    1167.3407  0.021450582  0.020180267          891 
 4536000   0.52679955   -6.7068019    1167.3918  0.021446792  0.020173962          875 
 4537000   0.53802371   -6.6967773    1164.8677  0.021395704  0.020167676          928 
 4538000   0.52640981   -6.6985516       1167.1  0.021431982   0.02016138          988 
 4539000   0.51666435   -6.7206978    1164.9302  0.021387423   0.02015509          961 
 4540000   0.51825945   -6.6961188    1166.5307  0.021412091  0.020148785         1009 
 4541000   0.52502731   -6.7175596    1164.2195  0.021364961  0.020142501          988 
 4542000   0.52482721   -6.7163645    1166.6032  0.021403992  0.020136208          931 
 4543000   0.52813413   -6.7108538    1167.1557  0.021409415  0.020129916          955 
 4544000   0.52295204   -6.6928868    1165.1635  0.021368169  0.020123634         1017 
 4545000   0.52111746   -6.7078486    1166.7439  0.021392445  0.020117348          892 
 4546000   0.51773962   -6.6932843    1166.3799  0.021381065  0.020111067          762 
 4547000   0.51555439   -6.6911291    1165.9043  0.021367647  0.020104797          944 
 4548000   0.53076279    -6.721317     1165.234  0.021350668  0.020098516          958 
 4549000    0.5143316    -6.697856    1165.5328  0.021351448  0.020092242          901 
 4550000   0.53048846   -6.7024227    1168.7638  0.021405931  0.020085964          934 
 4551000   0.52047459   -6.7153258     1167.337  0.021375101  0.020079696          926 
 4552000    0.5231635     -6.72268    1164.3861  0.021316383  0.020073427          965 
 4553000   0.51336088   -6.7088128    1167.4812  0.021368351  0.020067152          953 
 4554000    0.5190225   -6.6948801    1166.6204  0.021347906  0.020060879          953 
 4555000   0.52371586   -6.6998844    1166.6769  0.021344253  0.020054601         1008 
 4556000   0.51931556   -6.7089544    1164.9629  0.021308218  0.020048331          954 
 4557000   0.53395583   -6.7134246    1166.0079  0.021322651  0.020042067          961 
 4558000   0.52261847   -6.7278475     1164.929  0.021298249  0.020035793          940 
 4559000   0.52410343   -6.7120652    1166.7061   0.02132606  0.020029527         1013 
 4560000   0.51547018   -6.7070061    1162.8807  0.021251474  0.020023268         1033 
 4561000   0.52893502     -6.70303    1167.6097  0.021333217  0.020017009          819 
 4562000   0.52901739   -6.7147046    1165.9281  0.021297824  0.020010758         1077 
 4563000    0.5035655   -6.7121498    1164.4404  0.021265987  0.020004492         1083 
 4564000    0.5198363   -6.7082647    1167.9486  0.021325384  0.019998235          958 
 4565000    0.5164799   -6.7303797     1167.599   0.02131433  0.019991993          897 
 4566000   0.51672793    -6.713597    1165.9628    0.0212798  0.019985751          942 
 4567000   0.53199426   -6.7232216    1165.2711   0.02126252  0.019979506          971 
 4568000   0.51620388   -6.7012045    1165.9076  0.021269477   0.01997326          947 
 4569000   0.51664723   -6.7274009     1165.001  0.021248286  0.019967014          933 
 4570000    0.5224701   -6.7041722    1166.9681  0.021279506   0.01996078          931 
 4571000   0.51408341   -6.7059591    1166.8912  0.021273448  0.019954549          940 
 4572000    0.5064065   -6.7070368     1165.402  0.021241651  0.019948308          838 
 4573000   0.52155759   -6.7151649    1164.7796  0.021225666  0.019942079          957 
 4574000   0.51455373   -6.6918428    1168.2208   0.02128372  0.019935861          854 
 4575000   0.51974178   -6.7145708    1166.3437  0.021244877  0.019929656          873 
 4576000   0.52704713    -6.706246    1164.6435  0.021209272  0.019923435          928 
 4577000   0.51670205   -6.7059198    1166.1616  0.021232278  0.019917214         1001 
 4578000   0.52828152   -6.7258071    1164.7106  0.021201226  0.019910989          874 
 4579000   0.51544776    -6.736288    1162.2022  0.021150946  0.019904758         1069 
 4580000   0.51520918   -6.7135581    1164.8123   0.02119382  0.019898545         1019 
 4581000   0.51128473   -6.7230423    1164.8812  0.021190446  0.019892331          888 
 4582000   0.51258503   -6.7285973    1167.1732  0.021227505  0.019886124         1000 
 4583000   0.52323023   -6.7035167    1166.6184  0.021212786  0.019879913          992 
 4584000   0.52777201   -6.7426462    1165.3332  0.021184794  0.019873699         1045 
 4585000   0.51819322   -6.7212354    1163.0545  0.021138758  0.019867485          907 
 4586000   0.50832919    -6.720543     1163.626  0.021144534  0.019861274         1048 
 4587000   0.51477388   -6.7266549    1165.1572  0.021167742  0.019855053         1066 
 4588000   0.51743077   -6.7165179     1165.445  0.021168356  0.019848846         1085 
 4589000   0.52428744   -6.7295299    1164.4347  0.021145397  0.019842643          993 
 4590000    0.5192728   -6.7105428    1164.6548  0.021144787  0.019836438         1030 
 4591000   0.51429292   -6.7369699    1168.8315  0.021215994  0.019830239          862 
 4592000   0.51462599   -6.7174844    1163.7711  0.021119539  0.019824037         1013 
 4593000   0.50799029   -6.7196294    1164.9884  0.021137026  0.019817846         1011 
 4594000   0.50209942   -6.7115997     1167.869   0.02118468  0.019811663         1023 
 4595000    0.5114267   -6.7182392    1165.3356  0.021134124  0.019805478         1029 
 4596000    0.5129903   -6.7307753    1163.9327  0.021104089  0.019799295         1032 
 4597000   0.52705351   -6.7203885    1165.6679  0.021130953   0.01979311         1070 
 4598000   0.50853111   -6.7288331    1166.2611  0.021137108  0.019786933         1120 
 4599000   0.52350458    -6.715391    1166.9495  0.021144986  0.019780754         1071 
 4600000   0.51638324   -6.7139269    1166.7457  0.021136697  0.019774584         1135 
 4601000   0.51103259   -6.7225416    1166.5082  0.021127801  0.019768414         1058 
 4602000    0.5128578   -6.7323237    1166.3246  0.021119886  0.019762246         1090 
 4603000   0.50431099   -6.7141575    1165.2178  0.021095259  0.019756086         1039 
 4604000   0.53818725   -6.7273898    1165.1373  0.021089221  0.019749924         1180 
 4605000    0.5188052   -6.7284347    1165.7813  0.021096295  0.019743759         1056 
 4606000   0.51499859   -6.7421053     1163.681  0.021053716  0.019737596         1054 
 4607000   0.51639179   -6.7378813    1164.5637  0.021065113  0.019731424         1146 
 4608000    0.4960619   -6.7478557    1163.9483  0.021049413   0.01972526         1102 
 4609000   0.52071989   -6.7273194    1164.4561  0.021054027  0.019719097          995 
 4610000   0.50852435   -6.7382272     1164.714  0.021054122  0.019712933         1123 
 4611000    0.5075546   -6.7399189    1166.0222  0.021073198   0.01970677         1082 
 4612000    0.5092362   -6.7509163    1163.5982  0.021024831  0.019700609         1049 
 4613000   0.51648894   -6.7440104    1162.0596  0.020992478  0.019694452         1150 
 4614000     0.522798   -6.7298876    1164.5925  0.021033674  0.019688295         1139 
 4615000   0.50784746   -6.7346276    1163.3637  0.021006929  0.019682146         1170 
 4616000   0.51511851   -6.7469179    1164.0495  0.021014758  0.019675984         1227 
 4617000   0.52605629   -6.7527144    1162.7894  0.020987464  0.019669819         1259 
 4618000   0.52005714   -6.7479696    1162.9298  0.020985452  0.019663665         1248 
 4619000   0.50658682   -6.7313735    1164.4298   0.02100797  0.019657514         1221 
 4620000   0.50582977    -6.738808    1163.9589   0.02099493   0.01965136         1156 
 4621000   0.51111258   -6.7609595    1163.7005  0.020985726  0.019645206         1291 
 4622000   0.50804292   -6.7449476    1160.3462  0.020920709  0.019639045         1187 
 4623000   0.52972019   -6.7487918    1163.9744  0.020981585  0.019632893         1192 
 4624000   0.50871831    -6.743269    1163.5629  0.020969631  0.019626736         1277 
 4625000   0.51895271   -6.7596805    1164.1561  0.020975786  0.019620581         1193 
 4626000   0.52325479   -6.7516042    1162.7964  0.020946757  0.019614434         1294 
 4627000   0.52087555    -6.750652    1163.0853  0.020947434  0.019608294         1187 
 4628000   0.51931726   -6.7505655    1164.1271  0.020961667  0.019602154         1088 
 4629000    0.5147328   -6.7354787    1163.4603  0.020945134  0.019596013         1234 
 4630000   0.50454583   -6.7487731    1165.6975  0.020980876  0.019589875         1050 
 4631000   0.51987822    -6.736644    1162.9896  0.020927618  0.019583743         1128 
 4632000    0.5039543   -6.7465054    1162.7269  0.020918374  0.019577614         1104 
 4633000   0.51816168      -6.7623    1163.1838  0.020922077  0.019571487         1069 
 4634000   0.51392632   -6.7438923      1162.55  0.020906165  0.019565362         1179 
 4635000   0.50557156   -6.7437082    1163.0336  0.020910348  0.019559234         1041 
 4636000    0.5084357   -6.7461225    1162.7332  0.020900439  0.019553116         1185 
 4637000   0.51045639   -6.7676647    1163.0035  0.020900789  0.019546992         1216 
 4638000   0.51083428   -6.7369219    1163.6333  0.020907598  0.019540863         1208 
 4639000   0.51144254   -6.7444564    1162.4199  0.020881294  0.019534742         1189 
 4640000   0.50345842   -6.7684857    1162.0907  0.020870883  0.019528606         1246 
 4641000   0.50559416   -6.7671577    1165.3814  0.020925473  0.019522489         1229 
 4642000   0.51481415   -6.7573871    1163.3571  0.020884625   0.01951636         1302 
 4643000   0.50995747   -6.7548189    1161.8731  0.020853491  0.019510237         1210 
 4644000   0.50801943   -6.7431902    1163.6269  0.020880471  0.019504132         1249 
 4645000   0.51204489   -6.7371663    1163.0313  0.020865291   0.01949802         1178 
 4646000   0.51301162   -6.7435928    1163.0721  0.020861532  0.019491909         1157 
 4647000   0.50844086   -6.7429636    1163.5021  0.020864753  0.019485795         1145 
 4648000   0.51670707   -6.7432054    1164.4227  0.020876769  0.019479694         1149 
 4649000   0.50793873   -6.7326775    1162.4684  0.020837248  0.019473591         1136 
 4650000    0.5174806   -6.7487182    1164.2753  0.020865149  0.019467503         1172 
 4651000   0.50606237   -6.7538839    1164.3551  0.020862092   0.01946141         1179 
 4652000   0.51099821    -6.737512    1165.3648  0.020875695  0.019455328         1141 
 4653000   0.51534577   -6.7381671    1164.0556  0.020847761  0.019449241         1156 
 4654000   0.50286245   -6.7545175    1164.1856  0.020845609  0.019443166         1357 
 4655000   0.50918204    -6.732176    1163.4944  0.020828758  0.019437084         1135 
 4656000   0.50972264   -6.7515141    1164.7701  0.020847117  0.019430995         1160 
 4657000   0.50473539   -6.7523389    1162.9297  0.020809707  0.019424908         1183 
 4658000   0.52089731    -6.753325    1161.5999   0.02078145  0.019418822         1255 
 4659000   0.48839491   -6.7488729    1161.0374  0.020766928  0.019412731         1264 
 4660000   0.50647748   -6.7433476     1163.156  0.020800358  0.019406638         1354 
 4661000   0.50748764   -6.7526182    1162.0399  0.020775941  0.019400548         1219 
 4662000   0.50798215   -6.7774964    1162.6907  0.020783116  0.019394456         1345 
 4663000   0.50638155   -6.7330678    1162.7795  0.020780247  0.019388373         1207 
 4664000   0.52439586   -6.7425541    1163.0373  0.020780398  0.019382294         1221 
 4665000   0.51085458   -6.7491734    1162.3729  0.020764075   0.01937621         1355 
 4666000    0.5094437   -6.7649773    1162.2725  0.020757832  0.019370123         1251 
 4667000   0.50690383   -6.7645024    1160.1596  0.020715656  0.019364033         1239 
 4668000   0.50037157    -6.766991     1161.895  0.020742199  0.019357952         1283 
 4669000   0.50267854   -6.7712781    1163.6032  0.020768245  0.019351872         1356 
 4670000   0.49735132   -6.7573563    1162.2797  0.020740179  0.019345803         1288 
 4671000    0.5062232   -6.7435603     1161.654  0.020724577  0.019339727         1310 
 4672000   0.49739496    -6.756032    1162.2361  0.020730524  0.019333658         1239 
 4673000   0.51149641   -6.7635796    1161.5915  0.020714593  0.019327591         1293 
 4674000    0.5078843   -6.7643111    1163.9344  0.020751932  0.019321522         1275 
 4675000   0.50563971   -6.7450219    1161.6005  0.020705891  0.019315457         1257 
 4676000   0.50965888   -6.7888623     1160.462  0.020681173  0.019309399         1303 
 4677000   0.50107055   -6.7718159     1161.206  0.020690008  0.019303322         1229 
 4678000   0.51299573   -6.7808254    1162.4502  0.020707749  0.019297254         1233 
 4679000   0.49985406   -6.7708991    1165.0175  0.020749048  0.019291192         1237 
 4680000   0.49959737     -6.76597    1160.7824  0.020669202  0.019285122         1317 
 4681000   0.50044453   -6.7650603    1161.9369   0.02068534  0.019279047         1343 
 4682000   0.50415984   -6.7520881     1163.309  0.020705344  0.019272982         1214 
 4683000    0.4925843   -6.7576686     1159.912  0.020640472  0.019266919         1236 
 4684000   0.50517885   -6.7838684    1161.2686  0.020660202  0.019260857         1289 
 4685000   0.49658626   -6.7794932      1163.12  0.020688722  0.019254793         1334 
 4686000   0.49874415   -6.7662829     1161.316  0.020652227  0.019248738         1295 
 4687000   0.50141268   -6.7818106    1161.5389  0.020651783  0.019242681         1284 
 4688000   0.49731394   -6.7803935    1161.4285  0.020645415  0.019236644         1220 
 4689000   0.51294037   -6.7773646    1160.6434   0.02062706  0.019230603         1339 
 4690000    0.5085558   -6.7700358    1161.5069  0.020638004  0.019224555         1314 
 4691000   0.50036374   -6.7747012    1162.4309  0.020650019  0.019218508         1277 
 4692000   0.49628384   -6.7748443     1162.101  0.020639759  0.019212462         1270 
 4693000    0.5109773   -6.8083794     1159.787  0.020594272  0.019206411         1381 
 4694000   0.49670532   -6.7722559    1160.2632  0.020598339  0.019200361         1368 
 4695000   0.50452392   -6.7693655     1162.209  0.020628488  0.019194319         1439 
 4696000   0.49989647   -6.7946367    1161.7514  0.020615974  0.019188278         1393 
 4697000    0.4949967   -6.7915995    1160.5752  0.020590718  0.019182242         1454 
 4698000    0.5032237   -6.7798944    1162.9775  0.020628947  0.019176204         1423 
 4699000   0.50232217   -6.7734628     1162.182   0.02061045  0.019170174         1468 
 4700000   0.48456542   -6.7910349    1162.5368  0.020612354  0.019164143         1511 
 4701000   0.50213742   -6.8058369    1161.2163  0.020584562  0.019158113         1512 
 4702000    0.4895532   -6.7824866    1158.3444  0.020529285  0.019152076         1472 
 4703000   0.50431738   -6.7726002    1161.4609  0.020580142  0.019146046         1470 
 4704000   0.50496887   -6.7850115    1162.5831  0.020595648  0.019140026         1477 
 4705000   0.49344394   -6.7628109    1161.2576  0.020567792  0.019134004         1453 
 4706000   0.50751179   -6.7821803     1159.407  0.020530653  0.019127983         1497 
 4707000   0.49247281   -6.8030944    1160.3585  0.020543137  0.019121967         1490 
 4708000   0.48926531     -6.78514    1160.4616  0.020540597  0.019115953         1509 
 4709000   0.51227768   -6.7742695    1160.0081  0.020528209  0.019109946         1402 
 4710000   0.48586015   -6.7975342    1159.4475  0.020513934  0.019103936         1570 
 4711000    0.4982379   -6.7862913    1161.1162  0.020539097  0.019097927         1514 
 4712000   0.49042219   -6.7897773    1159.8371  0.020512117  0.019091915         1415 
 4713000   0.50562941   -6.7953985    1162.4571   0.02055409  0.019085911         1473 
 4714000   0.49540281   -6.7904256    1160.9211  0.020522577  0.019079907         1481 
 4715000   0.49801092   -6.7748645    1159.7138  0.020496886  0.019073904         1536 
 4716000   0.50134309   -6.7743597    1158.7538  0.020475576  0.019067906         1608 
 4717000   0.49388344   -6.7801019    1160.5431  0.020502846  0.019061906         1552 
 4718000   0.50044394   -6.7964829    1161.7846  0.020520429  0.019055908         1563 
 4719000     0.494661   -6.7961931    1159.4552  0.020474945  0.019049909         1506 
 4720000   0.49967876   -6.7964943    1162.1591  0.020518345  0.019043919         1478 
 4721000   0.50117124   -6.7955731    1161.3862  0.020500357  0.019037919         1455 
 4722000   0.49999767   -6.7848541    1160.6844   0.02048363  0.019031925         1526 
 4723000   0.49476002   -6.7916464    1159.8193   0.02046403  0.019025929         1612 
 4724000   0.48974181   -6.7892956    1160.9219  0.020479147  0.019019947         1563 
 4725000   0.50079474   -6.8089854    1159.9984  0.020458526  0.019013962         1665 
 4726000   0.49821408   -6.8006656    1159.7299  0.020449462  0.019007977         1643 
 4727000   0.49428108    -6.792425    1160.7728  0.020463521  0.019001996         1622 
 4728000     0.494487   -6.7913272    1162.2632  0.020485463   0.01899601         1581 
 4729000   0.49696762   -6.7987454    1159.9553  0.020440462  0.018990026         1576 
 4730000   0.50188072   -6.8041281    1160.6587  0.020448533  0.018984039         1622 
 4731000   0.49808188   -6.7937533    1159.8813  0.020430517  0.018978067         1543 
 4732000   0.50132174    -6.806927    1161.8961  0.020461681  0.018972098         1480 
 4733000   0.48968328   -6.8038744    1158.7474  0.020401919   0.01896613         1581 
 4734000   0.48550942   -6.7977373    1158.9358  0.020400925  0.018960165         1571 
 4735000   0.48578953   -6.8073915    1159.4589  0.020405824  0.018954204         1497 
 4736000   0.50415741     -6.80734    1158.7975  0.020389877  0.018948238         1707 
 4737000   0.49187063   -6.7939637    1160.4731  0.020415051  0.018942281         1675 
 4738000   0.49299658   -6.7849795    1158.1248  0.020369439  0.018936329         1685 
 4739000    0.4940196   -6.7824411    1160.6893  0.020410235  0.018930373         1652 
 4740000   0.48891511   -6.8130408    1159.4973  0.020384974  0.018924416         1651 
 4741000   0.49853173   -6.7880328    1160.1639   0.02039239  0.018918463         1478 
 4742000   0.47587775    -6.787742    1160.3996  0.020392232  0.018912515         1541 
 4743000   0.49733254   -6.8046144    1159.5185  0.020372453  0.018906568         1595 
 4744000   0.50046113   -6.7870215    1163.3536  0.020435526  0.018900622         1598 
 4745000   0.49799061    -6.811845    1159.2982  0.020359997  0.018894687         1548 
 4746000   0.48796744   -6.8026226    1159.0895  0.020352042  0.018888738         1601 
 4747000   0.49886745   -6.8060265    1159.5398   0.02035566  0.018882794         1753 
 4748000   0.49300038   -6.7914549    1157.8141  0.020321085  0.018876856         1708 
 4749000   0.49463159   -6.8010376    1160.7527   0.02036837  0.018870912         1598 
 4750000   0.49877075   -6.8047624    1157.2175  0.020302062   0.01886497         1554 
 4751000   0.49649863   -6.8075173    1159.0309  0.020329595  0.018859045         1603 
 4752000   0.50073062   -6.7986145    1159.3864  0.020331552  0.018853109         1630 
 4753000   0.49937861    -6.804231    1161.1608  0.020358384  0.018847187         1535 
 4754000   0.48243258   -6.8108111    1158.1451  0.020301239  0.018841264         1686 
 4755000    0.4914064   -6.8077748    1159.4536  0.020319901  0.018835337         1645 
 4756000   0.49776788   -6.8013657    1160.4607  0.020333276  0.018829412         1710 
 4757000   0.49175542    -6.801498    1158.7196    0.0202985  0.018823487         1624 
 4758000   0.48810711   -6.8080253    1157.0254  0.020264562  0.018817564         1644 
 4759000   0.48725768    -6.819535    1158.9637  0.020294244  0.018811644         1658 
 4760000    0.4909096   -6.8073784    1159.2422  0.020294857  0.018805735         1596 
 4761000   0.48605428    -6.808681    1161.5701   0.02033134  0.018799822         1649 
 4762000   0.49036185   -6.8164919    1158.9238  0.020280761  0.018793917         1651 
 4763000   0.49536325   -6.7999808     1159.421  0.020285202  0.018788005         1651 
 4764000   0.48759975   -6.8154258    1157.5864  0.020248852  0.018782096         1701 
 4765000   0.48698691   -6.7908937    1159.8712  0.020284561  0.018776195         1647 
 4766000   0.48455038   -6.8065638    1160.5758  0.020292625    0.0187703         1668 
 4767000    0.5024852   -6.8033501    1158.3454  0.020249378  0.018764403         1719 
 4768000   0.49281465   -6.8218101    1159.0079   0.02025671  0.018758505         1782 
 4769000   0.49253777    -6.817421    1159.6865   0.02026432  0.018752616         1612 
 4770000   0.48429931    -6.822419    1160.9302    0.0202818  0.018746721         1649 
 4771000   0.49470851   -6.8033666    1157.3972  0.020215838  0.018740829         1715 
 4772000   0.48159364   -6.8086031    1159.0897  0.020241158  0.018734936         1610 
 4773000   0.48765293   -6.8172709    1157.1913  0.020203773   0.01872905         1680 
 4774000   0.49764913   -6.8100209    1158.4357  0.020221262  0.018723164         1611 
 4775000   0.48006706   -6.8190226    1157.3775  0.020198559  0.018717285         1733 
 4776000   0.49050684   -6.8260202    1159.6134  0.020233344  0.018711401         1740 
 4777000   0.49399334    -6.809836    1158.9416  0.020217389  0.018705522         1703 
 4778000   0.47552352   -6.8142991    1160.1592  0.020234394  0.018699644         1623 
 4779000   0.47385826   -6.8012009    1156.2196  0.020161463  0.018693766         1676 
 4780000   0.49328846   -6.8385461    1157.0163  0.020171134  0.018687891         1575 
 4781000   0.49259077   -6.8254018    1157.8766  0.020181911  0.018682015         1735 
 4782000   0.48667669   -6.8130429    1158.0515  0.020180738  0.018676145         1616 
 4783000   0.47251994   -6.8203955    1158.8693  0.020190767  0.018670276         1592 
 4784000   0.47807821   -6.8100827    1157.9637  0.020170772  0.018664407         1617 
 4785000   0.47689499    -6.810398    1158.6188  0.020177965  0.018658537         1681 
 4786000   0.48834581   -6.8299986    1159.2876  0.020185395  0.018652676         1700 
 4787000   0.47729475   -6.8280309    1157.5563  0.020151039  0.018646813         1695 
 4788000    0.4919748   -6.8188933    1159.7083  0.020184286  0.018640956         1698 
 4789000   0.48253044    -6.812045    1159.0009   0.02016776    0.0186351         1672 
 4790000   0.48305893   -6.8163034    1159.4073  0.020170622  0.018629246         1681 
 4791000   0.48177353    -6.828313    1158.7442  0.020154877  0.018623397         1760 
 4792000   0.48993425   -6.8084404     1158.976  0.020154702  0.018617548         1787 
 4793000   0.47590658   -6.8159752     1158.069  0.020134728  0.018611687         1805 
 4794000   0.48980468   -6.8169359    1159.9775  0.020163703  0.018605832         1728 
 4795000   0.48784252   -6.8257304    1160.6138  0.020170557  0.018599984         1671 
 4796000   0.48625371   -6.8015752    1157.5089  0.020112401  0.018594141         1677 
 4797000    0.4830113   -6.8102411    1159.2821  0.020139012  0.018588298         1663 
 4798000     0.487452   -6.8134028    1157.9536  0.020111741  0.018582457         1687 
 4799000   0.48838319      -6.8185    1159.5387  0.020135074  0.018576615         1717 
 4800000   0.48489104   -6.8207469    1158.1489  0.020106751  0.018570778         1733 
 4801000   0.48826918   -6.8280261    1158.9034   0.02011566  0.018564943         1730 
 4802000   0.47882016   -6.8180699    1159.1783  0.020116241  0.018559106         1774 
 4803000   0.47873912   -6.8209089    1157.7148  0.020086661  0.018553283         1663 
 4804000   0.48521896    -6.806213    1158.2579  0.020091901  0.018547456         1733 
 4805000    0.4897454   -6.8122858     1157.669  0.020077506  0.018541622         1732 
 4806000   0.48492814   -6.8415858    1159.2777  0.020101223  0.018535791         1765 
 4807000   0.48228936   -6.8263743    1160.1564  0.020112274  0.018529969         1782 
 4808000   0.47766883   -6.8420469    1157.4689  0.020061511  0.018524144         1790 
 4809000   0.46876829   -6.8022744    1157.0178  0.020049522  0.018518317         1740 
 4810000   0.48419819    -6.814842    1157.8199  0.020059249  0.018512499         1774 
 4811000   0.49764879   -6.8082857     1157.941  0.020057177  0.018506681         1796 
 4812000   0.48072651   -6.8292129    1158.0479  0.020054862  0.018500863         1733 
 4813000   0.49419687   -6.8213027    1157.6952  0.020044587  0.018495044         1792 
 4814000   0.48366934   -6.8115263    1157.1173  0.020030419   0.01848922         1775 
 4815000    0.4769105   -6.8136706     1158.078  0.020042886  0.018483403         1740 
 4816000     0.484828   -6.8233517    1159.1233  0.020056812  0.018477592         1772 
 4817000   0.48142162   -6.8524489    1159.2013  0.020053998  0.018471779         1774 
 4818000   0.48321128   -6.8212466    1156.7151  0.020006834  0.018465972         1781 
 4819000   0.48228896   -6.8295609    1158.8646  0.020039852  0.018460169         1746 
 4820000   0.48589929   -6.8216877    1157.3954  0.020010295  0.018454369         1672 
 4821000   0.47311001   -6.8287803    1158.3691  0.020022975  0.018448571         1839 
 4822000   0.48021063    -6.808814    1156.8174  0.019992005  0.018442771         1789 
 4823000   0.48168129   -6.8288986    1156.9543  0.019990225  0.018436978         1675 
 4824000   0.48707256   -6.8316491    1155.6815  0.019964094  0.018431188         1768 
 4825000   0.48235941   -6.8253209    1157.1016  0.019984484  0.018425397         1703 
 4826000   0.47877503    -6.830219    1157.3266  0.019984228  0.018419605         1683 
 4827000   0.48127575   -6.8215475    1159.6923  0.020020928  0.018413816         1698 
 4828000    0.4830405   -6.8345697    1158.1546   0.01999024  0.018408029         1703 
 4829000   0.47402947   -6.8275634    1156.1053  0.019950737   0.01840224         1718 
 4830000   0.47333559    -6.835952    1156.2272   0.01994871   0.01839646         1671 
 4831000   0.47529457   -6.8355042    1157.4976  0.019966493  0.018390681         1767 
 4832000   0.47742826   -6.8263377    1157.3366  0.019959585  0.018384905         1800 
 4833000   0.48390268   -6.8379825    1156.8637  0.019947301  0.018379121         1815 
 4834000   0.48020485   -6.8317411    1159.0363  0.019980628  0.018373347         1687 
 4835000   0.48428143    -6.847173    1158.0923  0.019960226  0.018367577         1794 
 4836000   0.47602309   -6.8457404    1158.4428  0.019962138  0.018361802         1750 
 4837000   0.47865416   -6.8180579    1156.8791  0.019931071  0.018356029         1771 
 4838000   0.47149282   -6.8305343    1156.5778  0.019921762  0.018350264         1785 
 4839000   0.48523452    -6.835581    1157.8716  0.019939926  0.018344498         1812 
 4840000   0.48223039   -6.8449234    1157.3516  0.019926852  0.018338738         1818 
 4841000   0.47819681   -6.8345818    1158.4475  0.019941601  0.018332976         1820 
 4842000   0.46862693   -6.8368476    1158.6284  0.019940596  0.018327222         1754 
 4843000   0.48078133   -6.8181109    1157.2605  0.019912942  0.018321466         1678 
 4844000   0.47453869   -6.8336077    1156.7875  0.019900693  0.018315712         1769 
 4845000   0.46734455   -6.8494674    1157.2141  0.019903924  0.018309962         1756 
 4846000   0.48138397   -6.8256146    1156.1814  0.019882058  0.018304207         1696 
 4847000   0.48427303    -6.850827    1159.0072  0.019926539  0.018298463         1728 
 4848000   0.47228903   -6.8396594    1154.0106  0.019836541  0.018292708         1848 
 4849000    0.4837834   -6.8552736    1156.8709  0.019881607  0.018286962         1720 
 4850000   0.47531304   -6.8335574    1157.6388  0.019890701  0.018281215         1846 
 4851000   0.47275152    -6.847167    1155.7019  0.019853327  0.018275466         1793 
 4852000   0.47552841    -6.838824    1156.5212  0.019863307  0.018269719         1786 
 4853000   0.46908821   -6.8318879    1157.1669  0.019870302  0.018263975         1815 
 4854000   0.47851365   -6.8427014    1156.4682  0.019854213  0.018258236         1808 
 4855000    0.4786685   -6.8386325     1158.756  0.019889393    0.0182525         1805 
 4856000   0.47454656   -6.8254405    1157.1771  0.019858201  0.018246765         1768 
 4857000   0.47540703    -6.824777     1157.074  0.019852344  0.018241033         1794 
 4858000   0.46178791    -6.824108    1156.1476  0.019832366  0.018235303         1856 
 4859000   0.47307458   -6.8502015    1158.0735  0.019861314  0.018229578         1817 
 4860000    0.4844332   -6.8537705    1157.1077  0.019840666  0.018223853         1792 
 4861000   0.47497158   -6.8361954     1157.349  0.019840723  0.018218126         1828 
 4862000   0.47234888   -6.8555611    1156.4522   0.01982127  0.018212405         1778 
 4863000   0.46943696   -6.8374876    1157.7146  0.019838828  0.018206693         1780 
 4864000   0.45938086   -6.8266999    1156.8825  0.019820493  0.018200977         1760 
 4865000   0.46783496    -6.850919    1154.4469  0.019774699  0.018195263         1813 
 4866000   0.46768481   -6.8351239    1155.9807  0.019796902   0.01818955         1767 
 4867000    0.4718552   -6.8479818    1156.9628   0.01980965  0.018183839         1772 
 4868000   0.47355643   -6.8449834    1158.2523  0.019827654   0.01817813         1748 
 4869000   0.48323597     -6.84265    1156.4583  0.019792878  0.018172424         1779 
 4870000   0.47783446   -6.8423833    1155.7107  0.019776022  0.018166723         1826 
 4871000   0.47731518   -6.8473105    1155.6662  0.019771201  0.018161027         1799 
 4872000   0.48251856    -6.832826    1156.9212  0.019788608   0.01815533         1813 
 4873000   0.47236322   -6.8490995    1154.4259  0.019741875  0.018149632         1874 
 4874000   0.47102614    -6.830728    1158.4153  0.019806033  0.018143936         1834 
 4875000   0.46151344   -6.8480319    1154.7929   0.01974005  0.018138246         1777 
 4876000   0.46960327   -6.8437331    1158.0667  0.019791953  0.018132564         1805 
 4877000   0.46913314   -6.8393748    1155.6771  0.019747063  0.018126876         1820 
 4878000   0.47461076   -6.8543537    1155.9607   0.01974786  0.018121197         1780 
 4879000   0.47049828   -6.8590867    1155.9719  0.019744002  0.018115509         1872 
 4880000   0.47722216   -6.8368437    1156.0714  0.019741657   0.01810983         1828 
 4881000    0.4600613   -6.8479978    1156.4493  0.019744064  0.018104153         1881 
 4882000   0.46374542   -6.8423502    1156.1863   0.01973553  0.018098478         1784 
 4883000   0.46430004   -6.8352898    1155.5227  0.019720164  0.018092808         1808 
 4884000   0.47687958    -6.833546    1155.4122   0.01971424  0.018087137         1780 
 4885000   0.47368447    -6.835372    1155.0677  0.019704328  0.018081464         1858 
 4886000   0.47583162   -6.8584397    1156.3089  0.019721464  0.018075792         1809 
 4887000   0.46457543   -6.8592373    1156.5746  0.019721959  0.018070128         1796 
 4888000   0.46662943   -6.8375215    1157.7666  0.019738247  0.018064464         1759 
 4889000   0.46853407   -6.8346742    1156.5443  0.019713375    0.0180588         1819 
 4890000   0.47487142   -6.8403978    1155.6032  0.019693306  0.018053135         1799 
 4891000   0.47124635   -6.8509479    1157.1443  0.019715537  0.018047472         1836 
 4892000   0.47102995   -6.8665501    1157.0553  0.019709991   0.01804182         1925 
 4893000   0.47421835    -6.844742    1153.6532  0.019648022  0.018036162         1874 
 4894000   0.46781654   -6.8586047    1158.2157  0.019721694  0.018030512         1879 
 4895000   0.46076781   -6.8584132    1154.5707  0.019655613  0.018024855         1871 
 4896000   0.45988101   -6.8500786    1156.1457  0.019678406    0.0180192         1839 
 4897000   0.46964957   -6.8532996    1155.4061  0.019661801   0.01801355         1908 
 4898000   0.48498888   -6.8665777    1156.8172  0.019681796    0.0180079         1902 
 4899000    0.4730213   -6.8412253    1156.8418  0.019678197  0.018002257         1814 
 4900000   0.47711678   -6.8526172    1155.8349  0.019657056   0.01799662         1789 
 4901000   0.46702149   -6.8554744    1155.2168  0.019642536  0.017990981         1856 
 4902000   0.47006202   -6.8585277    1154.7754  0.019631024   0.01798534         1884 
 4903000   0.46948215   -6.8443612    1155.9664  0.019647264  0.017979704         1814 
 4904000   0.46331476   -6.8409433    1157.1664  0.019663649  0.017974072         1898 
 4905000   0.46412242   -6.8534858    1158.3343  0.019679481   0.01796844         1864 
 4906000   0.47238014   -6.8487749    1156.2511  0.019640086  0.017962808         1742 
 4907000   0.46859503   -6.8412979    1155.5706  0.019624527  0.017957178         1859 
 4908000   0.47286037    -6.864041     1156.227  0.019631672  0.017951549         1934 
 4909000   0.46491701   -6.8664452    1155.1817   0.01960993  0.017945915         1883 
 4910000   0.47687704     -6.86065     1155.603  0.019613086   0.01794029         1846 
 4911000   0.47435587   -6.8492077    1155.8818  0.019613822  0.017934667         1793 
 4912000   0.46673786   -6.8432424     1157.293  0.019633771  0.017929043         1807 
 4913000   0.46807157   -6.8450332    1155.7856  0.019604206  0.017923421         1828 
 4914000   0.46732681   -6.8709175    1156.4916   0.01961219  0.017917804         1888 
 4915000   0.46843188   -6.8555213    1155.8888  0.019597978  0.017912186         1919 
 4916000    0.4594573   -6.8618373    1154.4918  0.019570311  0.017906562         1848 
 4917000   0.46571371   -6.8522011    1154.8306  0.019572074  0.017900943         1909 
 4918000   0.46183136   -6.8775297    1154.2323  0.019557956  0.017895326         2009 
 4919000    0.4678319   -6.8536664    1155.3927  0.019573638  0.017889709         2050 
 4920000   0.46702422   -6.8606194     1154.095  0.019547679  0.017884091         1986 
 4921000   0.45521561   -6.8710146     1155.269  0.019563588  0.017878478         1961 
 4922000   0.45689287   -6.8652579    1155.7669  0.019568043  0.017872871         1944 
 4923000   0.46701757   -6.8668302    1155.8359  0.019565237  0.017867264         1944 
 4924000   0.46702467     -6.87456    1153.6258  0.019523859   0.01786166         1992 
 4925000   0.46413296   -6.8750277    1155.7103  0.019555166  0.017856059         2000 
 4926000   0.46822364   -6.8682546    1153.7152  0.019517444  0.017850459         2008 
 4927000    0.4604153   -6.8508807    1156.4947  0.019560494   0.01784486         1991 
 4928000   0.46300679   -6.8624918    1154.9578  0.019530537  0.017839265         2015 
 4929000   0.46368084    -6.853461     1154.581  0.019520204  0.017833674         1975 
 4930000   0.46303213   -6.8582517    1154.8348  0.019520534  0.017828083         1972 
 4931000   0.45732329   -6.8522461    1153.5375  0.019494651  0.017822486         1989 
 4932000   0.46282778    -6.864247     1155.381  0.019521848  0.017816887         1993 
 4933000   0.45299353    -6.856859    1153.9637  0.019493947  0.017811297         2012 
 4934000   0.45424539   -6.8554726    1155.5215  0.019516306  0.017805709         2013 
 4935000   0.45793808   -6.8559277    1155.2361  0.019507533  0.017800122         1933 
 4936000   0.45720339   -6.8610892    1156.0536  0.019517383   0.01779454         1964 
 4937000   0.46028876   -6.8724563    1152.8286  0.019458994  0.017788955         1993 
 4938000   0.46308197   -6.8711738    1155.5445  0.019500887  0.017783375         1862 
 4939000   0.46614311   -6.8560088    1156.4897  0.019512886  0.017777803         1958 
 4940000   0.45612217   -6.8368525    1155.5788  0.019493569  0.017772232         1901 
 4941000   0.46709784   -6.8640497    1156.4685   0.01950463  0.017766666         1969 
 4942000   0.45692013   -6.8524235    1155.3736  0.019482221  0.017761097         1972 
 4943000   0.47263482   -6.8585128    1155.2941   0.01947694  0.017755528         1952 
 4944000   0.46289412    -6.876139      1155.64  0.019478829  0.017749964         2023 
 4945000   0.46390672   -6.8486089    1155.9896  0.019480781  0.017744399         1908 
 4946000   0.46598204   -6.8623524    1153.9977  0.019443282  0.017738836         1926 
 4947000   0.45390709   -6.8617804    1155.0903  0.019457758  0.017733274         1989 
 4948000   0.45578413   -6.8637576    1155.2063  0.019455778  0.017727715         1915 
 4949000    0.4513725   -6.8664997    1154.5794  0.019441291  0.017722157         2031 
 4950000    0.4617401   -6.8664206    1154.2051  0.019431063  0.017716595         1915 
 4951000   0.46444788   -6.8803373    1156.5993  0.019467436  0.017711039         2005 
 4952000   0.45680179   -6.8723118    1155.1594  0.019439274   0.01770549         2006 
 4953000   0.46218855   -6.8471738     1154.481  0.019423935   0.01769994         2032 
 4954000   0.44895986   -6.8784747    1154.2674  0.019416422  0.017694398         1965 
 4955000   0.45758638   -6.8744909    1154.2186  0.019411682   0.01768885         1915 
 4956000   0.45409737   -6.8611473    1154.4795  0.019412152  0.017683303         1966 
 4957000   0.45388055   -6.8654674    1153.2376  0.019387358  0.017677764         1935 
 4958000   0.45801117   -6.8652805    1154.6949  0.019407942  0.017672226         1927 
 4959000   0.45925256   -6.8675955    1154.9128   0.01940769  0.017666685         1996 
 4960000   0.46732829   -6.8681798    1153.4284  0.019378838  0.017661148         2044 
 4961000   0.46557267   -6.8661112      1154.39  0.019391084  0.017655607         2007 
 4962000   0.45477929   -6.8764676     1154.784  0.019393794  0.017650071         1968 
 4963000   0.46011894   -6.8747585    1152.9357   0.01935885  0.017644538         1935 
 4964000   0.45586319   -6.8753556    1156.0629  0.019407448  0.017639004         1975 
 4965000   0.46511142   -6.8703027     1154.097  0.019370544  0.017633473         1987 
 4966000   0.47035689   -6.8642459    1152.7483  0.019344011   0.01762795         2053 
 4967000   0.45238158   -6.8849247    1152.5701  0.019337127  0.017622423         2075 
 4968000   0.45992751   -6.8709064    1154.6711  0.019368477  0.017616897         2072 
 4969000   0.44033854   -6.8855845    1154.7269  0.019365515  0.017611376         2057 
 4970000   0.46008583    -6.879776    1152.7378  0.019328266  0.017605846         2035 
 4971000   0.46046111   -6.8723083    1152.3879  0.019318513  0.017600324         2088 
 4972000   0.46213518   -6.8779015    1153.5819  0.019334639  0.017594807         2113 
 4973000   0.46411472   -6.8727578    1153.2721  0.019325559  0.017589288         2051 
 4974000   0.45286896   -6.8657045    1153.1023   0.01931883  0.017583768         2026 
 4975000   0.46323281   -6.8783593    1154.3461  0.019335781  0.017578253         2079 
 4976000   0.44890214   -6.8746552    1155.1734   0.01934575  0.017572739         2059 
 4977000   0.45879783    -6.876002    1155.8309  0.019352871   0.01756723         2062 
 4978000   0.45780361   -6.8788161    1154.5464   0.01932748  0.017561721         1966 
 4979000    0.4553464   -6.8806969    1152.8385  0.019295015  0.017556213         2069 
 4980000    0.4645946   -6.8917028    1153.7706  0.019306737  0.017550708         1985 
 4981000    0.4599838   -6.8728424    1154.6344  0.019317312    0.0175452         1996 
 4982000   0.45424271   -6.8734711    1154.7448  0.019315282  0.017539701         2081 
 4983000   0.45503666   -6.8748641    1154.4046  0.019305717  0.017534202         1998 
 4984000   0.45358687   -6.8751125    1151.5965   0.01925489  0.017528701         2077 
 4985000    0.4498957   -6.8947712    1153.7025  0.019286233  0.017523204         2092 
 4986000   0.45574448    -6.882395    1152.1925  0.019257129  0.017517715         2079 
 4987000   0.45350002   -6.8825146    1152.8944  0.019264996  0.017512219         2029 
 4988000   0.45246931   -6.8791084    1153.2961  0.019267844  0.017506732         2002 
 4989000    0.4502658   -6.8770696    1153.2205   0.01926272  0.017501249         2001 
 4990000   0.46164711    -6.877777    1154.5364  0.019280834  0.017495763         1990 
 4991000   0.45328796   -6.8820479    1153.0503  0.019252159  0.017490276         2032 
 4992000   0.45386409   -6.8808323    1153.1917  0.019250662  0.017484798         2064 
 4993000    0.4504155   -6.8760227    1153.3297  0.019249111  0.017479317         2042 
 4994000   0.44736842   -6.8857944    1153.5962  0.019249703  0.017473842         2008 
 4995000   0.44913688   -6.8780176     1154.666  0.019263697  0.017468364         1987 
 4996000   0.45076554   -6.8690745    1152.9949  0.019231967  0.017462892         2047 
 4997000    0.4555548   -6.8842945    1153.5976   0.01923817  0.017457413         2050 
 4998000   0.45115244   -6.8927762    1153.3299  0.019229856   0.01745194         2117 
 4999000   0.45468337   -6.8725055    1153.0836  0.019221904  0.017446472         2076 
 5000000   0.44848159   -6.8767946     1153.282  0.019221367  0.017441007         2055 
 5001000   0.44079854   -6.8855901    1152.4644  0.019203899  0.017435547         2029 
 5002000    0.4450624   -6.9036206    1153.1469   0.01921143  0.017430087         2068 
 5003000   0.45977422     -6.88848    1152.8047   0.01920189  0.017424624         2097 
 5004000   0.45364012   -6.8960365    1153.8446  0.019215371  0.017419166         2140 
 5005000   0.44904442    -6.894852    1152.9698  0.019196966  0.017413714         2077 
 5006000   0.44541941   -6.8858151    1153.4368  0.019200905  0.017408259         2009 
 5007000   0.45464921   -6.8788056    1154.2719   0.01921097   0.01740281         2097 
 5008000   0.44344537   -6.8816962    1151.9008  0.019167679  0.017397362         2089 
 5009000   0.45272612   -6.9054002     1153.931  0.019197628  0.017391919         2047 
 5010000   0.45290279   -6.8752949      1153.45  0.019185796  0.017386477         1990 
 5011000   0.45008616   -6.8845215    1153.9655   0.01919054  0.017381039         2037 
 5012000    0.4489717   -6.8893261    1154.0346   0.01918786  0.017375604         2069 
Loop time of 12996.3 on 48 procs for 5000000 steps with 4000 atoms

Performance: 66480.659 tau/day, 384.726 timesteps/s
99.4% CPU use with 48 MPI tasks x no OpenMP threads

MPI task timing breakdown:
Section |  min time  |  avg time  |  max time  |%varavg| %total
---------------------------------------------------------------
Pair    | 934.99     | 1016.4     | 1089.8     | 112.2 |  7.82
Neigh   | 89.278     | 92.486     | 96.703     |  17.9 |  0.71
Comm    | 828.05     | 899.97     | 980.76     | 122.4 |  6.92
Output  | 15.243     | 15.248     | 15.346     |   0.4 |  0.12
Modify  | 10813      | 10852      | 10876      |  11.8 | 83.50
Other   |            | 120        |            |       |  0.92

Nlocal:        83.3333 ave          90 max          78 min
Histogram: 3 3 7 8 6 11 5 2 1 2
Nghost:        2401.48 ave        2418 max        2384 min
Histogram: 2 4 6 3 3 12 8 3 4 3
Neighs:        16553.9 ave       18658 max       14635 min
Histogram: 6 3 8 5 4 4 5 4 5 4
FullNghs:      33108.7 ave       35664 max       30952 min
Histogram: 3 3 9 7 5 7 7 4 0 3

Total # of neighbors = 1589217
Ave neighs/atom = 397.30425
Neighbor list builds = 268064
Dangerous builds = 1

#clear
#
#next RN
#
#jump SELF
Total wall time: 3:36:40
