
units lj                  # Use reduced LJ style units
atom_style atomic         # Uncharged point particles
atom_modify map hash      # Needed for indexing of clusters etc
                          # Used to be able to find where atoms are in relation to each other.

lattice fcc 1.0 spacing 1 1 1
Lattice spacing in x,y,z = 1.5874011 1.5874011 1.5874011
region box block 0 10 0 10 0 10 units lattice
create_box 2 box
Created orthogonal box = (0.0000000 0.0000000 0.0000000) to (15.874011 15.874011 15.874011)
  3 by 4 by 4 MPI processor grid
create_atoms 1 box
Created 4000 atoms
  using lattice units in orthogonal box = (0.0000000 0.0000000 0.0000000) to (15.874011 15.874011 15.874011)
  create_atoms CPU = 0.003 seconds
set type 1 type/fraction 2 0.73 78393
Setting atom values ...
  2936 settings made for type/fraction
mass 1 1.0
mass 2 1.0
pair_style lj/cut  3.5
pair_modify tail  yes
pair_coeff 1  1  1.0  1.0   # Intearaction between 1 and 1 set with epsilon = 1 and sigma = 1
pair_coeff 1  2  1.5  0.8
pair_coeff 2  2  0.5  0.88

write_data data.0
System init for write_data ...
Neighbor list info ...
  update every 1 steps, delay 10 steps, check yes
  max neighbors/atom: 2000, page size: 100000
  master list distance cutoff = 3.8
  ghost atom cutoff = 3.8
  binsize = 1.9, bins = 9 9 9
  1 neighbor lists, perpetual/occasional/extra = 1 0 0
  (1) pair lj/cut, perpetual
      attributes: half, newton on
      pair build: half/bin/atomonly/newton
      stencil: half/bin/3d
      bin: standard
WARNING: Not all mixed pair coeffs generated from mixing. Use write_data with 'pair ij' option to store all pair coeffs. (../write_data.cpp:312)


#############################
#   M E L T   S Y S T E M   #
#############################

velocity all create 2.4 6229865 mom yes dist gaussian # Assign velocities
                                                    # Temperature 2.4, random number seed, zero linear momentum
                                                                                # Gaussian distribution

timestep 0.002   # simulation timestep
thermo 1000       # output thermodynamic data every 1000 steps bf 100

# Define a fix  in this case with index 1 applied to all
# particles in the simulation. This fix is for simulations
# in the anisotropic NPT ensemble. Note that we use the MTK
# correction.
fix 1 all npt temp 2.4 2.4 0.1 iso 5.68 5.68 0.5 mtk yes tchain 5 pchain 5 # Use NPT ensemble
                                                                         # Set temperature and pressure and damping
                                                                         # Numbers of thermostats in chain and in barostat
run 10000          # run for 10000 steps
Per MPI rank memory allocation (min/avg/max) = 3.642 | 3.644 | 3.648 Mbytes
Step Temp E_pair E_mol TotEng Press Volume 
       0          2.4   -4.0230884            0  -0.42398835   -3.6147038         4000 
    1000    2.4011489   -3.6094339            0 -0.0086109301    5.7313635    3672.8999 
    2000     2.391132   -3.6181726            0 -0.032371202    5.4801955    3693.3365 
    3000    2.4259352   -3.5609721            0  0.077020965    5.7890133    3682.4234 
    4000    2.4287496   -3.5910492            0  0.051164427    5.8673774    3660.6361 
    5000    2.4588624   -3.5861037            0   0.10126776    5.4986017    3703.8672 
    6000    2.3751143   -3.5147474            0  0.047033425     5.255851     3755.293 
    7000    2.3516399   -3.5718014            0 -0.045223414    5.5792328    3690.5664 
    8000    2.4165367    -3.583995            0  0.039903735    5.5753045    3693.4638 
    9000    2.3949705   -3.5855372            0 0.0060204399    5.6266101    3686.7607 
   10000    2.4077745   -3.5585381            0  0.052220783    5.9429533    3667.5037 
Loop time of 2.63563 on 48 procs for 10000 steps with 4000 atoms

Performance: 655630.380 tau/day, 3794.157 timesteps/s
99.6% CPU use with 48 MPI tasks x no OpenMP threads

MPI task timing breakdown:
Section |  min time  |  avg time  |  max time  |%varavg| %total
---------------------------------------------------------------
Pair    | 1.1918     | 1.2615     | 1.3537     |   3.0 | 47.86
Neigh   | 0.21783    | 0.22443    | 0.23762    |   0.8 |  8.52
Comm    | 0.78931    | 0.8874     | 0.96135    |   4.0 | 33.67
Output  | 0.00025957 | 0.00026449 | 0.00033656 |   0.0 |  0.01
Modify  | 0.21446    | 0.24607    | 0.27971    |   3.1 |  9.34
Other   |            | 0.01593    |            |       |  0.60

Nlocal:        83.3333 ave          93 max          73 min
Histogram: 1 1 3 7 11 8 8 3 3 3
Nghost:        1742.94 ave        1765 max        1721 min
Histogram: 4 2 7 2 9 7 5 8 1 3
Neighs:        10414.0 ave       11865 max        8674 min
Histogram: 1 2 3 5 8 10 7 8 2 2

Total # of neighbors = 499874
Ave neighs/atom = 124.96850
Neighbor list builds = 903
Dangerous builds = 214

# Equilibrate just above the melting temperature to avoid step fn in T

fix 1 all npt temp 1.25 1.25 0.1 iso 5.68 5.68 0.5 mtk yes tchain 5 pchain 5
run 2000
Per MPI rank memory allocation (min/avg/max) = 3.644 | 3.646 | 3.649 Mbytes
Step Temp E_pair E_mol TotEng Press Volume 
   10000    2.4077745   -3.5585381            0  0.052220783    5.9429533    3667.5037 
   11000    1.2672057   -5.3066528            0   -3.4063195    5.7445143     2806.212 
   12000    1.2514849   -5.2781299            0   -3.4013719    5.4899897    2827.5558 
Loop time of 0.655025 on 48 procs for 2000 steps with 4000 atoms

Performance: 527613.109 tau/day, 3053.317 timesteps/s
99.6% CPU use with 48 MPI tasks x no OpenMP threads

MPI task timing breakdown:
Section |  min time  |  avg time  |  max time  |%varavg| %total
---------------------------------------------------------------
Pair    | 0.29586    | 0.32582    | 0.35276    |   2.2 | 49.74
Neigh   | 0.041525   | 0.043597   | 0.046609   |   0.6 |  6.66
Comm    | 0.20661    | 0.23565    | 0.27218    |   3.0 | 35.98
Output  | 5.3153e-05 | 5.4296e-05 | 7.1187e-05 |   0.0 |  0.01
Modify  | 0.040281   | 0.044852   | 0.048916   |   1.3 |  6.85
Other   |            | 0.005056   |            |       |  0.77

Nlocal:        83.3333 ave          93 max          73 min
Histogram: 1 2 3 4 6 12 11 6 2 1
Nghost:        2079.56 ave        2111 max        2054 min
Histogram: 1 5 9 4 8 10 8 1 0 2
Neighs:        13520.4 ave       15726 max       11800 min
Histogram: 5 3 7 5 9 5 8 5 0 1

Total # of neighbors = 648979
Ave neighs/atom = 162.24475
Neighbor list builds = 141
Dangerous builds = 13

#############################
# L I N E A R  Q U E N C H  #
#############################

# Define solid atoms. This closely follows ten Wolde  Ruiz-Montero and Frenkel  Faraday Discuss  1996  104  93-110
# Compute components of the per-atom q6 vector
compute q6 all orientorder/atom degrees 1 6 components 6 nnn NULL cutoff 1.3 # compute the Q6 parameter.
                                                                             # Use all neighbours within 1.3 unit cell.

# get number of connections
compute coord_number all coord/atom orientorder q6 0.5

# An atom is solid if it has 8 or more connections (of a possible 14)
variable is_solid atom c_coord_number>=8
group solid dynamic all var is_solid    # Must be dynamic to update
dynamic group solid defined

# do clustering
compute cluster solid cluster/atom 1.3 # Create a cluster where all atoms within are solid and max 1.3 units from another member

# define chunks one chunk per cluster
compute clus_chunks solid chunk/atom c_cluster nchunk every compress yes  # Says which atoms are in which chunk

# count the size of each chunk
compute size_chunks solid property/chunk clus_chunks count


# Find the maximum entry in the vector of chunk sizes
variable max_n equal max(c_size_chunks)


# Thermo style which includes this variable
# thermo_style custom step temp pe vol v_max_n

thermo ${N}  # Print the thermo information every 100 steps
thermo 1000  

# Reset the npt fix at a lower temperature (below freezing)
fix 1  all npt temp  ${temp} ${temp}  0.1  iso  5.68  5.68  0.5  mtk yes tchain  5  pchain  5
fix 1  all npt temp  0.45 ${temp}  0.1  iso  5.68  5.68  0.5  mtk yes tchain  5  pchain  5
fix 1  all npt temp  0.45 0.45  0.1  iso  5.68  5.68  0.5  mtk yes tchain  5  pchain  5

dump dmp2 all dcd ${N} traj.dcd
dump dmp2 all dcd 1000 traj.dcd


compute msd all msd com yes
variable twopoint equal c_msd[4]/6/(step*dt+1.0e-6)
fix 9 all vector 10 c_msd[4]
variable fit equal slope(f_9)/6/(10*dt)
thermo_style custom step temp pe c_msd[4] v_twopoint v_fit v_max_n

fix 1 all npt temp 1.25 ${temp} 0.1 iso 5.68 5.68 0.5 mtk yes tchain 5 pchain 5
fix 1 all npt temp 1.25 0.45 0.1 iso 5.68 5.68 0.5 mtk yes tchain 5 pchain 5
run 2000000 # 5000000  # Run for this many steps
Neighbor list info ...
  update every 1 steps, delay 10 steps, check yes
  max neighbors/atom: 2000, page size: 100000
  master list distance cutoff = 3.8
  ghost atom cutoff = 3.8
  binsize = 1.9, bins = 8 8 8
  4 neighbor lists, perpetual/occasional/extra = 1 3 0
  (1) pair lj/cut, perpetual
      attributes: half, newton on
      pair build: half/bin/atomonly/newton
      stencil: half/bin/3d
      bin: standard
  (2) compute orientorder/atom, occasional
      attributes: full, newton on
      pair build: full/bin/atomonly
      stencil: full/bin/3d
      bin: standard
  (3) compute coord/atom, occasional
      attributes: full, newton on
      pair build: full/bin/atomonly
      stencil: full/bin/3d
      bin: standard
  (4) compute cluster/atom, occasional
      attributes: full, newton on
      pair build: full/bin/atomonly
      stencil: full/bin/3d
      bin: standard
Per MPI rank memory allocation (min/avg/max) = 9.841 | 9.847 | 9.850 Mbytes
Step Temp PotEng c_msd[4] v_twopoint v_fit v_max_n 
   12000    1.2514849   -5.2781299 2.8406881e-30   1.9727e-32 8.3333333e+20            1 
   13000    1.2493433   -5.2567959   0.65415329 0.0041932902  0.054834465            1 
   14000    1.2564266   -5.2677787    1.3567966 0.0080761697  0.056241233            3 
   15000    1.2563076   -5.2295027    2.0287602   0.01127089  0.056051572            2 
   16000    1.2299424   -5.3228827    2.6008914  0.013546309   0.05516807            2 
   17000    1.2524981    -5.317825    3.2337957  0.015851939  0.054072277            4 
   18000     1.262118   -5.3330825    3.8838528    0.0179808  0.053648037            2 
   19000    1.2496923   -5.3407592    4.4269102  0.019416272  0.053270688            2 
   20000    1.2444692    -5.311403    5.2017642  0.021674017  0.053124851            3 
   21000    1.2452324   -5.3161405    5.8084675  0.023049474   0.05326946            2 
   22000    1.2547116   -5.3035641    6.4284349  0.024350132  0.053272465            3 
   23000    1.2420612   -5.3220822    6.9983729  0.025356423  0.053131858            2 
   24000    1.2434897    -5.327433    7.6765692  0.026654754  0.053030746            2 
   25000    1.2709439   -5.3235398    8.2881179  0.027627059  0.052852966            2 
   26000    1.2626843   -5.3203401    9.0372352  0.028965497  0.052991829            1 
   27000    1.2410098    -5.338233    9.7064511  0.029958182  0.053188173            4 
   28000    1.2208201   -5.2746566    10.328371  0.030739199  0.053281816            2 
   29000    1.2533837   -5.3060784    10.886406  0.031282775  0.053289144            2 
   30000    1.2662115   -5.3388214    11.369071  0.031580751  0.053165926            1 
   31000    1.2211103    -5.259593    12.137151  0.032626749  0.053007511            2 
   32000    1.2584659   -5.2755994     12.79545  0.033321485  0.052991911            1 
   33000    1.2787892   -5.2706957    13.549484  0.034215868  0.053018536            2 
   34000    1.2608784   -5.2989639    14.123478  0.034616368  0.053130268            1 
   35000    1.2403212   -5.3049378     14.82211  0.035290738  0.053164982            3 
   36000    1.2507319   -5.3204789    15.374689  0.035589557  0.053177409            3 
   37000     1.245405    -5.333199    16.065824  0.036184288  0.053213703            5 
   38000     1.240636   -5.3369902     16.64828  0.036509385  0.053227857            2 
   39000    1.2426759   -5.3612273    17.222308  0.036799804  0.053218534            1 
   40000    1.2710901   -5.3283624    17.854142  0.037196129  0.053183772            4 
   41000    1.2241019    -5.326039    18.489894  0.037581085    0.0531653            3 
   42000    1.2367539   -5.3323473      19.2605  0.038215277  0.053163729            3 
   43000    1.2274727   -5.2654717    19.924227  0.038612842   0.05320491            3 
   44000    1.2311068   -5.3159399    20.490842  0.038808412  0.053219914            2 
   45000    1.2604661   -5.3323209    21.249949  0.039351757  0.053270123            3 
   46000    1.2418591   -5.3013777    21.954069  0.039771864  0.053327826            3 
   47000    1.2254772   -5.3287527     22.49586  0.039886276  0.053346263            3 
   48000    1.2347341   -5.3313998    23.192374  0.040264537  0.053377317            2 
   49000    1.2126075   -5.3110935    23.786713  0.040453593  0.053398489            3 
   50000    1.2289842    -5.323262    24.363965  0.040606607  0.053398888            4 
   51000     1.241067   -5.3284133    24.921088  0.040720732  0.053402358            2 
   52000    1.2252236   -5.3000053    25.774997  0.041306084  0.053422622            1 
   53000    1.2386033   -5.3417696    26.220108  0.041226584  0.053418659            3 
   54000    1.2391625   -5.3116207    27.178036  0.041941414  0.053429554            1 
   55000    1.2445342    -5.369432    27.398047  0.041512192  0.053435074            2 
   56000    1.2175599   -5.2833152    28.192293  0.041952816  0.053411343            2 
   57000    1.2105198   -5.3217338      28.9283  0.042292837  0.053413834            2 
   58000    1.2374998   -5.3708431    29.366687  0.042193515  0.053427664            4 
   59000     1.211684   -5.3378292    30.067732  0.042468548  0.053400954            1 
   60000    1.2470421   -5.3295724    30.851847  0.042849788  0.053403543            3 
   61000    1.2195275   -5.3220923    31.445257  0.042958001  0.053401424            1 
   62000    1.2436672   -5.3849267    32.091014  0.043133083  0.053412468            2 
   63000    1.2416542   -5.3083868    32.972318  0.043614177  0.053433739            2 
   64000    1.2008444   -5.3281282    33.355584   0.04343175  0.053457167            2 
   65000    1.2322519   -5.3062538    34.114984  0.043737158  0.053462403            2 
   66000     1.228854    -5.374319    34.535789  0.043605794    0.0534697            3 
   67000    1.2275993    -5.337772    35.249273  0.043842379  0.053464198            2 
   68000    1.2410055   -5.3394135    35.739086  0.043797899  0.053473168            3 
   69000    1.2518794   -5.3204505    36.414385  0.043978726  0.053444847            3 
   70000     1.220753   -5.3473724    36.970129  0.044012058  0.053402566            2 
   71000    1.2207196   -5.3352266     37.47096  0.043979999  0.053361634            3 
   72000    1.2152757   -5.3313873    38.082274  0.044076705  0.053328049            3 
   73000    1.2448467    -5.361657    38.662908  0.044135739   0.05328417            1 
   74000    1.2421328   -5.3525277    39.287725  0.044242934  0.053235755            3 
   75000    1.2255433   -5.3412332    39.613669  0.044015188  0.053173854            3 
   76000    1.2276573   -5.3138205    40.380337  0.044276685  0.053102758            1 
   77000    1.2178093   -5.3360889    40.977072   0.04434748  0.053055086            2 
   78000    1.2375821   -5.3187684    41.707971  0.044559798  0.053004175            2 
   79000    1.2252074   -5.3511304    42.151783  0.044463906  0.052951791            3 
   80000    1.2029106   -5.4003563     42.40568  0.044172583  0.052875863            2 
   81000    1.2107425    -5.357186    43.057939  0.044298291  0.052794029            3 
   82000    1.2101944   -5.3282561    43.423688  0.044129764  0.052697393            5 
   83000    1.2292993   -5.3830318    44.052602   0.04422952    0.0525911            1 
   84000    1.2537154   -5.3507093    44.761235  0.044405987  0.052498772            2 
   85000    1.2099203   -5.3487444    45.412279  0.044521842  0.052421855            2 
   86000    1.2179172   -5.3345432    45.952578  0.044527692  0.052342111            3 
   87000    1.1860959   -5.3644367    46.408794  0.044452867  0.052262321            1 
   88000    1.1957902    -5.307688    47.276793   0.04476969  0.052188074            2 
   89000    1.1989448   -5.3486127    47.892791  0.044843437  0.052120926            4 
   90000     1.185348    -5.377891    48.187075  0.044617662  0.052054731            2 
   91000    1.2133773   -5.3691433    48.954788  0.044830391  0.051987318            3 
   92000    1.2330304   -5.3589999    49.621436  0.044946952  0.051932868            2 
   93000    1.2414094   -5.3705035    50.376523  0.045140253   0.05188751            2 
   94000    1.2081161   -5.3814655    51.025985  0.045235802  0.051851985            1 
   95000    1.2105485   -5.3185488    51.585759  0.045250666  0.051819017            3 
   96000    1.2186819   -5.3565616    51.996533   0.04513588  0.051781233            2 
   97000    1.2075202   -5.3626216    52.646377  0.045228846  0.051738871            2 
   98000    1.2085428   -5.3394639     53.07333  0.045130382  0.051690398            2 
   99000    1.2258402   -5.3385582    53.778963  0.045268487  0.051633448            3 
  100000    1.1860684   -5.3654658    53.854689  0.044878907  0.051565708            1 
  101000    1.1912873   -5.3684186    54.448807  0.044924758   0.05149377            3 
  102000    1.2076891   -5.3778429    54.963299  0.044904656  0.051424393            1 
  103000    1.2156587   -5.3799559    55.432756  0.044848508  0.051351804            1 
  104000    1.2265081   -5.4049056    55.649749  0.044591145  0.051267751            7 
  105000    1.1907009   -5.3551695     56.55142  0.044882079  0.051192205            3 
  106000    1.2126024   -5.3867672    56.769693  0.044630261  0.051113838            3 
  107000    1.2072738     -5.36853    57.417982  0.044718054  0.051032694            4 
  108000    1.2167339   -5.3228314     58.10476   0.04483392  0.050953069            3 
  109000     1.215733   -5.4185664    58.658505  0.044845952  0.050885627            4 
  110000    1.2231851    -5.401686    59.367932  0.044975706  0.050820984            3 
  111000    1.2219849   -5.4130377     59.83366  0.044920165  0.050750906            2 
  112000    1.1902864   -5.3514697    60.494987  0.045011151   0.05068865            4 
  113000    1.1988346   -5.4015838    60.948946    0.0449476  0.050627253            3 
  114000    1.2186935   -5.3854635    61.571269  0.045008238  0.050570701            2 
  115000    1.1954458   -5.3814367    62.120118  0.045014578  0.050510355            2 
  116000    1.2119459   -5.3956981    62.654004   0.04501006  0.050451623            1 
  117000    1.2015462   -5.3729805    63.541534  0.045257503  0.050402069            2 
  118000    1.2178751   -5.3739818    63.944106  0.045158267  0.050350557            2 
  119000    1.2027462   -5.3920322    64.455902  0.045137186  0.050300171            5 
  120000    1.2015066   -5.3642766     65.09286  0.045203375  0.050247637            3 
  121000    1.1944415   -5.3750094    65.428137    0.0450607   0.05019112            2 
  122000    1.1945049   -5.4208114    66.038671  0.045108382  0.050138589            6 
  123000    1.2130124   -5.4305756    66.529665  0.045074299  0.050090961            3 
  124000    1.2049747   -5.3591356    67.788525  0.045556805  0.050048974            2 
  125000    1.2016738   -5.3734437    68.139551  0.045426367   0.05001032            2 
  126000    1.1992534   -5.3995134    68.695989  0.045433855  0.049979507            2 
  127000    1.2198779   -5.4056379    69.122595  0.045356033  0.049940733            3 
  128000       1.2033   -5.3832855    69.833997  0.045464842  0.049902133            2 
  129000    1.2102381   -5.3948484    70.362184  0.045453607  0.049867718            2 
  130000    1.1856328   -5.4161032    70.577898  0.045242242  0.049829891            3 
  131000    1.1943691   -5.3817379    71.257985  0.045329507  0.049787018            1 
  132000    1.1810994    -5.406852    71.805264  0.045331606    0.0497453            3 
  133000    1.1965878   -5.3770466    72.675388  0.045535957  0.049710352            6 
  134000    1.2033346   -5.4031896    72.881041  0.045324031  0.049677508            2 
  135000    1.2072248    -5.388895    73.319451   0.04525892  0.049642931            3 
  136000    1.1951402   -5.4021508    74.421446  0.045601376  0.049611624            1 
  137000    1.2052838   -5.3810018    75.364469  0.045842134  0.049592923            2 
  138000    1.2182936   -5.3669893    75.778548  0.045759993   0.04957211            2 
  139000    1.1696374   -5.4031618    76.320309  0.045755581  0.049543918            2 
  140000    1.2194612   -5.4083749    76.379987  0.045464278  0.049515275            3 
  141000    1.2161924   -5.3906655    77.244498  0.045652777  0.049483742            2 
  142000    1.2006047   -5.4130046    77.796919  0.045655469  0.049457836            2 
  143000    1.2149302   -5.4276324    78.368381  0.045669219  0.049433326            3 
  144000    1.2012426    -5.374235    79.225373  0.045848017  0.049410883            1 
  145000     1.199184   -5.3741131    80.095038  0.046031631  0.049397839            2 
  146000    1.1768235   -5.3761746    80.634926  0.046024501  0.049389766            2 
  147000    1.2137021   -5.4006624    81.264813  0.046068488  0.049388732            2 
  148000    1.1799769   -5.4119845    82.169164  0.046266421  0.049391263            1 
  149000    1.1984004   -5.4151891    82.258242  0.046005728  0.049392236            2 
  150000    1.1965281   -5.4322245    83.181061    0.0462117  0.049390467            3 
  151000    1.1842514   -5.3954728    83.637099  0.046157339  0.049391193            5 
  152000    1.1751851    -5.392166    84.868474  0.046528768   0.04939096            2 
  153000     1.193734   -5.4021248    84.973169  0.046281682  0.049393299            2 
  154000    1.1857559    -5.365936    85.355594  0.046188092   0.04938705            3 
  155000    1.1879987   -5.3797645    85.747758  0.046100945  0.049377926            3 
  156000    1.2028812   -5.4403782    85.987398  0.045933439  0.049364118            3 
  157000    1.1655042   -5.4856937     86.56027  0.045944941  0.049351332            4 
  158000    1.1983813    -5.438435    87.601874   0.04620352  0.049337163            3 
  159000    1.1935339   -5.3782745    88.314698  0.046286529  0.049330125            2 
  160000    1.1982654   -5.4025268    88.879252  0.046291277  0.049323427            2 
  161000    1.1734055    -5.413594    89.669627   0.04641285   0.04931698            2 
  162000    1.2076421   -5.4226103    90.415101  0.046509826  0.049314955            2 
  163000    1.1729007   -5.3942505    91.160831  0.046605742  0.049315974            2 
  164000    1.1870289   -5.3849987     91.66947  0.046580015  0.049317548            2 
  165000    1.1906137   -5.3795959    92.308508  0.046620458  0.049320625            1 
  166000    1.1877253   -5.4442944    92.689328  0.046530787   0.04932397            2 
  167000    1.1908779   -5.4104593     93.59226  0.046702724  0.049326647            2 
  168000    1.1957773   -5.4041187     94.16482   0.04670874  0.049333623            2 
  169000      1.16828   -5.4342487    94.890513  0.046790194   0.04933891            2 
  170000    1.1580964   -5.4343011    94.967118  0.046552509   0.04934455            3 
  171000    1.1955561   -5.4106172    96.312004  0.046935674  0.049353905            2 
  172000     1.180742   -5.4221643    96.531016  0.046768903  0.049362937            2 
  173000    1.2030042   -5.4266905    97.039417  0.046743457  0.049364957            3 
  174000    1.1940811   -5.4435036    97.538369  0.046713778  0.049366221            3 
  175000    1.2096833   -5.4586957    97.599437  0.046475922  0.049362413            2 
  176000    1.1831925   -5.4095887    98.545932  0.046660006   0.04935931            3 
  177000    1.2040612   -5.4375865    98.833807  0.046531924  0.049355563            3 
  178000    1.1855693   -5.4425078    99.133844  0.046410975   0.04934722            1 
  179000    1.2007544   -5.4675458    99.657803  0.046395625  0.049336388            3 
  180000    1.1833378   -5.4017342    100.35986  0.046462897  0.049328628            5 
  181000    1.1652347   -5.4434004    101.28494  0.046632109  0.049322372            3 
  182000    1.1977749   -5.4591181    101.74914  0.046588433  0.049316616            1 
  183000    1.1628795   -5.4737448     102.5489   0.04669804  0.049311852            2 
  184000    1.1976972   -5.4338751    102.74172  0.046531578   0.04930611            3 
  185000    1.1733004   -5.4381889    103.35454  0.046556099  0.049295056            1 
  186000    1.1753604   -5.4603019    103.77564  0.046494462  0.049288122            1 
  187000    1.1895721    -5.440471    104.34042  0.046497515  0.049280284            6 
  188000    1.1753813   -5.4380702     105.2408  0.046649289  0.049273031            2 
  189000    1.1467251   -5.4431384    105.57297  0.046548927  0.049268547            1 
  190000    1.1852359   -5.4374785    106.30623  0.046625538  0.049261409            4 
  191000    1.1821949   -5.4245645    106.94325  0.046659361  0.049255003            4 
  192000    1.2026925   -5.4582924     107.6504  0.046723266  0.049247266            3 
  193000    1.1880232   -5.4935568    107.60585  0.046461938  0.049236478            2 
  194000    1.1773517   -5.4488858    108.41608  0.046570481  0.049233524            2 
  195000    1.1807627   -5.4302822    109.33697  0.046725201  0.049227597            3 
  196000    1.1743743   -5.4274277    110.25641  0.046877726  0.049221029            3 
  197000    1.1719858   -5.4582289    110.00094  0.046531702  0.049215928            3 
  198000    1.1668351   -5.4475772    110.77789  0.046623693  0.049204877            3 
  199000     1.154506   -5.4947911    110.72756  0.046368323  0.049190359            2 
  200000    1.1581227   -5.4804336    111.69595  0.046539981  0.049175851            4 
  201000    1.1759642   -5.4806449    112.12981  0.046488314  0.049164171            2 
  202000    1.1929418   -5.4859209    112.51519  0.046417157  0.049152096            1 
  203000    1.1846396   -5.4684125    113.17051  0.046457518  0.049138143            4 
  204000    1.1678438    -5.456298     113.7677  0.046473735  0.049121235            2 
  205000    1.1923134   -5.4109935    114.65829  0.046609063  0.049108845            2 
  206000    1.1889387   -5.4686668    114.90745  0.046483595  0.049094872            5 
  207000    1.1971182   -5.4821349    115.11924    0.0463443  0.049080798            6 
  208000    1.1593711   -5.4542923    115.85645  0.046416849  0.049068716            1 
  209000    1.1404897   -5.4299824    116.96755  0.046637779  0.049056382            2 
  210000    1.1843904   -5.4601137    117.38986  0.046583277  0.049045479            3 
  211000    1.1979244   -5.4335821    117.87614  0.046554557  0.049033544            2 
  212000    1.1441866   -5.4573771    118.55516  0.046601872  0.049022374            7 
  213000    1.1835877   -5.4613714    118.70898  0.046443263   0.04901242            4 
  214000    1.1568661    -5.463278    119.55633  0.046556205  0.048999609            6 
  215000    1.1918691   -5.4441293    119.77606  0.046424829  0.048986567            2 
  216000    1.1740927   -5.4626069    120.25107  0.046393161  0.048973351            2 
  217000    1.1718388   -5.4540626    120.76864  0.046378125  0.048957535            2 
  218000    1.1664326   -5.4697647    121.10631  0.046294462  0.048937759            6 
  219000    1.1751088   -5.4335632    121.80024  0.046347122  0.048917088            5 
  220000    1.1556046   -5.4538461    122.18532   0.04628232  0.048897106            2 
  221000    1.1616975   -5.4603476    122.95704   0.04636389  0.048877265            2 
  222000    1.1618963   -5.4384904    123.34354  0.046300129  0.048856225            1 
  223000    1.1558834   -5.5141194    123.39332  0.046111108  0.048835369            2 
  224000     1.189132   -5.4346076    123.90108  0.046094153  0.048813783            3 
  225000    1.1849294   -5.4896275    124.22334  0.046008644  0.048789019            2 
  226000    1.1667283   -5.4647507      125.521  0.046283553  0.048764861            3 
  227000    1.1551091   -5.4662439    125.80098  0.046182446  0.048743103            2 
  228000    1.1456521   -5.4902434    126.43713  0.046212401  0.048723141            2 
  229000     1.174403   -5.5088563    126.94578    0.0461957   0.04870211            4 
  230000    1.1801315   -5.4762548    127.23502  0.046099645  0.048680058            1 
  231000     1.196374   -5.4673276    127.71464  0.046073101  0.048655911            4 
  232000    1.1681528   -5.4842586    127.77219  0.045895183   0.04863287            1 
  233000     1.162477   -5.4895776    128.55875  0.045979523  0.048608363            3 
  234000    1.1581965    -5.450682    128.99242  0.045937471  0.048583829            4 
  235000    1.1572537   -5.4282907    130.15956  0.046155871  0.048560458            3 
  236000    1.1657823   -5.4984369    129.74967  0.045815562  0.048537269            2 
  237000    1.1400777   -5.4924413    130.27394  0.045806589  0.048511076            4 
  238000    1.1636965   -5.4976987    130.90149  0.045833854  0.048486777            2 
  239000    1.1471363   -5.4610174    131.64454  0.045901166  0.048463832            5 
  240000    1.1576956   -5.4977595    132.09515  0.045866371  0.048441024            3 
  241000    1.1744084   -5.4793773    133.03071  0.045999552  0.048415433            3 
  242000    1.1538936   -5.4674812    133.27388  0.045893211  0.048390829            5 
  243000    1.1505685   -5.4949814     132.9187  0.045582546  0.048364425            3 
  244000    1.1584324   -5.4945574    134.04008  0.045778715  0.048335862            3 
  245000    1.1620008   -5.4690366    134.06763  0.045601235  0.048307626            1 
  246000    1.1563591   -5.4987999    134.42946  0.045538434  0.048277168            3 
  247000    1.1528783   -5.4820752     135.3695  0.045671223  0.048251112            3 
  248000    1.1542217   -5.4956731    135.55896  0.045550727  0.048222689            1 
  249000      1.17305   -5.4934678    136.79568  0.045781688  0.048196094            3 
  250000    1.1470889   -5.5592764    136.77765  0.045592551  0.048170465            3 
  251000    1.1688559   -5.4745502     137.7349   0.04572872   0.04814602            2 
  252000    1.1476052   -5.4897773    138.19197  0.045698403   0.04812024            2 
  253000     1.198251   -5.4805147    138.23885  0.045533217  0.048093804            3 
  254000    1.1767164   -5.4861167    139.16229   0.04565692  0.048065946            3 
  255000    1.1394415   -5.5266088    139.25752  0.045508995  0.048039662            3 
  256000    1.1341702   -5.5257278     140.0278  0.045581965  0.048013224            2 
  257000    1.1482355   -5.5387058    139.96135  0.045383059  0.047985488            4 
  258000    1.1711929    -5.511896     141.2832  0.045634108  0.047958171            2 
  259000    1.1415475   -5.4938648    141.45882  0.045514422  0.047932181            7 
  260000    1.1516994   -5.4926217    142.10977  0.045548004  0.047907274            5 
  261000    1.1523823   -5.5249806    142.53621  0.045509647  0.047882245            4 
  262000    1.1393924    -5.511512      143.121  0.045521948  0.047856613            4 
  263000    1.1434579   -5.5009526    143.72197   0.04553928  0.047833882            2 
  264000    1.1622138   -5.5068272    144.78947  0.045703747  0.047809747            2 
  265000    1.1294129   -5.4736562    144.56117  0.045459487  0.047786201            3 
  266000    1.1583563   -5.5088815    145.66038   0.04563295  0.047762816            2 
  267000    1.1610433    -5.521306    145.66311  0.045462892  0.047738598            4 
  268000    1.1445792   -5.5343898    145.70159  0.045305221  0.047713298            1 
  269000    1.1771322   -5.5045352    146.22954  0.045300352  0.047688164            2 
  270000    1.1484656   -5.5380522    147.15836  0.045419247  0.047664257            3 
  271000    1.1524453   -5.4924516    148.13302  0.045551359   0.04764032            2 
  272000     1.136007    -5.472178      148.326  0.045443014  0.047616735            2 
  273000    1.1554779   -5.5083553    148.89866   0.04545136  0.047592937            1 
  274000    1.1509732   -5.5335465    149.57252  0.045490427  0.047567223            2 
  275000    1.1469882     -5.47681    149.20885  0.045214803   0.04754175            2 
  276000    1.1217673   -5.4765849    150.43903  0.045422413  0.047518007            4 
  277000    1.1572003   -5.5157113     150.3536  0.045232732  0.047494508            2 
  278000    1.1505082   -5.5454023    150.67498  0.045166362  0.047467936            3 
  279000    1.1278919   -5.4955828    152.09572  0.045428829  0.047441491            2 
  280000     1.124536   -5.5160542    152.05982    0.0452559  0.047416486            3 
  281000    1.1316241   -5.5624286     152.0103  0.045080161  0.047391614            4 
  282000    1.1261637   -5.5292228    153.32284  0.045308167   0.04736709            3 
  283000    1.1110951   -5.4967896    153.72647  0.045266922  0.047344381            2 
  284000    1.1504471   -5.5489651    154.41012  0.045308134  0.047323044            2 
  285000     1.128785   -5.5486295    155.14812  0.045364947  0.047301382            2 
  286000    1.1467094   -5.5424802    154.91003  0.045136956  0.047279967            2 
  287000    1.1275841   -5.5374447    156.13619  0.045335713  0.047256365            1 
  288000    1.1344378   -5.5287453    156.50373  0.045284644  0.047234416            3 
  289000    1.1288859   -5.4868364    156.50041  0.045126991  0.047212973            4 
  290000    1.1248922   -5.5326176    157.83177  0.045353958  0.047190668            4 
  291000     1.117078   -5.5242829    158.56233  0.045407311  0.047167648            4 
  292000    1.1383091    -5.517241     158.4731  0.045226342  0.047145925            2 
  293000    1.1399703   -5.5044237    158.63434  0.045117845  0.047121811            4 
  294000    1.1275686   -5.5141357     159.4579  0.045197816  0.047100091            2 
  295000    1.1160249    -5.518992     160.0965     0.045225  0.047078571            1 
  296000    1.1417961   -5.5223641    160.82755  0.045278027  0.047057575            4 
  297000    1.1342242    -5.558458    161.31876  0.045263401  0.047036425            5 
  298000     1.128617    -5.510349    161.66778   0.04520911   0.04701249            6 
  299000    1.1250051   -5.5593116    161.45542  0.044998724  0.046989988            3 
  300000    1.1259669   -5.5403667    162.04015  0.045011153  0.046965825            2 
  301000    1.1258023   -5.5355468    162.78788  0.045068628  0.046942296            2 
  302000    1.1508776   -5.5280516    163.23518   0.04504282  0.046918661            2 
  303000    1.1392782   -5.5363198    163.50749  0.044969056  0.046895941            3 
  304000    1.1307276   -5.5282017    164.48197  0.045088258   0.04687212            7 
  305000    1.1368821   -5.5043875    165.25541  0.045151751  0.046850993            3 
  306000    1.1476645   -5.5219736    165.49306  0.045068917  0.046830731            2 
  307000    1.1142538   -5.5441742    165.95849   0.04504845  0.046809067            2 
  308000    1.1152742    -5.540566    166.27389  0.044987525  0.046787343            3 
  309000     1.127095    -5.547484    167.32762  0.045126112  0.046768193            8 
  310000     1.125343     -5.51842    167.79915  0.045107298   0.04674849            2 
  311000    1.1111718   -5.5278369    168.53592  0.045159679  0.046729001            4 
  312000    1.1479307   -5.5067809    168.67415  0.045051856  0.046709759            2 
  313000    1.1407285   -5.5318648    168.94686  0.044980528  0.046689876            4 
  314000    1.1500187   -5.6115747    168.64135  0.044756198  0.046669581            2 
  315000      1.13473    -5.534733    169.53106  0.044849487  0.046649094            2 
  316000    1.1439208   -5.5320774    169.78275  0.044773933   0.04662824            2 
  317000    1.1351802   -5.5376583      170.777   0.04489406  0.046604135            2 
  318000    1.1210275   -5.5448709    170.72841  0.044740149  0.046580529            4 
  319000    1.1034487   -5.5516031    171.44124  0.044786114  0.046557387            2 
  320000    1.1279776   -5.5216448    172.26714  0.044861234  0.046533626            4 
  321000    1.1084584   -5.5372365    172.54524  0.044793676  0.046510418            2 
  322000    1.1408061   -5.5368113    172.63437  0.044677631  0.046487165            1 
  323000    1.1031662   -5.5430798    173.69245  0.044812295  0.046463945            2 
  324000    1.1186083   -5.5747428    174.14711  0.044790924  0.046441332            3 
  325000    1.1444122   -5.5194689    175.76312  0.045067466  0.046421716            6 
  326000    1.1169409   -5.5323077     175.7199  0.044918176  0.046402406            3 
  327000    1.1583426   -5.5810424    174.80589  0.044547883  0.046381996            1 
  328000      1.15255   -5.5366167    176.23167  0.044774306  0.046359688            2 
  329000    1.1273118   -5.5310835    176.33003  0.044663127  0.046338132            2 
  330000    1.1512258   -5.5468639    177.21073  0.044750183  0.046315571            2 
  331000    1.1091014   -5.5287912     177.4756   0.04468167  0.046292215            3 
  332000    1.1143777    -5.549526    177.64967   0.04459078  0.046268647            2 
  333000    1.1046562   -5.5605524    178.22836  0.044601692  0.046245572            1 
  334000    1.1209155   -5.5526109    177.92576  0.044392656  0.046223444            2 
  335000    1.1195879    -5.531517    178.48982  0.044400452  0.046199163            2 
  336000    1.1336081   -5.5932827    178.65058   0.04430818  0.046173996            2 
  337000    1.1149962   -5.5485873    179.72309  0.044441912  0.046148871            4 
  338000    1.1422153   -5.5255946    180.83625  0.044584874  0.046126457            1 
  339000    1.1158183    -5.570371    180.36585   0.04433772  0.046104642            3 
  340000    1.1207052   -5.5728527    180.60725  0.044266483  0.046079997            3 
  341000    1.1166048   -5.5610752    181.67137  0.044396719   0.04605597            3 
  342000    1.1361265   -5.5986794    181.16943  0.044144599  0.046032175            1 
  343000    1.1001791   -5.5301412    182.94811  0.044448034  0.046008643            6 
  344000    1.1094744   -5.5692469    182.21902  0.044142204  0.045984189            4 
  345000     1.148981   -5.5711951    183.27235  0.044268684  0.045958988            1 
  346000    1.1255103   -5.5658668     183.7545  0.044256863  0.045934841            1 
  347000    1.1240917   -5.5873862     183.9456  0.044175217  0.045910595            3 
  348000     1.122921   -5.5728277    185.42991  0.044403715  0.045885545            6 
  349000    1.1143838   -5.5886864    185.01374   0.04417711  0.045862742            3 
  350000    1.1065961    -5.542793    185.99414  0.044284318  0.045840638            3 
  351000    1.1066228   -5.5617467    186.07901  0.044178302  0.045817025            6 
  352000    1.1033377    -5.568825    185.95222  0.044022779  0.045792917            5 
  353000    1.1238246   -5.5370805    186.85521   0.04411124  0.045766353            3 
  354000    1.1221327   -5.6069592    185.93791  0.043770694  0.045738892            2 
  355000    1.1154369   -5.5680896    187.14759  0.043931358  0.045711386            5 
  356000     1.109558   -5.5977995    187.21548  0.043823848  0.045683349            4 
  357000    1.1436556   -5.5738791    188.47964  0.043996182  0.045656442            4 
  358000    1.1217337   -5.5889102    188.37577  0.043849109  0.045630164            3 
  359000    1.1227875   -5.6053904    188.96351  0.043863396  0.045604824            3 
  360000    1.1044193   -5.6038731    190.11708  0.044008584  0.045578939            2 
  361000    1.1181285   -5.5639572    191.25816  0.044150082  0.045552748            4 
  362000    1.1194559   -5.5915652     191.6251  0.044112591  0.045527481            2 
  363000    1.1377956   -5.5902595    191.09595  0.043869594   0.04550377            4 
  364000    1.0887975   -5.6156579    190.78366  0.043677579  0.045478769            3 
  365000    1.1007043   -5.6298218    192.18217  0.043877208  0.045454587            4 
  366000    1.1073108   -5.5816695    192.41102  0.043809431  0.045430716            5 
  367000    1.0943667   -5.6348791    192.75692  0.043768601  0.045406549            2 
  368000    1.0970792   -5.6026464    192.74663  0.043647334  0.045381417            2 
  369000    1.1096674    -5.602743    193.65234  0.043733591  0.045355599            4 
  370000    1.1064129   -5.5689888    194.70545  0.043852579  0.045329558            3 
  371000    1.1139929   -5.6135764    194.33029  0.043650109  0.045303554            4 
  372000    1.0991193   -5.5813823    194.91807  0.043664443  0.045278091            2 
  373000    1.1251718   -5.5762078    194.74937  0.043509689  0.045251219            4 
  374000    1.0854875   -5.5530154    195.46957  0.043553826  0.045224533            3 
  375000    1.1017886   -5.5980961    196.04277  0.043565059   0.04519757            2 
  376000    1.0928675    -5.616314    196.93134   0.04364613  0.045170208            2 
  377000    1.0935875   -5.5944332    196.93651  0.043531501  0.045143388            3 
  378000    1.1010582   -5.5868999    196.66286   0.04335601  0.045116581            2 
  379000    1.0724153    -5.591311    197.16142  0.043351236  0.045088043            2 
  380000    1.1094446   -5.5982494    197.92988  0.043405676  0.045059654            2 
  381000    1.1002397   -5.6340969    197.65636  0.043231925  0.045031815            6 
  382000    1.1055734    -5.576145    199.52286   0.04352593  0.045003984            3 
  383000     1.111591   -5.5991704    198.48092  0.043185578  0.044977043            3 
  384000    1.0918569   -5.5789128    200.31189  0.043470462  0.044949953            1 
  385000    1.1040222   -5.5753876    200.04924  0.043300701   0.04492415            4 
  386000     1.116586   -5.6356299    200.46107  0.043277433  0.044898109            2 
  387000     1.113488   -5.5951823    201.38651  0.043364882  0.044872428            3 
  388000     1.102838   -5.5848589    202.49803  0.043491846  0.044847121            3 
  389000    1.1099731   -5.6009535     201.6592  0.043200344  0.044821045            4 
  390000    1.1189123   -5.5924704    202.41062  0.043250132  0.044795327            3 
  391000    1.1105869   -5.6004065    202.91339  0.043246672  0.044768823            3 
  392000     1.096861   -5.5577389    202.88434  0.043130173  0.044741543            2 
  393000     1.084858   -5.6120107     202.9721  0.043039038  0.044715807            2 
  394000    1.0857241   -5.6258608    204.07739  0.043163575   0.04469001            2 
  395000    1.0607561   -5.6123629     204.9647  0.043241498  0.044665263            2 
  396000    1.1049801   -5.5647107    205.90341  0.043329841  0.044640244            2 
  397000    1.1170303   -5.6006693    205.78303  0.043195431  0.044616047            3 
  398000    1.0591838   -5.6316013    206.14882  0.043163488  0.044590801            1 
  399000    1.0935012   -5.6422233    206.28916  0.043084621  0.044566634            6 
  400000    1.0891651   -5.6071614    207.29606   0.04318668  0.044541946            3 
  401000    1.0966216   -5.6321641    208.40823  0.043310105  0.044519229            4 
  402000    1.0821952   -5.6354322    208.01046  0.043119913  0.044495806            2 
  403000    1.0935125   -5.6476692    209.02007  0.043221685  0.044472561            3 
  404000    1.0921969    -5.599173    209.89424  0.043295016  0.044449147            9 
  405000    1.1127036   -5.6403506    209.44162  0.043094984  0.044425916            3 
  406000     1.089612   -5.6161763    210.35279  0.043175859  0.044401869            2 
  407000    1.0781261   -5.5921404    210.89548  0.043180892  0.044378328            4 
  408000    1.0715214   -5.6387655    210.68997  0.043033082   0.04435522            3 
  409000    1.0981798   -5.6488172    210.82801  0.042955992  0.044332075            5 
  410000     1.064802   -5.6030528    212.04255  0.043098078  0.044309647            1 
  411000    1.0990212   -5.6265016    212.36725  0.043059053   0.04428858            3 
  412000    1.0841044   -5.6042048    213.47921  0.043179452  0.044268154            4 
  413000    1.1037237   -5.6350485    212.76579  0.042930951  0.044246458            3 
  414000    1.0765243   -5.6215042    214.63919  0.043204345  0.044225286            2 
  415000    1.1075687   -5.5786236    215.44755  0.043262559  0.044206145            1 
  416000     1.100289   -5.6689619     214.8841  0.043045692   0.04418533            2 
  417000    1.0589705   -5.6274882     215.1808  0.043001759  0.044165091            4 
  418000    1.0999643   -5.6229493    216.53936  0.043169729  0.044145875            2 
  419000    1.0869868   -5.6559774    217.19422   0.04319694  0.044126082            2 
  420000    1.0585638   -5.6424306    216.65387   0.04298688  0.044106276            4 
  421000    1.0783274   -5.6667454    217.22612  0.042998044  0.044085605            3 
  422000    1.0888733   -5.6409402    217.51548  0.042953293  0.044065425            2 
  423000    1.0602651   -5.6166143     217.7754  0.042902954  0.044045967            5 
  424000    1.0883625   -5.6582024    218.31072  0.042906982  0.044026609            4 
  425000     1.085945   -5.6290934    218.59145  0.042861069  0.044006357            5 
  426000    1.1211143   -5.6241612    219.49638  0.042937477  0.043986754            3 
  427000    1.0692335    -5.655246    220.01561  0.042938253  0.043967484            3 
  428000    1.0754441   -5.6482414    220.10014  0.042854389  0.043947837            5 
  429000      1.06934   -5.6364252    221.51012  0.043028383  0.043929058            3 
  430000    1.0766466   -5.6088909    221.40735  0.042908402  0.043910228            1 
  431000    1.0731379   -5.6402709      222.126  0.042947796  0.043891305            6 
  432000    1.0783545   -5.6600612    221.91043  0.042806796   0.04387254            2 
  433000    1.0753354   -5.6780675    222.90319  0.042898997  0.043852451            5 
  434000    1.0753913   -5.6604611    223.46321  0.042907683  0.043833999            3 
  435000    1.1034131   -5.6897894    223.73469  0.042861051  0.043816097            3 
  436000    1.0878451   -5.6324435    224.63344  0.042934527  0.043798544            4 
  437000    1.0682987   -5.6460005    225.40414  0.042983246    0.0437814            4 
  438000     1.062992   -5.6507265    225.66693  0.042935108  0.043763791            3 
  439000    1.0963218   -5.6449042    225.56864  0.042818648   0.04374435            2 
  440000    1.0749275   -5.6587756    225.91566  0.042787057  0.043725053            4 
  441000    1.0694436   -5.6779961    225.93248  0.042693212  0.043706405            9 
  442000    1.0793495   -5.6523534    227.71629  0.042932935  0.043688254            3 
  443000     1.073604   -5.6272673    227.66022  0.042825474  0.043670591            2 
  444000    1.0815882   -5.6711355    228.55748  0.042897425  0.043652261            3 
  445000    1.0841734   -5.6680197    228.62909  0.042814437  0.043634055           12 
  446000    1.0800169    -5.652075    228.94648  0.042777743   0.04361526            8 
  447000     1.092068   -5.6444281     229.3276  0.042753095  0.043596616            3 
  448000    1.0933129   -5.6790121    228.53236   0.04250974  0.043578607            4 
  449000    1.0912874   -5.6668422    229.81376  0.042652888  0.043559367            2 
  450000    1.0787777   -5.6626285    230.91082  0.042761262  0.043541085            7 
  451000    1.0682954   -5.6474534    230.69487  0.042626547  0.043522554            2 
  452000    1.0767408   -5.6848524    230.32039  0.042463199  0.043503143            1 
  453000    1.0742064   -5.6398915    230.69269  0.042437949  0.043482291            2 
  454000    1.0802104   -5.6486827    231.57349  0.042506147  0.043461109            2 
  455000    1.0761165   -5.6701339    231.80951  0.042455955  0.043440435            3 
  456000    1.0717685   -5.7095597      230.651  0.042151133   0.04341945            3 
  457000    1.0807982   -5.6584125    232.57033  0.042408886  0.043398682            3 
  458000    1.0732883   -5.6353027     232.2287   0.04225413  0.043378128            2 
  459000    1.0774681   -5.6383527    233.57318  0.042406169  0.043357512            4 
  460000    1.1021828   -5.6482952    233.45231  0.042292085  0.043336374            2 
  461000    1.0703158    -5.659262    234.16903  0.042329904  0.043314247            6 
  462000    1.0736034   -5.6766155    234.66941  0.042328536  0.043291038            5 
  463000    1.0555664   -5.6757929    233.42165  0.042012537  0.043268225            3 
  464000    1.0643889   -5.6349109    234.96929  0.042199943  0.043247428            3 
  465000     1.065682   -5.6871215     234.8389  0.042085825  0.043224616            3 
  466000    1.0514562   -5.6807994    235.69418  0.042148458  0.043201168            2 
  467000    1.0924379   -5.7108172    234.97806  0.041930417   0.04317792            2 
  468000    1.0679116   -5.7110244    236.32498  0.042080659  0.043155322            2 
  469000    1.0850245   -5.7081507    236.43962  0.042011304  0.043132445            3 
  470000    1.0501369   -5.6352878    237.18257  0.042053647  0.043110272            3 
  471000    1.0803337   -5.6651708    238.08706  0.042124392   0.04308861            3 
  472000      1.07329   -5.6776206     237.8233  0.041988577  0.043066934            3 
  473000     1.075097   -5.6993622    237.71347  0.041880456  0.043044178            3 
  474000    1.0588481   -5.6887044    238.51766  0.041933484  0.043020932            6 
  475000    1.0542036     -5.67998    238.92435  0.041916553  0.042997936            2 
  476000    1.0752124   -5.6405332     239.0858  0.041856758  0.042974754            2 
  477000    1.0578672   -5.6845273     239.6817  0.041873113  0.042951563            4 
  478000    1.0259709   -5.6819306     239.4957  0.041753086  0.042928299            4 
  479000    1.0476229   -5.6934498    239.56827  0.041678544  0.042905553            4 
  480000    1.0648417   -5.6860512     241.4594  0.041920034  0.042882209            5 
  481000     1.049948   -5.6605611    241.58071  0.041853901   0.04285947            5 
  482000    1.0387602   -5.6404342    241.94382  0.041829845  0.042837424            1 
  483000    1.0617975   -5.7192293    240.90379  0.041563801  0.042813148            2 
  484000    1.0828815   -5.6852262    242.53246  0.041758344  0.042790168            3 
  485000    1.0425532   -5.7094422    242.65819  0.041693848  0.042767007            1 
  486000    1.0714732   -5.6582736    243.93699   0.04182733  0.042744184            4 
  487000    1.0632514   -5.6957109    243.58769  0.041681672  0.042721305            1 
  488000    1.0738726    -5.681063    243.40043  0.041564282  0.042698625            4 
  489000    1.0841222   -5.6894801     243.3099  0.041463854  0.042675224            3 
  490000    1.0705577   -5.6935165    244.06107  0.041506985  0.042651975            2 
  491000    1.0819029    -5.676337    244.69549  0.041530124  0.042629039            4 
  492000    1.0695605   -5.6941838     243.9507  0.041319563  0.042605733            8 
  493000    1.0660499   -5.6667225    245.66689  0.041525844   0.04258211            5 
  494000    1.0504767   -5.7512815    244.66254  0.041272358  0.042558391            3 
  495000    1.0240452   -5.7134178    245.48244   0.04132701  0.042533707            5 
  496000    1.0440921   -5.7084914    246.16737  0.041358765  0.042508795            4 
  497000    1.0763283   -5.7305924    245.63384   0.04118609  0.042484033            5 
  498000    1.0585337   -5.6839683    246.37614  0.041227601   0.04245919            2 
  499000    1.0612061   -5.7107351    247.12632   0.04127026  0.042434246            4 
  500000    1.0483145   -5.7171212    246.40009  0.041066682  0.042409723            4 
  501000    1.0585239   -5.6946781    248.66626  0.041361654  0.042384762            2 
  502000    1.0477959   -5.7412138    247.93431  0.041157754  0.042359293            4 
  503000    1.0675464   -5.6974496    248.74581  0.041210372  0.042334422            5 
  504000    1.0528875    -5.714486    248.73855  0.041127406  0.042309975            4 
  505000     1.049884   -5.7279052    248.81973  0.041059362   0.04228524            4 
  506000    1.0527774   -5.7380158    249.21687  0.041043621  0.042260612            7 
  507000    1.0379853   -5.6915803    250.42423  0.041161116  0.042235316            2 
  508000    1.0601386   -5.7133322     249.8891  0.040992306  0.042210255            2 
  509000    1.0736394   -5.7057754    251.34497  0.041150126   0.04218523            5 
  510000    1.0418224   -5.7061979    251.28891  0.041060279  0.042160541            2 
  511000    1.0375195   -5.7435715    251.18596  0.040963137  0.042136401            3 
  512000    1.0611887   -5.7016231    251.66021  0.040960321   0.04211152            6 
  513000    1.0315827   -5.7412458    251.30721  0.040823134  0.042086955            2 
  514000    1.0422162   -5.7234687    252.56732   0.04094801  0.042062292            6 
  515000    1.0450862   -5.7490079    252.81883  0.040909197  0.042038014            4 
  516000      1.05905   -5.7411389    253.34153  0.040914329  0.042013785            3 
  517000    1.0202337   -5.7685223     251.9258  0.040606995  0.041988009            2 
  518000    1.0509875   -5.6987574    253.05779  0.040710712  0.041963046            3 
  519000    1.0674767   -5.7082536     254.2118  0.040817566  0.041937205            2 
  520000    1.0344539   -5.7496947    254.43623  0.040775036  0.041911636            6 
  521000    1.0614767   -5.7434133    253.75214  0.040587354  0.041885819            2 
  522000    1.0628338   -5.7285885    254.40658  0.040614078  0.041859766            3 
  523000       1.0367   -5.6711376    255.79157  0.040757102  0.041834371            3 
  524000    1.0557258   -5.7640788    255.05621  0.040562375  0.041809562            4 
  525000    1.0460865   -5.7017737    256.84946  0.040769756  0.041784884            3 
  526000    1.0631261    -5.741329    256.22349  0.040593075  0.041760432            2 
  527000    1.0627149   -5.7228637     257.6674   0.04074437  0.041736123            6 
  528000    1.0346035   -5.7482009    257.58712  0.040654534   0.04171192            3 
  529000    1.0488302   -5.7431944    258.69733  0.040752573  0.041687813            2 
  530000    1.0658884   -5.7127452     258.0132  0.040568113  0.041663876            2 
  531000    1.0352338   -5.7679931    258.47479  0.040564154  0.041639985            3 
  532000    1.0319412   -5.7936904    258.98147  0.040567273  0.041615955            3 
  533000    1.0473526   -5.7783809    259.07685  0.040506073    0.0415927            6 
  534000    1.0059559   -5.7227536    260.57458  0.040663948  0.041569669            3 
  535000    1.0258767   -5.6817099     260.9869  0.040652165  0.041547017            2 
  536000    1.0366204   -5.7027306    261.14682  0.040601185  0.041523952            2 
  537000     1.017564   -5.7564611    260.29472  0.040393346  0.041499941            6 
  538000    1.0554405   -5.7510895     260.8782  0.040408643  0.041475923            3 
  539000    1.0709383   -5.7313252    262.47775  0.040580975  0.041451827            2 
  540000    1.0615245   -5.7364581     262.0436  0.040438827  0.041428498            1 
  541000    1.0643949    -5.759595    262.55668  0.040443111  0.041404854            2 
  542000    1.0190852    -5.745289     262.7355  0.040395986  0.041381332            5 
  543000    1.0587594   -5.7199058    263.43854  0.040429487  0.041358214            3 
  544000    1.0181711   -5.7439533    263.62561  0.040383825  0.041335112            5 
  545000    1.0212957   -5.7443354    263.74573  0.040328094  0.041312122            3 
  546000    1.0573665    -5.715774    264.36228  0.040348334  0.041288392            3 
  547000    1.0240676   -5.7425211     264.4638  0.040290036   0.04126441            3 
  548000    1.0297151   -5.7821328    264.14265  0.040167678   0.04124052            5 
  549000    1.0449099   -5.7756289    265.12552  0.040243703  0.041215834            7 
  550000    1.0336579   -5.7461301    265.24928  0.040189285  0.041192043            2 
  551000    1.0444117      -5.7424    265.98421  0.040227498  0.041168642           10 
  552000      1.03064   -5.7425823    266.28092  0.040199415  0.041144185            3 
  553000    1.0389308   -5.7538157    267.01029  0.040236632   0.04112032            4 
  554000    1.0105232   -5.7423411    267.52706  0.040241736  0.041096888            2 
  555000    1.0446856   -5.7676579    267.42402  0.040153756  0.041073632            2 
  556000    1.0065328   -5.7631545    266.93357  0.040008029  0.041050725            3 
  557000    1.0210091   -5.7420305    268.28529  0.040138434  0.041027729            3 
  558000     1.035031   -5.7513418    268.61966  0.040116437  0.041005123            3 
  559000    1.0265015   -5.7850006    269.37921  0.040157903  0.040982147            4 
  560000    1.0189564   -5.7676984    268.51088  0.039956976  0.040959384            3 
  561000    1.0291861   -5.7302347    269.96179  0.040101275  0.040936908            5 
  562000    1.0359256   -5.7812928    269.89927   0.04002065  0.040914381            3 
  563000    1.0278486   -5.7620209    270.90798  0.040098872  0.040891878            5 
  564000    1.0510066   -5.7845091    270.53151   0.03997215  0.040869188            4 
  565000    1.0274993   -5.7574356    271.14139  0.039991356  0.040846294            3 
  566000    1.0055484   -5.7708437    272.14666  0.040068707  0.040823436            6 
  567000    1.0193928   -5.7567714    272.21879  0.040008641  0.040800831            2 
  568000   0.99793216    -5.783704    272.35625   0.03995837  0.040778601            4 
  569000    1.0484246   -5.7618949    273.58407  0.040067965  0.040757217            5 
  570000    1.0414901   -5.7708045    273.67921  0.040011581  0.040735842            4 
  571000    1.0381424    -5.751534     274.2024  0.040017864  0.040714807            2 
  572000    1.0341279   -5.7613201    274.27032  0.039957798    0.0406932            2 
  573000    1.0196478   -5.7942482    273.14987  0.039725113  0.040670693            6 
  574000    1.0497995   -5.7761094     274.8858  0.039907927  0.040648642            3 
  575000    1.0257151   -5.7751386    274.75092  0.039818974  0.040626174            4 
  576000    1.0353381   -5.7678473     274.8223  0.039760171   0.04060342            4 
  577000    1.0264811   -5.7714988    274.63123  0.039663667  0.040580791            4 
  578000    1.0292116   -5.8411336    275.09928  0.039662526  0.040558401            7 
  579000    1.0032535   -5.7592685    277.00995   0.03986902  0.040536269            5 
  580000    1.0159013   -5.7832633    277.58623  0.039883079  0.040514296            4 
  581000    1.0438639   -5.7870776    276.93804  0.039721463  0.040492485            5 
  582000    1.0155581   -5.7972163    277.50177   0.03973393  0.040469819            4 
  583000    1.0266008    -5.769777    277.27254   0.03963301  0.040447168            2 
  584000    1.0122914   -5.7600031    278.77332  0.039779297  0.040424766            5 
  585000    1.0090296   -5.7793725    278.41718  0.039660567  0.040401852            3 
  586000    1.0308993   -5.7856125    278.06737  0.039543141  0.040378848            3 
  587000    1.0126221   -5.7666336    278.11149   0.03948204  0.040356323            5 
  588000    1.0177181   -5.7952502    277.96331  0.039393893  0.040333669            5 
  589000    1.0134377   -5.8170637     279.2099  0.039503382  0.040311567            7 
  590000    1.0147659   -5.7632927    280.42838  0.039608529  0.040289931            4 
  591000    1.0095176   -5.7856978    280.61388  0.039567665  0.040267658            5 
  592000    1.0231167   -5.8047796    279.92667  0.039404092  0.040245491            3 
  593000    1.0265987   -5.7934001    280.47177  0.039414245  0.040223394            4 
  594000    1.0332442   -5.8005651    281.97275  0.039558466  0.040201024            5 
  595000    1.0192365   -5.7546051    281.92147  0.039484799  0.040179532            3 
  596000    1.0172797   -5.7948195      282.213  0.039459312  0.040157941            2 
  597000    1.0531335    -5.810443    283.12769  0.039520895  0.040137164            2 
  598000     1.024414   -5.7621684    284.73135  0.039678282  0.040117523            5 
  599000    1.0114973   -5.8676236    283.86364  0.039491324  0.040096773            5 
  600000   0.98686174   -5.7568398    284.90088  0.039569566  0.040076228            3 
  601000    1.0207362    -5.805334    285.25063  0.039552223  0.040056452            3 
  602000    1.0068224   -5.7670661    285.39657  0.039506723  0.040036019            7 
  603000    1.0138224   -5.8638001    284.99235  0.039385344  0.040015131            6 
  604000   0.99919015   -5.7936446    286.43765  0.039519544  0.039995026            6 
  605000   0.99885095   -5.7922322    286.82201  0.039507164  0.039975355            3 
  606000   0.98573952    -5.804984    287.90948  0.039591513   0.03995596            7 
  607000    1.0172296   -5.8151679    287.38426  0.039454182  0.039936693            4 
  608000   0.99981827   -5.7943049    288.61902  0.039558527   0.03991715            3 
  609000    1.0095812    -5.787803     288.7966  0.039517871   0.03989859            6 
  610000      1.01594    -5.824466    288.33695  0.039390294    0.0398799            5 
  611000    1.0206936   -5.7663903    290.05677  0.039560388  0.039861428            6 
  612000   0.99930594   -5.8123644    289.83515   0.03946557  0.039843027            3 
  613000    1.0040495   -5.7854602    289.50798  0.039356712  0.039823646            3 
  614000    1.0196632   -5.8389768    288.96862  0.039219411  0.039804313            4 
  615000    1.0097127   -5.8106473    290.02495  0.039298774  0.039784455            2 
  616000    1.0143169   -5.7778182    289.96759  0.039227217  0.039764298            6 
  617000    1.0147078   -5.8450022    290.75895  0.039270523  0.039744796            5 
  618000    1.0235525   -5.8193592     291.0534  0.039246683  0.039724627            5 
  619000   0.98743092   -5.7958869    291.44421  0.039235893  0.039705021            3 
  620000   0.98467219   -5.8194762    291.95285  0.039240975  0.039685274            4 
  621000    1.0042589   -5.8106973    293.14743  0.039338088  0.039665494            3 
  622000    1.0101712   -5.8054367    293.27119  0.039291425  0.039646347            3 
  623000    1.0211824   -5.8253956    293.06619  0.039200935  0.039626935            3 
  624000   0.97433347   -5.8416804    293.02539  0.039132664  0.039608037            2 
  625000    1.0059291   -5.8402617    294.89739  0.039319653  0.039589547            3 
  626000    1.0054223   -5.8057784    294.87225  0.039253495  0.039571584            4 
  627000   0.99667538   -5.8174482    295.60077  0.039287715  0.039553479            5 
  628000    1.0050527   -5.8704398    295.06287  0.039153778  0.039535649            4 
  629000    1.0128011   -5.8244446    296.64521  0.039301167  0.039517214            3 
  630000    1.0031051   -5.7900578    296.30818  0.039194203  0.039499158            3 
  631000    1.0154835   -5.7890105      297.353  0.039270074  0.039480829            2 
  632000    1.0073021   -5.7954541    296.25194  0.039062756  0.039462644            6 
  633000    1.0095841   -5.7993643    296.33634  0.039012157  0.039443415            3 
  634000   0.99045358   -5.8360991    297.19261  0.039063172  0.039424325            4 
  635000    0.9934059   -5.8690631     295.7049  0.038806417  0.039404791            3 
  636000   0.96766553   -5.8419897    296.38939  0.038835088  0.039384811            4 
  637000   0.99847685    -5.834632    298.65541  0.039070567    0.0393654            4 
  638000   0.99070372   -5.8089077    298.65136  0.039008799  0.039345992            3 
  639000   0.98290995   -5.8504592    297.79764  0.038836416   0.03932622            4 
  640000   0.98902169   -5.8544682    298.30278  0.038841507  0.039306032            4 
  641000   0.98939493   -5.8259934    298.98115  0.038869105  0.039285987            4 
  642000   0.99781502   -5.8501037    299.62288  0.038891859  0.039266595            5 
  643000     1.001261   -5.8452342    299.68499  0.038839423  0.039247184            6 
  644000   0.99603331   -5.8684314    299.14639  0.038709418   0.03922749            3 
  645000   0.98079705   -5.7983267    300.98524  0.038886982  0.039207656            5 
  646000   0.98094079   -5.7919165    302.02836  0.038961347   0.03918835            4 
  647000   0.98490132   -5.8692878    300.55511  0.038711374  0.039168444            4 
  648000   0.97979949    -5.812209    300.53579  0.038649149  0.039148183            2 
  649000   0.99475818   -5.8365923    300.79732  0.038623179  0.039128103            6 
  650000   0.98074377   -5.8429541    301.32579  0.038631512  0.039108265            2 
  651000   0.99357653   -5.8298355    301.32354  0.038571882  0.039088558            4 
  652000   0.98367299   -5.8740318    301.42251  0.038525372  0.039068457            2 
  653000   0.97868772   -5.8443927    303.00258  0.038668017  0.039048257            4 
  654000    1.0113155   -5.8171833    303.46119  0.038667329  0.039028095            7 
  655000   0.98035435   -5.8272595    302.92535  0.038540121  0.039007959            6 
  656000   0.98953862   -5.8387559    302.75778  0.038460083  0.038987446            4 
  657000   0.98920708   -5.8343705    303.92133  0.038549128  0.038967542            4 
  658000   0.98750256   -5.8279568    304.18523  0.038523965  0.038947603            4 
  659000   0.97828299   -5.8785125    302.67347  0.038274339  0.038927103            4 
  660000    1.0127281   -5.8257973    304.03358  0.038388078  0.038906432            2 
  661000   0.99127722   -5.8231103    305.08896  0.038463056  0.038886292            4 
  662000   0.98563365   -5.8627356    304.92695  0.038384561   0.03886607            4 
  663000   0.99031846   -5.8702654      304.097  0.038222348  0.038845746            3 
  664000   0.98389378   -5.8584392    305.06134   0.03828581   0.03882534            3 
  665000     0.979066   -5.8656045    305.50043  0.038283262   0.03880513            4 
  666000   0.99624915   -5.8476422    306.63899  0.038368242  0.038784823            5 
  667000   0.99078436   -5.8758018    305.63802  0.038185659  0.038764291            7 
  668000   0.98492195   -5.8638395    306.46525  0.038231693  0.038743513            2 
  669000    1.0018319   -5.8605756    306.80548  0.038216926  0.038722554            5 
  670000   0.99035468   -5.8420047     307.3456  0.038227065  0.038702007            6 
  671000   0.98482669   -5.8794683    306.44062  0.038057702   0.03868135            4 
  672000    1.0023426   -5.8753259    306.75221  0.038039709  0.038660397            3 
  673000   0.99398447   -5.8724697    306.60723  0.037965234  0.038639029            9 
  674000   0.97193765   -5.8464988    306.70202  0.037920625  0.038617362            7 
  675000   0.97710137   -5.8547222    306.94215  0.037894092  0.038596083            5 
  676000   0.98651969   -5.8375826    308.38473  0.038015869  0.038574624            4 
  677000   0.99976615   -5.8730811    308.59051  0.037985046  0.038553007            4 
  678000   0.96787057   -5.8695505    307.25068  0.037764341  0.038530797            5 
  679000    0.9890225   -5.8530706     309.7216  0.038011978  0.038509141            6 
  680000    0.9858778   -5.8753704    308.85348  0.037849691  0.038487987            7 
  681000   0.98212216   -5.8511935    309.47852  0.037870597  0.038466579            6 
  682000   0.98700359   -5.8813795    309.88653  0.037864923   0.03844543            3 
  683000   0.97950234   -5.8984355     310.4383  0.037876806  0.038424646            4 
  684000    0.9845925    -5.877649    311.40838  0.037939617  0.038404037            6 
  685000   0.96604707   -5.8783247    310.31936  0.037751747  0.038383455            4 
  686000   0.99491033   -5.8936059    311.80166  0.037876781  0.038361926            3 
  687000   0.98465308   -5.8769253    311.42278  0.037775689  0.038341204            5 
  688000    0.9919857   -5.8857542     311.8088  0.037767539  0.038319914            7 
  689000   0.97041247   -5.9211966    311.58126  0.037685203  0.038298918            4 
  690000    0.9975262   -5.8480701    312.66903   0.03776196  0.038277727            3 
  691000   0.98817656   -5.8804463    311.82777  0.037605857  0.038257235            5 
  692000   0.98405883   -5.8615523    312.51856  0.037634702   0.03823624            2 
  693000   0.98780161     -5.87754     312.8124  0.037615729  0.038215449            3 
  694000   0.94498508   -5.8449957     313.8266  0.037683309  0.038194472            4 
  695000   0.97756735   -5.8678002    313.44816  0.037583712   0.03817343            7 
  696000   0.98762318   -5.8981718    314.09917  0.037607659  0.038152142            2 
  697000    0.9718906    -5.884048    314.29445  0.037577051  0.038130825            5 
  698000   0.97262906   -5.9034159    314.20448  0.037512474  0.038109639            4 
  699000   0.98014528   -5.8759781     314.7932  0.037528993  0.038088106           11 
  700000   0.98183666   -5.8864095    313.98694  0.037379398  0.038066501            6 
  701000    0.9818879   -5.8603976    315.60633  0.037518584   0.03804501            5 
  702000   0.96568257   -5.8553539    315.27469  0.037425771  0.038022714            6 
  703000   0.97555292   -5.8822566    314.88793  0.037326687  0.038000444            6 
  704000   0.97102657   -5.8898464    316.32054  0.037443246   0.03797857            5 
  705000   0.95454481   -5.8770912    315.61446  0.037306674  0.037956539            4 
  706000   0.95196318   -5.8916832    315.32139  0.037219238  0.037934419            4 
  707000    0.9711295    -5.910215    315.62089  0.037201896  0.037911741            2 
  708000   0.95183444   -5.8463448    317.35448  0.037353399  0.037889364            6 
  709000   0.98275966    -5.905259     316.3161  0.037178667  0.037867523            5 
  710000   0.94703002   -5.9322038    315.83068  0.037069329  0.037844598            4 
  711000   0.95626381   -5.9102455    316.15801  0.037055557  0.037821805            4 
  712000   0.97257952   -5.8824471    317.42015  0.037151234  0.037799543            4 
  713000   0.96963492   -5.8877876    316.70517  0.037015564  0.037776859            4 
  714000   0.97381457   -5.8784423     317.1209  0.037012243  0.037754411           11 
  715000   0.96238592   -5.8904145    317.95704   0.03705793  0.037731793            2 
  716000   0.95816498   -5.8961077    318.43594  0.037061911  0.037708626            8 
  717000   0.98470028   -5.9145974    317.84415  0.036941439  0.037685769            7 
  718000   0.99595825   -5.8955547    318.95844  0.037019317  0.037662729            5 
  719000   0.98091817   -5.9057748    318.18853  0.036878597  0.037639524            3 
  720000    0.9751734   -5.9437121    318.41656  0.036853768  0.037616514            3 
  721000    0.9868791   -5.9036368    319.29735  0.036904455  0.037593698            5 
  722000   0.96919258   -5.9441389     318.8975  0.036807191  0.037570478            2 
  723000    0.9764426   -5.8972847    320.37949  0.036927097  0.037547825            4 
  724000   0.97613812   -5.9206854    319.93383  0.036824796  0.037524742            3 
  725000   0.95574921   -5.8827768    320.31785  0.036818143  0.037502346            6 
  726000   0.96398433   -5.8934097    321.74944  0.036931754  0.037480128            2 
  727000   0.97663719   -5.9367648    321.11759  0.036808527  0.037457913            2 
  728000   0.97146977   -5.9204272     320.4459  0.036681078  0.037435168            6 
  729000   0.97034756   -5.9169537    322.54941  0.036871218  0.037412653            3 
  730000   0.97033398   -5.8851658    322.39596  0.036803192  0.037390051           15 
  731000    0.9449897   -5.8895385    322.18933  0.036729289  0.037367049            6 
  732000   0.96836298   -5.9348869    321.58779  0.036610632  0.037344398            4 
  733000   0.95655192   -5.9453089    321.57559  0.036559298  0.037320955            3 
  734000   0.93599904   -5.9514587    322.47704  0.036611834   0.03729787            7 
  735000   0.95281757   -5.9445638    322.64007  0.036580507   0.03727522            3 
  736000   0.95947578   -5.9587404     321.6118  0.036414379  0.037252363            6 
  737000   0.94890572   -5.8952524    323.07985  0.036530965  0.037229444            5 
  738000   0.97936551   -5.9162332    323.70232  0.036551752   0.03720692            4 
  739000   0.95421368   -5.9729341    322.65116  0.036383758  0.037183443            3 
  740000   0.95722135   -5.9244121    322.73238  0.036343737  0.037160302            2 
  741000   0.95150375   -5.9239566     323.5628  0.036388079   0.03713713            3 
  742000    0.9747242   -5.9406848    323.00144  0.036275993  0.037114072            6 
  743000   0.96273824   -5.8998221    324.60437  0.036406951  0.037090956            4 
  744000   0.95409661   -5.8896089    325.42514  0.036449949  0.037068289            3 
  745000   0.92752408   -5.9399323    324.00509   0.03624218  0.037045456            4 
  746000   0.94176787   -5.8920813    325.76272  0.036389938  0.037022253            4 
  747000   0.93421562   -5.9557238    325.21878  0.036280542  0.036999108            5 
  748000   0.93579186   -5.9218295    326.14542  0.036335274  0.036975685            8 
  749000   0.95117562   -5.9649821    325.07311  0.036167458  0.036952356            8 
  750000   0.96188687    -5.923544     325.6435  0.036182611  0.036929219            4 
  751000   0.95356111   -5.9066614    326.74533  0.036256694  0.036905875            3 
  752000   0.93739418   -5.8969698    327.14602  0.036252883  0.036882598            7 
  753000   0.94625846   -5.9289677     326.2329  0.036103686  0.036859305            4 
  754000     0.965201   -5.9339809    326.21889  0.036054254  0.036835791            6 
  755000   0.96485499   -5.9777603    325.73216  0.035952777  0.036812189            5 
  756000   0.94037655   -5.9459425    326.14043  0.035950224  0.036788331            7 
  757000   0.97426664    -5.915921    328.28161  0.036138442  0.036765053           11 
  758000   0.94400984   -5.9494478    327.23646  0.035975864  0.036741389            4 
  759000   0.94806154    -5.952241    327.35511  0.035941492  0.036718285            5 
  760000   0.95922937   -5.9510575    328.36094  0.036004489  0.036694877            6 
  761000   0.97944219   -5.9529881    327.21517  0.035831709  0.036671374            4 
  762000       0.9567   -5.9243709    328.97833  0.035977508  0.036647581            6 
  763000   0.95997103   -5.9596214    328.41296  0.035868607  0.036624084            4 
  764000   0.93280552   -5.9481638     328.9123  0.035876123  0.036600774            2 
  765000   0.95517579   -5.9350346    330.20576  0.035970126  0.036577803            3 
  766000   0.92781572   -5.9313837    329.43557  0.035839379  0.036554756            4 
  767000   0.91172616   -5.9312869      330.096  0.035864406  0.036531417            4 
  768000   0.94429266   -5.9366082    329.42163  0.035744535  0.036507668            4 
  769000   0.94338988   -5.9175026    330.29659  0.035792869  0.036484074            6 
  770000   0.94262218   -5.9799177    329.71778  0.035683743  0.036460422            2 
  771000   0.95957099   -5.9635083    329.82393  0.035648933   0.03643663            6 
  772000   0.93820414   -5.9609933    330.60885  0.035687484  0.036412859            5 
  773000   0.94111264   -5.9419832    331.77335  0.035766856  0.036389302            5 
  774000   0.95108193   -5.9717074    330.52366  0.035586096  0.036366061            2 
  775000   0.94381833   -5.9301336    331.54865  0.035650392  0.036342604            2 
  776000   0.93395433   -5.9301414    332.21451  0.035675957  0.036319286            7 
  777000   0.93960739   -5.9605318     332.0882  0.035616495  0.036295948            3 
  778000   0.94472636   -5.9787512    331.68643  0.035527681  0.036272301            5 
  779000   0.93131596     -5.95776    331.11864  0.035421335  0.036248592            4 
  780000   0.93945333   -5.9711025    332.65966  0.035540562  0.036224848            6 
  781000   0.93937801   -5.9472012    332.43645  0.035471239  0.036201283            7 
  782000   0.95048032   -5.9379809    332.64051  0.035447624  0.036177342            4 
  783000   0.95136769   -5.9318499     333.1447  0.035456013  0.036153854            6 
  784000   0.95760439   -5.9625017    334.18404  0.035521263  0.036130143            2 
  785000   0.94271083   -5.9757767    333.94341  0.035450468  0.036106855            6 
  786000   0.94836376   -5.9687402    332.69528  0.035273036  0.036083136            6 
  787000   0.93848737   -5.9950199    334.42393  0.035411259  0.036059685            8 
  788000   0.90237149   -5.9565455    334.33717  0.035357146  0.036036122            4 
  789000    0.9199388   -5.9770589     335.5513  0.035440568  0.036012999            4 
  790000   0.93285603   -5.9998883    334.74679  0.035310843  0.035989836            3 
  791000   0.94025075   -5.9902653    335.32668  0.035327294   0.03596676           10 
  792000   0.92569661   -5.9501967     335.8356  0.035336237  0.035944049            6 
  793000   0.92689265   -6.0154838    335.87307  0.035295614  0.035921272            4 
  794000   0.93824437   -5.9800209    335.40089  0.035201605  0.035898526            4 
  795000   0.93861989    -5.997871    336.43648  0.035265878  0.035875641            4 
  796000   0.92396515   -5.9672536    336.99895  0.035280459  0.035853203            5 
  797000   0.91199145   -5.9745386    337.65427  0.035304713  0.035830507            5 
  798000    0.9368025   -5.9681071     337.8658  0.035282561  0.035808336            2 
  799000   0.95012691   -5.9895418     338.2297  0.035276356  0.035786198            3 
  800000   0.94442685     -5.98731    338.53745  0.035264318  0.035764206            6 
  801000   0.93699261   -5.9721993    338.58032  0.035224753   0.03574192            3 
  802000   0.91989502   -5.9863232    337.96133  0.035116514  0.035719786            4 
  803000    0.9297257   -6.0149729    337.60353  0.035035651   0.03569718            5 
  804000   0.91393409   -5.9631227    339.96061  0.035236382  0.035675139            2 
  805000   0.92999806   -5.9935666    339.62598  0.035157968  0.035653314            9 
  806000   0.92318141   -5.9941181    339.01247  0.035050917  0.035631176            8 
  807000   0.92327585    -6.009824    339.17158  0.035023914  0.035608982           10 
  808000    0.9165939   -5.9844307    341.01693  0.035170888  0.035586453            4 
  809000    0.9110084   -6.0026067    339.95104  0.035017618  0.035564103            4 
  810000   0.93629121   -5.9833209    340.47044  0.035027823  0.035542187            7 
  811000   0.94683608    -5.979136    341.33693  0.035073668  0.035520688            5 
  812000   0.90963126   -5.9971917    342.07739  0.035106464  0.035499217            6 
  813000   0.92489065   -5.9880465    343.31125  0.035189755  0.035477708            3 
  814000   0.92987768   -5.9775127     342.7666  0.035090766  0.035456687            5 
  815000   0.91562639   -5.9778813    343.02331  0.035073958  0.035435303            2 
  816000   0.93384391   -5.9769888    343.05876  0.035034596  0.035413753            4 
  817000   0.93862229   -5.9978946    343.37148   0.03502361  0.035392479            2 
  818000   0.92266076   -5.9831949    344.25757  0.035071064  0.035371313            4 
  819000   0.90993249   -6.0154853    343.67809  0.034969281  0.035350068            5 
  820000    0.9314669   -6.0401549    344.19068  0.034978727  0.035328979            6 
  821000   0.92238922    -6.009831    344.30586  0.034947813  0.035308127            9 
  822000   0.93647773   -6.0087363    345.39333  0.035015545  0.035286938            4 
  823000   0.92822827   -6.0142003    345.37506  0.034971149  0.035265934            3 
  824000   0.90806009    -5.959336     347.0392  0.035097006  0.035245432            7 
  825000   0.90021848   -6.0085438    345.18441  0.034867112  0.035225352            4 
  826000   0.92597965   -5.9861041    346.53656  0.034961315  0.035204877            4 
  827000    0.9294058    -6.026124    346.38929  0.034904201  0.035184317            4 
  828000   0.93372404   -6.0279075    346.69932  0.034893249  0.035163984           10 
  829000   0.92908486   -5.9908339    347.27468  0.034908995  0.035143831            4 
  830000   0.91412744   -6.0137927    346.85316  0.034824614    0.0351236            3 
  831000   0.91496374   -6.0122357    349.33734  0.035031823  0.035103511            6 
  832000    0.9303737   -5.9973602    347.09308  0.034764932  0.035083302            3 
  833000   0.93669992   -6.0103644    348.11673  0.034825603  0.035063076            7 
  834000   0.90562404   -6.0085028    348.23129  0.034795292  0.035042856            5 
  835000    0.9203781   -6.0152244     348.1001  0.034740529   0.03502235            7 
  836000   0.91553003   -6.0470862     349.1462  0.034803249  0.035002072            6 
  837000   0.91444502   -6.0125408    348.28169  0.034675596  0.034981671            5 
  838000   0.90613603    -6.016441    349.99857  0.034804949   0.03496135            5 
  839000   0.93705608   -6.0234437    349.45472  0.034709448  0.034941263            5 
  840000   0.92329911   -5.9931667    350.97551  0.034818999  0.034921043            6 
  841000   0.94090714   -6.0610891    348.15076  0.034497697  0.034900406            4 
  842000   0.93420349   -6.0143763    349.59468  0.034599631  0.034879447            5 
  843000   0.89120905   -6.0183738    350.75072  0.034672867  0.034858996            5 
  844000   0.91978137   -6.0101442    350.65419  0.034622254  0.034838464            7 
  845000   0.91762133   -6.0193259    350.57718  0.034573687  0.034818019            6 
  846000   0.93206351   -6.0291828    350.44583   0.03451988  0.034797498            9 
  847000   0.91230652   -6.0617632    348.97116  0.034334038  0.034776755            7 
  848000   0.91826483    -6.017734    350.68364  0.034461836  0.034755933           17 
  849000   0.92360335   -6.0555476    350.18257  0.034372062  0.034734564            4 
  850000   0.90041928   -5.9990507    349.96225  0.034310025  0.034713276            4 
  851000   0.91089424   -5.9989266    351.14637  0.034385661  0.034692109            5 
  852000   0.89738864   -6.0249886    350.24851  0.034257483  0.034671144            8 
  853000   0.91406755   -6.0401553    349.79887  0.034173395  0.034649564            4 
  854000   0.92164946   -6.0574846    349.49645  0.034103869  0.034628014           13 
  855000   0.91839712   -6.0584762    351.12571  0.034222779  0.034606371            5 
  856000   0.91440388   -6.0610001    350.42022  0.034114118  0.034584494            8 
  857000   0.90704081   -6.0372439    351.83935  0.034212305  0.034562944            5 
  858000   0.91365966    -6.061768    350.94319  0.034085392  0.034541271            8 
  859000   0.90171103   -6.0223329    350.88018  0.034039598  0.034519666            3 
  860000   0.90092614   -6.0372106    351.48519  0.034058643   0.03449801            5 
  861000    0.9160983   -6.0327148    352.09179  0.034077796  0.034476286            8 
  862000   0.92294089   -6.0560425     351.4951  0.033980578  0.034454527            4 
  863000   0.91291226   -6.0046574    353.56003  0.034140598  0.034432883            4 
  864000   0.88486275   -6.0491446    351.74231  0.033925763  0.034411155            5 
  865000   0.91350952   -6.0724997    352.12921  0.033923816  0.034389036            5 
  866000   0.90511973   -6.0263661    353.33399  0.034000577  0.034367081            7 
  867000   0.91376972   -6.0650797    353.21732  0.033950146  0.034345165            4 
  868000   0.92142728   -6.0366205    353.47462  0.033935735  0.034323338            5 
  869000   0.90942118   -6.0530171     352.9416   0.03384557  0.034301509            7 
  870000   0.89592668   -6.0704465     352.4125  0.033755986  0.034279583            7 
  871000   0.91170023   -6.0415578    353.68123  0.033838618  0.034257295            5 
  872000   0.88741669   -6.0493765    352.78579  0.033714238  0.034235247            4 
  873000   0.90229956   -6.0571461    353.75481  0.033768118  0.034213129            4 
  874000   0.88219639   -6.0238743     354.1614   0.03376825   0.03419131            4 
  875000   0.91348302   -6.0392269    355.45776   0.03385312  0.034169384           11 
  876000   0.94069698   -6.0699567    355.31403  0.033800802  0.034147537           10 
  877000   0.91430425     -6.07706    354.25964  0.033662071  0.034125632           10 
  878000    0.9084015   -6.0593009     355.6203  0.033752875  0.034103786            6 
  879000   0.89181091   -6.0053889    356.35205   0.03378385  0.034082161            3 
  880000   0.90864032   -6.0335096    354.78779  0.033597328  0.034060392            3 
  881000   0.88667488   -6.0721786    355.05216    0.0335842  0.034038268            3 
  882000   0.90535393   -6.0335399     355.3967  0.033578675  0.034015929            6 
  883000    0.9147382    -6.062435    355.11136  0.033513718  0.033993972            6 
  884000   0.90973508   -6.0485114    356.37054  0.033594508  0.033971904            4 
  885000   0.90119446   -6.0866116    355.38506  0.033463753  0.033949853            5 
  886000   0.92653634   -6.0829879    355.41661  0.033428951  0.033927679            2 
  887000   0.91306683   -6.0697673    355.37175  0.033387049  0.033905444            2 
  888000   0.91190332   -6.0513548    356.65718  0.033470081  0.033883223            3 
  889000   0.90951016   -6.0943022    356.35419  0.033404029  0.033860934            6 
  890000   0.90612305   -6.0605933    356.53633  0.033383552  0.033838691            5 
  891000   0.90570286   -6.0747867    357.73993  0.033458654  0.033816593            5 
  892000   0.90982969   -6.0565883    357.64242  0.033412034  0.033794546            3 
  893000   0.90590271   -6.0737969    356.23439  0.033243224  0.033772521            4 
  894000   0.89979623   -6.0650288    357.78674   0.03335074  0.033750684            9 
  895000   0.90863054   -6.0761684    359.07219  0.033433165  0.033728818            3 
  896000   0.89656536   -6.0702735    357.49081  0.033248774  0.033706953            6 
  897000   0.88927564   -6.0792782    357.69338  0.033230526  0.033684803            8 
  898000   0.88143331    -6.041158    359.12481  0.033326356  0.033662764            4 
  899000   0.90178282   -6.0637365    359.02395  0.033279936  0.033640507            6 
  900000   0.89046834   -6.0459654     358.5649  0.033200454  0.033618229            5 
  901000   0.90453148   -6.0673883    358.76911  0.033182492  0.033595994            8 
  902000   0.89988424   -6.0562498    359.03275  0.033170062  0.033573884            5 
  903000   0.87393994   -6.0665188    360.25571  0.033246189  0.033552139            5 
  904000   0.88834316   -6.0783638    359.35887   0.03312674  0.033530439            5 
  905000   0.88601819   -6.0619885    360.94653  0.033236329  0.033508808            2 
  906000   0.89939674   -6.0181959    361.59698  0.033259472  0.033487353            4 
  907000   0.88382491    -6.068312     360.1267  0.033087716  0.033465996            5 
  908000   0.87982792   -6.0793451    360.82717  0.033115563  0.033444289           10 
  909000   0.87862654    -6.085576    361.12982  0.033106878  0.033422795            5 
  910000   0.88759433   -6.0777234    361.53618  0.033107708  0.033401527           10 
  911000   0.88728467   -6.1038872    361.15703  0.033036684  0.033379796            6 
  912000   0.91139417   -6.0741066    361.68788  0.033048965  0.033358016            6 
  913000    0.8919612   -6.1213556    359.55625  0.032818205  0.033336187           12 
  914000   0.88215421   -6.0991903    360.03737  0.032826164  0.033314372            7 
  915000   0.89223272   -6.1122964    361.12808  0.032889625  0.033292478            6 
  916000   0.88604386   -6.0866101    362.20882   0.03295204  0.033270931            7 
  917000   0.88045404   -6.1256234    361.28629  0.032832269  0.033249383            9 
  918000   0.88109458   -6.0940463    362.33947  0.032892109  0.033227733            6 
  919000   0.90189118   -6.0853133    362.43589  0.032865061  0.033205982            3 
  920000   0.88839601    -6.116565      361.648  0.032757971  0.033184491            5 
  921000    0.8794462   -6.1346095    360.95489   0.03265969  0.033162571            3 
  922000     0.874556   -6.0798296    362.47892  0.032762013   0.03314057            6 
  923000   0.87326806   -6.0962584    361.84721  0.032669484  0.033118648            5 
  924000   0.89783486    -6.103644    363.00161  0.032738241  0.033096663            8 
  925000   0.88751336    -6.129792     363.0344  0.032705802  0.033074814           10 
  926000    0.8752931   -6.1225535    363.74891  0.032734783   0.03305314            4 
  927000   0.87971926   -6.0880278    362.81089  0.032615146  0.033031428            3 
  928000   0.89649084   -6.0887515    363.40226  0.032633105  0.033009541            7 
  929000   0.87159037   -6.1113227    363.71029  0.032625609   0.03298759            4 
  930000   0.87877039   -6.0890099    364.49596  0.032660928   0.03296594            8 
  931000   0.89248826    -6.104456    362.44428  0.032442202  0.032944085           13 
  932000   0.86223618   -6.1035444    363.09932  0.032465962  0.032922029            3 
  933000   0.86705364   -6.1157649    363.29896  0.032448996  0.032899634            3 
  934000   0.89063868   -6.0929836    363.92883  0.032470452  0.032877439            8 
  935000   0.88657161   -6.1051984    363.55378  0.032402297  0.032855246            3 
  936000   0.89202551   -6.1411327    363.30754  0.032345757  0.032832755           10 
  937000   0.86550701    -6.106757    363.11153  0.032293804   0.03281023            9 
  938000   0.87478021   -6.1314903    364.04239  0.032342075  0.032787671            6 
  939000   0.89209404   -6.1372834    363.38592  0.032249372  0.032765001           11 
  940000   0.87370879     -6.10908    363.51277  0.032226309  0.032742459            5 
  941000   0.90193491   -6.0868915    364.68947  0.032296269  0.032720082            7 
  942000   0.86937962   -6.1031331     364.0071  0.032201619  0.032697507            3 
  943000   0.86898111   -6.1300232    363.42623  0.032116139   0.03267481            4 
  944000   0.87927029    -6.151028    363.94295  0.032127732  0.032651705            3 
  945000   0.87733366   -6.1341585    363.99452  0.032098282  0.032628393            3 
  946000   0.87456072   -6.1500286    362.71346  0.031951503  0.032605029            6 
  947000    0.8805129   -6.1397311    363.29325  0.031968783  0.032581678            5 
  948000    0.8583882   -6.1170258    364.94777    0.0320805  0.032558233            6 
  949000   0.88730379   -6.1274477    365.24688  0.032072961  0.032535353            6 
  950000   0.88726667   -6.1248875    364.53522  0.031976773   0.03251227            6 
  951000    0.8499924   -6.1362801     363.7872  0.031877602  0.032489268            7 
  952000   0.88169581   -6.1443401    364.06654  0.031868569  0.032466216            6 
  953000   0.88541655   -6.1402203    365.08901  0.031924538  0.032443229            6 
  954000    0.8875806   -6.1342098    364.10622  0.031805225  0.032420321            8 
  955000   0.87343957   -6.1207243    365.57096  0.031899735  0.032397504            5 
  956000   0.85348417   -6.1281977    365.63753  0.031872169  0.032374814            3 
  957000    0.8814009   -6.1305362    365.63079  0.031838278  0.032351779            3 
  958000   0.86288128   -6.1113831    365.93524  0.031831527  0.032328944            9 
  959000   0.88219031   -6.1621366    364.93626  0.031711527  0.032306226            5 
  960000   0.88027265   -6.1437386    365.96164  0.031767504   0.03228346            4 
  961000   0.90019873   -6.1711641    366.47215  0.031778716  0.032260798            8 
  962000   0.85244542   -6.1457523    366.62136  0.031758607  0.032237898            6 
  963000   0.88348079   -6.1452489    365.79269  0.031653919  0.032214966            4 
  964000   0.86767371   -6.1265383    367.60344  0.031777614  0.032192288            6 
  965000    0.8709342   -6.1521993    366.19618  0.031623159  0.032169534            8 
  966000   0.87565641    -6.168983    366.39378  0.031607469  0.032146813            7 
  967000   0.87416996   -6.1515874     368.4037  0.031747992  0.032124206            7 
  968000   0.86864699   -6.1369903    368.17848  0.031695806  0.032101832            2 
  969000    0.8558906   -6.1131058    368.38556  0.031680905  0.032079347            6 
  970000   0.86092848   -6.1488366    366.93868  0.031523942  0.032056496           10 
  971000   0.87623012   -6.1463329    368.15693  0.031596029  0.032033917            6 
  972000   0.86944015   -6.1639933    367.54219  0.031510819  0.032011411            5 
  973000   0.86434441   -6.1494934    368.18664  0.031533628   0.03198893            5 
  974000   0.87000461   -6.1374549      368.481  0.031526438   0.03196645            5 
  975000   0.87359219   -6.1516729    368.30687   0.03147922  0.031943956            3 
  976000   0.85120719   -6.1802696    367.80227  0.031403883  0.031921353            5 
  977000   0.85025624   -6.1432813    368.18302  0.031404215  0.031898988            6 
  978000    0.8495183   -6.1625997    368.77843  0.031422839   0.03187646           10 
  979000   0.86178906   -6.1397814    368.97881  0.031407798   0.03185399            6 
  980000   0.86472509    -6.121584    371.32822  0.031575529  0.031831639           10 
  981000   0.86609517   -6.1612342    369.65413  0.031401132  0.031809383           12 
  982000   0.86516333   -6.1736592    369.93633  0.031393104  0.031787188            5 
  983000   0.88578554   -6.1485693    371.15028  0.031464079  0.031764878            7 
  984000   0.86395229   -6.1777455    369.64367  0.031304512  0.031742511           12 
  985000   0.85789435   -6.1702107    368.83547  0.031204354  0.031719865            8 
  986000   0.87038143   -6.1601153    371.32692  0.031383276  0.031697416            5 
  987000   0.85234509   -6.1146668     370.7419  0.031302085  0.031675176            3 
  988000   0.87471134   -6.1421479    370.22271  0.031226612  0.031653169           11 
  989000   0.86743994   -6.1310221    371.25655  0.031282149  0.031630972            6 
  990000   0.85150869   -6.1419189    370.65454  0.031199877  0.031608783            9 
  991000    0.8672157   -6.1408873    371.31007  0.031223517  0.031586607            6 
  992000   0.84644351   -6.1211919    372.72846  0.031311195  0.031564521            5 
  993000   0.86607211   -6.1822461    372.03555  0.031221513  0.031542744            5 
  994000   0.87192792    -6.161741    372.14674  0.031199424  0.031520857            3 
  995000   0.86535413   -6.1588541    371.40224  0.031105715   0.03149884            8 
  996000      0.85473   -6.1694247    372.03857  0.031127725  0.031476611            6 
  997000   0.84943801   -6.1477448    372.01813  0.031094795  0.031454282            7 
  998000   0.85198727   -6.1937469    370.60909  0.030945983   0.03143183           10 
  999000   0.86122533   -6.1787071    370.71353  0.030923718   0.03140919            6 
 1000000   0.82726615   -6.1668256    371.87283  0.030989402  0.031386681            5 
 1001000   0.84406629   -6.1614999    372.22173   0.03098749  0.031364445           11 
 1002000   0.85783825    -6.191353    371.38576  0.030887039  0.031342198           10 
 1003000   0.85372964   -6.1920685    371.73397  0.030885176  0.031319916            4 
 1004000   0.85532573   -6.1455668    372.90996  0.030952022  0.031297963            9 
 1005000   0.84150359   -6.1906284    373.92346  0.031005262  0.031276197            5 
 1006000   0.86504397   -6.1599676    374.43205  0.031016572  0.031254632            5 
 1007000   0.84450021   -6.1481915    374.19681  0.030966304  0.031232806            6 
 1008000   0.82390549   -6.2035656      373.026   0.03083879  0.031210968            5 
 1009000   0.84014255   -6.1987481    373.64162   0.03085907  0.031189079            4 
 1010000   0.85330917   -6.2119352    373.67889  0.030831592  0.031166873            4 
 1011000   0.85053096   -6.1950381     374.2434  0.030847626  0.031144977            3 
 1012000   0.85595407   -6.1993419    373.59511  0.030763761  0.031123264            4 
 1013000   0.86479897   -6.1735138     375.2933  0.030873092  0.031101595            6 
 1014000   0.85604529   -6.1876587    374.84539  0.030805834  0.031080069            5 
 1015000   0.85780744     -6.18284    374.84985   0.03077585   0.03105849            6 
 1016000   0.84186066    -6.181405    376.21083  0.030857187  0.031036969            5 
 1017000   0.85553722   -6.1804154    375.49165  0.030767916  0.031015492            4 
 1018000   0.85763264   -6.1674607    376.49922  0.030820172  0.030993963           13 
 1019000   0.84127132   -6.1983176     374.5303  0.030628909  0.030972414            7 
 1020000    0.8496014    -6.174454     376.2229  0.030737165  0.030950773            6 
 1021000   0.84406479   -6.2070366    375.87986  0.030679061  0.030929045           18 
 1022000   0.82592404   -6.1953316    375.79402  0.030642044  0.030907552            5 
 1023000   0.84176393   -6.1793905    375.80988  0.030613382   0.03088601            5 
 1024000   0.84620794   -6.1969201    375.74095  0.030577877  0.030864396            7 
 1025000   0.84237681   -6.1799469    375.76227  0.030549778  0.030842644            5 
 1026000   0.85557929   -6.1908467    375.98998  0.030538497  0.030821044           18 
 1027000   0.84227328   -6.2081956    375.07434  0.030434464  0.030799175            4 
 1028000   0.83412055   -6.1980613       375.93  0.030474222   0.03077749           11 
 1029000   0.85298649   -6.2059386    376.14573  0.030462077  0.030755975            3 
 1030000   0.85013078   -6.2148578    376.76205  0.030482367  0.030734282            7 
 1031000   0.85122696   -6.2155471    376.41281  0.030424572  0.030712556            7 
 1032000   0.84168468   -6.2092079    375.61706  0.030330835  0.030690798            9 
 1033000   0.83060397   -6.2228635    376.40485  0.030365025  0.030668912            4 
 1034000   0.84377103   -6.2285397    375.83324  0.030289591  0.030646942           17 
 1035000   0.82272221   -6.2283124    375.73217  0.030252187  0.030624962            5 
 1036000   0.86417915   -6.2071526    377.36942  0.030354683  0.030603108            8 
 1037000   0.84861919   -6.2004217    376.93039  0.030290131  0.030581342            9 
 1038000   0.83349298    -6.200286    378.61056  0.030395838  0.030559634            6 
 1039000   0.83153049   -6.2142949    377.58102  0.030284009  0.030537961            8 
 1040000   0.82827196   -6.1974347    378.51016   0.03032934  0.030516291            6 
 1041000   0.84094638   -6.2272621    377.24239  0.030198718  0.030494655           10 
 1042000   0.82398015   -6.2472337    377.07701  0.030156511  0.030472988            8 
 1043000    0.8195352   -6.2134562    378.39436  0.030232851  0.030451374            6 
 1044000   0.82221613   -6.2129037      377.957  0.030168982  0.030429647            4 
 1045000   0.84252185   -6.1915684    378.25443   0.03016383  0.030407744            5 
 1046000   0.84778498   -6.2253541    378.02673  0.030116852   0.03038608           10 
 1047000    0.8372234   -6.2180807    377.87237  0.030075801   0.03036426           13 
 1048000   0.83992192   -6.2365494    377.88862  0.030048395  0.030342273            6 
 1049000   0.83734995   -6.2265445    377.83697  0.030015647  0.030320485            9 
 1050000   0.83733716   -6.2125112      378.067  0.030005317  0.030298732            9 
 1051000    0.8299695   -6.1993699    378.67546  0.030025012  0.030277129            4 
 1052000   0.84389918   -6.2611171    378.47962  0.029980959  0.030255657            5 
 1053000   0.84320181   -6.2214736    379.98639  0.030071731  0.030234157            7 
 1054000   0.85407504    -6.246284    378.44262  0.029921144  0.030212833           10 
 1055000   0.82749639   -6.2316035    377.91932  0.029851447  0.030191254            6 
 1056000   0.82488051   -6.2422737    378.74208  0.029888106  0.030169558            7 
 1057000   0.83062062   -6.2544565    378.54323  0.029844152  0.030147817           10 
 1058000   0.85472138    -6.251492    378.63919  0.029823502  0.030126064           14 
 1059000   0.83085917    -6.197106    379.51356  0.029864146  0.030104483           15 
 1060000    0.8287947   -6.2706961    378.61044  0.029764971  0.030082968            6 
 1061000   0.83594902   -6.2457466    380.10371  0.029854202  0.030061337            5 
 1062000   0.81912158   -6.1974476    380.61124  0.029865916  0.030039687            4 
 1063000    0.8287582   -6.2154047    379.54491  0.029754227  0.030018192            5 
 1064000   0.80523734   -6.2395325    380.12056  0.029771347  0.029996614            4 
 1065000   0.83633887     -6.21509    380.69786  0.029788565  0.029974945            4 
 1066000   0.84354871   -6.2384988    380.79836  0.029768477  0.029953441            9 
 1067000   0.81271986   -6.2584476    379.70672   0.02965532  0.029931758           13 
 1068000   0.82124973   -6.2393066    380.18398  0.029664792  0.029910041            6 
 1069000   0.81021508   -6.2383828    379.86457  0.029612143  0.029888051            8 
 1070000   0.84229362   -6.2386551    380.20344   0.02961086  0.029866431            5 
 1071000   0.81950524   -6.2458067    380.28114  0.029589257  0.029844644            8 
 1072000   0.83567362   -6.2332342    380.51366  0.029579731  0.029822779            5 
 1073000   0.83525407   -6.2440526    379.68775   0.02948802  0.029801001            7 
 1074000   0.81340198    -6.257056    379.95813  0.029481543  0.029779273            4 
 1075000   0.81144067   -6.2760126    379.57316  0.029424276  0.029757441            8 
 1076000   0.82084748   -6.2490852    379.56206   0.02939607  0.029735474            8 
 1077000   0.83291141   -6.2348254    381.24593  0.029499066  0.029713875            6 
 1078000   0.82642774   -6.2375885    381.03656  0.029455516  0.029692046            7 
 1079000   0.81843058   -6.2707093    379.85982  0.029337335  0.029670183            8 
 1080000   0.82760671   -6.2405634    381.24832  0.029417309   0.02964821            5 
 1081000   0.81025582    -6.276745    380.49175  0.029331772  0.029626348            3 
 1082000   0.81540421    -6.257048    380.41706  0.029298911  0.029604559            9 
 1083000   0.79885091   -6.2865042    380.42676  0.029272604  0.029582617            5 
 1084000   0.81965066   -6.2750133    380.36821  0.029241099  0.029560782           11 
 1085000   0.82150254   -6.2492515    381.56512  0.029306077   0.02953896           11 
 1086000   0.82661867   -6.2543106    381.73957  0.029292477  0.029517343            7 
 1087000   0.81107997   -6.2661288    382.06186  0.029290237  0.029495754           13 
 1088000   0.83321025   -6.3107401    381.34133  0.029208129  0.029474136            6 
 1089000   0.81838511   -6.2945564    381.86739  0.029221563  0.029452491            8 
 1090000   0.81864197   -6.2586842    381.92695  0.029199308  0.029430819            8 
 1091000   0.81629934   -6.2558591    382.38916  0.029207849  0.029409282            4 
 1092000   0.80154864   -6.3046417    380.90631  0.029067942   0.02938774           21 
 1093000   0.82999349   -6.2390885    383.30288  0.029224069  0.029366168           15 
 1094000   0.81955215    -6.268435    382.54057  0.029139288  0.029344677            3 
 1095000   0.81319727   -6.2764023    381.67035   0.02904645  0.029322933            4 
 1096000    0.8078205    -6.286886    382.84929  0.029109587  0.029301215            6 
 1097000   0.81318025   -6.2998476    382.64134  0.029067255  0.029279827            9 
 1098000   0.81223436   -6.2957337    382.57365  0.029035644  0.029258302            7 
 1099000   0.81901672   -6.2946201    383.36239  0.029069032  0.029237012            4 
 1100000   0.82749545   -6.2922549    382.83814  0.029002889  0.029215665            7 
 1101000   0.81429468   -6.2861121    382.25921  0.028932729  0.029194241           10 
 1102000   0.81814407   -6.2839495    382.90839  0.028955565  0.029172934            5 
 1103000   0.80785077   -6.2956634    384.35836   0.02903886  0.029152021            9 
 1104000    0.8049623   -6.2601547    384.42339  0.029017466  0.029131012            5 
 1105000   0.81349928   -6.2848142    384.40736  0.028989997  0.029110026            5 
 1106000     0.804758   -6.2677987    384.54966  0.028974507  0.029088852            9 
 1107000   0.81906698   -6.2506952    385.71079  0.029035741  0.029067902            7 
 1108000   0.80525776   -6.2584407    385.17969  0.028969591  0.029046949           12 
 1109000   0.81802609   -6.2820931    385.63966  0.028978033  0.029026036            7 
 1110000   0.80968968   -6.3095438     383.8535   0.02881783  0.029005176            9 
 1111000   0.81519027   -6.2887064    385.79314  0.028937379  0.028984074            8 
 1112000   0.80805867   -6.3116351    384.17884  0.028790381  0.028963062            6 
 1113000    0.8045497   -6.2981159    386.30162  0.028923452  0.028942257            9 
 1114000   0.79455384   -6.3056037    385.55804  0.028841864  0.028921364            6 
 1115000   0.81450354   -6.3061923    385.07537  0.028779923  0.028900525            7 
 1116000   0.80610973   -6.2922655    385.61736  0.028794605  0.028879727            5 
 1117000   0.80247641   -6.3029131    385.74189  0.028778118  0.028859036           10 
 1118000   0.81485746   -6.2733979    386.62523  0.028818219  0.028838489            9 
 1119000   0.79797055   -6.2702978     386.7285  0.028800156  0.028818009            7 
 1120000   0.81666424   -6.2702801    387.40008  0.028824411  0.028797504            5 
 1121000   0.80830444   -6.2804033    386.41102  0.028725173  0.028777026            9 
 1122000   0.79713446   -6.2717137    387.16374  0.028755477  0.028756508            5 
 1123000   0.81586211   -6.2953613    385.45839  0.028603324  0.028736172            5 
 1124000   0.80681125   -6.2959821    386.90779  0.028685334  0.028715774           15 
 1125000   0.80417933   -6.3010129    386.68927   0.02864365  0.028695293            4 
 1126000   0.81136878   -6.2979823    386.85248   0.02863029  0.028674795            4 
 1127000   0.78681104   -6.3227031     386.8653  0.028605834  0.028654354            7 
 1128000   0.80553051   -6.3167002    386.54243  0.028556622  0.028633785            7 
 1129000   0.80551665   -6.3210521    386.40422  0.028521126  0.028612997            9 
 1130000    0.7838094   -6.2959126    386.86293  0.028529714  0.028592323            5 
 1131000   0.79686596    -6.330002    386.51602  0.028478929  0.028571712           11 
 1132000   0.81035927   -6.3184734    386.96011  0.028486463  0.028550958            8 
 1133000   0.80142068   -6.2861618     387.8197  0.028524544  0.028530222            6 
 1134000   0.80431456   -6.3200969    388.00118  0.028512726  0.028509673            5 
 1135000   0.78585721     -6.33363    387.19411  0.028428349  0.028489098           12 
 1136000   0.79737701     -6.30809    387.23582  0.028406383  0.028468348            8 
 1137000    0.7998348   -6.2921358    386.62443   0.02833659  0.028447679            7 
 1138000   0.79095565   -6.3337619    388.13774  0.028422506  0.028427036            8 
 1139000   0.79449516   -6.2777577    388.09527  0.028394445  0.028406561            5 
 1140000   0.79237192   -6.2996221    388.91994   0.02842982  0.028386184            6 
 1141000   0.79845791   -6.3011151    387.99083  0.028337046  0.028365824            7 
 1142000   0.80416405   -6.3319646    387.45518  0.028273145  0.028345316           10 
 1143000   0.80410044   -6.3256723    387.33985      0.02824  0.028324521            5 
 1144000   0.77534937   -6.3320824    387.43427  0.028222193  0.028303614            4 
 1145000   0.79690954   -6.3400408     387.0778  0.028171601  0.028282548           14 
 1146000   0.79180497   -6.3370301     387.0468  0.028144764  0.028261462           14 
 1147000    0.7844065   -6.3655919    386.65334   0.02809164  0.028240308            8 
 1148000   0.78474431   -6.3198796    386.17278  0.028032287  0.028219081            7 
 1149000   0.78990206   -6.3374313    387.48568   0.02810311  0.028197858           13 
 1150000   0.79904919   -6.3325361    388.00626  0.028116395  0.028176755           10 
 1151000   0.77230155   -6.3138857    387.75494  0.028073772  0.028155786            8 
 1152000   0.77877852   -6.3220317    386.60841  0.027966465  0.028134787            9 
 1153000    0.7941427   -6.3196918    387.48081  0.028005263    0.0281137            7 
 1154000   0.78391346   -6.3389171    387.25011  0.027964335  0.028092547            7 
 1155000   0.80310093   -6.3524441     387.4234  0.027952626  0.028071356            7 
 1156000   0.79510137   -6.3651363    386.90653  0.027891185   0.02805044            8 
 1157000   0.76193872   -6.3133922    387.76779  0.027929112  0.028029472            9 
 1158000   0.78238692    -6.317774    387.21627  0.027865305  0.028008593           11 
 1159000    0.7750137   -6.3627119    386.87802  0.027816941   0.02798761           19 
 1160000   0.78709913   -6.3286793    388.82572  0.027932882  0.027966731            9 
 1161000   0.78747147   -6.3548073    388.24369  0.027867047  0.027945598            7 
 1162000   0.80962418   -6.3669924    387.56448  0.027794355  0.027924519            5 
 1163000   0.79925134   -6.3750743    387.21357  0.027745312  0.027903424           14 
 1164000   0.78833966   -6.3622271     388.1663  0.027789684  0.027882235            4 
 1165000   0.78374038   -6.3796746    387.08619  0.027688569  0.027861252            5 
 1166000   0.78019153   -6.3300787    387.99941  0.027730089  0.027840214           11 
 1167000   0.78924898   -6.3339826    388.81254  0.027764391  0.027819198           12 
 1168000   0.79203411   -6.3188252    388.74719  0.027735958  0.027798402            9 
 1169000   0.77692836   -6.3364312    388.37923  0.027686002  0.027777492           10 
 1170000   0.78638447   -6.3407104    388.25899  0.027653775  0.027756566            9 
 1171000   0.77507555   -6.3166324    389.05364  0.027686709  0.027735728            7 
 1172000   0.76932409   -6.3472444     388.4238  0.027618302  0.027714883           12 
 1173000   0.78022396   -6.3618219    389.19952  0.027649866  0.027693977           11 
 1174000   0.78615116   -6.3643337    387.85497  0.027530875  0.027672933           11 
 1175000   0.77932988   -6.3664029    388.99767  0.027588487  0.027652032           16 
 1176000   0.77954643   -6.3604009    387.58278  0.027464766  0.027631126           20 
 1177000   0.77719915   -6.3506669    388.73619  0.027523095  0.027610332            8 
 1178000   0.78978283    -6.375763    389.50674   0.02755424  0.027589446           13 
 1179000   0.78612313   -6.3476197    389.44334  0.027526388  0.027568568           20 
 1180000   0.77863707   -6.3386898    389.51586  0.027508182  0.027547733            6 
 1181000    0.7677638   -6.3761161    389.00038  0.027448517  0.027526881           16 
 1182000   0.78817516   -6.3611878    390.49558  0.027530709  0.027506133            4 
 1183000    0.7731559   -6.3376823    390.37273  0.027498784  0.027485464           17 
 1184000   0.78481494   -6.3583154    389.98727  0.027448428  0.027464781            8 
 1185000   0.78548771   -6.3688282     389.6026  0.027398213  0.027444134            5 
 1186000   0.78069457   -6.3447814    389.95963  0.027400199  0.027423433            8 
 1187000   0.77590076   -6.3384712    389.99257  0.027379428  0.027402785            9 
 1188000   0.79258085   -6.3783301    389.94437     0.027353  0.027382057            7 
 1189000   0.77823303   -6.3860438    389.98907  0.027333128  0.027361236           10 
 1190000   0.76434901   -6.3715555    389.92812   0.02730589  0.027340372            8 
 1191000   0.77214532    -6.325134    390.97714  0.027356363  0.027319755            6 
 1192000   0.76423732   -6.3606743    389.69607  0.027243853  0.027299043           10 
 1193000   0.77026293    -6.368875     390.1878  0.027255365   0.02727836            5 
 1194000   0.75673001   -6.3957586     389.3889  0.027176779  0.027257593           11 
 1195000    0.7802758   -6.3651155    390.23405  0.027212974  0.027236812            7 
 1196000   0.79257915   -6.3503745    390.03372  0.027176263  0.027216192            7 
 1197000   0.79322107   -6.3686384    390.86148  0.027211186  0.027195506            6 
 1198000   0.76316901   -6.3667286    390.94386  0.027194203  0.027174863            6 
 1199000   0.78898345   -6.3955656    391.14883  0.027185768   0.02715418            7 
 1200000   0.77734797   -6.3583604     391.0396  0.027155528  0.027133649           12 
 1201000    0.7576091   -6.3711791    390.67133  0.027107364  0.027113045            9 
 1202000   0.76316441   -6.3500528    391.06049  0.027111792  0.027092425            7 
 1203000   0.75551839   -6.3658112    391.07154  0.027090021  0.027071839           15 
 1204000   0.77880068   -6.3886349    390.32946  0.027016158  0.027051264           10 
 1205000   0.77745967   -6.4064668    390.73455  0.027021753  0.027030463            6 
 1206000   0.77053451   -6.3984543     391.4493  0.027048735  0.027009896           11 
 1207000   0.76804195   -6.3784329    389.68178  0.026904293  0.026989325            3 
 1208000   0.76805056    -6.407768    390.19262  0.026917261  0.026968734            7 
 1209000   0.77469095   -6.3975791    390.35671  0.026906307  0.026948219            7 
 1210000   0.76965437    -6.402602     390.5306  0.026896047  0.026927694           17 
 1211000   0.78184027   -6.3846611    390.25993  0.026855211  0.026907141            2 
 1212000   0.78324158   -6.3894825    392.39856  0.026980099  0.026886733            8 
 1213000   0.78539033   -6.4214882    391.42331  0.026890857  0.026866369            2 
 1214000   0.75739457   -6.3692281    391.39175   0.02686654  0.026845953           15 
 1215000   0.75370838   -6.3756558    392.23183  0.026902046  0.026825512           11 
 1216000   0.76077266    -6.367964    392.19621  0.026877481  0.026805093            6 
 1217000   0.78352197    -6.379821    392.18639  0.026854724  0.026784734            7 
 1218000   0.77007837   -6.3656908    391.36365  0.026776385  0.026764567           10 
 1219000   0.77129068   -6.4055648    390.94292  0.026725658  0.026744148           11 
 1220000   0.75595939   -6.4131134    392.11494  0.026783808  0.026723722            5 
 1221000    0.7652405   -6.3852909    392.76229  0.026806053  0.026703405            5 
 1222000   0.74621151   -6.3911557    392.72693  0.026781705  0.026683118            6 
 1223000   0.78101037   -6.3732727    391.90606  0.026703875  0.026662933            5 
 1224000   0.76084645   -6.4230025    391.96821  0.026686289  0.026642739            6 
 1225000   0.77544961   -6.3792033    392.89061  0.026727253   0.02662256            5 
 1226000   0.75515935    -6.418739    391.88014  0.026636769  0.026602335           10 
 1227000   0.75568386   -6.4054051    392.31284  0.026644447  0.026582095           11 
 1228000   0.75372914   -6.3781711    392.92908  0.026664569  0.026561946           12 
 1229000   0.76241834    -6.386851    393.88253  0.026707522  0.026541811            8 
 1230000   0.77434816   -6.4029549    393.13513  0.026635171  0.026521809            5 
 1231000   0.77458434   -6.4010875    394.75836   0.02672342  0.026501776            7 
 1232000   0.77277931   -6.4324934    392.20052  0.026528715  0.026481722            9 
 1233000    0.7747793   -6.3791762    392.54881  0.026530738  0.026461604            4 
 1234000   0.75487611   -6.4051967    393.33889  0.026562594  0.026441488           11 
 1235000   0.76163307   -6.4079118    392.79516  0.026504397   0.02642142            8 
 1236000   0.76564613   -6.4219563       392.55  0.026466424  0.026401385           12 
 1237000    0.7643669   -6.4184325    392.77919  0.026460468  0.026381345           14 
 1238000   0.75542328   -6.4215806    393.46345  0.026485154  0.026361311            5 
 1239000   0.74961383   -6.4283333    393.06599  0.026437045  0.026341117           16 
 1240000   0.76511539   -6.4253458    392.88084  0.026403282  0.026320916           12 
 1241000   0.74597143   -6.4342255    392.63647  0.026365597  0.026300504           10 
 1242000   0.76372881   -6.4193271    391.78061  0.026286944  0.026280136            7 
 1243000   0.75003966   -6.4322629    392.98306  0.026346411  0.026259795            6 
 1244000    0.7587911    -6.434946    391.52136  0.026227315  0.026239521            8 
 1245000   0.75368075   -6.4284994    393.13096  0.026313987  0.026219381           16 
 1246000     0.761967   -6.4274182    392.98033  0.026282794  0.026199251           10 
 1247000   0.75540774   -6.4135717    393.74946  0.026313116  0.026179244           15 
 1248000   0.73822915   -6.4238568    393.50051  0.026275408  0.026159187           12 
 1249000   0.74746173   -6.4384095    391.71952  0.026135543  0.026139197            5 
 1250000   0.75547062   -6.4540428    392.65274  0.026176849  0.026118987            8 
 1251000   0.76025054   -6.4597162     393.2277  0.026194225  0.026098833            7 
 1252000   0.76705362   -6.4296367    392.87505   0.02614983  0.026078713           14 
 1253000   0.75701115   -6.4362694     393.7498  0.026187137   0.02605873            5 
 1254000   0.74921052   -6.4619193    393.09544   0.02612277  0.026038587            6 
 1255000   0.76982504   -6.4495248    392.72381  0.026077278  0.026018503            5 
 1256000    0.7494669   -6.4189533    393.55457  0.026111635  0.025998412           11 
 1257000    0.7607187   -6.4449434    393.99907  0.026120331  0.025978391           10 
 1258000   0.75798873   -6.4427957     393.8639  0.026090613  0.025958342           16 
 1259000   0.76082765   -6.4412419    393.71028  0.026059722  0.025938323           18 
 1260000   0.76620653   -6.4463575    393.99449  0.026057837  0.025918319            9 
 1261000   0.74995303   -6.4380563    393.76241  0.026021835   0.02589846            8 
 1262000   0.75458286   -6.4506003    393.60749  0.025990986  0.025878532           12 
 1263000   0.76130626   -6.4542257    394.04311  0.025999149  0.025858676           15 
 1264000   0.77190218   -6.4425132    393.86015  0.025966519  0.025838777            8 
 1265000   0.73098485   -6.4275078    394.27879   0.02597357  0.025819021           18 
 1266000   0.76647631   -6.4185001    395.35463  0.026023869  0.025799392           10 
 1267000   0.75879655   -6.4456549    394.33694  0.025936394    0.0257797           13 
 1268000   0.74442564   -6.4425963    395.04852  0.025962705  0.025759956            5 
 1269000   0.74401969   -6.4357903    395.24197   0.02595495  0.025740375            9 
 1270000   0.74926193   -6.4770626     393.3213  0.025808484  0.025720647            6 
 1271000   0.74191023   -6.4582436    393.74526  0.025815976  0.025700938            9 
 1272000   0.73759871   -6.4524136    394.95708  0.025875071  0.025681213           13 
 1273000   0.73538321   -6.4580158    395.26968  0.025875208  0.025661596           22 
 1274000    0.7241921   -6.4785055    394.30925  0.025792076  0.025641916           12 
 1275000   0.72923717   -6.4479585    394.22923  0.025766616  0.025622177            7 
 1276000   0.74856737   -6.4512528    393.92256  0.025726395  0.025602591           10 
 1277000   0.74530471   -6.4376268    393.70969  0.025692358  0.025582928            8 
 1278000   0.75030706   -6.4550744    394.34928  0.025713959  0.025563261           15 
 1279000   0.73374718   -6.4444545    394.89584  0.025729465  0.025543544            8 
 1280000    0.7307054   -6.4717256    394.49629  0.025683352  0.025523813           11 
 1281000   0.74088285   -6.4465632    394.95756   0.02569331  0.025504021            5 
 1282000   0.73985454   -6.4589592    394.45301  0.025640471  0.025484275            5 
 1283000   0.73764666   -6.4726342    393.94417  0.025587436   0.02546453            9 
 1284000   0.76154881   -6.4588371      394.647  0.025613123  0.025444781            8 
 1285000   0.74780193   -6.4544602    394.59368  0.025589733  0.025425129            8 
 1286000   0.74330789   -6.4550656    394.63008  0.025572193   0.02540545            8 
 1287000   0.73223901   -6.4792143    394.65453  0.025553906  0.025385594           11 
 1288000   0.74266982   -6.4898028    394.25559  0.025508255  0.025365809           10 
 1289000   0.75194297   -6.4862638    394.83297  0.025525793  0.025346006           12 
 1290000   0.74085427   -6.5203355    394.18594  0.025464208  0.025326303           18 
 1291000   0.72580004   -6.4732988    395.48167  0.025528122  0.025306521           20 
 1292000   0.72749115   -6.5134235    393.95873  0.025410135  0.025286815           36 
 1293000   0.74315106   -6.4763775    395.16852  0.025468453  0.025267177           22 
 1294000   0.72312954    -6.447464    396.60157  0.025541059  0.025247669           19 
 1295000   0.71823105   -6.4510099    395.50722  0.025450915  0.025228277            6 
 1296000   0.72389344   -6.4718575    395.89485  0.025456202  0.025208798            9 
 1297000   0.72812094   -6.4639726    396.02712  0.025445073  0.025189371           22 
 1298000   0.72155877    -6.471526    395.52019  0.025392924  0.025169946           15 
 1299000   0.74051007   -6.5055424    395.07388  0.025344745  0.025150386           16 
 1300000   0.75040532   -6.4663622     395.4631  0.025350199  0.025130943           10 
 1301000   0.74714222   -6.5115219    395.63729  0.025341871  0.025111601           12 
 1302000   0.73531009   -6.4970409    395.73305  0.025328536  0.025092226            7 
 1303000   0.74157825   -6.4496837    396.34517  0.025348245  0.025072958            6 
 1304000   0.74888348   -6.4510852    396.95014  0.025367468  0.025053705           14 
 1305000   0.72412465    -6.488109    395.46979  0.025253499  0.025034515           12 
 1306000   0.73066942   -6.4697065    396.83788  0.025321458  0.025015234           10 
 1307000   0.72362405   -6.5117498    395.48456  0.025215797  0.024995989           10 
 1308000   0.72139842    -6.527656    396.47966  0.025259917  0.024976707           14 
 1309000   0.73716772   -6.5199159    396.14535  0.025219337  0.024957396           21 
 1310000   0.74320725   -6.4799251    397.41668  0.025280959  0.024938238           12 
 1311000   0.73019822   -6.5133175    395.98468  0.025170651  0.024919113           16 
 1312000   0.73530479   -6.5142843    397.20904  0.025229233  0.024900066           15 
 1313000    0.7357472   -6.4754261    397.52811  0.025230268  0.024881014            8 
 1314000   0.71571323   -6.4856715    397.06868   0.02518193  0.024862007           17 
 1315000     0.709376   -6.4948067    397.01638  0.025159466  0.024842864           19 
 1316000   0.72389346   -6.4836623    397.72429  0.025185175  0.024823856           10 
 1317000   0.71272598   -6.4885807    398.67391  0.025226139  0.024804768            9 
 1318000   0.72921988   -6.4844977    396.98762  0.025100381  0.024785717            8 
 1319000   0.74276743   -6.5084614    398.13084  0.025153579  0.024766756           11 
 1320000   0.72797228   -6.4947801     398.0153  0.025127229  0.024747904            9 
 1321000   0.72368274   -6.5080323    397.73197  0.025090334  0.024729111           27 
 1322000   0.72056629   -6.4614127    397.87566  0.025080412   0.02471022           12 
 1323000   0.73513485   -6.4929715    398.23436  0.025084049  0.024691496           12 
 1324000   0.71503026   -6.4932089    396.88975  0.024980472  0.024672745           16 
 1325000   0.71945631   -6.5142957    397.24947  0.024984243  0.024653994           11 
 1326000   0.71711113   -6.5226945    397.49636  0.024980918  0.024635175           17 
 1327000   0.72571862   -6.5155988    397.83139  0.024983132  0.024616346           21 
 1328000   0.74077629    -6.522372    397.81222  0.024963116  0.024597512           17 
 1329000   0.71961957   -6.4880133    398.03988  0.024958608  0.024578752           13 
 1330000   0.73582921   -6.5193147    399.48545  0.025030416  0.024560038           18 
 1331000   0.71578405   -6.4916404    398.92695  0.024976643  0.024541382           10 
 1332000    0.7139636   -6.5039596    398.02042  0.024901178  0.024522727           10 
 1333000   0.73024247   -6.5377711    397.99876  0.024881143  0.024504118           15 
 1334000   0.72680029    -6.490243    399.69931  0.024968723  0.024485477            8 
 1335000   0.71422068   -6.5432114    398.31715  0.024863742  0.024466809           18 
 1336000    0.7228068   -6.4815433    399.37297  0.024910989  0.024448111           15 
 1337000   0.72882194   -6.5144765    398.64042  0.024846698  0.024429525           14 
 1338000   0.73313418   -6.4944243    399.48241  0.024880568   0.02441099            9 
 1339000   0.72671036   -6.5258889     399.0845  0.024837223  0.024392494           31 
 1340000   0.70456082   -6.5376653    398.66652  0.024792694  0.024374023            7 
 1341000   0.71235608   -6.5198479    399.08314  0.024800095  0.024355588           12 
 1342000   0.72302384   -6.5377728      398.406  0.024739568   0.02433711           11 
 1343000    0.7259613   -6.5355654    398.49229  0.024726501  0.024318665            9 
 1344000   0.70696671    -6.528857    399.10558   0.02474613   0.02430017           28 
 1345000   0.71601325   -6.5503145    397.87533  0.024651508  0.024281628            8 
 1346000   0.73441318   -6.5340475    399.09651  0.024708798  0.024263125           17 
 1347000   0.72182143   -6.5148205    399.12846  0.024692431  0.024244669            9 
 1348000    0.7123032   -6.5329984    399.00176  0.024666281  0.024226229           10 
 1349000   0.70535074   -6.5180985    399.59522  0.024684656   0.02420782           13 
 1350000   0.71567378   -6.5253033    399.99738  0.024691196  0.024189486           19 
 1351000   0.72003442   -6.5301782    399.65415  0.024651748  0.024171028            8 
 1352000   0.71232165   -6.5619235    399.34531  0.024614479  0.024152542           11 
 1353000   0.72260516   -6.5457886    398.82484   0.02456423  0.024134154           10 
 1354000   0.70950573   -6.5334596      400.024  0.024619892   0.02411586           13 
 1355000   0.70196703   -6.5451675    398.64539  0.024516937  0.024097503           12 
 1356000   0.72066026   -6.5431947    399.39296  0.024544798  0.024079134           14 
 1357000   0.70938005   -6.5402844    399.77489  0.024550165  0.024060893           19 
 1358000   0.70778107   -6.5409184    399.38229  0.024507995  0.024042628            7 
 1359000   0.71694465   -6.5856462    399.55555  0.024500586  0.024024322           12 
 1360000   0.70661832   -6.5704156    400.43797   0.02453664  0.024006032           10 
 1361000   0.70653271   -6.5496489     400.4644   0.02452023  0.023987836            8 
 1362000   0.70338132   -6.5642328    400.04065    0.0244763  0.023969608           20 
 1363000   0.71403762   -6.5563625    399.49117  0.024424747  0.023951438           18 
 1364000   0.70126743   -6.5524767    400.71971  0.024481898  0.023933394           16 
 1365000    0.7132508   -6.5576679    399.14601  0.024367888  0.023915365           12 
 1366000   0.71307344   -6.5447316    400.63185  0.024440694  0.023897329           11 
 1367000   0.70636156   -6.5338499    400.60841  0.024421386   0.02387926            8 
 1368000   0.71423645    -6.555209    399.87975  0.024359147  0.023861157           55 
 1369000   0.71441605   -6.5413189    400.57985  0.024383969  0.023842971           13 
 1370000   0.70821697   -6.5785753    399.48318  0.024299463  0.023824878           18 
 1371000   0.70185337   -6.5556773    401.44529  0.024401002  0.023806733           22 
 1372000   0.70963005   -6.5473087    400.92842  0.024351823  0.023788672            8 
 1373000   0.70475157     -6.56777    401.34913  0.024359622  0.023770693            7 
 1374000   0.72459221   -6.5739733    401.11202  0.024327512  0.023752734           28 
 1375000   0.71080146   -6.5799933    400.89096  0.024296422  0.023734733            7 
 1376000   0.69446005   -6.5782008    400.54207  0.024257635  0.023716797            7 
 1377000   0.71598308   -6.5748429    400.93308  0.024263682  0.023698927           14 
 1378000   0.69805398   -6.5805797    400.15938  0.024199285  0.023681049           18 
 1379000   0.70629366   -6.5452089    401.33935  0.024253042  0.023663131           11 
 1380000   0.70614664   -6.5244799    401.87991   0.02426811  0.023645375           18 
 1381000   0.68531626    -6.560037     400.8302  0.024187195  0.023627689            8 
 1382000   0.71276642   -6.5634944    401.04551  0.024182677   0.02361002           17 
 1383000   0.69309391   -6.5851974    399.80847  0.024090653  0.023592174           15 
 1384000   0.70461352    -6.555731    401.82929  0.024194923  0.023574311           30 
 1385000   0.68872871   -6.5654516    400.71127  0.024110185  0.023556524           21 
 1386000   0.69107203   -6.5905076    400.61354  0.024086913  0.023538727           17 
 1387000   0.70510995   -6.5792308     401.1717  0.024103082  0.023520933            8 
 1388000   0.69908682   -6.5798599    400.81098   0.02406406  0.023503222           21 
 1389000   0.70012021    -6.580607    401.10633  0.024064454  0.023485381           15 
 1390000    0.7019445    -6.570224    400.87464  0.024033252  0.023467537            8 
 1391000   0.69917242   -6.5919655    400.80883  0.024012031  0.023449821           23 
 1392000   0.70146595   -6.5804336    401.22602  0.024019757  0.023432095           17 
 1393000   0.70784979   -6.5764268    400.74986  0.023974028  0.023414244           24 
 1394000   0.69389273   -6.5782544    400.68273  0.023952817  0.023396444           28 
 1395000   0.70173355   -6.6065589    401.51278  0.023985232  0.023378594           23 
 1396000   0.69531492   -6.5995983    401.50583  0.023967635  0.023360684           22 
 1397000   0.69329922   -6.5802067    401.26246  0.023935961  0.023342852           19 
 1398000   0.70978318   -6.5614413    401.51882  0.023934121  0.023325123           11 
 1399000   0.69234081    -6.569495    400.89877  0.023880079  0.023307376           24 
 1400000   0.68861272   -6.5640992     401.5423  0.023901328  0.023289685           16 
 1401000   0.69178177   -6.6141748    400.88914  0.023845417  0.023271974           11 
 1402000   0.69151043   -6.6284348    400.77398  0.023821563  0.023254164           42 
 1403000   0.70657167   -6.5924754     400.9531  0.023815224   0.02323648           12 
 1404000   0.67875026   -6.5929284     401.5755  0.023835203  0.023218643           18 
 1405000   0.68657483   -6.5947885     400.9254   0.02377968   0.02320093            8 
 1406000   0.70128329   -6.6052361    401.17944  0.023777824  0.023183187           18 
 1407000   0.70129046    -6.573694    400.69578  0.023732278  0.023165476           11 
 1408000   0.70655048   -6.6046856    402.05745  0.023796014  0.023147806           10 
 1409000   0.69227035   -6.5933717    401.57287  0.023750465   0.02313019           10 
 1410000   0.69274964   -6.5874264     402.0969  0.023764592  0.023112573            8 
 1411000   0.69451214   -6.5970225    400.72435  0.023666687  0.023094875           19 
 1412000   0.68711421   -6.5985435    401.67246  0.023705882  0.023077174           26 
 1413000   0.69116604   -6.5748436    400.93432  0.023645572  0.023059546           12 
 1414000   0.69230954   -6.5869715     401.5775  0.023666755  0.023041965            8 
 1415000   0.68920899   -6.6255529    401.07506  0.023620439  0.023024345           16 
 1416000   0.68407342   -6.6008498    401.19324  0.023610714  0.023006743            8 
 1417000   0.68169616   -6.6176118    401.52541  0.023613586  0.022989182           22 
 1418000   0.69406319   -6.6043664    401.97826  0.023623546  0.022971672           19 
 1419000   0.65878188   -6.6143206    401.59788   0.02358456  0.022954222            7 
 1420000   0.69607546   -6.6073627    402.49665  0.023620695  0.022936771           19 
 1421000   0.68845452   -6.6016368     402.0013  0.023575023  0.022919319            8 
 1422000   0.69542762   -6.5991131    401.80441  0.023546906  0.022901836           13 
 1423000    0.6845417   -6.5986267    401.11273  0.023489853  0.022884436           14 
 1424000   0.69475593   -6.6269631    401.16587  0.023476467  0.022866933           16 
 1425000   0.67010106   -6.5950095    401.42771  0.023475305  0.022849382           20 
 1426000   0.67388411   -6.5867673    402.12718  0.023499719  0.022831914           19 
 1427000   0.68302721   -6.6092095    401.04997  0.023420344  0.022814465           20 
 1428000   0.66762344   -6.6266089    402.10062  0.023465256  0.022796957           32 
 1429000    0.6713652   -6.6373148    401.40352  0.023408183  0.022779465           30 
 1430000   0.67479664   -6.6118896    402.98411  0.023483923  0.022761967            9 
 1431000   0.66965953   -6.6266501    400.84829  0.023343133  0.022744546           23 
 1432000   0.69110305    -6.641673    401.74779  0.023379178  0.022726979           17 
 1433000   0.68385116   -6.6685353    401.20401  0.023331241   0.02270942           41 
 1434000   0.67852456   -6.6298163    401.32409  0.023321949  0.022691843           25 
 1435000   0.67848554   -6.6219445    402.07672  0.023349403  0.022674363           17 
 1436000   0.67672946    -6.642863     401.3287  0.023289734  0.022656941           15 
 1437000   0.68565716   -6.6226252     402.2818  0.023328798  0.022639611           13 
 1438000    0.6991686   -6.6264266    401.46757   0.02326539  0.022622386           15 
 1439000   0.67909645   -6.6434136    401.99572  0.023279808  0.022605157            9 
 1440000   0.65980759   -6.6295785    401.89519  0.023257824  0.022587933           18 
 1441000   0.68833591   -6.6192969    401.63573  0.023226679  0.022570699           27 
 1442000    0.6757065   -6.6360976    401.07126  0.023177951  0.022553413           28 
 1443000   0.67867801   -6.6353419    401.07576  0.023162148  0.022536061           55 
 1444000   0.66417236   -6.6302067    402.61427  0.023234895  0.022518698           11 
 1445000     0.675997   -6.6210123    401.90667  0.023178009  0.022501344           20 
 1446000   0.68633583   -6.6135759    402.80698  0.023213865  0.022483982           12 
 1447000   0.66565628   -6.6126188    401.49045  0.023122003  0.022466589           21 
 1448000   0.68176634   -6.6305319    403.20286  0.023204584  0.022449232           41 
 1449000   0.69549586   -6.6496047    401.59058  0.023095846  0.022431869           19 
 1450000   0.68724975   -6.6301466    402.17892  0.023113731  0.022414527           35 
 1451000   0.67053635   -6.6627667    401.37637   0.02305171  0.022397168           26 
 1452000   0.65938188   -6.6217297    402.52767   0.02310191  0.022379796           15 
 1453000   0.66805193    -6.634014    401.75682    0.0230418  0.022362373           48 
 1454000   0.66140896    -6.645108    401.71723  0.023023684  0.022344944           17 
 1455000   0.66262935   -6.6599595    400.83626  0.022957403  0.022327481           26 
 1456000   0.66619582   -6.6981842    400.82102  0.022940764  0.022310047           16 
 1457000   0.68074333   -6.6854919    401.59202  0.022969116   0.02229257           16 
 1458000   0.66867935   -6.6461079    401.58817  0.022953142  0.022275199           23 
 1459000   0.66253274    -6.655216    400.83318  0.022894287  0.022257806           11 
 1460000   0.67420262   -6.6479639    401.30358  0.022905455  0.022240408           31 
 1461000   0.67276041   -6.6330095    401.82652  0.022919606  0.022223112           12 
 1462000   0.67287019   -6.6513237    401.28204  0.022872893  0.022205779           57 
 1463000    0.6709972   -6.6656394    400.48155  0.022811663  0.022188435            6 
 1464000   0.67598464    -6.659204    401.85611  0.022874323  0.022171199           36 
 1465000   0.68824911    -6.660876    401.14009   0.02281798  0.022153988           37 
 1466000   0.66850677   -6.6688627    400.66033  0.022775144  0.022136718           16 
 1467000   0.66138135   -6.6657952    400.73422  0.022763816  0.022119361           18 
 1468000   0.66499382   -6.6684739    400.71295  0.022747102  0.022102038           21 
 1469000   0.65696338   -6.6761106    401.05342  0.022750932  0.022084714           19 
 1470000   0.66467507    -6.672605    400.82116  0.022722288  0.022067424           21 
 1471000   0.67265096   -6.6528012    401.49057  0.022744764  0.022050136           20 
 1472000    0.6552621   -6.6774954    401.02391  0.022702893  0.022032906           31 
 1473000   0.66313607    -6.690644    401.14266  0.022694199  0.022015667           24 
 1474000   0.65750317   -6.6719922    400.96276  0.022668632  0.021998399           26 
 1475000   0.67864441    -6.675028    401.17995  0.022665534  0.021981134           43 
 1476000   0.67643399   -6.6771457     400.9486  0.022637116  0.021963925           27 
 1477000    0.6542677   -6.6685082     400.6814  0.022606714  0.021946812           49 
 1478000   0.65478176   -6.6608773    402.73118   0.02270699  0.021929725           28 
 1479000   0.66401071   -6.6758181    402.05803  0.022653709  0.021912676           41 
 1480000   0.67111268   -6.6925362    400.45902  0.022548368  0.021895596           43 
 1481000   0.65944182    -6.682105    401.81973  0.022609708  0.021878526           28 
 1482000   0.64377952   -6.6692877    402.11895  0.022611277  0.021861492           58 
 1483000    0.6715223   -6.6854909    401.57772  0.022565617   0.02184447           41 
 1484000   0.66858036   -6.7123147    401.20588   0.02252953  0.021827375           82 
 1485000   0.65814734   -6.6884734    401.88852  0.022552667  0.021810283           29 
 1486000   0.65847043   -6.6856622    401.75162  0.022529813  0.021793151           38 
 1487000   0.67273894   -6.7009685    402.05465  0.022531643  0.021776066           60 
 1488000   0.65654915   -6.6666068    401.74045  0.022498905  0.021759066           49 
 1489000   0.64853483   -6.6984939    401.94382  0.022495177   0.02174215           53 
 1490000   0.63794344   -6.6911009    401.67504  0.022465047  0.021725173           54 
 1491000   0.65712563   -6.6896431    402.65131  0.022504544  0.021708185           78 
 1492000   0.65652739   -6.6979809     401.5687  0.022428994  0.021691242           37 
 1493000   0.65104842   -6.7035665    401.68487  0.022420455  0.021674261           60 
 1494000   0.65523352   -6.6797649    401.54925  0.022397883  0.021657365           37 
 1495000   0.65963052   -6.7044768    401.23289  0.022365267  0.021640446           35 
 1496000   0.64926318   -6.6963923    401.94721  0.022390108  0.021623545           28 
 1497000   0.65157952   -6.6922554    402.06124  0.022381499  0.021606617           23 
 1498000   0.64985624   -6.7031362     401.8299  0.022353688  0.021589671           17 
 1499000   0.64996215   -6.7292647    402.05648  0.022351372  0.021572747           40 
 1500000   0.64796313   -6.7035749    401.20344   0.02228908  0.021555851           17 
 1501000   0.64827764   -6.7155318    401.08405  0.022267602  0.021538944           33 
 1502000   0.66683227   -6.7038254     402.1398  0.022311351  0.021522077           30 
 1503000   0.66034386   -6.7262608    401.53711  0.022263091   0.02150517           26 
 1504000   0.63397662   -6.7188698    401.20567  0.022229924  0.021488293           16 
 1505000   0.65385627   -6.6911952    402.39743  0.022281142  0.021471461           45 
 1506000   0.63278473    -6.707964    402.48943  0.022271438  0.021454695           27 
 1507000   0.66214877   -6.7155357    402.26095  0.022244025  0.021437971           40 
 1508000   0.64855615   -6.6931416    401.60993  0.022193298  0.021421244           45 
 1509000   0.64130237   -6.7323153    401.84594  0.022191625  0.021404479           16 
 1510000   0.64327734   -6.7117828    401.87758  0.022178674  0.021387751          175 
 1511000   0.65287343   -6.7175469    402.47711  0.022197061  0.021371073           41 
 1512000    0.6548735   -6.7144322    401.85094  0.022147869   0.02135439           63 
 1513000   0.65630786     -6.74161    401.47664  0.022112615  0.021337683           39 
 1514000   0.65527062   -6.7028642     401.1815  0.022081765  0.021320934           39 
 1515000   0.65288012   -6.7430596    401.57085  0.022088605  0.021304181           89 
 1516000   0.63735125   -6.7050882    402.24673  0.022111188  0.021287402           70 
 1517000   0.65753259     -6.69218    401.94467  0.022080019   0.02127066           35 
 1518000    0.6463801   -6.7243865      401.284  0.022029205  0.021253901           46 
 1519000   0.62178943   -6.7207808    402.60316  0.022087072  0.021237223           78 
 1520000   0.63542076   -6.7227397    401.20236  0.021995744  0.021220572           37 
 1521000   0.63986664   -6.7037546    401.80029  0.022014042  0.021203915           26 
 1522000   0.64982154   -6.7204553    401.53999  0.021985326  0.021187326           19 
 1523000   0.64330244   -6.7004753    401.70664  0.021980009    0.0211707           16 
 1524000   0.65162245   -6.7157926      400.797  0.021915846  0.021154056           29 
 1525000   0.66023306   -6.7160272    400.71037  0.021896742  0.021137369           78 
 1526000   0.63322372   -6.7451848    401.46661   0.02192369  0.021120715           45 
 1527000   0.65756502   -6.7194031    402.07745  0.021942668  0.021104078           56 
 1528000    0.6501724   -6.7240645    401.08811  0.021874352  0.021087488           71 
 1529000   0.64795439   -6.7398299    401.21726  0.021867084  0.021070919          101 
 1530000    0.6339395   -6.7212191    401.32728  0.021858784  0.021054287          111 
 1531000   0.63390788   -6.7376582    400.81741  0.021816754  0.021037661           98 
 1532000   0.65930095   -6.7296215    402.05544  0.021869856  0.021021027           89 
 1533000    0.6376456   -6.7285272    402.22033  0.021864554  0.021004421           55 
 1534000   0.63890424   -6.7378131    401.03147  0.021785716  0.020987802           63 
 1535000   0.65005018    -6.758218    401.51354  0.021797695  0.020971219          135 
 1536000   0.63316888   -6.7461255    401.60216  0.021788312  0.020954581           50 
 1537000   0.64380375    -6.741564    401.12071  0.021748032  0.020937934           39 
 1538000   0.63842241   -6.7320671    401.67487  0.021763918  0.020921311           40 
 1539000    0.6367272   -6.7131831    401.24234  0.021726356  0.020904748           32 
 1540000   0.62962329   -6.7096065     401.2262  0.021711374  0.020888246           30 
 1541000   0.64348167   -6.7402179    401.16733  0.021694102   0.02087168           31 
 1542000   0.64444405    -6.756494    400.68709   0.02165408  0.020855105           27 
 1543000   0.62475093   -6.7671357    400.90658    0.0216519  0.020838533           24 
 1544000   0.63960313   -6.7483233    400.78569  0.021631352   0.02082198           26 
 1545000   0.63893904   -6.7619737    400.43668  0.021598526  0.020805436           28 
 1546000   0.63802814   -6.7646914    400.80706   0.02160452  0.020788911           35 
 1547000   0.64825538   -6.7616248    401.05544  0.021603935  0.020772333           60 
 1548000   0.64674778   -6.7628474    401.29144  0.021602683  0.020755722           22 
 1549000   0.63995264   -6.7654826    400.18954  0.021529457  0.020739104           25 
 1550000   0.63233295   -6.7602635    400.41062  0.021527453  0.020722499           16 
 1551000   0.62973006   -6.7658998    400.07296  0.021495431  0.020705889           36 
 1552000   0.63283626   -6.7638229    400.04218  0.021479928   0.02068931           47 
 1553000   0.65412871   -6.7773902    401.03407  0.021519321  0.020672709           45 
 1554000   0.62146799   -6.7765547    400.07931  0.021454274  0.020656094           31 
 1555000    0.6205214   -6.7720537     400.1371  0.021443575   0.02063951           31 
 1556000   0.63595093    -6.774792     400.8717  0.021469136  0.020622877           49 
 1557000   0.63077683    -6.781929    400.04055  0.021410862  0.020606222           23 
 1558000   0.63495836   -6.7790028    398.89822  0.021336019  0.020589567           34 
 1559000   0.61977096   -6.7735326    400.30736  0.021397657  0.020572957           22 
 1560000   0.62781486   -6.7736474    400.37184  0.021387384  0.020556404           31 
 1561000   0.62465329   -6.7904357    400.02106  0.021354957  0.020539825           33 
 1562000   0.64116658   -6.7664525    400.50416  0.021367059  0.020523249           35 
 1563000   0.63610933   -6.7695253     399.8456  0.021318277  0.020506697           40 
 1564000    0.6345457   -6.7885813    399.89014   0.02130702  0.020490236           33 
 1565000   0.62025901   -6.7642733    400.47669  0.021324637  0.020473769           60 
 1566000   0.62745458   -6.7722129    400.37753  0.021305744  0.020457279           86 
 1567000    0.6353106   -6.7860264    399.61095   0.02125138  0.020440841           97 
 1568000   0.62686721    -6.779997    400.55251  0.021287867   0.02042445           37 
 1569000   0.64244943   -6.7573513    400.30767  0.021261295   0.02040807           31 
 1570000   0.63187563   -6.7782103    400.50078  0.021258003  0.020391757           70 
 1571000   0.63035682   -6.7412699    401.58017  0.021301728  0.020375452           50 
 1572000   0.62285513   -6.7836081    400.85677  0.021249829  0.020359156           43 
 1573000   0.61793058    -6.773219    400.31792  0.021207773  0.020342862           21 
 1574000   0.62646687   -6.7859451    400.25547  0.021190992  0.020326554           95 
 1575000   0.61704604   -6.7770956    400.33655  0.021181828  0.020310258           31 
 1576000   0.61575699   -6.7932848    400.35266   0.02116924  0.020293996           43 
 1577000   0.62352926   -6.7765626    401.16912   0.02119896  0.020277793           72 
 1578000   0.63021054   -6.7816433    400.76554  0.021164213  0.020261572          100 
 1579000   0.63473036   -6.7744236    399.68454  0.021093759  0.020245346          187 
 1580000   0.62867609   -6.8204733    398.95115  0.021041728  0.020229087          117 
 1581000    0.6280611   -6.7997144    399.49858  0.021057273  0.020212852           89 
 1582000   0.63019471   -6.7993772    401.06766  0.021126615  0.020196637           87 
 1583000   0.61451466   -6.7790645    400.61922  0.021089662  0.020180438           49 
 1584000   0.62208405   -6.7787204    400.70861   0.02108105  0.020164307           56 
 1585000     0.616706   -6.7642832    401.10826  0.021088763  0.020148218           60 
 1586000   0.61343243   -6.8039411    400.61678  0.021049642  0.020132137           73 
 1587000   0.62390538    -6.807632    399.91116  0.020999326  0.020116056           73 
 1588000   0.61887175   -6.8130967    399.68574  0.020974273  0.020099958           24 
 1589000   0.60576183   -6.8060702    400.38591  0.020997793  0.020083853           52 
 1590000    0.6264088   -6.8072115    401.00021  0.021016783  0.020067736           62 
 1591000   0.61005388   -6.8341974    399.70398  0.020935679  0.020051621           30 
 1592000   0.60749464   -6.8116794    400.85291  0.020982669  0.020035477           60 
 1593000   0.61504678   -6.8046922    399.18185   0.02088208  0.020019394           28 
 1594000   0.62863351   -6.8032488    400.39689  0.020932502  0.020003356           30 
 1595000   0.62109134   -6.8075378    399.64286  0.020879982  0.019987295           58 
 1596000   0.61361985   -6.7970641    400.72856  0.020923588  0.019971295           12 
 1597000   0.60485598   -6.8283413    401.12891  0.020931377  0.019955314           27 
 1598000   0.62759138   -6.8093894    399.99502  0.020859148  0.019939327           35 
 1599000    0.6044267   -6.8031545    400.84421  0.020890359  0.019923364           43 
 1600000   0.61113044   -6.8216732    400.47164  0.020857898  0.019907465           63 
 1601000   0.62040329   -6.8081553    401.01693  0.020873252  0.019891537           27 
 1602000    0.6153824   -6.8094493     399.6595  0.020789612  0.019875576           28 
 1603000   0.62676126    -6.800176    400.99831  0.020846242  0.019859606           57 
 1604000   0.61416888   -6.8283957    400.42623  0.020803524   0.01984366           75 
 1605000   0.60784701    -6.825295     400.9254   0.02081648  0.019827744           34 
 1606000   0.62792496   -6.8228488    400.06561  0.020758905  0.019811829           43 
 1607000   0.59295234   -6.8185976    401.53975  0.020822431  0.019795934           46 
 1608000    0.6165196   -6.8181797    400.58454  0.020759978  0.019780044           54 
 1609000   0.60900311   -6.8179764    399.39193  0.020685308  0.019764181          112 
 1610000   0.60330621   -6.8106529    400.05114  0.020706581  0.019748381           55 
 1611000   0.61158633   -6.8397648    400.17651  0.020700213  0.019732617           79 
 1612000   0.60434068   -6.8066893    400.75225  0.020717134  0.019716854           46 
 1613000   0.62410443   -6.8170931    400.43274  0.020687783  0.019701105           98 
 1614000   0.62041115   -6.8372699    401.48995  0.020729551  0.019685348           59 
 1615000   0.60090967    -6.819683    400.75534   0.02067881  0.019669615           70 
 1616000   0.59796357   -6.8369587     401.0001  0.020678635   0.01965394           71 
 1617000   0.60236264   -6.8154734    400.76563  0.020653764  0.019638261           78 
 1618000   0.61795573   -6.8162521    400.77936  0.020641706  0.019622619           28 
 1619000   0.60785288   -6.8257641    400.14989  0.020596556  0.019606926           49 
 1620000   0.61176899   -6.8335792    401.39599  0.020647942  0.019591262           36 
 1621000   0.60383579   -6.8447991    400.53967  0.020591182  0.019575564           55 
 1622000   0.59305297    -6.833486      400.083  0.020555025   0.01955986           73 
 1623000   0.60259032   -6.8291036    400.69741  0.020573907  0.019544189          131 
 1624000   0.60477716   -6.8409305    400.52105  0.020552188  0.019528505           59 
 1625000   0.60833925   -6.8257704    400.48955  0.020537925  0.019512912           52 
 1626000   0.60293124     -6.82754    400.92426  0.020547574  0.019497309           34 
 1627000   0.61244971   -6.8431079    401.08593  0.020543225   0.01948171           54 
 1628000   0.59732472   -6.8309299    400.26602  0.020488638  0.019466088           67 
 1629000   0.60890788   -6.8335381    400.19828  0.020472595  0.019450491           34 
 1630000   0.61403395   -6.8448865     400.5112  0.020476033  0.019434941           49 
 1631000   0.60645123   -6.8506255     400.7869  0.020477565   0.01941941           43 
 1632000   0.60930058    -6.853773    400.75719    0.0204635  0.019403897           77 
 1633000    0.6074301   -6.8295914    400.85122  0.020455767  0.019388442           96 
 1634000   0.60785699    -6.860998    400.78136  0.020439686   0.01937299           35 
 1635000   0.60302615   -6.8414943     400.9155  0.020434021  0.019357469           43 
 1636000   0.60414089   -6.8386479    400.80941  0.020416127  0.019342014           29 
 1637000   0.59157026   -6.8608454    399.94187  0.020359492  0.019326527           52 
 1638000   0.59633416   -6.8272761    400.10239  0.020355229   0.01931108          103 
 1639000   0.61293955   -6.8510826    400.75535  0.020376009  0.019295668           30 
 1640000   0.59390802   -6.8625407    400.80532  0.020366124  0.019280269           52 
 1641000   0.60252486   -6.8371061    401.34382  0.020381059   0.01926483           74 
 1642000   0.58770935   -6.8512749     400.7266  0.020337322  0.019249445           51 
 1643000   0.58760734   -6.8366176    401.17744  0.020347811  0.019234038          103 
 1644000   0.60367851   -6.8455763    401.30011  0.020341652  0.019218646           67 
 1645000   0.59051976   -6.8643163    400.81934  0.020304931  0.019203297           70 
 1646000   0.58027367   -6.8533751    400.98358   0.02030091  0.019187996           68 
 1647000   0.59629904   -6.8436043    400.34795  0.020256423  0.019172696          116 
 1648000   0.60235075   -6.8418534    400.77847  0.020265901   0.01915735           93 
 1649000   0.58563542   -6.8406446    399.98418  0.020213472  0.019141998          112 
 1650000    0.5908684   -6.8470781    400.34498  0.020219443  0.019126642           90 
 1651000   0.59504707   -6.8776014    399.82431  0.020180916  0.019111289           85 
 1652000   0.59130627   -6.8601472    399.49566  0.020152122  0.019095973           52 
 1653000     0.603816   -6.8528998    401.15363  0.020223515   0.01908066           38 
 1654000   0.59495103   -6.8453693    400.48091  0.020177394  0.019065364          134 
 1655000   0.59230896   -6.8426039    400.31709  0.020156953  0.019050058           47 
 1656000    0.5956933   -6.8690769    400.49982  0.020153976  0.019034772          162 
 1657000   0.59490512   -6.8627583    400.57625  0.020145657  0.019019491           46 
 1658000    0.5968764   -6.8725461    399.41932  0.020075358  0.019004199           78 
 1659000   0.59496815   -6.8550711    400.67255  0.020126208  0.018988926           69 
 1660000   0.58595613   -6.8493803    401.15441  0.020138274  0.018973712           65 
 1661000   0.58749658   -6.8697714    400.43211  0.020089911  0.018958527          175 
 1662000   0.58237476   -6.8662106    400.27529   0.02006996  0.018943339           93 
 1663000   0.58464728   -6.8899861    400.46353  0.020067325  0.018928134           39 
 1664000   0.58070823   -6.8765415    400.82577  0.020073406  0.018912923          130 
 1665000   0.58900666   -6.8662322    400.04385  0.020022215  0.018897719           62 
 1666000   0.58731672   -6.8626477    400.64288   0.02004016  0.018882552           63 
 1667000   0.59604048   -6.8599428    400.14174  0.020003086  0.018867379           67 
 1668000   0.58274591   -6.8919613    399.64941  0.019966497  0.018852191           66 
 1669000   0.58792992    -6.904374     399.6641  0.019955267  0.018836971          136 
 1670000   0.58391602    -6.862715    399.67011  0.019943618  0.018821755          125 
 1671000   0.59335984   -6.8964461    399.13264  0.019904879  0.018806607           60 
 1672000    0.5920389   -6.8809291    399.17443  0.019895057  0.018791398           49 
 1673000   0.58546782   -6.8792493    399.56734  0.019902737  0.018776189           65 
 1674000   0.59234415   -6.8845127    400.00753   0.01991276  0.018761007           85 
 1675000   0.59121107   -6.8944082    399.40297  0.019870795  0.018745853          216 
 1676000   0.59321572   -6.8900501    399.72929  0.019875163  0.018730673          208 
 1677000   0.58987232   -6.9026931     399.0764  0.019830869  0.018715514          234 
 1678000   0.59069837   -6.9019388    399.06243  0.019818357  0.018700396          158 
 1679000   0.58619931   -6.9120702    399.38791  0.019822708  0.018685299          297 
 1680000   0.58489293   -6.8893441    399.66579  0.019824692  0.018670207          258 
 1681000   0.57741676   -6.8873038    399.00189  0.019779987  0.018655131          276 
 1682000   0.59129779   -6.9105437    399.12567  0.019774359  0.018640011          210 
 1683000   0.57600879   -6.9049008    398.90485  0.019751676  0.018624888          393 
 1684000   0.59009129   -6.9111147    398.63551  0.019726619  0.018609784          331 
 1685000   0.58109603   -6.8883269    398.70235  0.019718217  0.018594669          218 
 1686000   0.59078409   -6.9023038    398.74473  0.019708616  0.018579598          238 
 1687000   0.58611404   -6.8903116    399.71007  0.019744619  0.018564551          263 
 1688000   0.59139768    -6.898812     400.0358  0.019749003  0.018549524          163 
 1689000   0.56131555   -6.8920646    399.94632  0.019732895  0.018534489          299 
 1690000   0.58560337   -6.9116001    399.02259   0.01967567  0.018519459          250 
 1691000   0.57981976   -6.9212529    398.94811  0.019660364   0.01850442          257 
 1692000   0.57625812    -6.940175    398.87795  0.019645289  0.018489406          193 
 1693000   0.57310737   -6.9201158    398.84406  0.019632017  0.018474387          109 
 1694000   0.57869258   -6.9048608    398.96823  0.019626536  0.018459423          176 
 1695000   0.57286684   -6.9058916    399.55723  0.019643915  0.018444474          336 
 1696000   0.58737274   -6.9077029    399.32354   0.01962085  0.018429547          203 
 1697000    0.5780167   -6.8913114    398.34985  0.019561473  0.018414659          304 
 1698000   0.58981806   -6.9137651    399.35459  0.019599263   0.01839973          164 
 1699000   0.58756083   -6.9219461       399.59  0.019599274  0.018384831          282 
 1700000   0.57680934   -6.9062356    398.96462  0.019557089  0.018369953          329 
 1701000   0.57546124    -6.914138    399.20924  0.019557576  0.018355052          217 
 1702000   0.57847836   -6.8986406    399.66965  0.019568628  0.018340196          107 
 1703000   0.56944772   -6.9138547    399.10515  0.019529514  0.018325335           90 
 1704000    0.5647462   -6.9192779    398.40582  0.019483853  0.018310479          169 
 1705000    0.5763063   -6.9274684    399.06962  0.019504869  0.018295588          197 
 1706000   0.58313122   -6.9315998    399.04303  0.019492137  0.018280731          118 
 1707000    0.5626163   -6.9262873    398.39832  0.019449244  0.018265901          136 
 1708000   0.57294152   -6.9194183    399.08696  0.019471456  0.018251062          272 
 1709000   0.56681149   -6.9421707    398.87691   0.01944982  0.018236249          238 
 1710000   0.56316204   -6.9122067    398.83845  0.019436572  0.018221466          292 
 1711000   0.56297927     -6.94341    398.80782   0.01942372  0.018206664          290 
 1712000   0.56714691   -6.9496902     398.5719  0.019400891  0.018191876          378 
 1713000   0.58063618    -6.926178    399.49615  0.019434528  0.018177156          233 
 1714000   0.56024034   -6.9462887    398.45214   0.01937243  0.018162433          358 
 1715000   0.57149292   -6.9448484    398.56574  0.019366654  0.018147696          377 
 1716000   0.56081174   -6.9331655     398.7659  0.019365088  0.018132946          329 
 1717000   0.56647077   -6.9433162    398.92692  0.019361625  0.018118223          412 
 1718000   0.56855512   -6.9095898    398.62943  0.019335925   0.01810352          340 
 1719000   0.56963349    -6.936537    397.72565  0.019280863  0.018088812          534 
 1720000   0.57256231   -6.9469248     398.0039  0.019283134  0.018074098          585 
 1721000   0.56041221   -6.9579272    399.09036  0.019324538  0.018059406          532 
 1722000   0.56276544   -6.9363645    398.86463  0.019302392  0.018044753          289 
 1723000   0.57780759   -6.9474991    398.34021  0.019265826  0.018030084          542 
 1724000   0.56571577   -6.9521206    398.85406  0.019279489  0.018015427          238 
 1725000   0.54810792   -6.9547266    398.55306  0.019253771  0.018000794          212 
 1726000   0.55259308     -6.94409    398.49235  0.019239685  0.017986154          345 
 1727000   0.55920523   -6.9676053    397.85048  0.019197572  0.017971521          318 
 1728000   0.57408406   -6.9481239    397.08037  0.019149323  0.017956913          387 
 1729000   0.57140198   -6.9584119    398.66039  0.019214401  0.017942296          318 
 1730000   0.56037134   -6.9565408    397.97166  0.019170119   0.01792765          370 
 1731000    0.5652657   -6.9775585    398.43074  0.019181145   0.01791305          273 
 1732000   0.56616689   -6.9620833    398.46544   0.01917174  0.017898466          429 
 1733000   0.57282528   -6.9646251    398.54961  0.019164725  0.017883893          287 
 1734000   0.55650394   -6.9689306    398.17457  0.019135648  0.017869358          369 
 1735000    0.5624457    -6.969523    398.07517  0.019119845  0.017854818          422 
 1736000   0.54914183   -6.9570964    398.37041  0.019123004  0.017840303          436 
 1737000   0.56001055   -6.9519809    398.84599   0.01913481  0.017825795          529 
 1738000   0.55762789   -6.9648684    398.32359  0.019098753  0.017811313          336 
 1739000   0.55282547   -6.9474592    398.43228  0.019092979  0.017796825          364 
 1740000   0.53851928    -6.983815      398.622  0.019091092  0.017782347          425 
 1741000   0.55927333   -6.9651449    398.13905   0.01905701  0.017767905          414 
 1742000   0.56781827   -6.9682211    397.82146  0.019030878  0.017753451          357 
 1743000   0.55900033    -7.004444    397.74793  0.019016443  0.017738973          255 
 1744000    0.5602244   -6.9739461    397.98409  0.019016824  0.017724531          522 
 1745000   0.56259152   -6.9963379    397.44073  0.018979978   0.01771008          625 
 1746000   0.55909478   -6.9821405    397.90343  0.018991191  0.017695678          571 
 1747000   0.57054481   -6.9484957    397.83522  0.018977066  0.017681278          332 
 1748000   0.54651036   -6.9695094    397.98651  0.018973422  0.017666892          435 
 1749000   0.55789273   -6.9885575    397.50833  0.018939791  0.017652497          365 
 1750000   0.55214005    -6.986638      398.149  0.018959476  0.017638115          616 
 1751000   0.55457437    -6.977128    398.00636   0.01894186  0.017623748          595 
 1752000   0.54591635   -6.9931619    397.35302  0.018899972  0.017609394          572 
 1753000   0.55242378   -6.9662476     397.4734  0.018894914  0.017595045          530 
 1754000   0.55267867   -6.9753747    396.97277  0.018860356  0.017580693          545 
 1755000   0.55434066   -6.9734454     398.3552  0.018915251  0.017566363          350 
 1756000   0.54606299   -6.9699197    397.22428  0.018850811  0.017552028          449 
 1757000   0.54739539   -6.9800578    397.75668  0.018865333  0.017537705          438 
 1758000   0.55693034   -7.0010164     397.5117  0.018842989    0.0175234          562 
 1759000   0.55042565   -7.0013258    396.94369  0.018805367  0.017509093          368 
 1760000   0.55577188   -6.9982422    396.91748  0.018793441   0.01749479          515 
 1761000   0.55157815   -6.9942061    397.97554  0.018832838  0.017480506          455 
 1762000   0.54303428   -6.9819114    397.93648  0.018820303  0.017466262          421 
 1763000   0.55515599   -6.9906111    397.74232   0.01880045  0.017452011          572 
 1764000   0.54079244   -6.9781934     397.5199  0.018779285  0.017437791          275 
 1765000   0.54421433   -6.9834698    397.64297  0.018774456  0.017423592          408 
 1766000   0.53952435   -7.0069251    397.03734  0.018735246  0.017409382          514 
 1767000   0.53027029    -7.004049    397.19351  0.018732009  0.017395215          367 
 1768000   0.54856719   -6.9871297     397.6033  0.018740729  0.017381045          481 
 1769000   0.55135825   -6.9738876    398.17623  0.018757124  0.017366908          431 
 1770000   0.54606837   -6.9869791    397.49686  0.018714541  0.017352756          384 
 1771000   0.55565753   -7.0056231    396.48307  0.018656271  0.017338609          464 
 1772000    0.5505214   -6.9905212    397.45895  0.018691636  0.017324494          508 
 1773000   0.54122823   -6.9977159    397.15325  0.018666726  0.017310348          509 
 1774000   0.54135414   -7.0068376    396.69125  0.018634501  0.017296249          297 
 1775000    0.5505693   -6.9972915    397.70621  0.018671653  0.017282164          257 
 1776000   0.54701497   -6.9892286    397.37303  0.018645506  0.017268115          363 
 1777000   0.53479108    -6.992719    396.95429  0.018615377  0.017254052          510 
 1778000   0.54279799   -7.0007852     397.1091  0.018612162  0.017239978          517 
 1779000   0.54602896   -6.9995949    397.00885  0.018597004  0.017225928          412 
 1780000   0.53862771   -7.0196079    396.95826  0.018584188  0.017211892          374 
 1781000   0.53946175   -7.0036003    397.29237  0.018589387  0.017197882          439 
 1782000   0.54143102   -7.0063465    397.35482  0.018581875  0.017183876          301 
 1783000   0.55245587   -7.0055663    397.33251  0.018570411  0.017169885          536 
 1784000   0.54230237   -7.0069559    396.97374  0.018543243  0.017155888          599 
 1785000    0.5442608   -6.9959115    396.96388  0.018532394  0.017141908          571 
 1786000   0.52793192   -7.0151398     396.6889  0.018509187   0.01712793          506 
 1787000   0.54977283   -6.9917605    397.15753  0.018520683  0.017113969          649 
 1788000   0.53252291    -6.996214    397.26227  0.018515206  0.017100029          606 
 1789000    0.5402876   -7.0219119    396.39455  0.018464438  0.017086095          688 
 1790000   0.53971539   -7.0346234    396.94055  0.018479541  0.017072158          649 
 1791000   0.53476931   -7.0039253     396.7966  0.018462525  0.017058224          616 
 1792000   0.52881069   -7.0057963    397.22711  0.018472243  0.017044324          597 
 1793000   0.53697196   -7.0197499    396.51597  0.018428889  0.017030423          619 
 1794000    0.5406956   -7.0201423       396.81  0.018432274   0.01701655          639 
 1795000   0.54719217   -7.0465342    396.51961  0.018408524  0.017002694          512 
 1796000   0.53868784   -7.0248368    397.20878  0.018430251  0.016988838          506 
 1797000   0.54376579   -7.0264524    395.92608  0.018360512  0.016974997          602 
 1798000   0.53200346   -7.0162544    397.27837  0.018412976  0.016961167          515 
 1799000   0.53352091   -7.0075967    397.24291  0.018401098  0.016947345          452 
 1800000   0.53055625   -7.0105145    395.64766  0.018317021  0.016933517          584 
 1801000   0.52360678   -7.0294437    396.48856   0.01834576  0.016919716          609 
 1802000   0.53440996   -7.0084057    396.42033  0.018332424  0.016905911          572 
 1803000   0.53114805   -7.0221767    396.31673  0.018317468  0.016892119          521 
 1804000   0.53591439   -7.0062507    397.51432  0.018362635  0.016878345          494 
 1805000   0.54653554   -7.0100793    396.62029  0.018311186  0.016864604          528 
 1806000   0.53451289   -7.0356925    396.90933  0.018314384  0.016850864          580 
 1807000   0.54190598   -7.0306443    395.91138  0.018258226  0.016837131          635 
 1808000   0.53229686   -7.0315058    396.67754  0.018283441  0.016823399          492 
 1809000   0.53116837    -7.018282    396.35309  0.018258388  0.016809663          579 
 1810000   0.53761995   -7.0143952    396.82083  0.018269836  0.016795942          534 
 1811000   0.53222017   -7.0473931    396.22427  0.018232297  0.016782239          662 
 1812000   0.53134429   -7.0317697    395.68731   0.01819754  0.016768548          673 
 1813000   0.52384315   -7.0302116    396.54676  0.018227007   0.01675486          381 
 1814000   0.52984786   -7.0399452    396.58501  0.018218716  0.016741181          566 
 1815000   0.53289332   -7.0347732    396.09917  0.018186372  0.016727513          521 
 1816000   0.53476411   -7.0304686    396.00966  0.018172249  0.016713834          552 
 1817000   0.52622645   -7.0335018    396.91304   0.01820368  0.016700166          506 
 1818000   0.51876532   -7.0408756    396.27535  0.018164437  0.016686521          642 
 1819000   0.52459024    -7.056635    396.11544  0.018147125  0.016672887          494 
 1820000   0.53177017   -7.0411263    396.34364  0.018147603  0.016659275          489 
 1821000   0.52622957   -7.0510979    395.72069  0.018109129  0.016645674          633 
 1822000   0.52192316   -7.0561168    396.00104  0.018112013  0.016632098          518 
 1823000    0.5220033   -7.0365663    396.58173  0.018128622  0.016618517          625 
 1824000   0.52275732   -7.0650669    395.96185  0.018090362  0.016604942          626 
 1825000   0.52581318   -7.0261077    396.54755  0.018107194  0.016591425          527 
 1826000   0.53226782   -7.0478702    396.79777  0.018108697  0.016577901          572 
 1827000   0.51941021   -7.0396444    396.04286  0.018064352  0.016564385          589 
 1828000   0.51810027   -7.0416675    396.37848   0.01806977  0.016550874          593 
 1829000   0.52512563   -7.0376651    396.22919  0.018053089  0.016537347          589 
 1830000   0.51797358   -7.0497389     396.2963   0.01804628  0.016523854          536 
 1831000   0.52455757   -7.0485818    396.12866  0.018028794  0.016510348          603 
 1832000   0.51859426   -7.0576445    395.95675  0.018011133  0.016496855          571 
 1833000   0.51401869   -7.0181424    396.01414  0.018003916  0.016483397          670 
 1834000   0.51932018   -7.0403754     395.6723  0.017978567   0.01646994          641 
 1835000   0.52029671   -7.0609066    395.15714  0.017945374  0.016456503          675 
 1836000   0.52546525   -7.0735914    395.63641  0.017957353  0.016443065          691 
 1837000   0.53235389   -7.0673729    395.64037  0.017947758  0.016429635          596 
 1838000   0.52278044   -7.0467526    395.85327  0.017947646  0.016416229          732 
 1839000   0.52480199   -7.0632563    395.36505  0.017915763   0.01640285          733 
 1840000   0.51930737   -7.0613363    396.12483  0.017940436  0.016389461          652 
 1841000   0.51262812   -7.0487468    396.06698  0.017928073  0.016376102          647 
 1842000   0.51884226   -7.0538968    396.19433  0.017924101  0.016362757          697 
 1843000   0.52180742   -7.0736664    395.88615  0.017900441  0.016349422          714 
 1844000    0.5157135   -7.0696239     395.3536  0.017866666  0.016336093          653 
 1845000   0.52024849   -7.0734646    395.43429  0.017860628  0.016322786          588 
 1846000   0.51540777   -7.0702482    395.25485  0.017842852  0.016309483          754 
 1847000    0.5164901   -7.0485875    395.60264  0.017848883  0.016296203          672 
 1848000   0.52039825   -7.0672447    395.41597  0.017830807  0.016282933          747 
 1849000   0.51633535   -7.0540165    395.82927   0.01783979  0.016269679          653 
 1850000   0.50995833   -7.0721137    395.60954   0.01782025   0.01625643          707 
 1851000   0.52040391   -7.0576951    395.67555  0.017813594   0.01624319          760 
 1852000   0.50795188   -7.0879056    395.62389  0.017801651  0.016229953          788 
 1853000   0.51751098   -7.0858151    395.19087   0.01777257  0.016216718          751 
 1854000   0.51138321   -7.0719684    396.34415  0.017814822   0.01620351          704 
 1855000   0.50618795   -7.0682025    394.57765   0.01772586  0.016190305          722 
 1856000   0.50442635   -7.0520031    395.85887  0.017773836  0.016177117          686 
 1857000   0.51353038   -7.0763661    395.54498  0.017750179  0.016163921          852 
 1858000   0.51904532   -7.0680819    395.56658  0.017741594  0.016150752          715 
 1859000   0.51472011   -7.0786171    395.05033  0.017708908  0.016137568          762 
 1860000    0.5105154   -7.0854189    395.96743  0.017740476  0.016124426          692 
 1861000   0.50879214    -7.073768    395.32556  0.017702201  0.016111298          759 
 1862000   0.50834491   -7.0604812    395.72085  0.017710385  0.016098162          864 
 1863000   0.49502496   -7.0736986    394.52216  0.017647261  0.016085039          669 
 1864000   0.51569357   -7.0999806    394.79552  0.017650014  0.016071918          794 
 1865000   0.50843041   -7.0811418    394.96115  0.017647951  0.016058832          729 
 1866000    0.5184992   -7.1066155    395.74855  0.017673658  0.016045741          705 
 1867000   0.50720144   -7.0928551    395.19036  0.017639277  0.016032664          690 
 1868000   0.49687277    -7.081068    395.28675  0.017634134  0.016019609          705 
 1869000   0.50497223   -7.0930939    395.06369  0.017614754  0.016006564          751 
 1870000   0.50332089   -7.0836669    395.37228  0.017619086  0.015993519          745 
 1871000   0.49922962   -7.0910117    394.65177  0.017577577  0.015980492          761 
 1872000   0.50521213   -7.1001469    395.28575   0.01759641  0.015967467          810 
 1873000   0.50088442   -7.0789605    395.92681  0.017615537  0.015954471          745 
 1874000   0.50481038   -7.0867239    394.21794  0.017530147   0.01594148          667 
 1875000   0.49346383   -7.0799654    395.28675    0.0175683  0.015928502          590 
 1876000   0.50284328    -7.089772    395.26571  0.017558001  0.015915519          754 
 1877000   0.51597433   -7.0822279    394.36516  0.017508665  0.015902549          759 
 1878000   0.49897977   -7.0831771    395.04769  0.017529628  0.015889583          687 
 1879000   0.50583847   -7.0880575    395.31302  0.017532066   0.01587665          671 
 1880000   0.48866173   -7.0994319    394.82509  0.017501112  0.015863718          754 
 1881000   0.50651102   -7.1056996    394.66881  0.017484884  0.015850796          707 
 1882000   0.49871401   -7.1074879    394.63983  0.017474311  0.015837893          738 
 1883000   0.49481938   -7.0963674    395.25263   0.01749215  0.015825001          753 
 1884000   0.48971716   -7.1029001     395.4749  0.017492697  0.015812117          734 
 1885000   0.49805051   -7.1059015    394.28699  0.017430901  0.015799251          741 
 1886000   0.50187438   -7.1022246    394.15082  0.017415643  0.015786399          726 
 1887000   0.50039845   -7.0940172    394.19749  0.017408474  0.015773557          769 
 1888000    0.4995119   -7.1009643    394.89548  0.017430062  0.015760711          701 
 1889000   0.49908801   -7.1152112    394.78065  0.017415769  0.015747898          714 
 1890000   0.50487958   -7.1032771     394.5698  0.017397257  0.015735077          716 
 1891000   0.49039573   -7.0904124    395.03515  0.017408565  0.015722285          652 
 1892000   0.48960566   -7.1160693    394.73084   0.01738596  0.015709496          809 
 1893000   0.49994755   -7.1024612    395.12558  0.017394153  0.015696734          841 
 1894000   0.50525815   -7.0818357    395.22039  0.017389141  0.015683995          812 
 1895000   0.49239028    -7.100718    394.96913  0.017368915  0.015671263          870 
 1896000   0.48925124   -7.1009646    395.27017  0.017372986   0.01565854          766 
 1897000   0.49469085   -7.1013258    394.60296  0.017334517  0.015645816          718 
 1898000   0.48524453   -7.1026738    394.98334  0.017342086  0.015633109          877 
 1899000   0.50955933   -7.1078053    394.70905  0.017320917  0.015620414          827 
 1900000   0.50392016   -7.1021039    394.61136  0.017307516  0.015607728          722 
 1901000    0.5008909   -7.1125488    394.39439    0.0172889  0.015595047          796 
 1902000   0.49525851    -7.101053    394.93009  0.017303281  0.015582374          670 
 1903000   0.48564769   -7.1049362    394.29151  0.017266225  0.015569725          804 
 1904000    0.4917239   -7.1075701    394.35577  0.017259969  0.015557102          784 
 1905000   0.49809749   -7.1188583    394.27565  0.017247404  0.015544472          754 
 1906000   0.48575357   -7.1108635    394.69267  0.017256588  0.015531882          802 
 1907000   0.48755677   -7.1184352    394.70063  0.017247886  0.015519285          799 
 1908000   0.49522391   -7.1157323    394.34391  0.017223266  0.015506697          746 
 1909000   0.48800031   -7.1104128    394.51918  0.017221896  0.015494117          786 
 1910000   0.49899412   -7.1088449    394.83087  0.017226478  0.015481555          797 
 1911000   0.49771092   -7.1055594    395.15235  0.017231482  0.015468995          684 
 1912000     0.481068   -7.1322512    393.58526  0.017154169  0.015456431          797 
 1913000   0.49741193   -7.1309977    394.56338  0.017187811  0.015443874          794 
 1914000   0.49323028   -7.1147957    394.59233  0.017180091  0.015431335          796 
 1915000   0.48672832   -7.1150671    394.01027  0.017145791  0.015418798          724 
 1916000   0.48721999   -7.1201103    394.54529  0.017160112  0.015406299          840 
 1917000   0.48264254   -7.1363693    393.93402  0.017124588   0.01539378          757 
 1918000   0.49665013    -7.116034    394.56226  0.017142956  0.015381299          721 
 1919000   0.48637721   -7.1333804    393.80971  0.017101342  0.015368827          834 
 1920000   0.47651105   -7.1319087    394.33547  0.017115255  0.015356361          779 
 1921000   0.48626711   -7.1208712    394.46862  0.017112121  0.015343905          841 
 1922000   0.48088255   -7.1213332    393.94714  0.017080608  0.015331463          709 
 1923000    0.4884616   -7.1364664    393.99118  0.017073634  0.015319043          793 
 1924000   0.48056548   -7.1217637    393.96873  0.017063788  0.015306627          829 
 1925000   0.48461048   -7.1288648    393.52527  0.017035726  0.015294222          770 
 1926000   0.47738701   -7.1311227    394.55693  0.017071518  0.015281816          795 
 1927000   0.48063641   -7.1392974     394.3282  0.017052768  0.015269443          760 
 1928000   0.48924175   -7.1214833    394.38896  0.017046549  0.015257085          725 
 1929000   0.48814728   -7.1190324    393.75968  0.017010527  0.015244727          800 
 1930000   0.47605723    -7.134104    394.17335  0.017019575  0.015232364          786 
 1931000   0.49054925   -7.1371721    394.50856  0.017025227  0.015220021          757 
 1932000   0.47973908   -7.1438566    393.55401  0.016975242   0.01520769          716 
 1933000   0.46872737   -7.1416988    393.90829  0.016981734  0.015195368          802 
 1934000   0.47415713    -7.149874    394.22414  0.016986562  0.015183056          778 
 1935000   0.47592689   -7.1571279    393.56255  0.016949292  0.015170763          758 
 1936000   0.47681587   -7.1382427    393.70475  0.016946658   0.01515848          754 
 1937000   0.48238914   -7.1447102    394.03141  0.016951962  0.015146222          731 
 1938000   0.46554265   -7.1395021    393.86181  0.016935922  0.015133981          654 
 1939000   0.47868685   -7.1268773    394.60164  0.016958984  0.015121747          735 
 1940000    0.4799725   -7.1355167    394.13789  0.016930322   0.01510953          786 
 1941000   0.48034548   -7.1372114    394.21189  0.016924776   0.01509732          770 
 1942000   0.47960345   -7.1240737    394.39135  0.016923762  0.015085109          741 
 1943000   0.48126089   -7.1430123    393.67463  0.016884312  0.015072918          680 
 1944000   0.47346352   -7.1268774     393.8457   0.01688296  0.015060738          686 
 1945000   0.47131042   -7.1405383    393.60305  0.016863884  0.015048571          635 
 1946000   0.48707931    -7.148261    393.55764  0.016853273  0.015036411          717 
 1947000    0.4843208   -7.1302235    393.82829  0.016856201  0.015024249          788 
 1948000   0.47277769   -7.1333978    393.74657  0.016844052  0.015012111          798 
 1949000   0.46409338   -7.1438552     394.0058  0.016846494   0.01499999          790 
 1950000   0.46077807    -7.133093    394.22702  0.016847309  0.014987875          760 
 1951000   0.48212178   -7.1422127    393.78387  0.016819745  0.014975784          717 
 1952000   0.46889904   -7.1454353    393.52266  0.016799977  0.014963698          715 
 1953000   0.47920435   -7.1339261    394.29559  0.016824355  0.014951625          829 
 1954000   0.47444158   -7.1484186    393.51168  0.016782313  0.014939562          788 
 1955000   0.47046137   -7.1406267    393.43574  0.016770492  0.014927505          745 
 1956000   0.47211016   -7.1363652    393.82348  0.016778437  0.014915452          805 
 1957000   0.46869394   -7.1568512    393.74184  0.016766387  0.014903414          724 
 1958000   0.46862504   -7.1457946    393.45912  0.016745792  0.014891363          789 
 1959000   0.46269376    -7.157807    393.23855  0.016727861  0.014879338          773 
 1960000   0.46912613    -7.148977    393.41697  0.016726912  0.014867324          634 
 1961000    0.4757857   -7.1637614    393.25954  0.016711692  0.014855313          753 
 1962000   0.47738738    -7.159911    393.35873  0.016707387  0.014843312          768 
 1963000   0.46845249   -7.1542222    393.58971  0.016708682  0.014831333          813 
 1964000   0.46071674   -7.1477581    394.14893  0.016723902  0.014819353          781 
 1965000   0.46640377    -7.156228     392.5026  0.016645573  0.014807393          846 
 1966000   0.47416492   -7.1706947    393.30585  0.016671154  0.014795447          749 
 1967000   0.46798529    -7.152198    393.68771  0.016678856  0.014783507          804 
 1968000   0.47564371   -7.1662723    393.72495  0.016671958   0.01477159          816 
 1969000     0.466641   -7.1517278    393.61092  0.016658664  0.014759683          713 
 1970000   0.46353884   -7.1586442      393.127  0.016629738  0.014747777          789 
 1971000   0.47218255   -7.1396054    393.27301  0.016627474  0.014735889          812 
 1972000    0.4698794   -7.1449953    393.61806  0.016633623  0.014724028          720 
 1973000    0.4600967   -7.1603133    393.84345  0.016634712  0.014712171          804 
 1974000   0.45998866   -7.1541373    393.45072  0.016609706  0.014700326          732 
 1975000   0.46917079   -7.1563857    394.19702  0.016632786  0.014688493          731 
 1976000   0.48217755   -7.1722992    393.21129  0.016582797  0.014676678          768 
 1977000   0.47425652   -7.1503621    393.12288  0.016570683  0.014664869          771 
 1978000   0.46600455   -7.1498388    393.49944   0.01657817  0.014653068          809 
 1979000   0.46458809    -7.148988    393.49287  0.016569516  0.014641286          735 
 1980000   0.46076659   -7.1634614    392.54792  0.016521377  0.014629503          735 
 1981000   0.46743189   -7.1557559    394.02253  0.016575069  0.014617736          749 
 1982000   0.46446961    -7.168823    393.11748  0.016528653  0.014605987          741 
 1983000    0.4735763   -7.1839246    393.06458  0.016518095  0.014594234          806 
 1984000   0.46174495   -7.1524849    393.88226  0.016544114   0.01458249          760 
 1985000   0.46180795   -7.1575144    393.09154  0.016502584  0.014570766          897 
 1986000   0.45798842   -7.1641035    393.22901  0.016500042  0.014559023          806 
 1987000   0.45963375   -7.1666637    392.95823  0.016480382  0.014547294          659 
 1988000   0.45982817   -7.1655411    393.34128  0.016488149  0.014535584          803 
 1989000   0.44314931    -7.172828    393.87145  0.016502072  0.014523884          820 
 1990000   0.46560663   -7.1729206    392.81604  0.016449583  0.014512194          855 
 1991000   0.45589725   -7.1854873    393.17195  0.016456217  0.014500534          801 
 1992000   0.45238186   -7.1758718    392.96212  0.016439179  0.014488884          792 
 1993000   0.46383792   -7.1524666    394.27343   0.01648576  0.014477241          709 
 1994000   0.45732747    -7.183406    392.33986  0.016396684  0.014465606          728 
 1995000   0.46173389   -7.1783095    393.28813  0.016428076  0.014453968          798 
 1996000   0.45218503   -7.1911924    392.72648  0.016396396   0.01444235          828 
 1997000   0.46036921   -7.1813848    393.05757  0.016402002   0.01443075          867 
 1998000   0.45298545   -7.1820595    393.12852  0.016396752  0.014419148          816 
 1999000   0.46142694   -7.1923511    392.48647  0.016361784  0.014407558          827 
 2000000   0.44714225   -7.1793911    392.25155  0.016343815  0.014395972          821 
 2001000   0.46223246   -7.1797434     392.5655  0.016348722  0.014384402          763 
 2002000   0.45331142   -7.1625104    392.31243  0.016330021  0.014372853          800 
 2003000   0.45712643   -7.1882015    393.40633  0.016367379  0.014361297          761 
 2004000   0.45585728   -7.1814375    392.62769  0.016326833  0.014349758          748 
 2005000   0.45391705   -7.1786549    393.05692   0.01633653   0.01433823          751 
 2006000   0.44384512   -7.1914445    392.62882  0.016310602  0.014326719          823 
 2007000   0.45866586   -7.1925404    392.14404  0.016282347  0.014315189          862 
 2008000   0.45814223   -7.1791347     392.7869  0.016300917    0.0143037          660 
 2009000   0.46251959   -7.1866898    392.17426  0.016267391   0.01429222          677 
 2010000   0.45633515     -7.18548    392.37915  0.016267792  0.014280741          678 
 2011000   0.45181808    -7.192759    392.70061  0.016273024  0.014269266          747 
 2012000    0.4502665   -7.1834634    392.14056   0.01624174  0.014257804          829 
Loop time of 5200.85 on 48 procs for 2000000 steps with 4000 atoms

Performance: 66450.639 tau/day, 384.552 timesteps/s
99.4% CPU use with 48 MPI tasks x no OpenMP threads

MPI task timing breakdown:
Section |  min time  |  avg time  |  max time  |%varavg| %total
---------------------------------------------------------------
Pair    | 374.77     | 414.54     | 449.09     |  82.6 |  7.97
Neigh   | 36.001     | 37.274     | 38.939     |  11.4 |  0.72
Comm    | 333.27     | 365.99     | 403.65     |  87.7 |  7.04
Output  | 4.7913     | 4.7932     | 4.8436     |   0.3 |  0.09
Modify  | 4318.3     | 4331.5     | 4339.8     |   7.9 | 83.28
Other   |            | 46.8       |            |       |  0.90

Nlocal:        83.3333 ave          90 max          76 min
Histogram: 3 1 3 4 6 13 7 6 2 3
Nghost:        2400.81 ave        2420 max        2382 min
Histogram: 2 3 4 6 7 12 5 5 3 1
Neighs:        16675.8 ave       19696 max       13881 min
Histogram: 2 4 8 1 11 7 5 4 5 1
FullNghs:      33351.2 ave       35920 max       30333 min
Histogram: 3 1 3 4 7 10 8 7 2 3

Total # of neighbors = 1600858
Ave neighs/atom = 400.21450
Neighbor list builds = 107132
Dangerous builds = 0

#clear
#
#next RN
#
#jump SELF
Total wall time: 1:26:44
