
units lj                  # Use reduced LJ style units
atom_style atomic         # Uncharged point particles
atom_modify map hash      # Needed for indexing of clusters etc
                          # Used to be able to find where atoms are in relation to each other.

lattice fcc 1.0 spacing 1 1 1
Lattice spacing in x,y,z = 1.5874011 1.5874011 1.5874011
region box block 0 10 0 10 0 10 units lattice
create_box 2 box
Created orthogonal box = (0.0000000 0.0000000 0.0000000) to (15.874011 15.874011 15.874011)
  3 by 4 by 4 MPI processor grid
create_atoms 1 box
Created 4000 atoms
  using lattice units in orthogonal box = (0.0000000 0.0000000 0.0000000) to (15.874011 15.874011 15.874011)
  create_atoms CPU = 0.002 seconds
set type 1 type/fraction 2 0.82 78393
Setting atom values ...
  3266 settings made for type/fraction
mass 1 1.0
mass 2 1.0
pair_style lj/cut  3.5
pair_modify tail  yes
pair_coeff 1  1  1.0  1.0   # Intearaction between 1 and 1 set with epsilon = 1 and sigma = 1
pair_coeff 1  2  1.5  0.8
pair_coeff 2  2  0.5  0.88

write_data data.0
System init for write_data ...
Neighbor list info ...
  update every 1 steps, delay 10 steps, check yes
  max neighbors/atom: 2000, page size: 100000
  master list distance cutoff = 3.8
  ghost atom cutoff = 3.8
  binsize = 1.9, bins = 9 9 9
  1 neighbor lists, perpetual/occasional/extra = 1 0 0
  (1) pair lj/cut, perpetual
      attributes: half, newton on
      pair build: half/bin/atomonly/newton
      stencil: half/bin/3d
      bin: standard
WARNING: Not all mixed pair coeffs generated from mixing. Use write_data with 'pair ij' option to store all pair coeffs. (../write_data.cpp:312)


#############################
#   M E L T   S Y S T E M   #
#############################

velocity all create 2.4 5300450 mom yes dist gaussian # Assign velocities
                                                    # Temperature 2.4, random number seed, zero linear momentum
                                                                                # Gaussian distribution

timestep 0.002   # simulation timestep
thermo 1000       # output thermodynamic data every 1000 steps bf 100

# Define a fix  in this case with index 1 applied to all
# particles in the simulation. This fix is for simulations
# in the anisotropic NPT ensemble. Note that we use the MTK
# correction.
fix 1 all npt temp 2.4 2.4 0.1 iso 5.68 5.68 0.5 mtk yes tchain 5 pchain 5 # Use NPT ensemble
                                                                         # Set temperature and pressure and damping
                                                                         # Numbers of thermostats in chain and in barostat
run 10000          # run for 10000 steps
Per MPI rank memory allocation (min/avg/max) = 3.642 | 3.644 | 3.648 Mbytes
Step Temp E_pair E_mol TotEng Press Volume 
       0          2.4    -3.598932            0 0.00016796869   -3.1561227         4000 
    1000    2.3464269   -2.8679409            0   0.65081957    5.8006238    3825.9292 
    2000     2.417671   -2.8727347            0   0.75286514    5.8542576    3831.2031 
    3000    2.3878151   -2.8991892            0    0.6816381    5.3733574    3863.8815 
    4000    2.3878411   -2.8725611            0   0.70830499    5.6086257    3860.8764 
    5000    2.3822589   -2.8617642            0   0.71073081    5.7702457    3838.9208 
    6000     2.411783   -2.9194948            0   0.69727533    5.7019385    3820.2614 
    7000    2.4044594    -2.886041            0   0.71974644    5.7609712    3833.1122 
    8000    2.3492951   -2.8777891            0   0.64527261    5.8956828    3808.3451 
    9000     2.375297   -2.8796365            0   0.68241825    6.1345683    3780.9579 
   10000    2.4043884   -2.9283524            0   0.67732854     5.536097    3828.3419 
Loop time of 2.59037 on 48 procs for 10000 steps with 4000 atoms

Performance: 667086.437 tau/day, 3860.454 timesteps/s
99.6% CPU use with 48 MPI tasks x no OpenMP threads

MPI task timing breakdown:
Section |  min time  |  avg time  |  max time  |%varavg| %total
---------------------------------------------------------------
Pair    | 1.134      | 1.203      | 1.3041     |   3.5 | 46.44
Neigh   | 0.21009    | 0.21972    | 0.23752    |   1.3 |  8.48
Comm    | 0.79021    | 0.9076     | 0.98298    |   4.6 | 35.04
Output  | 0.00024572 | 0.00025045 | 0.00031629 |   0.0 |  0.01
Modify  | 0.22206    | 0.24451    | 0.29975    |   3.5 |  9.44
Other   |            | 0.0153     |            |       |  0.59

Nlocal:        83.3333 ave          92 max          69 min
Histogram: 1 0 0 4 10 6 10 8 4 5
Nghost:        1684.90 ave        1709 max        1646 min
Histogram: 2 1 3 3 6 6 5 8 8 6
Neighs:        9956.27 ave       11656 max        7848 min
Histogram: 1 0 0 8 12 9 9 4 3 2

Total # of neighbors = 477901
Ave neighs/atom = 119.47525
Neighbor list builds = 907
Dangerous builds = 204

# Equilibrate just above the melting temperature to avoid step fn in T

fix 1 all npt temp 1.25 1.25 0.1 iso 5.68 5.68 0.5 mtk yes tchain 5 pchain 5
run 2000
Per MPI rank memory allocation (min/avg/max) = 3.643 | 3.645 | 3.649 Mbytes
Step Temp E_pair E_mol TotEng Press Volume 
   10000    2.4043884   -2.9283524            0   0.67732854     5.536097    3828.3419 
   11000    1.2545182   -4.3014598            0    -2.420153    5.7990864    2933.8658 
   12000    1.2490329   -4.2612288            0   -2.3881478     5.694459    2944.2811 
Loop time of 0.63645 on 48 procs for 2000 steps with 4000 atoms

Performance: 543011.866 tau/day, 3142.430 timesteps/s
99.7% CPU use with 48 MPI tasks x no OpenMP threads

MPI task timing breakdown:
Section |  min time  |  avg time  |  max time  |%varavg| %total
---------------------------------------------------------------
Pair    | 0.28247    | 0.30594    | 0.36162    |   2.5 | 48.07
Neigh   | 0.040637   | 0.043078   | 0.050651   |   0.7 |  6.77
Comm    | 0.17751    | 0.23891    | 0.26748    |   3.2 | 37.54
Output  | 5.2695e-05 | 5.4258e-05 | 6.865e-05  |   0.0 |  0.01
Modify  | 0.038459   | 0.043701   | 0.048882   |   1.4 |  6.87
Other   |            | 0.004763   |            |       |  0.75

Nlocal:        83.3333 ave          93 max          74 min
Histogram: 1 2 4 9 9 13 3 3 2 2
Nghost:        2021.94 ave        2057 max        2002 min
Histogram: 6 5 13 1 10 4 5 2 1 1
Neighs:        12966.3 ave       14856 max       11435 min
Histogram: 3 1 9 11 7 5 6 1 3 2

Total # of neighbors = 622384
Ave neighs/atom = 155.59600
Neighbor list builds = 145
Dangerous builds = 18

#############################
# L I N E A R  Q U E N C H  #
#############################

# Define solid atoms. This closely follows ten Wolde  Ruiz-Montero and Frenkel  Faraday Discuss  1996  104  93-110
# Compute components of the per-atom q6 vector
compute q6 all orientorder/atom degrees 1 6 components 6 nnn NULL cutoff 1.3 # compute the Q6 parameter.
                                                                             # Use all neighbours within 1.3 unit cell.

# get number of connections
compute coord_number all coord/atom orientorder q6 0.5

# An atom is solid if it has 8 or more connections (of a possible 14)
variable is_solid atom c_coord_number>=8
group solid dynamic all var is_solid    # Must be dynamic to update
dynamic group solid defined

# do clustering
compute cluster solid cluster/atom 1.3 # Create a cluster where all atoms within are solid and max 1.3 units from another member

# define chunks one chunk per cluster
compute clus_chunks solid chunk/atom c_cluster nchunk every compress yes  # Says which atoms are in which chunk

# count the size of each chunk
compute size_chunks solid property/chunk clus_chunks count


# Find the maximum entry in the vector of chunk sizes
variable max_n equal max(c_size_chunks)


# Thermo style which includes this variable
# thermo_style custom step temp pe vol v_max_n

thermo ${N}  # Print the thermo information every 100 steps
thermo 1000  

# Reset the npt fix at a lower temperature (below freezing)
fix 1  all npt temp  ${temp} ${temp}  0.1  iso  5.68  5.68  0.5  mtk yes tchain  5  pchain  5
fix 1  all npt temp  0.45 ${temp}  0.1  iso  5.68  5.68  0.5  mtk yes tchain  5  pchain  5
fix 1  all npt temp  0.45 0.45  0.1  iso  5.68  5.68  0.5  mtk yes tchain  5  pchain  5

dump dmp2 all dcd ${N} traj.dcd
dump dmp2 all dcd 1000 traj.dcd


compute msd all msd com yes
variable twopoint equal c_msd[4]/6/(step*dt+1.0e-6)
fix 9 all vector 10 c_msd[4]
variable fit equal slope(f_9)/6/(10*dt)
thermo_style custom step temp pe c_msd[4] v_twopoint v_fit v_max_n

fix 1 all npt temp 1.25 ${temp} 0.1 iso 5.68 5.68 0.5 mtk yes tchain 5 pchain 5
fix 1 all npt temp 1.25 0.45 0.1 iso 5.68 5.68 0.5 mtk yes tchain 5 pchain 5
run 500000 # 5000000  # Run for this many steps
Neighbor list info ...
  update every 1 steps, delay 10 steps, check yes
  max neighbors/atom: 2000, page size: 100000
  master list distance cutoff = 3.8
  ghost atom cutoff = 3.8
  binsize = 1.9, bins = 8 8 8
  4 neighbor lists, perpetual/occasional/extra = 1 3 0
  (1) pair lj/cut, perpetual
      attributes: half, newton on
      pair build: half/bin/atomonly/newton
      stencil: half/bin/3d
      bin: standard
  (2) compute orientorder/atom, occasional
      attributes: full, newton on
      pair build: full/bin/atomonly
      stencil: full/bin/3d
      bin: standard
  (3) compute coord/atom, occasional
      attributes: full, newton on
      pair build: full/bin/atomonly
      stencil: full/bin/3d
      bin: standard
  (4) compute cluster/atom, occasional
      attributes: full, newton on
      pair build: full/bin/atomonly
      stencil: full/bin/3d
      bin: standard
Per MPI rank memory allocation (min/avg/max) = 9.835 | 9.838 | 9.841 Mbytes
Step Temp PotEng c_msd[4] v_twopoint v_fit v_max_n 
   12000    1.2490329   -4.2612288 4.7392791e-30 3.2911659e-32 8.3333333e+20            3 
   13000    1.2407451   -4.2292507   0.83295437 0.0053394509  0.069945046            2 
   14000    1.2550154   -4.2930674    1.6702783 0.0099421324  0.070136023       -1e+20 
   15000    1.2364634   -4.3103143    2.4483842  0.013602134  0.069245235            2 
   16000    1.2688405   -4.3200266     3.225756  0.016800812  0.067869633            2 
   17000     1.240624   -4.2815798    4.0547912  0.019876427   0.06702796            2 
   18000    1.2661405    -4.315761     4.922822  0.022790842  0.067757519            3 
   19000    1.2642341   -4.2733734    5.7920922  0.025403913  0.068334965            1 
   20000     1.245929   -4.3214809    6.6576077  0.027740031  0.068440596            2 
   21000    1.2360565   -4.3140009    7.5287258  0.029875895  0.069057938            2 
   22000    1.2255547   -4.3269912    8.3176022  0.031506068  0.069322578            3 
   23000    1.2103159   -4.3062839     9.206014  0.033355122  0.069569224            1 
   24000    1.2278517   -4.3202701    9.9849059  0.034669811  0.069779421            3 
   25000    1.2289187   -4.3536298    10.858065   0.03619355  0.069840404            3 
   26000    1.1957248   -4.3141559    11.666888  0.037393871  0.069915016            1 
   27000    1.1873767   -4.3445643    12.478262  0.038513155  0.069942174            1 
   28000    1.2402553   -4.3519483    13.340314  0.039703316  0.069853032            4 
   29000    1.2337883   -4.3622903    14.056462  0.040392131  0.069716702            3 
   30000    1.2220451   -4.3560983    14.773739  0.041038162  0.069453299            2 
   31000    1.2220124   -4.3386519    15.604328  0.041947117  0.069200491            1 
   32000    1.2146782   -4.3634368     16.28793  0.042416484  0.068917273            2 
   33000    1.1971546   -4.3829391    17.191719  0.043413431  0.068673946            2 
   34000     1.223097   -4.3274129     17.95968  0.044018822  0.068449336            1 
   35000    1.2130563   -4.3489024    18.917294  0.045041175  0.068379083            2 
   36000    1.1986069   -4.3437132     19.69789  0.045596967  0.068319901            3 
   37000    1.2488937   -4.3598421    20.412547  0.045974205  0.068269016            3 
   38000    1.2194463    -4.367323    21.271644  0.046648341  0.068174968            4 
   39000    1.1997488   -4.3650509    21.862675  0.046715117  0.068026726            1 
   40000    1.2126925   -4.3735396    22.600789  0.047084976  0.067854078            2 
   41000    1.2017468   -4.3806023    23.461779  0.047686542  0.067712076            2 
   42000    1.1976118   -4.3781125    24.495035   0.04860126  0.067648871            1 
   43000    1.2372425   -4.3812673    25.280326  0.048992879  0.067661183            2 
   44000     1.188091    -4.352762    26.271708  0.049757022  0.067677421            2 
   45000    1.2260812   -4.3650164    27.017045  0.050031564  0.067699691            3 
   46000    1.1838124   -4.4015158    27.784536  0.050334303  0.067747878            2 
   47000     1.198043   -4.3484724    28.760144  0.050993163  0.067778404            1 
   48000     1.174132   -4.4045871    29.562786   0.05132428  0.067830252            2 
   49000    1.1693203   -4.3965031    30.441628  0.051771476  0.067910652            3 
   50000    1.1854475   -4.3854579     31.09588  0.051826466  0.067969624            2 
   51000    1.2061522   -4.4344116    31.729545  0.051845662  0.067958969            3 
   52000    1.2101747   -4.4205714    32.396931  0.051918157  0.067911969            2 
   53000    1.2002127   -4.3848833    33.076522   0.05200711  0.067808854            2 
   54000    1.1769792   -4.3616591    33.975454  0.052431255  0.067714525            2 
   55000    1.1555319   -4.4079108    34.670042  0.052530366  0.067620492            2 
   56000    1.1902251   -4.3907997    35.509526  0.052841557  0.067544042            2 
   57000    1.1856049   -4.4464673    36.135782   0.05283009  0.067461866            5 
   58000    1.1857278   -4.3835439    36.979202  0.053131036  0.067328166            2 
   59000     1.150929   -4.4491192    37.376332  0.052791429  0.067185872            3 
   60000    1.1597983   -4.4386573    38.281642  0.053168947   0.06704598            1 
   61000    1.1392203   -4.4269371    39.127411  0.053452747  0.066914172            3 
   62000    1.1830332   -4.3930092    39.585216  0.053205935  0.066780488            3 
   63000    1.1465099   -4.4587528    40.348226   0.05337067  0.066656936            2 
   64000    1.1746238   -4.4506849    41.132489  0.053557927  0.066525619            1 
   65000    1.1782769   -4.4108323    41.947662  0.053779054  0.066405058            2 
   66000    1.1720155   -4.4423271     42.73813  0.053962285  0.066288609            2 
   67000    1.1749968   -4.4343685     43.70208  0.054355821  0.066196855            4 
   68000    1.1589816   -4.4525844    44.277973  0.054262222   0.06611302            6 
   69000    1.1567474   -4.4496137    45.311377  0.054723885  0.066051064            2 
   70000    1.1762677   -4.3956275    46.400026  0.055238126  0.066014168            2 
   71000    1.1593014   -4.4403954    46.848952  0.054987032  0.065951188            3 
   72000    1.1468898   -4.4737209    47.424147  0.054889059  0.065882398            2 
   73000    1.1336447   -4.4473231    48.140531  0.054954943  0.065819193            2 
   74000    1.1328427   -4.4360085     49.04138  0.055226779  0.065768767            1 
   75000    1.1444226   -4.4391072    49.805103  0.055339003  0.065712792            3 
   76000    1.1472705   -4.4614316    50.751627  0.055648713  0.065658758            3 
   77000    1.1525756   -4.4393683     51.69741  0.055949578  0.065627903            3 
   78000      1.15383   -4.4292038     52.66192  0.056262735  0.065619697            2 
   79000    1.1527401   -4.5146366    52.984987  0.055891336  0.065611088            5 
   80000    1.1645756   -4.4829473    53.863175  0.056107474  0.065590527            3 
   81000    1.1615424     -4.47931    54.476408  0.056045686   0.06555097            2 
   82000    1.1441216   -4.4784729    55.270825  0.056169538  0.065522428            6 
   83000    1.1272007   -4.4876796    55.822421  0.056046608  0.065475971            8 
   84000    1.1160961   -4.4835132    56.627763  0.056178336  0.065433062            1 
   85000    1.1158386   -4.4996642    57.356427   0.05623179   0.06538379            4 
   86000    1.1273258   -4.4700477    58.242324   0.05643636  0.065331138            3 
   87000    1.1248288    -4.496711     58.32753  0.055869281  0.065275832            2 
   88000    1.1375384   -4.4852618    59.642849  0.056479971  0.065208038            4 
   89000    1.1262897   -4.4954599    59.762536   0.05595743  0.065134212            5 
   90000    1.1227639   -4.5311422    60.628037  0.056137071  0.065052979            2 
   91000    1.1249765   -4.5305017    60.983131  0.055845358  0.064957071            3 
   92000    1.1280621    -4.515207    61.693539  0.055881829   0.06486628            5 
   93000    1.1256892   -4.4859553    62.643331  0.056132017  0.064770583            3 
   94000    1.1104422   -4.4878847    63.584729  0.056369441  0.064679953            3 
   95000     1.122514   -4.5283829    63.584163  0.055775581  0.064585054            3 
   96000    1.1185284    -4.500308     64.57524  0.056054896  0.064482729            3 
   97000     1.150403   -4.4925228    65.357904  0.056149402  0.064380775            3 
   98000    1.0938666   -4.5340268    66.159865  0.056258388  0.064291153            2 
   99000    1.0828079    -4.544188    66.820629   0.05624632  0.064213764            1 
  100000    1.1105548   -4.5377098    67.868864  0.056557386  0.064139275            2 
  101000    1.1128544   -4.5400432    68.193178  0.056264998  0.064063055            3 
  102000    1.0872125   -4.5332844    69.146779  0.056492467  0.063992998            2 
  103000    1.1139826   -4.5471987    69.866361  0.056526182  0.063931865            2 
  104000    1.1278052   -4.5320605    70.873239  0.056789454  0.063877587            1 
  105000    1.0765579    -4.547268    71.316623  0.056600494  0.063826566            2 
  106000    1.1189691   -4.5499046    71.798946  0.056445712  0.063755569            5 
  107000    1.1064534   -4.5789044    72.180594  0.056215416  0.063671185            3 
  108000    1.1030218   -4.5453215    72.747104  0.056132024  0.063579644            2 
  109000    1.0977491   -4.5659855    73.569071  0.056245467  0.063493558            3 
  110000    1.1092513    -4.547095     74.24876   0.05624906  0.063402261            3 
  111000    1.0826558   -4.5600631    74.752954  0.056120836  0.063312807            4 
  112000    1.1031792   -4.5818291    75.227978  0.055973197  0.063222225            2 
  113000    1.0782094   -4.5579878    75.987341  0.056037862  0.063119331            4 
  114000    1.0732026   -4.5644665    76.622885   0.05601088  0.063013825            1 
  115000    1.0992161   -4.5607831    77.129265  0.055890771  0.062902621            1 
  116000    1.0693053   -4.5621841    77.714056  0.055829063  0.062791893            3 
  117000    1.1059877    -4.580827    77.752632  0.055379367  0.062672504            3 
  118000    1.1107036   -4.5626952    78.635615  0.055533626  0.062548649            1 
  119000    1.0737419   -4.5947459    79.075947  0.055375313  0.062430292            2 
  120000    1.0748349   -4.5924987    79.736214   0.05537237  0.062318426            3 
  121000    1.0680919   -4.5586683    80.747765  0.055611408  0.062206335            4 
  122000    1.0699566    -4.609699    81.112519  0.055404726  0.062101754            2 
  123000    1.0719346   -4.6071496    81.824435  0.055436609  0.061993107            2 
  124000    1.0523221   -4.6148076     82.61785  0.055522748  0.061886078            4 
  125000    1.0653284   -4.6086111    82.796927  0.055197951  0.061779596            7 
  126000    1.0785992   -4.6162171    83.392906  0.055154038  0.061670876            2 
  127000    1.0734209   -4.5966614     84.18763  0.055241227  0.061558449            3 
  128000     1.068761   -4.6303283    84.801874  0.055209553  0.061449023            3 
  129000    1.0854684   -4.6162582      85.4198  0.055180749  0.061334054            4 
  130000    1.0610703   -4.6429778    85.710726  0.054942773  0.061221051            2 
  131000    1.0581862   -4.6072314    86.557596  0.055062084  0.061116388            3 
  132000    1.0652983   -4.6486337    87.257455  0.055086777  0.061010984            3 
  133000    1.0490381   -4.5965588    87.693198  0.054945613  0.060905697            4 
  134000    1.0510771   -4.6559145    88.318143  0.054924218   0.06080237            3 
  135000     1.053732   -4.6269286    89.303497  0.055125615  0.060705804            2 
  136000       1.0514   -4.6184812    89.417684  0.054790247  0.060607903            6 
  137000    1.0561403    -4.647381    90.003626  0.054746731  0.060507705            1 
  138000    1.0306747   -4.6313806    90.801822  0.054832018  0.060406879            2 
  139000    1.0610147   -4.6481383    90.790978  0.054431042  0.060299317            3 
  140000    1.0603914   -4.6317731    91.424958  0.054419618   0.06018699            2 
  141000    1.0532635   -4.6489087    91.919201  0.054325768  0.060063501            3 
  142000    1.0465556   -4.5908364    92.590476  0.054337133  0.059943044            4 
  143000    1.0366843   -4.6345455    92.570789  0.053945681  0.059821483            4 
  144000    1.0412831   -4.6360031    93.671642  0.054208126   0.05969883            2 
  145000    1.0559126   -4.6579567    94.338272  0.054217397  0.059583768            6 
  146000    1.0264895   -4.6457683    95.150493  0.054309642  0.059473411            4 
  147000    1.0235034   -4.6599056    95.561559  0.054173219  0.059361634            3 
  148000    1.0217526    -4.639808    96.238758   0.05418849  0.059257897            2 
  149000    1.0084759   -4.6863619    96.842475  0.054162458   0.05915117            2 
  150000    1.0122201    -4.682548    97.364755   0.05409153    0.0590448            2 
  151000   0.99792548   -4.6827106    97.700869  0.053918802  0.058939619            3 
  152000    1.0298752   -4.6666069    98.317202  0.053901974  0.058838651            2 
  153000    1.0187758   -4.6826293    99.350842  0.054112659  0.058739375            2 
  154000    1.0470114   -4.6944083    99.333545  0.053751918  0.058643683            3 
  155000    1.0170506   -4.6787714    100.15259   0.05384548  0.058548921            3 
  156000    1.0281821   -4.7106228    100.49953  0.053685644  0.058452129            5 
  157000   0.99751411    -4.688329    101.21971  0.053725958  0.058353256            2 
  158000   0.99341278   -4.7227547    101.55387  0.053562166  0.058251284            8 
  159000    1.0118959   -4.6783724    101.99026  0.053454017  0.058144491            2 
  160000    1.0125727   -4.6905889    102.37519  0.053320412  0.058036948            2 
  161000   0.99563503    -4.698599    102.82549  0.053222304  0.057929373            3 
  162000    1.0349186   -4.6983039    103.35767  0.053167523  0.057820934            4 
  163000    1.0095318    -4.707219    103.64615   0.05298883  0.057705271            7 
  164000    1.0123262   -4.7015952    104.06378  0.052877939  0.057588716            3 
  165000    1.0023673   -4.7037409     103.7164  0.052382022   0.05746666            3 
  166000   0.98792626    -4.724753    104.39503  0.052407142  0.057339591            4 
  167000    1.0068787   -4.7042255    104.42598  0.052108771  0.057209788            3 
  168000   0.98726084   -4.7352394    104.81512  0.051991625  0.057082244            4 
  169000    1.0087483   -4.7600788    105.56311  0.052052815  0.056954892            3 
  170000    1.0035903   -4.7611135    106.40939  0.052161466  0.056829218            4 
  171000   0.98906618   -4.7150864    106.99852  0.052143529  0.056708573           11 
  172000   0.99591959   -4.6914175    107.20621  0.051940994  0.056585889            3 
  173000    1.0028501    -4.758258    107.71594  0.051886292  0.056467376            7 
  174000   0.99327787   -4.7336074     108.7954  0.052105075  0.056350712            2 
  175000    0.9965164   -4.7519031    109.21717  0.052008177  0.056233368            6 
  176000   0.95997322   -4.7427222    109.37837  0.051788999  0.056116008            2 
  177000   0.97183385   -4.7412878    110.03149  0.051803901  0.055999465            4 
  178000   0.99112989   -4.7887847    109.99867  0.051497506  0.055883167            5 
  179000   0.98690019   -4.7496165     110.3313  0.051364662  0.055764072            3 
  180000   0.98826342   -4.7753853    110.89073    0.0513383  0.055643788            5 
  181000    1.0035265   -4.7744931    111.00543  0.051107473  0.055520221            6 
  182000    0.9806824   -4.7838542    111.40065  0.051007625  0.055399431            5 
  183000   0.96430336   -4.7672652    112.34753  0.051160076  0.055279681            2 
  184000   0.96974674   -4.7644183    112.47734  0.050940824  0.055159363            4 
  185000   0.97650413   -4.7810751    112.63463   0.05073632  0.055037738            8 
  186000    1.0017575   -4.7992764    112.95823  0.050608527  0.054913753            5 
  187000   0.98674765   -4.8024116    113.99287  0.050798962  0.054793567            3 
  188000   0.94316561   -4.7878659    114.07967   0.05056723  0.054672489            2 
  189000   0.97067568   -4.8356475    114.26596  0.050381815  0.054553825           11 
  190000   0.95041187   -4.7961986    114.59561  0.050261234   0.05443293            2 
  191000   0.97852737   -4.8113676    114.92862  0.050143379  0.054307979            5 
  192000   0.94807107   -4.8090276    115.26782  0.050029433  0.054183215            4 
  193000   0.97251972   -4.8228021    115.27046  0.049771357  0.054053015            2 
  194000   0.96279621   -4.7750305    115.83016  0.049755222  0.053923535            3 
  195000   0.95327564   -4.8124065    116.16277  0.049642209  0.053795722            2 
  196000   0.95519067   -4.7852954     116.8131  0.049665433  0.053669313            3 
  197000   0.97634415   -4.7662581    117.31506   0.04962566   0.05354495            2 
  198000   0.96852083   -4.8400312    117.59207   0.04949161  0.053420895            7 
  199000   0.93750722   -4.8475665    118.39176  0.049577789  0.053299394            4 
  200000   0.93750475   -4.8284121    118.54975  0.049395731  0.053180215            3 
  201000   0.95277965   -4.8192032    118.79078  0.049249908   0.05305843            3 
  202000   0.93504918    -4.791209    119.23275  0.049188427  0.052936378            3 
  203000   0.93250552   -4.8443573    119.65551  0.049119665  0.052817078            2 
  204000   0.95012735   -4.8226604    120.29699  0.049140926  0.052698309            2 
  205000   0.93598794   -4.8346085    120.28052  0.048894521  0.052578697            5 
  206000    0.9403327   -4.8251738    120.69221  0.048823708  0.052454528            3 
  207000   0.93923634   -4.8431949     121.0687  0.048739413  0.052335602            2 
  208000   0.91519578   -4.8481405    121.18948  0.048553479  0.052216059            4 
  209000   0.90346628   -4.8253109    122.18798  0.048719289  0.052093477            2 
  210000   0.95319552   -4.8438035    122.07728  0.048443366  0.051972069            7 
  211000   0.93937075   -4.8113722    122.92223  0.048547484  0.051850458            4 
  212000     0.902261   -4.8892031    122.64474  0.048209411  0.051728722            2 
  213000   0.92138833   -4.8402577    123.36174   0.04826359  0.051607499            6 
  214000   0.91062183   -4.8793221    123.26027  0.047998548  0.051488299            7 
  215000   0.90874603   -4.8754678    123.95387  0.048044136  0.051367578            3 
  216000   0.91604884   -4.8474307    124.36815  0.047981539  0.051246042            4 
  217000   0.93056738   -4.9037707    124.39846  0.047772065  0.051122743            4 
  218000   0.92805115   -4.9003254    124.28995  0.047511448  0.051001179            6 
  219000   0.89604969   -4.8931789     124.8621  0.047512215  0.050878963            4 
  220000   0.93766419    -4.864581    125.50976  0.047541575  0.050758367            5 
  221000   0.91037535   -4.9025339     125.6887   0.04739393  0.050637655            6 
  222000   0.93407495   -4.9066447    126.30206  0.047410684  0.050517373            4 
  223000   0.91638355   -4.8940259    126.65087  0.047328426  0.050398993            2 
  224000    0.8847226   -4.9121566    126.84858  0.047190692  0.050281093            3 
  225000   0.91861998   -4.8888741    127.54091  0.047237375  0.050165415            5 
  226000   0.88846278   -4.9002106    127.40576  0.046978525  0.050047785            5 
  227000   0.89669427   -4.9299581    127.37916  0.046761807   0.04992933            6 
  228000   0.89452637   -4.9092342    128.10845  0.046823264  0.049808603            4 
  229000   0.91111657   -4.9057818    128.52394  0.046769991  0.049691562            3 
  230000   0.90982313   -4.9139619     128.4327  0.046533587  0.049574232            6 
  231000   0.90754722   -4.8950436    128.49656  0.046355179  0.049455612            6 
  232000   0.89249768   -4.9228644    128.53604  0.046169555  0.049333858            5 
  233000   0.90064433   -4.9215799    129.09696  0.046172016  0.049211791            3 
  234000   0.89471848   -4.9184191    129.67695   0.04618125  0.049090191            9 
  235000   0.89312571   -4.9202381    129.43486  0.045898886   0.04896836            3 
  236000   0.89735035   -4.9195391    129.84854  0.045850473   0.04884558            7 
  237000   0.88659058   -4.9554219    130.16732  0.045769099  0.048724168            6 
  238000   0.90121461    -4.968005    130.82006  0.045805342  0.048604571            3 
  239000   0.88779115   -4.9513303    130.79752  0.045605829  0.048485769            6 
  240000    0.8861434   -4.9530165     131.4877  0.045655452  0.048367529            2 
  241000   0.88421116   -4.9624367    131.35654  0.045420657  0.048250452            8 
  242000   0.87279426   -4.9459837     132.1573  0.045508712   0.04813363            5 
  243000   0.87554062   -4.9618305    131.86275  0.045220422  0.048015175            3 
  244000   0.89763237    -4.980468    132.43353  0.045230032   0.04789743            3 
  245000   0.88698518   -4.9265272    132.69685  0.045134984  0.047778903            3 
  246000   0.88053605   -4.9825201    132.87629  0.045012293  0.047663362            3 
  247000   0.88724471   -4.9984038    132.80622  0.044806417  0.047546486            6 
  248000   0.88886536   -4.9806479    133.04795  0.044706972  0.047430451            8 
  249000    0.8696222   -4.9814848    133.44426   0.04466006  0.047314617            6 
  250000   0.88060505   -4.9915945    134.14742  0.044715808  0.047197764            4 
  251000   0.86896445   -4.9710084     133.9214  0.044462616  0.047082231           13 
  252000   0.86486255   -5.0068459    134.23787  0.044390829  0.046967741            8 
  253000   0.84189478   -4.9743002    135.09004   0.04449606  0.046854119            4 
  254000   0.87694652   -4.9841275    135.56886  0.044477973  0.046740336            7 
  255000   0.85533209   -5.0016598    135.19341  0.044180854  0.046626431            8 
  256000   0.85846389    -5.008945    135.62839  0.044149867  0.046512939            4 
  257000   0.85195713    -5.023666    135.77854  0.044026765  0.046399037            4 
  258000   0.85636769   -4.9556534    136.60303  0.044122427  0.046285155            6 
  259000   0.84286185    -5.008649    136.17512   0.04381439  0.046170488            3 
  260000   0.86637071   -4.9922055    136.56741  0.043771605  0.046054145            4 
  261000   0.85829281   -4.9952559    136.48243  0.043576766  0.045941288            6 
  262000   0.86553021   -5.0287532    137.01158  0.043578746  0.045828797            5 
  263000   0.84431198   -5.0405923    137.35387  0.043521506  0.045717421           10 
  264000   0.84505322   -5.0516458    137.31715  0.043345061  0.045604369            8 
  265000   0.85015109   -4.9939353    138.19783  0.043458436  0.045491237            4 
  266000   0.85259033   -5.0170701    137.91865  0.043207598  0.045379477            3 
  267000   0.84796043    -5.064283    137.87629  0.043032549  0.045268619           11 
  268000   0.84730826   -5.0355144    138.78656  0.043155024  0.045158187            6 
  269000   0.83053517   -5.0646482     138.6387  0.042948793  0.045048353            4 
  270000   0.84570226   -5.0185381    139.16827   0.04295317  0.044938581            5 
  271000   0.81373014    -5.031335    139.29623  0.042834019  0.044829058            2 
  272000   0.83007971   -5.0423422    139.55197  0.042754892  0.044720083            5 
  273000   0.82386966   -5.0875773    139.73091  0.042652902  0.044611368            9 
  274000   0.83868442   -5.0757609    139.34327   0.04237934  0.044501423           12 
  275000   0.85162933   -5.0956812     139.9805  0.042418332  0.044390928            4 
  276000   0.82481751   -5.0660746    140.67238  0.042473544  0.044281565            8 
  277000   0.82909597    -5.046712    141.15414  0.042465145   0.04417495            5 
  278000   0.81323658   -5.0410405     141.1689  0.042316815  0.044067602           13 
  279000    0.8282862   -5.0708016     140.7407  0.042037247  0.043959107           14 
  280000   0.80781504   -5.0907176    141.23639   0.04203464  0.043851113           12 
  281000   0.81023389   -5.0895555    141.65202  0.042008309  0.043745085            9 
  282000   0.79795314   -5.0890903    141.53894  0.041825929   0.04363901           11 
  283000   0.81550925   -5.0580914    142.17106  0.041864271  0.043533581            6 
  284000   0.79671375   -5.0775565    142.41936  0.041789717  0.043427392            8 
  285000   0.82233379   -5.0797928    142.09282  0.041547608  0.043321938            9 
  286000   0.81327246   -5.0974425    142.41766  0.041496986  0.043215735            5 
  287000   0.82668354    -5.106237    142.98117   0.04151602  0.043110649            3 
  288000   0.79309049   -5.1086115    143.28977   0.04146116  0.043005625            5 
  289000   0.80584876   -5.1168755    142.64649  0.041132205  0.042901755           10 
  290000   0.79058246   -5.0902401    143.75488  0.041308872  0.042797322            4 
  291000   0.78805825   -5.1299243    143.89083  0.041205851  0.042693685            3 
  292000   0.79354455   -5.0969295    143.50931  0.040955854   0.04258925            6 
  293000   0.79325404   -5.1342797    143.96757  0.040946406  0.042485266            9 
  294000   0.78097784   -5.1238675    144.54516  0.040970849  0.042382654            8 
  295000   0.81436234   -5.1109789    144.28972  0.040759807  0.042278428            5 
  296000   0.82800645   -5.1217513    144.57704  0.040702996  0.042174875            7 
  297000   0.78913421   -5.1257387    144.55054  0.040558512  0.042072473            4 
  298000    0.7878865   -5.1176488    145.50212  0.040688511  0.041969818            5 
  299000   0.78979445   -5.1589454    145.19008  0.040465461  0.041867603            5 
  300000   0.78901075   -5.1438759    145.13795  0.040316097  0.041764923            7 
  301000   0.80157501   -5.1403553    145.65431  0.040325114  0.041661691            7 
  302000   0.78050684   -5.1197549    146.26312  0.040359581  0.041559545           10 
  303000   0.79855984   -5.1930822    145.71436  0.040075457   0.04145772            5 
  304000   0.76804901   -5.1763605    146.20776  0.040078881  0.041356734            4 
  305000   0.80214681   -5.1377005     146.4123  0.040003361  0.041255499            6 
  306000   0.77376775   -5.1573638    145.91374  0.039736858  0.041154183            5 
  307000   0.77026074   -5.1395636     146.5072  0.039768512   0.04105274            4 
  308000   0.76393396   -5.1916229    146.68273  0.039686886  0.040951231            6 
  309000   0.80000032   -5.1583468    146.75644  0.039578328  0.040850303            5 
  310000    0.7834381   -5.2032709    146.81885  0.039467433  0.040748495            3 
  311000   0.76453049   -5.1784635    147.33244  0.039478146  0.040647041            5 
  312000   0.77294036   -5.1882385    147.18231  0.039311515  0.040545938            6 
  313000    0.7701031   -5.2243563    146.58631  0.039027239  0.040443824            7 
  314000   0.77685728   -5.1840906    147.57566  0.039165516  0.040342007            6 
  315000   0.75789893   -5.1965908    147.25649  0.038956744   0.04024104            5 
  316000   0.77389255   -5.2108206    147.70431   0.03895156  0.040140541            3 
  317000   0.74973245   -5.2034375     147.5833  0.038796873  0.040040994           10 
  318000   0.76022052   -5.2071115    148.04701  0.038796387  0.039939693           15 
  319000   0.74254014   -5.2112797    148.48601  0.038789449  0.039839713            8 
  320000   0.75699442   -5.2317325    148.51776    0.0386765  0.039740557            6 
  321000   0.75045048   -5.2116425     148.4253  0.038532009  0.039641399            8 
  322000   0.74928383   -5.2432917    148.55631  0.038446251  0.039541934            5 
  323000   0.75013479    -5.242431    148.54152  0.038323406  0.039443221           10 
  324000   0.75417232   -5.2380713    148.63554  0.038229306  0.039344489           13 
  325000   0.75201087   -5.1972301    149.34733  0.038294188  0.039246288            5 
  326000   0.75313542   -5.2276894    149.43609   0.03819941  0.039149301           18 
  327000   0.74742607   -5.2743239    149.15623  0.038011272  0.039051115            7 
  328000   0.74587387   -5.2372104    149.82347  0.038064906  0.038952843            8 
  329000    0.7438319   -5.2330174     150.0629  0.038009854  0.038854927            5 
  330000   0.75237411   -5.2619709    149.62225  0.037783397  0.038756521            9 
  331000   0.72866251   -5.2635602    149.73705  0.037698149  0.038657931           12 
  332000    0.7359821   -5.2803094    149.33622  0.037483992  0.038559979           15 
  333000   0.73850284   -5.2650249     150.1303  0.037570145  0.038462306           12 
  334000     0.727924   -5.2825479    150.06123  0.037440427  0.038365665           15 
  335000   0.71505384   -5.2423093    150.45749  0.037427237  0.038269242            6 
  336000   0.72219692   -5.2752073    150.22873  0.037259109  0.038172135            4 
  337000   0.72858072   -5.2821535    150.51123  0.037218404  0.038075025            6 
  338000   0.72435553   -5.2811746     150.0305  0.036989769  0.037977675           11 
  339000   0.71669147   -5.2702414    150.89123   0.03709224  0.037880442            7 
  340000   0.70762091   -5.3179595    151.04222  0.037020153  0.037783075            6 
  341000   0.72655973    -5.295797    150.95208  0.036889561  0.037687409            3 
  342000   0.71627156   -5.2814455    151.22986  0.036849381  0.037590779            6 
  343000   0.71702729   -5.3185225    150.96893  0.036678555  0.037494371            7 
  344000   0.69804323   -5.2908848    151.03401  0.036587697   0.03739828           10 
  345000   0.72740121     -5.28904    151.26106  0.036536489   0.03730211            6 
  346000   0.71339477   -5.3037633    151.21867  0.036420681  0.037205198            9 
  347000   0.69859357    -5.309421    150.97633  0.036257524  0.037108481            5 
  348000   0.72039535   -5.2892666    151.67395   0.03632039  0.037012304            7 
  349000   0.73847758   -5.3071531    151.44418  0.036161457  0.036916499           10 
  350000   0.70360394   -5.3377382    151.62533  0.036101269  0.036820785            7 
  351000   0.70498789   -5.3103205    151.23889   0.03590667  0.036724238           14 
  352000   0.71456081   -5.3316464     152.0568  0.035998296  0.036628852            7 
  353000   0.70016257   -5.3241918    151.94418  0.035869731  0.036533678            9 
  354000   0.70708932   -5.3057452    152.47966  0.035894459  0.036438789           13 
  355000   0.69870977   -5.3405711    152.36769  0.035767064  0.036344285            8 
  356000   0.70092164   -5.3356533    152.42612   0.03568027  0.036250194            8 
  357000   0.69831135     -5.36541    152.30342  0.035551685  0.036155063            6 
  358000   0.68935165   -5.3304436    152.52079  0.035502977  0.036060591            6 
  359000   0.69579097   -5.3643896    152.57252  0.035416092  0.035966519            4 
  360000   0.70769537   -5.3472316    152.86929  0.035386411  0.035872897            4 
  361000   0.68745671   -5.3803144     152.2758  0.035151384  0.035778974            8 
  362000   0.68596969   -5.3260107    152.39074  0.035080741  0.035685073           13 
  363000   0.71581766   -5.3798472    152.22015  0.034944939  0.035592001           21 
  364000    0.7001437   -5.3769899    153.27873  0.035091285   0.03549878            5 
  365000   0.67542666   -5.3814663    152.74561  0.034873427  0.035405828           12 
  366000   0.68468799   -5.4112639    153.15069  0.034870376  0.035313058           19 
  367000   0.67860378   -5.3664574    153.18163  0.034782387   0.03522083            6 
  368000   0.67205184   -5.3916512     152.9208  0.034628805  0.035128225           20 
  369000   0.68406776   -5.4072972     153.2913   0.03461863  0.035035785            5 
  370000   0.70833592   -5.3862488    153.78055  0.034635258  0.034943134            4 
  371000   0.68012325   -5.3688801    153.65416  0.034513512  0.034851448            9 
  372000   0.66773016   -5.3621943    153.88594  0.034472657  0.034760593            7 
  373000   0.66488375   -5.4093192    153.67506  0.034333122  0.034669386           15 
  374000   0.67710688    -5.397481    153.65933  0.034237818   0.03457777            6 
  375000   0.67282305   -5.4408361    153.34464  0.034076588  0.034486521           22 
  376000   0.66085445   -5.4228168    153.83993  0.034095728  0.034395407           12 
  377000   0.66762616    -5.419264    154.15241  0.034074362  0.034305825            5 
  378000   0.66411967   -5.4403738    154.19813  0.033994298  0.034216996           13 
  379000   0.66036352   -5.4049359     154.2765  0.033921834  0.034128487           11 
  380000   0.66683882   -5.4164858    154.47119  0.033875261  0.034040153           10 
  381000   0.66203307   -5.4037059    154.25847  0.033739823  0.033951657           10 
  382000   0.66034229    -5.443654    154.71177  0.033750386  0.033863007           15 
  383000   0.64778277   -5.4324801    154.78267  0.033677692  0.033774611            7 
  384000   0.66387733   -5.4394503    154.84693  0.033603935  0.033685985            7 
  385000   0.65829747   -5.4353232    154.45637  0.033432114  0.033596724           13 
  386000   0.65463836   -5.4756398    154.16027  0.033281577  0.033507356           19 
  387000   0.63449356   -5.4455388    154.50934  0.033270745  0.033418514           10 
  388000   0.65470145   -5.4545411    154.35466  0.033151775  0.033329921            9 
  389000   0.62542161   -5.4288193     154.6718   0.03313449  0.033241567           10 
  390000   0.63925734   -5.4540688    154.26795  0.032963236  0.033153354            6 
  391000   0.63930546     -5.46332    154.46129  0.032920138  0.033064757           12 
  392000   0.64824034   -5.4638743    154.49642  0.032843628   0.03297626           13 
  393000   0.65053199   -5.4487509    154.71161  0.032805686  0.032888265            3 
  394000   0.63725791   -5.4677202    154.73733  0.032727861  0.032800746           11 
  395000   0.64234778   -5.4800709     154.4911  0.032593058  0.032713166            8 
  396000   0.62519761    -5.478841    154.82685  0.032581407  0.032625722            7 
  397000   0.63865557   -5.4875673     154.8097  0.032495739  0.032538749           11 
  398000   0.62846328   -5.4964627    155.00857  0.032455732  0.032451673           21 
  399000   0.64054755   -5.4936408    154.89959  0.032351627  0.032365095           12 
  400000   0.63757813   -5.5000853    154.74854  0.032239279  0.032278347           19 
  401000   0.63174813   -5.4855399    154.96301  0.032203451  0.032191863           19 
  402000   0.63073139   -5.4971369    155.00219  0.032131465  0.032105664           17 
  403000   0.62838346   -5.4906869    155.53751  0.032162429  0.032019447           27 
  404000   0.62354916   -5.5233582    155.10072  0.031992722  0.031933973           15 
  405000   0.63689531   -5.4928607    155.21235  0.031936697  0.031848766           31 
  406000   0.62255735   -5.5168767    155.50533  0.031918171  0.031763667           18 
  407000   0.61981863   -5.5273302    155.30556  0.031798846   0.03167867           20 
  408000   0.61382711   -5.5403491    155.08408  0.031675669  0.031593395           18 
  409000   0.60217722   -5.5328822    155.20621  0.031623108   0.03150787           20 
  410000   0.60314737   -5.5181401    154.83421  0.031470368  0.031422511           10 
  411000   0.61165926   -5.5404288    155.39393  0.031507285  0.031337245           16 
  412000   0.60497276   -5.5285977    155.57826  0.031468095  0.031252536           22 
  413000   0.58920558   -5.5388283    155.31772   0.03133933  0.031168214           17 
  414000   0.61664979   -5.5525897    154.89263  0.031178066  0.031083966            8 
  415000   0.61410768   -5.5448014    155.68562  0.031262172  0.030999841           10 
  416000   0.59367751   -5.5418716    155.54707  0.031159269  0.030916317           21 
  417000   0.59526973   -5.5727774     155.3636  0.031047881  0.030832196           13 
  418000   0.59704315   -5.5645326    155.22358   0.03094569  0.030748442           27 
  419000    0.5928887   -5.5964024    154.95471   0.03081836  0.030664573           28 
  420000   0.59769328   -5.6032444    155.04342  0.030762583   0.03058051           24 
  421000   0.59078241   -5.5938916     155.6729  0.030814113  0.030496959           31 
  422000   0.59379919   -5.6021004    155.13092  0.030634068    0.0304135           47 
  423000   0.59039544    -5.574828    155.52371  0.030639029  0.030330091           29 
  424000   0.59976885   -5.5764326    155.47837  0.030557855  0.030247193           12 
  425000   0.58229958   -5.5838399    155.41161  0.030472864  0.030164613           72 
  426000   0.58803686   -5.5841862    155.79744  0.030476808  0.030082773           44 
  427000   0.58543841   -5.5872961    155.78022  0.030402072  0.030001174           12 
  428000   0.57890285   -5.5912348    155.81325  0.030337471  0.029919838           20 
  429000    0.5853724   -5.6034755    155.79706  0.030263609  0.029838313            9 
  430000   0.58840483   -5.5871338    156.05158  0.030242555  0.029756819            9 
  431000   0.57573615    -5.584932      156.114  0.030184454  0.029676215           11 
  432000   0.58474172   -5.6049332    155.87534  0.030068545  0.029595819           10 
  433000   0.57242639   -5.6080957    155.57914  0.029942097  0.029515672           10 
  434000   0.57273943   -5.6094671    155.88579  0.029931988  0.029435237           19 
  435000   0.56739286   -5.6136555    156.06118  0.029896778  0.029354965           14 
  436000   0.57756627   -5.6211406    155.60948  0.029741874  0.029274819           36 
  437000   0.57198894   -5.6251302    155.71853  0.029694609  0.029194739           50 
  438000    0.5699098   -5.6510099     155.6256  0.029609132  0.029114638           13 
  439000   0.56829208    -5.655727    155.70761  0.029557252  0.029034758           11 
  440000   0.56472742   -5.6505664    155.41651  0.029434945  0.028954644           26 
  441000   0.55385231   -5.6290368     155.8849  0.029456708  0.028874717           23 
  442000   0.56255339   -5.6566627    155.14073   0.02924976  0.028794684           28 
  443000   0.56075298   -5.6561859    155.56343  0.029263248  0.028714822           14 
  444000   0.54962282   -5.6632653    155.39039  0.029164862  0.028635145           24 
  445000   0.56284456   -5.6712851     155.4383  0.029108295   0.02855563           20 
  446000   0.54567652    -5.664202    155.62679   0.02907825  0.028476157           14 
  447000   0.54933668   -5.6462712    155.83365  0.029051762  0.028397442            9 
  448000   0.54360447   -5.6705048    155.66674  0.028955866  0.028318873           12 
  449000   0.55310334   -5.6686897    155.54042  0.028867932   0.02824067           13 
  450000   0.54360731   -5.6969941     155.5616  0.028807704  0.028162647           10 
  451000   0.54958892   -5.7219731    155.59858  0.028750661  0.028084391           18 
  452000    0.5467691   -5.6937988    155.15701  0.028605644  0.028006405           40 
  453000    0.5408022   -5.6980218    155.40251  0.028587657  0.027928691           28 
  454000   0.54645644   -5.7057781    155.76227  0.028590724  0.027851327           29 
  455000   0.53295001   -5.6982898    155.51577  0.028482742  0.027773989           28 
  456000   0.54187386   -5.7113752    155.54843  0.028426249   0.02769668           41 
  457000   0.54212974   -5.7277593    155.16636  0.028294377  0.027619256           60 
  458000   0.53353414   -5.7152815    155.67903   0.02832588   0.02754188           66 
  459000   0.52693761   -5.6931378    155.62727  0.028254769  0.027465252           76 
  460000   0.55271942   -5.7007828    155.54317   0.02817811  0.027388931           20 
  461000    0.5280488   -5.7185776    155.49496  0.028108272  0.027312383           50 
  462000   0.52625146   -5.6981085    155.44947  0.028039226  0.027235896           34 
  463000   0.53560292   -5.7414105    155.07787  0.027911784  0.027159349           33 
  464000   0.52747305   -5.7293356    155.49725  0.027926949  0.027083231           21 
  465000   0.53102432   -5.7407948    155.29576  0.027830781  0.027007185           18 
  466000   0.53112945   -5.7344822    155.11166  0.027738137  0.026931468           11 
  467000   0.52159805   -5.7370513    155.41852  0.027733498  0.026855778           13 
  468000   0.52033635    -5.762681    154.97555  0.027595361  0.026780215           23 
  469000   0.51441426   -5.7462103    155.06649  0.027552681  0.026704562            7 
  470000    0.5169286    -5.750089    155.05091  0.027491295  0.026628814           23 
  471000   0.52145509    -5.759655    155.04368  0.027431649  0.026553179           36 
  472000   0.51142383   -5.7619303    155.42973  0.027441689  0.026478077           22 
  473000   0.50731035   -5.7448043    155.03907  0.027314847  0.026403411           49 
  474000   0.51859515   -5.7863746    154.88993  0.027231001   0.02632881           54 
  475000   0.50170542   -5.7768162    154.98784  0.027190849  0.026254335           57 
  476000   0.49529004   -5.7960782     154.7268  0.027088025  0.026179856           67 
  477000   0.50749909   -5.7543454    154.81135  0.027046008  0.026105779           59 
  478000   0.50708674   -5.8051921     154.6072  0.026953835  0.026031852           36 
  479000   0.50886854   -5.7953161    154.83074  0.026936454  0.025957831           57 
  480000   0.49322728   -5.7944764    154.95864  0.026902541   0.02588409           45 
  481000   0.50533352   -5.8112294    154.63298   0.02679019  0.025810524          140 
  482000   0.49054052   -5.8211561    154.86871  0.026775365  0.025737111          131 
  483000   0.48258969   -5.8037525    154.33246  0.026627409  0.025663677           95 
  484000   0.49784513   -5.8043048    154.61654  0.026621304  0.025590416           79 
  485000   0.49215096   -5.8259868    154.53212  0.026551911  0.025517469           92 
  486000   0.48723287   -5.8038252    154.52763  0.026496508  0.025444422           68 
  487000   0.48386991    -5.814256    154.53758  0.026443802  0.025371764           90 
  488000   0.48012734   -5.7992578    154.42978  0.026371205  0.025299213           63 
  489000   0.47588333   -5.8311946    154.13758  0.026267481  0.025226767          104 
  490000   0.48465776   -5.8203383    154.10727  0.026208719  0.025154492           67 
  491000   0.49084102   -5.8348336    154.54283  0.026229264  0.025082598          100 
  492000   0.48560243   -5.8169882    154.58177  0.026182549  0.025010869           49 
  493000   0.47769836   -5.8182752     154.5442   0.02612309  0.024939335           96 
  494000   0.47348258    -5.840175    154.60305  0.026080137  0.024867916          141 
  495000   0.48914235   -5.8485885    153.98684  0.025923711  0.024796563          180 
  496000   0.47486288   -5.8355961    154.19051  0.025905664  0.024725277           88 
  497000   0.48363984   -5.8456326    153.91964  0.025808122  0.024654178          130 
  498000   0.47986807   -5.8390671    154.26605  0.025814265  0.024583195           88 
  499000    0.4763994   -5.8561221    154.00978  0.025719737  0.024512517          160 
  500000   0.46708338   -5.8545289    153.78364  0.025630607  0.024442003          104 
  501000   0.46931952   -5.8628117    154.04383  0.025622726  0.024371496          186 
  502000   0.46964353   -5.8538842    153.84321  0.025538382   0.02430131          149 
  503000   0.45433416   -5.8776366    154.10368  0.025530763  0.024231338          220 
  504000   0.45235351   -5.8694273    154.16666   0.02549052  0.024161457          205 
  505000   0.45770051   -5.8762778    153.95961  0.025405876  0.024091902           75 
  506000   0.45868371   -5.9004504    153.79034   0.02532779   0.02402248          120 
  507000   0.45838862   -5.8991449    153.68473  0.025260475  0.023953097          196 
  508000   0.45591757   -5.9035027    153.80194  0.025229976  0.023883749          139 
  509000   0.44537397    -5.891004    153.72242   0.02516739   0.02381474          110 
  510000   0.45297142   -5.8926479    153.10356  0.025016922  0.023745912          212 
  511000   0.45090876   -5.9019406    153.46143  0.025026326  0.023677323          191 
  512000   0.44269261     -5.91011    153.32827  0.024955773   0.02360887           93 
Loop time of 1269.53 on 48 procs for 500000 steps with 4000 atoms

Performance: 68056.643 tau/day, 393.846 timesteps/s
99.4% CPU use with 48 MPI tasks x no OpenMP threads

MPI task timing breakdown:
Section |  min time  |  avg time  |  max time  |%varavg| %total
---------------------------------------------------------------
Pair    | 87.856     | 93.284     | 99.112     |  33.1 |  7.35
Neigh   | 8.616      | 8.9542     | 9.3817     |   7.3 |  0.71
Comm    | 80.124     | 85.951     | 91.866     |  34.2 |  6.77
Output  | 0.91507    | 0.9158     | 0.93805    |   0.3 |  0.07
Modify  | 1065.8     | 1069.1     | 1072.8     |   4.9 | 84.21
Other   |            | 11.3       |            |       |  0.89

Nlocal:        83.3333 ave          90 max          78 min
Histogram: 3 4 4 4 10 16 3 2 0 2
Nghost:        2345.96 ave        2365 max        2331 min
Histogram: 3 3 5 10 8 9 4 4 1 1
Neighs:        16003.5 ave       17310 max       14270 min
Histogram: 1 0 6 5 8 4 6 12 2 4
FullNghs:      32005.9 ave       34704 max       29785 min
Histogram: 2 4 4 7 11 11 5 2 0 2

Total # of neighbors = 1536282
Ave neighs/atom = 384.07050
Neighbor list builds = 26917
Dangerous builds = 0

#clear
#
#next RN
#
#jump SELF
Total wall time: 0:21:13
