
units lj                  # Use reduced LJ style units
atom_style atomic         # Uncharged point particles
atom_modify map hash      # Needed for indexing of clusters etc
                          # Used to be able to find where atoms are in relation to each other.

lattice fcc 1.0 spacing 1 1 1
Lattice spacing in x,y,z = 1.5874011 1.5874011 1.5874011
region box block 0 10 0 10 0 10 units lattice
create_box 2 box
Created orthogonal box = (0.0000000 0.0000000 0.0000000) to (15.874011 15.874011 15.874011)
  3 by 4 by 4 MPI processor grid
create_atoms 1 box
Created 4000 atoms
  using lattice units in orthogonal box = (0.0000000 0.0000000 0.0000000) to (15.874011 15.874011 15.874011)
  create_atoms CPU = 0.007 seconds
set type 1 type/fraction 2 0.21 78393
Setting atom values ...
  872 settings made for type/fraction
mass 1 1.0
mass 2 1.0
pair_style lj/cut  3.5
pair_modify tail  yes
pair_coeff 1  1  1.0  1.0   # Intearaction between 1 and 1 set with epsilon = 1 and sigma = 1
pair_coeff 1  2  1.5  0.8
pair_coeff 2  2  0.5  0.88

write_data data.0
System init for write_data ...
Neighbor list info ...
  update every 1 steps, delay 10 steps, check yes
  max neighbors/atom: 2000, page size: 100000
  master list distance cutoff = 3.8
  ghost atom cutoff = 3.8
  binsize = 1.9, bins = 9 9 9
  1 neighbor lists, perpetual/occasional/extra = 1 0 0
  (1) pair lj/cut, perpetual
      attributes: half, newton on
      pair build: half/bin/atomonly/newton
      stencil: half/bin/3d
      bin: standard
WARNING: Not all mixed pair coeffs generated from mixing. Use write_data with 'pair ij' option to store all pair coeffs. (../write_data.cpp:312)


#############################
#   M E L T   S Y S T E M   #
#############################

velocity all create 2.4 6229865 mom yes dist gaussian # Assign velocities
                                                    # Temperature 2.4, random number seed, zero linear momentum
                                                                                # Gaussian distribution

timestep 0.002   # simulation timestep
thermo 1000       # output thermodynamic data every 1000 steps bf 100

# Define a fix  in this case with index 1 applied to all
# particles in the simulation. This fix is for simulations
# in the anisotropic NPT ensemble. Note that we use the MTK
# correction.
fix 1 all npt temp 2.4 2.4 0.1 iso 5.68 5.68 0.5 mtk yes tchain 5 pchain 5 # Use NPT ensemble
                                                                         # Set temperature and pressure and damping
                                                                         # Numbers of thermostats in chain and in barostat
run 10000          # run for 10000 steps
Per MPI rank memory allocation (min/avg/max) = 3.642 | 3.644 | 3.648 Mbytes
Step Temp E_pair E_mol TotEng Press Volume 
       0          2.4   -6.9803555            0   -3.3812555   -3.6586826         4000 
    1000    2.4122631   -4.8677916            0   -1.2503015    5.6408665    4434.0683 
    2000    2.3794527   -4.7862504            0   -1.2179636     5.592246    4472.7197 
    3000    2.3955148   -4.8701647            0   -1.2777908    6.0805639    4384.1574 
    4000    2.3754256   -4.8306557            0    -1.268408    5.6356454    4460.9019 
    5000    2.4311651    -4.887986            0     -1.24215    5.4034677    4445.0046 
    6000    2.3630727   -4.8823419            0    -1.338619    5.6724944    4416.8772 
    7000    2.4055117   -4.8611296            0    -1.253764    5.7847937    4426.0307 
    8000    2.4379538   -4.8426427            0   -1.1866262    5.6583542    4449.4859 
    9000    2.3911774   -4.7927942            0   -1.2069248     5.884919    4440.3074 
   10000    2.4472664   -4.8272806            0   -1.1572987    5.7167806    4447.8519 
Loop time of 2.29615 on 48 procs for 10000 steps with 4000 atoms

Performance: 752562.666 tau/day, 4355.108 timesteps/s
99.6% CPU use with 48 MPI tasks x no OpenMP threads

MPI task timing breakdown:
Section |  min time  |  avg time  |  max time  |%varavg| %total
---------------------------------------------------------------
Pair    | 0.96761    | 1.0403     | 1.1509     |   4.0 | 45.31
Neigh   | 0.19452    | 0.20469    | 0.2237     |   1.2 |  8.91
Comm    | 0.68343    | 0.79765    | 0.91651    |   5.7 | 34.74
Output  | 0.0002434  | 0.00024712 | 0.00030947 |   0.0 |  0.01
Modify  | 0.19626    | 0.23865    | 0.29945    |   5.8 | 10.39
Other   |            | 0.0146     |            |       |  0.64

Nlocal:        83.3333 ave          91 max          73 min
Histogram: 1 3 1 6 3 10 9 8 4 3
Nghost:        1530.17 ave        1553 max        1502 min
Histogram: 4 0 2 4 12 4 6 6 8 2
Neighs:        8573.46 ave        9693 max        7355 min
Histogram: 3 1 4 3 11 9 7 4 4 2

Total # of neighbors = 411526
Ave neighs/atom = 102.88150
Neighbor list builds = 907
Dangerous builds = 212

# Equilibrate just above the melting temperature to avoid step fn in T

fix 1 all npt temp 1.25 1.25 0.1 iso 5.68 5.68 0.5 mtk yes tchain 5 pchain 5
run 2000
Per MPI rank memory allocation (min/avg/max) = 3.643 | 3.645 | 3.649 Mbytes
Step Temp E_pair E_mol TotEng Press Volume 
   10000    2.4472664   -4.8272806            0   -1.1572987    5.7167806    4447.8519 
   11000    1.2236413   -6.5451969            0   -4.7101939    5.9386795    3612.2384 
   12000    1.2389926   -6.5710952            0    -4.713071    5.6087046    3621.7209 
Loop time of 0.507485 on 48 procs for 2000 steps with 4000 atoms

Performance: 681004.687 tau/day, 3940.999 timesteps/s
99.6% CPU use with 48 MPI tasks x no OpenMP threads

MPI task timing breakdown:
Section |  min time  |  avg time  |  max time  |%varavg| %total
---------------------------------------------------------------
Pair    | 0.22403    | 0.24649    | 0.27178    |   2.2 | 48.57
Neigh   | 0.032124   | 0.034416   | 0.037196   |   0.6 |  6.78
Comm    | 0.14772    | 0.17317    | 0.19426    |   2.9 | 34.12
Output  | 5.0583e-05 | 5.1806e-05 | 6.5315e-05 |   0.0 |  0.01
Modify  | 0.042243   | 0.048797   | 0.061315   |   2.1 |  9.62
Other   |            | 0.004569   |            |       |  0.90

Nlocal:        83.3333 ave          92 max          75 min
Histogram: 2 3 6 5 7 12 3 6 2 2
Nghost:        1751.35 ave        1768 max        1735 min
Histogram: 6 2 2 8 5 6 9 4 3 3
Neighs:        10532.9 ave       12181 max        9324 min
Histogram: 3 4 4 13 7 10 2 4 0 1

Total # of neighbors = 505577
Ave neighs/atom = 126.39425
Neighbor list builds = 142
Dangerous builds = 11

#############################
# L I N E A R  Q U E N C H  #
#############################

# Define solid atoms. This closely follows ten Wolde  Ruiz-Montero and Frenkel  Faraday Discuss  1996  104  93-110
# Compute components of the per-atom q6 vector
compute q6 all orientorder/atom degrees 1 6 components 6 nnn NULL cutoff 1.3 # compute the Q6 parameter.
                                                                             # Use all neighbours within 1.3 unit cell.

# get number of connections
compute coord_number all coord/atom orientorder q6 0.5

# An atom is solid if it has 8 or more connections (of a possible 14)
variable is_solid atom c_coord_number>=8
group solid dynamic all var is_solid    # Must be dynamic to update
dynamic group solid defined

# do clustering
compute cluster solid cluster/atom 1.3 # Create a cluster where all atoms within are solid and max 1.3 units from another member

# define chunks one chunk per cluster
compute clus_chunks solid chunk/atom c_cluster nchunk every compress yes  # Says which atoms are in which chunk

# count the size of each chunk
compute size_chunks solid property/chunk clus_chunks count


# Find the maximum entry in the vector of chunk sizes
variable max_n equal max(c_size_chunks)


# Thermo style which includes this variable
# thermo_style custom step temp pe vol v_max_n

thermo ${N}  # Print the thermo information every 100 steps
thermo 1000  

# Reset the npt fix at a lower temperature (below freezing)
fix 1  all npt temp  ${temp} ${temp}  0.1  iso  5.68  5.68  0.5  mtk yes tchain  5  pchain  5
fix 1  all npt temp  0.45 ${temp}  0.1  iso  5.68  5.68  0.5  mtk yes tchain  5  pchain  5
fix 1  all npt temp  0.45 0.45  0.1  iso  5.68  5.68  0.5  mtk yes tchain  5  pchain  5

dump dmp2 all dcd ${N} traj.dcd
dump dmp2 all dcd 1000 traj.dcd


compute msd all msd com yes
variable twopoint equal c_msd[4]/6/(step*dt+1.0e-6)
fix 9 all vector 10 c_msd[4]
variable fit equal slope(f_9)/6/(10*dt)
thermo_style custom step temp pe c_msd[4] v_twopoint v_fit v_max_n

fix 1 all npt temp 1.25 ${temp} 0.1 iso 5.68 5.68 0.5 mtk yes tchain 5 pchain 5
fix 1 all npt temp 1.25 0.45 0.1 iso 5.68 5.68 0.5 mtk yes tchain 5 pchain 5
run 500000 # 5000000  # Run for this many steps
Neighbor list info ...
  update every 1 steps, delay 10 steps, check yes
  max neighbors/atom: 2000, page size: 100000
  master list distance cutoff = 3.8
  ghost atom cutoff = 3.8
  binsize = 1.9, bins = 9 9 9
  4 neighbor lists, perpetual/occasional/extra = 1 3 0
  (1) pair lj/cut, perpetual
      attributes: half, newton on
      pair build: half/bin/atomonly/newton
      stencil: half/bin/3d
      bin: standard
  (2) compute orientorder/atom, occasional
      attributes: full, newton on
      pair build: full/bin/atomonly
      stencil: full/bin/3d
      bin: standard
  (3) compute coord/atom, occasional
      attributes: full, newton on
      pair build: full/bin/atomonly
      stencil: full/bin/3d
      bin: standard
  (4) compute cluster/atom, occasional
      attributes: full, newton on
      pair build: full/bin/atomonly
      stencil: full/bin/3d
      bin: standard
Per MPI rank memory allocation (min/avg/max) = 9.775 | 9.782 | 9.788 Mbytes
Step Temp PotEng c_msd[4] v_twopoint v_fit v_max_n 
   12000    1.2389926   -6.5710952 1.8993798e-30 1.3190137e-32 8.3333333e+20            2 
   13000    1.2422426   -6.5698643   0.53384895 0.0034221085  0.043463351            3 
   14000    1.2448275   -6.6187148    1.0541151 0.0062744947  0.043509745            1 
   15000    1.2588614   -6.5989835    1.5532783 0.0086293237  0.042936995            2 
   16000    1.2384264   -6.5660368    2.0385081   0.01061723  0.042169078            1 
   17000    1.2416624   -6.5977601    2.4942778  0.012226852  0.041435191            1 
   18000    1.2372323   -6.6395326    2.9492807  0.013654077  0.040818979            2 
   19000    1.2280652   -6.6031807    3.4457697  0.015113025  0.040361641            4 
   20000    1.2370455   -6.6103575    3.9707402  0.016544751  0.040336382            3 
   21000    1.2313805   -6.6553098     4.399549  0.017458527   0.04035087            1 
   22000    1.2570623   -6.6236491    4.8610493  0.018413065  0.040172106            1 
   23000    1.2409122   -6.6472578    5.3367621  0.019336094  0.040015274            2 
   24000    1.2158582   -6.6281997    5.8361918  0.020264554  0.039978166            2 
   25000    1.2349984   -6.6136833    6.3288192  0.021096064  0.039963524            2 
   26000    1.2108392   -6.6528572    6.7527267  0.021643354  0.039900885            1 
   27000    1.1947223   -6.6641328    7.1789149  0.022157144  0.039781342            2 
   28000    1.2142246   -6.6537885    7.6714807  0.022831787  0.039642281            2 
   29000    1.2428526   -6.6485488    8.0176928  0.023039347  0.039460053            2 
   30000     1.249269   -6.7158616    8.4300289  0.023416747  0.039200745            3 
   31000    1.2391048    -6.627201    8.9917269  0.024171308  0.039037336            3 
   32000    1.2277288    -6.712022    9.4630535  0.024643368  0.038970353            2 
   33000     1.199323    -6.696765    9.9449453  0.025113498  0.038944381            1 
   34000    1.2086556    -6.689415    10.508168  0.025755314  0.038980427            1 
   35000     1.208924   -6.6756285    10.959685  0.026094488  0.039074206            3 
   36000    1.2103549   -6.6523261    11.436244  0.026472786  0.039100709            2 
   37000    1.2226707   -6.6565238    11.852509  0.026694839  0.039083634            2 
   38000     1.227822   -6.7007905    12.316648  0.027010193  0.039073463            1 
   39000    1.1991819   -6.7074382    12.733541  0.027208421  0.039071868            4 
   40000    1.1775087   -6.6825863    13.267336  0.027640282  0.039052456            2 
   41000    1.2113043   -6.6962198    13.840852  0.028131813  0.039094965            2 
   42000    1.2115872   -6.6553856    14.315727   0.02840422  0.039135518            2 
   43000    1.2320419   -6.6681689    14.621855  0.028336928  0.039144095            3 
   44000     1.214662   -6.7196336    15.101481  0.028601289  0.039110082            2 
   45000    1.2031626   -6.6981856    15.519248  0.028739348    0.0390486            2 
   46000    1.2100827   -6.7177026    15.856824   0.02872613  0.038986471            2 
   47000    1.1775437   -6.7227182    16.508633  0.029270625  0.038943998            4 
   48000    1.1878268    -6.665237    16.863563  0.029277018   0.03891516            1 
   49000    1.1812391   -6.6979255    17.282607  0.029392188  0.038842281            1 
   50000     1.208365   -6.7138184    17.663471  0.029439118  0.038792598            2 
   51000    1.2294391   -6.7301002    18.103963  0.029581639  0.038726117            1 
   52000    1.1724462   -6.6919375    18.519807  0.029679177  0.038651474            3 
   53000    1.1646589   -6.7348396    18.896525  0.029711518  0.038566251            1 
   54000    1.1935633   -6.7537752    19.397835  0.029934931  0.038486002            3 
   55000    1.1800414    -6.716513    19.681132  0.029819897   0.03837344            4 
   56000    1.1805523   -6.6987781    20.116843  0.029935779  0.038263491            1 
   57000    1.1974833   -6.7286224    20.458688  0.029910362  0.038168601            2 
   58000    1.1693513   -6.6943063    20.931807  0.030074435  0.038061653            2 
   59000    1.1612404   -6.7564081    21.186656  0.029924656  0.037953211            1 
   60000     1.183375   -6.7564491    21.597398  0.029996386  0.037834934            1 
   61000    1.2106053   -6.7325214    22.096488  0.030186459  0.037726619            1 
   62000    1.1765925   -6.7418023    22.422719  0.030138063  0.037618398            1 
   63000    1.1703112   -6.7283094      22.7594  0.030105027  0.037502958            2 
   64000     1.187409   -6.7692464    23.245484  0.030267557  0.037401596            1 
   65000    1.1509599       -6.765    23.676731  0.030354783   0.03731486            2 
   66000    1.1493581   -6.7878925    23.956151  0.030247666  0.037223396            1 
   67000    1.1685787    -6.787396    24.416632  0.030368945  0.037128793            2 
   68000    1.1449619    -6.786671    24.956667  0.030584151   0.03705252            2 
   69000    1.1589792    -6.809392    25.156141  0.030381813  0.036973189            1 
   70000    1.1493618   -6.7532783    25.806393  0.030721896  0.036894321            3 
   71000    1.1520947   -6.8019379    26.087528  0.030619164  0.036818344            1 
   72000    1.1619742   -6.7429377    26.598033   0.03078476  0.036750619            3 
   73000    1.1254959   -6.7700442    26.933977  0.030746549  0.036690175            1 
   74000    1.1289668   -6.8143054    27.503779  0.030972724   0.03663709            2 
   75000    1.1406695   -6.7326399    27.914961  0.031016624  0.036586482            3 
   76000    1.1646537    -6.845363    28.144347  0.030860029  0.036533148            2 
   77000    1.1634977   -6.7867648    28.766702  0.031132794  0.036478955            2 
   78000    1.1242293   -6.8092797    29.144518  0.031137305  0.036440475            4 
   79000    1.1096468   -6.8210207    29.453511  0.031069104  0.036390386            3 
   80000    1.1502346   -6.8059722    29.930318  0.031177415  0.036338748            1 
   81000    1.1486962   -6.8259699    30.398067  0.031273731  0.036295505            2 
   82000    1.1282651   -6.8225051    30.820368  0.031321512  0.036258323            2 
   83000    1.1063182   -6.8015775     31.28414  0.031409779  0.036220123            2 
   84000    1.1185406   -6.8113952    31.439019  0.031189503  0.036177325            1 
   85000    1.1418782   -6.8628371    31.587054    0.0309677  0.036115901            1 
   86000    1.1485311   -6.8516624    32.121149  0.031125144  0.036050052            1 
   87000    1.1246316   -6.8033794    32.518729  0.031148208  0.035992067            3 
   88000    1.1389143   -6.8619006    32.727464  0.030991917  0.035929851            1 
   89000     1.106058   -6.8440812    33.193513  0.031080069  0.035862928            3 
   90000    1.1139269   -6.8613133    33.466023  0.030987058   0.03579764            1 
   91000    1.1378106   -6.8479031    33.829889  0.030979752  0.035729945            4 
   92000     1.111133   -6.8626869    34.394043  0.031154024   0.03566572            1 
   93000    1.1310518   -6.8664045    34.863455  0.031239655  0.035605809            1 
   94000      1.10807   -6.8457116    35.145868  0.031157684  0.035551893            2 
   95000    1.1230845   -6.8317432    35.630849   0.03125513  0.035500434            2 
   96000     1.096179   -6.8768389    35.960114  0.031215377  0.035445694            3 
   97000    1.1154238   -6.8780452    36.165092  0.031069667  0.035390302            2 
   98000    1.1252541   -6.8519235    36.603583  0.031125495  0.035330882            2 
   99000    1.1252907   -6.8597255    36.939605  0.031093944  0.035268882            2 
  100000    1.1332186   -6.8757845    37.024848   0.03085404   0.03520143            2 
  101000    1.1200833   -6.9033676    37.337372  0.030806412  0.035126472            3 
  102000    1.1098646   -6.9308249    37.555169  0.030682328  0.035046873            2 
  103000    1.1034384   -6.8726468    38.065404  0.030797252  0.034964058            2 
  104000    1.0996756   -6.8913403    38.170926  0.030585678   0.03487983            2 
  105000    1.1041123   -6.8673001    38.683071   0.03070085  0.034795925            2 
  106000     1.088003     -6.88456    38.975548  0.030641154  0.034718186            2 
  107000    1.0967385       -6.887    39.565493  0.030814247  0.034644429            1 
  108000    1.0918991    -6.898035    39.832528  0.030734975  0.034581755            2 
  109000     1.100784   -6.9274059    40.157165  0.030701197  0.034516835            2 
  110000    1.1108629   -6.9148133     40.65565  0.030799734  0.034454421            2 
  111000    1.0939809    -6.952009    40.951845  0.030744628  0.034389608            2 
  112000    1.1091903   -6.8531021     41.25534  0.030695937  0.034321533            2 
  113000    1.0834387   -6.8876897    41.529218  0.030626267  0.034254028            2 
  114000    1.1054169   -6.9160979    41.941033   0.03065865  0.034185674            3 
  115000    1.0726874   -6.9183522    42.280363  0.030637944  0.034124886            1 
  116000     1.098176   -6.9025687    42.541157  0.030561176  0.034062944            4 
  117000     1.081025   -6.9490915    42.899395  0.030555125  0.034002231            4 
  118000    1.0548016   -6.9471857    43.133144  0.030461259  0.033936812            2 
  119000    1.0775231   -6.9233214    43.427046  0.030411096  0.033870977            1 
  120000    1.0611226   -6.9371835    43.794637  0.030412943  0.033801548            1 
  121000    1.0475586   -6.9337085    44.189227  0.030433352   0.03373393            3 
  122000    1.0902898    -6.964047    44.539931   0.03042345  0.033667433            2 
  123000    1.0640668   -6.9526503    45.040919  0.030515527  0.033603302            5 
  124000    1.0805663   -6.9512859    45.110025  0.030315877  0.033541019            2 
  125000    1.0804643   -6.9483744    45.577732  0.030385155  0.033475974            2 
  126000    1.0654347   -6.9547234    45.860988  0.030331341  0.033417458            3 
  127000    1.0872052   -6.9728343    46.073289  0.030231817  0.033358112            3 
  128000    1.0560877   -6.9755593    46.532062  0.030294311  0.033296317            3 
  129000    1.0454035   -6.9571595    46.938729  0.030322176  0.033234816            2 
  130000    1.0639049   -6.9808647    47.105503  0.030195835  0.033172751            2 
  131000    1.0663848   -6.9658221    47.583944  0.030269684    0.0331115            2 
  132000    1.0640544   -6.9378607    47.810295  0.030183267  0.033049831            1 
  133000    1.0376599   -6.9675156    48.087564  0.030130053  0.032990023            3 
  134000    1.0462688   -6.9498222     48.35261  0.030070031  0.032928019            2 
  135000    1.0334604    -6.944827    48.437467  0.029899671   0.03286253            3 
  136000    1.0560721    -6.972105    48.760088  0.029877505  0.032795145            2 
  137000    1.0524072   -7.0047175    48.914366  0.029753264  0.032725354            4 
  138000    1.0505902   -7.0184545     49.13882    0.0296732  0.032652232            2 
  139000    1.0410682   -7.0095135    49.225228  0.029511528  0.032575766            2 
  140000    1.0831458   -7.0273169    49.496331  0.029462102  0.032496156            2 
  141000    1.0266957   -7.0022894    49.751181  0.029403771  0.032413228            2 
  142000    1.0478635   -7.0266321    49.617566   0.02911829  0.032326746            2 
  143000    1.0392509   -6.9926055     50.12577  0.029210822   0.03223993            4 
  144000    1.0153308    -7.026872    50.279917  0.029097174  0.032155927            3 
  145000     1.047764   -7.0077032    50.705974  0.029141364  0.032070219            2 
  146000    1.0629501   -7.0279749    50.844542  0.029020857   0.03198493            2 
  147000    1.0498542   -7.0535053    50.908166  0.028859505  0.031900012            5 
  148000    1.0448101   -7.0091276    51.337524  0.028906263  0.031815083            2 
  149000    1.0294204   -7.0149012    51.640622   0.02888178   0.03172908            2 
  150000    1.0527446   -7.0332824     51.79978  0.028777655  0.031642768            1 
  151000    1.0403196   -7.0239628     51.98864  0.028691303  0.031554741            2 
  152000    1.0414183   -7.0341242    52.151879  0.028592039  0.031468089            3 
  153000    1.0303552   -7.0472298    52.447603  0.028566232  0.031379515            2 
  154000    1.0503836   -7.0520127    52.353954  0.028330061  0.031289533            2 
  155000    1.0132446   -7.0199706    52.808527  0.028391681  0.031198361            1 
  156000    1.0173206   -7.0585786    52.913751  0.028265893  0.031107443            3 
  157000    1.0340579   -7.0191996    53.282532  0.028281599  0.031016224            4 
  158000    1.0417189   -7.0570407    53.404581  0.028166973  0.030924787            3 
  159000    1.0415278   -7.0599858    53.486897  0.028032965  0.030832083            3 
  160000    1.0388521   -7.0538704    53.701549  0.027969557  0.030740791            1 
  161000   0.99596439   -7.0529292    53.812106  0.027853057  0.030647788            1 
  162000     1.018548   -7.0717701    54.155733  0.027857887  0.030556293            2 
  163000    1.0022497   -7.0765805    54.510827  0.027868521  0.030464225            2 
  164000   0.99719787   -7.0613379    54.640994  0.027764733  0.030376525            2 
  165000   0.99553711    -7.084403    54.946575  0.027750795  0.030290537            3 
  166000    1.0131018   -7.1502615    55.232728  0.027727273  0.030204342            2 
  167000    1.0057381   -7.1204781    55.556189  0.027722649  0.030119495            5 
  168000   0.97824232   -7.0648643    55.677183   0.02761765  0.030034405            1 
  169000   0.99767406   -7.0945326    55.962662  0.027595001  0.029951304            3 
  170000    1.0144914   -7.0768401    56.115661  0.027507677  0.029868521            4 
  171000    1.0010389   -7.1362016    56.353474  0.027462707  0.029785263            2 
  172000   0.97215925   -7.1232418     56.65006  0.027446735  0.029702694            3 
  173000    1.0024887    -7.136067    56.730978  0.027327061   0.02962021            3 
  174000    0.9992678   -7.1330868    57.163862  0.027377329  0.029536857            6 
  175000    0.9811839   -7.1077565    57.430246  0.027347736  0.029456797            2 
  176000   0.99867469   -7.1272329    57.512789  0.027231434  0.029375756            4 
  177000    0.9800683   -7.1186744    57.632782  0.027134078  0.029295335            2 
  178000   0.99486552   -7.1460775    57.781162  0.027051106  0.029212851            5 
  179000   0.98361984   -7.1282371     58.03807  0.027019585  0.029131632            3 
  180000   0.98843951   -7.1255743    58.045051  0.026872709  0.029048625            2 
  181000   0.98560704   -7.1561721    58.340965  0.026860481  0.028965087            2 
  182000    0.9808276   -7.1054694    58.714715  0.026884027   0.02888227            2 
  183000   0.96618429   -7.1567291    58.798019  0.026775054  0.028799332            4 
  184000   0.96563858    -7.127986    58.975553  0.026709942  0.028717762            2 
  185000   0.97637675   -7.1480535    59.021807    0.0265864    0.0286348            2 
  186000   0.95903176   -7.1079633    59.183535  0.026515921  0.028552275            2 
  187000   0.96740231   -7.1718653    59.288221  0.026420776  0.028469112            5 
  188000   0.96626635    -7.160579    59.512677  0.026379733  0.028385748            2 
  189000   0.97728288   -7.1572165    59.583584  0.026271421  0.028302392            2 
  190000   0.95429424   -7.1592198    59.908205  0.026275529  0.028217793            2 
  191000   0.94226588   -7.1590099     59.97568    0.0261674  0.028134464            4 
  192000   0.95499954   -7.1460802    60.235052  0.026143686  0.028051925            1 
  193000   0.96572487   -7.2180586    60.151753  0.025972259  0.027969347            5 
  194000   0.98542029   -7.1720505      60.6244  0.026041409  0.027886927            3 
  195000   0.96039838   -7.1914829    60.607428   0.02590061  0.027805909            3 
  196000   0.95514029     -7.16861    61.095634  0.025976035  0.027726845            3 
  197000   0.94117384   -7.2151296    61.275135  0.025920108  0.027647606            2 
  198000   0.94519683   -7.1965283    61.376018  0.025831657  0.027568471            1 
  199000   0.94908406   -7.1950226    61.539323  0.025770236  0.027488864            1 
  200000   0.95483793   -7.1965708    61.623071  0.025676279  0.027409964            2 
  201000   0.94375151   -7.2239268    61.722396  0.025589716  0.027330317            1 
  202000   0.94125665   -7.2006301    62.015088  0.025583782   0.02725094            1 
  203000   0.94493462   -7.2356983    62.189102  0.025529188  0.027171696            1 
  204000   0.94688095   -7.2278373    62.407383  0.025493212  0.027093937            4 
  205000   0.96155538   -7.2360964     62.45069  0.025386459  0.027018458            2 
  206000   0.94572285   -7.2174326    62.900372  0.025445134  0.026942726            3 
  207000   0.92432169   -7.2623641    62.882215  0.025314901  0.026867656            3 
  208000   0.93198832   -7.2022936    63.461462  0.025425265  0.026794765            5 
  209000   0.94463301   -7.2095756     63.63431  0.025372532  0.026723947            3 
  210000   0.90999543   -7.2389945    63.755012  0.025299608  0.026653142            3 
  211000   0.95133007    -7.283842    63.658498  0.025141587  0.026581905            2 
  212000   0.91291805   -7.2482157    64.011959  0.025161934  0.026509339            1 
  213000   0.92006643   -7.2695345    63.965893   0.02502578  0.026436452            2 
  214000   0.93634442   -7.2486511    64.244717  0.025017413  0.026363073            3 
  215000   0.95276567   -7.2921618    64.098433  0.024844354  0.026288413            2 
  216000   0.93548568   -7.2686445    64.277289  0.024798337  0.026213952            4 
  217000   0.93376431   -7.2775198    64.452854   0.02475148  0.026139239            2 
  218000   0.91362751   -7.2865701    64.702384  0.024733327  0.026066709            4 
  219000   0.90555116   -7.2683159    64.928615  0.024706474  0.025993895            4 
  220000   0.92624815   -7.2674342    64.911082  0.024587531  0.025921046            3 
  221000    0.9105599   -7.2802501    65.048946   0.02452826  0.025848241            3 
  222000   0.92088186   -7.2873511    65.055772  0.024420335  0.025773541            2 
  223000   0.92009755   -7.2863029       65.281  0.024394992  0.025698584            2 
  224000   0.88630259   -7.2842032    65.637532  0.024418725  0.025624638            4 
  225000   0.89708257   -7.3031606    65.419905  0.024229594  0.025550983            4 
  226000   0.91870814   -7.2854321     65.51189  0.024156301  0.025476174            2 
  227000   0.89317392   -7.3045306    65.634388  0.024094856  0.025402025            2 
  228000   0.90889328   -7.2766339     65.97138  0.024112346  0.025328004            5 
  229000   0.90351135   -7.2944089    65.847508  0.023961975  0.025253774            4 
  230000   0.89455805   -7.2988097    66.005979   0.02391521  0.025179018           21 
  231000   0.87735968   -7.3090373    66.033176  0.023821492  0.025105018            5 
  232000   0.89130839   -7.3160983    66.245511  0.023795083  0.025031029            2 
  233000   0.90290785    -7.309524    66.481728  0.023777442  0.024958436            6 
  234000   0.89372528   -7.3033551    66.761531  0.023775474  0.024887716            2 
  235000   0.89850091   -7.3558763    66.794236  0.023685899  0.024817324            2 
  236000   0.89157577   -7.3410774    66.935509   0.02363542  0.024746888            5 
  237000   0.90654151   -7.3196444    67.395335  0.023697375  0.024677124            3 
  238000   0.89201584   -7.2862987     67.60385  0.023670816  0.024608904            2 
  239000    0.8715494   -7.3423616    67.466622  0.023523927  0.024540225            6 
  240000   0.90134507   -7.3235954    67.886293   0.02357163  0.024471879            5 
  241000   0.89192251   -7.3144512    68.066419  0.023536106  0.024404716            2 
  242000   0.89211329   -7.3443671    68.145985  0.023466248  0.024338178            4 
  243000   0.88386937   -7.3725491    68.136717  0.023366501  0.024271898            3 
  244000   0.85792284   -7.3676263    68.473888  0.023385891  0.024205985            2 
  245000   0.88489077   -7.3887104    68.441701   0.02327949  0.024139381            3 
  246000   0.89722181   -7.3654236    68.497251  0.023203676   0.02407215            3 
  247000   0.87029016   -7.3845364    68.538218  0.023123555  0.024005223            2 
  248000   0.88557504    -7.349914    68.706544  0.023086876  0.023938708            3 
  249000   0.84736626   -7.3647069    68.989716  0.023088928   0.02387251            4 
  250000   0.86334933    -7.368377    68.850047  0.022950016  0.023806293            5 
  251000   0.86400518   -7.3911541    69.097127  0.022940613  0.023739493            2 
  252000   0.87309894   -7.3636892    69.241892  0.022897451   0.02367356            6 
  253000     0.865948   -7.4115633    69.241588  0.022806847  0.023607592            3 
  254000   0.85511548   -7.3795639     69.34394  0.022750636  0.023541311            5 
  255000   0.87282411   -7.4283081    69.240731   0.02262769  0.023475003            2 
  256000   0.86709692   -7.3832653     69.45971  0.022610582  0.023408951            6 
  257000   0.84908646   -7.4073786    69.652013  0.022584959  0.023343538            2 
  258000   0.84522499     -7.39274    69.825128  0.022553336  0.023278308            3 
  259000   0.88558044   -7.3859488    70.068682  0.022544621  0.023213728            2 
  260000   0.85844533   -7.3833498    69.996041  0.022434629  0.023149642            5 
  261000   0.86764939   -7.4481012    70.177257  0.022406532  0.023085762            5 
  262000   0.83682132   -7.4130046     70.11548  0.022301361   0.02302208            8 
  263000   0.82073213   -7.3954761    70.311613  0.022278711  0.022958167            3 
  264000   0.84377916   -7.4048844    70.474741  0.022245815  0.022894161            3 
  265000   0.85980595   -7.4501261    70.426941  0.022146837  0.022830202            4 
  266000   0.84986284   -7.4403267    70.531131  0.022096219  0.022765693            2 
  267000   0.85251067   -7.4439686     70.79593  0.022096108  0.022701608            3 
  268000   0.82644958   -7.4470069    71.015803  0.022082028  0.022637624            3 
  269000    0.8323639   -7.4461885    70.707116  0.021904311  0.022573539            4 
  270000   0.82359305    -7.431905     71.10544  0.021946123  0.022509915            6 
  271000   0.81926458   -7.4689229    70.974601  0.021824908  0.022445425            3 
  272000   0.83277344   -7.4633651    71.098772  0.021782712  0.022381153            5 
  273000   0.81984364   -7.4356688    71.033181    0.0216829   0.02231674            3 
  274000   0.85722135   -7.4819494    71.067845  0.021614308  0.022252486            2 
  275000   0.82405314   -7.4809959    71.287014  0.021602125  0.022187489            3 
  276000   0.83141638   -7.5000917    71.125854  0.021475197  0.022122565            7 
  277000   0.81805583   -7.4684995    71.152037  0.021405546  0.022057806            3 
  278000   0.81949249   -7.4766134    71.349299  0.021387679  0.021993001            6 
  279000    0.8335749   -7.4840934     71.56769  0.021376251  0.021928666            5 
  280000   0.81611911   -7.4859173    71.531429  0.021289116  0.021864198            2 
  281000   0.80425584   -7.5065716    71.775044    0.0212856  0.021800109            2 
  282000   0.81595678   -7.4602568    71.807225  0.021219629  0.021736194            2 
  283000   0.79002715   -7.5059395    71.794101  0.021140783  0.021672924            3 
  284000   0.80616668   -7.4757311    71.945817  0.021110862  0.021610057            4 
  285000    0.8115125   -7.4874417    72.141801  0.021094094  0.021547459            2 
  286000   0.80568572   -7.5296116    72.124678  0.021015349  0.021485578            3 
  287000   0.79383289   -7.5021806    72.266633  0.020983343  0.021423644            2 
  288000   0.81062493   -7.5155449    72.195618  0.020889936  0.021361493            2 
  289000   0.81161895   -7.5213744    72.302645  0.020848514  0.021299184            3 
  290000   0.80523829   -7.5352463     72.08516  0.020714126  0.021236149            3 
  291000   0.80986605   -7.5396744    72.329555  0.020712931  0.021173313            3 
  292000   0.80106367   -7.5492502    72.564031  0.020708913  0.021111664            5 
  293000   0.79208295   -7.5229731    72.700922  0.020677168  0.021050735            1 
  294000   0.80176402   -7.5339548    72.653294  0.020593337   0.02099056            4 
  295000   0.79912675   -7.5515213    72.813191  0.020568698  0.020930294            2 
  296000   0.76777768   -7.5526384    72.851017  0.020509858  0.020870393            2 
  297000   0.79127145   -7.5613014    72.950084  0.020468598  0.020810781            5 
  298000   0.79267734   -7.5785427     73.02859  0.020421865  0.020750533            6 
  299000   0.80448631   -7.5650038    73.145617  0.020386181   0.02069069            2 
  300000    0.7861528    -7.578573    73.267031  0.020351953  0.020630955            3 
  301000    0.8013002   -7.5407618     73.20563  0.020267339  0.020571318            1 
  302000   0.77797538   -7.5558134    73.283739  0.020221782  0.020512074            3 
  303000   0.77689987   -7.5430769    73.417859   0.02019193  0.020452609            4 
  304000   0.79350258    -7.582655    73.076452  0.020031922   0.02039282            4 
  305000    0.7772248   -7.6148022    73.198296  0.019999534  0.020332737            2 
  306000   0.78006988   -7.6037421    73.342043  0.019973323  0.020272805            4 
  307000    0.7648356   -7.5906139    73.452846   0.01993834  0.020212817            4 
  308000   0.77256325   -7.6203259    73.506148  0.019888027  0.020153332            6 
  309000    0.7677071   -7.5839659    73.314658  0.019772022  0.020093286            4 
  310000   0.76975342   -7.6263235    73.603152  0.019785794  0.020033053            4 
  311000   0.76173428   -7.6221746    73.466002  0.019685424  0.019972875            4 
  312000   0.77199062   -7.6315845    73.437285  0.019614659  0.019912574            5 
  313000   0.75895883   -7.6143594    73.704196  0.019623055  0.019852706            5 
  314000   0.78919407   -7.6258652    73.656887  0.019548006  0.019793419            6 
  315000   0.75776375   -7.6154791    73.755111  0.019511934  0.019734054            5 
  316000   0.77135304   -7.6296221    73.908422  0.019490618  0.019675384            6 
  317000   0.76268946   -7.6314294    74.050653  0.019466523   0.01961673            7 
  318000   0.76058086    -7.608843    73.949404  0.019378775  0.019558576            4 
  319000   0.75175087   -7.6238496    73.979573  0.019325907  0.019500608            4 
  320000    0.7536133   -7.6240823    74.351223  0.019362298    0.0194429            4 
  321000   0.76315504   -7.6253096    74.171235  0.019255253  0.019385275            2 
  322000   0.76417952   -7.6530516    74.323314  0.019234812  0.019327895            8 
  323000   0.74444115   -7.6622206    74.237003  0.019152994  0.019270714            4 
  324000   0.74216872   -7.6444796    74.362391  0.019126129  0.019213614            5 
  325000     0.752016    -7.658252    74.311084  0.019054124  0.019156318            4 
  326000    0.7566432   -7.6561312    74.468728  0.019035973  0.019099284            4 
  327000   0.73221685   -7.6766596    74.440583  0.018970587  0.019042641            3 
  328000   0.75244977   -7.6464446    74.625435  0.018959714  0.018985962            2 
  329000   0.73153954   -7.6526027    74.643555  0.018906675  0.018929787            7 
  330000   0.73846256   -7.6691434    74.729618  0.018871116  0.018873721            4 
  331000   0.75669078   -7.6634066     74.70753  0.018808542  0.018818179            1 
  332000   0.74950386   -7.6727668    74.724273  0.018756093  0.018762623            2 
  333000   0.72086248   -7.6807795    74.779038  0.018713473  0.018707167            2 
  334000   0.74411514    -7.666529    74.973571  0.018705981  0.018652113            5 
  335000   0.74085069    -7.688329    74.770333  0.018599585  0.018597158            4 
  336000   0.74072228   -7.6848853    74.971574   0.01859414   0.01854227            5 
  337000   0.73572235   -7.6870642    74.972106  0.018539097  0.018487546            4 
  338000   0.73912687   -7.6696013    75.001391  0.018491467  0.018432621            5 
  339000   0.71775227   -7.6909411     75.16076  0.018476096  0.018378105            4 
  340000   0.72572621   -7.7009563    75.041331  0.018392483  0.018323849            3 
  341000   0.70982285   -7.6830191    74.905684  0.018305397  0.018269284            4 
  342000   0.71296367   -7.7197496     75.05204  0.018287534  0.018214287            8 
  343000   0.70226212   -7.7308829    74.863223  0.018188344  0.018159431            5 
  344000   0.70101691   -7.7362572    74.909405  0.018146658  0.018104578            7 
  345000   0.73100535   -7.7269271    75.133642  0.018148223  0.018049946            4 
  346000   0.71961259   -7.7431301     75.04538  0.018074513  0.017995392            8 
  347000   0.69921853   -7.7072826    75.369913  0.018100363  0.017941123            3 
  348000   0.71984222   -7.7221837    75.114245  0.017987128  0.017886804            2 
  349000   0.71925023   -7.7232237    75.123905  0.017937895  0.017832513            4 
  350000   0.70745437   -7.7380267    75.201835  0.017905199  0.017778315            3 
  351000   0.70584011   -7.7809267    75.159536  0.017844144  0.017724411            3 
  352000    0.7005126   -7.7677619    75.213556   0.01780624  0.017670304            4 
  353000   0.71364972    -7.764976    75.269989  0.017769119  0.017616564            3 
  354000   0.70440626   -7.7428976    75.333933  0.017733977  0.017563089            9 
  355000   0.69671066   -7.7743723    75.076373  0.017623562  0.017509445            3 
  356000   0.70993299   -7.7603326    75.140642  0.017589101  0.017455623            5 
  357000   0.69008362   -7.7839769    75.415281   0.01760394  0.017402438            3 
  358000   0.69502337   -7.7601756    75.511021  0.017577053  0.017349376            5 
  359000   0.69714567    -7.785036    75.366186  0.017494472  0.017296354            4 
  360000   0.70083889   -7.7741813    75.257305  0.017420672  0.017243497            2 
  361000   0.69730537    -7.788628    75.060068  0.017326885   0.01719046            2 
  362000   0.69469788   -7.7854171    75.391689  0.017355361  0.017137641            5 
  363000   0.68916713   -7.7847343    75.178589  0.017258629  0.017084672            5 
  364000   0.69225836   -7.8126618    75.225755  0.017222014  0.017031735            3 
  365000   0.68189026   -7.7950481    75.291156  0.017189762  0.016979323            6 
  366000   0.68747998   -7.7927408    75.451606  0.017179327  0.016927147            3 
  367000     0.689776   -7.8101954    75.405342  0.017122012  0.016874743            3 
  368000   0.68607664   -7.8258657      75.2102  0.017031295   0.01682237            2 
  369000    0.6763102   -7.8157816    75.364381   0.01701996  0.016770144            3 
  370000   0.66533083   -7.8192914    75.316062  0.016963077  0.016718151            5 
  371000   0.66536081   -7.8126416    75.500626  0.016958811  0.016666398            5 
  372000   0.68571967   -7.8216857     75.38491  0.016887301  0.016614569           10 
  373000   0.66767822   -7.8112903    75.433284  0.016852834  0.016562847           14 
  374000   0.66743823   -7.8253793    75.383736  0.016796733  0.016511001            4 
  375000   0.68390722   -7.8361262    75.384135   0.01675203  0.016459637            4 
  376000   0.67311133   -7.8277245    75.207066  0.016668233  0.016408495            3 
  377000   0.65450599   -7.8406633    75.417498  0.016670535  0.016357105            3 
  378000   0.65792153    -7.833932    75.354685  0.016612585  0.016305955            5 
  379000   0.65597475   -7.8581945    75.499047  0.016600494  0.016254801            3 
  380000   0.65258133    -7.873874    75.439421  0.016543733  0.016203882            6 
  381000   0.65677576   -7.8811159    75.212403  0.016450657  0.016153108            5 
  382000   0.65679055   -7.8678355    75.403945  0.016449377  0.016102339            3 
  383000   0.65014062    -7.859523    75.362486  0.016397408  0.016051717            6 
  384000   0.66889233   -7.8819764     75.34089  0.016350019  0.016001322            5 
  385000   0.66729826   -7.8617692    75.523762  0.016347135  0.015950995            4 
  386000   0.63757459   -7.8638217    75.471506  0.016293503  0.015900969            3 
  387000   0.64149781   -7.8687665    75.571806  0.016272999  0.015851131            4 
  388000    0.6613343   -7.8797908    75.415323  0.016197449  0.015801333            5 
  389000   0.65292011    -7.854002    75.536267  0.016181719  0.015751933            6 
  390000   0.65957863   -7.8961856    75.397086  0.016110488  0.015702565            2 
  391000   0.63722088   -7.8830033    75.368359  0.016063163  0.015653121            4 
  392000   0.64916043   -7.9019025    75.457663   0.01604117  0.015603848            4 
  393000   0.62959192   -7.9136491    75.421152  0.015992611  0.015554564            3 
  394000    0.6393253   -7.9017662    75.401769  0.015947921  0.015505342            3 
  395000   0.63060817   -7.9062552    75.409931  0.015909268  0.015456281            5 
  396000   0.64515415   -7.9078992    75.414819  0.015870122  0.015407319            5 
  397000   0.62167095   -7.9126933    75.450371  0.015837609   0.01535842            6 
  398000   0.62550994   -7.9245305    75.397837  0.015786817  0.015309691            6 
  399000   0.62630873   -7.9247267    75.376656  0.015742827  0.015260971            7 
  400000   0.62768179   -7.9129321    75.487882  0.015726642  0.015212541            6 
  401000   0.65297828   -7.9334426    75.386263  0.015666306  0.015164368            9 
  402000   0.62380662   -7.9336019    75.373448  0.015624678  0.015116374            4 
  403000   0.60839615    -7.945178    75.406715  0.015592786  0.015068347            6 
  404000   0.61605275   -7.9498614    75.402808  0.015553384  0.015020485            3 
  405000   0.63026654   -7.9252262    75.318021  0.015497535   0.01497257            5 
  406000   0.62062114   -7.9315184     75.35855  0.015467683  0.014924885            2 
  407000   0.62614647   -7.9713703    75.273302  0.015412224  0.014877474            6 
  408000    0.6199836   -7.9535582    75.348536  0.015389815  0.014829932            6 
  409000   0.62134476   -7.9645582    75.453673  0.015373609  0.014782803           12 
  410000   0.60560597   -7.9586237    75.406079  0.015326439  0.014735855            8 
  411000   0.60650791   -7.9635426    75.339777  0.015275705  0.014688882            7 
  412000   0.59828971   -7.9463304    75.243721  0.015219199  0.014642152            3 
  413000   0.61247085   -7.9755225     75.32372  0.015198491  0.014595718            2 
  414000   0.60443249   -7.9561382    75.335824  0.015164216   0.01454933            4 
  415000   0.60796657    -7.951093    75.204552  0.015101316  0.014502973            4 
  416000   0.60274314   -7.9915648    75.258443   0.01507581  0.014456789            4 
  417000   0.61331521   -7.9965424    75.430092  0.015073959  0.014410755            5 
  418000   0.58714114   -7.9774283    75.293739  0.015010714   0.01436468            4 
  419000   0.59440341   -7.9820926    75.265758  0.014969323  0.014318726            6 
  420000   0.59227314   -7.9728248    75.199327  0.014920501  0.014272866            5 
  421000   0.59544267   -7.9992691    75.277215  0.014900478  0.014227243            4 
  422000    0.5937559    -7.961843    75.279255  0.014865572  0.014181842            4 
  423000   0.58414528   -8.0022022    75.246815  0.014824038  0.014136416            7 
  424000   0.58385661   -7.9890425    75.179004  0.014775748  0.014091192            3 
  425000   0.58962287    -7.998425    75.085837  0.014722713  0.014046123            4 
  426000   0.60330124   -8.0005769    75.239613  0.014718234  0.014001341            6 
  427000   0.58096761   -8.0253943    75.324362  0.014700305  0.013956712            5 
  428000   0.59085248   -8.0150327    75.199367  0.014641621  0.013912126            3 
  429000   0.58098129   -8.0405245    75.066247  0.014581633  0.013867695            7 
  430000   0.57222813   -8.0273402    75.143294  0.014562654  0.013823308            7 
  431000    0.5787199   -8.0254619    75.112168  0.014522848  0.013779181            6 
  432000   0.57381353   -8.0346822    75.194923  0.014505193  0.013735095            5 
  433000   0.57464202   -8.0418568    75.008426  0.014435802  0.013691125           10 
  434000   0.56621011   -8.0292253    75.228713  0.014444837  0.013647351            4 
  435000   0.55527754   -8.0466577    75.162833   0.01439901   0.01360369            3 
  436000   0.56843654   -8.0255477     75.26327  0.014385182   0.01356009            5 
  437000   0.57739496   -8.0226294    75.112246  0.014323464  0.013516722            9 
  438000   0.56439428   -8.0413939    75.056138  0.014280087   0.01347344           15 
  439000   0.56427791   -8.0432479    75.064136  0.014249077  0.013430314            7 
  440000   0.56636255   -8.0511596     74.97894  0.014200557  0.013387337            9 
  441000   0.55240838    -8.068803    75.046317  0.014181088  0.013344416            3 
  442000   0.57529686   -8.0651477     74.98549  0.014137536   0.01330167           12 
  443000   0.57032955   -8.0741356     75.15167  0.014136883  0.013259121            5 
  444000    0.5609662   -8.0530361    75.276252  0.014128426  0.013216758            7 
  445000   0.53564003   -8.0704118    75.114415   0.01406637  0.013174586            5 
  446000   0.55407853    -8.077564    75.211676  0.014053004  0.013132494            8 
  447000   0.55725321   -8.0837064    75.236432   0.01402618  0.013090486           15 
  448000   0.53672521   -8.0735418    74.961378  0.013943709  0.013048733            6 
  449000   0.55042082    -8.100758    75.065603  0.013931997  0.013007054            4 
  450000   0.55207536   -8.0770775    75.058918    0.0138998  0.012965578            3 
  451000   0.54032493   -8.0857729    75.058706   0.01386894  0.012924214           14 
  452000   0.55499941   -8.0958668    75.065682  0.013839543  0.012883043           12 
  453000    0.5466272   -8.1027562    74.938026  0.013785509   0.01284194           19 
  454000   0.54447327   -8.0838454    74.885067  0.013745423   0.01280099            7 
  455000   0.54615702   -8.1058325    74.935841  0.013724513   0.01276013           10 
  456000   0.53751851   -8.1002674    74.944333  0.013695967  0.012719456            6 
  457000   0.53965661   -8.0962497    74.967051  0.013670141  0.012679019           15 
  458000   0.53053954   -8.1119026    75.084551  0.013661672  0.012638622            6 
  459000   0.53991077   -8.1165541    74.979293  0.013612798  0.012598422            5 
  460000   0.52029862   -8.1176097    74.955033   0.01357881  0.012558292            6 
  461000   0.53353297   -8.1147565    75.037941  0.013564342  0.012518329            9 
  462000   0.53915144   -8.1553165     75.02803  0.013533194  0.012478495            9 
  463000   0.52073797   -8.1276199    74.884939  0.013478211  0.012438756            6 
  464000    0.5242567   -8.1197226     74.92827  0.013456945  0.012399168            5 
  465000   0.52439967   -8.1338255    74.846112  0.013413282  0.012359848           13 
  466000   0.51900776   -8.1255337    75.056508  0.013422122  0.012320633            8 
  467000   0.51140291   -8.1569602    74.859828  0.013358285  0.012281551            8 
  468000   0.52368544   -8.1455423    74.796664  0.013318494  0.012242564            6 
  469000   0.51615487   -8.1518248    74.921826  0.013312336  0.012203697            7 
  470000   0.52418816   -8.1464399    74.761121  0.013255518  0.012165025           11 
  471000   0.52130912   -8.1440652    74.940571  0.013259124  0.012126555            7 
  472000   0.51581446   -8.1480668    74.900986  0.013224044  0.012088251            8 
  473000   0.51886003   -8.1619103    74.755063  0.013170378  0.012050072            8 
  474000   0.52005321   -8.1648362    74.854437  0.013160063  0.012011974            5 
  475000     0.501089   -8.1472716    74.839551  0.013129746   0.01197412            4 
  476000   0.51762612   -8.1580178    74.828772  0.013100275  0.011936395            7 
  477000   0.50838102   -8.1565225    74.854422  0.013077292  0.011898786           10 
  478000   0.50063689   -8.1697725    74.897158  0.013057385  0.011861264            6 
  479000   0.50691708   -8.1761359    74.870756  0.013025532  0.011823873            5 
  480000   0.51437511   -8.1712872       74.851  0.012994965  0.011786699            8 
  481000   0.49735775   -8.1759003    74.884704  0.012973788  0.011749642            3 
  482000   0.50377427   -8.1892803    74.850298  0.012940923  0.011712636            6 
  483000   0.49262137   -8.1973343     74.82384  0.012909565  0.011675728            9 
  484000   0.49057102    -8.192753    74.795907  0.012878083  0.011638992            7 
  485000   0.49670627    -8.179872    74.771745  0.012847379  0.011602434            6 
  486000   0.48829245   -8.1944239    74.761024  0.012819106  0.011565994            7 
  487000   0.49268723   -8.2055364    74.832684  0.012805045  0.011529674           15 
  488000   0.49291013    -8.194575    74.681229  0.012752942  0.011493394            9 
  489000   0.49539819   -8.2010001    74.711689  0.012732053  0.011457338            6 
  490000   0.50626692    -8.195156    74.725659  0.012708445  0.011421341            8 
  491000   0.48786755   -8.2084216    74.684301  0.012675543    0.0113855           10 
  492000   0.47806911   -8.2103622    74.752479  0.012661328  0.011349831           12 
  493000   0.49001499   -8.1965904    74.700159  0.012626802  0.011314226            3 
  494000   0.48281205   -8.2022977    74.684661  0.012598627  0.011278775            6 
  495000   0.46868344    -8.208014    74.615678  0.012561562  0.011243441           19 
  496000   0.48016727   -8.2144196    74.667433  0.012544932  0.011208277            9 
  497000   0.47245228   -8.2067527    74.654051  0.012517446  0.011173224            9 
  498000   0.47331373   -8.2076482    74.816255  0.012519454  0.011138255           15 
  499000   0.46546464   -8.2227345    74.582845  0.012455385  0.011103481           12 
  500000   0.47891771   -8.2391544    74.596162  0.012432694  0.011068784           12 
  501000   0.47331682   -8.2285372    74.586854   0.01240633  0.011034191           13 
  502000   0.45621792   -8.2284407    74.581418  0.012380713  0.010999677            9 
  503000   0.47676254   -8.2289168     74.54376  0.012349861  0.010965352            9 
  504000     0.455109   -8.2464109    74.460785  0.012311638   0.01093111           12 
  505000   0.46501738   -8.2312205    74.548033  0.012301656  0.010897021           17 
  506000   0.46335074   -8.2425817    74.656347  0.012295182     0.010863           11 
  507000   0.44958967   -8.2279757    74.584085  0.012259054  0.010829212            7 
  508000   0.45783501   -8.2424493    74.486176  0.012218861  0.010795451           11 
  509000   0.44797628   -8.2527751    74.574854  0.012209374  0.010761818           12 
  510000   0.44777499   -8.2474344    74.533102  0.012178611  0.010728356            9 
  511000   0.46112572   -8.2327873    74.437283  0.012139153  0.010695011            8 
  512000   0.44047503   -8.2617816     74.51251  0.012127687   0.01066176            9 
Loop time of 1154.7 on 48 procs for 500000 steps with 4000 atoms

Performance: 74824.642 tau/day, 433.013 timesteps/s
99.4% CPU use with 48 MPI tasks x no OpenMP threads

MPI task timing breakdown:
Section |  min time  |  avg time  |  max time  |%varavg| %total
---------------------------------------------------------------
Pair    | 68.19      | 74.723     | 80.798     |  32.5 |  6.47
Neigh   | 7.4287     | 7.72       | 8.1245     |   6.2 |  0.67
Comm    | 67.548     | 74.329     | 81.267     |  38.0 |  6.44
Output  | 0.92943    | 0.9298     | 0.93848    |   0.1 |  0.08
Modify  | 982.66     | 986.35     | 990.72     |   5.9 | 85.42
Other   |            | 10.65      |            |       |  0.92

Nlocal:        83.3333 ave          91 max          75 min
Histogram: 3 0 3 9 6 7 11 2 5 2
Nghost:        1940.48 ave        1961 max        1921 min
Histogram: 2 5 5 4 8 8 6 7 0 3
Neighs:        12298.8 ave       13984 max       10455 min
Histogram: 2 0 8 3 7 6 15 4 1 2
FullNghs:      24597.1 ave       27269 max       21775 min
Histogram: 2 1 5 7 8 8 8 3 5 1

Total # of neighbors = 1180660
Ave neighs/atom = 295.16500
Neighbor list builds = 26877
Dangerous builds = 0

#clear
#
#next RN
#
#jump SELF
Total wall time: 0:19:17
