
units lj                  # Use reduced LJ style units
atom_style atomic         # Uncharged point particles
atom_modify map hash      # Needed for indexing of clusters etc
                          # Used to be able to find where atoms are in relation to each other.

lattice fcc 1.0 spacing 1 1 1
Lattice spacing in x,y,z = 1.5874011 1.5874011 1.5874011
region box block 0 10 0 10 0 10 units lattice
create_box 2 box
Created orthogonal box = (0.0000000 0.0000000 0.0000000) to (15.874011 15.874011 15.874011)
  3 by 4 by 4 MPI processor grid
create_atoms 1 box
Created 4000 atoms
  using lattice units in orthogonal box = (0.0000000 0.0000000 0.0000000) to (15.874011 15.874011 15.874011)
  create_atoms CPU = 0.002 seconds
set type 1 type/fraction 2 0.98 78393
Setting atom values ...
  3920 settings made for type/fraction
mass 1 1.0
mass 2 1.0
pair_style lj/cut  3.5
pair_modify tail  yes
pair_coeff 1  1  1.0  1.0   # Intearaction between 1 and 1 set with epsilon = 1 and sigma = 1
pair_coeff 1  2  1.5  0.8
pair_coeff 2  2  0.5  0.88

write_data data.0
System init for write_data ...
Neighbor list info ...
  update every 1 steps, delay 10 steps, check yes
  max neighbors/atom: 2000, page size: 100000
  master list distance cutoff = 3.8
  ghost atom cutoff = 3.8
  binsize = 1.9, bins = 9 9 9
  1 neighbor lists, perpetual/occasional/extra = 1 0 0
  (1) pair lj/cut, perpetual
      attributes: half, newton on
      pair build: half/bin/atomonly/newton
      stencil: half/bin/3d
      bin: standard
WARNING: Not all mixed pair coeffs generated from mixing. Use write_data with 'pair ij' option to store all pair coeffs. (../write_data.cpp:312)


#############################
#   M E L T   S Y S T E M   #
#############################

velocity all create 2.4 3143649 mom yes dist gaussian # Assign velocities
                                                    # Temperature 2.4, random number seed, zero linear momentum
                                                                                # Gaussian distribution

timestep 0.002   # simulation timestep
thermo 1000       # output thermodynamic data every 1000 steps bf 100

# Define a fix  in this case with index 1 applied to all
# particles in the simulation. This fix is for simulations
# in the anisotropic NPT ensemble. Note that we use the MTK
# correction.
fix 1 all npt temp 2.4 2.4 0.1 iso 5.68 5.68 0.5 mtk yes tchain 5 pchain 5 # Use NPT ensemble
                                                                         # Set temperature and pressure and damping
                                                                         # Numbers of thermostats in chain and in barostat
run 10000          # run for 10000 steps
Per MPI rank memory allocation (min/avg/max) = 3.642 | 3.644 | 3.648 Mbytes
Step Temp E_pair E_mol TotEng Press Volume 
       0          2.4   -2.7962588            0   0.80284124   -1.8826162         4000 
    1000    2.4139053   -1.5745766            0    2.0453761    5.7904827    4205.5145 
    2000    2.3855533   -1.5980048            0    1.9794305    5.4842492     4235.806 
    3000    2.3595104   -1.5824178            0     1.955963    5.5540482    4245.0235 
    4000    2.3860383   -1.5661984            0    2.0119642    5.5075717    4263.2207 
    5000    2.3033032   -1.5976598            0    1.8564312    5.5250218    4225.1411 
    6000    2.3894526   -1.5930693            0    1.9902136    5.6242792    4217.5716 
    7000    2.3422431     -1.58718            0    1.9253063    5.7309399    4189.6361 
    8000    2.4278769    -1.567188            0    2.0737168    5.6485009    4242.9233 
    9000    2.3782729   -1.5874474            0    1.9790701    5.7456738    4192.3187 
   10000    2.4385752   -1.5775688            0    2.0793795    5.5475224    4268.2433 
Loop time of 2.35797 on 48 procs for 10000 steps with 4000 atoms

Performance: 732832.510 tau/day, 4240.929 timesteps/s
99.7% CPU use with 48 MPI tasks x no OpenMP threads

MPI task timing breakdown:
Section |  min time  |  avg time  |  max time  |%varavg| %total
---------------------------------------------------------------
Pair    | 1.0436     | 1.0952     | 1.1475     |   2.0 | 46.45
Neigh   | 0.20543    | 0.21202    | 0.21958    |   0.8 |  8.99
Comm    | 0.75421    | 0.80251    | 0.85836    |   2.8 | 34.03
Output  | 0.00023964 | 0.00024314 | 0.00031119 |   0.0 |  0.01
Modify  | 0.20759    | 0.23362    | 0.25389    |   3.0 |  9.91
Other   |            | 0.01437    |            |       |  0.61

Nlocal:        83.3333 ave          96 max          74 min
Histogram: 2 6 6 4 11 12 3 3 0 1
Nghost:        1568.88 ave        1599 max        1543 min
Histogram: 4 0 8 6 8 11 5 2 3 1
Neighs:        8940.48 ave       10353 max        7646 min
Histogram: 5 2 6 3 8 8 6 8 1 1

Total # of neighbors = 429143
Ave neighs/atom = 107.28575
Neighbor list builds = 918
Dangerous builds = 293

# Equilibrate just above the melting temperature to avoid step fn in T

fix 1 all npt temp 1.25 1.25 0.1 iso 5.68 5.68 0.5 mtk yes tchain 5 pchain 5
run 2000
Per MPI rank memory allocation (min/avg/max) = 3.643 | 3.645 | 3.649 Mbytes
Step Temp E_pair E_mol TotEng Press Volume 
   10000    2.4385752   -1.5775688            0    2.0793795    5.5475224    4268.2433 
   11000     1.245426   -2.4197583            0  -0.55208642     5.750144    3293.1572 
   12000     1.243537   -2.4364154            0  -0.57157626    5.5602512    3302.6356 
Loop time of 0.579136 on 48 procs for 2000 steps with 4000 atoms

Performance: 596750.572 tau/day, 3453.418 timesteps/s
99.7% CPU use with 48 MPI tasks x no OpenMP threads

MPI task timing breakdown:
Section |  min time  |  avg time  |  max time  |%varavg| %total
---------------------------------------------------------------
Pair    | 0.24141    | 0.27569    | 0.29282    |   2.6 | 47.60
Neigh   | 0.037785   | 0.040364   | 0.043655   |   0.7 |  6.97
Comm    | 0.19224    | 0.21323    | 0.24763    |   3.0 | 36.82
Output  | 5.0977e-05 | 5.2569e-05 | 6.7542e-05 |   0.0 |  0.01
Modify  | 0.039595   | 0.045236   | 0.048455   |   1.2 |  7.81
Other   |            | 0.004562   |            |       |  0.79

Nlocal:        83.3333 ave          93 max          75 min
Histogram: 3 3 3 11 7 10 4 4 1 2
Nghost:        1867.06 ave        1886 max        1833 min
Histogram: 1 0 2 4 5 7 7 8 11 3
Neighs:        11562.1 ave       13131 max        9460 min
Histogram: 1 1 4 3 7 7 14 5 4 2

Total # of neighbors = 554982
Ave neighs/atom = 138.74550
Neighbor list builds = 144
Dangerous builds = 17

#############################
# L I N E A R  Q U E N C H  #
#############################

# Define solid atoms. This closely follows ten Wolde  Ruiz-Montero and Frenkel  Faraday Discuss  1996  104  93-110
# Compute components of the per-atom q6 vector
compute q6 all orientorder/atom degrees 1 6 components 6 nnn NULL cutoff 1.3 # compute the Q6 parameter.
                                                                             # Use all neighbours within 1.3 unit cell.

# get number of connections
compute coord_number all coord/atom orientorder q6 0.5

# An atom is solid if it has 8 or more connections (of a possible 14)
variable is_solid atom c_coord_number>=8
group solid dynamic all var is_solid    # Must be dynamic to update
dynamic group solid defined

# do clustering
compute cluster solid cluster/atom 1.3 # Create a cluster where all atoms within are solid and max 1.3 units from another member

# define chunks one chunk per cluster
compute clus_chunks solid chunk/atom c_cluster nchunk every compress yes  # Says which atoms are in which chunk

# count the size of each chunk
compute size_chunks solid property/chunk clus_chunks count


# Find the maximum entry in the vector of chunk sizes
variable max_n equal max(c_size_chunks)


# Thermo style which includes this variable
# thermo_style custom step temp pe vol v_max_n

thermo ${N}  # Print the thermo information every 100 steps
thermo 1000  

# Reset the npt fix at a lower temperature (below freezing)
fix 1  all npt temp  ${temp} ${temp}  0.1  iso  5.68  5.68  0.5  mtk yes tchain  5  pchain  5
fix 1  all npt temp  0.45 ${temp}  0.1  iso  5.68  5.68  0.5  mtk yes tchain  5  pchain  5
fix 1  all npt temp  0.45 0.45  0.1  iso  5.68  5.68  0.5  mtk yes tchain  5  pchain  5

dump dmp2 all dcd ${N} traj.dcd
dump dmp2 all dcd 1000 traj.dcd


compute msd all msd com yes
variable twopoint equal c_msd[4]/6/(step*dt+1.0e-6)
fix 9 all vector 10 c_msd[4]
variable fit equal slope(f_9)/6/(10*dt)
thermo_style custom step temp pe c_msd[4] v_twopoint v_fit v_max_n

fix 1 all npt temp 1.25 ${temp} 0.1 iso 5.68 5.68 0.5 mtk yes tchain 5 pchain 5
fix 1 all npt temp 1.25 0.45 0.1 iso 5.68 5.68 0.5 mtk yes tchain 5 pchain 5
run 5000000 # 5000000  # Run for this many steps
Neighbor list info ...
  update every 1 steps, delay 10 steps, check yes
  max neighbors/atom: 2000, page size: 100000
  master list distance cutoff = 3.8
  ghost atom cutoff = 3.8
  binsize = 1.9, bins = 8 8 8
  4 neighbor lists, perpetual/occasional/extra = 1 3 0
  (1) pair lj/cut, perpetual
      attributes: half, newton on
      pair build: half/bin/atomonly/newton
      stencil: half/bin/3d
      bin: standard
  (2) compute orientorder/atom, occasional
      attributes: full, newton on
      pair build: full/bin/atomonly
      stencil: full/bin/3d
      bin: standard
  (3) compute coord/atom, occasional
      attributes: full, newton on
      pair build: full/bin/atomonly
      stencil: full/bin/3d
      bin: standard
  (4) compute cluster/atom, occasional
      attributes: full, newton on
      pair build: full/bin/atomonly
      stencil: full/bin/3d
      bin: standard
Per MPI rank memory allocation (min/avg/max) = 9.810 | 9.817 | 9.821 Mbytes
Step Temp PotEng c_msd[4] v_twopoint v_fit v_max_n 
   12000     1.243537   -2.4364154 3.9443045e-34 2.7391003e-36 8.3333333e+20            1 
   13000    1.2323952   -2.4377138    1.1380407 0.0072951323  0.095899404            1 
   14000    1.2694831   -2.4303085    2.4472806  0.014567146   0.10325928       -1e+20 
   15000    1.2552794   -2.4455461    3.8013049   0.02111836   0.10737177            4 
   16000    1.2496657   -2.4470279    5.0923951   0.02652289   0.10902221            1 
   17000    1.2443716   -2.4186123    6.2444772  0.030610181   0.10767259            2 
   18000     1.234619   -2.4364014    7.5140565  0.034787298   0.10643841            2 
   19000    1.2195464   -2.4306188    8.6937246   0.03813037   0.10524398            1 
   20000    1.2439966   -2.4642273    10.069056  0.041954397   0.10522139            2 
   21000     1.261128   -2.4308933    11.348748  0.045034714    0.1056294            2 
   22000    1.2416885   -2.4348632    12.764827  0.048351615   0.10620135            2 
   23000    1.2415044   -2.4398059    13.954865  0.050561105   0.10653679            2 
   24000    1.2457443   -2.4429167    15.009662  0.052116881   0.10631994            2 
   25000    1.2543124   -2.4443415    16.331809  0.054439363    0.1060029            5 
   26000    1.2284238   -2.3850342    17.607713  0.056434977   0.10563497            1 
   27000    1.2560438   -2.4252031    18.795332  0.058010282   0.10554214            1 
   28000     1.244215   -2.4189286    20.125325  0.059896798   0.10537132            1 
   29000    1.2673971   -2.4089196     21.42799  0.061574683   0.10534952            2 
   30000    1.2437199   -2.4376719    22.627805  0.062855014   0.10539035            2 
   31000    1.2438842   -2.4795203    23.949434  0.064380198   0.10536432            2 
   32000    1.2362824    -2.455772    25.330049  0.065963668   0.10543043            2 
   33000    1.2198605   -2.4426748    26.904312   0.06794018   0.10564879            2 
   34000    1.2528169   -2.4257793     28.23691  0.069208112   0.10598014            3 
   35000    1.2422656   -2.4507578     29.82384  0.071009142   0.10639588            1 
   36000    1.2596421   -2.4653517    31.209463  0.072244126   0.10685456            1 
   37000     1.258975   -2.4575746    32.028883  0.072137124   0.10714444            2 
   38000    1.2586118   -2.4592914     33.09267  0.072571643    0.1071768            3 
   39000    1.2050226   -2.4416144    34.489974  0.073696524   0.10710554            1 
   40000    1.2621008   -2.4621799    35.815404  0.074615425   0.10699355            1 
   41000    1.2491089   -2.4145044    37.001066  0.075205417   0.10696589            1 
   42000    1.2431195   -2.4441328    38.250961  0.075894764   0.10695353            2 
   43000    1.2256202   -2.4423915     39.82601  0.077182188   0.10704534            1 
   44000    1.2598305   -2.4371759    40.811204  0.077293946   0.10706779            1 
   45000    1.2436853    -2.433735    42.258559   0.07825659   0.10711513            1 
   46000    1.2587418   -2.4508722     43.81249  0.079370453   0.10715325            3 
   47000    1.2640786   -2.4668168     44.92406  0.079652587   0.10729403            1 
   48000    1.2445402   -2.4310562    46.693115  0.081064435   0.10740983            3 
   49000    1.2446079   -2.4608678    48.250865  0.082059294     0.107621            2 
   50000    1.2311389   -2.4410882    50.014604  0.083357672   0.10792067            1 
   51000    1.2494102   -2.4476306    51.007127  0.083344977   0.10821587            1 
   52000    1.2206385    -2.451832    52.302868  0.083818698   0.10845102            1 
   53000    1.2344406   -2.4658296    53.602446  0.084280575   0.10864104            2 
   54000    1.2437113    -2.442774     54.73141  0.084462052   0.10874696            1 
   55000    1.2288211   -2.4346014     55.24912  0.083710787   0.10879104            2 
   56000    1.2588569   -2.4254595    56.681963  0.084348159   0.10879547            1 
   57000    1.2406703   -2.4273159    58.006339  0.084804589   0.10875759            2 
   58000    1.2301643    -2.436308    59.002942  0.084774341   0.10864665            1 
   59000    1.2276428   -2.4299977    60.373666  0.085273539   0.10852667            2 
   60000    1.2568618   -2.4809738    61.436433  0.085328378   0.10840432            1 
   61000     1.232408   -2.4613397    62.534885   0.08543017    0.1082773            2 
   62000    1.2420665   -2.4376633    63.981944  0.085997235   0.10817575            1 
   63000    1.2220507   -2.4132262    65.552503   0.08670966   0.10806495            1 
   64000    1.2484116   -2.4442742    66.814814  0.086998455   0.10798406            1 
   65000     1.227744   -2.4750106     67.01036  0.085910717   0.10789756            1 
   66000    1.2536255   -2.4382256    68.711587  0.086757053   0.10777691            2 
   67000    1.2483077   -2.4445485    70.602738   0.08781435   0.10769852            1 
   68000    1.2405537   -2.4438817    71.633915   0.08778666   0.10762561            2 
   69000    1.2240425   -2.4684168    72.784444  0.087903918    0.1075631            2 
   70000    1.2574356   -2.4567534    74.282106  0.088431078   0.10749906            1 
   71000    1.2223007   -2.4297054    75.557541   0.08868256   0.10741837            1 
   72000    1.2365772    -2.422964    76.552666  0.088602622    0.1073318            2 
   73000    1.2742257   -2.4583959    77.278296  0.088217232   0.10724064            2 
   74000    1.2383307   -2.4668513    78.455729  0.088351046   0.10710874            1 
   75000    1.2130526   -2.4252842    79.989828  0.088877586   0.10699893            1 
   76000    1.2267763   -2.4291439    81.225393   0.08906293   0.10691804            1 
   77000    1.2367141   -2.4307887    82.568253  0.089359581   0.10684708            1 
   78000    1.2524552   -2.4697171    83.641101   0.08936015   0.10674949            2 
   79000    1.2498746   -2.4612946    84.712629  0.089359313   0.10667151            3 
   80000    1.2317981   -2.4794957    85.815711  0.089391365   0.10658188            1 
   81000    1.2735172   -2.4508686    87.304714  0.089819664   0.10648365            2 
   82000    1.2490844   -2.4734658    88.322707  0.089758848   0.10638939            3 
   83000    1.2385596   -2.4217904    90.231637  0.090594013   0.10629896            1 
   84000    1.2560363   -2.4490886    91.514671  0.090788363    0.1062506            1 
   85000     1.251947   -2.4293101    92.852007  0.091031379   0.10621727            2 
   86000    1.2224525   -2.4547481     93.78088  0.090872946   0.10618763            1 
   87000     1.210067    -2.468831    94.876822  0.090878181   0.10613124            2 
   88000    1.2340534   -2.4183973    96.621321  0.091497463   0.10608871            1 
   89000    1.2397263   -2.4621958    97.833133  0.091604057   0.10603967            1 
   90000    1.2055506   -2.4786894    99.049181  0.091712204   0.10599043            3 
   91000    1.2388512   -2.4213391     100.2823  0.091833606   0.10594938            2 
   92000    1.2398604   -2.4736219    101.26424  0.091724857   0.10590253            2 
   93000    1.2489943   -2.4657387    102.49002  0.091836935   0.10585958            2 
   94000    1.2419808   -2.4369137    104.04997  0.092242881   0.10581139            1 
   95000    1.2204989   -2.4502628    104.98132  0.092088877   0.10576564            1 
   96000    1.2486643    -2.414557    106.16803  0.092159746    0.1056948            1 
   97000    1.2452511   -2.4773415    107.38728  0.092257111   0.10565022            5 
   98000    1.2263772   -2.4520383     108.8093  0.092524913   0.10561186            1 
   99000    1.2361675   -2.4546407    109.77343  0.092401873   0.10556435            1 
  100000     1.219592   -2.4381701    110.96137  0.092467808   0.10551191            2 
  101000    1.2536555   -2.4612031    112.23324   0.09260168    0.1054757            1 
  102000    1.2364937      -2.4514    112.95445  0.092283048    0.1054394            1 
  103000    1.2383432   -2.4465013    115.47462  0.093426066   0.10540653            2 
  104000    1.2538954   -2.4193262    116.53451   0.09337701   0.10538389            2 
  105000    1.2278506    -2.417718    117.47785  0.093236386   0.10535776            1 
  106000    1.1991469    -2.474134    118.65919  0.093285526   0.10532965            1 
  107000    1.2565525   -2.4590622       120.63  0.093948595   0.10531867            1 
  108000    1.2612084   -2.4439139    122.41372  0.094455031   0.10533419            1 
  109000    1.2364532   -2.4637933    122.90039  0.093960539   0.10534481            3 
  110000    1.2405379   -2.4325044    124.16713  0.094066005   0.10533763            2 
  111000    1.2583749   -2.4515325    125.54058  0.094249684    0.1053413            1 
  112000    1.2390995   -2.4347388    127.68516  0.095003835   0.10534457            2 
  113000    1.2521033   -2.4433574     127.7749   0.09422928   0.10532684            1 
  114000    1.2374913   -2.4372492    129.56345  0.094710127   0.10530988            2 
  115000    1.2471038   -2.4235891    131.36665  0.095193226   0.10530519            5 
  116000     1.245062   -2.4572421    131.54826  0.094503059   0.10529521            1 
  117000    1.2461551    -2.450097    133.03796  0.094756384   0.10528427            1 
  118000    1.2453291   -2.4263705    134.66773  0.095104331   0.10526351            1 
  119000    1.1970316   -2.4286063    135.31944  0.094761511    0.1052455            1 
  120000    1.2440091   -2.4192568    136.32432  0.094669668   0.10521362            1 
  121000    1.2567556   -2.4549427    136.85275  0.094251202   0.10518219            2 
  122000    1.2369581   -2.4623764    137.74315  0.094086854   0.10515357            1 
  123000    1.2496786   -2.5038497    139.65472   0.09461702   0.10511228            1 
  124000    1.2159835   -2.4302009    140.89789  0.094689444    0.1050638            1 
  125000    1.2240823   -2.4603553    142.24561  0.094830403   0.10501503            2 
  126000    1.2260525     -2.46282    143.82772  0.095124151   0.10497459            2 
  127000    1.2434668   -2.4657676    144.93563  0.095102116   0.10494851            1 
  128000    1.2209028   -2.4437486    146.59611  0.095440176   0.10493374            1 
  129000    1.2450242   -2.4739026    147.90619  0.095546633   0.10491959            1 
  130000    1.2361454   -2.4312988    149.47988  0.095820434   0.10491887            1 
  131000    1.2505812   -2.4719112    150.11524  0.095493153   0.10492578            1 
  132000    1.2282959   -2.4824048     151.3181  0.095529105   0.10492587            1 
  133000    1.2376094   -2.4298577    152.97367  0.095848161   0.10493118            2 
  134000     1.234441   -2.4856302    154.20563  0.095899022   0.10493831            1 
  135000    1.2182762   -2.4676999    156.10399  0.096360489    0.1049471            2 
  136000    1.2355445   -2.4485397    156.96051  0.096176781   0.10495286            1 
  137000    1.2400057     -2.46606    158.04536  0.096134647   0.10494895            1 
  138000     1.234478   -2.4283204    158.70096   0.09583391     0.104939            1 
  139000    1.2396435   -2.4754078    159.93831  0.095886274   0.10491484            1 
  140000    1.2054931   -2.4620449    160.95051  0.095803874   0.10489525            1 
  141000     1.235375   -2.4403562    161.90645  0.095689389   0.10487137            1 
  142000    1.2452056   -2.4537377    164.69945  0.096654608   0.10485687            1 
  143000       1.2312   -2.4513192    165.13028  0.096229764   0.10484635            2 
  144000    1.2436959   -2.4579367     165.0003  0.095486286   0.10483279            3 
  145000    1.2131398   -2.4388332    166.92508  0.095933952   0.10480976            1 
  146000    1.2066049   -2.4408669    168.74462  0.096315422   0.10478666            2 
  147000    1.2055819    -2.460389    170.82432  0.096839183    0.1047699            1 
  148000    1.2206164   -2.4530541    171.68666  0.096670417   0.10476816            2 
  149000    1.2093359   -2.4448991    172.66683  0.096569816   0.10478159            1 
  150000    1.2286923   -2.4336621    175.30999  0.097394438    0.1047935            1 
  151000    1.2186066   -2.4705703    176.46726   0.09738811   0.10480657            2 
  152000    1.2321897   -2.4635143     176.5325   0.09678317   0.10481585            1 
  153000    1.2482506   -2.4690751    178.09796  0.097003246   0.10480994            1 
  154000    1.2565583   -2.4760192    178.39787  0.096535642   0.10479656            1 
  155000    1.2523825   -2.4446275    179.57524  0.096545827   0.10478203            1 
  156000    1.2163067   -2.4605403    181.21621  0.096803533   0.10477843            2 
  157000    1.2337452   -2.4873888    182.23674  0.096728632   0.10477151            1 
  158000    1.2196428   -2.4724812    183.96468  0.097027786    0.1047591            1 
  159000    1.2391409   -2.4661466    184.89572  0.096905514   0.10473647            2 
  160000    1.2338384   -2.4464006    187.44025  0.097625132   0.10472208            1 
  161000    1.1940474   -2.4443162    185.95271  0.096248814   0.10470249            1 
  162000    1.2085809   -2.4460413    188.42924  0.096928621   0.10467837            1 
  163000    1.2225377   -2.4499804    190.36245  0.097322315   0.10466865            1 
  164000    1.2161999   -2.4799646    190.90656  0.097005368   0.10466478            4 
  165000    1.2199348   -2.4413336    193.05649  0.097503277   0.10465152            2 
  166000    1.2002911   -2.4451556    193.38278  0.097079709    0.1046413            1 
  167000    1.2285816   -2.4668069    196.19296  0.097900678   0.10462984            2 
  168000    1.2311568   -2.4805584    196.40673  0.097423972   0.10462321            1 
  169000    1.2411019   -2.4782965    197.67256  0.097471675   0.10462146            2 
  170000    1.2178025   -2.4445588     199.1665  0.097630635   0.10462731            1 
  171000    1.2121234   -2.4891288    200.47317  0.097696475   0.10462874            3 
  172000    1.2243062   -2.4465238    202.27532  0.098001606   0.10462667            1 
  173000    1.2274274   -2.4649648    203.11491  0.097839551   0.10462698            1 
  174000    1.2407754   -2.4529626     204.2726  0.097831704   0.10462954            1 
  175000    1.1945592   -2.4435047     205.4493  0.097832999   0.10462995            1 
  176000    1.2311665   -2.4640675    207.09552  0.098056591   0.10463225            5 
  177000    1.2481329   -2.4621173    207.84551  0.097855699   0.10463436            3 
  178000    1.2107051   -2.4517801    208.95967  0.097827558   0.10463403            2 
  179000    1.2487972   -2.4466521     209.8055  0.097674812   0.10463528            1 
  180000    1.2117339   -2.4611544    212.03101  0.098162506   0.10463205            1 
  181000    1.2292223   -2.4606051    211.56004  0.097403331   0.10462106            1 
  182000    1.2472576   -2.4357836    213.71759  0.097856039   0.10460767            1 
  183000    1.2394285   -2.4860937    214.46376  0.097661091   0.10459312            1 
  184000    1.2130846   -2.4923466    215.86974  0.097767093   0.10457438            1 
  185000    1.2370721   -2.4357699    217.15697  0.097818456   0.10456383            1 
  186000    1.2029038   -2.4816934    217.17819  0.097302055   0.10454926            2 
  187000     1.229981   -2.4805312    218.37844  0.097316594   0.10452826            1 
  188000    1.2169771   -2.4473503    219.46177  0.097279154   0.10451021            1 
  189000    1.2043552   -2.4680339    222.71837  0.098200341   0.10449849            2 
  190000    1.1987404   -2.4712497    223.85585  0.098182391    0.1044906            2 
  191000    1.2368057   -2.4787376    224.49354  0.097946569   0.10448599            2 
  192000    1.2266076   -2.4449068    225.20248  0.097744134    0.1044769            1 
  193000    1.2241231   -2.4532865    226.73205  0.097898121   0.10447014            3 
  194000    1.2029796   -2.4771963    227.82587  0.097863345   0.10446121            1 
  195000    1.2143579   -2.4635169    228.60361  0.097693849   0.10444658            1 
  196000    1.2380056   -2.4614706    231.28751  0.098336526   0.10442783            1 
  197000    1.2212646    -2.445309    232.02773   0.09815048   0.10441508            2 
  198000    1.1844824   -2.4492852    233.60804  0.098319881   0.10441086            2 
  199000     1.212348   -2.4845772    234.05294  0.098012117   0.10441396            1 
  200000    1.2325356   -2.4701707    237.36609  0.098902537   0.10441431            2 
  201000    1.2322434    -2.462555    239.03552  0.099102618   0.10442033            3 
  202000    1.1885534   -2.4530607    241.17521  0.099494725   0.10442932            1 
  203000    1.2089391   -2.4743858    241.23843  0.099030552    0.1044517            2 
  204000    1.2173966   -2.4896465     241.4439  0.098629042   0.10446214            1 
  205000    1.2217032   -2.4894759    243.95898  0.099170315   0.10448256            2 
  206000    1.2244544   -2.4878814    245.97596  0.099504839   0.10450633            2 
  207000    1.2290505   -2.4750688    247.38583  0.099591718   0.10452877            1 
  208000    1.2050152   -2.4604148    248.04898  0.099378596   0.10455104            2 
  209000    1.2461624   -2.4804979    249.48677  0.099476384   0.10457041            3 
  210000    1.2021482   -2.4725578    250.49158   0.09940142   0.10459364       -1e+20 
  211000    1.2175197     -2.47233    253.20664   0.10000262   0.10462067            2 
  212000    1.2239815   -2.4722839    254.67461   0.10010795   0.10464574            3 
  213000     1.223615   -2.4789056    254.61515  0.099614692   0.10467504            2 
  214000    1.2057563   -2.4503029    256.87299   0.10002842   0.10470307            1 
  215000    1.2142647   -2.4690968    258.15132   0.10005865    0.1047323            3 
  216000    1.2080903   -2.4860082    258.19237  0.099611252   0.10475357            1 
  217000    1.2050396   -2.4458541    259.72493  0.099740758   0.10477324            2 
  218000    1.2512847   -2.4546176    262.35026    0.1002868   0.10479613            1 
  219000    1.2049902    -2.496999    263.50949   0.10026997   0.10481899            2 
  220000    1.2264606   -2.4831754    263.64709  0.099866321   0.10484027            1 
  221000    1.2175182   -2.5065033    265.13372  0.099975008   0.10486134            2 
  222000    1.1992967   -2.4710834    266.21069  0.099928937    0.1048821            1 
  223000    1.2047008   -2.4854154    267.90764   0.10011496   0.10490146            5 
  224000    1.2208071   -2.4773176    268.23603  0.099790191   0.10491665            1 
  225000    1.2398724   -2.4822184     268.8743  0.099583075   0.10493096            1 
  226000    1.2232329   -2.4400283    270.83624  0.099865869    0.1049413            3 
  227000    1.2186866   -2.4402372    274.07897   0.10061636   0.10495274            1 
  228000    1.1721992   -2.4620603    272.81467  0.099712964   0.10496087            3 
  229000    1.2396516    -2.489816    275.24239   0.10016099   0.10497446            1 
  230000    1.2043307   -2.4398869    275.65757   0.09987593   0.10498511            3 
  231000    1.2104954   -2.4871562    276.15847  0.099624267   0.10499464            3 
  232000    1.2092753   -2.4908667    278.81428   0.10014881    0.1050002            1 
  233000     1.232492   -2.5179271    278.15996  0.099484965   0.10500257            1 
  234000    1.2240371   -2.4447827    281.91453   0.10039691   0.10500548            1 
  235000    1.2197689    -2.486554    281.89546  0.099962929   0.10500839            1 
  236000    1.1956708   -2.4406962    283.39109   0.10006748   0.10501734            1 
  237000      1.20927   -2.4565436    284.66153   0.10009196   0.10502632            1 
  238000    1.2272638   -2.4590845    287.71147   0.10073931   0.10503853            1 
  239000    1.1829475   -2.4763642    288.16296   0.10047523   0.10505047            2 
  240000    1.2158738   -2.4767149    288.37993   0.10013192   0.10506082            2 
  241000    1.2335461   -2.4837086    289.19832  0.099999418   0.10507031            4 
  242000    1.2422354   -2.4798261    291.23595   0.10028786   0.10507769            2 
  243000    1.2177182   -2.4668523    290.94177   0.09977427   0.10508334            2 
  244000    1.2130399   -2.4577532    293.71889   0.10031383   0.10509088            2 
  245000    1.2107408   -2.4956954    295.66878   0.10056761    0.1050958            3 
  246000    1.1816014   -2.4758506    297.21708   0.10068329   0.10510489            1 
  247000    1.1889932   -2.4658945    297.01446   0.10020731    0.1051133            1 
  248000    1.2269125   -2.4783603    298.95246   0.10045446   0.10511983            1 
  249000    1.2122909   -2.5298504    299.57919   0.10026077   0.10512978            2 
  250000     1.185802   -2.4763304    301.49775   0.10049925   0.10513658            2 
  251000     1.193415   -2.4730903    303.38047   0.10072393   0.10514322            3 
  252000    1.2092503   -2.4814251    304.21488   0.10060016   0.10515383            2 
  253000    1.1791641   -2.4636701     306.5151   0.10096018   0.10516472            1 
  254000      1.22344   -2.4842041    306.33429   0.10050337   0.10517237            1 
  255000    1.2041739    -2.475541    308.63673   0.10086168   0.10518084            2 
  256000    1.2049837   -2.4895961    307.40318   0.10006614   0.10518062            2 
  257000    1.2114654   -2.4544127    310.71726   0.10075138   0.10518236            1 
  258000    1.2003645   -2.4652664     310.1194   0.10016777   0.10517741            1 
  259000    1.2262213   -2.4606018     313.7549   0.10095074   0.10517912            1 
  260000    1.1946544   -2.4725194    314.20933   0.10070812   0.10518585            1 
  261000    1.2040954   -2.4809872    314.75834   0.10049755   0.10519544            1 
  262000    1.2267336    -2.490808    317.10037    0.1008589   0.10520238            2 
  263000    1.2252333   -2.4741582    318.84521   0.10102827   0.10520941            1 
  264000     1.196201   -2.4679386    320.87616   0.10128667    0.1052197            1 
  265000    1.2033157   -2.4976937    319.84823   0.10058121   0.10523392            1 
  266000     1.230524   -2.5034321    321.85989    0.1008333   0.10524816            3 
  267000    1.2179097   -2.4720255    323.15637   0.10086029   0.10525918            1 
  268000    1.2203925   -2.4634381     324.5747   0.10092497   0.10527305            2 
  269000    1.1986757   -2.4946735    326.84948   0.10125449   0.10529161            3 
  270000    1.2083976    -2.490055    328.02758   0.10124308   0.10530635            2 
  271000      1.19696    -2.501452    329.28957   0.10125756   0.10532154            2 
  272000    1.1992217   -2.5058049    330.03851   0.10111474   0.10533513            1 
  273000    1.1752488   -2.4836211     330.2547   0.10081035   0.10534527            2 
  274000    1.1899634    -2.484266    332.12754   0.10101202   0.10535382            1 
  275000    1.1976726   -2.4988672    331.53002   0.10046364   0.10535966            2 
  276000    1.1783899   -2.5056163     334.7214   0.10106323   0.10536446            1 
  277000    1.1844338   -2.4810122    334.56577   0.10065155    0.1053704            2 
  278000    1.2002737   -2.4782639    337.12551   0.10105681   0.10537482            1 
  279000    1.2279172   -2.4845582    338.39376    0.1010734   0.10538172            2 
  280000    1.1977953   -2.4277263    340.36677   0.10129963    0.1053871            2 
  281000    1.2082049    -2.478768    341.03307   0.10113673   0.10539437            2 
  282000    1.2122725   -2.4576072    343.54334    0.1015199   0.10539748            1 
  283000    1.2241992   -2.4898723    341.88834   0.10067383   0.10540048            2 
  284000    1.2180533   -2.4906709    344.58971     0.101112   0.10539697            1 
  285000    1.1643423   -2.4855409    344.64871   0.10077448   0.10539856            3 
  286000     1.212746   -2.4739562    347.45419   0.10123957    0.1054017            1 
  287000    1.2136964   -2.4901429    349.69385   0.10153712   0.10540686            3 
  288000    1.1939295   -2.4531071    351.94451   0.10183579   0.10541425            1 
  289000     1.225298   -2.4787949    351.62104   0.10139015   0.10542385            2 
  290000    1.2050574   -2.4905831    351.91602   0.10112529   0.10542669            2 
  291000    1.1869998   -2.4904389    353.86546   0.10133604   0.10543483            1 
  292000    1.1914178   -2.4926321    354.79575   0.10125449    0.1054413            1 
  293000    1.1972068   -2.4819199    356.25371   0.10132358   0.10544205            3 
  294000     1.196109   -2.4722454    358.14044   0.10151373   0.10545109            2 
  295000    1.1897684   -2.4580132    358.22801   0.10119435   0.10545502            1 
  296000    1.2082754   -2.4910902    361.06114    0.1016501   0.10546208            1 
  297000    1.2017956   -2.4631149    362.46932   0.10170295   0.10546727            1 
  298000    1.2200098   -2.4461266    362.89391    0.1014804   0.10547008            4 
  299000    1.2461273   -2.5000548    360.91326   0.10058898   0.10546554            2 
  300000    1.2303822   -2.4449707    362.23706   0.10062141   0.10546333            2 
  301000     1.218564   -2.4676754    365.99022   0.10132619   0.10545723            1 
  302000    1.1968193   -2.4807167    364.63874   0.10061775    0.1054462            1 
  303000    1.2152806   -2.5106528    368.02545   0.10121712   0.10543741            1 
  304000    1.2102004   -2.4979747    366.67032    0.1005127   0.10542794            2 
  305000    1.2051053    -2.514284    369.30606   0.10090329   0.10541518            2 
  306000    1.2050919   -2.4818677    370.57012   0.10091779   0.10540615            2 
  307000    1.1934155   -2.4667944     371.1947    0.1007586   0.10539577            1 
  308000     1.204302   -2.4830226    373.14583   0.10095937   0.10538842            3 
  309000    1.2031705   -2.4562694    376.97837   0.10166623   0.10538272            1 
  310000    1.2103064   -2.4813273    377.10986   0.10137362   0.10537598            1 
  311000    1.1858775   -2.4503769    376.54828   0.10089718   0.10537063            1 
  312000    1.2108795   -2.5166801    378.78892   0.10117225   0.10536453            1 
  313000    1.1974755   -2.4795918    379.16682   0.10094963   0.10535534            1 
  314000    1.1857641   -2.4727938    379.67928   0.10076414    0.1053491            2 
  315000    1.2013955   -2.4568802    382.53168   0.10119886   0.10534246            1 
  316000    1.2042792   -2.4796291    382.88541   0.10097189   0.10533487            1 
  317000     1.218944   -2.4817283    385.06631   0.10122668   0.10532764            1 
  318000    1.2160534   -2.4901491    385.89588   0.10112575   0.10531806            2 
  319000    1.2123249   -2.4882634    387.07604   0.10111704   0.10531371            1 
  320000    1.2055858   -2.4790826    389.39346   0.10140455   0.10531501            1 
  321000    1.1999331    -2.503501    389.25797   0.10105347   0.10531073            1 
  322000    1.1857342   -2.4890047    391.27931   0.10126276   0.10530562            1 
  323000    1.2021299   -2.4942634     392.7258   0.10132244    0.1053019            1 
  324000    1.2037773   -2.5304264    391.98235    0.1008185   0.10529663            3 
  325000    1.2104096   -2.4920956    394.59408   0.10117797   0.10528905            1 
  326000    1.1935101   -2.4954649    396.91112    0.1014599   0.10528347            1 
  327000    1.1848326   -2.4748843    396.69655   0.10109494   0.10527706            2 
  328000    1.2083942   -2.4861839    398.37514    0.1012132   0.10526932            3 
  329000     1.198509   -2.4881357    398.05475    0.1008244   0.10526316            1 
  330000     1.234552   -2.5004074    399.51555   0.10088777   0.10525823            1 
  331000    1.1877707   -2.4902691     401.5779   0.10110219   0.10524973            1 
  332000    1.1891439   -2.5022315    404.64397   0.10156726   0.10524191            2 
  333000      1.20667   -2.4786695    403.42916   0.10095825   0.10523272            2 
  334000    1.2086856   -2.4881792     407.0331   0.10155516   0.10522704            1 
  335000    1.1915246   -2.4729165    407.03248   0.10125186   0.10521756            2 
  336000    1.1785916   -2.4812577    403.90011   0.10017364   0.10520512            4 
  337000    1.2091443   -2.4857096    408.45684   0.10100318   0.10518989            1 
  338000    1.1964626   -2.4852639    407.46429   0.10045964    0.1051736            1 
  339000    1.1898571   -2.4814665    409.33739   0.10062374   0.10515634            2 
  340000    1.2012076   -2.4631125     411.1768   0.10077863   0.10514083            1 
  341000    1.2201135   -2.5172876    412.13809   0.10071801   0.10512356            2 
  342000    1.2002926   -2.4772566    412.56087   0.10052653   0.10510718            3 
  343000    1.1770669    -2.474429    413.54672   0.10047296   0.10508938            2 
  344000    1.1963209   -2.5059107    412.75454  0.099988987   0.10507085            4 
  345000    1.1781785   -2.4869649     416.4235   0.10058539   0.10504639            1 
  346000    1.2236005   -2.4957753    414.51898  0.099835977   0.10502248            3 
  347000    1.1906801   -2.5219926    418.54447     0.100515   0.10500019            2 
  348000    1.2238417    -2.467805    421.47769   0.10092856   0.10497723            1 
  349000    1.2127719   -2.5007924    416.75376  0.099511403   0.10495246            2 
  350000    1.2019327    -2.496974    421.32916   0.10031647      0.10493            1 
  351000    1.2132613   -2.5011974    422.93069    0.1004109   0.10490579            3 
  352000     1.179893   -2.4919168    422.24404  0.099963078   0.10487773            1 
  353000    1.2041441   -2.4779815    424.01655   0.10009833   0.10484958            4 
  354000    1.2295205   -2.4934169    424.49723  0.099928726   0.10482279            3 
  355000    1.2008172   -2.4791372    426.22668   0.10005321   0.10479735            1 
  356000    1.1792247   -2.4957248    429.61313   0.10056487   0.10476986            2 
  357000    1.1709429   -2.4927186    429.08349   0.10015954   0.10474506            1 
  358000    1.1960288      -2.4799    429.62884   0.10000671   0.10471668            4 
  359000    1.2088087   -2.4646093     429.7791  0.099763023   0.10469132            2 
  360000    1.1823024   -2.5276825    430.89866   0.09974506    0.1046663            1 
  361000    1.2013193    -2.477796    431.47914  0.099602756   0.10463969            2 
  362000    1.1728907   -2.5229297    434.42871   0.10000661   0.10461291            1 
  363000    1.1945048   -2.4841847    435.84238   0.10005564   0.10458586            1 
  364000    1.1891953   -2.5338432    435.22293  0.099638949   0.10455834            4 
  365000    1.1959055   -2.4936693    436.83065  0.099733026   0.10453235            5 
  366000    1.1821464   -2.4660834    438.53167  0.099847831   0.10450614            3 
  367000     1.202794   -2.5074411    440.64911   0.10005656    0.1044837       -1e+20 
  368000    1.2014209   -2.4830286    440.30444  0.099706622   0.10445917            1 
  369000    1.2009999   -2.5105981    442.49667  0.099931498   0.10443819            3 
  370000    1.1876707   -2.4876949    442.56586  0.099676996    0.1044153            2 
  371000    1.2304507   -2.4706671    447.14181   0.10043617   0.10439139            3 
  372000    1.1912264   -2.5303431    444.30425  0.099530522   0.10436798            1 
  373000    1.1640635   -2.5174857    446.62741   0.09978271   0.10434407            1 
  374000    1.1857706   -2.5040266    450.32206   0.10033914   0.10432369            4 
  375000    1.2010248   -2.5328465    448.92824   0.09976183    0.1043049            1 
  376000    1.2124812   -2.5063035    451.36951   0.10003757   0.10428833            1 
  377000    1.1729841   -2.5261649     452.8801   0.10010612   0.10427432            1 
  378000    1.1909818   -2.5152437    453.98431   0.10008472   0.10425698            1 
  379000    1.2186101   -2.4946552    457.41147    0.1005742   0.10424018            1 
  380000    1.1754008   -2.4752642    459.89423     0.100854   0.10422524            3 
  381000    1.2041752   -2.4675105    459.22828   0.10044363   0.10420949            2 
  382000    1.1876761   -2.5176537    460.25074   0.10040374   0.10419251            1 
  383000     1.158145   -2.5093307    463.76278   0.10090574   0.10417844            1 
  384000    1.1820559   -2.4958356    464.25962   0.10075079   0.10416556            1 
  385000    1.2141113   -2.5090943    463.85987   0.10040257   0.10415062            2 
  386000    1.2122811   -2.4919206    466.06557   0.10061865   0.10413836            3 
  387000    1.1721185   -2.5045329    465.22954   0.10017862    0.1041268            1 
  388000    1.1789922   -2.5130439    465.98769   0.10008327   0.10411221            3 
  389000    1.1806858   -2.5175428    469.50532   0.10057955   0.10409715            2 
  390000    1.1975321   -2.5016648    469.78313   0.10038101   0.10408188            2 
  391000    1.1956275   -2.5017155    470.25322   0.10022447   0.10406551            1 
  392000    1.1870913   -2.5313121    471.33098   0.10019791   0.10404669            2 
  393000    1.1907813   -2.4792674    473.25851   0.10035168   0.10402702            1 
  394000    1.1672195   -2.5011193    472.01862  0.099834734   0.10400531            1 
  395000    1.1769109   -2.5065487    476.08281   0.10043941   0.10398458            1 
  396000    1.2207621   -2.4772694    474.79656  0.099915102   0.10396488            1 
  397000    1.1790331   -2.4693324    478.06085   0.10034862   0.10394761            2 
  398000    1.2147076   -2.4932884    478.73164   0.10023694    0.1039309            5 
  399000    1.1874612   -2.4943299    478.66309  0.099971406   0.10391293            2 
  400000    1.1715978   -2.5030594    482.74966   0.10057285    0.1038992            3 
  401000    1.2123802   -2.4728099    485.93992   0.10098502   0.10388711            1 
  402000    1.1920457   -2.5218091    482.35809  0.099991313   0.10387745            2 
  403000     1.195439   -2.5207876    487.82195   0.10087302   0.10386733            1 
  404000     1.197302   -2.4790516    489.53659   0.10097702    0.1038597            1 
  405000    1.1939768   -2.5175016    490.62383   0.10095141   0.10385372            2 
  406000    1.1507193   -2.4847931    492.35605    0.1010583   0.10384871            1 
  407000    1.1845269   -2.5199278    493.39893   0.10102353   0.10384498            3 
  408000    1.1877483    -2.474971    494.96868   0.10109654   0.10384174            3 
  409000    1.2322371   -2.5201721    492.72528   0.10039227   0.10383291            2 
  410000    1.1648882   -2.5064914    496.03331   0.10081978   0.10382577            1 
  411000    1.1872494   -2.5144453    496.28881   0.10062628   0.10381948            2 
  412000    1.1805516   -2.4839653    498.67509    0.1008647   0.10381268            2 
  413000    1.1909349   -2.4912223    500.85331   0.10105999   0.10380599            4 
  414000    1.1823468   -2.4895445    499.77949   0.10059974   0.10379823            3 
  415000    1.1647276   -2.5110653    500.94728   0.10059182   0.10378694            3 
  416000    1.1965015   -2.4925683    502.65533   0.10069217   0.10377554            2 
  417000    1.1746349   -2.4918258    504.95136   0.10090954   0.10376079            2 
  418000    1.1898059   -2.5262361     502.5892   0.10019721   0.10374721            2 
  419000    1.1693022   -2.4999474    504.73653   0.10038515   0.10373388            1 
  420000     1.176467   -2.5191467    505.13102   0.10022441     0.103719            3 
  421000      1.17207   -2.5177338    503.88468  0.099739643    0.1037045            1 
  422000    1.1684893   -2.5261893    507.76407   0.10026937     0.103691            1 
  423000    1.1884867   -2.4944527    507.99059   0.10007695   0.10367759            3 
  424000      1.19425   -2.5271682    510.56434   0.10034676   0.10366458            1 
  425000    1.1868349   -2.4657332    509.87239  0.099974979   0.10365013            2 
  426000    1.1730537    -2.477364    512.16072   0.10018793   0.10363459            3 
  427000    1.2190303   -2.4870448    513.94137   0.10030081   0.10361924            2 
  428000    1.1901777   -2.4798491    511.52231  0.099595465   0.10360375            1 
  429000    1.2000919   -2.5160861    514.57219  0.099955748   0.10358381            1 
  430000    1.1844572   -2.4931249     515.4712   0.09989752   0.10356605            2 
  431000    1.1679823   -2.5086793     516.4267  0.099850484   0.10354782            3 
  432000    1.2017219   -2.5120546    518.51085   0.10002138   0.10352989            1 
  433000    1.1988445   -2.5242904    520.04173   0.10008501   0.10351061            2 
  434000    1.1885964   -2.5203818    521.36538   0.10010856   0.10348947            1 
  435000    1.1616257   -2.4758833    522.12555   0.10002405   0.10347252            2 
  436000    1.1793767    -2.507311    523.42323   0.10004267   0.10345678            2 
  437000    1.2115426   -2.4844216    524.31451  0.099983697   0.10343947            3 
  438000    1.1799103   -2.4767721    526.89085   0.10024559   0.10342275            2 
  439000    1.1925941    -2.498214    526.21418  0.099888797    0.1034081            3 
  440000    1.1717313    -2.513984    524.57686  0.099351678   0.10339376            1 
  441000    1.1767576    -2.522264    531.04754   0.10034912   0.10337778            1 
  442000    1.2060484   -2.5024865    534.07643   0.10069314   0.10336681            2 
  443000    1.1791296   -2.5104299    532.41829   0.10015393   0.10335484            1 
  444000    1.1623839   -2.5219911    536.24137    0.1006459   0.10334638            1 
  445000    1.1926613   -2.5178515    537.02634   0.10056673    0.1033359            1 
  446000    1.1698733    -2.515245    537.38871   0.10040895   0.10332678            1 
  447000    1.1716144   -2.5181804    542.15084   0.10107212   0.10331623            1 
  448000    1.1822212   -2.4769112    541.79223   0.10077981   0.10330765            2 
  449000    1.1657913   -2.5005613    540.79107   0.10036954   0.10329898            3 
  450000    1.1918333   -2.5196992    541.10735   0.10020506   0.10328881            3 
  451000    1.1831807   -2.4799525    542.88788   0.10031188   0.10327876            1 
  452000    1.1709892   -2.4907552    545.96923   0.10065804   0.10326746            1 
  453000    1.1687588   -2.4957171    542.70939  0.099836165   0.10325205            1 
  454000    1.1749018   -2.4944634     547.2818   0.10045554   0.10323614            3 
  455000    1.1911612   -2.5119038    543.02389  0.099454924   0.10321948            1 
  456000    1.1786119   -2.5284938     546.9422  0.099952888   0.10320271            2 
  457000    1.1812437   -2.5137314     549.9558    0.1002837   0.10318579            2 
  458000    1.2021578   -2.5007707    550.73198   0.10020596   0.10316858            1 
  459000    1.1831614   -2.4862601    552.35663   0.10028261   0.10314952            1 
  460000    1.1544712    -2.483461    549.50643  0.099548266   0.10312937            3 
  461000    1.2053909   -2.4609861    550.62434  0.099534407   0.10311001            1 
  462000    1.1602515   -2.5307012    548.96271  0.099019247   0.10308755            2 
  463000    1.1671468   -2.4984145    554.11161  0.099732111   0.10306481            1 
  464000    1.1834539   -2.5018859    553.27023  0.099366062   0.10304095            1 
  465000     1.176224   -2.5426933    553.23951  0.099146866   0.10301753            2 
  466000    1.1773634   -2.5155656    556.44303  0.099506979   0.10299262            1 
  467000    1.1755568   -2.5154997    555.98922  0.099212922   0.10296909            1 
  468000    1.1523711   -2.5019225    557.47601  0.099265671   0.10294662            1 
  469000    1.1886111   -2.5075666    560.24175  0.099545443   0.10292495            1 
  470000    1.1803616    -2.511089    562.29932  0.099698461   0.10290511            2 
  471000    1.1637802   -2.5262722    561.39405  0.099326619   0.10288482            1 
  472000    1.1612867   -2.5356302    563.78761  0.099538773   0.10286261            2 
  473000    1.1609265   -2.4958608    567.86464   0.10004662   0.10284366            2 
  474000    1.1992381    -2.516415    566.33659  0.099566912   0.10282338            2 
  475000    1.1862762   -2.5201743    565.39631  0.099192336   0.10280284            2 
  476000    1.1978881   -2.5134095    565.85937  0.099065016   0.10278138            2 
  477000    1.1891638   -2.5116624    569.03645  0.099412377   0.10275907            1 
  478000    1.1875065   -2.5011791    569.87316  0.099350271   0.10273683            2 
  479000    1.1466244   -2.5162931    565.76881  0.098428811   0.10271209            4 
  480000    1.1757014   -2.5268702    570.70052  0.099079951   0.10268767            1 
  481000    1.1855893   -2.5175568    573.53523  0.099365078   0.10266493            2 
  482000    1.1820737   -2.5164393    571.77479  0.098854563    0.1026432            2 
  483000    1.1733275   -2.5175085    574.14395  0.099058652   0.10262008            1 
  484000    1.2017983   -2.5030036    575.80963  0.099140777   0.10259908            1 
  485000    1.1767697   -2.4998491    577.86746  0.099289942   0.10257827            2 
  486000    1.1797697   -2.5514311    577.14111  0.098961095   0.10255621            3 
  487000     1.157653   -2.4947476    579.89346   0.09922886   0.10253528            3 
  488000    1.1672377   -2.5235245    582.16447  0.099413331    0.1025137            1 
  489000    1.1721409   -2.5236963    580.93593   0.09900067   0.10249392            1 
  490000    1.1522465   -2.4907774    586.75791   0.09978876   0.10247536            1 
  491000    1.1505177   -2.5166439    582.30616  0.098829966   0.10245735            1 
  492000    1.1877209   -2.4805655    588.86231  0.099739551   0.10243754            2 
  493000    1.1624339   -2.5383694    584.73963  0.098840371   0.10241893            1 
  494000    1.1725093   -2.5147952    587.68657   0.09913741   0.10240019            2 
  495000     1.159829   -2.5035489    589.98746  0.099324488   0.10238101            1 
  496000    1.1550111   -2.5377153    589.33962  0.099015393   0.10236197            3 
  497000    1.2042307   -2.5099335    591.32353  0.099148814   0.10234291            1 
  498000    1.1536143   -2.4970125    593.64816  0.099338715   0.10232344            1 
  499000    1.1675845   -2.5375608    591.60074  0.098797719   0.10230411            2 
  500000    1.1705647   -2.5255878    594.17093  0.099028488   0.10228756            1 
  501000    1.1668004   -2.5109106    596.39036  0.099199992   0.10227089            1 
  502000     1.175065    -2.514219    599.65144  0.099543732   0.10225363            2 
  503000    1.1816489   -2.5476906    595.98763  0.098738838    0.1022356            3 
  504000    1.1783715   -2.5194528    598.86988  0.099019491    0.1022169            1 
  505000    1.1684945   -2.5384515     597.2331  0.098553317   0.10219672            2 
  506000    1.1461775   -2.5174736    601.95797  0.099136688   0.10217635            2 
  507000    1.1548625   -2.5115689    603.81783  0.099246848   0.10215739            1 
  508000     1.174602   -2.5059889    604.59466  0.099178914   0.10213789            1 
  509000    1.1606868   -2.5323654    604.28456  0.098933294   0.10211975            2 
  510000    1.1798785   -2.5300688    607.78399   0.09931111   0.10210078            1 
  511000    1.1686845    -2.526687    606.38067   0.09888791   0.10208539            2 
  512000    1.1817089   -2.5410126    610.38769  0.099346955   0.10206889            1 
  513000    1.1508198   -2.5180652    610.12462  0.099110562   0.10205377            1 
  514000    1.1534455   -2.5188333    615.64951  0.099813474   0.10204054            2 
  515000    1.1799635   -2.5167105     614.1864  0.099382912   0.10202766            1 
  516000    1.1789785   -2.4892532    617.41622  0.099711922   0.10201713            4 
  517000    1.1477866   -2.5067579    618.37049  0.099672871   0.10200283            1 
  518000    1.1513599   -2.5018629      619.535  0.099667793   0.10198884            2 
  519000    1.1642196   -2.5258941    616.97848  0.099065267   0.10197266            1 
  520000    1.1659195   -2.5363799    620.04753  0.099366591   0.10195823            2 
  521000    1.1524819   -2.5246173     619.1301  0.099029126   0.10194467            1 
  522000    1.1869829   -2.5600512    618.67204   0.09876629   0.10192836            2 
  523000     1.167088   -2.5367151    621.56622  0.099038595   0.10191034            3 
  524000     1.157757   -2.5301874    621.99665  0.098918042   0.10189299            1 
  525000     1.172498   -2.5293419    623.00202   0.09888921   0.10187461            2 
  526000    1.1774671   -2.5242682     625.2774  0.099061693   0.10185779            1 
  527000    1.1584684    -2.537813    626.70275  0.099099106   0.10184058            1 
  528000    1.1443004   -2.5403815    626.25833  0.098841277   0.10182428            1 
  529000    1.1583227   -2.5264001    630.81708   0.09937257   0.10180843            2 
  530000    1.2021938   -2.5242391    633.11536   0.09954644   0.10179635            1 
  531000    1.1638795   -2.5232533     631.2606  0.099067891   0.10178321            3 
  532000    1.1808571   -2.5086407    634.98559  0.099465161   0.10176949            2 
  533000    1.1529762   -2.5158037    632.53832  0.098895922   0.10175329            3 
  534000    1.1580654    -2.511865    635.07619  0.099106771   0.10173774            2 
  535000    1.1468944   -2.5215175    635.61508  0.099005464   0.10172292            3 
  536000    1.1721335   -2.5275491    638.65556  0.099293464   0.10170972            1 
  537000    1.1378275    -2.497524    641.42257  0.099537953   0.10169718            1 
  538000     1.141709   -2.5352808     642.2512  0.099481288   0.10168408            4 
  539000    1.1689462   -2.5257731    641.25772  0.099143122   0.10167144            2 
  540000    1.1763076    -2.509475    640.72047  0.098876616   0.10165832            2 
  541000    1.1547619   -2.5476836    643.41371  0.099108705   0.10164627            2 
  542000    1.1648403   -2.5322368    644.73623  0.099129187   0.10163241            1 
  543000    1.1494425   -2.5154303    646.16486  0.099165877   0.10161889            3 
  544000    1.1599589   -2.5157566     648.2084   0.09929663   0.10160522            1 
  545000    1.1606108   -2.5232753    646.29259  0.098821497   0.10158732            2 
  546000    1.1772741    -2.529804     649.9986  0.099206135   0.10157123            1 
  547000    1.1421493   -2.5160982    648.67784  0.098823558   0.10155417            1 
  548000     1.163286   -2.5425927    652.44473  0.099216048   0.10153955            2 
  549000    1.1571405   -2.5162327    654.40002  0.099332122   0.10152471            1 
  550000    1.1622883   -2.5016274    657.89119  0.099680483   0.10151266            1 
  551000    1.1642998   -2.5503933    654.04901  0.098918483   0.10149989            4 
  552000    1.1735152   -2.5183809     655.1227  0.098901374   0.10148801            1 
  553000    1.1873577   -2.5329689    657.37265   0.09906158   0.10147392            1 
  554000    1.1687091   -2.5151351    660.80257  0.099398702   0.10145915            2 
  555000    1.1488613   -2.5082808    660.68413  0.099201821   0.10144458            1 
  556000    1.1669995   -2.5147822    660.51842  0.098998564   0.10143002            1 
  557000    1.1720389    -2.512498    660.27661  0.098784651   0.10141574            2 
  558000    1.1554444   -2.5275816    661.78139  0.098832346   0.10139845            1 
  559000    1.1781534   -2.5256103    664.62945  0.099080121   0.10138313            4 
  560000    1.1693342   -2.5239523    661.48972   0.09843597   0.10136839            2 
  561000    1.1545601   -2.5499464     663.2155  0.098516859   0.10135319            1 
  562000     1.146904    -2.529745    665.43263  0.098670319   0.10133836            4 
  563000    1.1721329   -2.5188996    670.56613  0.099254904    0.1013229            2 
  564000    1.1444677   -2.5245818    668.70952  0.098804599   0.10130787            3 
  565000    1.1750268   -2.5351332    668.06158  0.098534156   0.10129165            2 
  566000    1.1658588   -2.5508802    667.25613   0.09824148   0.10127408            1 
  567000    1.1817873   -2.5527136    669.50348  0.098398513   0.10125814            1 
  568000    1.1580841   -2.4951284    673.83786  0.098861188   0.10124137            2 
  569000    1.1851914   -2.5219878    672.05112  0.098425764   0.10122393            3 
  570000    1.1513344   -2.5158904    676.11427  0.098847116   0.10120808            1 
  571000    1.1405305   -2.5337292    675.55311  0.098592106   0.10119024            3 
  572000    1.1640175   -2.5524169     676.3578  0.098536975   0.10117294            5 
  573000    1.1944986   -2.5450105    679.66728  0.098846317   0.10115694            3 
  574000    1.1565229   -2.5451074    682.15287   0.09903497   0.10114159            1 
  575000     1.155927   -2.5182648    680.55446  0.098631082   0.10112749            1 
  576000    1.1491414   -2.5285221    683.10192  0.098828403   0.10111325            4 
  577000    1.1325603   -2.5335097    682.83578  0.098618685   0.10109793            2 
  578000     1.156874   -2.5351301    688.16759   0.09921678   0.10108324            2 
  579000    1.1605841    -2.532877    687.38894  0.098933354   0.10107056            2 
  580000    1.1674359   -2.5275112    688.78857  0.098963875   0.10105781            1 
  581000    1.1700543   -2.5232476    690.60548  0.099054143    0.1010446            2 
  582000    1.1551477    -2.530143    690.55046  0.098876067   0.10103194            1 
  583000    1.1632866   -2.5511598    690.48119  0.098696569   0.10101888            3 
  584000    1.1394354   -2.5331738    689.84538   0.09843684   0.10100673            1 
  585000    1.1626894   -2.5327812    690.47384  0.098358096   0.10099287            2 
  586000    1.1711886   -2.5403323    695.74196  0.098939414    0.1009788            2 
  587000    1.1465075   -2.5242742     700.5327  0.099450979   0.10096654            2 
  588000    1.1745267   -2.5306701    696.83248  0.098757438   0.10095555            2 
  589000    1.1516706   -2.5426506    700.84769   0.09915785   0.10094624            1 
  590000    1.1767019   -2.5373453    696.87043  0.098428027   0.10093535            2 
  591000    1.1593416   -2.5301202    704.60143  0.099351583   0.10092338            1 
  592000    1.1335104   -2.5222039    700.41056  0.098593829   0.10091225            1 
  593000    1.1603762   -2.5270725    705.51089  0.099144307   0.10090122            1 
  594000     1.168027   -2.5234567    706.71944  0.099146947   0.10089027            1 
  595000    1.1329454   -2.5378643    706.92147  0.099008609   0.10087973            4 
  596000    1.1414865   -2.5333695    711.38479  0.099466553   0.10086767            1 
  597000    1.1822945   -2.5298134    709.14502    0.0989873   0.10085733            2 
  598000    1.1653897   -2.5484844    706.58864  0.098465529   0.10084662            1 
  599000    1.1488092   -2.5330533    711.88009  0.099037297   0.10083646            1 
  600000    1.1652327   -2.5381094    709.12746  0.098489925    0.1008241            2 
  601000    1.1406693   -2.5719361    713.36548  0.098913683   0.10081265            2 
  602000    1.1320585   -2.4976324    714.10821  0.098852189   0.10080091            2 
  603000    1.1302126   -2.5342384    714.23353  0.098705574   0.10078944            1 
  604000    1.1569481   -2.5790213    715.28766  0.098687591    0.1007745            2 
  605000    1.1366579   -2.4987798    713.37719  0.098261321   0.10076083            1 
  606000    1.1638999    -2.543566    716.08476  0.098471502   0.10074557            2 
  607000    1.1614494   -2.5355429    717.78943  0.098543304   0.10072991            3 
  608000    1.1398882   -2.5535545    718.76982    0.0985156   0.10071587            3 
  609000    1.1582354   -2.5604569    718.60841  0.098331747   0.10070082            1 
  610000    1.1458595   -2.5422888    723.84946  0.098886538   0.10068557            1 
  611000    1.1733462   -2.5650738    720.92455   0.09832577   0.10067173            2 
  612000    1.1422994   -2.5664231    720.41473  0.098095688   0.10065476       -1e+20 
  613000    1.1409375   -2.5414931      723.621  0.098371533      0.10064            3 
  614000    1.1557881    -2.545056     723.3607  0.098175991   0.10062449            2 
  615000    1.1391554   -2.5351403    728.36152  0.098693973   0.10061063            1 
  616000    1.1312223   -2.5349733     728.4327  0.098543384   0.10059775            2 
  617000    1.1503026   -2.5415548    726.17208  0.098078347   0.10058537            2 
  618000    1.1328324   -2.5554516    730.20136  0.098462967   0.10057257            1 
  619000    1.1737379   -2.5215119     732.1241  0.098562748    0.1005598            2 
  620000    1.1384952   -2.5112803    733.21251  0.098550068   0.10054942            2 
  621000    1.1440119   -2.5443264    732.54762   0.09830215   0.10053641            2 
  622000    1.1581309   -2.5458416    734.72681  0.098436068   0.10052333            2 
  623000    1.1744132   -2.5058391    736.62891  0.098532492   0.10051123            1 
  624000    1.1574225   -2.5557002    735.10206  0.098170681   0.10049845            1 
  625000    1.1642345   -2.5204601    735.59439  0.098079252   0.10048494            2 
  626000    1.1527708   -2.5462967    739.67695  0.098466047    0.1004724            2 
  627000    1.1586346   -2.5603377    737.92894   0.09807668   0.10046062            2 
  628000    1.1513345   -2.5363456    740.44859  0.098254855   0.10044772            1 
  629000    1.1704205    -2.526875    742.26275  0.098338998   0.10043329            1 
  630000     1.152805   -2.5573671    743.04444  0.098286302   0.10041975            2 
  631000    1.1503262   -2.5306934    742.19752  0.098018689   0.10040558            1 
  632000    1.1572826   -2.5463731    743.40928  0.098023375   0.10039199            1 
  633000    1.1595089   -2.5302364    745.12603  0.098094527    0.1003784            2 
  634000      1.12437   -2.5439581    747.39623    0.0982382   0.10036492            2 
  635000    1.1599933   -2.5414807    747.78988  0.098135155   0.10035175            1 
  636000    1.1665637   -2.5616301    747.38239  0.097927462   0.10033734            2 
  637000    1.1631937   -2.5214327     748.1629  0.097875838    0.1003223            1 
  638000    1.1681723   -2.5708216    751.13585  0.098110743   0.10030701            1 
  639000    1.1407953   -2.5385905     753.0743  0.098210002   0.10029098            3 
  640000    1.1387927   -2.5267714    754.25166  0.098209851   0.10027538            1 
  641000    1.1048468   -2.5373326    753.94703  0.098017034   0.10026039            1 
  642000    1.1319774   -2.5331622    755.66336  0.098087144   0.10024429            2 
  643000    1.1320569   -2.5410275    756.36277  0.098025243    0.1002288            2 
  644000    1.1416594   -2.5610911     757.1554  0.097975595   0.10021209            2 
  645000    1.1638036   -2.5728654    758.61978  0.098012892   0.10019577            1 
  646000    1.1769269   -2.5519149    759.08275  0.097920891   0.10018132            2 
  647000    1.1394225    -2.559158    758.83897  0.097738147    0.1001675            1 
  648000    1.1763585    -2.536719    762.17511  0.098016346    0.1001547            2 
  649000     1.172086   -2.5596485    762.32312  0.097884324   0.10014176            2 
  650000    1.1530311   -2.5134823    763.88771  0.097934321   0.10012876            2 
  651000    1.1345726   -2.5833072     762.7291  0.097635574   0.10011507            2 
  652000    1.1268016   -2.5492625     768.9467  0.098280508   0.10010034            1 
  653000    1.1405483   -2.5608614    767.84251   0.09798909   0.10008675            1 
  654000    1.1647087   -2.5414004    769.75006  0.098082321   0.10007391            2 
  655000    1.1475302   -2.5368483    772.87331  0.098329938   0.10006038            1 
  656000    1.1518747   -2.5417266    774.01031  0.098324481   0.10004711            1 
  657000    1.1693198   -2.5346329    773.63238  0.098126888   0.10003315            2 
  658000    1.1422912   -2.5382999    777.26605  0.098437949   0.10001904            4 
  659000    1.1372117   -2.5233408    772.43815  0.097678066   0.10000379            1 
  660000    1.1349309   -2.5349371    775.81131  0.097955974  0.099988458            5 
  661000    1.1374808   -2.5634573    776.98144    0.0979553  0.099974432            1 
  662000    1.1516109   -2.5177248     778.6954  0.098023087  0.099960107            1 
  663000    1.1339321   -2.5602351    780.32262  0.098079766  0.099945718            2 
  664000    1.1555022   -2.5343248    783.25249   0.09829976  0.099931143            3 
  665000    1.1515504   -2.5614271    780.19335  0.097768591  0.099916588            3 
  666000     1.173009   -2.5532011    779.85231  0.097579118   0.09990249            1 
  667000    1.1425502   -2.5580315    787.15304  0.098344957  0.099888828            2 
  668000    1.1509612   -2.5707661    786.21811  0.098081101  0.099876578            2 
  669000    1.1478934   -2.5266144    787.19192  0.098055794  0.099865498            2 
  670000    1.1485161   -2.5718587     786.4105  0.097812252  0.099853584            1 
  671000    1.1404455   -2.5773473    788.24847  0.097894742  0.099842053            1 
  672000    1.1295298   -2.5661893    792.35451  0.098258248  0.099830511            1 
  673000    1.1155037   -2.5258527    795.53593  0.098506183  0.099821595            3 
  674000    1.1315125   -2.5509165    791.72108  0.097888363  0.099812165            5 
  675000    1.1389213   -2.5615859    797.50821  0.098457803  0.099801595            3 
  676000     1.117583   -2.5726207    795.57762  0.098074164  0.099790716            6 
  677000    1.1464481   -2.5599057    795.71616  0.097946351  0.099779092            2 
  678000    1.1341681    -2.543522    797.96307  0.098078057  0.099768104            1 
  679000    1.1557746   -2.5345947    802.66531  0.098510716  0.099756081            2 
  680000    1.1407997   -2.5709553     797.6187  0.097747389  0.099746041            3 
  681000    1.1378194   -2.5506333    800.12314  0.097910321  0.099734269            2 
  682000    1.1481613   -2.5585436    802.17029  0.098016898  0.099721335            1 
  683000    1.1400794   -2.5552616    804.66954  0.098178323  0.099711315            1 
  684000    1.1469304   -2.5582929    803.99609  0.097952739  0.099700419            4 
  685000    1.1360643   -2.5645254    808.14606  0.098314606  0.099687976            1 
  686000    1.1530409   -2.5714743    806.02734  0.097913914  0.099676869            4 
  687000    1.1322091   -2.5458026    807.64332   0.09796741   0.09966541            2 
  688000    1.1426892   -2.5528912    807.93271  0.097860067    0.0996529            1 
  689000    1.1442903    -2.571616     808.9231  0.097837821  0.099640607            1 
  690000    1.1551605   -2.5465749    810.42229  0.097877089  0.099629575            2 
  691000     1.126652   -2.5398319    812.12614  0.097940924  0.099618396            2 
  692000    1.1566445     -2.52701    815.87719  0.098251107  0.099606612            1 
  693000    1.1185072   -2.5553454    811.98708  0.097641543   0.09959514            1 
  694000    1.1584445   -2.5511394    813.73367  0.097710575  0.099582895            2 
  695000    1.1442948   -2.5788826    813.02424   0.09748492  0.099570424            3 
  696000    1.1519583   -2.5767798    818.45702  0.097995333  0.099556791            1 
  697000     1.136711   -2.5526345    814.81371  0.097419143  0.099543911            1 
  698000    1.1645368    -2.554426    816.11703  0.097435176  0.099529844            1 
  699000    1.1333529   -2.5407567    818.46764  0.097576018  0.099517962            2 
  700000    1.1481655    -2.573044    820.82364  0.097717099  0.099504342            2 
  701000     1.133652    -2.564137    824.09966   0.09796715  0.099493618            2 
  702000    1.1610552   -2.5810022    823.95957  0.097810965  0.099482439            1 
  703000    1.1427954   -2.5439973    824.94277  0.097788379  0.099471263            2 
  704000    1.1504139   -2.5399642    828.91585  0.098119774  0.099459693            2 
  705000     1.146405   -2.5611108    825.91125  0.097625443  0.099448141            2 
  706000     1.128198   -2.5561947    827.01226  0.097617122  0.099436212            2 
  707000    1.1311209   -2.5784581    832.67266  0.098146235    0.0994239            2 
  708000    1.1373927   -2.5332023    831.00241  0.097811018  0.099412363            2 
  709000     1.106867   -2.5396279    836.16888   0.09828031  0.099401715            2 
  710000    1.1510468   -2.5391713    831.97199  0.097649294  0.099391419            3 
  711000    1.1244361   -2.5628702    836.05404  0.097990393  0.099381138            1 
  712000    1.1255867    -2.567724    838.03394  0.098084497  0.099371666            2 
  713000      1.14826   -2.5420695    839.21334  0.098084776  0.099362424            1 
  714000    1.1453945   -2.5454571    841.76694  0.098245441  0.099352915            2 
  715000    1.1340126   -2.5448366    839.98424  0.097900262  0.099343741            2 
  716000    1.1374358   -2.5389845    840.40642  0.097812665  0.099334246            1 
  717000    1.1384894   -2.5691057    841.95561    0.0978563  0.099322934            1 
  718000    1.1270919   -2.5412019    845.68931  0.098153355  0.099313129            2 
  719000    1.1475111   -2.5479181    841.83599  0.097570235  0.099303685            1 
  720000    1.1217381   -2.5625947    844.07212  0.097693533  0.099292143            2 
  721000    1.1196825   -2.5529943    845.34888  0.097705604   0.09928053            1 
  722000    1.1369681   -2.5619765    843.93701  0.097407319  0.099269607            1 
  723000    1.1149225   -2.5654809    851.79679  0.098178515  0.099258083            1 
  724000    1.1682877   -2.5458828    850.10026  0.097847636  0.099246399            1 
  725000      1.12708   -2.5506532    848.92426  0.097577502  0.099234153            1 
  726000      1.12183   -2.5681914    850.90582  0.097670549  0.099221775            2 
  727000    1.1419654   -2.5547262    850.50809  0.097490611  0.099208863            2 
  728000    1.1494879    -2.567283    850.22228  0.097323979  0.099195686            1 
  729000    1.1365655   -2.5609682      853.626  0.097579561  0.099182938            1 
  730000    1.1211659   -2.5514937     851.2532  0.097175023  0.099169206            1 
  731000    1.1467763   -2.5624469    853.85386  0.097338561  0.099155475            1 
  732000    1.1277329   -2.5701053    855.38963  0.097380423  0.099140258            2 
  733000    1.1445963   -2.5595357    855.43644  0.097252892  0.099125048            1 
  734000    1.1378862   -2.5551064    852.81643  0.096822937  0.099110364            2 
  735000     1.126436   -2.5525068    858.74249  0.097363094   0.09909617            1 
  736000    1.1101984   -2.5649792    859.06521  0.097267347  0.099082482            2 
  737000    1.1225984   -2.5825916    858.03334  0.097018695  0.099067686            3 
  738000    1.1414901   -2.5552118    857.44954  0.096821312  0.099053382            2 
  739000    1.1085197   -2.5484761    863.05946  0.097322898  0.099039441            1 
  740000    1.1307929   -2.5441705    862.99244  0.097183833  0.099025675            1 
  741000    1.1371728   -2.5683846    863.62271  0.097123561  0.099010116            1 
  742000    1.1379926   -2.5490896    863.69855  0.097001185  0.098994742            1 
  743000    1.1290363   -2.5348807    864.25183  0.096932686  0.098979447            2 
  744000    1.1484068    -2.584555    865.77242  0.096972717  0.098962689            2 
  745000     1.138921   -2.5409411    865.84281  0.096850426  0.098946402            2 
  746000    1.1371391   -2.5786895    867.84457   0.09694421   0.09893034            3 
  747000    1.1246851    -2.567876    867.35666  0.096760002  0.098913532            3 
  748000    1.1202321   -2.5714911    868.43408  0.096750677  0.098897295            1 
  749000    1.1382292   -2.5905355    868.82149  0.096664607  0.098881441            1 
  750000    1.1236254   -2.5545382    874.03108  0.097114564  0.098865939            1 
  751000    1.1078433   -2.5695444    869.29217  0.096459406  0.098850564            2 
  752000    1.1166417   -2.5645581    875.79259  0.097051484  0.098836105            3 
  753000    1.1488383   -2.5744127    873.35989  0.096653374  0.098822311            4 
  754000    1.1393602   -2.5435556     879.1878  0.097169297   0.09880791            1 
  755000    1.1229723   -2.5610376    878.03127  0.096912943  0.098794634            1 
  756000    1.1400737   -2.5726187     881.9393  0.097215531  0.098780517            3 
  757000    1.1217133   -2.5574818    879.46717  0.096814968  0.098766745            1 
  758000    1.1401948   -2.5568164    881.44257  0.096904416  0.098753098            2 
  759000    1.1275831   -2.5785698    883.62949  0.097016852  0.098738623            2 
  760000    1.1217961   -2.5782271    881.30491   0.09663431  0.098723538            1 
  761000    1.1133942   -2.5435048    885.98058  0.097019336   0.09870761            2 
  762000    1.1144207   -2.5318207    881.68315  0.096422041  0.098691932            2 
  763000    1.1343068   -2.5843326    881.08903  0.096230781  0.098676131            1 
  764000    1.1297743    -2.541344    889.17474  0.096986774  0.098659834            5 
  765000    1.1576817   -2.5841109    885.69411   0.09648084  0.098643427            1 
  766000    1.1276338   -2.5730732    888.55997  0.096666663  0.098627314            1 
  767000    1.1022763   -2.5645529    888.12374  0.096493236  0.098611743            2 
  768000    1.1359594   -2.5405052    890.47727  0.096622968  0.098595436            1 
  769000    1.1493624   -2.5546716    891.20964  0.096576684  0.098578627            1 
  770000    1.1056207     -2.57532    891.15369  0.096445204  0.098562196            2 
  771000    1.1204021   -2.5785998    895.28073  0.096766183  0.098544891            1 
  772000    1.1387858   -2.5668319    893.36955  0.096434537  0.098530228            1 
  773000    1.1102694   -2.5150881    897.78847  0.096786165  0.098515145            3 
  774000    1.1436048    -2.550583    897.51834  0.096632035  0.098500105            3 
  775000    1.1468748   -2.5673963    899.87074  0.096760295  0.098485789            1 
  776000     1.115899   -2.5912227    897.11645  0.096339825  0.098471879            2 
  777000    1.1402453   -2.5543457    906.06482  0.097175549   0.09845857            2 
  778000    1.1227155   -2.5678775    908.40981  0.097301822  0.098446202            2 
  779000    1.1335129   -2.5671028    901.59351  0.096447743  0.098432567            1 
  780000      1.11831   -2.6082823    903.54773  0.096532877  0.098419405            1 
  781000    1.1397798    -2.557685    906.44663  0.096718591  0.098406402            2 
  782000    1.1375013   -2.5762487    910.76547  0.097055144  0.098393723            3 
  783000    1.1184511   -2.5319642    909.84117  0.096832819  0.098381347            1 
  784000    1.1221753   -2.5588422    912.00727  0.096939548  0.098368095            4 
  785000     1.102056   -2.5441634    911.70943   0.09678444   0.09835387            1 
  786000    1.1193141   -2.5608997    911.53017    0.0966423  0.098341572            2 
  787000    1.1042333   -2.5563249    918.14081  0.097219484  0.098329085            2 
  788000    1.1135806   -2.5652825    915.62684   0.09683025  0.098316384            2 
  789000    1.1261422   -2.5571217    910.88751  0.096206961  0.098303674            2 
  790000    1.1123251   -2.5715221    915.13411  0.096533134  0.098291396            3 
  791000    1.1346155   -2.5743149    923.34036  0.097275639  0.098279594            5 
  792000    1.1211551   -2.5573828    924.68174  0.097293954  0.098268626            2 
  793000    1.1035911   -2.5857002    922.49912    0.0969419  0.098256384            1 
  794000    1.1229126   -2.5816234    923.39026  0.096913335  0.098244627            1 
  795000    1.1264953   -2.5492897    921.76689  0.096621267  0.098232674            1 
  796000    1.1240081   -2.5461254    930.56721   0.09742119  0.098220307            1 
  797000    1.1548869   -2.5543694    929.39018  0.097175887  0.098209777            3 
  798000    1.1517841   -2.5654268    926.72225  0.096775506  0.098199141            2 
  799000     1.135923    -2.573458    924.23633  0.096395111  0.098186962            1 
  800000    1.1590817   -2.5476364    930.51287  0.096928424  0.098175135            2 
  801000    1.1195748   -2.5805342    926.82555  0.096423798  0.098163654            3 
  802000    1.1333327   -2.5738106    931.53986  0.096793419  0.098151216            2 
  803000    1.1154406   -2.5538281    927.69635  0.096274009  0.098138863            2 
  804000    1.1274345   -2.5650539    934.89462  0.096900354  0.098126003            3 
  805000    1.1352036   -2.5888278     934.5169   0.09674088  0.098113441            2 
  806000    1.1094382   -2.5645767    933.89261  0.096556308  0.098099713            4 
  807000     1.117478   -2.5788906    933.95174  0.096442765  0.098086353            2 
  808000    1.1260779   -2.5853779    936.13814  0.096548901  0.098073177            2 
  809000    1.1262459   -2.5890973    934.39513  0.096250013  0.098059846            2 
  810000    1.1182664   -2.5433232    941.57586  0.096869944  0.098047434            2 
  811000    1.1319885   -2.5770066    935.50103  0.096126287  0.098034151            1 
  812000    1.1223397   -2.5796113    938.67276  0.096333412  0.098020488            1 
  813000     1.110392    -2.597675    939.74449  0.096324774  0.098007477            2 
  814000    1.1149661   -2.5668917    937.23877  0.095949915  0.097994025            2 
  815000    1.1123364   -2.5744602    940.93584  0.096210209  0.097980503            3 
  816000    1.1112544   -2.5777301    944.30515  0.096436392  0.097968153            1 
  817000    1.1254868   -2.5420447     946.6067   0.09655311  0.097955403            2 
  818000     1.125625   -2.5760312    945.89539  0.096362611  0.097942657            3 
  819000     1.130935   -2.5681178    948.24301  0.096483822  0.097930126            2 
  820000    1.1273744   -2.5853336    949.11992  0.096455276  0.097917551            3 
  821000    1.1629778   -2.5831612    952.48163  0.096679013  0.097905467            1 
  822000    1.1220445   -2.5908909    951.21286  0.096432771   0.09789273            2 
  823000    1.1287261    -2.579164    953.87258  0.096584911  0.097879913            3 
  824000     1.094313   -2.5645666    954.55573  0.096536784   0.09786686            1 
  825000    1.1037975     -2.58207    953.09804  0.096272529  0.097854946            1 
  826000    1.1347599   -2.5806709     957.4625  0.096596297  0.097842587            3 
  827000    1.1118234   -2.5496852    958.25601  0.096559453  0.097831355            4 
  828000    1.1148033   -2.5826603    960.45983  0.096664637  0.097820262            1 
  829000    1.1345271   -2.5850052    955.97616  0.096097322  0.097808484            2 
  830000    1.1101762   -2.5500596    964.47412  0.096834751  0.097796225            2 
  831000    1.1126091   -2.5606995    965.53723  0.096824833    0.0977847            3 
  832000     1.126311   -2.5754034    965.10044  0.096664708  0.097774188            2 
  833000    1.1031953   -2.5880441    968.18975  0.096857718  0.097764091            4 
  834000     1.110714   -2.5541109    965.18989  0.096441835  0.097753267            2 
  835000    1.0958747   -2.5651468    967.40826   0.09654773  0.097742006            2 
  836000     1.103103   -2.5828101    968.65161  0.096556181  0.097730556            3 
  837000    1.0932984   -2.5790643    971.64559  0.096738907  0.097720431            2 
  838000     1.114188   -2.5728854    971.29451  0.096588555  0.097710208            1 
  839000    1.0938341   -2.5610982    975.29393  0.096870673  0.097700129            2 
  840000    1.1335562   -2.5636629    970.97504  0.096326889  0.097690672            2 
  841000     1.140109   -2.5814268    974.91914  0.096603165  0.097679686            1 
  842000    1.0816673   -2.5718415    974.56059  0.096452949  0.097669763            2 
  843000    1.0996248   -2.5501833    978.89472  0.096766975   0.09765911            1 
  844000    1.1242593   -2.5683942    981.86638  0.096945733  0.097648497            1 
  845000    1.1239533   -2.5509406    978.08315  0.096457904  0.097637445            2 
  846000     1.122056   -2.5843514    982.75414  0.096803993  0.097626117            1 
  847000    1.1112342   -2.6012831    973.50799  0.095780007  0.097615752            2 
  848000    1.0959412   -2.5887379    980.37166  0.096341555   0.09760407            1 
  849000    1.1370045   -2.5918074    978.22847  0.096017714   0.09759223            2 
  850000    1.1317185   -2.6087915    978.12491  0.095894599  0.097580769            2 
  851000    1.1277244   -2.5897165    986.84339  0.096635663  0.097567663            2 
  852000    1.1215879   -2.6121047    983.25685  0.096171445  0.097554845            2 
  853000      1.13138   -2.5872039    985.21007  0.096249518  0.097542266            1 
  854000    1.1269518   -2.5933668    983.76061  0.095995375  0.097529564            1 
  855000    1.1085398   -2.5795299    986.00756  0.096102101  0.097516928            2 
  856000     1.098781   -2.5983288    984.75891  0.095868274  0.097502903            1 
  857000     1.102002    -2.555596     990.5102  0.096315655  0.097489217            2 
  858000    1.0990465   -2.5693527    993.41458  0.096485488  0.097477322            3 
  859000    1.1269101   -2.5725154    990.39655  0.096080379  0.097464507            3 
  860000    1.1278785   -2.5628454    991.30181  0.096056377  0.097452358            1 
  861000    1.1022624   -2.5597628    992.84754  0.096094419  0.097440591            3 
  862000    1.0972014   -2.5896879    995.08839  0.096199574  0.097429097            2 
  863000    1.1132137   -2.5818034    994.37751  0.096019459  0.097416946            1 
  864000    1.1183293   -2.5832118    994.67104  0.095936635  0.097405424            1 
  865000    1.1195665   -2.5981006    999.28389  0.096270125  0.097393658            5 
  866000    1.0870959   -2.5815074    1000.2664    0.0962535    0.0973816            3 
  867000    1.1190367    -2.573019    999.76493  0.096094284    0.0973703            1 
  868000    1.1097789   -2.5940984    1004.3709  0.096425774  0.097358338            1 
  869000    1.1049539   -2.5732578    1002.2638  0.096112751   0.09734649            5 
  870000    1.1335298   -2.5737792    1001.8656  0.095964142  0.097335092            1 
  871000    1.1260862   -2.5626323    1000.5173  0.095724963  0.097321601            3 
  872000    1.1218877   -2.5821428    1002.6045  0.095814646  0.097309228            2 
  873000    1.1079783   -2.5708448    1005.2334   0.09595584  0.097297498            1 
  874000    1.1009789   -2.5924349    1011.6711  0.096459867   0.09728572            3 
  875000     1.113645    -2.585774    1006.0234   0.09581175  0.097272753            1 
  876000    1.1276286   -2.6015511    1006.7674  0.095773157  0.097260851            3 
  877000    1.0921608   -2.5911085    1007.8577  0.095767555  0.097249153            1 
  878000    1.1190098   -2.5515361    1010.9765  0.095954492  0.097237419            4 
  879000    1.0967218   -2.6010672    1014.2826  0.096158764  0.097226232            1 
  880000    1.0793866   -2.6132501    1013.0179  0.095929729  0.097214954            2 
  881000     1.116284   -2.5806421    1011.5297   0.09568007    0.0972026            1 
  882000    1.1110826   -2.5640545    1022.3477  0.096593699  0.097192395            2 
  883000    1.1054305   -2.5910798    1014.5463  0.095748043  0.097182093            2 
  884000    1.0929805   -2.6026995    1020.6188   0.09621218  0.097171409            1 
  885000    1.1136437   -2.5775533    1015.7493  0.095644947  0.097161028            2 
  886000    1.0894428   -2.6032888    1026.1068  0.096511169  0.097149944            3 
  887000     1.090933   -2.6170065     1018.231  0.095662442  0.097138535            2 
  888000    1.1171512   -2.5778043    1018.9806  0.095625058  0.097126518            3 
  889000    1.1014825   -2.5896112    1023.5494  0.095945764  0.097115837            1 
  890000    1.1106247   -2.5818839    1025.3799  0.096009356  0.097104856            2 
  891000    1.1029642   -2.5977282    1027.8667  0.096134184  0.097092865            1 
  892000    1.0971714   -2.6025805    1023.5691  0.095624918  0.097080769            1 
  893000    1.0976676   -2.5707293    1028.7249  0.095998967  0.097069299            2 
  894000    1.1023899   -2.5760732    1026.0345  0.095640795  0.097056684            3 
  895000    1.1142194    -2.624354    1029.3723  0.095844725  0.097043851            3 
  896000    1.0822297   -2.5718082    1027.7321  0.095585204  0.097031337            3 
  897000    1.1022539   -2.5834951    1030.0198  0.095691178  0.097020036            1 
  898000    1.1007811   -2.5961305    1030.3036  0.095610946  0.097008042            2 
  899000    1.1215386   -2.6112474    1035.2553    0.0959636  0.096995928            2 
  900000    1.1195337   -2.5781548    1036.4378  0.095966459  0.096984768            1 
  901000    1.0995313   -2.5942724    1035.9696  0.095816653  0.096973486            1 
  902000    1.1037307   -2.6258626    1034.4458  0.095569642  0.096962059            3 
  903000    1.1393237   -2.6154171    1041.1246  0.096080162  0.096949957            1 
  904000    1.1008565   -2.5816463    1037.2248  0.095614381  0.096939052            1 
  905000    1.1165149    -2.601136    1037.0115  0.095489086  0.096925861            2 
  906000    1.0972183   -2.5785357    1045.9759  0.096208229  0.096914548            2 
  907000    1.1066176   -2.5984809    1043.0523  0.095833541  0.096903388            3 
  908000    1.0711857   -2.6009875    1040.8068  0.095521919  0.096891408            1 
  909000    1.1094303   -2.5857789    1039.8043  0.095324925  0.096879384            1 
  910000    1.0908638   -2.6277582    1043.4066  0.095550059  0.096867057            1 
  911000    1.1157706   -2.5728998    1042.9405  0.095402533  0.096853692            1 
  912000    1.1031135   -2.5812845    1046.0336  0.095580554  0.096840934            2 
  913000    1.1226907    -2.588343     1047.272  0.095588904  0.096827998            2 
  914000    1.0881632   -2.5724533    1047.2331  0.095480772   0.09681646            2 
  915000    1.0916913   -2.6137469    1049.1061  0.095547008  0.096804338            1 
  916000    1.0790303   -2.6010244    1049.6337   0.09549069   0.09679276            2 
  917000    1.1379028   -2.5906139    1051.6999  0.095574324  0.096781502            2 
  918000    1.1245386   -2.5796363    1057.9852  0.096040777  0.096771031            1 
  919000    1.0982543   -2.5776186    1060.0358   0.09612222  0.096760222            1 
  920000    1.0961893   -2.5950047    1053.6332  0.095437786  0.096749363            2 
  921000    1.0933303   -2.5946398     1057.291  0.095665129  0.096738917            2 
  922000    1.1304416   -2.6104309    1060.6618  0.095866038  0.096728093            1 
  923000    1.0844062   -2.5786553    1061.7769   0.09586285  0.096717276            2 
  924000    1.1185113   -2.5792795    1061.8716  0.095767638  0.096706454            1 
  925000    1.1317087    -2.611269    1062.4785  0.095718788  0.096695446            1 
  926000    1.0871091    -2.601444    1063.6928   0.09572469  0.096685333            2 
  927000    1.1053164   -2.5796683    1062.5576  0.095519378  0.096675334            2 
  928000    1.0806364    -2.569287    1064.3011   0.09557302  0.096665108            3 
  929000    1.1012722   -2.5773577    1070.4324  0.096020128  0.096655189            1 
  930000    1.1148822    -2.603588    1064.2825  0.095365815  0.096644243            1 
  931000    1.0957312   -2.5714027    1068.0039  0.095596484  0.096634119            1 
  932000    1.1092011   -2.5918516    1071.9047  0.095842691  0.096624246            1 
  933000    1.0921758   -2.6328827    1071.6709   0.09571909  0.096613615            2 
  934000    1.1381321   -2.5957302    1072.2471  0.095668017  0.096603335            2 
  935000    1.1175807   -2.5823326    1072.6575  0.095602271  0.096592466            1 
  936000    1.1119985   -2.6094534    1075.5769  0.095760053  0.096581266            1 
  937000    1.0907904   -2.5874669    1073.0238  0.095430788  0.096569828            1 
  938000    1.1052663   -2.6200079    1076.4288  0.095631557   0.09655816            2 
  939000    1.1106167   -2.6173935    1070.3693  0.094991954  0.096547304            1 
  940000    1.1295873   -2.5960212    1080.3633  0.095776889  0.096536697            4 
  941000    1.1115347   -2.5874179     1074.872  0.095188807  0.096524746            1 
  942000    1.0958454   -2.5955967     1078.185  0.095380842  0.096513871            2 
  943000    1.1192852   -2.6176949    1082.6714   0.09567616  0.096502509            4 
  944000    1.0992633     -2.58996    1080.5013  0.095383234  0.096490355            2 
  945000    1.1043343   -2.6129015     1080.768  0.095305823  0.096479534            1 
  946000     1.127006   -2.5990894    1083.9312   0.09548372   0.09646869            1 
  947000    1.1191421    -2.605479    1085.5574  0.095525991  0.096457298            1 
  948000    1.1005068   -2.6212339    1082.5198  0.095158214  0.096446242            1 
  949000    1.0861365   -2.6143691    1084.2643  0.095211128  0.096434164            1 
  950000    1.1098664   -2.5980566    1086.6546  0.095320576  0.096422724            2 
  951000    1.0985578   -2.6092206    1082.5249   0.09485847  0.096410151            1 
  952000    1.0856313   -2.5968216    1083.7526  0.094866295  0.096396904            2 
  953000    1.0564139     -2.58871    1086.5821  0.095014173  0.096383127            3 
  954000      1.10131   -2.5896809    1086.0455  0.094867708  0.096369888            3 
  955000    1.0719932   -2.6346758    1083.7182  0.094565286  0.096356287            2 
  956000    1.0727006   -2.5884786    1086.3109  0.094692371  0.096341501            1 
  957000    1.1049863   -2.6178386    1086.9395  0.094648163  0.096327473            1 
  958000    1.0882585   -2.5966353    1088.9844  0.094727246   0.09631414            2 
  959000    1.1022118   -2.6210745    1091.9111  0.094882785  0.096300381            1 
  960000     1.082275    -2.604474    1089.1303  0.094542557  0.096286362            1 
  961000    1.1060852   -2.5956464    1095.7762   0.09502048  0.096271686            1 
  962000    1.0889182   -2.5783621    1095.5496  0.094902081  0.096257852            2 
  963000    1.1143189   -2.6095233    1095.4449  0.094794468  0.096244752            3 
  964000    1.1367754   -2.5881051    1092.9387  0.094479489  0.096231429            1 
  965000    1.0901448   -2.6242122    1094.3079  0.094499822  0.096217181            3 
  966000    1.1071471    -2.595201    1094.3961  0.094409603  0.096202548            3 
  967000    1.0994846   -2.5863723    1099.5157  0.094753162  0.096188432            2 
  968000    1.0909779    -2.591452    1096.1615  0.094366519  0.096173673            2 
  969000    1.0786096   -2.6063032    1098.9364  0.094507778  0.096159307            2 
  970000    1.1017469   -2.6157145    1103.8613  0.094833444  0.096145292            2 
  971000    1.1004252   -2.5963892     1100.233   0.09442439  0.096131558            4 
  972000    1.0993511    -2.632186    1105.7311  0.094798617    0.0961175            2 
  973000    1.0962756   -2.6116003    1106.5031  0.094767312   0.09610432            2 
  974000    1.1237977   -2.5971266    1106.0274  0.094629316   0.09609172            1 
  975000    1.0692204   -2.5996608     1108.331  0.094729144  0.096079036            1 
  976000    1.1182937   -2.5986845    1107.8424  0.094590366  0.096066669            1 
  977000     1.086216   -2.6318193    1110.0974  0.094685888  0.096054132            2 
  978000    1.1070094   -2.6157332    1112.8277  0.094821721  0.096042647            2 
  979000     1.084093   -2.6206796    1114.3415  0.094853718  0.096030734            4 
  980000    1.1100661   -2.5826302     1118.647  0.095123044  0.096019397            5 
  981000    1.0757751   -2.5859429    1117.1907  0.094902366  0.096007401            2 
  982000    1.0999822   -2.5753502    1115.7805  0.094686059  0.095995706            1 
  983000     1.076893    -2.613306    1120.3928  0.094980735  0.095983644            3 
  984000    1.0891503   -2.5904313    1121.9151  0.095013132  0.095971079            1 
  985000    1.1005115    -2.578813    1119.4657  0.094709447  0.095959463            2 
  986000    1.1175947    -2.576902    1121.5786  0.094791972  0.095947317            1 
  987000    1.0901224   -2.5943752      1123.27  0.094838741  0.095934653            3 
  988000    1.1017643   -2.5879175    1122.4717  0.094675413   0.09592274            2 
  989000    1.0906172    -2.592022    1124.1737  0.094723093   0.09590948            2 
  990000    1.1009591   -2.6056339    1124.8272  0.094682426  0.095897153            3 
  991000    1.1138145   -2.6009264    1123.7211   0.09449387  0.095884101            1 
  992000    1.0968201   -2.5855486    1125.2924  0.094530613  0.095870899            2 
  993000     1.080822   -2.5820416     1129.343  0.094775341  0.095856816            2 
  994000    1.0536601   -2.5968014    1121.0664  0.093986113   0.09584333            2 
  995000    1.0810227   -2.6274945    1128.2139  0.094490274  0.095830514            1 
  996000    1.1037288   -2.5520522    1132.4604  0.094750707  0.095817261            2 
  997000    1.1067388   -2.6252291    1133.9536  0.094780477  0.095804467            2 
  998000    1.0917213   -2.5863476    1133.0059  0.094606374   0.09579084            1 
  999000    1.0832426   -2.6060361    1133.9003  0.094586279  0.095777749            1 
 1000000    1.0600719   -2.6059701    1136.3525  0.094696038  0.095765602            2 
 1001000    1.0756954   -2.5948341    1135.9877  0.094571072     0.095753            2 
 1002000     1.075711   -2.5945613    1135.2166  0.094412555  0.095741197            2 
 1003000    1.0778102   -2.5788227    1137.4345  0.094502696  0.095729363            3 
 1004000    1.0756321   -2.5904283    1140.0047  0.094621905  0.095717285            1 
 1005000    1.0879198   -2.5933611    1142.3569  0.094722792  0.095705443            2 
 1006000    1.0743103   -2.6013863    1144.2314   0.09478391  0.095693467            3 
 1007000    1.0882851   -2.6050366    1145.3159  0.094779534  0.095680979            2 
 1008000    1.0968944   -2.5881797    1140.4629  0.094284299  0.095668481            1 
 1009000    1.1031862    -2.628789    1146.7485  0.094709988  0.095655399            1 
 1010000    1.0907803   -2.6096928    1146.9843  0.094635671  0.095642669            3 
 1011000    1.0809757   -2.6141181    1150.2924  0.094814736  0.095630406            2 
 1012000    1.0825801   -2.6073257    1150.3477  0.094725601  0.095618616            1 
 1013000    1.1223354   -2.5972372    1145.5273  0.094235545  0.095605572            2 
 1014000    1.0879526   -2.5928886    1145.2952  0.094123539  0.095593474            5 
 1015000    1.1023277   -2.6117802      1149.69  0.094391629  0.095581084            3 
 1016000    1.1129142     -2.60695    1150.1652  0.094337696  0.095568541            1 
 1017000    1.0910192   -2.6195219    1154.8603  0.094629654  0.095556655            1 
 1018000    1.0917088   -2.6009802     1150.623  0.094189832  0.095543575            3 
 1019000    1.1027502   -2.6198152    1150.8895  0.094119197  0.095530253            1 
 1020000    1.0785642   -2.5851191    1150.9317  0.094030365  0.095516297            1 
 1021000    1.1019642    -2.611315    1151.5327  0.093987324  0.095502803            1 
 1022000    1.0907299   -2.6096611    1155.3899  0.094209875  0.095489006            1 
 1023000    1.0873915   -2.5983795    1154.0599  0.094009443   0.09547489            4 
 1024000    1.1091523   -2.6236794     1158.415  0.094272056   0.09546195            2 
 1025000    1.1030464   -2.5835593    1162.5282   0.09451449  0.095449624            1 
 1026000    1.0991819   -2.6109069    1159.3592  0.094164976  0.095436286            1 
 1027000    1.0815708   -2.5923367    1156.0563  0.093805282  0.095423037            2 
 1028000    1.0821945   -2.5847275    1163.9808   0.09435642  0.095409771            3 
 1029000    1.0699469   -2.6309644    1160.0641   0.09394753  0.095395737            4 
 1030000    1.0780074   -2.6212714    1162.6876  0.094068576  0.095382339            2 
 1031000    1.0774446   -2.5990234     1160.745  0.093820323  0.095367946            3 
 1032000    1.0761858   -2.5873096    1165.3531  0.094101513  0.095353225            2 
 1033000    1.0726212   -2.6097598    1163.0971   0.09382842  0.095338955            4 
 1034000    1.0765482   -2.5961138    1164.1736  0.093824439  0.095325402            2 
 1035000    1.0715957    -2.625611    1170.8445  0.094270892    0.0953111            3 
 1036000    1.1105387   -2.6218188    1168.9641  0.094028647  0.095297012            3 
 1037000    1.0789943   -2.6353508    1168.2224  0.093878367  0.095283764            1 
 1038000    1.0811929   -2.6162906     1172.725  0.094149409  0.095269752            2 
 1039000    1.0647411   -2.5804251    1173.9431   0.09415649  0.095256286            2 
 1040000    1.0901361   -2.5563351     1177.106  0.094319393  0.095243391            2 
 1041000    1.0647272   -2.6127273    1178.1572  0.094312937   0.09523066            3 
 1042000    1.0869088   -2.6175898    1179.5658  0.094335078   0.09521852            1 
 1043000     1.080766   -2.6089723     1180.532  0.094321827  0.095205406            5 
 1044000    1.0969861    -2.624253    1176.9799  0.093947946  0.095192854            1 
 1045000    1.0808112    -2.595952    1182.1377  0.094269353  0.095180333            1 
 1046000    1.0696814   -2.6148449    1173.4692  0.093488624  0.095168136            1 
 1047000    1.0716522   -2.6249141    1183.8598  0.094226348  0.095154289            2 
 1048000    1.0961345   -2.5829966    1181.7869  0.093971606  0.095141415            2 
 1049000    1.0682857   -2.5901962     1182.466  0.093935968   0.09512843            1 
 1050000    1.0657711    -2.618013    1180.1963  0.093666373  0.095115661            3 
 1051000    1.0658941   -2.6210215     1185.266  0.093979225  0.095102493            1 
 1052000    1.0900025   -2.5982698    1181.0048  0.093552344    0.0950899            2 
 1053000    1.0844954   -2.6368914    1186.9965  0.093937679  0.095077304            1 
 1054000    1.0731674   -2.6045812    1188.1925  0.093943115  0.095065277            1 
 1055000     1.077832   -2.6028607    1190.0894  0.094003903  0.095053443            1 
 1056000    1.0815711   -2.6195194    1188.3217  0.093775386  0.095040668            3 
 1057000    1.0819528   -2.6303073    1190.9036  0.093890226  0.095027651            2 
 1058000    1.1014496   -2.6164685    1190.8178  0.093794721  0.095014271            2 
 1059000    1.0916952   -2.6125831    1188.2058  0.093500617  0.095001913            3 
 1060000    1.0745081    -2.630571    1188.4867  0.093434491  0.094988377            3 
 1061000    1.0746477   -2.5884233     1194.188  0.093794218  0.094975502            1 
 1062000    1.0547738   -2.6145854    1189.5451  0.093341581  0.094962463            1 
 1063000    1.0991946   -2.6426071    1194.2568  0.093623138  0.094948984            2 
 1064000    1.0736527    -2.603513    1196.8779  0.093740433  0.094934711            2 
 1065000    1.1005356   -2.6273073    1194.0459  0.093430823  0.094920323            1 
 1066000    1.0928653   -2.6258869    1190.8622  0.093094295  0.094906087            1 
 1067000    1.1048329   -2.6585696    1196.4847  0.093446164  0.094891226            2 
 1068000    1.0829341   -2.6305821    1196.4209  0.093353695  0.094877157            1 
 1069000    1.0968303    -2.627715    1200.0814  0.093551713  0.094863112            1 
 1070000    1.0529467   -2.6162504    1198.6903  0.093355943  0.094847989           10 
 1071000    1.0819119   -2.6117758    1198.5281  0.093256151  0.094832903            2 
 1072000    1.0918554   -2.6100646    1203.3975  0.093547694  0.094817647            1 
 1073000    1.0794157   -2.6053595    1198.3848  0.093071204  0.094802584            3 
 1074000    1.0957974   -2.6087943    1200.8416  0.093175174  0.094786454            1 
 1075000    1.0709954   -2.6319211    1198.3534  0.092895616  0.094770418            1 
 1076000    1.0770159   -2.5991796    1206.5894  0.093447137  0.094753882            2 
 1077000    1.0732714   -2.5873244    1206.8207  0.093378262  0.094737975            2 
 1078000    1.0786483    -2.622662    1203.1724   0.09300962  0.094722041            6 
 1079000    1.0619554   -2.6342341    1205.5458  0.093106722  0.094706249            2 
 1080000    1.1089816   -2.5899721    1211.0343  0.093444008  0.094690332            2 
 1081000    1.0841178   -2.6313041    1198.7676  0.092411931  0.094674959            3 
 1082000    1.0897768   -2.6273709    1211.8819  0.093336561  0.094658649            2 
 1083000    1.0721727   -2.6348452     1209.593  0.093074257  0.094642181            4 
 1084000    1.0905003   -2.5780166     1210.775  0.093079262  0.094625312            5 
 1085000    1.0785495   -2.6124626     1210.714   0.09298879  0.094609637            3 
 1086000    1.0705077   -2.6139802     1212.592  0.093047269  0.094592908            6 
 1087000    1.0976546   -2.6100545    1214.7772  0.093129194  0.094576064            1 
 1088000    1.0611462   -2.6255943    1211.8503  0.092819414  0.094559255            3 
 1089000    1.0845834   -2.6049535    1212.2549  0.092765146  0.094543614            3 
 1090000    1.0811268   -2.6129254    1211.1009   0.09259181  0.094526484            4 
 1091000    1.1045543   -2.6187535     1213.421  0.092684162  0.094509938            2 
 1092000    1.0788667   -2.6120705    1218.3963  0.092978959  0.094493583            3 
 1093000    1.0983998   -2.6235346    1213.8212  0.092545077   0.09447706            2 
 1094000    1.0627011   -2.6275895    1216.4368   0.09265972  0.094460656            1 
 1095000    1.0748575   -2.6206183    1217.4851  0.092654875  0.094443742            2 
 1096000    1.0750863   -2.6085726    1224.6753  0.093117037   0.09442811            3 
 1097000    1.0578169   -2.6313477    1221.4991  0.092790874  0.094412586            2 
 1098000    1.0893073   -2.6276943    1221.4158  0.092700044  0.094396733            2 
 1099000    1.0826924   -2.6246124    1225.1278  0.092897161  0.094380772            7 
 1100000    1.0687089   -2.6533507    1219.8704  0.092414422  0.094364382            2 
 1101000    1.0724752   -2.6177566    1229.4455  0.093055211  0.094348338            2 
 1102000    1.0714029    -2.630817     1223.949  0.092555125  0.094332244            1 
 1103000    1.0771279   -2.6199927    1229.5222  0.092892282  0.094316574            2 
 1104000    1.0711831   -2.6114176    1228.7332  0.092748581  0.094300556            1 
 1105000    1.0631102   -2.6114326    1229.9022  0.092752808   0.09428415            1 
 1106000    1.0948283   -2.6105283    1221.1759  0.092011446  0.094267476            2 
 1107000     1.092676     -2.62301     1231.094   0.09267495   0.09425056            4 
 1108000    1.0593119   -2.6385393    1222.3664  0.091934898  0.094232851            2 
 1109000    1.0608027   -2.6119558       1228.1  0.092282835  0.094215324            2 
 1110000    1.0837614   -2.6326353    1235.5886  0.092761911  0.094198003            1 
 1111000     1.072503   -2.5979441     1231.892   0.09240114  0.094180613            3 
 1112000    1.0481598   -2.6219401    1231.9069  0.092319162  0.094163927            1 
 1113000    1.1014113    -2.614404     1235.674  0.092518271   0.09414703            1 
 1114000    1.0916656   -2.6456806    1234.5903  0.092354153  0.094130935            1 
 1115000    1.0710526   -2.6183806    1239.1223  0.092610037    0.0941145            3 
 1116000    1.0754373   -2.5965955    1234.0044  0.092144895  0.094098071            2 
 1117000    1.0592875   -2.6035436    1239.5785  0.092478256  0.094081234            2 
 1118000    1.0897515   -2.6388219    1238.3303  0.092302498  0.094064472            1 
 1119000    1.0623878   -2.6256058    1239.0804  0.092275871   0.09404813            3 
 1120000    1.0907339   -2.6456537    1240.3991    0.0922916  0.094031556            1 
 1121000    1.0577449     -2.61892    1242.2293  0.092345325   0.09401485            2 
 1122000    1.0742515   -2.6641271    1233.5106  0.091615462  0.093998114            3 
 1123000    1.0924627   -2.6171081    1246.4253  0.092492231  0.093981529            2 
 1124000    1.0810485   -2.6186141    1248.1584  0.092538433  0.093965933            1 
 1125000    1.0682777   -2.6326922    1241.3794  0.091954032   0.09394927            2 
 1126000    1.0908772    -2.637145    1248.7156  0.092415305  0.093932445            2 
 1127000     1.068981   -2.6398996    1246.7277  0.092186316  0.093915589            1 
 1128000    1.0555176    -2.599556    1251.1628  0.092432241  0.093899106            2 
 1129000    1.0914468   -2.6286023    1249.7382  0.092245218  0.093882449            1 
 1130000    1.0656922   -2.6184463    1253.3307   0.09242852  0.093866204            5 
 1131000    1.0654837   -2.6119906    1251.9954  0.092248408  0.093849917            1 
 1132000    1.0629219   -2.6431014    1253.6505  0.092288759  0.093833374            2 
 1133000    1.0772846   -2.6135098    1254.8834  0.092297982   0.09381701            2 
 1134000    1.0894227   -2.6146217    1254.5176  0.092189711  0.093800717            2 
 1135000    1.0629828    -2.634538    1255.0903  0.092150534  0.093784991            2 
 1136000     1.059114   -2.6234354    1257.3377  0.092234278  0.093769144            1 
 1137000     1.066437   -2.6235189    1260.3172  0.092371532   0.09375376            1 
 1138000        1.081   -2.6330121    1259.4756  0.092228737  0.093737254            2 
 1139000    1.0718272   -2.6712749    1261.5912  0.092302545  0.093721148            2 
 1140000    1.0628149   -2.6127714    1262.8349  0.092312496  0.093705952            1 
 1141000    1.0716606    -2.615721    1266.9787  0.092534233  0.093690498            1 
 1142000    1.0671228   -2.6615589    1261.1125  0.092025138  0.093674931            2 
 1143000    1.0628999   -2.6072423    1261.4101  0.091966326  0.093659295            1 
 1144000    1.0652534   -2.6245256    1265.7197  0.092199863    0.0936435            2 
 1145000    1.0376375   -2.6089216    1264.5698  0.092035645  0.093628291            2 
 1146000    1.0619695   -2.6479563     1265.043  0.091989749  0.093611925            2 
 1147000    1.0672096   -2.6184995    1272.8517  0.092476877  0.093596029            2 
 1148000    1.0767984   -2.6564403    1261.6709  0.091584706  0.093579301            2 
 1149000    1.0629333   -2.6136135    1266.3797  0.091846511  0.093562664            2 
 1150000    1.0699673   -2.6378476    1267.9074  0.091877345  0.093546021            4 
 1151000      1.06585   -2.6337701    1266.6249  0.091704672    0.0935288            3 
 1152000    1.0536676   -2.6402441     1265.704  0.091558448  0.093511652            3 
 1153000    1.0857748   -2.6265139     1268.401  0.091673967  0.093494856            2 
 1154000    1.0837978   -2.6327636    1272.9322  0.091921733   0.09347809            2 
 1155000      1.07068   -2.6445368    1270.3751  0.091657658   0.09346206            2 
 1156000    1.0762628   -2.6134746    1274.5579  0.091879895   0.09344567            2 
 1157000    1.0585771   -2.6558608    1272.2496  0.091634226  0.093429213            2 
 1158000    1.0506753   -2.6438241    1271.1785  0.091478015  0.093412432            2 
 1159000    1.0791541   -2.6544312    1277.7374  0.091870679  0.093396056            2 
 1160000     1.046829   -2.6253102    1275.9993  0.091666614  0.093379463            2 
 1161000    1.0829866   -2.6222991    1277.8924  0.091723542  0.093362703            1 
 1162000    1.0564199   -2.6171881    1278.4985  0.091688073  0.093346985            2 
 1163000    1.0831759   -2.6383866    1274.7699  0.091342069  0.093330257            1 
 1164000    1.0557372   -2.6301263    1277.9365  0.091490303  0.093313341            2 
 1165000    1.0586212   -2.6262034    1280.4033  0.091588219  0.093296556            1 
 1166000     1.028806   -2.6297382    1280.7732  0.091536103  0.093280126            2 
 1167000    1.0562127   -2.6463899    1282.4284  0.091575867  0.093263269            1 
 1168000    1.0619062   -2.6196571    1282.1673  0.091478833  0.093246133            1 
 1169000    1.0528576   -2.6547848    1285.9201  0.091668102  0.093228689            1 
 1170000    1.0510192   -2.6219681     1284.162  0.091464529  0.093210907            2 
 1171000    1.0671246   -2.6430154    1277.7921  0.090933113  0.093192913            3 
 1172000    1.0694481   -2.6549388    1282.4817  0.091188971   0.09317461            1 
 1173000    1.0615384   -2.6070398     1285.859  0.091351166   0.09315645            2 
 1174000    1.0601166   -2.6232507    1282.0384  0.091002156  0.093138948            2 
 1175000    1.0707668   -2.6167806    1286.7202  0.091256752  0.093121132            1 
 1176000    1.0581585   -2.6495015    1288.4238  0.091299872  0.093103741            2 
 1177000    1.0604627   -2.6539332    1282.4743  0.090801071  0.093086292            2 
 1178000    1.0931921   -2.6474018    1286.8075  0.091030525  0.093068553            1 
 1179000    1.0845932   -2.6375797    1286.6488  0.090942098  0.093050952            2 
 1180000    1.0467904   -2.6310088    1285.6848  0.090796949  0.093033404            2 
 1181000    1.0742402   -2.6350339    1290.4455  0.091055988  0.093015478            2 
 1182000    1.0549709   -2.6150432    1292.9038  0.091152272  0.092997187            5 
 1183000    1.0590847    -2.650512    1290.5013  0.090905979  0.092979496            1 
 1184000     1.086207   -2.6234635    1295.0856  0.091151861  0.092961481            4 
 1185000    1.0410582   -2.6493812    1295.8806  0.091130846  0.092943582            3 
 1186000    1.0624196    -2.653748    1292.3481  0.090805797  0.092925965            3 
 1187000    1.0367702   -2.6396923    1298.6129  0.091169116  0.092908241            2 
 1188000    1.0713938   -2.6370391    1291.8492  0.090617928  0.092890225            5 
 1189000    1.0552189   -2.6345122    1298.3745  0.090999056  0.092871619            2 
 1190000    1.0732793   -2.6500242     1298.729  0.090947409  0.092853288            1 
 1191000    1.0545127   -2.6306961     1300.858   0.09102001  0.092835367            2 
 1192000    1.0562354   -2.6643903     1300.555  0.090922471  0.092817619            2 
 1193000    1.0706474   -2.6381064    1302.6981  0.090995955  0.092800093            1 
 1194000    1.0526263    -2.657248    1304.1479  0.091020932  0.092782757            2 
 1195000    1.0744449   -2.6548465    1304.1862  0.090947431  0.092764945            2 
 1196000    1.0702644    -2.652598    1299.9686  0.090577519  0.092746937            5 
 1197000    1.0644474   -2.6264499    1308.6505  0.091106271  0.092729233            1 
 1198000    1.0552134   -2.6689304    1307.0311  0.090917574   0.09271301       -1e+20 
 1199000    1.0698684   -2.6408477    1310.5952  0.091089467   0.09269527            2 
 1200000    1.0402289   -2.6398204    1310.9676  0.091039413  0.092678646            1 
 1201000     1.067246   -2.6629074    1310.7267  0.090946897  0.092661287            2 
 1202000    1.0462236   -2.6341137    1313.3471  0.091052903  0.092644854            3 
 1203000     1.066686   -2.6218798    1313.6174   0.09099594  0.092627785            1 
 1204000    1.0757442   -2.6543752    1313.9763  0.090945202  0.092611275            3 
 1205000    1.0437574   -2.6430341    1316.4314  0.091039513  0.092594235            1 
 1206000    1.0608588   -2.6253627    1320.4137  0.091239201  0.092577587            2 
 1207000    1.0694823   -2.6461475    1314.8722   0.09078101  0.092560615            2 
 1208000    1.0390739   -2.6377027    1317.4618  0.090884503  0.092543571            1 
 1209000    1.0543535   -2.6460347    1320.6482  0.091028961  0.092526599            2 
 1210000    1.0727123   -2.6682268    1321.6134   0.09102021  0.092509708            1 
 1211000    1.0649907    -2.639188    1318.4639  0.090728316  0.092492125            1 
 1212000    1.0428532    -2.652217    1324.0562  0.091037968  0.092474784            1 
 1213000    1.0648889   -2.6729712    1320.1109  0.090691874   0.09245776            4 
 1214000    1.0217165   -2.6480493    1320.7489  0.090660965  0.092440811            2 
 1215000    1.0595147   -2.6359339    1323.2307  0.090756563  0.092423807            2 
 1216000    1.0516482    -2.673791    1323.6025  0.090707407  0.092406981            5 
 1217000    1.0478336   -2.6448299    1327.5478  0.090903028  0.092390092            3 
 1218000    1.0872444   -2.6368172    1327.8781   0.09085099  0.092374333            2 
 1219000    1.0631329   -2.6502175    1333.3683  0.091151781  0.092357776            2 
 1220000    1.0585256   -2.6441183    1331.5223  0.090950974  0.092341687            2 
 1221000    1.0579916   -2.6718893    1328.4939  0.090669796   0.09232496            1 
 1222000    1.0757896   -2.6429361    1330.2694  0.090716679  0.092308784            2 
 1223000    1.0495139   -2.6092932    1336.1054  0.091040161  0.092292807            1 
 1224000    1.0524022   -2.6441123    1333.0776  0.090759642  0.092276611            1 
 1225000    1.0519857   -2.6500203    1332.3781  0.090637968  0.092259848            1 
 1226000    1.0755668    -2.657978    1334.5884  0.090714276  0.092243442            2 
 1227000    1.0599244   -2.6564372     1335.444  0.090698453   0.09222733            2 
 1228000     1.052315    -2.641696    1333.7404  0.090508986  0.092210377            1 
 1229000    1.0560712   -2.6271297    1337.4522  0.090687023  0.092193428            2 
 1230000    1.0486637   -2.6502194    1337.9639   0.09064796  0.092175878            3 
 1231000     1.042547   -2.6378275    1340.6999  0.090759541   0.09215903            1 
 1232000    1.0648634   -2.6540883    1335.0367  0.090302806  0.092141525            2 
 1233000    1.0528699   -2.6523094     1340.986   0.09063166  0.092125052            1 
 1234000    1.0613134   -2.6354772    1340.7682  0.090543502  0.092107945            1 
 1235000    1.0337709   -2.6311672    1341.9243  0.090548201  0.092091081            1 
 1236000    1.0500939   -2.6101696    1347.4894   0.09085015  0.092074393            2 
 1237000    1.0525236   -2.6313926    1337.2081  0.090084084  0.092056994            2 
 1238000    1.0567153   -2.6453104    1342.4079  0.090361328  0.092039261            1 
 1239000    1.0339109   -2.6340457     1336.272  0.089875705  0.092021829            2 
 1240000    1.0507306   -2.6258474    1348.5645  0.090629336  0.092005112            1 
 1241000    1.0405513   -2.6490176     1341.493  0.090081452  0.091987938            3 
 1242000    1.0578781   -2.6542985    1349.0324  0.090514785  0.091970388            3 
 1243000    1.0515208   -2.6033801    1347.0489   0.09030899  0.091952889            1 
 1244000    1.0485569    -2.644997    1342.5127  0.089932521  0.091934974            1 
 1245000    1.0503251   -2.6133026    1350.7588  0.090412234   0.09191787            2 
 1246000    1.0270667   -2.6548233    1349.4217  0.090250245  0.091900846            3 
 1247000    1.0701958   -2.6470768     1352.299  0.090370156  0.091883822            1 
 1248000    1.0553012   -2.6294329    1348.8063  0.090064526  0.091866377            3 
 1249000    1.0609647   -2.6590644    1343.1191  0.089612966  0.091849603            1 
 1250000    1.0392609   -2.6384016    1352.2187  0.090147916  0.091832405            1 
 1251000    1.0714465   -2.6156257    1363.9198  0.090855305  0.091816104            1 
 1252000    1.0522428   -2.6592418    1353.9269  0.090117608  0.091799112            3 
 1253000    1.0572898   -2.6604883    1358.2556  0.090333569  0.091782521            2 
 1254000    1.0347511   -2.6642514    1353.8306   0.08996748  0.091765294            3 
 1255000    1.0741327   -2.6224517    1360.9549  0.090368848  0.091748447            3 
 1256000       1.0443    -2.664112    1354.6948  0.089881553  0.091731975            4 
 1257000    1.0482136   -2.6447374    1358.7486  0.090078799  0.091715597            2 
 1258000    1.0430508   -2.6424313    1359.2716  0.090041838  0.091699215            1 
 1259000     1.050709   -2.6577131    1366.4334  0.090444359  0.091682993            2 
 1260000    1.0412491   -2.6515202    1361.1213  0.090021249  0.091667431            2 
 1261000      1.04485     -2.64269      1369.29  0.090489691   0.09165182            2 
 1262000    1.0539948   -2.6797581    1367.2052  0.090280319  0.091635782            2 
 1263000    1.0520164    -2.662753    1369.6077   0.09036736  0.091619548            2 
 1264000    1.0653745   -2.6247027    1378.7668  0.090899712  0.091603984            1 
 1265000    1.0564805    -2.670792    1366.2522  0.090003442  0.091588419            3 
 1266000    1.0401719     -2.64937    1375.0268  0.090509926  0.091572403            1 
 1267000    1.0316091   -2.6624821    1364.5964  0.089752462  0.091556435            3 
 1268000    1.0780268   -2.6448115    1374.6488  0.090342324  0.091540785            2 
 1269000     1.045913   -2.6620223    1371.2797   0.09004989  0.091524399            1 
 1270000    1.0500878   -2.6623279    1370.0276  0.089896823  0.091507787            2 
 1271000    1.0553462   -2.6798211    1371.1462  0.089899436  0.091491795            2 
 1272000     1.083598   -2.6561909    1369.7523  0.089737439  0.091475647            1 
 1273000    1.0242287   -2.6548563    1372.1524  0.089824067  0.091459047            2 
 1274000    1.0487677   -2.6491644    1383.8534   0.09051893  0.091442591            1 
 1275000    1.0583814   -2.6551127    1376.4321  0.089962882  0.091426267            1 
 1276000    1.0493246   -2.6402177    1383.2387  0.090336905  0.091409927            3 
 1277000    1.0378713   -2.6519107    1380.5162  0.090088502  0.091393587            2 
 1278000    1.0360368   -2.6368825    1384.2214  0.090259612  0.091377697            1 
 1279000    1.0332004   -2.6422985    1384.9386  0.090235769  0.091361738            1 
 1280000    1.0571014     -2.66647     1381.788  0.089960159  0.091345534            3 
 1281000    1.0697456   -2.6508017    1380.7573  0.089822877  0.091329099            2 
 1282000    1.0314241   -2.6510384    1383.1946  0.089911245  0.091312242            2 
 1283000    1.0273999   -2.6571784    1390.2381  0.090298658  0.091296413            3 
 1284000    1.0658459   -2.6439704    1383.9141  0.089817892  0.091279946            3 
 1285000    1.0697714   -2.6673741    1389.6352  0.090119015  0.091263244            3 
 1286000    1.0452035   -2.6843664    1383.5139  0.089652272  0.091246896            7 
 1287000    1.0460916   -2.6455184    1386.4245  0.089771074  0.091230123            2 
 1288000    1.0454938   -2.6567985    1381.2762  0.089368283  0.091212811            1 
 1289000    1.0579783   -2.6640206    1385.4559  0.089569167  0.091195336            1 
 1290000    1.0472896   -2.6664047    1388.0322  0.089666164  0.091178036            1 
 1291000    1.0646071   -2.6347155    1388.7059  0.089640198  0.091160909            4 
 1292000    1.0515007   -2.6433514    1392.7227  0.089829893  0.091143787            1 
 1293000    1.0434674   -2.6533981    1394.2334  0.089857782  0.091126461            2 
 1294000    1.0462643    -2.669235    1389.9579  0.089513004  0.091109449            1 
 1295000    1.0541783   -2.6705407    1390.5516  0.089482085  0.091092498            2 
 1296000    1.0399302     -2.66462    1391.4198  0.089468866  0.091075501            1 
 1297000    1.0399881   -2.6431527    1395.1993  0.089642722  0.091058697            2 
 1298000       1.0494   -2.6549649    1399.0097  0.089818292  0.091042456            1 
 1299000    1.0338352   -2.6493079    1397.5005  0.089652326  0.091026081            2 
 1300000    1.0319008     -2.64983     1393.555  0.089330452  0.091008993            1 
 1301000    1.0299144    -2.672222    1399.0894  0.089616284  0.090992715            1 
 1302000    1.0609107   -2.6538482     1407.561  0.090089673  0.090976299            1 
 1303000    1.0383082   -2.6617948    1402.1642  0.089675378  0.090960435            1 
 1304000    1.0318209   -2.6345948    1410.5226  0.090140761  0.090943491            2 
 1305000    1.0155265   -2.6598275    1400.9635  0.089461272  0.090927499            2 
 1306000    1.0308722   -2.6794809    1400.5598  0.089367012  0.090910575            3 
 1307000    1.0753232   -2.6464184    1400.3201  0.089283352  0.090893515            4 
 1308000    1.0206605   -2.6887774    1405.3325  0.089534437  0.090876659            1 
 1309000    1.0465227   -2.6650919    1402.2574  0.089270268  0.090859998            2 
 1310000    1.0370984   -2.6833875    1403.4308   0.08927677  0.090843425            2 
 1311000    1.0561982   -2.6677596    1414.9732   0.08994236   0.09082704            2 
 1312000    1.0406239   -2.6182198    1409.7552  0.089542379  0.090810234            1 
 1313000    1.0260593   -2.6885982    1413.0507  0.089683341  0.090793783            4 
 1314000    1.0495285   -2.6734381    1408.8242  0.089347048  0.090777434            2 
 1315000    1.0422614   -2.6734012    1409.5263  0.089323593  0.090761211            2 
 1316000    1.0434635   -2.6629658    1407.9783  0.089157692  0.090744445            3 
 1317000    1.0377641   -2.6473641    1410.8838  0.089273845  0.090728356            2 
 1318000    1.0295757   -2.6647222     1415.646  0.089507211   0.09071216            2 
 1319000    1.0363253   -2.6549801     1417.975  0.089586489  0.090695487            3 
 1320000    1.0329548   -2.6482462    1414.6404  0.089308106  0.090679358            3 
 1321000    1.0419466   -2.6731398    1420.8549  0.089632532  0.090663559            3 
 1322000    1.0215521   -2.6567068    1413.8735  0.089124651  0.090647346            4 
 1323000    1.0460684   -2.6663122    1417.1277  0.089262266   0.09063042            3 
 1324000    1.0176334   -2.6716289     1418.028  0.089251508   0.09061375            1 
 1325000     1.041038   -2.6500253    1412.9819  0.088866789  0.090597226            2 
 1326000    1.0243381   -2.6709691    1415.7173  0.088971677  0.090580222            3 
 1327000    1.0539372   -2.6659738    1418.4633  0.089077074  0.090563562            8 
 1328000    1.0472568   -2.6145556    1417.2057  0.088931081   0.09054659            4 
 1329000    1.0416194   -2.6551878    1425.4519  0.089381231  0.090529619            5 
 1330000    1.0587616   -2.6352819    1422.9988  0.089160325  0.090513432            3 
 1331000    1.0486197   -2.6717916    1427.3592  0.089366344  0.090497595            2 
 1332000    1.0331679   -2.6765295     1419.533  0.088809625  0.090481767            3 
 1333000    1.0379089   -2.6517844    1429.6424  0.089374996  0.090465817            1 
 1334000    1.0319734   -2.6561662    1429.3222  0.089287992   0.09044969            3 
 1335000    1.0270031   -2.6582007    1427.2421  0.089091264  0.090433564            2 
 1336000    1.0405265   -2.6539011    1432.0002   0.08932137  0.090416934            2 
 1337000    1.0500223   -2.6715752    1427.0739  0.088947516  0.090400675            5 
 1338000    1.0392911   -2.6835605    1424.0263  0.088691226  0.090384612            5 
 1339000    1.0383509   -2.6550045    1434.2899   0.08926375  0.090368671            3 
 1340000    1.0380127   -2.6508252    1434.3997  0.089203962  0.090352907            3 
 1341000    1.0230957   -2.6637727    1434.7075  0.089156566  0.090337916            2 
 1342000    1.0358305   -2.6576238    1427.4572  0.088639913   0.09032206            2 
 1343000    1.0575012   -2.6797903    1438.8791  0.089282644  0.090306602            2 
 1344000    1.0529158   -2.6481836    1444.8142  0.089584214  0.090291807            2 
 1345000    1.0344367   -2.6657882    1442.1939  0.089355259  0.090277221            2 
 1346000     1.040756    -2.670541    1442.0878  0.089282308  0.090262476            3 
 1347000    1.0467022   -2.6628155    1442.7249  0.089255435  0.090247339            2 
 1348000    1.0286715   -2.6669785    1442.4327  0.089171161  0.090231816            1 
 1349000    1.0228703   -2.6534977    1444.3584  0.089224015  0.090216352            3 
 1350000    1.0287776   -2.6730665    1451.1893  0.089579583   0.09020175            2 
 1351000    1.0418208   -2.6634426    1441.7845  0.088933165  0.090187286            2 
 1352000    1.0243802   -2.6749271    1445.3899  0.089089617  0.090172606            1 
 1353000    1.0359206   -2.6504267    1451.4296  0.089395764  0.090158164            1 
 1354000    1.0415654   -2.6845683    1449.2443  0.089195242  0.090143595            4 
 1355000    1.0265926   -2.6670759    1453.2716  0.089377095  0.090129717            1 
 1356000    1.0197627   -2.6708224    1450.3189  0.089129728  0.090115653            2 
 1357000    1.0405692   -2.6827482     1454.234  0.089304473  0.090101393            2 
 1358000    1.0446304   -2.6606379    1454.7974  0.089273281  0.090087258            3 
 1359000    1.0306809   -2.6695558    1458.6216  0.089442092  0.090072989            5 
 1360000     1.045882   -2.6552526    1459.0193  0.089400693  0.090058986            2 
 1361000    1.0398773   -2.6677906    1454.5945  0.089064078  0.090044374            3 
 1362000    1.0550923   -2.6678193    1457.3707  0.089168544  0.090030267            2 
 1363000    1.0170799   -2.6894859    1455.1847  0.088969471  0.090015771            3 
 1364000    1.0302336   -2.6562522    1461.2312  0.089273655  0.090001666            2 
 1365000    1.0178887   -2.6667872    1459.3349  0.089092487  0.089987331            2 
 1366000    1.0225125   -2.6720434    1460.5708  0.089102662  0.089973537            1 
 1367000    1.0210973   -2.6736937     1461.455  0.089091378  0.089958894            2 
 1368000    1.0674425   -2.7045159    1457.9089  0.088810242  0.089944826            1 
 1369000    1.0260551   -2.6798702    1467.1615  0.089308588  0.089930986            2 
 1370000     1.025276   -2.6429797    1471.1061  0.089483338  0.089917126            1 
 1371000    1.0243517   -2.6449737    1469.4518  0.089317515  0.089903108            2 
 1372000    1.0236535   -2.6559296    1464.7475  0.088966688  0.089889437            3 
 1373000    1.0270136   -2.6833432    1463.8008  0.088844425  0.089874917            4 
 1374000    1.0405641   -2.6605941     1461.428  0.088635855  0.089860544            2 
 1375000    1.0457628   -2.6729701    1468.9492  0.089027225  0.089846669            1 
 1376000    1.0216981   -2.6795923    1467.3673  0.088866723  0.089832188            2 
 1377000    1.0265635   -2.6942196     1464.762  0.088644518   0.08981777            2 
 1378000    1.0372054   -2.6708775    1474.2839  0.089156016  0.089803731            3 
 1379000    1.0425817   -2.6654845    1476.7068  0.089237778  0.089789711            2 
 1380000    1.0220135   -2.7151659    1472.5635  0.088922916  0.089775223            3 
 1381000    1.0143646    -2.641339    1477.7854  0.089173631  0.089760749            2 
 1382000     1.032496   -2.6705828    1466.1192  0.088405642  0.089746395            2 
 1383000    1.0199173   -2.6911386    1474.8514  0.088867884  0.089731769            2 
 1384000    1.0307069   -2.6601542    1479.4986  0.089083492  0.089717506            2 
 1385000    1.0438041   -2.6665751    1477.7294  0.088912718  0.089702796            2 
 1386000    1.0346219   -2.6703237    1474.9307  0.088680296   0.08968807            2 
 1387000    1.0095479   -2.6764339    1478.1463   0.08880956  0.089674091            2 
 1388000    1.0069789   -2.6591873    1484.5071   0.08912747  0.089659809            1 
 1389000    1.0323255   -2.6880848    1481.3954  0.088876614  0.089645226            2 
 1390000    1.0063596   -2.6686722    1479.6297  0.088706814  0.089630801            3 
 1391000    1.0465728   -2.6673667    1484.2181  0.088917931   0.08961686            2 
 1392000    1.0422084   -2.6561661    1477.6182  0.088458943  0.089602573            2 
 1393000     1.045069   -2.6822703    1474.0949  0.088184669   0.08958713            2 
 1394000    1.0395164   -2.6809872    1484.4698  0.088741618  0.089572665            2 
 1395000    1.0250469   -2.6667828    1487.6125  0.088865744  0.089558278            2 
 1396000    1.0407484   -2.6746543    1478.2886  0.088245498  0.089543665            2 
 1397000    1.0201155   -2.6982903    1486.6475  0.088680952   0.08952845            4 
 1398000   0.99789531   -2.6885167    1485.1583  0.088528752  0.089514017            2 
 1399000    1.0574217   -2.6657283    1489.6138  0.088730867  0.089498844            1 
 1400000    1.0389963   -2.6861255    1488.9659  0.088628924  0.089483912            8 
 1401000    1.0400236   -2.6667984    1489.7341  0.088611353  0.089469177            1 
 1402000    1.0299882   -2.7007396    1492.0086  0.088683345  0.089454611            3 
 1403000    1.0074544   -2.6745466    1485.4189  0.088228729  0.089439744            2 
 1404000    1.0379541   -2.6660332    1492.9072  0.088610353  0.089424799            2 
 1405000    1.0276481   -2.6626436    1492.9644  0.088550677  0.089410044            1 
 1406000    1.0223969   -2.6703871     1491.341  0.088391474  0.089395896            2 
 1407000    1.0172342   -2.6822355    1493.1501  0.088435804  0.089381345            2 
 1408000    1.0468124   -2.7047149    1495.1036  0.088488611  0.089366625            2 
 1409000    1.0236288   -2.6794328    1500.9964  0.088774334  0.089352033            2 
 1410000    1.0210063   -2.6856655     1500.285  0.088669325  0.089337582            2 
 1411000     1.019552   -2.6870522    1490.6162  0.088035449  0.089322934            3 
 1412000     1.021292   -2.6984694    1497.7681  0.088395193  0.089308347            1 
 1413000    1.0398857   -2.6766222    1497.8888  0.088339748   0.08929337            3 
 1414000    1.0250682   -2.7060624    1497.4431  0.088251006   0.08927882            2 
 1415000     1.044023   -2.6699575    1499.7533  0.088324696  0.089264558            1 
 1416000    1.0242648   -2.6757622      1504.98  0.088569918  0.089250121            2 
 1417000    0.9947454   -2.6629775    1508.7698  0.088730289  0.089235632            5 
 1418000    1.0375809   -2.7117686    1499.9103  0.088147054  0.089221369            4 
 1419000    1.0108176   -2.6716401    1502.3288  0.088226965  0.089206868            2 
 1420000    1.0159625   -2.7101393    1499.5322  0.088000718  0.089192492            1 
 1421000    1.0116497   -2.6785118    1502.1775  0.088093917  0.089177695            2 
 1422000    1.0234397   -2.6611369    1507.5109  0.088344522  0.089163234            2 
 1423000    1.0262604   -2.6771541    1508.6341  0.088348213  0.089148337            2 
 1424000    1.0299794   -2.6769253    1508.8949  0.088301432  0.089134093            3 
 1425000     1.031672   -2.6871559    1511.6782  0.088402232  0.089119883            2 
 1426000    1.0426425    -2.686192    1513.8839  0.088469139  0.089105314            2 
 1427000    1.0140843   -2.6763098    1510.6577  0.088218737  0.089090563            4 
 1428000    1.0221688   -2.6850645    1513.4335  0.088318946  0.089075916            3 
 1429000    1.0323281   -2.6756793    1519.8637  0.088632126  0.089061731            2 
 1430000    1.0299433   -2.6851201    1511.8675  0.088104164  0.089047767            2 
 1431000    1.0369746   -2.6878427     1517.934  0.088395876  0.089033407            2 
 1432000    1.0457477   -2.6689557     1512.531  0.088019726  0.089018887            5 
 1433000     1.035295   -2.6883972    1518.4384   0.08830184  0.089005109            2 
 1434000    1.0154765   -2.6750417    1521.2511  0.088403712  0.088991414            4 
 1435000    0.9937159   -2.6775933     1530.606  0.088885367  0.088977468            1 
 1436000    1.0265601   -2.6732088    1519.9716  0.088206334  0.088963149            3 
 1437000    1.0346153   -2.6771386    1520.5587  0.088179003  0.088949316            6 
 1438000    1.0402794   -2.6725028     1521.259  0.088158267  0.088935536            3 
 1439000    1.0348569   -2.6761011    1525.6639  0.088352091  0.088921565            2 
 1440000    1.0276712   -2.6921943    1527.1796   0.08837845   0.08890775            2 
 1441000    1.0138769   -2.6840399    1525.8873  0.088242381  0.088894319            2 
 1442000    1.0134619    -2.695751    1524.6744  0.088111096  0.088880482            2 
 1443000     1.009582   -2.7108657    1526.3275  0.088145503  0.088866642            2 
 1444000    1.0307565   -2.6654739    1527.9018   0.08817531  0.088852294            2 
 1445000    1.0406414   -2.6972196    1528.4638  0.088146702  0.088838827            3 
 1446000    1.0399294    -2.668499    1527.9381  0.088055446  0.088825038            2 
 1447000    1.0393281   -2.7054498    1537.6667  0.088554866  0.088811164            2 
 1448000    1.0196038   -2.6755708    1530.4183  0.088076558  0.088797364            2 
 1449000    1.0171908   -2.7012425     1530.838  0.088039913   0.08878386            1 
 1450000     1.015261   -2.6869549    1527.5153  0.087788237  0.088770148            2 
 1451000    1.0303211   -2.6981903    1534.7135  0.088141136  0.088755972            2 
 1452000    1.0203235   -2.6935892    1534.4811  0.088067095  0.088742173            2 
 1453000    1.0314946   -2.6830457    1533.2935  0.087938374  0.088728065            1 
 1454000    1.0018531   -2.7066333     1534.442  0.087943719  0.088713748            2 
 1455000    1.0242776   -2.6761072    1537.5963  0.088063934  0.088699974            2 
 1456000    1.0143353   -2.6885876    1538.8759   0.08807669  0.088686331            1 
 1457000    1.0265698   -2.6892307    1540.1031  0.088086428  0.088672844            3 
 1458000    1.0138602   -2.6923388    1542.2784  0.088150342  0.088659618            3 
 1459000     1.002812    -2.703016    1540.6423  0.087996475  0.088646491            1 
 1460000     1.040803   -2.6691887    1549.7131  0.088453943  0.088633075            1 
 1461000    1.0209827    -2.686237    1537.6763  0.087706836  0.088620137            4 
 1462000    1.0022222   -2.6887603    1544.3255   0.08802585  0.088606497            3 
 1463000    1.0029597   -2.6723794    1552.1141  0.088409324  0.088592414            1 
 1464000    1.0209524   -2.6851119     1546.936  0.088054188  0.088579327            3 
 1465000     1.007969   -2.7101425    1547.1628  0.088006983  0.088565933            3 
 1466000     1.036984   -2.6769105    1549.1342  0.088059014  0.088552583            2 
 1467000    1.0149795   -2.6864802    1542.7789  0.087637973  0.088539164            3 
 1468000    1.0168121   -2.6896391    1548.9425  0.087928163  0.088525507            2 
 1469000    1.0262683   -2.6871433    1550.9885  0.087984374  0.088511962            3 
 1470000    1.0029528   -2.7100431     1549.274  0.087827326  0.088498849            2 
 1471000    1.0317338   -2.6737764    1552.9451  0.087975591  0.088485496            1 
 1472000    1.0237448   -2.7043024    1558.7809  0.088246199  0.088472237            3 
 1473000    1.0290594   -2.6632218    1555.7304  0.088013712  0.088458982            1 
 1474000    1.0156365   -2.6911149    1550.0226  0.087631312  0.088445866            1 
 1475000    1.0185973    -2.699481    1554.1095  0.087802799  0.088432974            1 
 1476000    1.0047136   -2.6749521    1558.0402  0.087965231  0.088420623            3 
 1477000    1.0215229   -2.7060478     1558.118  0.087910067  0.088407871            3 
 1478000    1.0098286   -2.6909039    1562.8304  0.088116281  0.088395569            2 
 1479000    1.0075745   -2.6851381    1559.9492  0.087894367  0.088383033            2 
 1480000    1.0131587   -2.7128773     1561.596    0.0879277  0.088370184            3 
 1481000    1.0199171    -2.701926    1563.1959  0.087958358  0.088357463            2 
 1482000    1.0175229   -2.6977865    1561.2235  0.087788098  0.088344381            2 
 1483000    1.0179922    -2.688639     1563.934  0.087881207  0.088331726            2 
 1484000    1.0437527   -2.6848579    1573.3071  0.088348331  0.088318977            3 
 1485000    1.0038242    -2.699639    1567.5661  0.087966673  0.088306187            1 
 1486000    1.0012532   -2.7123612    1566.5093   0.08784821   0.08829326            4 
 1487000    1.0271521   -2.6943473    1565.1625  0.087713655  0.088280511            2 
 1488000   0.98144335   -2.7132006    1567.2668  0.087772558  0.088267822            3 
 1489000    1.0254869    -2.696928    1561.3275  0.087381213  0.088255104            2 
 1490000    1.0320282   -2.6598506    1573.3723  0.087996212  0.088242246            3 
 1491000   0.99873031   -2.6841485    1575.8056  0.088073197  0.088229743            2 
 1492000   0.99661428    -2.667954    1578.2317  0.088149671   0.08821718            2 
 1493000    1.0342878   -2.7045818    1571.9637  0.087740775  0.088204661            2 
 1494000     1.013506   -2.7015959    1574.7762  0.087838923   0.08819208            2 
 1495000    1.0004808   -2.6997377     1583.631  0.088273745  0.088179783            3 
 1496000     1.022966   -2.7035179    1571.4479  0.087536089   0.08816721            2 
 1497000    1.0018653   -2.6830218    1582.0976  0.088070451  0.088154831            2 
 1498000   0.99300752   -2.6872121    1579.0951  0.087844632  0.088142568            2 
 1499000    1.0182746   -2.7022344    1581.9004  0.087941986  0.088130108            1 
 1500000    1.0001223   -2.7270976    1572.4731  0.087359616  0.088117539            2 
 1501000    1.0135071   -2.6814072    1578.7227  0.087648385    0.0881048            2 
 1502000    1.0214302   -2.7151689    1579.5884  0.087638062  0.088092526            2 
 1503000     1.013364   -2.6949872    1583.8354  0.087815227  0.088079634            5 
 1504000    1.0292692   -2.6614907    1580.6794  0.087581973  0.088067499            3 
 1505000    1.0106748   -2.6998223    1575.9134  0.087259878  0.088054234            2 
 1506000     1.030604   -2.7161617    1585.1341  0.087712158  0.088041599            2 
 1507000    0.9861906    -2.709556    1581.7835  0.087468675  0.088028801            2 
 1508000    1.0039769   -2.6820233    1585.9476  0.087640784  0.088016145            3 
 1509000    1.0190732    -2.679933    1577.2371  0.087101675  0.088003384            2 
 1510000    1.0005567   -2.6851145    1590.1968  0.087759207  0.087990568            1 
 1511000   0.99757666   -2.6780185    1587.1606  0.087533675  0.087978157            4 
 1512000    1.0136783   -2.7349895    1581.4128  0.087158993  0.087965361            1 
 1513000    1.0153292   -2.6974698    1594.9424  0.087846575  0.087952656            1 
 1514000    1.0041598   -2.6919466    1593.6078  0.087715095  0.087940003            3 
 1515000    1.0188514   -2.6929371    1589.0927  0.087408839    0.0879272            2 
 1516000    0.9945825   -2.6966839    1591.3486  0.087475189  0.087915102            2 
 1517000    1.0076358   -2.7000596    1590.1804  0.087353353  0.087902492            2 
 1518000    1.0137945   -2.6839136    1594.4004  0.087527472  0.087890152            2 
 1519000    1.0232239   -2.7053624    1595.6018  0.087535758  0.087878209            2 
 1520000    1.0018441   -2.7079663    1596.5042  0.087527642  0.087866601            3 
 1521000   0.99290086   -2.7244783    1593.2176  0.087290029  0.087854064            2 
 1522000   0.98046068   -2.6902236    1593.9919  0.087275068  0.087841326            3 
 1523000    1.0178438   -2.7044779    1601.0874  0.087606006  0.087828814            2 
 1524000     1.020992   -2.7323191    1598.2503  0.087393389  0.087816058            2 
 1525000    1.0205903   -2.7152121    1606.3163  0.087776845  0.087803225            1 
 1526000   0.98901748   -2.7140333    1599.5996  0.087352532  0.087790305            1 
 1527000    1.0077961   -2.7089427    1604.8745  0.087583199  0.087777583            3 
 1528000    1.0053291   -2.7120947    1602.4133  0.087391649  0.087764437            4 
 1529000    1.0304896   -2.7147954    1601.5408  0.087286943  0.087751845            1 
 1530000    1.0043478   -2.7110271    1602.4855  0.087281343  0.087739311           11 
 1531000   0.99504425   -2.6932299     1600.503  0.087116425  0.087726521            2 
 1532000    1.0229654   -2.7021448    1612.8392  0.087730593  0.087713972            2 
 1533000     1.042309   -2.6993314    1607.5347   0.08738501  0.087701322            2 
 1534000   0.99643753   -2.6918778    1601.1981  0.086983815  0.087688773            2 
 1535000   0.99445168   -2.7087674    1604.4063  0.087101318  0.087675898            3 
 1536000    0.9978622    -2.698234    1612.6932  0.087494208  0.087663386            2 
 1537000   0.98688728   -2.7237937    1613.9814  0.087507123  0.087651212            2 
 1538000   0.99664935     -2.67305    1612.0985  0.087348206  0.087638633            1 
 1539000    1.0158523   -2.7152638    1612.0447  0.087288537  0.087626133            2 
 1540000    1.0132155   -2.7036533    1613.1349   0.08729085  0.087613793            3 
 1541000    1.0199407     -2.70144    1616.8601  0.087435652  0.087601618            3 
 1542000   0.98955787   -2.6931304    1617.5311  0.087415211  0.087589469            2 
 1543000   0.99115339    -2.726285    1621.5675  0.087576555  0.087577117            2 
 1544000     1.027056   -2.6993812    1618.0136  0.087328025  0.087564676            1 
 1545000    1.0190693   -2.7210555    1617.7418  0.087256837   0.08755302            2 
 1546000    1.0185527   -2.7178239    1621.2716  0.087390663  0.087540944            2 
 1547000    1.0098937   -2.7318007    1621.7289   0.08735881  0.087528865            2 
 1548000   0.98956274     -2.69631    1626.5178  0.087560172  0.087516762           13 
 1549000    0.9995079   -2.7043216    1627.3018  0.087545823  0.087505091            2 
 1550000    1.0156349   -2.7052098    1622.0644  0.087207764  0.087493242            5 
 1551000   0.98682192   -2.6995184     1627.363  0.087436225  0.087481239            2 
 1552000   0.99375996   -2.6966316    1622.7499   0.08713219  0.087469062            2 
 1553000     1.016586   -2.6774203    1627.2591  0.087318045  0.087457091            3 
 1554000   0.99176681   -2.7017206    1634.2761  0.087638144  0.087445703            3 
 1555000    1.0038185   -2.7602912    1624.5421  0.087060134  0.087433964            4 
 1556000    1.0155002   -2.6996117    1633.2934  0.087472868  0.087422074            5 
 1557000    1.0032603   -2.7342324    1625.8752  0.087019652  0.087410021            3 
 1558000    1.0097902   -2.7186255    1637.0725  0.087562713   0.08739831            2 
 1559000    1.0058332   -2.7066732     1635.806  0.087438848   0.08738633            2 
 1560000    1.0226756   -2.7230022    1632.8436  0.087224553  0.087374611            3 
 1561000    0.9853119    -2.708274    1628.2933  0.086925756   0.08736312            2 
 1562000    1.0039869   -2.7256296    1631.1352  0.087021724  0.087351562            2 
 1563000   0.98901686    -2.700054    1631.5711  0.086989289   0.08733955            3 
 1564000   0.99919171   -2.6871802    1635.8672  0.087162574  0.087327659            1 
 1565000   0.99565065   -2.6956991    1643.7771  0.087528065  0.087315843            3 
 1566000    1.0230172   -2.6930131    1641.9536   0.08737514  0.087304057            4 
 1567000    1.0280646   -2.7029861     1638.673  0.087144918  0.087292202            2 
 1568000    1.0069375   -2.6885996    1643.3886  0.087339956  0.087280599            3 
 1569000   0.99748958   -2.7226471    1646.5608  0.087452775  0.087268726            2 
 1570000    1.0084826   -2.7210622    1639.7851  0.087037424  0.087257014            3 
 1571000    1.0154505   -2.7358401    1643.7722  0.087193521  0.087245581            2 
 1572000    1.0070644   -2.7177699    1647.2868  0.087324362  0.087234208            2 
 1573000    1.0175514   -2.7128801    1649.6976  0.087396568  0.087222736            2 
 1574000     1.000459   -2.6795729    1651.9504  0.087460311  0.087211733            2 
 1575000    1.0173406   -2.7158373    1652.1795  0.087416907  0.087200614            1 
 1576000    1.0048136   -2.7208515    1646.5481  0.087063667  0.087189445            1 
 1577000    1.0163709   -2.6770713    1649.8625  0.087183602  0.087178021            2 
 1578000    1.0019445   -2.6965255    1646.3041  0.086940436  0.087166647            2 
 1579000    1.0090177   -2.7250312    1655.5324  0.087372409  0.087155293            7 
 1580000    1.0030422   -2.6928401    1653.3475  0.087201872  0.087144039            2 
 1581000    0.9820982   -2.7130121    1650.0318  0.086971948  0.087132828            3 
 1582000    1.0019471   -2.7035665    1657.4796  0.087309293  0.087121149            3 
 1583000      1.02198   -2.7107432    1651.8294  0.086956699  0.087109659            2 
 1584000    1.0011491   -2.6855597    1652.7592  0.086950713  0.087097857            1 
 1585000   0.97875963   -2.7210923    1652.0749  0.086859878  0.087086219            1 
 1586000    1.0040025   -2.7056134    1648.5023  0.086617395  0.087074236            1 
 1587000    1.0024371   -2.6976815    1654.2969   0.08686709  0.087062305            4 
 1588000   0.97309077   -2.7201088    1652.2378  0.086704334  0.087049819            4 
 1589000   0.99903931   -2.7101385     1648.196  0.086437803  0.087037501            4 
 1590000   0.99337303   -2.7059335    1659.7145  0.086987136  0.087024299            1 
 1591000    1.0038187   -2.7279059    1654.7649  0.086673209  0.087011549            2 
 1592000   0.99963177   -2.7311769    1651.4048  0.086442882  0.086999449            3 
 1593000   0.98390453   -2.7236371    1664.2608  0.087061143  0.086986915            3 
 1594000   0.99501109   -2.7160908    1657.6874   0.08666287   0.08697431            2 
 1595000    1.0134825   -2.7379546    1659.7856  0.086718161  0.086961841            2 
 1596000    0.9792997   -2.7064848    1654.0065  0.086362075  0.086949116            1 
 1597000    0.9937213    -2.721337    1660.8792  0.086666623  0.086936724            6 
 1598000   0.99963584   -2.7024389    1658.4154  0.086483907  0.086924648            1 
 1599000   0.98301674   -2.7112046     1663.012  0.086669375  0.086912016            2 
 1600000   0.98365703   -2.7149178    1661.8404  0.086554187  0.086899786            2 
 1601000   0.99179089   -2.7007642    1664.0905  0.086617243  0.086887215            2 
 1602000   0.99081226   -2.7245241    1662.1007  0.086459668  0.086874904            2 
 1603000    1.0016085    -2.729939    1662.6074  0.086432074  0.086862282            1 
 1604000     1.003697    -2.683311      1670.34  0.086779925  0.086849835            1 
 1605000   0.99157764   -2.7004549     1664.786  0.086437488   0.08683755            4 
 1606000   0.97797817   -2.7382435    1668.5887  0.086580983  0.086825512            2 
 1607000    1.0039802   -2.7352577    1668.7578  0.086535875  0.086813306            2 
 1608000   0.98294179   -2.7232821    1667.7843  0.086431607  0.086800842            3 
 1609000   0.97852626   -2.7122772    1666.5265  0.086312744  0.086788689            4 
 1610000   0.99317147   -2.7022166    1667.1291  0.086290326    0.0867762            3 
 1611000   0.99220578   -2.7044727    1674.7616  0.086631575  0.086763759            1 
 1612000    1.0065463   -2.6987829    1671.8756  0.086428638  0.086751441            2 
 1613000   0.98776542   -2.7288681    1673.9311  0.086481253  0.086738661            2 
 1614000    1.0099219   -2.7427865    1666.9313  0.086066259  0.086725921            2 
 1615000   0.98885634   -2.6835983     1675.705  0.086465685  0.086712973            4 
 1616000   0.98328134   -2.7369891    1671.8659  0.086214209  0.086700667            2 
 1617000   0.97487927   -2.7298976    1675.2887  0.086337284  0.086688024            6 
 1618000   0.98558097   -2.7211235    1667.9815  0.085907577  0.086675352            5 
 1619000   0.99289252   -2.7082461     1677.167  0.086327312  0.086662628            5 
 1620000   0.98532282   -2.7089814    1675.9598  0.086211925   0.08664937            3 
 1621000    1.0030501   -2.7161908     1678.201  0.086273957  0.086636621            1 
 1622000   0.98253612   -2.7218625    1676.3916  0.086127805   0.08662392            1 
 1623000     1.000247    -2.707357    1687.8785  0.086664536  0.086611066            2 
 1624000   0.98201205   -2.7215402    1686.4901  0.086539925  0.086598701            1 
 1625000   0.99159671    -2.754022    1674.2152  0.085857192   0.08658623            2 
 1626000   0.97657587   -2.7287128     1682.689  0.086238674  0.086573631            4 
 1627000   0.97280156   -2.6999134    1679.5775  0.086026299  0.086561067            2 
 1628000   0.99966971   -2.7030678     1691.259  0.086571406  0.086548644            3 
 1629000   0.97328986   -2.7234795     1689.524  0.086429509  0.086536206            1 
 1630000   0.98994292   -2.7149272    1683.7741  0.086082522  0.086523431            2 
 1631000    1.0135009   -2.7047296    1688.7077  0.086281814   0.08651128            2 
 1632000   0.99448715   -2.7101423    1693.7747  0.086487681  0.086499104            2 
 1633000    1.0041296   -2.7180456     1687.065  0.086092317  0.086486766            2 
 1634000    1.0032654   -2.7255534    1684.4693  0.085907246   0.08647454            2 
 1635000   0.98663706   -2.7356453    1692.0663   0.08624191  0.086462091            2 
 1636000   0.98732074    -2.712149    1692.8132  0.086227243  0.086449848            2 
 1637000     1.001301   -2.7040998    1695.3043  0.086301377  0.086437203            2 
 1638000    1.0072995   -2.7245343    1692.5581  0.086108978  0.086425407            3 
 1639000    1.0027633   -2.7262176    1689.4281  0.085897302  0.086413019            2 
 1640000    1.0006149   -2.7243907    1697.2637  0.086243076  0.086401221            2 
 1641000   0.97285302   -2.7600466      1694.21  0.086035445  0.086389257            2 
 1642000   0.98273222   -2.7231243    1688.0555  0.085670703  0.086376994            2 
 1643000   0.98626475   -2.7030686    1698.3997  0.086143219  0.086365054            1 
 1644000    0.9822799   -2.7395748    1696.9917  0.086019447  0.086352563            2 
 1645000   0.99612553   -2.7233963    1697.0495  0.085970086  0.086340267            1 
 1646000    1.0140914   -2.7433552    1704.1989  0.086279816  0.086327923            1 
 1647000   0.95789758   -2.7385067    1707.3948   0.08638913  0.086315271            2 
 1648000   0.99467337   -2.7581604    1700.3035   0.08597813  0.086303077            3 
 1649000   0.99472039   -2.7326836    1701.7788  0.086000545  0.086290788            2 
 1650000   0.98789888   -2.7182715    1704.8777  0.086104932  0.086278312            2 
 1651000   0.96816863    -2.741429    1708.9358  0.086257614  0.086266126            2 
 1652000   0.99797322   -2.6920708    1701.4045  0.085825487  0.086253567            2 
 1653000   0.97677454   -2.7244815    1706.0718  0.086008865  0.086241574            2 
 1654000   0.98780899   -2.7358486    1701.0607  0.085704387  0.086228802            1 
 1655000   0.98087758   -2.7444569    1701.9204  0.085695889  0.086216375            2 
 1656000    1.0023728   -2.7106468    1707.2265  0.085911156   0.08620391            3 
 1657000   0.97538231   -2.7557285    1711.1263  0.086055438  0.086192167            2 
 1658000   0.99982747   -2.7138784    1704.3947  0.085665195  0.086179831            2 
 1659000   0.99126098   -2.7065792    1712.0887  0.086000035  0.086167717            1 
 1660000   0.99571594   -2.7060604    1718.9897  0.086294666  0.086155689            1 
 1661000   0.98376922   -2.7171618    1711.3845  0.085861155  0.086143867            1 
 1662000   0.97508542   -2.7192778    1715.5444  0.086018071  0.086132518            2 
 1663000     0.987842   -2.6991559    1717.2978  0.086054208  0.086121247            2 
 1664000   0.99013896   -2.7219381    1720.5206   0.08616389  0.086109825            3 
 1665000   0.99758811   -2.7509345    1714.8831  0.085829983  0.086098054            3 
 1666000   0.97202079   -2.7135509    1721.5469  0.086111787  0.086086338            2 
 1667000   0.97261935   -2.7555432    1722.5021  0.086107884  0.086075069            2 
 1668000   0.95879646   -2.7154958    1723.6071  0.086111467  0.086063963            2 
 1669000   0.98978818   -2.7046298    1728.7328  0.086315796   0.08605253            3 
 1670000   0.96360754   -2.7454312    1723.4953  0.086002758  0.086040999            2 
 1671000   0.96184147   -2.7268637    1722.7932  0.085916275  0.086029529            1 
 1672000   0.97620777   -2.7324197    1730.6726  0.086257606  0.086017719            1 
 1673000   0.98569183   -2.7300936    1725.5924  0.085953001   0.08600602            2 
 1674000   0.96954307   -2.7461006    1721.0015  0.085673114  0.085994201            2 
 1675000    1.0111355   -2.6952784    1727.7586  0.085958137  0.085982275            3 
 1676000   0.99852329   -2.7209417     1724.218  0.085730807     0.085971            3 
 1677000   0.99255474   -2.7212412    1731.0773  0.086020537  0.085959471            2 
 1678000   0.99610601   -2.7262492    1728.9571  0.085863981  0.085947754            2 
 1679000   0.98031706   -2.7405771    1728.8997   0.08580999  0.085935799            3 
 1680000   0.97986087   -2.7217077    1729.2629   0.08577693  0.085924002            1 
 1681000   0.97098037   -2.7081845    1727.4842  0.085637726  0.085912223            5 
 1682000    1.0037886   -2.7443603    1733.5045  0.085885082  0.085899951            3 
 1683000   0.97370443   -2.7270454    1727.5892  0.085541156  0.085887899            1 
 1684000     1.009809    -2.712524    1738.5897  0.086034724  0.085876191            4 
 1685000    1.0065571    -2.719725    1735.6832  0.085839918  0.085864256            3 
 1686000   0.98285382   -2.7326458    1732.5809  0.085635671  0.085852685            2 
 1687000   0.95959174   -2.7342023    1741.7828  0.086039456  0.085840597            5 
 1688000   0.95791228   -2.7256643    1732.4418  0.085527338  0.085828809            1 
 1689000   0.99006969   -2.7108812    1739.1988  0.085810087  0.085816859            3 
 1690000   0.97123344   -2.7331886    1740.3709  0.085817107  0.085805114            2 
 1691000   0.98424422    -2.746422    1728.0709  0.085160208  0.085792473            2 
 1692000   0.95203907   -2.7484431    1736.0813  0.085504397  0.085780114            2 
 1693000     0.984028   -2.7222006      1738.04  0.085550303  0.085767825            2 
 1694000   0.97311024   -2.7210858    1746.6025  0.085921019   0.08575582            2 
 1695000    1.0124612    -2.700718    1740.2146  0.085556272  0.085743372            3 
 1696000   0.97893377   -2.7331191    1746.2817  0.085803935  0.085731199            2 
 1697000   0.97192968   -2.7241438    1743.8115  0.085632074  0.085719189            1 
 1698000   0.99338586   -2.7477958    1737.8883  0.085290943  0.085706613            2 
 1699000    0.9816394   -2.7255021     1741.241  0.085405191  0.085694549            2 
 1700000   0.99623044   -2.7404696    1739.2351  0.085256621  0.085682491            4 
 1701000   0.97403307   -2.7401998    1738.0516  0.085148522  0.085670225            8 
 1702000   0.97024109   -2.7083565    1747.9961  0.085585392  0.085657976            3 
 1703000   0.98115095   -2.7351674    1741.5701  0.085220694  0.085645656            5 
 1704000   0.96915038   -2.7292747    1738.3663  0.085014001  0.085633221            2 
 1705000   0.96898789   -2.7253237    1744.2521  0.085251814  0.085620605            2 
 1706000   0.98518505   -2.7214851    1738.9795  0.084944288  0.085608262            2 
 1707000   0.98582685   -2.7739583    1737.9502  0.084844278  0.085595296            4 
 1708000   0.97108016   -2.7255848    1746.4789  0.085210718   0.08558262            2 
 1709000   0.96999719   -2.7207847    1755.5485  0.085603108  0.085570251            2 
 1710000   0.97484798   -2.7336421     1744.269  0.085003362  0.085557608            4 
 1711000   0.97978792   -2.7310667    1748.9267  0.085180534  0.085544886            5 
 1712000   0.98967941   -2.7507743    1741.7559  0.084781731  0.085532005            1 
 1713000   0.99340691   -2.7227908    1752.0921  0.085235068  0.085518746            3 
 1714000    0.9517646   -2.7639843    1749.1971   0.08504459  0.085505942            3 
 1715000   0.98313032   -2.7496962    1756.9153  0.085370033  0.085492923            3 
 1716000   0.98339947   -2.7278192    1758.8075  0.085412173   0.08548009            4 
 1717000   0.95737025   -2.7345428     1751.351  0.085000533  0.085467681            1 
 1718000   0.96709204    -2.733907    1764.2299  0.085575763  0.085455095            2 
 1719000    0.9750162   -2.7495438    1745.8681  0.084635837  0.085442915            3 
 1720000   0.99855876   -2.7212206    1757.7232  0.085161007  0.085430356            1 
 1721000   0.98352326   -2.7312699    1758.4061  0.085144592  0.085417969            1 
 1722000   0.96042814   -2.7291112    1756.1735  0.084987102  0.085405622            4 
 1723000   0.97412014   -2.7522239    1754.4262  0.084853271  0.085393174            2 
 1724000   0.96812324   -2.7489977    1752.2507  0.084698891  0.085380444            1 
 1725000   0.97218241   -2.7287641    1755.1648  0.084790569  0.085367669            4 
 1726000   0.98671073   -2.7564071    1754.1582  0.084692846  0.085354635            1 
 1727000   0.97631105   -2.7434247    1766.1965   0.08522469  0.085341745            1 
 1728000   0.97592725   -2.7612575    1762.1779  0.084981575  0.085328576            2 
 1729000   0.95944732   -2.7353787    1763.2701  0.084985065  0.085315634            2 
 1730000   0.97949525   -2.7083006    1763.3262  0.084938643  0.085302873            2 
 1731000   0.97174291   -2.7515328    1767.8011  0.085105001  0.085290001            2 
 1732000   0.96554287   -2.7400527    1763.5465  0.084851159  0.085277753            2 
 1733000    0.9827039   -2.7347574    1764.8831  0.084866468  0.085265425            3 
 1734000   0.97555335    -2.739188    1771.5529  0.085138066  0.085252737            4 
 1735000   0.98119767   -2.7252577    1767.6884  0.084903381  0.085240431            2 
 1736000   0.96815336   -2.7433236     1767.085  0.084825507  0.085228096            2 
 1737000   0.95777667   -2.7395035    1766.9133  0.084768439  0.085215732            2 
 1738000   0.97872902   -2.7279436    1767.9492  0.084769335  0.085203134            5 
 1739000    1.0049183   -2.7521065      1772.15   0.08492189  0.085190759            1 
 1740000   0.96554303   -2.7736206    1770.9194  0.084814146  0.085177728            5 
 1741000   0.97932138   -2.7523516     1771.165  0.084777187  0.085165235            3 
 1742000   0.98331393   -2.7281755    1769.5281  0.084650217  0.085152877            2 
 1743000   0.96981233     -2.76088    1779.6278  0.085084518   0.08514115            3 
 1744000   0.98280375   -2.7658355    1773.9046  0.084762263  0.085128679            4 
 1745000   0.94223248   -2.7274752    1774.0099  0.084718714  0.085116436            2 
 1746000   0.97864562   -2.7201451    1785.4772  0.085217507  0.085103953            2 
 1747000   0.95729881   -2.7402156    1779.9807  0.084906542  0.085092057            3 
 1748000   0.98946125    -2.737072     1782.711  0.084988128  0.085080022            2 
 1749000   0.96330565   -2.7385326    1785.1768  0.085057023  0.085067503            2 
 1750000   0.97703289   -2.7299215    1778.7402  0.084701914  0.085055526            3 
 1751000   0.96460606    -2.774314     1787.825  0.085085905  0.085043548            2 
 1752000   0.97886338   -2.7916384    1788.7051  0.085079201  0.085031142            2 
 1753000   0.97390534   -2.7599764    1781.8535  0.084704959  0.085018975            3 
 1754000   0.99827577   -2.7204618     1799.847  0.085511544  0.085007293            2 
 1755000   0.98067961   -2.7417308    1783.4968  0.084686459  0.084995664            4 
 1756000   0.96874719   -2.7408339    1785.4296  0.084729954  0.084983912            2 
 1757000    0.9648488   -2.7468871     1785.579  0.084688817  0.084971923            3 
 1758000   0.96129601   -2.7240734    1786.5124   0.08468489  0.084959917            3 
 1759000   0.96540045   -2.7279938    1785.6053   0.08459377  0.084948065            1 
 1760000   0.97455455   -2.7699109    1790.8891  0.084795884  0.084935871            1 
 1761000   0.97991975   -2.7492779    1796.5485  0.085015543  0.084924265            2 
 1762000   0.98262343   -2.7588046    1795.4108  0.084913488  0.084912841            4 
 1763000    0.9625178   -2.7514886    1789.1184  0.084567896   0.08490106            2 
 1764000    0.9566624   -2.7315346    1789.7312  0.084548905  0.084888716            3 
 1765000   0.95171955   -2.7220985    1789.4923  0.084489723  0.084876987            2 
 1766000   0.96871935   -2.7565013    1796.0566  0.084751634  0.084864664            2 
 1767000   0.97950873     -2.75249    1794.2023   0.08461622  0.084852485            3 
 1768000   0.94909195   -2.7470101    1793.1877  0.084520537  0.084840049            4 
 1769000   0.98363609   -2.7634766     1786.924  0.084177689  0.084827741            5 
 1770000    0.9617672   -2.7401997    1796.2467  0.084569056  0.084815285            3 
 1771000   0.96436285   -2.7119498    1804.7304  0.084920498  0.084802782            1 
 1772000   0.98185113   -2.7613362    1791.6579  0.084257804  0.084790417            4 
 1773000   0.97161813   -2.7591631    1802.6885  0.084728732  0.084777968            2 
 1774000   0.95629058   -2.7201433    1797.1965  0.084422984  0.084765652            2 
 1775000   0.96581236   -2.7344848    1798.0623  0.084416071  0.084753706            2 
 1776000   0.96460015   -2.7611578    1802.3775  0.084571016  0.084741231            2 
 1777000    0.9754988   -2.7472248    1801.4252  0.084478768  0.084728959            3 
 1778000   0.96539992   -2.7521027    1808.3111  0.084753988  0.084716493            3 
 1779000   0.97001056   -2.7381347    1815.3189  0.085034612  0.084704433            2 
 1780000   0.96607305   -2.7510298    1808.8091  0.084682074  0.084692264            4 
 1781000   0.99818344   -2.7724142    1806.6528  0.084533633  0.084680491            3 
 1782000   0.95519929   -2.7889838    1807.8779  0.084543485  0.084668591            6 
 1783000   0.97641624   -2.7822532     1804.998  0.084361471  0.084656265            3 
 1784000   0.97582468   -2.7744814    1799.7558  0.084069309  0.084643845            2 
 1785000   0.97776988   -2.7529579     1812.327  0.084609104  0.084631345            5 
 1786000   0.98232966   -2.7469153    1811.9352   0.08454345  0.084619312            1 
 1787000   0.95291105   -2.7529448    1815.1841  0.084647643  0.084607222            2 
 1788000   0.97422173   -2.7639928    1810.2947  0.084372424  0.084595427            3 
 1789000   0.96558118   -2.7726367    1813.4228   0.08447097  0.084583356            2 
 1790000   0.94394812   -2.7272215    1818.1569  0.084644177  0.084571292            3 
 1791000   0.97358592   -2.7470889    1807.9992   0.08412429  0.084559226            5 
 1792000    0.9512796   -2.7593321    1809.8067  0.084161397  0.084546727            2 
 1793000   0.95161649   -2.7552691    1813.1557  0.084270111  0.084534588            3 
 1794000   0.97902564    -2.753637    1818.9148  0.084490655  0.084522499            2 
 1795000   0.96199634   -2.7492364    1813.8385  0.084207914  0.084510229            2 
 1796000   0.94503863   -2.7340754    1826.3155  0.084739954  0.084497827            2 
 1797000   0.94704969    -2.782747    1817.9962  0.084307002  0.084485253            7 
 1798000   0.96098445   -2.7392172    1814.9309  0.084118042  0.084473231            3 
 1799000   0.99451225   -2.7643004      1810.71  0.083875762  0.084460901            5 
 1800000   0.96220585    -2.746208    1818.7211  0.084200053  0.084448765            3 
 1801000   0.96666065   -2.7555341    1816.7596  0.084062537  0.084436452            2 
 1802000   0.97358861   -2.7481892    1813.1159  0.083847389  0.084424166            3 
 1803000    0.9622702   -2.7499714    1826.3509  0.084412596  0.084412281            3 
 1804000   0.96298349   -2.7577666    1824.7078  0.084289902  0.084400293            3 
 1805000   0.97055884   -2.7457058    1821.6645  0.084102701  0.084388319            2 
 1806000   0.95274083   -2.7685453    1824.6758  0.084195082  0.084376484            3 
 1807000   0.95247213    -2.759829    1831.0239  0.084441244  0.084364328            2 
 1808000   0.97771396    -2.730814    1823.2031  0.084034068  0.084351882            3 
 1809000   0.96485776   -2.7614772    1827.4675  0.084184058  0.084339438            4 
 1810000   0.95873113   -2.7456991    1828.1197  0.084167576  0.084327126            1 
 1811000   0.96956649   -2.7715371    1822.7481  0.083873922  0.084314759            2 
 1812000   0.93064015   -2.7210541    1825.6212  0.083959766  0.084302617            4 
 1813000   0.94095743   -2.7734534    1826.7553  0.083965588  0.084290145            3 
 1814000   0.94268264    -2.775412    1819.2533  0.083574664  0.084277539            2 
 1815000   0.94532624   -2.7753614    1823.1305  0.083706634  0.084264929            2 
 1816000   0.95887504   -2.7418175    1828.9871  0.083929293  0.084252653            2 
 1817000   0.97195229   -2.7868708    1836.2409  0.084215782  0.084240351            2 
 1818000    0.9434175   -2.7671344     1829.353  0.083853732  0.084228278            3 
 1819000   0.97904104   -2.7529455    1832.3263  0.083943848  0.084216007            2 
 1820000   0.95368891   -2.7670122    1839.3505  0.084219345  0.084204102            2 
 1821000   0.95446933   -2.7780312    1833.3767  0.083899721   0.08419212            2 
 1822000   0.96317503   -2.7477482    1836.6394  0.084002902  0.084180136            2 
 1823000   0.98145828   -2.7734963    1838.3428  0.084034685  0.084167849            2 
 1824000   0.96394151   -2.7736966    1836.4411   0.08390173  0.084155667            2 
 1825000   0.94468358   -2.7739099    1830.7198  0.083594512  0.084143601            2 
 1826000   0.93750337   -2.7548724    1834.9523  0.083741889   0.08413114            3 
 1827000   0.97444556   -2.7582345    1835.8693  0.083737881  0.084118849            2 
 1828000   0.95489347   -2.7453963    1843.4303  0.084036758  0.084106614            2 
 1829000   0.94555386   -2.7575994    1842.2407  0.083936609   0.08409422            9 
 1830000   0.97417046   -2.7956969    1829.5544  0.083313043  0.084081791            2 
 1831000    0.9677227   -2.7544579    1840.1282  0.083748781  0.084068989            2 
 1832000   0.96538311   -2.7532755    1843.9444  0.083876656   0.08405644            1 
 1833000   0.96870439   -2.7663847    1843.3635  0.083804487   0.08404372            5 
 1834000   0.96235437   -2.7351134    1836.6436  0.083453453  0.084031091            2 
 1835000   0.94571521   -2.7587171    1842.6931  0.083682704  0.084018483            1 
 1836000   0.94616559    -2.788097    1845.7199  0.083774505  0.084005731            3 
 1837000   0.95596586   -2.7677254    1844.6777  0.083681622  0.083993003            2 
 1838000    0.9338025   -2.7515449    1847.7359  0.083774753  0.083980315            3 
 1839000    0.9717114   -2.7620207    1846.5541  0.083675646  0.083967715            2 
 1840000   0.96881295   -2.7540223     1849.109  0.083745877  0.083955352            3 
 1841000   0.96270229   -2.7709858    1848.5194    0.0836737   0.08394302            3 
 1842000   0.93301307   -2.7832811    1844.7161   0.08345621  0.083930586            2 
 1843000   0.95059496   -2.7697904    1851.0227   0.08369609  0.083918356            3 
 1844000   0.95430049   -2.7841674    1855.3165  0.083844745  0.083906282            2 
 1845000   0.96584092   -2.7721973    1853.5277  0.083718507  0.083894064            4 
 1846000   0.98193338   -2.7512848    1864.2732  0.084158235   0.08388222            1 
 1847000   0.96827848   -2.7793218    1858.0327   0.08383111  0.083870085            3 
 1848000   0.93823519   -2.7637791    1863.9136  0.084050937   0.08385811            3 
 1849000   0.97059661   -2.7384917    1860.6534  0.083858546   0.08384654            5 
 1850000   0.95674297   -2.7676433    1863.7457  0.083952509  0.083835109            2 
 1851000    0.9695221   -2.7593853    1860.5326  0.083762498  0.083823242            4 
 1852000   0.94891846   -2.7573706    1865.1115  0.083923303  0.083811829            5 
 1853000    0.9388991   -2.7767305    1855.7613  0.083457513   0.08380014            2 
 1854000   0.93548598   -2.7828235    1871.3544  0.084113377  0.083788224            3 
 1855000   0.94932983   -2.7601263    1868.1952  0.083926108  0.083776824            2 
 1856000   0.93640967   -2.7854518      1860.38  0.083529991  0.083765282            3 
 1857000   0.96745183   -2.7613361    1863.1102  0.083607532  0.083752981            2 
 1858000   0.97394333   -2.7503985    1871.7358  0.083949397  0.083741099            2 
 1859000   0.97516548   -2.7679407    1869.5164  0.083804752  0.083729203            4 
 1860000   0.93062359   -2.7477178    1865.0061  0.083557621  0.083717324            3 
 1861000   0.95112262   -2.7810456    1868.2502   0.08365799   0.08370503            7 
 1862000   0.94160188   -2.7657868    1865.0133  0.083468191  0.083692695            1 
 1863000   0.99275835   -2.7623042    1868.3307  0.083571781  0.083680856            4 
 1864000    0.9564327   -2.7584391    1869.7923  0.083592286  0.083668528            3 
 1865000   0.94554331   -2.7647056    1864.1528  0.083295478  0.083656543            2 
 1866000   0.96869934   -2.7534572    1869.5521  0.083491966  0.083644196            3 
 1867000   0.93957986   -2.7666307    1864.4321  0.083218716  0.083631946            3 
 1868000   0.94854622   -2.7553029    1876.3346  0.083705147  0.083619492            1 
 1869000   0.94230384   -2.7621136    1874.7672  0.083590476  0.083607491            2 
 1870000   0.95145849   -2.7594788    1871.6558  0.083407123  0.083595378            3 
 1871000   0.95399069   -2.7728447    1867.2565  0.083166598  0.083583477            1 
 1872000   0.92617434   -2.7736634    1875.1117  0.083471853  0.083571473            2 
 1873000   0.94099666   -2.7696454    1872.8426  0.083326332  0.083559502            7 
 1874000   0.96269194   -2.7256577    1878.9363  0.083552839  0.083547628            2 
 1875000   0.93837253    -2.786343    1875.1015  0.083337845  0.083535481            2 
 1876000   0.98619214   -2.7809821    1881.5457   0.08357968  0.083523332            2 
 1877000   0.95770048   -2.7816997    1875.6096  0.083271605  0.083511213            3 
 1878000   0.96540001    -2.818129    1873.7329  0.083143987  0.083498971            1 
 1879000   0.94459742   -2.7855365    1874.1987  0.083120398  0.083486846            2 
 1880000   0.95091153   -2.7992133    1875.9435  0.083153522   0.08347471            2 
 1881000   0.94686123   -2.7609594    1879.4101  0.083262897  0.083462723            2 
 1882000   0.94044968   -2.7718092    1874.4153  0.082997491  0.083450758            5 
 1883000    0.9304488   -2.7904461    1884.4714  0.083398452  0.083438621            2 
 1884000   0.92814741   -2.7609807     1881.747   0.08323368  0.083426634            2 
 1885000   0.93661814   -2.7511552    1881.3433  0.083171675  0.083414761            4 
 1886000   0.94866551   -2.7689864     1885.509  0.083311638  0.083402924            8 
 1887000   0.93130843   -2.7618409    1887.7867  0.083368074  0.083390619            2 
 1888000    0.9292831   -2.7563776    1879.7155  0.082967667  0.083378535            2 
 1889000   0.95251467   -2.7753355    1883.3089  0.083082272  0.083366315            2 
 1890000   0.95195004   -2.7731718    1890.6553  0.083362228  0.083354165            3 
 1891000   0.96579576    -2.784976    1892.5477  0.083401539  0.083342257            2 
 1892000   0.93869303    -2.793162    1871.5008  0.082430442  0.083330099            2 
 1893000   0.96220232   -2.7818591    1894.1242  0.083382825  0.083318211            3 
 1894000   0.95214209   -2.7617147    1898.2396  0.083519868  0.083306192            3 
 1895000   0.94526002   -2.7651282     1896.018  0.083378099  0.083294121            6 
 1896000   0.95748399   -2.8001119    1885.9407  0.082891203  0.083281927            2 
 1897000   0.96090683   -2.7655476    1890.0818  0.083029423  0.083270039            3 
 1898000   0.93553946   -2.7616341    1890.3179  0.082996045   0.08325807            3 
 1899000   0.93548219   -2.7724658    1904.6322  0.083580489  0.083246284            3 
 1900000   0.93538251   -2.7882526    1897.4961  0.083223512  0.083234367            5 
 1901000   0.93214208   -2.7488435    1898.5547  0.083226142  0.083222347            3 
 1902000   0.96203436   -2.7800078    1904.5863  0.083446647  0.083210571            1 
 1903000   0.95085294   -2.7606037     1900.258  0.083213258  0.083198385            2 
 1904000   0.94887894   -2.7586766    1897.6552  0.083055639  0.083186436            4 
 1905000   0.96701838   -2.7815788    1895.4011  0.082913433  0.083174335            4 
 1906000   0.93933034   -2.7742432     1903.354  0.083217645   0.08316232            2 
 1907000   0.94890239   -2.7482239    1899.7373  0.083015963  0.083150541            3 
 1908000   0.95279811   -2.7611784    1903.1182  0.083120116  0.083138861            2 
 1909000   0.94837851   -2.8018882    1905.9884  0.083201867  0.083126751            3 
 1910000   0.95776913   -2.7673373    1906.7979  0.083193626  0.083114827            3 
 1911000   0.96497128   -2.7760445    1901.1478  0.082903709  0.083102909            1 
 1912000   0.91864401   -2.7999612    1900.4899  0.082831672  0.083091125            2 
 1913000    0.9764559   -2.7818403    1909.8288  0.083195191  0.083079257            2 
 1914000    0.9616217   -2.8036079    1902.5787  0.082836063  0.083067904            1 
 1915000   0.95914789   -2.8021519    1905.7174   0.08292939  0.083056285            3 
 1916000   0.96089766   -2.7755066    1914.5607  0.083270735  0.083044792            4 
 1917000   0.93502231    -2.745316    1910.5713  0.083053875  0.083033173            2 
 1918000   0.96103358   -2.8078952     1902.146   0.08264451  0.083021349            2 
 1919000   0.94716762   -2.7845499    1901.2783  0.082563762  0.083009417            3 
 1920000   0.93581036   -2.7840498    1910.7584   0.08293222  0.082997635            4 
 1921000   0.93089012   -2.8006391    1913.6837  0.083015951  0.082985442            3 
 1922000   0.95985715   -2.7859715    1910.5427  0.082836572  0.082973789            3 
 1923000   0.94851357   -2.7868362    1912.6228  0.082883635  0.082962053            2 
 1924000   0.93609151   -2.8115857    1910.2868  0.082739381  0.082950046            2 
 1925000   0.96195411   -2.7706402    1906.4586  0.082530675  0.082938159            2 
 1926000   0.92965981   -2.7805166    1909.9705  0.082639776  0.082925944            2 
 1927000   0.94341068   -2.7740614    1912.6933  0.082714639  0.082914098            3 
 1928000   0.96344057   -2.7780854    1917.5023  0.082879593  0.082901771            5 
 1929000   0.96162947   -2.8023582    1910.2896  0.082525039  0.082889669            3 
 1930000    0.9410308   -2.7605687    1921.8278  0.082980473  0.082877829            4 
 1931000   0.94730797   -2.7760781    1916.4075  0.082703584  0.082865786            1 
 1932000   0.92773052   -2.7791223    1925.5032  0.083053106  0.082853916            2 
 1933000   0.93518198   -2.7899607      1919.71  0.082760391  0.082842096            2 
 1934000   0.94523867   -2.7805729    1920.1573  0.082736869  0.082830033            2 
 1935000   0.94230404   -2.7832021    1911.8775  0.082337532   0.08281772            2 
 1936000    0.9406951   -2.8201032    1910.3863  0.082230815  0.082805439            4 
 1937000   0.94336993   -2.7933159    1918.4642  0.082535891  0.082793122            3 
 1938000   0.93229845   -2.8009152    1918.0608  0.082475953  0.082781283            4 
 1939000   0.94273035   -2.7656596    1925.2963  0.082744384  0.082769852            3 
 1940000   0.92492391   -2.7852512    1921.1501  0.082523632  0.082757623            4 
 1941000   0.95715119   -2.8055569     1922.837  0.082553537  0.082745361            2 
 1942000   0.92745957   -2.7841903    1930.6519  0.082846372  0.082733212            5 
 1943000   0.93470029   -2.7709296    1926.0273  0.082605392  0.082721102            3 
 1944000   0.92621223   -2.8126271     1926.705  0.082591949  0.082709232            3 
 1945000   0.92803376   -2.7838081    1925.6109  0.082502608   0.08269751            2 
 1946000   0.93351637    -2.779495    1924.2422    0.0824016  0.082685065            2 
 1947000   0.94531282   -2.7708987    1931.0734  0.082651659  0.082673136            2 
 1948000   0.95729461   -2.7738148    1928.2133   0.08248688  0.082661031            2 
 1949000   0.92463417   -2.8052409    1931.1711  0.082571024  0.082648975            4 
 1950000   0.95348123   -2.7779908    1929.4714  0.082456043    0.0826367            3 
 1951000   0.92922858   -2.7573841      1937.03  0.082736631  0.082624739            3 
 1952000   0.93685435   -2.7907872    1917.5396  0.081862173  0.082612472            2 
 1953000   0.94040651   -2.7900949    1934.0722  0.082525694  0.082600087            4 
 1954000   0.95264069   -2.7707257    1938.2124  0.082660032  0.082587614            5 
 1955000   0.93135136   -2.7790689    1936.1476  0.082529736  0.082575359            2 
 1956000   0.93598948   -2.7925872    1926.8586  0.082091795  0.082563243            2 
 1957000   0.94416755    -2.786679    1934.4876  0.082374707  0.082550838            3 
 1958000   0.93376176   -2.7857716     1940.505   0.08258874  0.082538617            3 
 1959000   0.93390454   -2.7798195    1929.7771  0.082090228   0.08252629            3 
 1960000    0.9480208   -2.7906359    1937.0593  0.082357965  0.082513959            2 
 1961000   0.93289646   -2.8116187    1929.6698  0.082001948   0.08250153            3 
 1962000   0.91756572    -2.746756    1936.1127  0.082233804  0.082488822            2 
 1963000   0.92546507   -2.8117882    1930.2308  0.081942213  0.082476078            7 
 1964000   0.94832986    -2.798461    1931.2474  0.081943627  0.082463541            4 
 1965000   0.93420151   -2.7916219    1936.1739  0.082110854  0.082450701            1 
 1966000   0.92585266    -2.780855    1933.7555  0.081966579   0.08243799            4 
 1967000    0.9285413   -2.7596285    1930.0132  0.081766361  0.082424966            2 
 1968000   0.94969095   -2.8071101    1928.1607  0.081646369  0.082411769            2 
 1969000    0.9193592   -2.7921824    1928.8541  0.081634252  0.082398631            2 
 1970000   0.93868081     -2.78145    1941.6675  0.082134835  0.082385662            4 
 1971000   0.94520478   -2.7871788    1939.5969  0.082005619  0.082372803            3 
 1972000   0.92897029   -2.7928089    1942.7322  0.082096526  0.082359805            4 
 1973000   0.94252123   -2.8050769    1932.8566  0.081637801  0.082346756            2 
 1974000   0.92458685   -2.7899175     1943.014  0.082025244  0.082333504            3 
 1975000   0.94902584   -2.7578136    1947.4724   0.08217183  0.082320487            2 
 1976000    0.9436048   -2.7871196    1934.9939  0.081603995  0.082307544            2 
 1977000    0.9360902   -2.7931466    1939.0588  0.081734058  0.082294411            4 
 1978000   0.93318523   -2.7998132    1937.5224  0.081628006  0.082281139            3 
 1979000   0.94078019   -2.7905335    1947.2934  0.081998205  0.082268249            4 
 1980000   0.94505086   -2.8049381    1934.9609  0.081437746  0.082255322            4 
 1981000   0.91649932   -2.7793633    1936.4937  0.081461117  0.082242197            2 
 1982000   0.94670447   -2.7971057    1941.2448  0.081619777  0.082229185            3 
 1983000    0.9457983   -2.8135274     1944.389  0.081710751   0.08221631            5 
 1984000    0.9344829   -2.7936954    1945.3901  0.081711615  0.082203485            2 
 1985000   0.92575947   -2.7850161    1951.6847  0.081934705  0.082190448            2 
 1986000   0.92460787   -2.7834185     1949.254  0.081791456  0.082177106            2 
 1987000     0.926762   -2.7988323    1942.5119  0.081467534  0.082163693            4 
 1988000   0.92655363   -2.7752699    1950.0943  0.081744394   0.08215021            3 
 1989000   0.92825161     -2.78649    1960.1529  0.082124722  0.082137287            2 
 1990000   0.92709835   -2.7917384    1950.3088  0.081671221  0.082124297            4 
 1991000   0.94817169   -2.7879422    1947.8386  0.081526814  0.082111161            2 
 1992000   0.92867993   -2.7843873    1953.5393   0.08172437  0.082098151            2 
 1993000   0.93254087   -2.7525171    1960.8165  0.081987645  0.082085209            2 
 1994000   0.91908603   -2.7837289     1958.242  0.081838934  0.082072097            2 
 1995000   0.93907881   -2.7900312    1952.3499  0.081551791  0.082059283            2 
 1996000   0.93718731   -2.7855234    1959.7952  0.081821779  0.082046366            1 
 1997000   0.94125853   -2.8076396    1957.7914  0.081697185  0.082033193            3 
 1998000   0.94656997   -2.8043754    1952.3816  0.081430664  0.082020201            2 
 1999000   0.93320582    -2.797996    1943.0949  0.081002788   0.08200722            2 
 2000000   0.91721733    -2.805495    1960.2606  0.081677523  0.081994295            2 
 2001000   0.94583648   -2.7611146    1959.4421  0.081602618  0.081981328            3 
 2002000    0.9447926   -2.8060711    1956.9027  0.081456158  0.081968296            3 
 2003000   0.92211807   -2.7873242    1956.8146  0.081411823  0.081955094            6 
 2004000     0.915493   -2.7959175     1961.291  0.081557344  0.081941944            4 
 2005000   0.93153385   -2.8068711    1953.1735  0.081179279  0.081928618            4 
 2006000   0.89512439   -2.7817755    1958.0618  0.081341882  0.081915746            2 
 2007000   0.92792672   -2.8213941    1949.7364  0.080955673  0.081902389            2 
 2008000   0.93052319   -2.7710673    1968.7726  0.081705368  0.081888911            1 
 2009000    0.9324901   -2.7661642    1959.2929  0.081271484  0.081875945            3 
 2010000   0.92903539   -2.7984262    1962.1861     0.081351   0.08186258            4 
 2011000   0.92984078   -2.7948378    1961.9624  0.081301278  0.081849547            3 
 2012000   0.91091813   -2.8257026    1961.2316  0.081230601   0.08183612            2 
 2013000   0.93053943   -2.8037183    1959.6415  0.081124421  0.081822837            1 
 2014000   0.92446082   -2.7861251    1961.4039  0.081157062  0.081809654            2 
 2015000   0.93218911   -2.7895815    1958.5628   0.08099929  0.081796428            5 
 2016000   0.92936729   -2.8028506    1962.6629  0.081128594  0.081782654            3 
 2017000    0.9327491   -2.7815051      1961.79  0.081052304  0.081768888            3 
 2018000   0.93684427    -2.773057    1965.4082  0.081161556  0.081755212            2 
 2019000   0.93853506   -2.7864291    1963.8864  0.081058543  0.081741438            2 
 2020000   0.92330392    -2.800627    1966.8311  0.081139898  0.081727792            3 
 2021000   0.92508751   -2.8176264    1963.4698  0.080961148  0.081713923            3 
 2022000    0.9258594   -2.8172304    1968.3427  0.081121938  0.081700034            2 
 2023000   0.94669951   -2.8120027    1957.9568  0.080654013  0.081686235            3 
 2024000   0.95416923   -2.8038795    1965.6339  0.080930251  0.081672521            2 
 2025000   0.93677456   -2.7905129    1964.4312  0.080840789   0.08165856            2 
 2026000   0.92130628   -2.7995485    1970.5338  0.081051901  0.081644935            2 
 2027000   0.91699983   -2.7932027    1968.0696  0.080910608  0.081630981            3 
 2028000    0.9387027   -2.7993082    1956.2129  0.080383502  0.081616817            4 
 2029000   0.93393557    -2.800634    1963.5666  0.080645908   0.08160268            6 
 2030000   0.91129836   -2.7911778    1969.8817  0.080865423  0.081588608            3 
 2031000    0.9401473   -2.8241951    1965.4622  0.080644271  0.081574239            3 
 2032000   0.93194945     -2.79755    1972.8281  0.080906666  0.081559974            2 
 2033000   0.93037743   -2.8115335    1967.3328  0.080641613  0.081545744            2 
 2034000   0.93700874   -2.7665915    1966.3465  0.080561558  0.081531748            3 
 2035000   0.93708556   -2.8105775    1969.3572  0.080645258  0.081517468            3 
 2036000   0.92589481   -2.7725413    1979.3893   0.08101626  0.081503499            4 
 2037000   0.93511107   -2.8091954    1974.7452  0.080786501   0.08148979            4 
 2038000   0.92338748   -2.7948477     1969.839  0.080546247   0.08147579            3 
 2039000   0.91276298   -2.7945109    1972.1751  0.080602218  0.081461502            2 
 2040000   0.94842464   -2.8121947    1974.1499  0.080643377  0.081447326            2 
 2041000   0.91930428   -2.8290919     1974.606  0.080622489  0.081433453            3 
 2042000     0.905135   -2.8119999    1982.9284  0.080922641  0.081419481            4 
 2043000   0.92764286   -2.8148351    1974.1497   0.08052495   0.08140524            2 
 2044000   0.92797741   -2.7984526     1976.836  0.080595075  0.081391579            3 
 2045000   0.92829796   -2.7915305    1977.9904  0.080602705  0.081377683            3 
 2046000   0.92824991   -2.8031669    1969.4801  0.080216688  0.081363198            2 
 2047000   0.93091698   -2.7860437    1982.7279  0.080716819   0.08134899            2 
 2048000   0.91695589   -2.8139965    1986.7357  0.080840481  0.081334914            5 
 2049000    0.9385576   -2.8264394    1979.3476  0.080500552  0.081320544            3 
 2050000   0.89895151   -2.8034084    1980.1539  0.080494061   0.08130637            3 
 2051000   0.90621798   -2.7960396    1988.2054  0.080781951  0.081292391            1 
 2052000   0.92493189   -2.8228055    1986.0457  0.080654877  0.081278223            3 
 2053000   0.91764277   -2.7829782    1984.7339  0.080562345  0.081264098            3 
 2054000   0.92298509   -2.8023672    1986.4326   0.08059204  0.081249762            2 
 2055000   0.93004588   -2.8035865    1984.8236  0.080487574  0.081235537            4 
 2056000   0.91708544   -2.7838057    1981.9298  0.080331135   0.08122168            3 
 2057000   0.94080074   -2.8012369    1990.8176  0.080652147  0.081207752            2 
 2058000    0.9407452   -2.8536999    1975.6578  0.079999103  0.081193531            3 
 2059000   0.94398209    -2.825755    1982.4111  0.080233572  0.081179218            3 
 2060000   0.90445836   -2.8199233    1982.7683  0.080209072  0.081165014            1 
 2061000   0.92240233   -2.8203655    1985.9036  0.080296928  0.081151034            3 
 2062000   0.90766107   -2.8041496    1988.1816  0.080350049  0.081136966            3 
 2063000    0.9323386   -2.7899395     1991.794  0.080457022  0.081122945            2 
 2064000   0.91285225   -2.8120102    1987.6502  0.080250736  0.081108667            3 
 2065000   0.89578472   -2.8215376    1979.0672  0.079865505  0.081094582            2 
 2066000   0.93011919   -2.8079157    1993.0863  0.080392317  0.081079981            6 
 2067000   0.92641491   -2.8025071    1995.4143  0.080447277  0.081065858            3 
 2068000   0.92264349   -2.8208726    1989.6571  0.080176383  0.081051889            1 
 2069000   0.90141746   -2.8292557    1987.3314  0.080043957  0.081037773            2 
 2070000   0.89668666   -2.7908494    1996.6654  0.080381056  0.081023768            4 
 2071000   0.92167674   -2.8183496     1989.707   0.08006225  0.081009855            4 
 2072000   0.92705831   -2.8058595     1993.801  0.080188264  0.080995752            2 
 2073000   0.89108923   -2.8305339    1998.1341  0.080323768  0.080981793            2 
 2074000   0.91741832   -2.7997223    1999.8425  0.080353683  0.080967735            2 
 2075000   0.93045108   -2.7916668    1992.8503   0.08003415  0.080953664            2 
 2076000   0.94904407   -2.8254601    1992.5762  0.079984593  0.080939626            3 
 2077000   0.92181579   -2.8047416    2005.6335  0.080469969  0.080925744            3 
 2078000   0.91145391   -2.8039684    1995.1713  0.080011683  0.080911713            3 
 2079000   0.91558314    -2.795156    2004.1764  0.080334151  0.080898138            4 
 2080000   0.92776963   -2.8095594    2005.3341  0.080341911  0.080884502            1 
 2081000   0.89321565   -2.8156511    2004.8369  0.080283395  0.080870906            2 
 2082000   0.90293804   -2.8283164    2000.5284  0.080072381  0.080857243            3 
 2083000   0.93769981   -2.7842268    2012.8347   0.08052627  0.080843424            3 
 2084000   0.91593497   -2.8182493    2003.6331  0.080119687  0.080830059            1 
 2085000   0.91586796   -2.8154746    2006.5186  0.080196589  0.080816326            7 
 2086000   0.92107224   -2.7992747    2012.8228  0.080409987  0.080802958            3 
 2087000   0.91202764   -2.8219015    2008.4773  0.080197944  0.080789808            1 
 2088000   0.92159757   -2.7958821    2006.9725  0.080099475  0.080776536            3 
 2089000   0.90160199   -2.8081908    2012.1134  0.080266213  0.080763263            2 
 2090000   0.91244483   -2.8113359    2011.0564  0.080185663  0.080750063            1 
 2091000   0.90711002   -2.8272621    2015.1531  0.080310582  0.080736792            2 
 2092000    0.9204969   -2.7969972    2012.4388  0.080164071  0.080723346            1 
 2093000   0.93686508   -2.8187424    2017.3442  0.080321077  0.080709668            2 
 2094000   0.91412975   -2.7984978    2019.3617  0.080363008  0.080696325            2 
 2095000   0.90382821   -2.8088382    2015.3533  0.080165205  0.080682598            3 
 2096000   0.90649753   -2.8030641    2012.4292  0.080010704  0.080669177            2 
 2097000   0.91814869    -2.820057    2013.5934  0.080018812  0.080655588            3 
 2098000     0.923077   -2.8124102     2021.226  0.080283843  0.080642176            1 
 2099000   0.91646083   -2.8043404    2024.1772  0.080362759  0.080628926            6 
 2100000   0.90827352   -2.8137887     2026.836  0.080429998  0.080615903            5 
 2101000   0.92015147   -2.8028841    2016.5948  0.079985516  0.080602961            2 
 2102000   0.90865978    -2.786408    2023.7589  0.080231482  0.080589877            1 
 2103000   0.91923885    -2.830631    2024.1822  0.080210105  0.080576867            3 
 2104000   0.91794216   -2.8042148    2027.5358  0.080304809  0.080563738            2 
 2105000    0.9267001   -2.8214915    2023.9351  0.080124114  0.080550437            3 
 2106000   0.90615782   -2.7621553    2024.6834  0.080115676  0.080537456            3 
 2107000    0.9130581    -2.807691    2027.1972  0.080177076  0.080524017            3 
 2108000   0.90703846   -2.8424163    2027.2098  0.080139539  0.080510642            3 
 2109000   0.94280876   -2.8295467    2023.5905  0.079958529  0.080497139            3 
 2110000   0.91936575   -2.7881352    2020.4304  0.079795828  0.080484065            4 
 2111000   0.92393476   -2.8023323    2031.2351  0.080184552  0.080470583            4 
 2112000    0.9196138   -2.8347723    2021.7207  0.079771177  0.080457258            3 
 2113000   0.91072545   -2.8137427    2030.0128  0.080060453  0.080443973            4 
 2114000     0.920363   -2.7962004    2027.2611  0.079914107  0.080430603            5 
 2115000   0.91319267   -2.8455623    2028.6286  0.079930207  0.080417142            5 
 2116000   0.91146038   -2.8329825    2030.5523  0.079968192  0.080403605            1 
 2117000   0.89705332   -2.8274906    2022.1586  0.079600008  0.080390146            4 
 2118000   0.92057944    -2.809064    2034.0976  0.080032169  0.080376725            2 
 2119000   0.90920895   -2.8034101     2028.613  0.079778708  0.080363406            4 
 2120000   0.89986817   -2.8335665    2037.2401  0.080080194  0.080350311            2 
 2121000   0.93244574   -2.8115285    2029.4788  0.079737499  0.080337015            3 
 2122000   0.92261751   -2.8087453    2039.7636  0.080103819   0.08032373            5 
 2123000   0.93476777   -2.7799811    2037.7997  0.079988996   0.08031041            1 
 2124000   0.91761151   -2.8329151    2031.5156  0.079704787   0.08029708            2 
 2125000   0.91329634   -2.8132016    2035.1083  0.079808169  0.080283536            3 
 2126000   0.91907397   -2.8261891    2037.4902  0.079863995  0.080270352            2 
 2127000   0.91073627   -2.8188373    2039.8188  0.079917677   0.08025694            5 
 2128000   0.92117722   -2.8425239     2036.847  0.079763744  0.080243586            4 
 2129000   0.91558297   -2.8156121    2035.0044  0.079654156  0.080230252            3 
 2130000   0.91709818   -2.8428032    2037.2225  0.079703542  0.080217048            2 
 2131000   0.90181182    -2.828048    2039.9589  0.079773146   0.08020358            2 
 2132000   0.89976034   -2.8490044    2042.3599  0.079829577  0.080190335            3 
 2133000   0.90322408   -2.8075081    2045.1461  0.079901004  0.080176947            2 
 2134000   0.90129459   -2.8247858    2042.6045  0.079764313  0.080163752            2 
 2135000   0.91027825   -2.8153562    2036.6393  0.079494116  0.080150402            4 
 2136000   0.91469397   -2.8173801    2037.6189   0.07949512  0.080137418            3 
 2137000   0.90194325   -2.8099123     2045.324  0.079758384  0.080124253            4 
 2138000   0.90847108   -2.8467714    2041.9488  0.079589523  0.080110774            6 
 2139000   0.90551145     -2.80989    2038.3797  0.079413267  0.080097227            2 
 2140000   0.92903515   -2.8165948    2045.7499  0.079663158  0.080083962            2 
 2141000   0.91759219   -2.8362193     2042.278  0.079490813  0.080070574            2 
 2142000   0.91064028   -2.8330141    2040.2279  0.079373945  0.080057535            1 
 2143000   0.90259223   -2.8345735    2048.4021   0.07965477  0.080044322            2 
 2144000   0.89874921   -2.8161723    2053.1389  0.079801728  0.080031241            5 
 2145000   0.91007619   -2.8208276    2060.3453  0.080044496  0.080018542            2 
 2146000   0.92084142   -2.8135647    2049.5551  0.079588193  0.080005603            3 
 2147000   0.89219567   -2.8205832    2053.4095  0.079700726  0.079992387            2 
 2148000   0.92408061   -2.8145576    2044.3532  0.079312276  0.079979141            2 
 2149000   0.91117992   -2.8379042    2057.9683   0.07980333  0.079966142            4 
 2150000   0.91629974   -2.8555694    2047.3853  0.079356021  0.079952985            4 
 2151000   0.90856156   -2.8200944    2056.5116  0.079672693  0.079940004            3 
 2152000   0.88367023   -2.8352298    2053.2958  0.079511145  0.079926861            4 
 2153000   0.89741806   -2.8399057    2053.5536  0.079484193  0.079913581            2 
 2154000   0.90326414    -2.824627    2051.5017  0.079367907  0.079900295            1 
 2155000   0.90677871   -2.8219305    2049.1051  0.079238403  0.079886957            2 
 2156000   0.90970622   -2.8260604    2054.6435  0.079415721  0.079873528            3 
 2157000   0.89159368    -2.827741    2058.2991  0.079520132  0.079860067            3 
 2158000   0.90205615    -2.804505    2058.6057  0.079495121   0.07984681            2 
 2159000   0.89266023   -2.8041279    2059.5536   0.07949489    0.0798334            3 
 2160000   0.90674718   -2.8186567    2062.5412  0.079573347  0.079820102            3 
 2161000   0.90727722    -2.828676    2057.3523  0.079336431  0.079806606            4 
 2162000   0.90206164   -2.8015848    2051.9005  0.079089597  0.079793502            3 
 2163000   0.90285071   -2.7967669    2066.3526  0.079609824  0.079780124            4 
 2164000   0.90927473   -2.8161693    2055.9904  0.079173997  0.079766907            3 
 2165000   0.89022554    -2.849247    2065.5044  0.079503633  0.079753544            4 
 2166000   0.89842137    -2.838152    2058.9418  0.079214442  0.079739886            3 
 2167000   0.91561205   -2.8370257    2054.1317  0.078992912   0.07972644            3 
 2168000   0.92205029   -2.8296432    2060.7449  0.079210675  0.079712929            2 
 2169000   0.88837067    -2.837136    2050.2592  0.078771293  0.079699442            1 
 2170000   0.89603013   -2.8118169    2066.4391   0.07935634  0.079686131            2 
 2171000   0.89231691   -2.8261532    2066.0921  0.079306468   0.07967285            1 
 2172000   0.90253562   -2.8181183    2074.4735  0.079591526  0.079659733            5 
 2173000   0.89851054   -2.8421799    2062.5925  0.079099269  0.079646675            3 
 2174000   0.89931576   -2.8344073    2061.5441  0.079022697  0.079633356            2 
 2175000   0.89035831   -2.8406579    2062.7601  0.079032955  0.079620236            2 
 2176000   0.89415045   -2.8457725    2066.8234  0.079152244  0.079607032            3 
 2177000   0.91102934   -2.8133951    2069.5108  0.079218757  0.079593872            3 
 2178000   0.91606687   -2.8435609    2068.1772  0.079131361  0.079580916            3 
 2179000   0.91151218   -2.8515161    2071.2521  0.079212639  0.079567601            3 
 2180000   0.89422498   -2.8137328     2066.852  0.079008106  0.079554401            2 
 2181000    0.8933065   -2.8164485    2065.1313  0.078906133  0.079541301            3 
 2182000   0.87971344   -2.8723094    2074.5297  0.079228909  0.079528103            4 
 2183000    0.8981483   -2.8480762    2067.9533  0.078941566  0.079515106            7 
 2184000   0.92044138   -2.8144409     2075.023  0.079175177  0.079502003            3 
 2185000   0.90011293   -2.8359507    2076.9276   0.07921158  0.079489041            2 
 2186000   0.89942576   -2.8382701    2075.4101  0.079117495  0.079475901            2 
 2187000   0.88974094   -2.8458724    2061.5761  0.078554186    0.0794626            2 
 2188000   0.91501013   -2.8158487     2086.273  0.079458906  0.079449073            2 
 2189000   0.90093943   -2.8246422    2080.6534  0.079208672  0.079435609            3 
 2190000   0.88746484    -2.810458    2068.5455  0.078711778  0.079422189            2 
 2191000   0.89959896   -2.8216828    2075.1989   0.07892891  0.079408915            4 
 2192000   0.91311959   -2.8315449    2070.5802  0.078717313   0.07939555            3 
 2193000    0.9085299   -2.8353395    2077.0279  0.078926429  0.079382216            2 
 2194000   0.92070556   -2.8161823    2081.2385  0.079050383  0.079369002            4 
 2195000   0.91913188   -2.8598657    2078.2825  0.078902145  0.079355829            3 
 2196000   0.91001118   -2.8175483    2078.9459  0.078891388  0.079342496            2 
 2197000   0.91645999     -2.80632     2074.913  0.078702511  0.079329158            3 
 2198000   0.91150411   -2.8207972    2084.3908  0.079026038  0.079315804            2 
 2199000   0.88313051   -2.8423951    2082.2617  0.078909417  0.079302568            2 
 2200000   0.91990362    -2.828773    2084.9667   0.07897601  0.079289293            3 
 2201000   0.91342652   -2.8275955    2085.2614  0.078951289  0.079275843            2 
 2202000   0.89989779   -2.8347033    2083.1091  0.078833981  0.079262358            1 
 2203000   0.90238891   -2.8442832     2082.617  0.078779582  0.079249044            2 
 2204000   0.89000832    -2.823347    2086.1573  0.078877695   0.07923567            3 
 2205000   0.89592036    -2.819797     2081.029   0.07864811   0.07922252            2 
 2206000   0.88657228   -2.8303222    2078.9703  0.078534691  0.079209153            2 
 2207000   0.87825168   -2.8337373    2092.6895  0.079017123  0.079195638            6 
 2208000   0.89838326   -2.8346732    2088.4069  0.078819705  0.079182352            3 
 2209000   0.89332926   -2.8256011    2085.7562  0.078684028   0.07916902            5 
 2210000   0.92706129   -2.8408634    2087.9587  0.078731474   0.07915567            2 
 2211000    0.8781601   -2.8395166    2085.7691  0.078613339   0.07914214            4 
 2212000   0.89475156   -2.8212172    2089.4378   0.07871601  0.079128548            1 
 2213000   0.90981636   -2.8378239    2086.5312  0.078570989  0.079114807            3 
 2214000    0.8855172   -2.8159682    2093.7483  0.078807148  0.079101403            3 
 2215000   0.91291638   -2.8281629    2095.5359  0.078838824  0.079087763            3 
 2216000   0.92210027   -2.8389468    2077.5899  0.078128382  0.079074042            6 
 2217000   0.89043791   -2.8254738    2086.7487  0.078437404  0.079060213            5 
 2218000   0.89328226   -2.8118557    2096.8874  0.078782965  0.079046542            2 
 2219000   0.89762339   -2.8297557    2085.6302  0.078324705  0.079032805            1 
 2220000   0.91155687   -2.8156125    2092.7322  0.078556014  0.079019045            2 
 2221000   0.89313202   -2.8564893    2092.4633  0.078510556  0.079005425            3 
 2222000   0.89634936   -2.8442168    2086.7738  0.078261844  0.078991565            4 
 2223000   0.88598021   -2.8390199    2092.4131  0.078438039  0.078977705            2 
 2224000    0.9001227   -2.8747609    2086.2226  0.078170813  0.078964148            8 
 2225000   0.89695961    -2.847472    2095.7969  0.078494266  0.078950267            1 
 2226000   0.92176134   -2.8261295    2093.6402  0.078378266  0.078936571            1 
 2227000   0.89627635   -2.8379286    2092.9002  0.078315378  0.078922612            4 
 2228000   0.90141275   -2.8582482    2094.4524  0.078338284  0.078908715            4 
 2229000   0.90301052   -2.8331325     2091.677  0.078199379  0.078894997            3 
 2230000   0.91098492   -2.8301538     2096.783  0.078355119  0.078881317            3 
 2231000   0.88672496   -2.8605609    2095.4985  0.078272019  0.078867573            6 
 2232000   0.89268212   -2.8381059    2099.9385  0.078402723  0.078853928            2 
 2233000   0.88975763   -2.8403014    2097.8362  0.078289154  0.078840443            2 
 2234000   0.88611461   -2.8421154    2092.8967  0.078069855  0.078826554            3 
 2235000   0.87363927   -2.8452879    2091.9771  0.078000636  0.078812984            4 
 2236000    0.8845634   -2.8415492    2098.1798  0.078196922  0.078799088            2 
 2237000     0.919853   -2.8340178    2106.0059  0.078453507  0.078785718            1 
 2238000   0.88875485   -2.8420253     2098.764  0.078148794  0.078772178            3 
 2239000   0.88100245   -2.8518738    2096.0514   0.07801293  0.078758597            6 
 2240000   0.89908785   -2.8380297    2103.5138  0.078255723  0.078745141            1 
 2241000   0.89245788   -2.8663697    2096.8819  0.077974189  0.078731596            2 
 2242000   0.90595406   -2.8494229    2116.1237  0.078654613  0.078718451            8 
 2243000    0.8984608    -2.856787     2111.216  0.078437213  0.078705398            3 
 2244000   0.89194666   -2.8186493     2109.523  0.078339387  0.078692085            3 
 2245000   0.88227268   -2.8543036    2104.0112  0.078099895  0.078678815            2 
 2246000    0.8980712   -2.8405997    2112.6684   0.07838633  0.078665419            3 
 2247000    0.8956554   -2.8494314    2109.9136  0.078249281  0.078652098            5 
 2248000   0.90316055   -2.8483839    2116.2419  0.078449061  0.078639003            3 
 2249000   0.90225346    -2.832233    2106.3552  0.078047843   0.07862574            2 
 2250000   0.89335995    -2.822748    2114.3386  0.078308837   0.07861271            8 
 2251000   0.88817089   -2.8353997    2112.9928  0.078224226  0.078599658            4 
 2252000   0.89230063     -2.83246    2108.3265  0.078016818  0.078586534            7 
 2253000   0.90330721   -2.8463168    2114.3254  0.078204075  0.078573124            3 
 2254000   0.88561295   -2.8484094    2108.5484  0.077955797  0.078559676            2 
 2255000   0.89876388    -2.842579    2111.9506  0.078046956  0.078546431            2 
 2256000   0.87717351   -2.8277879    2117.6902  0.078224372  0.078533268            2 
 2257000   0.89218425   -2.8424139    2117.5773  0.078185546  0.078520137            2 
 2258000   0.88102391   -2.8382842      2126.95  0.078496827  0.078507079            3 
 2259000    0.8941152   -2.8265063    2121.4301   0.07825845  0.078494213            2 
 2260000   0.89965506   -2.8389506    2127.8539  0.078460688  0.078481364            6 
 2261000   0.88355954   -2.8448151    2123.5702  0.078268105   0.07846853            2 
 2262000   0.86528548    -2.836105    2128.6819   0.07842182  0.078455751            2 
 2263000   0.87810118   -2.8264111    2124.8431  0.078245807    0.0784432            3 
 2264000    0.8774025   -2.8371272    2125.8282  0.078247503  0.078430507            6 
 2265000   0.89703981   -2.8341754    2134.0543  0.078515611   0.07841778            2 
 2266000    0.8828531   -2.8582804    2129.7609  0.078323068  0.078404912            4 
 2267000   0.89109463    -2.836656    2125.5608  0.078134127  0.078391772            5 
 2268000   0.88808591   -2.8646069    2121.4147  0.077947336  0.078378712            2 
 2269000   0.89353876   -2.8664515    2128.0546  0.078156847  0.078365751            2 
 2270000   0.86564844   -2.8620256    2133.2018  0.078311371  0.078352869            2 
 2271000   0.89202541   -2.8585396    2135.9916  0.078379259  0.078339909            4 
 2272000   0.89477483   -2.8446774    2128.4268  0.078067297  0.078327247            5 
 2273000   0.89082511   -2.8681503    2121.7823  0.077789349  0.078314639            3 
 2274000   0.89702786   -2.8684947    2136.8757  0.078308256  0.078301785            4 
 2275000   0.90199142   -2.8554374    2129.5872  0.078006858  0.078289024            2 
 2276000   0.87545114   -2.8515999    2128.9567  0.077949499  0.078276134            1 
 2277000   0.88785917   -2.8671639    2129.6763  0.077941602  0.078263054            3 
 2278000   0.90371527   -2.8311124    2128.7827  0.077874698  0.078250129            3 
 2279000     0.893288   -2.8202197    2136.9251  0.078138257  0.078237417            1 
 2280000   0.89407237   -2.8600969    2136.1635  0.078076151  0.078224782            3 
 2281000   0.89054578   -2.8410707    2130.5717  0.077837633  0.078211778            2 
 2282000   0.87124245   -2.8775657     2126.733  0.077663342    0.0781987            5 
 2283000   0.89329713   -2.8407806    2139.5697  0.078097888  0.078185471            6 
 2284000   0.87595637   -2.8605525    2136.6929   0.07795873  0.078172493            1 
 2285000   0.88643024   -2.8509229    2135.9615  0.077897938  0.078159642            4 
 2286000   0.87462245   -2.8419184     2139.387  0.077988734  0.078146854            2 
 2287000   0.89296947   -2.8392663    2139.6381  0.077963785  0.078133903            4 
 2288000   0.88314556   -2.8354403    2138.7698  0.077898084  0.078121179            3 
 2289000   0.87997466   -2.8512152    2144.0593  0.078056621  0.078108451            2 
 2290000   0.88255108   -2.8607826    2135.8584  0.077724105  0.078095838            3 
 2291000   0.87439927   -2.8508797    2143.6417  0.077973289  0.078082983            7 
 2292000   0.87557408   -2.8417032    2148.5552  0.078117916  0.078070313            2 
 2293000   0.88356472   -2.8377581    2142.7111   0.07787146  0.078057647            3 
 2294000   0.89321248   -2.8391413    2147.8133   0.07802286  0.078045049            2 
 2295000    0.9084402    -2.873536    2147.7278   0.07798576  0.078032361            2 
 2296000   0.88896153     -2.83632    2141.1442   0.07771284  0.078019769            3 
 2297000   0.87181264   -2.8746483    2139.7971  0.077630138  0.078006931            2 
 2298000   0.87565357   -2.8547068     2142.162  0.077682116  0.077994068            2 
 2299000    0.8744458   -2.8774852     2146.332  0.077799476  0.077981428            3 
 2300000   0.88225768   -2.8597108    2140.3511  0.077548953  0.077968795            1 
 2301000   0.88046299   -2.8773148    2149.5958  0.077850058  0.077956294            4 
 2302000   0.86801374   -2.8581507     2141.444  0.077521142  0.077943624            6 
 2303000   0.87886008   -2.8197823    2153.6186  0.077928013  0.077931024            2 
 2304000   0.87978577    -2.840419     2149.268  0.077736835  0.077918647            2 
 2305000   0.87308791   -2.8405914    2158.8837  0.078050748  0.077906251            4 
 2306000   0.88568646   -2.8616325     2147.864  0.077618677  0.077893935            4 
 2307000   0.88723973   -2.8423189    2149.0603  0.077628244  0.077881309            6 
 2308000   0.87907998   -2.8503035    2151.5157  0.077683263  0.077868521            2 
 2309000   0.85806791   -2.8489528    2152.6652  0.077691108  0.077855724            1 
 2310000   0.88179124   -2.8558845    2147.7057   0.07747856  0.077842986            1 
 2311000   0.86270184   -2.8392647    2154.9573  0.077706525  0.077830196            3 
 2312000   0.86710475   -2.8541385    2153.7196  0.077628301  0.077817594            2 
 2313000   0.86901738   -2.8606786    2155.0272  0.077641851  0.077804685            2 
 2314000   0.88614919   -2.8297985    2159.3661  0.077764554  0.077792154            4 
 2315000   0.89096018   -2.8299094    2149.6136  0.077379898  0.077779701            2 
 2316000   0.88604086   -2.8562514     2159.587  0.077705347  0.077767023            3 
 2317000   0.89122567   -2.8773537    2153.0181  0.077435553  0.077754548            3 
 2318000    0.8860658   -2.8740316    2152.1005  0.077369157  0.077742005            3 
 2319000   0.90187462   -2.8579196     2158.427  0.077563137  0.077729256            3 
 2320000   0.85755751   -2.8619654    2161.2704  0.077631841  0.077716609            6 
 2321000   0.89304762   -2.8625961    2155.6982  0.077398329  0.077703995            3 
 2322000   0.90386339   -2.8371469    2161.3273  0.077567014  0.077691321            2 
 2323000   0.87947989   -2.8445372    2162.1573  0.077563397  0.077678832            4 
 2324000   0.86350255   -2.8786979    2163.8392  0.077590332  0.077666402            5 
 2325000   0.88905983   -2.8577356    2162.1629   0.07749688  0.077654122            3 
 2326000   0.89193898   -2.8666404    2170.3367    0.0777564  0.077641584            3 
 2327000   0.86974936    -2.849889    2164.1821  0.077502581  0.077629076            2 
 2328000   0.87265283   -2.8548463    2168.5915  0.077627129  0.077616685            6 
 2329000   0.86988711   -2.8488474    2172.0653  0.077718094  0.077604319            2 
 2330000   0.88125085   -2.8441233    2163.0899  0.077363729   0.07759217            2 
 2331000   0.86305037   -2.8406064    2171.2396  0.077621895  0.077579885            3 
 2332000   0.86855675   -2.8801771    2161.7632  0.077249971  0.077567222            4 
 2333000   0.88476713   -2.8486003    2174.2338  0.077662303  0.077554863            4 
 2334000    0.8738999   -2.8408633    2164.6318  0.077286197  0.077542159            5 
 2335000   0.89052017    -2.857352    2171.8938  0.077512268  0.077529541            3 
 2336000    0.8735861   -2.8438343    2174.3951  0.077568319   0.07751687            3 
 2337000   0.88554977   -2.8524996    2172.4454  0.077465606  0.077504284            1 
 2338000   0.88626977   -2.8745622    2164.5221  0.077150059   0.07749152            2 
 2339000   0.88284167   -2.8720125    2169.3617  0.077289502  0.077478727            3 
 2340000   0.88402848   -2.8635833    2173.3454  0.077398341  0.077466236            3 
 2341000    0.8749162   -2.8720046    2165.3162   0.07707946   0.07745364            4 
 2342000   0.88317685   -2.8694883    2176.2588  0.077435909  0.077440992            4 
 2343000   0.86878783    -2.889472    2171.3044  0.077226648  0.077428384            4 
 2344000   0.87072729   -2.8648626     2165.981  0.077004443  0.077415605            1 
 2345000   0.89049854   -2.8172892    2171.6773  0.077174034  0.077403016            2 
 2346000   0.88550388   -2.8589618    2181.0207  0.077473027  0.077390455            2 
 2347000   0.87735375   -2.8829508    2166.5669  0.076926819  0.077377831            2 
 2348000   0.90094952   -2.8886048    2173.0957  0.077125771   0.07736517            2 
 2349000    0.8718183   -2.8659015     2171.484  0.077035758  0.077352511            5 
 2350000    0.8606504   -2.8726926    2170.2002  0.076957453  0.077339868            3 
 2351000   0.88443936    -2.872983    2176.0796  0.077133121  0.077327227            2 
 2352000   0.88142429   -2.8955571    2173.5544  0.077010856  0.077314843            5 
 2353000   0.86280102   -2.8780046    2179.9919  0.077206117  0.077302185            1 
 2354000    0.8695899    -2.856866    2174.1854  0.076967762  0.077289588            1 
 2355000   0.86969401   -2.8725292      2178.24  0.077078557  0.077276949            4 
 2356000   0.89013206   -2.8838115     2173.507  0.076878431  0.077264473            2 
 2357000   0.87133185   -2.8473297    2190.2971  0.077439439  0.077251652            6 
 2358000   0.87901106   -2.8762299    2183.1232  0.077153066  0.077239042            6 
 2359000   0.88054366   -2.8677186    2176.5427  0.076887901  0.077226295            2 
 2360000   0.88686949   -2.8082873    2194.7669  0.077498832  0.077214118            2 
 2361000   0.87142878   -2.8779595    2178.5907  0.076895054  0.077201644            3 
 2362000    0.8714901   -2.8809697     2187.131  0.077163808  0.077188987            2 
 2363000   0.86046507    -2.902156    2185.5946  0.077076973  0.077176461            4 
 2364000   0.87595483   -2.8399087    2186.3418  0.077070707  0.077163832            3 
 2365000   0.86531659   -2.8503548    2188.1532  0.077101946  0.077151155            9 
 2366000   0.88389948   -2.8376725    2204.3751  0.077640711  0.077138827            3 
 2367000   0.88719288   -2.8433687     2185.234  0.076934024  0.077126585            2 
 2368000   0.88105338    -2.868585    2194.4308  0.077225184  0.077114146            2 
 2369000   0.86360072   -2.8603342     2181.943  0.076753308  0.077101547            2 
 2370000   0.87141248   -2.8754544    2188.6129  0.076955446  0.077089189            3 
 2371000   0.89246391   -2.8633031    2191.1238  0.077011241  0.077076792            2 
 2372000   0.86217817   -2.8985788    2187.8524  0.076863841  0.077064305            3 
 2373000   0.90034259   -2.8573451    2195.3548  0.077094914  0.077051698            2 
 2374000   0.87673481   -2.8571521    2196.1959  0.077091965  0.077039528            3 
 2375000   0.87782634   -2.8599113     2196.149  0.077057858  0.077027406            2 
 2376000   0.87414564   -2.8809915    2201.5142  0.077213602  0.077015179            2 
 2377000   0.89806268   -2.8714216    2195.3363  0.076964532  0.077003032            2 
 2378000   0.88601452   -2.8614242    2195.1526   0.07692573  0.076990686            3 
 2379000   0.86951692   -2.8407292     2198.092  0.076996355  0.076978645            6 
 2380000   0.87493053   -2.8727237    2196.1312   0.07689535  0.076966208            6 
 2381000   0.89375132   -2.8677626     2202.842  0.077097927  0.076953833            2 
 2382000   0.87579734   -2.8884436    2196.7597  0.076852773  0.076941633            4 
 2383000   0.88290075   -2.9011333    2192.1475  0.076659236  0.076929089            4 
 2384000   0.85281572   -2.8750808    2203.8297  0.077035433  0.076916554            1 
 2385000   0.85727907   -2.8597578    2194.5288  0.076678156  0.076904186            9 
 2386000   0.87166642   -2.8764718    2200.4048  0.076851244  0.076891444            4 
 2387000   0.87025362   -2.8867572    2201.8146  0.076868267  0.076878921            4 
 2388000   0.87183991    -2.874564    2201.1223  0.076811919  0.076866505            3 
 2389000   0.87551106   -2.8833552    2201.2729  0.076785019  0.076853939            4 
 2390000   0.86965329   -2.8639217    2195.7097  0.076558916  0.076841293            4 
 2391000   0.86639312   -2.8739632    2200.5292  0.076694869  0.076828791            4 
 2392000   0.86287587   -2.9050306    2202.0214  0.076714792  0.076816351            4 
 2393000   0.85404241   -2.8748608    2197.9388  0.076540563  0.076803814            2 
 2394000    0.8806752   -2.8667732    2200.6031  0.076601332   0.07679126            1 
 2395000   0.86649061   -2.8686357    2206.7555  0.076783422  0.076778651            2 
 2396000   0.87532755   -2.8645339    2211.5033  0.076916503  0.076766397            2 
 2397000   0.86124788   -2.8605201    2198.1718  0.076420936  0.076754044            2 
 2398000   0.86336707     -2.87983    2206.3757  0.076674162   0.07674144            7 
 2399000    0.8557338   -2.8709824    2206.2639  0.076638319  0.076728902            2 
 2400000   0.86085824   -2.8731556    2209.0187  0.076702037  0.076716436            4 
 2401000   0.87623236   -2.8708272    2215.8321   0.07690657  0.076703949            3 
 2402000   0.86145308   -2.8716237    2207.1463  0.076573213  0.076691657            4 
 2403000   0.88024541   -2.8969175    2207.6807  0.076559879  0.076679169            5 
 2404000   0.86318241   -2.8708814    2207.0734   0.07650698  0.076666803            3 
 2405000   0.85925804   -2.8898085    2214.3064  0.076725793   0.07665453            3 
 2406000   0.85757971   -2.8417116    2216.3153  0.076763485  0.076642176            3 
 2407000   0.87836345   -2.8614962    2215.8141  0.076714239  0.076629973            2 
 2408000   0.84985215   -2.8883096    2209.7544  0.076472676   0.07661775            1 
 2409000   0.85093191   -2.8765869    2219.3207  0.076771853  0.076605656            7 
 2410000   0.88289167   -2.8560548    2214.8123  0.076584104  0.076593601            1 
 2411000   0.86537569   -2.8836203    2217.2459  0.076636456   0.07658161            7 
 2412000   0.87430538   -2.8978161    2217.5762  0.076616094  0.076569479            5 
 2413000   0.85606027    -2.885811    2210.1601  0.076328224   0.07655741            2 
 2414000   0.85829174   -2.8735931    2218.9196  0.076598993  0.076545398            6 
 2415000   0.85863529   -2.8730203    2225.3044  0.076787592  0.076533469            4 
 2416000   0.86325327    -2.873021    2221.3474  0.076619323  0.076521401            3 
 2417000   0.86093066   -2.8945538    2218.5253  0.076490323  0.076509504            5 
 2418000   0.86420587   -2.8660494    2217.7051  0.076430421  0.076497458            5 
 2419000    0.8636854   -2.8881487    2222.3117  0.076557522  0.076485359            2 
 2420000   0.88824736   -2.8824069    2219.2703  0.076421152  0.076473166            3 
 2421000   0.87113116   -2.8641582    2224.3076  0.076562978  0.076461021            2 
 2422000   0.84882011   -2.9061739    2224.4198  0.076535224  0.076448765            2 
 2423000   0.85307164   -2.8653016    2225.4106  0.076537715  0.076436717            2 
 2424000    0.8684718   -2.8716879    2223.3102  0.076433931  0.076424645            3 
 2425000   0.85375448    -2.883595    2222.4852  0.076374061  0.076412372            3 
 2426000   0.85388402   -2.8641949    2229.4726  0.076582597  0.076400346            4 
 2427000   0.86082989   -2.8913634    2223.4564  0.076344472  0.076388373            3 
 2428000   0.86952883    -2.868105    2226.8317  0.076428877  0.076376107            2 
 2429000    0.8600239   -2.9079649    2226.7568  0.076394839  0.076363814            2 
 2430000   0.86291026   -2.8973834    2223.2618  0.076243545  0.076351283            4 
 2431000   0.84238342   -2.8810417     2227.046  0.076341903  0.076338669            2 
 2432000   0.87210117   -2.9032901    2223.8198  0.076199966  0.076326228            2 
 2433000   0.87043817    -2.890713    2231.1573  0.076419965  0.076313853            4 
 2434000   0.85209726   -2.8841273    2222.1579  0.076080453  0.076301163            3 
 2435000   0.87822103   -2.8648125    2227.0919  0.076218066  0.076288421            4 
 2436000   0.85584088   -2.8945405    2229.8387  0.076280744  0.076275781            4 
 2437000   0.87291174   -2.8687679    2222.3159  0.075992201   0.07626323            3 
 2438000    0.8435645    -2.878048    2230.7645  0.076249812  0.076250741            2 
 2439000   0.85394984   -2.8631535    2225.6013  0.076042139  0.076238167            3 
 2440000   0.86239004    -2.899343    2232.7716  0.076255862  0.076225603            2 
 2441000   0.87124174   -2.8718491    2221.8549  0.075851936  0.076213107            5 
 2442000   0.85306657   -2.8722543    2228.2128  0.076037837  0.076200511           12 
 2443000   0.85659245   -2.8700381    2233.3957  0.076183506  0.076187935            2 
 2444000   0.86163397   -2.8590744    2238.1942  0.076315951  0.076175601            3 
 2445000   0.85657777   -2.8766965    2228.6672  0.075960026  0.076163078            3 
 2446000   0.85816612   -2.8933261    2242.8155  0.076410993  0.076150648            2 
 2447000    0.8519229   -2.8906365    2233.0092  0.076045811  0.076138022           11 
 2448000    0.8481858   -2.9011037    2233.8026  0.076041756  0.076125354            2 
 2449000   0.87119294   -2.8928522    2230.7427  0.075906585  0.076113026            3 
 2450000   0.87357807   -2.8920397    2234.9508  0.076018734  0.076100433            3 
 2451000   0.85322103   -2.8833719    2234.8609  0.075984664  0.076087926            3 
 2452000   0.85521686    -2.890445    2235.8869  0.075988543  0.076075389            3 
 2453000   0.85489932   -2.8907703    2236.3323  0.075972698  0.076062806            3 
 2454000   0.86933983   -2.9062035    2237.8373  0.075992844  0.076050165            3 
 2455000    0.8490389   -2.8783767    2229.9197  0.075693132  0.076037526            3 
 2456000   0.86849474   -2.8992355    2236.1292  0.075873006  0.076024749            3 
 2457000   0.85208077   -2.8639337    2242.4447  0.076056326  0.076012178            1 
 2458000   0.86589468   -2.8767781    2246.8197   0.07617371  0.075999617            3 
 2459000   0.86525379   -2.8949176    2234.2959  0.075718311  0.075986951            3 
 2460000   0.86574567   -2.8936824    2231.9465  0.075607943  0.075974322            3 
 2461000   0.85783697   -2.8725787    2238.3565  0.075794275  0.075961467            1 
 2462000   0.85815067   -2.8847883    2237.3324  0.075728825  0.075948809            4 
 2463000   0.86163079     -2.90207    2238.3419  0.075732233  0.075936304            3 
 2464000   0.84515417   -2.8706847    2235.4634  0.075604145  0.075923454            2 
 2465000   0.85558296   -2.8787489     2243.838  0.075856594  0.075910655            3 
 2466000   0.87961288   -2.9036574    2251.3308  0.076079033  0.075898034            5 
 2467000    0.8708995   -2.8901586    2235.0188  0.075497191  0.075885539            3 
 2468000    0.8423425   -2.8713409    2241.0044  0.075668706  0.075872775            3 
 2469000   0.86531533   -2.8958764     2239.232  0.075578237  0.075860084            3 
 2470000   0.85933405   -2.8729299     2241.187  0.075613595  0.075847213            2 
 2471000   0.85878056   -2.8966595    2244.7429  0.075702917  0.075834445            4 
 2472000   0.86488096   -2.8933839    2245.7523  0.075706321  0.075821618            3 
 2473000   0.85485167   -2.8902206     2239.773  0.075474222  0.075808877            3 
 2474000   0.86850236   -2.8707416    2248.4798  0.075736993  0.075796041            2 
 2475000   0.84780457   -2.9032707    2239.3369  0.075398548  0.075783161            3 
 2476000   0.85300038   -2.8948299    2243.8951  0.075521511  0.075770029            3 
 2477000   0.84022209    -2.903613    2240.0792  0.075362644  0.075756933            2 
 2478000    0.8544857   -2.8925156    2241.1597  0.075368567  0.075743873            4 
 2479000   0.85376674    -2.904207    2248.1014  0.075571513  0.075730608            6 
 2480000   0.85890138   -2.9146589    2242.6695  0.075358518  0.075717258            2 
 2481000   0.85540163   -2.8982784     2239.186  0.075211137  0.075704048            3 
 2482000   0.84872113     -2.89946    2243.4697  0.075324662  0.075690902            3 
 2483000   0.86101752    -2.912464    2241.1899  0.075217811  0.075677639            2 
 2484000   0.86081602   -2.8722683    2247.4394  0.075397188  0.075664642            6 
 2485000   0.84766383    -2.887208    2250.0944  0.075455882  0.075651489            4 
 2486000   0.85910425   -2.8900846    2238.9026  0.075050369  0.075638348            2 
 2487000   0.83955156   -2.8897901    2242.1826  0.075130097  0.075625096            3 
 2488000   0.85415678   -2.8946281    2243.6323  0.075148457  0.075611705            5 
 2489000   0.84560408   -2.8951162    2243.0317  0.075098154  0.075598303            2 
 2490000   0.86442124   -2.8774311    2245.4248  0.075148087  0.075584774            3 
 2491000   0.86186773   -2.9079816      2247.44  0.075185335  0.075571358            6 
 2492000   0.86652085   -2.8903048    2252.1808  0.075313695  0.075557911            2 
 2493000   0.86471205   -2.8921556    2250.7512  0.075235701  0.075544725            4 
 2494000   0.84461911   -2.9133103    2236.2546  0.074721152  0.075531085           10 
 2495000    0.8368904   -2.9129559    2245.2192   0.07499062   0.07551751            3 
 2496000   0.83723636    -2.894714    2250.6556  0.075142079  0.075504021            3 
 2497000   0.84517518   -2.8936343    2246.7984   0.07498326  0.075490393            4 
 2498000   0.85839968   -2.8818676     2246.108  0.074930212  0.075476765            1 
 2499000   0.85099144   -2.8916118    2246.3523  0.074908374  0.075463215            5 
 2500000   0.85069873   -2.8939157    2248.6945  0.074956483  0.075449633            4 
 2501000   0.84924529   -2.9233144    2236.6356  0.074524711  0.075436185            2 
 2502000   0.85895355   -2.8931518    2254.4732  0.075089037  0.075422521            2 
 2503000   0.85686401   -2.8930005    2249.5016  0.074893513  0.075408843            4 
 2504000   0.84778952   -2.8868144    2248.4409  0.074828306  0.075395165            4 
 2505000   0.88269319   -2.8971878    2251.2549  0.074892047  0.075381728            4 
 2506000   0.83711881   -2.8995834    2252.7461  0.074911748   0.07536817            5 
 2507000    0.8491242   -2.8966263    2253.7557  0.074915427  0.075354636            5 
 2508000   0.84191181   -2.9186496    2243.4543   0.07454327  0.075341094            2 
 2509000   0.83094566   -2.8766131    2256.2975  0.074940134  0.075327679            6 
 2510000   0.84596548   -2.8826034    2247.0094  0.074601907  0.075314203            7 
 2511000   0.84765193   -2.9100626    2255.5839  0.074856761  0.075300724            3 
 2512000   0.85235952   -2.9103217    2251.1213  0.074678917  0.075287389            2 
 2513000   0.84788716    -2.910779    2258.0628  0.074879388  0.075273757            2 
 2514000   0.84576678   -2.8881513    2253.5342  0.074699491  0.075260277            2 
 2515000   0.85432692   -2.8845077    2259.4152  0.074864653  0.075246836            3 
 2516000   0.85186122   -2.8971455    2261.5498  0.074905599  0.075233518            2 
 2517000   0.84761787   -2.9209472    2262.7808  0.074916593  0.075220064            7 
 2518000   0.86437538   -2.9073002    2256.8893  0.074691862  0.075206608            3 
 2519000   0.85719555    -2.922143    2259.3737  0.074744399     0.075193            2 
 2520000   0.84723125   -2.8960772    2264.7811  0.074893556  0.075179371            5 
 2521000   0.85146953   -2.9096613     2258.085  0.074642502  0.075165904            3 
 2522000   0.83525678   -2.9181484    2259.3207  0.074653736   0.07515233            3 
 2523000    0.8713339   -2.9238398    2257.4437  0.074562151  0.075138776            4 
 2524000   0.87357806   -2.8928158    2265.6716  0.074804265  0.075125269            3 
 2525000   0.83754635   -2.9020885    2263.3157  0.074696889  0.075111856            2 
 2526000   0.84069189   -2.9018952    2256.5182  0.074443064  0.075098228           10 
 2527000   0.85451149   -2.8985628    2258.1401  0.074467094  0.075084575            2 
 2528000   0.86057081   -2.8987074    2260.0058  0.074499135  0.075070869            2 
 2529000   0.85852359   -2.8978347    2262.3286  0.074546218  0.075057343            5 
 2530000   0.87752294    -2.905574    2280.3378  0.075109942  0.075043977           12 
 2531000   0.85291848   -2.8882915    2265.9008  0.074604926  0.075030628            7 
 2532000   0.83763038   -2.9070831    2261.3207  0.074424721  0.075017164            2 
 2533000   0.86284209   -2.9076961    2263.2991  0.074460425   0.07500361            2 
 2534000    0.8515408   -2.9378822    2270.3348  0.074662417  0.074990199            3 
 2535000   0.84747024   -2.9045141    2266.6206  0.074510867  0.074976861            5 
 2536000   0.85496363   -2.9023372    2275.0733  0.074759244  0.074963397            7 
 2537000    0.8452793   -2.8965251    2268.9464  0.074528524  0.074950228            4 
 2538000   0.82170634    -2.894426    2274.1977  0.074671582  0.074936922            3 
 2539000   0.84127845   -2.9164818    2271.6729  0.074559304   0.07492359            2 
 2540000   0.85277989   -2.9095784    2272.2644  0.074549357  0.074910463            3 
 2541000   0.86847944   -2.8885592    2270.5064  0.074462364  0.074897152            2 
 2542000   0.85034644   -2.9109793    2267.8107  0.074344698  0.074883898            4 
 2543000   0.86588651   -2.9100066    2267.6702  0.074310858  0.074870506            6 
 2544000   0.84821674   -2.9010777    2268.7901  0.074318335  0.074857141            2 
 2545000   0.85295411   -2.9178524    2267.6787  0.074252741  0.074843857            4 
 2546000   0.85222794   -2.8892356     2264.074  0.074105591  0.074830463            3 
 2547000   0.84025305   -2.9192313     2273.832  0.074395759  0.074817154            4 
 2548000   0.83321301   -2.9024632    2283.8575   0.07469445  0.074803712            4 
 2549000   0.85330435   -2.9315467    2269.0451  0.074180892  0.074790158            4 
 2550000   0.83575432   -2.8827882    2283.0284   0.07460877  0.074776736            1 
 2551000   0.85059166   -2.9014717    2275.4716  0.074332668  0.074763377            3 
 2552000   0.84344387   -2.8988322    2274.3783  0.074267837   0.07475006            2 
 2553000   0.85781402   -2.9306496    2268.2269  0.074037958  0.074736532            2 
 2554000   0.84181839   -2.9143933    2280.2533  0.074401375  0.074723109            2 
 2555000   0.81955467   -2.9139893    2277.8766  0.074294735  0.074709577            2 
 2556000   0.84768853   -2.9064057    2280.4033  0.074348048  0.074696108            3 
 2557000   0.84640544   -2.9166063    2275.5907  0.074162125   0.07468265            5 
 2558000   0.83915434   -2.8736708    2284.1166  0.074410888  0.074669322            4 
 2559000      0.83167   -2.9130226    2271.0022  0.073954743  0.074655779            4 
 2560000   0.84083002   -2.9097896    2280.6745  0.074240707  0.074642173            4 
 2561000   0.84848789   -2.9062966     2276.085  0.074062379  0.074628577            2 
 2562000   0.86019706   -2.9113502    2276.5653  0.074049093  0.074614901            3 
 2563000   0.84209178   -2.8819334    2280.6396  0.074152671  0.074601227            6 
 2564000   0.84598061   -2.9208989    2280.6406  0.074123785  0.074587694            5 
 2565000   0.85933183   -2.9329586    2278.8729  0.074037457  0.074574096            2 
 2566000    0.8450253   -2.9113883    2279.8432  0.074040114  0.074560563            4 
 2567000   0.84266388   -2.9108296    2279.8242  0.074010655  0.074547065            5 
 2568000    0.8410623   -2.9068981    2286.7997  0.074208194  0.074533473            2 
 2569000   0.83913012   -2.9237408    2277.9215  0.073891317   0.07451985            2 
 2570000   0.83710403   -2.8960336     2281.777  0.073987581  0.074506328            4 
 2571000   0.84055604   -2.9099548     2280.392  0.073913912  0.074492824            4 
 2572000     0.865135   -2.9072602    2284.8122   0.07402839   0.07447966            2 
 2573000   0.83697817    -2.886944    2290.1918  0.074173852  0.074466495            3 
 2574000   0.84387716   -2.9170486    2284.6177  0.073964571  0.074453118            3 
 2575000   0.82233339    -2.920557    2290.3048  0.074119897  0.074439669            4 
 2576000   0.83476052   -2.9131733    2290.9863  0.074113168  0.074426171            4 
 2577000   0.84784673   -2.9126121    2286.6662   0.07394471  0.074412896            3 
 2578000   0.86240202   -2.9258601    2285.2422  0.073869995  0.074399605            4 
 2579000   0.84942944   -2.8991256    2291.0309    0.0740284  0.074386352            2 
 2580000   0.84302342   -2.9051301    2291.4119  0.074012014  0.074373029            4 
 2581000   0.82988612   -2.8954527    2292.4935   0.07401826    0.0743597            5 
 2582000   0.83434974   -2.9044945    2293.2395  0.074013669  0.074346159            5 
 2583000   0.86353948   -2.9213659    2291.3253  0.073923259  0.074332964            3 
 2584000   0.84554096   -2.9272103    2294.1958  0.073987224  0.074319593            3 
 2585000   0.85307337   -2.8972409    2298.6962   0.07410368  0.074306157            4 
 2586000   0.84244752   -2.9146456    2295.7236  0.073979235  0.074292781            3 
 2587000   0.83747065   -2.9292544    2288.7816  0.073727019  0.074279174            2 
 2588000   0.83409795   -2.9265001    2287.4559  0.073655843  0.074265888            7 
 2589000   0.84603239   -2.9052116    2293.5982  0.073825099  0.074252352            3 
 2590000   0.83156748   -2.9191434    2292.5523  0.073762945  0.074238906            1 
 2591000   0.84461673   -2.9182692    2299.1699  0.073947316   0.07422565            8 
 2592000   0.84477416   -2.9210677    2295.9651   0.07381575  0.074212265            4 
 2593000   0.82829174   -2.9273436    2293.3641  0.073703692  0.074198859            2 
 2594000   0.83456353   -2.9121497    2290.9815  0.073598738  0.074185645            4 
 2595000   0.83947007   -2.8833453    2299.5953  0.073846991  0.074172262            4 
 2596000   0.83481388   -2.9036052    2297.4641  0.073750131  0.074158901            2 
 2597000    0.8424562   -2.9514544    2298.0038  0.073739052  0.074145481           10 
 2598000   0.82808512   -2.8997572    2303.5441  0.073888377  0.074132085            3 
 2599000   0.82578187   -2.9131102    2291.5902  0.073476663  0.074118673            3 
 2600000    0.8299083   -2.8966553    2295.2484  0.073565653  0.074105146            3 
 2601000   0.86156204   -2.9223738    2299.3963  0.073670264  0.074091865            4 
 2602000   0.83930152   -2.9352165    2304.5563   0.07380721  0.074078351            2 
 2603000   0.83004535   -2.9305353    2296.2588  0.073513214  0.074064937            5 
 2604000   0.84957967   -2.8976533    2299.0018  0.073572768  0.074051611            3 
 2605000   0.80372462   -2.9275753    2298.6435  0.073533061  0.074038058            2 
 2606000   0.83874036   -2.9182825    2302.3103    0.0736221  0.074024478            2 
 2607000   0.83888192   -2.9241034    2301.1112  0.073555531  0.074010921            2 
 2608000   0.83001748   -2.9149875    2297.0447  0.073397388  0.073997549            3 
 2609000   0.80533558   -2.9180903    2306.5236  0.073672021  0.073984155            6 
 2610000   0.81755389   -2.9155614    2303.2051  0.073537839  0.073970606            3 
 2611000   0.81744807   -2.9275908    2301.0615  0.073441257  0.073957281            2 
 2612000   0.84651743   -2.9083051    2304.1535  0.073511788  0.073943836            3 
 2613000   0.83246956    -2.905159    2305.0603  0.073512575  0.073930332            5 
 2614000   0.83881133   -2.9244081    2303.0167  0.073419302  0.073916659            3 
 2615000   0.83266316   -2.8960553    2298.0391  0.073232603  0.073902939            3 
 2616000    0.8183994   -2.9253911    2304.1143  0.073398136  0.073889269            3 
 2617000   0.81731643   -2.9150957    2297.4998  0.073159463  0.073875392            4 
 2618000   0.82685813   -2.9076056    2298.0377   0.07314864  0.073861639            3 
 2619000   0.82383894   -2.9189361     2302.739    0.0732703  0.073847941            2 
 2620000   0.81979701   -2.9204932    2299.8749  0.073151237  0.073834296            6 
 2621000   0.81122978    -2.915489    2303.7579  0.073246784  0.073820566            3 
 2622000   0.83725674   -2.9259142    2298.7994  0.073061256  0.073806792            4 
 2623000   0.84952047   -2.9429001      2308.25  0.073333652  0.073793175            4 
 2624000   0.82314161   -2.9237318    2311.9148  0.073422091  0.073779621            4 
 2625000   0.84032622   -2.9257171    2297.3549  0.072931902  0.073765854            3 
 2626000   0.82805467   -2.9270073    2307.3122  0.073220113  0.073752114            2 
 2627000   0.83298416   -2.9380023    2303.5202  0.073071952  0.073738411            4 
 2628000   0.82588477   -2.9036516    2312.5749  0.073331268  0.073724823            2 
 2629000   0.83206123   -2.9252335    2310.9332  0.073251337  0.073711343            3 
 2630000   0.83786699   -2.9099843    2306.4254  0.073080653  0.073697852            1 
 2631000    0.8277858   -2.9306081    2313.6163  0.073280637  0.073684322            3 
 2632000   0.80920126   -2.9239372    2307.2507  0.073051252  0.073670829            2 
 2633000    0.8358147   -2.9139178    2311.0466  0.073143645  0.073657185            2 
 2634000   0.82851414   -2.9345529    2312.5279  0.073162741  0.073643559            2 
 2635000   0.82325446   -2.9161804     2311.206   0.07309317   0.07363016            2 
 2636000   0.81551773   -2.9489814    2312.9599  0.073120888  0.073616684            3 
 2637000   0.83303081    -2.917761    2317.2643  0.073229184  0.073603176            2 
 2638000   0.83178665   -2.9257328     2314.306  0.073107972  0.073589644            3 
 2639000   0.85175673   -2.9334281    2320.0544   0.07326179  0.073576016            3 
 2640000   0.83851514   -2.9235584     2315.492  0.073090024  0.073562406            4 
 2641000   0.81208796   -2.9356005    2318.7537  0.073165268  0.073548835            2 
 2642000    0.8588468   -2.9127591    2317.2775  0.073091015  0.073535531            4 
 2643000    0.8285748   -2.9077707    2322.3002  0.073221723  0.073522218            3 
 2644000   0.82203491   -2.9209804    2319.1277  0.073094039  0.073508803            3 
 2645000   0.81815575   -2.9389476    2317.9478   0.07302923   0.07349522            4 
 2646000   0.81286974   -2.9279777    2321.2446  0.073105461  0.073481903            5 
 2647000   0.81986224   -2.9011022    2326.4421  0.073241471  0.073468502            5 
 2648000   0.83024644   -2.9363917    2315.7968  0.072878802  0.073455244            6 
 2649000   0.84430155   -2.9195196    2323.0519  0.073079523  0.073442069            3 
 2650000   0.83733756   -2.9212216    2325.5246  0.073129703  0.073428975            4 
 2651000   0.82006527   -2.9184624    2322.5509   0.07300864  0.073415697            2 
 2652000    0.8276281   -2.9067323    2325.4493  0.073072189  0.073402279            2 
 2653000   0.83968132   -2.9307798    2322.5903  0.072954841  0.073389137            3 
 2654000   0.83359932    -2.933797    2322.8066  0.072934143  0.073375619            3 
 2655000   0.83923534   -2.9369887    2322.8826  0.072909059  0.073362467            6 
 2656000   0.84564321   -2.9496828    2333.1111  0.073202533  0.073349227            5 
 2657000   0.84789391   -2.8980479    2326.3417  0.072962667  0.073336118            8 
 2658000   0.82818172   -2.9393854    2331.6819  0.073102643  0.073322954            3 
 2659000   0.82602201   -2.9258551    2332.9461  0.073114771   0.07330975            4 
 2660000   0.82588923   -2.9092157    2334.3659  0.073131764  0.073296502            3 
 2661000   0.82818743   -2.9259898    2333.3959  0.073073903  0.073283324            2 
 2662000   0.82846712   -2.9091778     2330.588  0.072958552  0.073270189            5 
 2663000   0.82423738   -2.9242884    2332.1747  0.072980808  0.073257013            4 
 2664000   0.84258642   -2.9188674    2332.6324  0.072967729  0.073243986            3 
 2665000   0.82982961   -2.9414536    2336.1726  0.073051051  0.073230808            3 
 2666000   0.82452991   -2.9288014    2336.8529  0.073044915  0.073217737            2 
 2667000   0.82662067   -2.9275446    2331.5261  0.072851083  0.073204449            4 
 2668000   0.80753714   -2.9118258    2333.0721  0.072872067  0.073191349            3 
 2669000   0.83614853     -2.92192    2333.1613  0.072847548  0.073178213            3 
 2670000   0.82974008    -2.939824    2341.3644  0.073076293   0.07316501            1 
 2671000   0.82571427   -2.9281031    2331.1241  0.072729443  0.073151936            3 
 2672000   0.82526576   -2.9350347    2337.3657  0.072896885  0.073138942            3 
 2673000   0.81363511   -2.9093968    2339.8814  0.072948041  0.073125989            3 
 2674000     0.824824   -2.9538521    2342.8285  0.073012606  0.073112855            3 
 2675000    0.8355526   -2.9584733    2334.8831  0.072737791  0.073099641            2 
 2676000    0.8177848   -2.9524899     2343.478  0.072978263  0.073086599            2 
 2677000   0.82420249    -2.928771    2339.2773  0.072820237  0.073073426           10 
 2678000   0.82452652   -2.9346056    2349.4062  0.073108234  0.073060369            2 
 2679000    0.8336659   -2.9547281    2345.9377  0.072973054  0.073047377            4 
 2680000   0.83136789   -2.9379478    2340.0293  0.072762105  0.073034365            2 
 2681000   0.80671846   -2.9267333    2342.3634  0.072807516  0.073021324            5 
 2682000   0.81913117   -2.9382646    2337.8093  0.072638866  0.073008087            2 
 2683000   0.80512622   -2.9309718    2336.3027     0.072565  0.072994863            3 
 2684000   0.82064867   -2.9242482    2340.0226  0.072653458  0.072981731            6 
 2685000    0.8017706   -2.9124997    2343.5401  0.072735571  0.072968622            4 
 2686000   0.81725074   -2.9255628    2347.5605  0.072833223  0.072955552            4 
 2687000   0.81986826   -2.9553335    2337.4933    0.0724939  0.072942312            4 
 2688000   0.81054006   -2.9330264    2339.6948  0.072535182  0.072929001            4 
 2689000   0.80806684   -2.9382615    2339.6802  0.072507754  0.072915873            2 
 2690000   0.81380054   -2.9536079    2343.0251   0.07258442  0.072902737            2 
 2691000   0.80906442   -2.9120609     2342.077  0.072528086  0.072889467            6 
 2692000   0.81409861   -2.9198123     2351.998   0.07280826  0.072876338            2 
 2693000   0.80158904   -2.9354423    2346.2728  0.072604059   0.07286323            2 
 2694000   0.82530589   -2.9517598    2345.8709  0.072564677   0.07284998            4 
 2695000   0.82879915   -2.9486223    2336.2228  0.072239418  0.072836651            5 
 2696000   0.83138614   -2.9203399    2349.0273  0.072608412  0.072823411            4 
 2697000   0.80383044   -2.9332299    2352.9991  0.072704212   0.07281021            5 
 2698000   0.83061288   -2.9459741    2337.1189  0.072186771  0.072797081            6 
 2699000   0.83691738   -2.9338733    2352.8724  0.072646426  0.072783872            4 
 2700000   0.81581154   -2.9523474    2352.4883  0.072607662  0.072770762            5 
 2701000   0.82439396   -2.9441631    2356.6025  0.072707715  0.072757505            5 
 2702000   0.83100023   -2.9279336    2341.6221  0.072218791   0.07274427            4 
 2703000   0.83053772   -2.9441998    2346.4869  0.072342055  0.072731115            2 
 2704000   0.81400531   -2.9470272    2346.6957  0.072321735  0.072717863            5 
 2705000   0.79764037   -2.9487877     2350.655  0.072416976  0.072704453            4 
 2706000   0.83198486   -2.9215432    2350.4289   0.07238325  0.072691045            4 
 2707000   0.82841383   -2.9477507    2340.2208  0.072042262  0.072677793            2 
 2708000   0.82061276   -2.9384191    2356.2142  0.072507824  0.072664507            3 
 2709000   0.81411576   -2.9502469    2352.0861  0.072354069  0.072651231            6 
 2710000   0.80464684   -2.9573713    2350.9193  0.072291492  0.072637946            2 
 2711000   0.81970886    -2.928058    2353.6007  0.072347248  0.072624772            7 
 2712000   0.80928176   -2.9392203    2362.2043   0.07258494  0.072611734            3 
 2713000   0.82112651   -2.9465512    2342.6053  0.071956176  0.072598687            3 
 2714000   0.81253252   -2.9173173    2352.1248   0.07222196  0.072585437            1 
 2715000   0.80664705   -2.9463746     2356.809  0.072339135  0.072572218            3 
 2716000   0.82560359   -2.9442456    2353.1329  0.072199709  0.072559074            4 
 2717000   0.83535467   -2.9338738     2363.744  0.072498589  0.072545776            4 
 2718000   0.81339442   -2.9232417    2357.6325   0.07228454  0.072532702            3 
 2719000   0.82659889   -2.9373288    2356.5744  0.072225523  0.072519605            2 
 2720000   0.81766218   -2.9420213    2357.9387   0.07224077   0.07250649            2 
 2721000   0.81344835   -2.9394146    2358.0036  0.072216207  0.072493403            4 
 2722000   0.81380528   -2.9326422    2360.5857  0.072268727  0.072480241            4 
 2723000   0.82350313   -2.9270015     2355.905  0.072098941  0.072467283            3 
 2724000   0.81845205   -2.9392036    2356.2531  0.072083124  0.072454211            2 
 2725000     0.820559    -2.969381    2353.1598  0.071962072  0.072441088            4 
 2726000   0.81248214   -2.9544533     2352.051  0.071901778   0.07242793            4 
 2727000   0.81446299   -2.9627508    2361.9862   0.07217902  0.072414772            4 
 2728000   0.83029994   -2.9432658    2363.6109  0.072202189  0.072401534            5 
 2729000   0.79806126   -2.9383173    2368.5391  0.072326222  0.072388346            3 
 2730000   0.82510878   -2.9706786     2350.832  0.071759219  0.072375223            3 
 2731000   0.80650582   -2.9283976    2366.0017   0.07219583  0.072362127            4 
 2732000   0.80399522   -2.9529212    2357.4629  0.071908946  0.072348992            2 
 2733000   0.82272033   -2.9539141     2360.966   0.07198945  0.072335618            9 
 2734000   0.80900127    -2.958165    2362.8352  0.072020093  0.072322528            2 
 2735000    0.8045776   -2.9419683    2366.9066  0.072117814  0.072309489           10 
 2736000   0.83183882   -2.9615866    2362.8982  0.071969364  0.072296609            2 
 2737000   0.80902624   -2.9532057    2360.3403   0.07186519  0.072283746            2 
 2738000   0.80578691   -2.9239651     2364.392   0.07196226  0.072270887            3 
 2739000   0.82733961   -2.9269532    2367.8983  0.072042666  0.072257979            3 
 2740000   0.81067453   -2.9705607    2356.4132  0.071667069  0.072245132            4 
 2741000   0.79601922   -2.9373863    2370.3399  0.072064327  0.072232122            3 
 2742000   0.81467896    -2.957446    2357.7369  0.071655024  0.072219149            2 
 2743000   0.80854772   -2.9550695    2362.1934   0.07176429  0.072206135           10 
 2744000   0.82297734   -2.9421018    2378.2068  0.072224455  0.072193167            3 
 2745000   0.80510467   -2.9502752    2370.1453  0.071953409  0.072180189            4 
 2746000   0.80756087    -2.950588    2369.9482  0.071921224  0.072167234            3 
 2747000   0.81233465   -2.9622177    2368.0374  0.071837077   0.07215413            8 
 2748000    0.8080213   -2.9524098    2379.4532   0.07215712  0.072141025            2 
 2749000   0.80795336   -2.9648317    2368.8525  0.071809523  0.072128146            3 
 2750000   0.82227566   -2.9367167    2363.2684  0.071614193   0.07211543            2 
 2751000   0.82435605   -2.9313204    2372.4091  0.071865053  0.072102423            2 
 2752000    0.8085918   -2.9603541    2377.2475  0.071985451  0.072089508            5 
 2753000   0.80355625   -2.9666666    2370.4444  0.071753372  0.072076522            3 
 2754000   0.81206787   -2.9682084    2375.3804  0.071876678  0.072063574            4 
 2755000   0.81562155   -2.9643821     2368.723  0.071649214  0.072050456            7 
 2756000   0.81387122   -2.9383382    2370.3078  0.071671134  0.072037362            5 
 2757000   0.80229958   -2.9523337    2373.7734   0.07174989   0.07202436            3 
 2758000   0.80798147   -2.9542932    2384.1217   0.07203655  0.072011475            3 
 2759000   0.82928476   -2.9598794    2373.6395  0.071693836  0.071998524           10 
 2760000   0.80592972    -2.940708    2371.7449  0.071610654  0.071985442            2 
 2761000    0.8173672   -2.9568415    2383.3012  0.071933516  0.071972436            3 
 2762000   0.82388899   -2.9529718    2370.9257  0.071534084  0.071959486            7 
 2763000   0.79495421   -2.9609349    2373.9822  0.071600381  0.071946578            6 
 2764000   0.81495527    -2.947615    2379.4643  0.071739757  0.071933582            5 
 2765000   0.81370971   -2.9443971    2378.5116  0.071685098  0.071920531            3 
 2766000   0.79965329   -2.9403191    2375.0274  0.071554213  0.071907603            1 
 2767000   0.81936365   -2.9593123    2381.5009  0.071723314  0.071894739            3 
 2768000   0.80812452    -2.949419    2382.2392  0.071719628  0.071881838            3 
 2769000   0.81684211   -2.9542636    2383.9197  0.071744304  0.071869034            4 
 2770000     0.818374   -2.9486166    2386.7124   0.07180242  0.071856028            3 
 2771000   0.81112278   -2.9444357     2376.005    0.0714545  0.071843182            6 
 2772000   0.82687563   -2.9617937    2384.6598  0.071688908  0.071830241            4 
 2773000   0.81332626   -2.9664087    2392.9912  0.071913428  0.071817443            3 
 2774000   0.83075901   -2.9533169    2379.5937  0.071485029  0.071804639            5 
 2775000   0.82186083   -2.9615578    2383.9866  0.071591188  0.071791916            3 
 2776000   0.82251456   -2.9574581     2387.375  0.071667118  0.071779101            3 
 2777000   0.80443776    -2.953988    2385.5723  0.071587214  0.071766133            3 
 2778000   0.81314782   -2.9336381    2393.1989  0.071790224  0.071753349            2 
 2779000   0.79424416   -2.9470007    2389.1273  0.071642297  0.071740703            4 
 2780000   0.79385619   -2.9682976    2380.7826  0.071366385  0.071727709            3 
 2781000   0.80836005   -2.9609474    2380.3085  0.071326518   0.07171471            4 
 2782000   0.81127969   -2.9762251    2385.5694  0.071458466  0.071701594            3 
 2783000   0.81159599   -2.9519221    2387.6304  0.071494501  0.071688591            6 
 2784000    0.8045283    -2.949296    2387.9075  0.071477117  0.071675532            5 
 2785000   0.82064053   -2.9581363    2395.1613  0.071668502  0.071662702            7 
 2786000   0.79208676   -2.9559889    2393.0292  0.071579002  0.071649746            6 
 2787000   0.82820195   -2.9591489    2389.9181  0.071460294  0.071636844            3 
 2788000   0.81473477   -2.9453725    2383.9031  0.071254876  0.071624032            8 
 2789000   0.81200273   -2.9227465    2394.5355  0.071547014  0.071611254            4 
 2790000   0.80229848   -2.9801266    2390.3238  0.071395574  0.071598278            3 
 2791000    0.7975892   -2.9843775    2384.9364  0.071209138  0.071585336            6 
 2792000   0.79861092   -2.9570198    2395.8558  0.071509546   0.07157233            3 
 2793000   0.80245779   -2.9507899    2387.1525  0.071224265  0.071559293            3 
 2794000   0.80086819    -2.992007    2386.2388  0.071171524  0.071546291            3 
 2795000   0.79867465   -2.9884257    2384.6287  0.071098054  0.071533096           10 
 2796000   0.79582469   -2.9913935      2383.27  0.071032129  0.071520089            3 
 2797000    0.8058992   -2.9477999    2394.5593  0.071343086  0.071507177            2 
 2798000   0.81222494   -2.9892537    2379.8049  0.070878155  0.071494167            6 
 2799000    0.8124021   -2.9877202    2387.9777  0.071096158  0.071481054            2 
 2800000   0.82085426   -2.9525922    2397.0024  0.071339357  0.071467876            6 
 2801000   0.80200356   -2.9649043    2385.7692  0.070979685  0.071454808            6 
 2802000   0.79773099   -2.9567435    2393.9343  0.071197189  0.071441741            9 
 2803000   0.80180263   -2.9894081    2383.9048  0.070873611  0.071428629            4 
 2804000   0.79811452   -2.9664289      2399.07  0.071299037  0.071415501            3 
 2805000   0.80721138   -2.9888728     2389.568  0.070991324   0.07140234            2 
 2806000   0.79537798   -2.9654335    2394.6809  0.071117869   0.07138912            2 
 2807000   0.80255286   -2.9807958     2388.122  0.070897815   0.07137577            3 
 2808000   0.81376083   -2.9702193    2395.0655  0.071078628  0.071362685            2 
 2809000   0.79741763   -2.9450026    2388.1098  0.070846975  0.071349596            3 
 2810000   0.80346363    -2.953869    2400.4217  0.071186884  0.071336283            3 
 2811000   0.81309448   -2.9824451    2395.3293  0.071010594  0.071323174            3 
 2812000   0.79910657   -2.9669683    2390.4492  0.070840717  0.071309779           12 
 2813000   0.79094254   -2.9622607     2393.563  0.070907778  0.071296527            6 
 2814000   0.77589414   -2.9654279    2391.5366  0.070822571  0.071283331            5 
 2815000   0.79514185   -2.9903266    2383.0469  0.070546089  0.071269933            8 
 2816000   0.80431349   -2.9888626    2401.3295  0.071062071   0.07125668            2 
 2817000    0.7940129   -2.9526114    2399.8113  0.070991934  0.071243465            3 
 2818000    0.7909593   -2.9660891    2406.7874  0.071173036  0.071230393            3 
 2819000   0.81105052   -2.9688382    2404.0225  0.071066054  0.071217326            3 
 2820000   0.79463139   -2.9736233    2410.9721  0.071246221  0.071204181            5 
 2821000   0.80737609   -2.9784126    2400.1255  0.070900553  0.071191072            7 
 2822000   0.79825232   -2.9648035    2398.3689  0.070823557  0.071177946            4 
 2823000   0.78368245   -2.9540717    2403.1583  0.070939849  0.071164887            2 
 2824000   0.80009387   -2.9411425      2401.88  0.070877006  0.071151798            4 
 2825000   0.81245438   -2.9821616     2401.233  0.070832833  0.071138792            2 
 2826000   0.79697323    -2.948199     2413.733  0.071176367  0.071125836            8 
 2827000   0.78961366   -2.9625394    2402.4348  0.070818146  0.071112845            3 
 2828000   0.81121423   -2.9721062    2405.0393  0.070869852  0.071099892            4 
 2829000   0.80471198   -2.9733421    2414.5168  0.071123977  0.071086957            4 
 2830000   0.81806403   -2.9784024    2396.9977  0.070582972  0.071073876            4 
 2831000   0.78157484   -2.9392003    2409.9567  0.070939499  0.071060861           10 
 2832000   0.80182324   -2.9736145      2404.32  0.070748589  0.071048045            8 
 2833000   0.80395838    -2.977165    2409.1211   0.07086484  0.071035175            1 
 2834000   0.79614952   -2.9639324    2409.7686  0.070858875  0.071022328            4 
 2835000   0.80589863   -2.9666932    2406.3899  0.070734566  0.071009492            3 
 2836000    0.7921881   -2.9597987    2410.9993  0.070845066  0.070996608            3 
 2837000   0.77488668   -2.9802922     2409.401  0.070773146  0.070983768            3 
 2838000   0.78619533   -2.9861789    2414.9212  0.070910302   0.07097085            6 
 2839000   0.79671958   -2.9800919    2407.6959  0.070673238   0.07095784            3 
 2840000   0.80204587   -2.9614613    2406.9938  0.070627753  0.070944898            4 
 2841000   0.78888433   -2.9866645    2407.5326  0.070618697  0.070931936            3 
 2842000   0.79025698   -2.9695505    2414.2481  0.070790761  0.070918988            2 
 2843000   0.79809951    -2.979213     2412.389  0.070711368  0.070906201            3 
 2844000   0.79766713    -2.986936    2413.5104  0.070719362  0.070893131            3 
 2845000   0.80065085   -2.9592349    2411.9855  0.070649839  0.070880164            4 
 2846000   0.79857998   -2.9757142    2409.5334  0.070553215  0.070867212            4 
 2847000   0.78505741    -2.950843     2416.374  0.070728661   0.07085403            6 
 2848000    0.8145373   -2.9726108    2405.5869  0.070388193  0.070840943            6 
 2849000   0.79837244   -2.9835253    2418.8375  0.070751067  0.070827728            2 
 2850000   0.80087673   -2.9925739    2414.0705  0.070586856   0.07081451            4 
 2851000   0.78002653   -2.9623836    2412.5623  0.070518015  0.070801158            6 
 2852000   0.78578511   -2.9765063    2408.5759  0.070376809  0.070787905            5 
 2853000   0.79692704   -2.9651358    2423.0051  0.070773605  0.070774656            3 
 2854000   0.78449925   -2.9841615    2411.2673  0.070406077  0.070761529            4 
 2855000   0.77314684   -2.9606429    2417.0789  0.070551047  0.070748386            5 
 2856000   0.77608392    -2.969593    2410.7813  0.070342591  0.070735115            5 
 2857000   0.78753018   -2.9810819    2413.6107  0.070400499  0.070721802            5 
 2858000   0.79690447   -2.9626273    2415.2268  0.070422988  0.070708533            5 
 2859000    0.7992383   -2.9718616    2420.3051  0.070546378  0.070695553            6 
 2860000   0.79795619   -2.9767699    2420.1204  0.070516329  0.070682543            5 
 2861000   0.79460877    -2.979796    2415.7383  0.070364042  0.070669332            5 
 2862000   0.77972843   -2.9568968    2412.8975   0.07025674    0.0706562            3 
 2863000   0.77644435   -2.9706621    2424.6377  0.070573923     0.070643            7 
 2864000   0.80633497   -2.9870764    2428.0291  0.070647961  0.070629784            4 
 2865000   0.79387266   -2.9583349    2418.0614  0.070333373  0.070616568            5 
 2866000    0.8133085   -2.9763557    2419.4716  0.070349836  0.070603357            3 
 2867000   0.80125623   -2.9612817     2420.236  0.070347517  0.070590147            4 
 2868000   0.80243122   -2.9680132    2416.1802  0.070205142  0.070576991            5 
 2869000   0.78739697   -2.9794085    2425.6099   0.07045457  0.070563707            5 
 2870000   0.78184208   -2.9884749    2416.1104  0.070154192  0.070550463            3 
 2871000   0.78513775    -2.989805    2413.8968  0.070065504  0.070537193            4 
 2872000   0.78483141   -2.9703878    2415.5548  0.070089219  0.070523838            3 
 2873000   0.79619194   -3.0009395    2418.6744  0.070155309  0.070510613            6 
 2874000   0.78764128   -2.9817579    2426.5669  0.070359746  0.070497207            9 
 2875000   0.78279482   -2.9626281    2417.9004  0.070084071  0.070484057           10 
 2876000   0.78656847   -2.9674988    2426.4205  0.070306575  0.070470683            9 
 2877000   0.80812896   -2.9766715    2423.9331  0.070210089  0.070457395            6 
 2878000   0.78638841   -2.9664447    2421.3661  0.070111366  0.070444107            3 
 2879000    0.7977302   -3.0013014    2419.3453   0.07002852  0.070430925            6 
 2880000   0.79283723   -2.9554457    2419.5235   0.07000936    0.0704176            2 
 2881000   0.79327174   -2.9860358    2423.1979  0.070091343  0.070404286           11 
 2882000   0.78038942   -2.9825318    2418.1051  0.069919763  0.070390968            5 
 2883000   0.79242316   -2.9906816    2420.9414  0.069977496  0.070377804            4 
 2884000   0.78185043    -2.994346    2421.3484   0.06996499   0.07036434            4 
 2885000   0.80250908   -2.9751918    2421.5356  0.069946148  0.070351003            2 
 2886000   0.80069179   -2.9900115    2426.6105  0.070068448  0.070337765            7 
 2887000   0.79385388   -2.9962717    2432.4392  0.070212422  0.070324366            3 
 2888000   0.79727812   -2.9893521    2422.4425  0.069899658  0.070311194            4 
 2889000   0.79107915   -2.9785204    2433.4004  0.070191543  0.070297897            4 
 2890000   0.78048966   -2.9583744    2423.2667   0.06987505  0.070284506            6 
 2891000   0.78629032    -2.989897    2427.1475  0.069962743   0.07027113            4 
 2892000   0.80183906    -2.984593    2431.2027  0.070055403  0.070257681            4 
 2893000   0.79112078   -2.9736453    2423.7771  0.069817292  0.070244399            3 
 2894000   0.78285569   -2.9845652    2422.8844  0.069767462  0.070230906            2 
 2895000   0.78869556   -2.9587455    2436.6047  0.070138304  0.070217509            4 
 2896000   0.78359746   -2.9870033    2419.5768  0.069624103  0.070203955            4 
 2897000   0.79696667   -2.9891833    2423.2119  0.069704633  0.070190241            5 
 2898000   0.78897802   -2.9756666    2430.7518  0.069897396  0.070176649            4 
 2899000   0.79281889   -2.9882883    2424.3001  0.069687826    0.0701632            7 
 2900000   0.80840144   -2.9928658    2426.2101  0.069718682  0.070149704            7 
 2901000   0.78278374   -2.9561709    2428.5134  0.069760813  0.070136069           10 
 2902000   0.79275469   -2.9682259    2431.6841  0.069827823  0.070122477            4 
 2903000   0.79205595   -2.9592816    2430.3711  0.069766077  0.070108938            3 
 2904000   0.77982874   -2.9876803    2420.4362  0.069456963  0.070095253            7 
 2905000   0.79843332   -3.0087671    2429.7584  0.069700469  0.070081637            3 
 2906000   0.78300387   -2.9938847    2429.1707  0.069659631  0.070068112            7 
 2907000   0.78053663   -2.9954128    2434.5238  0.069789125  0.070054614            5 
 2908000   0.80152932   -2.9695479     2430.962  0.069663055  0.070041121            2 
 2909000    0.7812289   -2.9828488    2424.5462  0.069455317   0.07002747            5 
 2910000     0.781067   -2.9771103    2426.4932  0.069487204  0.070013962            5 
 2911000   0.77806147   -2.9987539    2421.0656  0.069307958  0.070000466            3 
 2912000   0.78731707    -2.996256    2425.2936  0.069405151     0.069987            6 
 2913000   0.77051697   -2.9838916    2430.0918  0.069518589  0.069973307            6 
 2914000   0.77651679   -2.9820058    2430.6319  0.069510178  0.069959926            9 
 2915000   0.76169575   -2.9844872    2436.9063  0.069665704  0.069946415            6 
 2916000   0.79039674   -2.9612635    2431.8906  0.069498473  0.069933059            6 
 2917000   0.78427451    -2.998733    2437.5918  0.069637523  0.069919828            4 
 2918000   0.79225764   -2.9764829    2429.6886  0.069387954  0.069906393            4 
 2919000   0.77840355   -3.0003897    2431.0209  0.069402219  0.069892972            5 
 2920000    0.7934389   -2.9832127    2433.8125   0.06945812  0.069879475            2 
 2921000   0.78267263   -2.9872715    2431.9294  0.069380618  0.069865951            8 
 2922000   0.77562087   -2.9775572    2434.4149  0.069427758  0.069852491            3 
 2923000   0.77896905   -2.9869218    2433.7619   0.06938539  0.069839043            2 
 2924000   0.77127914   -3.0000489     2442.825  0.069619955  0.069825746            2 
 2925000   0.77279107   -2.9955412    2442.0195  0.069573204  0.069812385            2 
 2926000   0.78937677   -2.9834237    2448.7161  0.069740148  0.069799121            3 
 2927000   0.78480952   -2.9888372    2433.7806  0.069291099  0.069785926            6 
 2928000   0.77645476   -3.0152191    2436.6375  0.069348745  0.069772551            4 
 2929000   0.80507657   -3.0294235    2436.3163   0.06931593  0.069759255            5 
 2930000   0.76223106   -3.0077864    2439.5283  0.069383627  0.069745854            4 
 2931000   0.78739342   -2.9664654    2448.7064  0.069620902  0.069732579            3 
 2932000   0.79401171   -2.9922087    2447.7422  0.069569753  0.069719209            5 
 2933000   0.80213095   -3.0087763    2432.9288  0.069125151  0.069705766            5 
 2934000   0.80364904    -3.001121     2436.227  0.069195267  0.069692431            4 
 2935000   0.78630239   -2.9855646    2435.5011  0.069151082  0.069679016            5 
 2936000   0.77937932    -2.987585    2443.4285  0.069352535  0.069665479            6 
 2937000   0.78159967   -2.9867779    2439.7826  0.069225475  0.069651977            2 
 2938000   0.78899819   -3.0083881    2435.4507  0.069079042  0.069638428            5 
 2939000   0.78803682   -2.9913827    2441.7208  0.069233323  0.069624977            6 
 2940000    0.7843289   -2.9624528    2441.6876  0.069208832  0.069611498            9 
 2941000    0.7886035   -2.9867142    2446.7563   0.06932892  0.069598007            4 
 2942000   0.76991367   -2.9946963    2443.6189  0.069216487  0.069584509            4 
 2943000    0.7853296   -2.9727898    2437.2733  0.069013288  0.069571034            4 
 2944000   0.79278066   -2.9881247    2444.8698  0.069204874  0.069557526            5 
 2945000     0.788102   -3.0109981    2435.0363  0.068903121  0.069543905            5 
 2946000   0.80002734   -2.9909367    2436.1199  0.068910385  0.069530212            3 
 2947000   0.78183983   -2.9930396    2448.0917  0.069225533  0.069516612            3 
 2948000   0.78247639   -3.0024442    2433.4198  0.068787308  0.069503083            3 
 2949000   0.77440132    -2.997123    2443.6172  0.069052142  0.069489478            7 
 2950000   0.78461668   -3.0040115    2440.1502  0.068930796  0.069476016            2 
 2951000   0.77900653   -2.9905276    2440.9588  0.068930271  0.069462573            4 
 2952000   0.78331266   -2.9863041    2450.9376  0.069188617  0.069449312            5 
 2953000   0.78007231   -2.9834628    2445.9287  0.069023837  0.069435913            2 
 2954000   0.78493077   -3.0060106     2455.153  0.069260692  0.069422522            4 
 2955000   0.78513953   -2.9835249    2442.8522  0.068890362  0.069409204            4 
 2956000   0.78176895   -2.9889451    2446.9429  0.068982376  0.069395761            4 
 2957000   0.78810207   -3.0164141    2451.6465  0.069091606  0.069382502            5 
 2958000   0.79000138   -2.9642054    2457.7878   0.06924126  0.069369235            4 
 2959000    0.7951415   -3.0131968    2450.9071  0.069024081  0.069355851            7 
 2960000   0.78435938   -2.9915527     2455.624  0.069133557  0.069342418            4 
 2961000   0.76373595   -2.9963798    2446.7635  0.068860843   0.06932898            3 
 2962000   0.76880307   -3.0026266      2448.73  0.068892922  0.069315635            4 
 2963000   0.79210182   -2.9999867     2449.455   0.06889006  0.069302249            4 
 2964000   0.78633823   -2.9869672    2444.9573  0.068740364  0.069288941            3 
 2965000   0.78403784   -2.9962482    2463.0521  0.069225747  0.069275647            7 
 2966000   0.77373304    -2.984835    2446.5486  0.068738722  0.069262347            3 
 2967000   0.78198986   -2.9912579    2454.0933   0.06892746  0.069249013            8 
 2968000   0.79181252    -3.035551    2449.4678  0.068774367  0.069235765            4 
 2969000   0.78848399    -3.010804    2461.5198  0.069089474  0.069222517            4 
 2970000   0.76731519   -3.0202765     2448.981  0.068714395  0.069209225            4 
 2971000   0.78855794   -2.9924191    2455.9422  0.068886519  0.069196027            3 
 2972000   0.76997225   -3.0018582    2458.1293  0.068924666  0.069182878            2 
 2973000    0.7758624   -3.0177817    2450.2155  0.068679659  0.069169746            5 
 2974000   0.78676023   -3.0048327    2460.1129  0.068933897  0.069156573            3 
 2975000   0.79505403   -2.9816039     2452.508  0.068697704  0.069143362            2 
 2976000   0.78077472   -2.9972892    2460.4709  0.068897596   0.06913032            3 
 2977000   0.76914877   -3.0114907    2459.1729  0.068838117  0.069117125            5 
 2978000   0.77526597   -2.9761588    2457.6526   0.06877246  0.069104046            4 
 2979000   0.76737455   -2.9852312    2462.5865  0.068887392   0.06909083            3 
 2980000   0.78963278   -3.0185699    2459.1083  0.068767009   0.06907769            6 
 2981000   0.78389753   -3.0102964    2464.0292  0.068881504  0.069064528            5 
 2982000    0.7882688   -3.0053484    2465.3548   0.06889545    0.0690513            4 
 2983000   0.76817651   -2.9996556    2459.9999   0.06872276  0.069038103            8 
 2984000   0.76074436   -2.9884742    2468.2642  0.068930524  0.069025095            2 
 2985000   0.77413692   -3.0010633    2466.4584  0.068857019  0.069011915            2 
 2986000   0.77567877   -2.9977057    2458.0533  0.068599389  0.068998661            6 
 2987000   0.77335912   -3.0118043    2464.0117  0.068742655  0.068985684            2 
 2988000    0.7708233   -2.9995387    2454.2439  0.068447231  0.068972391            3 
 2989000   0.78511614   -3.0008731    2469.2443  0.068842542  0.068959241            3 
 2990000   0.77221008   -3.0127598    2462.3446   0.06862722   0.06894615            2 
 2991000   0.78444537   -3.0022404    2468.8174  0.068784614  0.068932906            4 
 2992000   0.79085514   -2.9858592    2466.5292  0.068697896  0.068919692            4 
 2993000   0.78465467   -3.0085868    2473.3151  0.068863881  0.068906508            4 
 2994000   0.78446797   -3.0030942    2456.5618  0.068374577  0.068893386            9 
 2995000   0.78271155   -2.9937351    2460.3967  0.068458451  0.068880211            2 
 2996000   0.77469314   -3.0025236     2469.464  0.068687807  0.068867095            8 
 2997000   0.78379349   -2.9910728    2461.4523  0.068442117  0.068853995            3 
 2998000    0.7632071   -3.0071207    2468.5561  0.068616746  0.068840728            3 
 2999000   0.76509801   -3.0101258    2471.8497  0.068685387  0.068827498            2 
 3000000   0.77968916   -3.0033447    2466.5232  0.068514533  0.068814367            4 
 3001000   0.77652119   -3.0223531    2466.1401  0.068481065  0.068801077            2 
 3002000   0.78069741   -2.9885476    2474.7768  0.068698001  0.068787878            2 
 3003000   0.78222545   -3.0116118    2467.5612  0.068474892  0.068774756            2 
 3004000   0.77228537   -3.0056946    2471.3591  0.068557454  0.068761625            8 
 3005000   0.76742315   -3.0121004    2467.0462  0.068415036  0.068748441            3 
 3006000   0.76249727   -3.0187373    2475.4104  0.068624153  0.068735317            9 
 3007000   0.77637039   -3.0142573    2471.8534  0.068502756  0.068722419            4 
 3008000   0.79155892   -2.9948004    2463.6131  0.068251691  0.068709281            3 
 3009000   0.75244808   -3.0077299    2470.8761  0.068430158  0.068696257           16 
 3010000   0.79200699   -3.0167722    2474.6304  0.068511362  0.068683045            3 
 3011000     0.766086   -3.0078173    2474.7712  0.068492504  0.068669867            5 
 3012000   0.77042445   -3.0131401    2466.6154  0.068244118  0.068656719            6 
 3013000   0.76044077   -3.0072115     2470.105  0.068317983   0.06864344            5 
 3014000   0.77255932   -2.9986256    2484.9112  0.068704689  0.068630425            5 
 3015000     0.745693   -3.0190988    2474.0939  0.068382915  0.068617311            6 
 3016000   0.77004749   -3.0139526    2477.7591  0.068461512  0.068604117            7 
 3017000     0.789466   -2.9933564    2473.1625  0.068311858  0.068591002            7 
 3018000   0.76789337   -3.0099713    2478.5772  0.068438734   0.06857792            3 
 3019000   0.76520291   -2.9854301    2469.9072  0.068176747   0.06856464            4 
 3020000   0.76587291   -3.0034421    2470.4798  0.068169973  0.068551521            3 
 3021000    0.7614898   -3.0166225    2483.7123   0.06851242  0.068538361            4 
 3022000   0.76467976   -3.0193194    2482.1298  0.068446112  0.068525406            3 
 3023000    0.7643416   -2.9947692    2474.7607   0.06822033  0.068512198            5 
 3024000   0.76387423   -3.0059296    2483.1717  0.068429554  0.068499105            4 
 3025000   0.77287005    -3.018998    2484.2187  0.068435777  0.068485995            4 
 3026000    0.7860115   -3.0001226    2488.1427  0.068521225  0.068473024           11 
 3027000   0.76655927   -3.0210455    2482.8359  0.068352492  0.068459887            7 
 3028000   0.78358198   -3.0045322    2481.2468  0.068286183  0.068446717            2 
 3029000   0.76687751   -3.0121586     2479.314  0.068210466  0.068433665            3 
 3030000   0.77402238    -3.009778       2476.4  0.068107811  0.068420529            9 
 3031000   0.77255163   -3.0118678    2482.4538  0.068251781  0.068407343            4 
 3032000   0.77441883    -3.003256     2481.193  0.068194619  0.068394161            7 
 3033000   0.75027407   -3.0129791    2480.5375  0.068154123  0.068380804            3 
 3034000   0.78361733   -3.0270361    2475.2085  0.067985292  0.068367518            4 
 3035000   0.78203807    -3.008364    2470.2742  0.067827408  0.068354277           10 
 3036000    0.7656084   -3.0266376    2477.1467  0.067993707  0.068340845            3 
 3037000   0.76590255   -3.0085408    2479.9273  0.068047616  0.068327563            6 
 3038000   0.75462069   -3.0188329    2476.5188  0.067931722  0.068314196            6 
 3039000   0.78169639   -3.0078025     2478.157  0.067954287  0.068300998            2 
 3040000    0.7668726   -3.0068896    2484.3443  0.068101544   0.06828769            9 
 3041000   0.75826429   -3.0120729    2479.3119  0.067941245  0.068274455            3 
 3042000   0.77142847   -3.0027306    2480.2157  0.067943668  0.068261114            3 
 3043000   0.77729667   -3.0296117    2478.2721  0.067868116  0.068247666            5 
 3044000   0.75503131   -2.9936279    2482.1497  0.067951975  0.068234238            3 
 3045000   0.75336511   -2.9924308    2473.4528  0.067691647  0.068220994            5 
 3046000   0.78031874   -3.0110778    2491.6926  0.068168435  0.068207738            4 
 3047000   0.76340322   -3.0200344    2489.7346  0.068092513  0.068194489            4 
 3048000   0.77871424   -2.9983608    2484.3078  0.067921801  0.068181105            5 
 3049000   0.76300147   -3.0229259    2483.0094  0.067864039    0.0681679            4 
 3050000   0.77017845   -3.0126816    2491.9694  0.068086596  0.068154719            3 
 3051000   0.76066402   -3.0209045    2485.8038  0.067895877  0.068141435            8 
 3052000   0.77173901    -3.029464    2480.6886  0.067733963  0.068128175            9 
 3053000   0.75377068   -2.9976094    2494.7067  0.068094408  0.068115012            6 
 3054000   0.74952418   -3.0487177    2483.3516  0.067762267  0.068101777            4 
 3055000   0.76851869   -3.0076544    2490.4833  0.067934624  0.068088515           10 
 3056000   0.75208894   -3.0064569    2494.2865  0.068016103  0.068075315            3 
 3057000   0.76074784   -3.0301918    2484.9477   0.06773928  0.068062038            4 
 3058000   0.76522889   -3.0123582    2490.0769  0.067856904  0.068049004            3 
 3059000   0.75403153   -3.0093131    2490.2889  0.067840496  0.068035757            4 
 3060000   0.75559141   -3.0024066    2490.3009  0.067818652  0.068022516            4 
 3061000   0.76781133   -3.0083301    2490.3554  0.067797981  0.068009325            1 
 3062000   0.75339417   -3.0221897    2491.1623  0.067797797  0.067996039            5 
 3063000   0.74823314    -3.000371    2492.7013  0.067817534  0.067982799            2 
 3064000   0.75973222   -3.0380087    2484.8505  0.067581879  0.067969553            5 
 3065000   0.76094816   -3.0006976    2484.0619  0.067538388  0.067956317            8 
 3066000   0.76522879   -3.0380206    2488.0415  0.067624524  0.067943107            4 
 3067000   0.78359514   -3.0243036    2485.6967  0.067538764  0.067929824            3 
 3068000   0.74957363   -3.0244702    2488.5609  0.067594549  0.067916517            4 
 3069000   0.75044675   -3.0263266      2482.07  0.067396275   0.06790317            5 
 3070000   0.76845008   -2.9868335    2494.6095  0.067714699  0.067889879            5 
 3071000   0.75372445   -3.0325166    2489.8981  0.067564802  0.067876938            6 
 3072000    0.7624644   -3.0125227     2490.552  0.067560548  0.067863631            6 
 3073000   0.77419154   -3.0435816    2496.9757  0.067712759  0.067850459            3 
 3074000   0.77499198   -3.0228557    2486.5097  0.067407008  0.067837117            5 
 3075000     0.767315   -3.0316515     2497.095   0.06767195  0.067823949            4 
 3076000   0.75383114   -3.0124609    2498.7815  0.067695642  0.067810838            2 
 3077000   0.75619101   -3.0066414    2505.2234  0.067848104  0.067797843            3 
 3078000   0.75173099     -3.02521    2493.2644  0.067502286  0.067784766            4 
 3079000   0.76743954   -3.0288746    2484.6073  0.067246056   0.06777149            6 
 3080000   0.75422083   -3.0435082    2495.2817  0.067513032   0.06775834            7 
 3081000   0.77097119    -3.012074    2498.1373  0.067568356  0.067745231            2 
 3082000   0.77075996   -3.0448748    2491.2383  0.067359894  0.067732079           11 
 3083000   0.77052522   -3.0433056    2502.2045   0.06763446  0.067718905            4 
 3084000    0.7608228    -3.014317    2493.9561  0.067389648  0.067705638            2 
 3085000   0.76153118    -3.025715    2500.3412  0.067540281  0.067692372            3 
 3086000   0.75527128   -3.0398383    2487.1038  0.067160936   0.06767916            4 
 3087000   0.75611492   -3.0559733    2491.5817  0.067260062  0.067666021            5 
 3088000   0.77901547   -3.0330386    2507.2758  0.067661803  0.067652872            4 
 3089000   0.76424862   -3.0130242    2503.6405  0.067541827  0.067639802            4 
 3090000   0.75844223   -2.9916402    2509.5346  0.067678927  0.067626671            3 
 3091000   0.76178255   -3.0175325    2498.6163  0.067362674  0.067613781            3 
 3092000   0.76534231   -3.0339298    2497.1179  0.067300503  0.067600804            2 
 3093000   0.75811515   -3.0175545    2502.3206   0.06741892  0.067587631            6 
 3094000   0.74691607   -3.0559943    2508.1349   0.06755373  0.067574568            5 
 3095000    0.7547113   -3.0356616    2494.4109  0.067162382  0.067561383            4 
 3096000   0.74918051   -3.0479063    2507.7799  0.067500535  0.067548335            4 
 3097000   0.75341914   -3.0266821    2507.9248  0.067482639  0.067535275            4 
 3098000   0.74412634   -3.0345997    2494.6212  0.067103003  0.067522098            3 
 3099000   0.76347974   -3.0417964     2502.528  0.067293967  0.067509031            2 
 3100000    0.7745065   -3.0212296    2513.4819  0.067566719  0.067496026            3 
 3101000   0.75179297   -3.0137643    2503.3562   0.06727282  0.067483009            2 
 3102000   0.76366506   -3.0332015    2506.1304  0.067325661  0.067469794            4 
 3103000   0.76498366   -3.0308032    2508.3354  0.067363181  0.067456769            4 
 3104000   0.74819934    -3.036774    2499.2143  0.067096605  0.067443681            7 
 3105000   0.75161601   -3.0484329    2494.2571  0.066941951  0.067430513            4 
 3106000    0.7490566   -3.0396257    2507.1438  0.067266146  0.067417521            4 
 3107000   0.75008938   -3.0464756    2508.6187  0.067284055  0.067404543            3 
 3108000   0.73856851   -3.0483007    2509.4728  0.067285307  0.067391515            6 
 3109000   0.76417557   -3.0546467    2503.0588  0.067091744  0.067378456            5 
 3110000    0.7873703   -3.0477417    2510.0484   0.06725746  0.067365475            3 
 3111000   0.75204156   -3.0298552    2510.5445  0.067249128  0.067352429            6 
 3112000   0.74468549   -3.0194407    2509.2472  0.067192782  0.067339445            4 
 3113000   0.75387361   -3.0580647    2509.6164  0.067181078  0.067326362            4 
 3114000   0.74667186   -3.0310069    2510.5599  0.067184754  0.067313251            4 
 3115000   0.75555772    -3.036451    2504.5665  0.067002849  0.067300108            4 
 3116000   0.74624806   -3.0565612    2511.1912  0.067158515  0.067287096            4 
 3117000   0.76144557   -3.0428938    2512.6438  0.067175805  0.067273994            5 
 3118000   0.74957981   -3.0319536    2503.3948  0.066907066  0.067260953            4 
 3119000   0.75426242   -3.0312125    2516.4755  0.067235103   0.06724803            4 
 3120000   0.75666814   -3.0452992     2510.555  0.067055422  0.067235036            4 
 3121000   0.76888767    -3.016919    2511.2385  0.067052188  0.067221961            3 
 3122000   0.76658576   -3.0329227    2513.3707  0.067087623  0.067208841            5 
 3123000   0.75237269   -3.0303168    2505.5035  0.066856214   0.06719563            5 
 3124000   0.76547516    -3.039081    2511.8573  0.067004303  0.067182578            7 
 3125000    0.7512218    -3.040411    2510.6192  0.066949846  0.067169581            3 
 3126000   0.74056524   -3.0423868    2512.2052  0.066970708  0.067156458            6 
 3127000    0.7303656   -3.0289172    2506.6104  0.066800192  0.067143555            4 
 3128000   0.74069468   -3.0476336      2513.37  0.066958918  0.067130545            3 
 3129000   0.75433529   -3.0310253    2517.0517  0.067035573  0.067117378            3 
 3130000   0.75340168   -3.0390709    2516.9578  0.067011657  0.067104462            4 
 3131000   0.75625814   -3.0669593    2499.7787  0.066533022  0.067091294            4 
 3132000   0.75607904   -3.0425772    2508.6244  0.066747137  0.067078209            6 
 3133000   0.76589107   -3.0364154    2514.0917  0.066871254   0.06706508            5 
 3134000   0.75044722   -3.0519012    2513.7806  0.066841645  0.067051927           10 
 3135000   0.73522576     -3.06344    2513.9506  0.066824843   0.06703883            6 
 3136000   0.76212156   -3.0370432    2519.4093  0.066948588  0.067025629            7 
 3137000   0.75309353   -3.0379645    2521.3426  0.066978605  0.067012615            4 
 3138000    0.7378087   -3.0290863    2509.7635  0.066649765  0.066999509            3 
 3139000   0.75943274   -3.0354487    2520.5754  0.066915563  0.066986395            9 
 3140000   0.76077215   -3.0552364    2509.6017  0.066603016  0.066973189            5 
 3141000   0.73133943   -3.0351196    2515.0422  0.066726153  0.066959986            4 
 3142000   0.74523512   -3.0412477    2514.9505  0.066702484   0.06694688            4 
 3143000   0.75482792   -3.0611655     2515.137  0.066686207  0.066933793            3 
 3144000   0.75262168    -3.046766    2510.8218   0.06655062  0.066920631            4 
 3145000   0.75199314   -3.0559857    2509.7571  0.066501249  0.066907419            2 
 3146000   0.72269039   -3.0626133    2518.3686  0.066708216  0.066894187            4 
 3147000   0.76298583   -3.0124808    2517.6836  0.066668881  0.066881134            4 
 3148000   0.73254701   -3.0328744    2527.2846  0.066901858  0.066868033            7 
 3149000   0.74348833    -3.041161    2517.1484  0.066612374   0.06685476            5 
 3150000   0.76664134   -3.0552182    2514.2592  0.066514793  0.066841517            4 
 3151000   0.74077358   -3.0527014    2513.4822  0.066473135  0.066828291            3 
 3152000   0.72603095   -3.0529567    2517.0141  0.066545423  0.066815087            3 
 3153000    0.7405117   -3.0093567    2518.4608  0.066562554  0.066801957            3 
 3154000   0.73756469   -3.0422872     2524.382  0.066697898  0.066788895            6 
 3155000   0.73498817   -3.0269557    2513.8108  0.066397538  0.066775693            5 
 3156000   0.75204472   -3.0675356    2518.8299  0.066509029  0.066762477            6 
 3157000    0.7500798   -3.0282084    2523.9477  0.066623052  0.066749494            5 
 3158000   0.73716876   -3.0666043    2518.1104  0.066447921  0.066736269            5 
 3159000   0.75808681   -3.0257948    2523.5208  0.066569611  0.066723148            3 
 3160000   0.73826744    -3.039012    2518.4883  0.066415831  0.066710016            7 
 3161000   0.72983142     -3.06034    2513.3648   0.06625975  0.066696932            7 
 3162000   0.74879945   -3.0490033    2522.2353  0.066472573  0.066683699            4 
 3163000   0.73840476   -3.0505953    2522.6601   0.06646275  0.066670435            8 
 3164000   0.75237465   -3.0482976     2527.771  0.066576354  0.066657318            3 
 3165000   0.75287298   -3.0557176    2522.0878  0.066405681  0.066644278            8 
 3166000   0.76138808    -3.065962    2525.4341  0.066472788  0.066631322            9 
 3167000   0.74954795   -3.0582005    2521.6348  0.066351827  0.066618208            6 
 3168000   0.73734182   -3.0333165    2529.7955  0.066545546  0.066605192            5 
 3169000   0.73906244   -3.0480097    2527.6227   0.06646741  0.066592229            5 
 3170000   0.75278625   -3.0388406    2526.9833  0.066429633  0.066579168            5 
 3171000   0.72466327   -3.0471328    2527.3373  0.066417987  0.066566321            4 
 3172000      0.75972   -3.0428923      2538.25  0.066683744  0.066553427            5 
 3173000   0.73600354   -3.0394059    2523.6337  0.066278855  0.066540663            4 
 3174000   0.74439409   -3.0385845    2530.2247  0.066431021  0.066527713            5 
 3175000   0.73605087   -3.0424204    2534.1719  0.066513699  0.066514677            4 
 3176000   0.75401585   -3.0564662    2528.3055  0.066338829   0.06650174            8 
 3177000   0.72751071   -3.0330812    2535.6378  0.066510278  0.066488886            3 
 3178000   0.73117712   -3.0436556    2527.0919  0.066265258  0.066475952            4 
 3179000   0.73435162   -3.0487133    2530.7797  0.066341084  0.066463001            4 
 3180000   0.74676621   -3.0425455    2529.2474  0.066280068  0.066449969            3 
 3181000   0.74539424   -3.0629123    2532.4507   0.06634315  0.066437129            2 
 3182000   0.71985738    -3.042843    2536.1319  0.066418706  0.066424303            5 
 3183000   0.73429093   -3.0555814    2534.7915  0.066362748  0.066411439            5 
 3184000   0.75720337   -3.0461965    2530.5555  0.066231038   0.06639865            2 
 3185000   0.75520861   -3.0585075    2538.3441  0.066414026   0.06638579            9 
 3186000     0.745926   -3.0698703    2529.5789  0.066163917  0.066372715            6 
 3187000   0.74387531   -3.0565876    2531.3461  0.066189365   0.06635985            3 
 3188000    0.7318836   -3.0467796    2536.5134  0.066303675  0.066346954            7 
 3189000   0.75272729   -3.0467394    2531.5911  0.066154257  0.066333989            5 
 3190000   0.75355225   -3.0270133     2540.781  0.066373588  0.066321047            4 
 3191000   0.75787407   -3.0447641    2535.7117  0.066220403  0.066308172            5 
 3192000   0.74859803   -3.0647829    2535.7703  0.066201188  0.066295276            6 
 3193000   0.73567679   -3.0420927     2540.136  0.066294393  0.066282518            3 
 3194000   0.73988965   -3.0052114    2541.9806  0.066321764  0.066269732            4 
 3195000    0.7549222   -3.0386072    2537.4955  0.066184025  0.066256876            9 
 3196000   0.72759225    -3.079844    2536.2408  0.066130602  0.066243911            4 
 3197000   0.74681043   -3.0427188    2529.9987  0.065947208   0.06623095            8 
 3198000   0.73956692   -3.0456652     2540.815  0.066208439  0.066218078            4 
 3199000   0.74748262   -3.0485533    2537.0838  0.066090545  0.066205199            3 
 3200000   0.73943352   -3.0473361    2533.3541  0.065972764  0.066192253            5 
 3201000   0.73835947    -3.042428    2538.5907  0.066088479  0.066179451            3 
 3202000    0.7210459   -3.0681942    2545.3237  0.066243069  0.066166575            5 
 3203000   0.74169047    -3.053259    2532.8486   0.06589782  0.066153851            4 
 3204000   0.73135252   -3.0549425    2538.4167  0.066022075  0.066140994            8 
 3205000   0.70924702   -3.0373181    2540.9452  0.066067218  0.066128191            2 
 3206000   0.73582281   -3.0580734    2538.7984  0.065990809  0.066115455            3 
 3207000   0.74707871   -3.0638574    2543.5987  0.066094966  0.066102587            5 
 3208000   0.74507982   -3.0641917    2543.8003  0.066079602  0.066089783            7 
 3209000   0.74495571   -3.0859127    2544.9913  0.066089937  0.066076928            4 
 3210000   0.74076233    -3.073004    2543.9655  0.066042718  0.066064158            4 
 3211000   0.75198648   -3.0431787    2544.4166  0.066033857  0.066051416            4 
 3212000   0.73085444   -3.0536616    2551.5469  0.066198291  0.066038693            2 
 3213000   0.73934456   -3.0417074    2547.9843  0.066085286  0.066026033            8 
 3214000   0.73897381    -3.041619    2541.3109  0.065891694  0.066013312            7 
 3215000   0.73346583   -3.0310298    2544.4196  0.065951778  0.066000673            3 
 3216000   0.74850478   -3.0612773    2545.2005  0.065951506  0.065987973            2 
 3217000   0.74196309   -3.0538248    2540.4088   0.06580688  0.065975248            2 
 3218000   0.72711295   -3.0547386    2541.5165  0.065815114  0.065962336            7 
 3219000   0.74222184   -3.0826743    2547.3578   0.06594589  0.065949534           11 
 3220000    0.7211959   -3.0511463    2554.5007  0.066110266  0.065936873            3 
 3221000   0.72566935   -3.0496838    2537.8787    0.0656597  0.065924044            3 
 3222000   0.73144106   -3.0578583    2553.4637   0.06604241   0.06591126            4 
 3223000    0.7333645   -3.0673135    2548.3849    0.0658906  0.065898404            4 
 3224000   0.73189918   -3.0485786    2546.4572  0.065820336  0.065885661            7 
 3225000   0.72298329   -3.0633557    2538.1067  0.065584153  0.065872849            6 
 3226000   0.73373566   -3.0487886    2547.8805  0.065816297    0.0658601            4 
 3227000    0.7204213   -3.0739385    2545.5187   0.06573491  0.065847275            4 
 3228000   0.73462414   -3.0546093    2544.9164  0.065698998  0.065834414            3 
 3229000   0.73183403   -3.0617027    2550.3671  0.065819322  0.065821616            4 
 3230000   0.71611446    -3.075083    2542.1389  0.065586659  0.065808655            4 
 3231000   0.73479233   -3.0518192    2541.1487  0.065540821  0.065795833            8 
 3232000   0.72603913   -3.0702248    2557.1041  0.065931934  0.065783101            4 
 3233000   0.74010193   -3.0819052    2548.3043  0.065684718  0.065770268            5 
 3234000   0.73188282   -3.0518423    2546.9526  0.065629578  0.065757385            4 
 3235000   0.75670985   -3.0851148    2544.5746  0.065548032  0.065744505            4 
 3236000   0.73299827   -3.0576111    2549.2171  0.065647329  0.065731732            5 
 3237000   0.74837783     -3.06865    2552.3102  0.065706677  0.065719038            4 
 3238000   0.73782648    -3.055804    2556.0738  0.065783246  0.065706211            5 
 3239000   0.73174567   -3.0551873    2552.5743  0.065672901  0.065693592            5 
 3240000   0.73928335   -3.0651027    2555.4974  0.065727813  0.065680769            5 
 3241000   0.73099956   -3.0529935     2544.266   0.06541875  0.065668032            8 
 3242000   0.73451076   -3.0649631    2555.4377  0.065685733  0.065655269            4 
 3243000    0.7364147   -3.0712411    2553.2072  0.065608161  0.065642555            3 
 3244000   0.73830582   -3.0577715    2554.9203  0.065631943  0.065629759            5 
 3245000   0.72469059    -3.059616     2554.348  0.065597021  0.065616862            6 
 3246000   0.74346331    -3.086526    2548.9656  0.065438632   0.06560399            4 
 3247000    0.7184395   -3.0701462    2548.8352  0.065415132  0.065591008            4 
 3248000    0.7367035   -3.0732395    2556.7499  0.065598058  0.065578096            5 
 3249000   0.73897019   -3.0801159    2546.8386  0.065323654  0.065565104            6 
 3250000   0.71457133   -3.0612007    2557.1951  0.065569104  0.065552311            3 
 3251000   0.72617231   -3.0458895    2548.5924  0.065328423  0.065539397            4 
 3252000   0.73103069     -3.08505     2559.587  0.065590073  0.065526539           15 
 3253000   0.73521372   -3.0734291    2553.4953  0.065413857   0.06551372            5 
 3254000   0.73230181   -3.0374404    2560.3312  0.065568818  0.065501001            5 
 3255000   0.73754541   -3.0752843    2562.8284  0.065612605  0.065488149            6 
 3256000   0.74089974   -3.0759248    2553.4439  0.065352271  0.065475353            6 
 3257000   0.72807435   -3.0940669    2567.2464  0.065685355  0.065462484            5 
 3258000   0.73086566   -3.0757432    2553.3586  0.065309969   0.06544951            4 
 3259000   0.73854135   -3.0655385    2555.4863  0.065344336  0.065436577            5 
 3260000   0.71962847   -3.0836383     2561.744  0.065484253  0.065423657            9 
 3261000   0.75193926   -3.0550357    2558.8488  0.065390187  0.065410778            7 
 3262000    0.7205696   -3.0718048    2558.3196  0.065356622  0.065397973            6 
 3263000    0.7173423   -3.0750328     2547.389  0.065057436  0.065385039            4 
 3264000   0.73220769   -3.0663001    2553.5364  0.065194454  0.065372104            3 
 3265000   0.72026239   -3.0760554    2553.3146  0.065168825  0.065359142            4 
 3266000   0.73367894   -3.0706205    2552.3609  0.065124538  0.065346222            2 
 3267000   0.71638895   -3.0500202    2563.7378  0.065394801  0.065333533            3 
 3268000   0.74017719   -3.0711735    2562.3203  0.065338644  0.065320761            3 
 3269000   0.71310119   -3.0632132    2556.0467  0.065158732  0.065307822            4 
 3270000   0.72759346   -3.0624669    2559.2321  0.065219983  0.065294982            4 
 3271000   0.70973344   -3.0657723    2564.3158  0.065329558   0.06528218            2 
 3272000   0.72299541   -3.0716322    2561.8184  0.065245985  0.065269236            5 
 3273000   0.72810085   -3.0688125    2562.1988  0.065235737  0.065256313            6 
 3274000   0.72530723   -3.0464285    2561.0535  0.065186659  0.065243264            4 
 3275000   0.70797231   -3.0566678    2560.9594  0.065164361  0.065230332            4 
 3276000   0.72373975   -3.0704002    2550.6174  0.064881395  0.065217396            3 
 3277000   0.73436719   -3.0618221    2561.3215  0.065133799  0.065204465            5 
 3278000   0.72024653   -3.0843077    2556.9318  0.065002334  0.065191557            5 
 3279000    0.7434727   -3.0555304    2558.4918  0.065022156   0.06517857            4 
 3280000   0.71410837   -3.0505869    2558.2449   0.06499606  0.065165588            7 
 3281000   0.72186129   -3.0636013    2553.3733  0.064852517  0.065152673            6 
 3282000   0.70253763   -3.0578566    2564.3054  0.065110333  0.065139761            3 
 3283000   0.74164941   -3.0663989    2564.9542  0.065106969  0.065126873            6 
 3284000   0.74026704   -3.0648343    2569.3431  0.065198516  0.065114004            3 
 3285000   0.74428123   -3.0652205    2570.0508   0.06519662  0.065101129            7 
 3286000   0.70974797   -3.0760284    2563.4157  0.065008513  0.065088202            3 
 3287000   0.71174369   -3.0885803    2565.1653  0.065033091  0.065075229            4 
 3288000   0.73513577   -3.0856451    2560.7114   0.06490043  0.065062269            4 
 3289000   0.72997103   -3.0811805    2559.5162  0.064850417  0.065049311            4 
 3290000   0.72387343   -3.0843847    2561.5419  0.064882012   0.06503636            3 
 3291000   0.72164792   -3.0842718    2565.2069  0.064955103   0.06502343            5 
 3292000   0.73177192   -3.0719567    2556.2006  0.064707386  0.065010536            6 
 3293000   0.74400297    -3.067646    2565.2063  0.064915637  0.064997676            5 
 3294000   0.70027381    -3.087773    2566.6202  0.064931699  0.064984785            5 
 3295000    0.7188063   -3.0852495    2560.8323  0.064765612  0.064971859            6 
 3296000    0.7215658   -3.0877878    2563.8919   0.06482332   0.06495905           11 
 3297000    0.7300844   -3.0707618     2566.766  0.064876301  0.064946249            5 
 3298000   0.71485772   -3.0822924    2575.3932   0.06507462  0.064933496            4 
 3299000   0.74027894   -3.0683897    2567.5553  0.064856909  0.064920723            7 
 3300000   0.71791936   -3.0899779    2575.1453  0.065028921  0.064907918            8 
 3301000   0.72566493   -3.0855289    2564.3819  0.064737502  0.064895138            3 
 3302000   0.71995938   -3.0737719    2577.8007   0.06505655  0.064882363            5 
 3303000   0.74352999   -3.0686888    2576.9151   0.06501451  0.064869647           11 
 3304000    0.7186926   -3.0710741    2578.5838   0.06503692  0.064857045            3 
 3305000   0.72560209   -3.0811882    2580.1333   0.06505631  0.064844357            5 
 3306000   0.72182852   -3.0952725    2568.1114  0.064733602  0.064831606            3 
 3307000   0.73883043   -3.0786439    2566.8753  0.064682877  0.064818755            8 
 3308000   0.72062578   -3.0969637    2571.2705  0.064774044  0.064805978            6 
 3309000   0.71305296   -3.0592697    2571.2171  0.064753124  0.064793258            3 
 3310000   0.72011076   -3.0928181    2574.6233  0.064819318  0.064780428            7 
 3311000   0.73617742   -3.0732329    2572.8732  0.064755693  0.064767602            5 
 3312000   0.72978643    -3.082296    2573.9133   0.06476231    0.0647548            9 
 3313000   0.73335649   -3.0734549    2570.8237  0.064665049  0.064742077            6 
 3314000   0.73407286   -3.0858214    2577.7162  0.064818855  0.064729386            3 
 3315000   0.71653219   -3.0790858      2564.62  0.064470085  0.064716584            3 
 3316000   0.71705179   -3.0539759    2575.7381  0.064730048  0.064703709            2 
 3317000   0.73158503   -3.0606394    2573.4259  0.064652445  0.064690838            6 
 3318000   0.72852666   -3.0844368    2570.2479  0.064553143  0.064678007            4 
 3319000   0.71475709   -3.0859439    2576.6947  0.064695559  0.064665111            4 
 3320000   0.73358016    -3.052138    2570.9663  0.064532287  0.064652389            2 
 3321000   0.71155504   -3.0674771    2579.8516  0.064735812  0.064639638            4 
 3322000   0.72670346   -3.0827014    2577.0022  0.064644846   0.06462692            2 
 3323000   0.71951057   -3.0723753    2577.2581  0.064631812   0.06461422            4 
 3324000   0.71960956   -3.0630813    2574.3343  0.064539067   0.06460153            5 
 3325000   0.72545169   -3.0605705    2572.9432  0.064484793  0.064588662            3 
 3326000   0.70542761   -3.0868936    2572.9225  0.064464885  0.064575759            4 
 3327000   0.73063992   -3.0783338     2572.058  0.064423855  0.064562804            6 
 3328000   0.71503014   -3.0941868    2575.0652  0.064479797  0.064550061            4 
 3329000   0.72150855   -3.1022191    2575.0319  0.064459596  0.064537247            8 
 3330000    0.7090524   -3.0952392    2569.9084  0.064312023  0.064524365            8 
 3331000   0.73440578   -3.0725221    2582.9549  0.064619106  0.064511547            4 
 3332000   0.70111723   -3.0657811    2583.0963  0.064603249  0.064498757            3 
 3333000   0.71862197   -3.0930397    2573.7913  0.064351217  0.064485837           12 
 3334000   0.71485755   -3.0913367    2575.7432  0.064380704  0.064472955            9 
 3335000   0.71863247   -3.0809354    2579.0682  0.064444483  0.064460146            4 
 3336000   0.69779897   -3.0969778    2579.3891  0.064433181  0.064447366            3 
 3337000   0.73364318   -3.0788848    2577.9923   0.06437899   0.06443464            4 
 3338000   0.70761905   -3.0810158    2576.8086  0.064330153  0.064421982            3 
 3339000   0.72586654   -3.0855048    2580.4066  0.064400684  0.064409253            7 
 3340000   0.72023587   -3.0916287    2577.1435  0.064299986  0.064396503            6 
 3341000   0.72222867   -3.0640488    2575.1703  0.064231525  0.064383709            6 
 3342000   0.70871744   -3.0755468    2586.1654  0.064486471  0.064370989            4 
 3343000   0.72135955   -3.0950128    2585.8242  0.064458675  0.064358239            5 
 3344000   0.72474523   -3.0823766    2578.7268  0.064262529  0.064345487            2 
 3345000   0.72914425   -3.0838756     2571.364  0.064059891  0.064332629           16 
 3346000    0.7214805    -3.083119    2580.8083  0.064275959  0.064319749            4 
 3347000   0.72321698   -3.0905066    2577.6767  0.064178785  0.064306902            4 
 3348000    0.7276498   -3.0864235     2584.668  0.064333631  0.064294035            3 
 3349000   0.73069306   -3.0738574    2574.4907   0.06406118   0.06428117            3 
 3350000   0.72089614   -3.0946323    2583.3282  0.064261896   0.06426832           19 
 3351000   0.72207836    -3.078231    2574.9748  0.064034985  0.064255467            3 
 3352000   0.71514967   -3.0992654    2583.1893    0.0642201   0.06424264            6 
 3353000   0.70817854   -3.0894888    2581.2354  0.064152387  0.064229837            5 
 3354000   0.70549345   -3.0938566    2590.2806  0.064357995  0.064217017            5 
 3355000   0.72032983   -3.1134575    2584.9832  0.064207233  0.064204279            5 
 3356000    0.7329568   -3.0946526    2585.5999  0.064203415  0.064191519            3 
 3357000   0.70657295   -3.0874019    2573.9392  0.063894828   0.06417873            3 
 3358000   0.71161359   -3.0959575    2591.8999  0.064321519   0.06416583            3 
 3359000   0.72468179   -3.0723781    2589.3302  0.064238617   0.06415312            6 
 3360000   0.71543989   -3.1109325    2591.3061  0.064268505  0.064140295            4 
 3361000   0.72729445   -3.0856412    2585.3466  0.064101621  0.064127577            4 
 3362000   0.70934138   -3.0732782    2577.3782  0.063885043   0.06411479            4 
 3363000   0.69813654   -3.0772595    2585.7068  0.064072425  0.064102043            6 
 3364000    0.7129279   -3.0762347    2582.7426   0.06397995  0.064089186            5 
 3365000   0.72573117   -3.0977933    2591.1859  0.064170032  0.064076307            4 
 3366000   0.72783309    -3.100399    2593.8932  0.064217995  0.064063367            6 
 3367000   0.70503432    -3.068643    2583.1589  0.063933246  0.064050519            4 
 3368000   0.71344696   -3.0790276    2589.0503  0.064060032  0.064037675            5 
 3369000   0.71199197   -3.1026283    2578.0955  0.063770049  0.064024884            5 
 3370000   0.71339597   -3.0814683    2590.8171  0.064065704   0.06401206            4 
 3371000   0.71752485   -3.1002571    2582.2632  0.063835242  0.063999256            5 
 3372000    0.7253279   -3.0858773    2584.6594   0.06387553  0.063986472            3 
 3373000   0.72913189   -3.0944396    2590.8227  0.064008862  0.063973671            5 
 3374000   0.72151189   -3.1019873     2577.558   0.06366227  0.063960891            5 
 3375000   0.70111507    -3.107153    2590.0251  0.063951237  0.063948146            5 
 3376000   0.71347291   -3.0959984     2590.764  0.063950534  0.063935393            6 
 3377000   0.71151791    -3.113555    2585.6857  0.063806279  0.063922626            9 
 3378000   0.70727799    -3.102496    2590.8962   0.06391593  0.063909836            8 
 3379000   0.70404606   -3.1023103    2604.7974   0.06423985  0.063897101            5 
 3380000   0.69970942   -3.0892377    2590.9878  0.063880369  0.063884338            4 
 3381000   0.72488491   -3.1032555    2588.0092  0.063788061  0.063871676            5 
 3382000   0.71499238   -3.0744331    2604.3898  0.064172822  0.063859102            5 
 3383000   0.70271119   -3.1144409    2595.0007   0.06392257  0.063846414            5 
 3384000   0.71125967   -3.0923344    2603.4737  0.064112335   0.06383365            8 
 3385000   0.70614876   -3.0864178    2595.6134  0.063899886  0.063821053            9 
 3386000   0.70948377   -3.0803859    2589.0757  0.063720115   0.06380844            5 
 3387000   0.70773431   -3.0900253    2600.3668  0.063979107  0.063795828            3 
 3388000   0.71098286   -3.0948808    2593.3312  0.063787171  0.063783269            5 
 3389000    0.6928978   -3.0976185    2584.3155  0.063546658  0.063770528            7 
 3390000   0.71360032   -3.0853223    2604.6429  0.064027603  0.063757915            6 
 3391000    0.6962618   -3.0674051    2590.8646  0.063670123  0.063745267            4 
 3392000   0.72607569   -3.1303449     2599.007  0.063851391   0.06373259           11 
 3393000   0.70445963   -3.1102492    2596.4628  0.063770086  0.063719936            7 
 3394000    0.7101204   -3.1128431    2593.5577  0.063679968  0.063707267            6 
 3395000   0.70249757   -3.1218937    2594.3909  0.063681661  0.063694581           10 
 3396000   0.71911541   -3.0986567    2593.2666  0.063635321  0.063682016            4 
 3397000   0.72304792   -3.1054083    2604.3887  0.063889429  0.063669446            3 
 3398000   0.71039742   -3.1064745    2604.9664  0.063884794  0.063656767            8 
 3399000    0.7105556   -3.1045607    2596.0121  0.063646467  0.063644031            5 
 3400000   0.70665706   -3.0985318    2606.4768  0.063884234  0.063631517            5 
 3401000   0.70714674   -3.0833514    2595.3962  0.063593949  0.063618922           10 
 3402000   0.71346772   -3.1079287    2602.0377  0.063737941  0.063606342            4 
 3403000   0.71065792   -3.0881926    2612.6098  0.063978103  0.063593855            5 
 3404000    0.6950048   -3.0850489    2600.5989  0.063665269   0.06358139            5 
 3405000   0.70796974   -3.1091291    2586.9283  0.063311999  0.063568827            4 
 3406000    0.6977586   -3.0925857    2599.4109  0.063598819  0.063556166            6 
 3407000     0.699199   -3.1193843    2596.9664  0.063520361  0.063543512            7 
 3408000   0.70807236   -3.1015499    2609.4061  0.063805899  0.063530878            5 
 3409000   0.70811636   -3.0820596    2603.7365  0.063648589  0.063518336            3 
 3410000   0.68913377   -3.0935328    2611.8636  0.063828534  0.063505843            4 
 3411000   0.70568392   -3.1115488     2609.211  0.063745016  0.063493232            4 
 3412000   0.71288927   -3.0919969    2598.3085  0.063460054  0.063480608            4 
 3413000   0.70934554   -3.0881219    2609.5919  0.063716961  0.063468065           14 
 3414000   0.73198928   -3.1097554    2608.6621  0.063675602  0.063455483            5 
 3415000   0.69845267   -3.1043536    2610.1501  0.063693268   0.06344293            4 
 3416000   0.70270441   -3.0991611    2597.3787  0.063363064  0.063430387            8 
 3417000    0.7259646   -3.1093453    2603.1936  0.063486334  0.063417783            3 
 3418000   0.69276156   -3.0983496    2606.4067  0.063546097  0.063405241            6 
 3419000   0.71158299   -3.1017904     2608.713  0.063583723  0.063392688            7 
 3420000   0.70754105   -3.0866771    2603.7516   0.06344424  0.063380138            8 
 3421000   0.72015487    -3.100588    2599.6548  0.063325899  0.063367613            3 
 3422000   0.70278594   -3.0955785    2607.7251  0.063503922  0.063355122            3 
 3423000    0.7166233   -3.0986978    2608.1396  0.063495462   0.06334255            5 
 3424000   0.69928307   -3.1169495    2601.5884  0.063317474  0.063330035           15 
 3425000   0.70411791    -3.111767    2608.8454  0.063475558  0.063317607            8 
 3426000   0.69809227   -3.1278269     2614.346  0.063590826  0.063305237            9 
 3427000   0.70709227   -3.1223217    2602.2415  0.063277929  0.063292663            6 
 3428000   0.68876565   -3.1286957    2603.2193  0.063283238  0.063280045            9 
 3429000   0.70021245   -3.1169277    2607.8887  0.063378261   0.06326748           10 
 3430000   0.69658567   -3.0981508    2608.8623  0.063383439    0.0632551            6 
 3431000   0.69982654   -3.1001107    2608.6536  0.063359896  0.063242741            3 
 3432000   0.71748543   -3.0973169    2603.9986  0.063228405  0.063230338            6 
 3433000   0.70561673   -3.1047733    2609.1702  0.063335522  0.063217937            6 
 3434000    0.6991455   -3.1121884    2605.9882  0.063239861   0.06320544            5 
 3435000   0.72087209   -3.0923747     2611.863  0.063363974  0.063193014            4 
 3436000   0.68604997   -3.1162528    2611.3055  0.063332011  0.063180563            9 
 3437000   0.70590861   -3.1299142    2605.5016  0.063172863  0.063168067            7 
 3438000   0.69319416   -3.1058012    2610.3221  0.063271334  0.063155522            5 
 3439000    0.7029027   -3.1213842     2609.679   0.06323735  0.063143165            5 
 3440000   0.69108374   -3.1060337    2622.0192  0.063517907  0.063130748            2 
 3441000   0.70587826   -3.1215055    2613.9761  0.063304661  0.063118302            5 
 3442000   0.69824396   -3.0989082    2607.5643  0.063131036  0.063105723           11 
 3443000   0.70087995    -3.110147    2607.7782  0.063117876   0.06309313            3 
 3444000   0.69485557   -3.1200625    2621.6354  0.063434847  0.063080619            6 
 3445000   0.69508415   -3.0927626    2611.0609  0.063160641  0.063068125            2 
 3446000   0.70176668   -3.1025608    2621.2938  0.063389772  0.063055618            6 
 3447000   0.69334392   -3.0989338    2612.1617  0.063150606  0.063043263            6 
 3448000   0.71365749   -3.1154915    2610.0749  0.063081858  0.063030762            4 
 3449000   0.71172984   -3.1033643    2614.3107  0.063165911  0.063018323            5 
 3450000   0.70471592   -3.1178725    2614.7593  0.063158437  0.063005967            5 
 3451000   0.69449995   -3.1004429     2625.313  0.063394982  0.062993577            5 
 3452000    0.6923027   -3.1180897    2620.8438  0.063268727    0.0629813            5 
 3453000   0.70180831   -3.1147909    2624.3234   0.06333438  0.062969125           10 
 3454000   0.71685062   -3.1257893    2617.2369  0.063145072  0.062956839            6 
 3455000   0.69527885   -3.1209753    2620.1728  0.063197607  0.062944459            5 
 3456000   0.70968718   -3.1071111    2618.7527  0.063145078  0.062932066            4 
 3457000   0.70250468   -3.1427143    2616.8327  0.063080531   0.06291961            4 
 3458000   0.70110782   -3.1171396    2611.5124  0.062934075  0.062907246            3 
 3459000   0.71751399   -3.0932853      2619.59  0.063110485  0.062894854            5 
 3460000   0.68358399   -3.1055737    2620.7742  0.063120767  0.062882518            4 
 3461000   0.69919084   -3.1252604    2613.4081  0.062925168  0.062870138            4 
 3462000    0.6999071   -3.1215509    2623.8505  0.063158349  0.062857822            4 
 3463000   0.70677812   -3.1007415    2628.1096  0.063242603  0.062845541            6 
 3464000   0.68313146   -3.1057139    2623.5515  0.063114692  0.062833268            5 
 3465000   0.70465069   -3.1052815    2628.0072  0.063203637  0.062820869            3 
 3466000   0.71168521   -3.1163178    2628.8662  0.063206054  0.062808684            4 
 3467000   0.69271503    -3.122326    2620.7881  0.062993657  0.062796492            4 
 3468000   0.70886246   -3.1149811    2627.6898  0.063141336  0.062784178            5 
 3469000   0.69426207   -3.1047846    2619.7682  0.062932839  0.062771905            3 
 3470000   0.69525185   -3.1183829    2624.3654  0.063025105  0.062759618           12 
 3471000   0.68459487    -3.105979    2630.5349  0.063155067  0.062747274            3 
 3472000   0.69322437   -3.1374618    2621.4761  0.062919453  0.062735115            8 
 3473000   0.70839331   -3.1160055    2628.5184  0.063070314   0.06272291            7 
 3474000   0.69393459   -3.1148108    2628.0085  0.063039928  0.062710773            7 
 3475000   0.70496164   -3.1309334    2627.6171    0.0630124   0.06269855            9 
 3476000   0.69895302   -3.1344327    2621.4682   0.06284686  0.062686402            5 
 3477000   0.69661338   -3.1269841    2621.2183  0.062822795  0.062674282            3 
 3478000   0.70088434   -3.1027763    2633.4288  0.063097298  0.062662092            5 
 3479000   0.69601876   -3.1161153    2633.6952  0.063085541  0.062649979            3 
 3480000   0.69638875   -3.1063576      2632.05  0.063028018  0.062637954            6 
 3481000   0.70818813   -3.1062801    2635.8349  0.063100519  0.062625917            4 
 3482000   0.69861467   -3.1201841    2636.4474  0.063097056  0.062613768            4 
 3483000   0.69165946   -3.1035905    2635.3503  0.063052692   0.06260158            3 
 3484000   0.71407773   -3.1243723    2626.6548  0.062826608  0.062589476            6 
 3485000   0.69580566   -3.1340697    2631.2315  0.062918018  0.062577271            6 
 3486000   0.69240587   -3.1242421    2628.5932    0.0628369  0.062565166            3 
 3487000   0.69387559   -3.1313397    2631.1336  0.062879592  0.062553028            7 
 3488000   0.69665307    -3.129622    2636.0324  0.062978603  0.062540884            5 
 3489000   0.68974674    -3.120568    2631.4875     0.062852  0.062528822            4 
 3490000   0.68524533   -3.1277843    2637.2673  0.062971999  0.062516823            4 
 3491000   0.69344819   -3.0997189    2643.3096  0.063098196  0.062504834            5 
 3492000   0.69212092   -3.1120078    2629.9921  0.062762315  0.062492887            5 
 3493000   0.70861508   -3.1281246    2633.9999  0.062839962  0.062480964            7 
 3494000   0.68694278   -3.1208202    2641.3091  0.062996306  0.062468959            4 
 3495000   0.70674276   -3.1431309    2631.4765  0.062743837  0.062456867            7 
 3496000   0.69151969   -3.0969347     2632.721  0.062755555  0.062444975            4 
 3497000   0.69557317   -3.1166699    2631.3197  0.062704216  0.062432882           10 
 3498000   0.70382154   -3.1339911    2638.7003  0.062862118  0.062420736            6 
 3499000   0.67793806    -3.109117    2642.5988     0.062937  0.062408678            4 
 3500000     0.693755   -3.0993094     2641.592  0.062895047  0.062396545            4 
 3501000    0.6899617   -3.1406383    2641.4663  0.062874091  0.062384426            6 
 3502000   0.70408007   -3.1202912    2637.4977  0.062761701  0.062372325            3 
 3503000   0.68711078    -3.123491    2638.4318  0.062766005  0.062360369            5 
 3504000   0.68491809   -3.1393047    2631.7972  0.062590307  0.062348391            5 
 3505000   0.70990323   -3.1020342    2642.4337  0.062825338  0.062336396            3 
 3506000    0.6804027    -3.105131    2638.2236  0.062707349  0.062324461            5 
 3507000   0.68494985   -3.1442689    2647.2445  0.062903822  0.062312611            6 
 3508000   0.68834271   -3.1220261    2642.5622  0.062774663  0.062300665            4 
 3509000   0.70131363   -3.1371161    2640.1902  0.062700441   0.06228865            4 
 3510000   0.68940472   -3.1273743    2644.7253  0.062790249  0.062276714            6 
 3511000   0.69160671    -3.117309    2638.0287  0.062613422  0.062264803            6 
 3512000   0.68411495   -3.1447923    2638.7235  0.062612079   0.06225282            6 
 3513000   0.69393682   -3.1403046    2634.0628  0.062483698  0.062240774            3 
 3514000   0.68872481   -3.1309326    2636.2052  0.062516723  0.062228669           10 
 3515000   0.68964009   -3.1249927    2636.3029  0.062501253  0.062216602            4 
 3516000   0.67952126   -3.1198259    2635.9862  0.062475972  0.062204612            9 
 3517000   0.67832762   -3.0998614    2637.2571  0.062488321  0.062192633            7 
 3518000   0.68086921   -3.1271925    2635.9379  0.062439309  0.062180612            4 
 3519000   0.67927986   -3.1216255     2642.521  0.062577459  0.062168632            7 
 3520000   0.69782606   -3.1194104    2648.7843  0.062707961  0.062156566            6 
 3521000   0.68880326   -3.1428736    2645.6399  0.062615731  0.062144485            7 
 3522000   0.68839488   -3.1499004    2634.3715  0.062331334  0.062132415            7 
 3523000   0.68587652     -3.14028    2646.0291   0.06258939  0.062120296            6 
 3524000   0.69190968   -3.1340012    2643.9759  0.062523076  0.062108172            8 
 3525000   0.68902893   -3.1259943    2646.3492  0.062561446  0.062096107            8 
 3526000   0.67469212   -3.1537782    2640.7035  0.062410273  0.062084072            5 
 3527000   0.68011091   -3.1277479    2641.2794  0.062406186  0.062072097            5 
 3528000   0.68621468   -3.1448809    2642.4423  0.062415964  0.062060024            7 
 3529000    0.6886735   -3.1399168    2634.4622  0.062209838  0.062047955            6 
 3530000   0.68547794   -3.1237765    2649.7704  0.062553597  0.062035952            5 
 3531000   0.68836388   -3.1259461    2644.7057  0.062416352  0.062023821            5 
 3532000   0.68004894   -3.1398443    2643.7241  0.062375522  0.062011784            4 
 3533000   0.68443654   -3.1357543    2652.1672  0.062557015  0.061999715            4 
 3534000   0.70213918   -3.1416036    2641.3712  0.062284739  0.061987677            6 
 3535000   0.68453623   -3.1382515    2647.0746   0.06240157  0.061975645            6 
 3536000   0.68367565   -3.1224875    2648.6588  0.062421257  0.061963582            7 
 3537000   0.67386182   -3.1330712    2642.5245  0.062259082  0.061951414            5 
 3538000   0.67823465   -3.1147978    2637.2626  0.062117547   0.06193926            5 
 3539000   0.68554198   -3.1477779     2648.327   0.06236053  0.061927139            6 
 3540000   0.66838716   -3.1113266    2646.1299  0.062291193  0.061914986            3 
 3541000   0.68520039   -3.1195398     2642.983  0.062199544  0.061902799            7 
 3542000   0.66106676   -3.1400944     2640.754  0.062129542  0.061890665            4 
 3543000   0.67226321   -3.1434185       2644.6  0.062202465  0.061878468            7 
 3544000   0.68289304   -3.1072227    2645.1411  0.062197637  0.061866282            4 
 3545000   0.68449183   -3.1296893    2640.6399  0.062074281   0.06185414            6 
 3546000   0.68075445   -3.1564358    2646.2712  0.062189114  0.061841913            5 
 3547000    0.6660554   -3.1347656    2645.6699  0.062157453  0.061829674           13 
 3548000   0.67776808   -3.1288629    2650.3711  0.062250355  0.061817458            5 
 3549000   0.67599072    -3.141853     2645.501   0.06211846  0.061805214            7 
 3550000   0.68689083   -3.1283753    2646.7099  0.062129341  0.061792985            5 
 3551000   0.69595748   -3.1523138     2639.732  0.061948091  0.061780782            3 
 3552000   0.68440033   -3.1195703    2645.3163  0.062061664  0.061768547            7 
 3553000   0.68680968   -3.1428564    2639.4614  0.061906872  0.061756239           13 
 3554000   0.68672598   -3.1241527    2643.0791  0.061974281  0.061743807            4 
 3555000   0.69739737   -3.1568394    2643.5498   0.06196788  0.061731511            9 
 3556000   0.68617742   -3.1662176    2638.9154  0.061841849  0.061719123            8 
 3557000   0.69463902   -3.1529977    2642.5871  0.061910483  0.061706684            8 
 3558000   0.67719867   -3.1349717    2653.7283  0.062154025  0.061694262            4 
 3559000   0.67042113   -3.1177297    2648.9868  0.062025542  0.061682027            8 
 3560000   0.69251303   -3.1376505    2641.4928  0.061832696  0.061669719            7 
 3561000   0.68201561    -3.132787    2644.7028  0.061890452  0.061657364           11 
 3562000   0.69418181   -3.1492247    2638.1492  0.061719754  0.061645082            7 
 3563000   0.67041148   -3.1322921    2647.8475  0.061929262  0.061632766           11 
 3564000   0.67860553   -3.1326741    2638.4334  0.061691764  0.061620353            7 
 3565000   0.66979586   -3.1351812    2633.3858   0.06155647  0.061607992            4 
 3566000   0.67063674   -3.1191206    2644.7618  0.061805052  0.061595697           10 
 3567000   0.67071468   -3.1348501    2649.2297  0.061892105  0.061583284            5 
 3568000   0.67683661    -3.134728    2639.0801  0.061637707  0.061570971            6 
 3569000   0.68385023   -3.1560017    2650.1571  0.061879077  0.061558611            6 
 3570000   0.67859189   -3.1551109    2641.4326   0.06165809   0.06154623            5 
 3571000    0.6749808   -3.1307799    2649.6372  0.061832288  0.061533752            4 
 3572000   0.69106927   -3.1518148    2648.0518  0.061777991  0.061521297            7 
 3573000   0.66633753    -3.153631    2645.1606  0.061693268  0.061508905            5 
 3574000    0.6756149   -3.1303564    2647.7996  0.061737539   0.06149653            4 
 3575000   0.68042653   -3.1347379    2646.5785  0.061691806  0.061484111            2 
 3576000   0.68013924   -3.1184459    2643.7507  0.061608656   0.06147168            7 
 3577000   0.66800603    -3.143624    2647.4007  0.061676468  0.061459225            4 
 3578000   0.67818358   -3.1153472    2648.2704  0.061679486  0.061446944            4 
 3579000   0.66120955     -3.14587    2651.1687  0.061729736   0.06143456            8 
 3580000   0.68789589   -3.1620846    2644.1661   0.06154949  0.061422167            6 
 3581000   0.68039059   -3.1392124    2632.6335  0.061263927  0.061409725           16 
 3582000   0.66843499   -3.1363722    2649.4773  0.061638686  0.061397279            8 
 3583000    0.6825374   -3.1596542    2641.6351   0.06143909  0.061384803            6 
 3584000   0.68388367   -3.1569224    2644.2602  0.061482984  0.061372231            3 
 3585000   0.67633582   -3.1472232    2649.7957  0.061594507   0.06135971            3 
 3586000   0.67956796   -3.1333476     2645.118  0.061468629  0.061347199            3 
 3587000   0.68245023   -3.1294983    2640.6104  0.061346771  0.061334794            4 
 3588000   0.68487732   -3.1699719    2640.6617  0.061330865  0.061322217            3 
 3589000   0.68293754    -3.153202     2644.441  0.061401527  0.061309672           12 
 3590000   0.67153919   -3.1413121    2639.4581  0.061268759  0.061297078            6 
 3591000   0.67729622   -3.1451497    2644.8448  0.061376701  0.061284506            7 
 3592000   0.67074931   -3.1458536    2646.3749  0.061395111  0.061271971            8 
 3593000   0.66100671   -3.1527001    2649.9377  0.061460658  0.061259504           15 
 3594000   0.67505161   -3.1409459    2656.3574  0.061592409  0.061247049            5 
 3595000   0.67909341   -3.1466438    2645.1739  0.061316038  0.061234519            5 
 3596000   0.67520668   -3.1488214    2648.2112  0.061369374  0.061221936            4 
 3597000   0.66718523   -3.1593775     2639.519  0.061150935  0.061209352            8 
 3598000   0.67930205    -3.136396    2650.1726  0.061380688  0.061196758           10 
 3599000   0.67863779   -3.1402027     2651.387  0.061391753  0.061184303            4 
 3600000   0.67156901    -3.138933    2645.1199  0.061229626  0.061171775            5 
 3601000     0.682885   -3.1526224     2642.861   0.06116035  0.061159217            5 
 3602000   0.66867906   -3.1458944    2651.0535  0.061332904  0.061146684            8 
 3603000   0.67926277   -3.1592468    2646.5341  0.061211354  0.061134156            6 
 3604000   0.66436201   -3.1420217    2652.1857  0.061325048  0.061121675            9 
 3605000   0.67573979   -3.1499913    2650.0898  0.061259589  0.061109228            6 
 3606000   0.69274106   -3.1342384    2655.3116  0.061363273   0.06109688            8 
 3607000   0.65873747   -3.1406821     2650.161  0.061227266  0.061084464           36 
 3608000    0.6791793    -3.138972    2648.2436  0.061166011  0.061072022            8 
 3609000   0.66200097   -3.1344016    2661.0089  0.061443818  0.061059598            3 
 3610000   0.67477053   -3.1430081    2652.4395  0.061228983  0.061047211            5 
 3611000   0.67180222   -3.1359501    2649.8297  0.061151799   0.06103477            6 
 3612000   0.66503131   -3.1456336    2645.1826  0.061027653  0.061022323            7 
 3613000    0.6896567   -3.1420224    2646.4872  0.061040852  0.061009956            5 
 3614000   0.68291315   -3.1695315    2655.9057  0.061241138  0.060997517           11 
 3615000   0.66589265   -3.1469209    2650.0505  0.061089223  0.060985045            6 
 3616000   0.66465295   -3.1376796    2648.9169  0.061046203   0.06097254            5 
 3617000    0.6812816   -3.1858868    2638.2293  0.060783092  0.060960052            4 
 3618000   0.66697157   -3.1495118    2652.6546   0.06109855  0.060947543            4 
 3619000   0.66627015    -3.130241    2645.8583   0.06092517   0.06093509            7 
 3620000   0.66321467   -3.1482066    2653.6287  0.061087216  0.060922628            5 
 3621000   0.67443876   -3.1336622    2661.0728  0.061241664  0.060910152            6 
 3622000    0.6727694   -3.1625941    2654.6843  0.061077771  0.060897615            2 
 3623000   0.69425596    -3.188893     2645.765  0.060855761  0.060885041            9 
 3624000   0.67881439   -3.1549219    2649.9597  0.060935423  0.060872441            3 
 3625000   0.67441757   -3.1646702    2651.7649  0.060960112  0.060859887            3 
 3626000   0.66635671   -3.1440777    2654.1831  0.060998875  0.060847425            4 
 3627000   0.65409723   -3.1305591    2650.0629  0.060887393  0.060834978           10 
 3628000   0.65678727   -3.1721692     2654.989   0.06098376   0.06082249            3 
 3629000    0.6805257   -3.1444536    2660.1876  0.061086332   0.06081001            3 
 3630000    0.6650636   -3.1337592    2652.9791  0.060904019  0.060797566            5 
 3631000    0.6751989   -3.1634609    2646.8849  0.060747381  0.060785129            7 
 3632000    0.6624315   -3.1497588    2650.6782   0.06081769  0.060772613            7 
 3633000   0.68056726   -3.1558535    2649.9239  0.060783648   0.06076005            5 
 3634000   0.67562114   -3.1419547    2651.4392  0.060801669  0.060747613            4 
 3635000   0.66795459   -3.1681837    2648.9942  0.060728891   0.06073517            6 
 3636000   0.67629221   -3.1602964    2651.7407  0.060775135  0.060722694            7 
 3637000   0.66874353    -3.184101    2654.4787  0.060821159  0.060710131           10 
 3638000   0.66849911   -3.1543719    2649.4626  0.060689542  0.060697656            5 
 3639000   0.66899076     -3.15924    2656.2204  0.060827617  0.060685151           10 
 3640000   0.67773225   -3.1744388    2652.6592  0.060729378  0.060672701            8 
 3641000   0.66377838   -3.1753064    2651.1871  0.060679004  0.060660208            3 
 3642000   0.66114808   -3.1482464    2645.5608  0.060533607   0.06064762            6 
 3643000   0.66904034   -3.1464337    2662.5933  0.060906608  0.060635169            7 
 3644000   0.66395025   -3.1737389    2659.8415  0.060826965  0.060622698            7 
 3645000   0.67121655    -3.174147    2654.0067  0.060676879  0.060610222            6 
 3646000   0.67910828   -3.1403947    2655.2512  0.060688681  0.060597802            5 
 3647000   0.66724859    -3.155622    2657.8928  0.060732401  0.060585471            3 
 3648000   0.68100489   -3.1569865    2662.0655  0.060811073  0.060573191            7 
 3649000   0.65675552   -3.1542731    2663.0143  0.060816074  0.060560734            4 
 3650000   0.66982594   -3.1609287    2655.0949  0.060618606  0.060548244            4 
 3651000   0.67323876   -3.1765117    2665.0194  0.060828527  0.060535748            5 
 3652000   0.66617331   -3.1662552    2670.1483  0.060928903   0.06052331            7 
 3653000   0.66858279   -3.1588299    2655.0295  0.060567331   0.06051083            8 
 3654000   0.67262984   -3.1680165    2662.5509  0.060722289  0.060498395            5 
 3655000   0.68089891    -3.163551    2667.1936  0.060811527  0.060485912            6 
 3656000   0.67124866   -3.1693206    2657.4423  0.060572628  0.060473418            8 
 3657000   0.66019184   -3.1828623    2650.1028  0.060388816  0.060460938            4 
 3658000   0.66210349   -3.1670268    2667.5034  0.060768712  0.060448466            5 
 3659000   0.66789869    -3.167612    2661.1302  0.060606955  0.060436084            7 
 3660000   0.66804023   -3.1652396     2655.501  0.060462228  0.060423698            4 
 3661000   0.67262677   -3.1682937    2654.3482  0.060419472    0.0604113            4 
 3662000   0.65356394   -3.1604328    2663.0486  0.060600961  0.060398893            7 
 3663000    0.6792246   -3.1672163    2662.5376  0.060572791  0.060386491            5 
 3664000   0.65802517   -3.1684085    2661.1312  0.060524273  0.060373994            3 
 3665000   0.66333381   -3.1810574    2664.0426  0.060573956  0.060361487           10 
 3666000   0.66736488   -3.1848094    2657.0897  0.060399384  0.060348951            6 
 3667000   0.67183758   -3.1805803    2664.0563   0.06054123  0.060336505            8 
 3668000   0.67608802   -3.1444451    2665.4986  0.060557494  0.060324092            3 
 3669000   0.68391441    -3.147034    2663.6593  0.060499212   0.06031179            9 
 3670000   0.68364285    -3.157105    2673.8364  0.060713814  0.060299477            5 
 3671000   0.66637902     -3.16818    2657.6275  0.060329327  0.060287102            6 
 3672000   0.66004134   -3.1700937    2670.1994  0.060598206  0.060274648            5 
 3673000   0.66553179   -3.1668345    2661.5263  0.060384932  0.060262251            9 
 3674000   0.66473361   -3.1637301    2660.0322  0.060334608  0.060249757            6 
 3675000   0.65404891   -3.1660483    2664.4456  0.060418267  0.060237297            4 
 3676000   0.67021238   -3.1670371    2655.2207  0.060192708  0.060224832            9 
 3677000   0.66655419   -3.1766216      2671.29  0.060540522  0.060212393            4 
 3678000   0.64978106   -3.1645844    2665.1934  0.060385929  0.060199986            4 
 3679000   0.67397814   -3.1725967    2670.0079  0.060478569  0.060187538            4 
 3680000   0.66650576   -3.1881551    2661.6825  0.060273607  0.060174984           12 
 3681000   0.65744054   -3.1594241    2661.0159  0.060242142  0.060162488            7 
 3682000   0.66662787   -3.1734458    2668.6214  0.060397913  0.060150024           14 
 3683000   0.65081031   -3.1779126    2660.8717  0.060206166  0.060137558           11 
 3684000   0.65386451   -3.1878686    2664.0479   0.06026167  0.060125121            4 
 3685000   0.66431631   -3.1636119    2655.9121  0.060061331  0.060112669            6 
 3686000    0.6602916   -3.1744155      2666.23  0.060278304  0.060100286            6 
 3687000   0.65014276   -3.2053066    2663.2383  0.060194338  0.060087884            9 
 3688000   0.66688717   -3.1758693    2672.3416  0.060383713  0.060075538            9 
 3689000   0.66065168   -3.1515931    2666.2908  0.060230659   0.06006315            6 
 3690000   0.65071436   -3.1621139    2663.2793  0.060146326  0.060050824            3 
 3691000   0.66435225   -3.1915878    2659.5859  0.060046642  0.060038425            5 
 3692000   0.66243211   -3.1723463    2664.7907  0.060147859  0.060026064            6 
 3693000   0.65547805   -3.1600667    2670.3007  0.060255906  0.060013667            6 
 3694000   0.66200081   -3.1811576    2679.2233  0.060440878  0.060001281            6 
 3695000   0.66274451   -3.1702422    2666.6581  0.060141139  0.059988948            4 
 3696000   0.66624521   -3.1816754    2671.5125   0.06023432  0.059976542            8 
 3697000   0.64432289   -3.1588663    2667.9148  0.060136931  0.059964214            7 
 3698000   0.65781239   -3.1648169    2674.2238  0.060262841  0.059951743            9 
 3699000   0.66082865   -3.1753845    2665.1976    0.0600432  0.059939341            4 
 3700000    0.6526794   -3.1756629    2669.7345  0.060129155  0.059926958            5 
 3701000   0.65814387   -3.2020218    2669.5928  0.060109718   0.05991457            6 
 3702000   0.65821091   -3.1829749     2672.224   0.06015271  0.059902126            4 
 3703000   0.65361515   -3.1682526    2660.4948  0.059872508  0.059889609           11 
 3704000   0.66250245    -3.175712    2670.3044  0.060077044  0.059877232            8 
 3705000   0.66618215   -3.1905021    2666.9777  0.059986002  0.059864885            7 
 3706000   0.66275466   -3.1734358     2673.532  0.060117198  0.059852452            5 
 3707000   0.65699739   -3.1688921    2678.1481   0.06020475  0.059840061            7 
 3708000   0.67031275   -3.1956492    2670.6464  0.060019921  0.059827632            6 
 3709000   0.66298063   -3.1825071    2660.3435  0.059772254  0.059815115            6 
 3710000   0.64877966   -3.1734728    2672.4569  0.060028232   0.05980265            4 
 3711000    0.6659855   -3.1628115    2665.2144   0.05984942  0.059790228            4 
 3712000   0.65211575   -3.1678175     2671.285  0.059969581  0.059777772           18 
 3713000    0.6563917   -3.1930802     2663.976  0.059789388  0.059765248            5 
 3714000   0.65012117   -3.1765674    2663.5006  0.059762624  0.059752723            8 
 3715000   0.64552601   -3.1828008    2676.9187  0.060047526  0.059740204            5 
 3716000   0.64648694   -3.1943829    2663.2371  0.059724549  0.059727683            8 
 3717000   0.64756285   -3.1835001    2675.6525  0.059986829  0.059715165            5 
 3718000   0.65480749   -3.1990954     2670.037  0.059844832  0.059702651            7 
 3719000   0.67366383   -3.1875037    2673.0645  0.059896578  0.059690125            7 
 3720000   0.65263681   -3.1825186    2670.8395  0.059830634  0.059677662            5 
 3721000   0.65559984   -3.1949811     2674.662  0.059900162  0.059665197            7 
 3722000    0.6437979   -3.1951457    2670.0242   0.05978023  0.059652598            4 
 3723000   0.66663416   -3.1754175    2667.7337  0.059712903  0.059640069            4 
 3724000   0.64814444   -3.1647349    2679.0507  0.059950115  0.059627592            5 
 3725000    0.6476906   -3.1864808    2672.1002  0.059778527  0.059615078            3 
 3726000   0.66766942   -3.1726897    2668.3058  0.059677622  0.059602582            8 
 3727000   0.66037536   -3.1789841    2666.9168  0.059630552  0.059590162            6 
 3728000   0.65077626   -3.1689692    2679.2663   0.05989061  0.059577791            9 
 3729000   0.64613274   -3.1751875    2685.9669   0.06002429  0.059565424            7 
 3730000   0.64752336   -3.1726482    2666.4543  0.059572259  0.059553027            8 
 3731000   0.66160253   -3.1749229    2677.7173  0.059807856  0.059540598            3 
 3732000   0.63826765   -3.1880929    2674.6186  0.059722638  0.059528174            2 
 3733000   0.66711033   -3.1664335    2675.8896  0.059735011  0.059515732            3 
 3734000   0.65554248   -3.2056907    2668.4629   0.05955327  0.059503334            9 
 3735000   0.65160521   -3.1875799    2667.8364  0.059523348  0.059490725            5 
 3736000   0.65793371    -3.175734    2670.0257  0.059556248  0.059478171            4 
 3737000   0.65038891   -3.1973783    2675.2287  0.059656336  0.059465626            6 
 3738000   0.66295192   -3.1883261    2670.4024   0.05953278  0.059453062            5 
 3739000   0.66103326   -3.1878081    2669.1019  0.059487873  0.059440527            4 
 3740000   0.64160695      -3.1678    2669.4569  0.059479878  0.059427995            6 
 3741000   0.65984324   -3.1758895    2670.2036   0.05948061  0.059415533            5 
 3742000   0.66179456   -3.1820879    2669.3568  0.059445857  0.059403142            8 
 3743000   0.64825482   -3.1770471    2678.7792  0.059639754  0.059390717            5 
 3744000   0.66556144   -3.1715001    2673.7734  0.059512407   0.05937828            4 
 3745000   0.66195017   -3.1868296    2672.4675  0.059467457  0.059365779            6 
 3746000   0.65147551   -3.1596333    2672.9061  0.059461339  0.059353391            6 
 3747000   0.64731822   -3.1952303    2669.9536  0.059379806  0.059340897            6 
 3748000   0.65739681   -3.1976565    2670.6847  0.059380219  0.059328449            5 
 3749000   0.65436328    -3.184111    2672.6192   0.05940738  0.059315949            4 
 3750000   0.65082537   -3.1685517    2679.6574  0.059547941   0.05930349            4 
 3751000   0.64696047   -3.1643137     2672.131  0.059364859  0.059291088           14 
 3752000    0.6469346   -3.1998171    2670.3977  0.059310539  0.059278651            3 
 3753000   0.65270104   -3.1732918    2684.3584  0.059604726  0.059266207           10 
 3754000   0.66087057   -3.1805141    2674.3496  0.059366666  0.059253856            4 
 3755000   0.64289216   -3.1873359    2671.8838  0.059296134  0.059241481            5 
 3756000   0.66811867   -3.1540432    2676.8743  0.059391069  0.059228999            7 
 3757000   0.64313755   -3.1954489    2679.7155  0.059438282   0.05921658            7 
 3758000   0.65280406   -3.2024849    2673.3325  0.059280923  0.059204081            5 
 3759000   0.64041129   -3.2020962    2678.0422  0.059369563  0.059191533           15 
 3760000   0.66351175   -3.2030233    2678.3274  0.059360093  0.059179037            4 
 3761000   0.65272905   -3.1800428     2677.663  0.059329589  0.059166617            3 
 3762000   0.65250514   -3.1809433    2678.1146  0.059323821  0.059154298            9 
 3763000   0.65837336   -3.1871965    2678.2202  0.059310396  0.059141952            6 
 3764000    0.6438638   -3.2065223    2673.9414  0.059199907  0.059129515           10 
 3765000   0.65206401   -3.1936309    2685.1734  0.059432789  0.059116958            3 
 3766000    0.6437852   -3.1775624     2678.861  0.059277328  0.059104499            4 
 3767000   0.65846145   -3.2252571    2677.0143   0.05922074  0.059092013            5 
 3768000   0.65079546   -3.1904422    2674.2445  0.059143765  0.059079469           12 
 3769000   0.63198583   -3.1893547    2678.0379  0.059211947  0.059067012            4 
 3770000   0.64843347    -3.191304    2669.7979  0.059014101  0.059054556            8 
 3771000   0.63605136   -3.1734863    2681.3896   0.05925461  0.059042154            9 
 3772000   0.65877778   -3.1846566    2678.2592  0.059169742  0.059029728            7 
 3773000   0.64074105   -3.1925491     2674.783  0.059077281  0.059017246            7 
 3774000   0.64894397   -3.1816138    2676.1453  0.059091708  0.059004764            4 
 3775000    0.6355939   -3.1937693    2676.5062  0.059084023  0.058992231            3 
 3776000   0.64204603   -3.1861393    2674.2014   0.05901751  0.058979719            5 
 3777000   0.63894623   -3.1757686     2677.637  0.059077686  0.058967286            5 
 3778000   0.64982818   -3.1942691    2678.0884  0.059072004  0.058954842            9 
 3779000   0.64743378   -3.1755384     2679.683  0.059091537  0.058942489            4 
 3780000   0.63928455   -3.1818645    2686.7214  0.059231071  0.058929962            7 
 3781000   0.64374127   -3.2089923    2677.2685  0.059007063  0.058917641            5 
 3782000   0.66405546   -3.1984839    2679.4961  0.059040545    0.0589052            8 
 3783000   0.64797216   -3.2091439     2682.673   0.05909492   0.05889279           12 
 3784000   0.65211405   -3.1866066    2685.2698  0.059136492  0.058880461            9 
 3785000   0.65167587   -3.2024313    2680.4635  0.059015049  0.058868059            9 
 3786000   0.64970765   -3.1813571     2690.041   0.05921027   0.05885574           10 
 3787000   0.65078004   -3.2017109     2679.929  0.058972119  0.058843483            8 
 3788000   0.62625011    -3.179129     2688.429  0.059143546  0.058831223            6 
 3789000   0.65684265   -3.1977805    2693.8035  0.059246141  0.058818921            6 
 3790000   0.64214802   -3.1865432      2690.52  0.059158312  0.058806593            3 
 3791000   0.64004761   -3.1939293    2686.9103  0.059063358  0.058794266            5 
 3792000   0.65855201   -3.1863614    2683.7041  0.058977322  0.058782036            6 
 3793000   0.63777926   -3.1884489    2683.4648  0.058956517  0.058769647           10 
 3794000   0.64544864   -3.2017198     2689.149  0.059065827  0.058757438            4 
 3795000   0.66358083   -3.1895163    2685.1581  0.058962628   0.05874515            3 
 3796000   0.62682565   -3.1818026     2679.451  0.058821807  0.058732823            4 
 3797000   0.64233727   -3.2148314     2682.581  0.058875011  0.058720395            6 
 3798000   0.63493511   -3.2074637     2681.473  0.058835199  0.058707924            7 
 3799000   0.64440125   -3.2063225    2681.6818  0.058824291  0.058695571            4 
 3800000    0.6303902   -3.2095099    2682.6848  0.058830807  0.058683234            6 
 3801000   0.63646834     -3.21205    2692.9243   0.05903982   0.05867089            9 
 3802000   0.64614126   -3.1982613     2693.377  0.059034215  0.058658663            4 
 3803000   0.64920537   -3.1959172    2684.5662  0.058825624  0.058646365           13 
 3804000   0.64893127    -3.192804    2692.5097  0.058984176  0.058634086            5 
 3805000   0.62960936   -3.2157239    2684.7914  0.058799638  0.058621758            4 
 3806000   0.63284951   -3.2148387    2681.2904  0.058707532  0.058609415           10 
 3807000   0.64899042    -3.180667    2683.2809  0.058735681   0.05859709            5 
 3808000   0.64037098   -3.1669285    2692.7146  0.058926702  0.058584865            8 
 3809000    0.6437331   -3.2010794    2688.1626  0.058811644  0.058572702            5 
 3810000   0.65358313   -3.2154516    2694.2362  0.058929051  0.058560485           18 
 3811000   0.64296113   -3.2106746    2695.1457  0.058933475  0.058548227            6 
 3812000   0.63083466   -3.2060769    2683.6382  0.058666452  0.058535967            7 
 3813000   0.63690461   -3.1971019    2699.1233  0.058989493  0.058523749            5 
 3814000   0.64270172   -3.1912599    2687.7469  0.058725462  0.058511526            3 
 3815000   0.65509996   -3.1932017    2692.5514  0.058815015  0.058499386            7 
 3816000   0.63091655   -3.2057215    2700.6078  0.058975537  0.058487254           10 
 3817000   0.62120937   -3.2013938    2692.3408  0.058779599  0.058475058            5 
 3818000   0.63717873   -3.2167367    2697.5717  0.058878376  0.058462794            6 
 3819000   0.63979642    -3.226588    2690.0328  0.058698455  0.058450566           10 
 3820000   0.63437669   -3.2029486    2700.1251  0.058903253  0.058438392            4 
 3821000   0.66120015   -3.1987263    2703.5405  0.058962324  0.058426297            4 
 3822000   0.63485971   -3.2043438    2693.9791  0.058738424  0.058414228            6 
 3823000   0.63845766   -3.1866298    2698.6665  0.058825236  0.058402212            4 
 3824000   0.63489284    -3.202729    2700.0676  0.058840386  0.058390046            7 
 3825000   0.63484322   -3.2206737    2691.2576  0.058633063  0.058377871           12 
 3826000   0.62830994   -3.1981745    2691.5061   0.05862315   0.05836575            9 
 3827000   0.63388782    -3.197627    2694.5329  0.058673742  0.058353653            6 
 3828000   0.65659322   -3.2086239    2693.4401  0.058634625  0.058341493            7 
 3829000   0.62366535   -3.1911762     2694.246  0.058636851  0.058329422           11 
 3830000   0.63040928   -3.2215877    2698.0064  0.058703359  0.058317422            5 
 3831000   0.63027991   -3.1946988    2704.1014  0.058820616  0.058305345            5 
 3832000   0.64684199   -3.1708736     2699.333  0.058701571  0.058293279            5 
 3833000   0.63921066   -3.2077574    2694.4196  0.058579433  0.058281273            7 
 3834000   0.63689618   -3.2120367     2698.361  0.058649822  0.058269127            7 
 3835000   0.63883314   -3.2155768    2692.7785  0.058513222  0.058256988            7 
 3836000   0.62952971   -3.2051158    2696.8033  0.058585403  0.058244793            4 
 3837000   0.62943255   -3.2156098    2694.0794  0.058510976  0.058232603            5 
 3838000   0.63504595   -3.1993805    2704.1839  0.058715127  0.058220423           13 
 3839000   0.64161854   -3.2057838    2702.8342  0.058670534  0.058208287            4 
 3840000   0.62553965   -3.2099429    2699.6184  0.058585468  0.058196152            8 
 3841000   0.65529857   -3.2132949    2699.5267  0.058568227  0.058184015            4 
 3842000   0.65211233   -3.2016492    2700.6579  0.058577519   0.05817192            7 
 3843000   0.64704057   -3.2038589    2694.9503  0.058438509  0.058159815            7 
 3844000   0.63412439   -3.2128065    2698.7649  0.058506002  0.058147689           11 
 3845000   0.63801371   -3.2164636    2694.7245  0.058403218  0.058135552            9 
 3846000   0.63592796    -3.236408    2695.1704  0.058397694   0.05812328           13 
 3847000   0.63177715    -3.217632    2703.5892  0.058564883  0.058111135            9 
 3848000   0.63452812   -3.2190621    2697.9017  0.058426491  0.058098966            6 
 3849000   0.64261659    -3.231496    2697.7274  0.058407538   0.05808684            6 
 3850000   0.65122175   -3.2099793    2701.7517  0.058479474  0.058074678            7 
 3851000   0.64590587   -3.2088581    2702.1983  0.058473952  0.058062563           10 
 3852000   0.63327451   -3.2132543    2693.0155  0.058260113  0.058050465            7 
 3853000   0.63229439   -3.2094546    2707.7944  0.058564634  0.058038318           10 
 3854000    0.6215413   -3.1928452    2698.1801  0.058341552  0.058026219           10 
 3855000   0.64417905    -3.204505    2702.4451  0.058418613  0.058014082            7 
 3856000   0.63250066   -3.2092947    2694.9006  0.058240417  0.058001941            6 
 3857000    0.6437135   -3.2268286     2694.894  0.058225174  0.057989812           10 
 3858000    0.6368542   -3.2212771    2698.8677  0.058295915  0.057977707            9 
 3859000   0.64155998     -3.22681     2700.215  0.058309903  0.057965514            5 
 3860000    0.6386893   -3.2213728    2692.7413  0.058133448  0.057953357           13 
 3861000   0.63201246   -3.2108602    2699.9535  0.058274055  0.057941183            5 
 3862000   0.63455605    -3.217915    2708.8072  0.058450009  0.057929118            7 
 3863000   0.62968723   -3.2404181    2697.7932  0.058197283   0.05791701            6 
 3864000    0.6292216    -3.223696    2699.8918   0.05822748  0.057904819            4 
 3865000   0.63545783   -3.2183892    2699.9833  0.058214388  0.057892687           14 
 3866000   0.64677027   -3.2165353    2701.7443  0.058237288   0.05788052           10 
 3867000    0.6279763    -3.204495    2704.4579  0.058280706  0.057868376            9 
 3868000   0.61911995   -3.2208655      2704.97  0.058276671  0.057856312            5 
 3869000   0.62187571   -3.2257515    2700.5608  0.058166641  0.057844143            6 
 3870000   0.62999548   -3.2104376    2702.9573  0.058203216  0.057831999            3 
 3871000   0.64966906    -3.217104    2709.9652  0.058339042  0.057819904            4 
 3872000   0.63489506   -3.2186095    2708.9701  0.058302559  0.057807856           20 
 3873000   0.62957869   -3.2437067    2695.5094  0.057997878  0.057795716            9 
 3874000    0.6274151   -3.2020782    2700.5538  0.058091417   0.05778355           12 
 3875000   0.62915147   -3.1948565    2699.9524  0.058063492  0.057771467            5 
 3876000   0.64283377   -3.2144038     2700.579  0.058061984  0.057759347            8 
 3877000   0.63266433   -3.2055322     2700.137  0.058037508  0.057747172            9 
 3878000   0.63469231   -3.2189814    2702.9033  0.058081987  0.057735077            6 
 3879000   0.63080187   -3.2244468    2694.2678  0.057881495  0.057722949            6 
 3880000   0.63120178   -3.2277592    2695.6513  0.057896291    0.0577108            5 
 3881000   0.62557233   -3.1905167    2698.4753   0.05794201  0.057698742           10 
 3882000   0.63689928   -3.2194924    2701.5609  0.057993321  0.057686598            6 
 3883000    0.6224536   -3.2199206    2707.0982  0.058097223  0.057674575           12 
 3884000   0.62761373   -3.2219345    2707.1307  0.058082963  0.057662413           12 
 3885000   0.61749314   -3.2112736     2705.471  0.058032411  0.057650346           19 
 3886000   0.63952105    -3.237683    2712.3497  0.058164987  0.057638292            4 
 3887000   0.62098568   -3.2167127    2706.4357  0.058023234  0.057626176            4 
 3888000   0.63536582   -3.2027193     2704.706  0.057971237  0.057614162            5 
 3889000   0.64169247   -3.2291848    2711.4299  0.058100409  0.057602014           13 
 3890000   0.62513769   -3.2204909      2712.79   0.05811461  0.057589859            6 
 3891000   0.62596785   -3.2203135    2698.6526  0.057796895  0.057577851            4 
 3892000   0.63659589    -3.210559    2702.8515   0.05787195  0.057565738            5 
 3893000   0.62252291   -3.2190156      2705.63   0.05791656  0.057553516            5 
 3894000   0.64232044   -3.2178477    2716.4051  0.058132279  0.057541416            7 
 3895000   0.61530387   -3.2305602    2708.9299  0.057957421  0.057529285            7 
 3896000    0.6204536   -3.2078629    2709.0127  0.057944316  0.057517147            6 
 3897000   0.63847094   -3.2257028    2698.0469  0.057694955  0.057505014            6 
 3898000   0.62293263    -3.203176    2700.3886  0.057730216  0.057492878            5 
 3899000   0.62192634   -3.2147338    2703.7623  0.057787517  0.057480745            8 
 3900000   0.61638708   -3.2365245    2705.3283  0.057806161  0.057468572           19 
 3901000   0.62676918   -3.2486365    2700.2877  0.057683665  0.057456362            8 
 3902000   0.62326431   -3.2137701    2710.1971  0.057880513  0.057444181           12 
 3903000   0.62489361   -3.2364406    2704.2696  0.057739123  0.057432066            7 
 3904000   0.64416539   -3.2349844    2702.9792   0.05769679  0.057419862           15 
 3905000   0.62599702    -3.229971    2709.1699  0.057814124   0.05740772            7 
 3906000   0.62735615   -3.2080874    2707.0967  0.057755092  0.057395538           10 
 3907000   0.62329813   -3.2206766    2699.0586  0.057568865  0.057383382            9 
 3908000   0.61560479   -3.2111117    2705.7836  0.057697536  0.057371184            5 
 3909000   0.62880421   -3.2280344    2699.3187  0.057544953  0.057358997           10 
 3910000   0.61943298    -3.217863    2715.9647   0.05788501  0.057346863            7 
 3911000   0.62381556   -3.2307106    2698.6332  0.057500921  0.057334663            8 
 3912000   0.62245871   -3.1946372    2701.9084   0.05755599  0.057322495            5 
 3913000   0.61603928   -3.2254851    2710.9133  0.057733055  0.057310404            4 
 3914000   0.63295517   -3.2189856    2701.6963  0.057522064  0.057298126           12 
 3915000   0.62009285   -3.2176504    2704.1293  0.057559159  0.057285856            8 
 3916000   0.61570389   -3.2261688    2707.2661  0.057611213  0.057273654            5 
 3917000   0.63835027   -3.2403719    2701.5457  0.057474805  0.057261356            7 
 3918000   0.62616774    -3.238523    2699.8107  0.057423233  0.057249065           12 
 3919000   0.62188945   -3.2198398    2707.9388  0.057581416  0.057236857            6 
 3920000   0.60518192   -3.2268032    2705.3226  0.057511109  0.057224635            6 
 3921000   0.63985647   -3.2239132     2707.912  0.057551476  0.057212383            3 
 3922000   0.62559801   -3.2411963    2705.4919   0.05748538  0.057200151            6 
 3923000   0.62331035   -3.2192191    2708.0032  0.057524071  0.057187838            6 
 3924000   0.61856627   -3.2120583    2703.9731  0.057423825  0.057175579           14 
 3925000   0.63244367   -3.2255728    2704.6536  0.057423643  0.057163286           12 
 3926000   0.62792448    -3.235861    2708.0468  0.057481042  0.057151028           14 
 3927000   0.62810805   -3.2170073    2702.9493  0.057358231  0.057138797            7 
 3928000   0.62041637    -3.230074    2705.3282  0.057394098  0.057126507            6 
 3929000    0.6022801   -3.2300803    2713.1893  0.057546223  0.057114212           15 
 3930000   0.62857931   -3.2302388    2701.5384  0.057284528   0.05710187            9 
 3931000   0.61723653   -3.2382209    2704.0647  0.057323511  0.057089429            5 
 3932000   0.62592908   -3.2060665    2698.7449  0.057196186  0.057077103            7 
 3933000   0.61905125   -3.2183449    2706.0837   0.05733714  0.057064847            4 
 3934000    0.6256001   -3.2266752    2717.1555  0.057557099  0.057052628           15 
 3935000   0.61843169   -3.2262428    2705.0305  0.057285694  0.057040404           10 
 3936000   0.62008515    -3.243678    2702.4301  0.057216084  0.057028174           16 
 3937000   0.61953001   -3.2404828    2706.2706  0.057282842  0.057015866            6 
 3938000    0.6310199    -3.248846    2710.9403  0.057367114  0.057003553            6 
 3939000   0.61997229   -3.2314134    2704.7749  0.057222114  0.056991285            6 
 3940000   0.63614133   -3.2289231    2708.1319  0.057278593   0.05697902            8 
 3941000   0.60202001   -3.2443558    2708.7827   0.05727782  0.056966819            8 
 3942000   0.61525518   -3.2737587    2700.6943  0.057092303  0.056954487            6 
 3943000   0.62411515   -3.2529115    2704.5728  0.057159795  0.056942188            8 
 3944000   0.62771784   -3.2209942    2703.8063  0.057129105  0.056929951            7 
 3945000   0.63049911   -3.2329095    2704.8973  0.057137671  0.056917682            9 
 3946000   0.61026639   -3.2610009    2707.9477  0.057187611  0.056905383            6 
 3947000   0.62184288    -3.236342    2712.1284  0.057261388  0.056892975            6 
 3948000   0.61062234   -3.2417407    2707.5479    0.0571502  0.056880621           15 
 3949000     0.627151   -3.2496837    2700.8256  0.056993872  0.056868271            3 
 3950000   0.61222336   -3.2561922    2700.6904  0.056976591  0.056855937           21 
 3951000   0.61252623   -3.2321956    2710.5206  0.057169505  0.056843625            5 
 3952000   0.61803215    -3.226882    2702.7071  0.056990281  0.056831383            5 
 3953000   0.62471118   -3.2171259    2704.3698  0.057010916  0.056819057            6 
 3954000    0.6129608   -3.2214023    2704.4724   0.05699866  0.056806727            4 
 3955000   0.61844808   -3.2264027    2712.3558  0.057150355  0.056794379           14 
 3956000    0.6170777   -3.2471069    2701.5955  0.056909241  0.056782096            7 
 3957000   0.63116947   -3.2482847    2705.4008  0.056974998  0.056769683            8 
 3958000   0.61425737   -3.2557143     2703.538  0.056921383  0.056757267            6 
 3959000   0.63388549   -3.2458683    2701.8165  0.056870769  0.056744893            6 
 3960000   0.62300452   -3.2449781    2705.4875   0.05693366  0.056732476           10 
 3961000   0.62195074   -3.2370857    2710.7311  0.057029603  0.056720105            8 
 3962000   0.62049246   -3.2225748    2708.3109  0.056964305  0.056707788           15 
 3963000   0.62634881   -3.2462005    2705.6643  0.056894278  0.056695431            9 
 3964000   0.62316864   -3.2366906    2709.8259  0.056967412  0.056683081            5 
 3965000   0.62489681    -3.232031    2708.0831  0.056916417  0.056670739            7 
 3966000   0.61432178   -3.2438417    2711.9092  0.056982459  0.056658333            8 
 3967000   0.60300202   -3.2554848    2707.8883   0.05688363  0.056645912            7 
 3968000   0.61796493   -3.2379608    2705.4568  0.056818228  0.056633487            9 
 3969000   0.62716169   -3.2352082    2710.2873  0.056905335  0.056621152           22 
 3970000   0.61475527   -3.2488246    2706.1621  0.056804411  0.056608758            6 
 3971000   0.60425286   -3.2531014    2701.5147  0.056692577   0.05659636            7 
 3972000   0.59414933   -3.2534742    2707.3285   0.05680028   0.05658394            6 
 3973000   0.61492987   -3.2557734     2707.796  0.056795787  0.056571455            6 
 3974000   0.62211511   -3.2169902    2711.2973  0.056854917  0.056559118           10 
 3975000   0.61765068   -3.2585837    2702.5608   0.05665746  0.056546764           19 
 3976000   0.60776708    -3.251519    2708.5421  0.056768572  0.056534342           10 
 3977000   0.62095676   -3.2372236    2700.8781  0.056593708  0.056521956            6 
 3978000   0.60616128   -3.2471246    2709.0175  0.056749989  0.056509546            7 
 3979000   0.61648653   -3.2458272    2703.2593  0.056615131  0.056497182            7 
 3980000   0.60542621   -3.2394083    2709.8533  0.056738972  0.056484789            4 
 3981000   0.60731251    -3.263715    2706.9939  0.056664864  0.056472398           17 
 3982000    0.6128321   -3.2422632    2707.0877  0.056652597  0.056460026            6 
 3983000   0.61988738   -3.2413168    2701.3472  0.056518269  0.056447645           12 
 3984000   0.60992201   -3.2218895     2701.008  0.056496987  0.056435238            7 
 3985000   0.59760559   -3.2441997    2706.2939  0.056593348  0.056422889            9 
 3986000   0.61617451    -3.246988    2708.7442  0.056630378  0.056410507            4 
 3987000   0.62324922   -3.2452043    2706.6805  0.056573039  0.056398195            8 
 3988000   0.61627902   -3.2461266    2708.5244  0.056597385  0.056385881            7 
 3989000   0.60940364   -3.2274683    2707.3203  0.056558041  0.056373489            6 
 3990000   0.60803335   -3.2264358    2711.6878  0.056635084  0.056361161           15 
 3991000   0.61217006   -3.2553581    2708.1596  0.056547224  0.056348783            5 
 3992000   0.59491921   -3.2659048    2700.3637  0.056370317  0.056336321            5 
 3993000    0.6231916   -3.2536228    2713.2741  0.056625638  0.056323907            9 
 3994000   0.60713777   -3.2554119    2712.2549  0.056590195  0.056311587            8 
 3995000   0.62307613   -3.2330469    2706.0958  0.056447554   0.05629912            6 
 3996000   0.61942367   -3.2548848     2700.156  0.056309559  0.056286702            9 
 3997000   0.61583953   -3.2534943    2705.3009  0.056402738  0.056274297           11 
 3998000   0.60722767   -3.2556432    2707.9601  0.056444058  0.056261812            8 
 3999000   0.60349093   -3.2388427     2708.239  0.056435755  0.056249396            8 
 4000000   0.61905153   -3.2391723    2709.7668  0.056453476  0.056237011            9 
 4001000   0.62304858   -3.2504721    2709.6153   0.05643621  0.056224638            4 
 4002000   0.61354326   -3.2475883    2706.5442  0.056358159  0.056212223            5 
 4003000    0.6087873   -3.2450961    2713.4703  0.056488266  0.056199837            4 
 4004000   0.61778995   -3.2369451    2710.8488  0.056419597  0.056187465           10 
 4005000   0.61063168   -3.2383711    2713.0899  0.056452141  0.056175155            5 
 4006000    0.6058796   -3.2397192    2705.9624  0.056289783   0.05616285            6 
 4007000   0.61339571   -3.2600079    2707.0721  0.056298813  0.056150418           12 
 4008000   0.60316793   -3.2356172     2704.393  0.056229063  0.056138035            5 
 4009000   0.60439711   -3.2382098    2711.3788  0.056360247    0.0561257            6 
 4010000   0.61062824   -3.2440828    2721.9391  0.056565651  0.056113433            8 
 4011000   0.58496929   -3.2535408    2717.0759  0.056450508  0.056101167            4 
 4012000   0.61968218   -3.2448529    2714.7528  0.056388185  0.056088828            7 
 4013000   0.60599469   -3.2350574    2709.7216  0.056269657  0.056076597           12 
 4014000   0.61686917   -3.2567317    2713.0421  0.056324575  0.056064301            5 
 4015000   0.61647417   -3.2720364    2704.7409   0.05613825  0.056051968            8 
 4016000   0.61663676   -3.2690691    2704.5269  0.056119832  0.056039612            4 
 4017000   0.62671568    -3.257493    2715.3393  0.056330165  0.056027284           11 
 4018000   0.59977127   -3.2588624     2719.423  0.056400843  0.056015106            8 
 4019000   0.61517749   -3.2603727     2713.576  0.056265572  0.056002889            6 
 4020000   0.61249981   -3.2522054     2713.262  0.056245065  0.055990633           12 
 4021000   0.61330102   -3.2456494    2714.2612  0.056251786  0.055978393           16 
 4022000   0.60969747   -3.2624299    2712.7833   0.05620718  0.055966128            9 
 4023000   0.60527844   -3.2720452    2705.0091  0.056032172  0.055953813            9 
 4024000   0.60521614   -3.2491054    2709.0139  0.056101182  0.055941562            4 
 4025000   0.61882646   -3.2442717    2707.7367  0.056060801  0.055929288            9 
 4026000   0.62036891   -3.2429344    2719.1606  0.056283337  0.055917121           15 
 4027000   0.59522672   -3.2372553    2713.5331  0.056152907  0.055904945            3 
 4028000   0.60506753   -3.2642379    2725.0645  0.056377533  0.055892796           15 
 4029000    0.6128434    -3.240773    2718.7844  0.056233647  0.055880641           10 
 4030000   0.61742101   -3.2518885    2713.5882  0.056112246   0.05586849           10 
 4031000   0.61013126   -3.2606377    2718.9801  0.056209793  0.055856344            8 
 4032000   0.61247191   -3.2474377    2725.7383   0.05633553  0.055844168            7 
 4033000   0.60875457   -3.2494988    2713.1388   0.05606122  0.055832065           10 
 4034000   0.60727185   -3.2450957    2722.4977  0.056240657   0.05582003            4 
 4035000   0.58854335   -3.2700334    2716.6131  0.056105187  0.055807928           11 
 4036000   0.60235013   -3.2475496    2712.6922  0.056010328  0.055795806            9 
 4037000   0.61312414   -3.2478519    2721.4628    0.0561775  0.055783682           11 
 4038000    0.6024839   -3.2685322    2719.4063  0.056121146  0.055771583           11 
 4039000   0.60982558   -3.2529444     2726.202  0.056247462   0.05575944            7 
 4040000   0.61482919   -3.2544524     2726.424   0.05623812  0.055747389           19 
 4041000   0.60960612   -3.2566077    2708.3535  0.055851553  0.055735296            8 
 4042000    0.6053845   -3.2751578    2719.9878  0.056077597  0.055723208            8 
 4043000   0.60982923   -3.2519504    2721.1462  0.056087605  0.055711089           13 
 4044000   0.60843521   -3.2610032     2716.605  0.055980156  0.055699061            8 
 4045000   0.59618353   -3.2551512    2726.1731  0.056163434  0.055686961            5 
 4046000   0.60523621    -3.234894    2718.8328  0.055998369  0.055674869            5 
 4047000   0.60425809   -3.2635418    2713.7429  0.055879724  0.055662788            8 
 4048000   0.61549328   -3.2612518    2723.5337  0.056067475   0.05565079            8 
 4049000   0.60341743   -3.2657248    2725.6077  0.056096314   0.05563873           12 
 4050000   0.60147902   -3.2624549    2729.5311  0.056163192  0.055626752            5 
 4051000    0.6041977   -3.2608734    2716.5703   0.05588271  0.055614702           12 
 4052000   0.59760195   -3.2656468    2720.0531  0.055940546  0.055602656           16 
 4053000   0.60104308   -3.2646195    2726.5184  0.056059676  0.055590576            6 
 4054000   0.59321664   -3.2638464    2724.4098  0.056002504  0.055578543            5 
 4055000   0.60006543   -3.2638271    2726.3611  0.056028794  0.055566532            6 
 4056000   0.59825971   -3.2567571    2725.2402  0.055991949  0.055554559            6 
 4057000   0.59625137   -3.2751535    2715.0283  0.055768389  0.055542531            7 
 4058000   0.60905804   -3.2552029    2720.8523  0.055874247  0.055530488           10 
 4059000   0.59454538   -3.2501672    2730.0768  0.056049865  0.055518416            6 
 4060000   0.59589744   -3.2502212    2723.4053  0.055899123  0.055506441            4 
 4061000   0.60173972   -3.2561318    2732.8478  0.056079123  0.055494409            6 
 4062000   0.60143217   -3.2642225     2718.494  0.055770843  0.055482342           10 
 4063000   0.60174479    -3.267808    2728.3701  0.055959679  0.055470219            5 
 4064000   0.60137101   -3.2505373    2726.6622  0.055910889  0.055458158           14 
 4065000   0.60159903   -3.2718456    2715.3712  0.055665667  0.055446112           11 
 4066000   0.60446866   -3.2602938    2724.8237  0.055845706  0.055434088           17 
 4067000   0.59110271   -3.2627357     2724.005    0.0558152  0.055422068           22 
 4068000   0.60968498   -3.2616202    2730.2686   0.05592979  0.055410051           12 
 4069000   0.61633329   -3.2355363    2725.3755  0.055815834  0.055398042            8 
 4070000   0.61005611   -3.2391778    2728.4472  0.055865012  0.055386046            7 
 4071000   0.58834773   -3.2797894    2729.5336  0.055873528   0.05537403           19 
 4072000   0.59881484   -3.2531634    2731.5201   0.05590046  0.055362015            9 
 4073000   0.59904193   -3.2442535    2728.5744  0.055826468  0.055350063           10 
 4074000   0.60081717   -3.2813081    2720.7761   0.05565325  0.055338034            4 
 4075000   0.60979672   -3.2954033    2728.4971  0.055797487  0.055326014           13 
 4076000   0.60751109   -3.2777094    2724.3362  0.055698729  0.055313954            7 
 4077000   0.60111017   -3.2566292    2717.3567  0.055542406   0.05530189            8 
 4078000   0.59385103   -3.2822863    2727.8874   0.05574398  0.055289812           10 
 4079000   0.60039842   -3.2723725    2717.4249  0.055516567  0.055277697            7 
 4080000   0.59054533   -3.2654741    2719.7788  0.055551037  0.055265669           10 
 4081000   0.58853674   -3.2589746    2722.3594  0.055590121  0.055253628           15 
 4082000   0.58360268   -3.2689707    2724.2574   0.05561525  0.055241547            7 
 4083000   0.59273094   -3.2665788    2722.0416  0.055556405  0.055229482           11 
 4084000   0.59532334   -3.2722682    2718.8322  0.055477313  0.055217333           15 
 4085000   0.59232138   -3.2658873    2728.0299  0.055651365  0.055205209            7 
 4086000   0.60233928   -3.2904367    2731.7873  0.055714376  0.055193132            7 
 4087000   0.59554157   -3.2656476    2724.8137  0.055558553  0.055181085           10 
 4088000   0.60253765   -3.2768516    2725.6475   0.05556196  0.055169063            4 
 4089000   0.58119496    -3.273586    2725.4388  0.055544117  0.055157066            9 
 4090000   0.59546241   -3.2740196    2728.7545  0.055598096   0.05514504            8 
 4091000   0.59300987    -3.281964    2723.8128  0.055483843  0.055132962            8 
 4092000   0.58862707   -3.2617329    2719.2744   0.05537786  0.055120944            9 
 4093000   0.59849455   -3.2754671    2722.0297  0.055420427  0.055108882           15 
 4094000   0.60805311    -3.258582    2729.6186  0.055561362  0.055096913           11 
 4095000   0.60118142   -3.2688027     2729.568  0.055546764  0.055084829            6 
 4096000   0.59287722   -3.2750042    2726.1798  0.055464271  0.055072715            9 
 4097000   0.60476264   -3.2552729    2723.6391  0.055399054  0.055060602            7 
 4098000   0.59198093   -3.2826315    2724.1801  0.055396537  0.055048549            5 
 4099000   0.59646776   -3.2746677    2722.7784  0.055354525  0.055036445           10 
 4100000   0.59089116   -3.2589994    2727.4822   0.05543663  0.055024334           11 
 4101000   0.60039374   -3.2784593    2718.4489  0.055239554  0.055012257            6 
 4102000   0.60746509    -3.282816     2726.724  0.055394199  0.055000216            8 
 4103000     0.590265    -3.279031    2726.9375  0.055385034  0.054988155            4 
 4104000   0.59535626   -3.2814904    2730.2101   0.05543799   0.05497607           11 
 4105000   0.60203388   -3.2783261    2730.9594  0.055439695  0.054963984            5 
 4106000   0.59280636   -3.3011321    2724.7895  0.055300972  0.054951869           11 
 4107000   0.60878724   -3.2710921    2729.1334  0.055375648  0.054939786           14 
 4108000   0.59675702   -3.2812582    2727.1005  0.055320929  0.054927757           12 
 4109000   0.57566538   -3.2661228     2725.274  0.055270423  0.054915705            4 
 4110000     0.584928   -3.2824716    2721.2491  0.055175368  0.054903608            8 
 4111000   0.58672055   -3.2650155     2729.092  0.055320927  0.054891581            8 
 4112000   0.59324396   -3.2809467    2731.3056  0.055352335  0.054879525            8 
 4113000   0.58942995    -3.291176    2730.6996  0.055326599  0.054867478           12 
 4114000   0.58755311   -3.2790813    2728.4944  0.055268482   0.05485547            6 
 4115000   0.58368753   -3.2677879    2725.6337  0.055197119  0.054843406           16 
 4116000   0.58749568   -3.3044006    2727.8432  0.055228442  0.054831316            5 
 4117000   0.59232866   -3.2915946    2729.0808  0.055240079  0.054819199            7 
 4118000   0.59409656   -3.2869961     2732.369  0.055293205  0.054807097            4 
 4119000    0.5998563   -3.2995262    2727.8988  0.055189342  0.054795041           13 
 4120000   0.58436471   -3.2764933    2721.8489  0.055053578  0.054783008            8 
 4121000   0.59978022   -3.2678269     2730.182  0.055208727  0.054770976            7 
 4122000   0.58850878   -3.2591326    2730.4538   0.05520083  0.054758889            7 
 4123000   0.58974106   -3.2723792    2731.4536  0.055207648  0.054746891            9 
 4124000   0.58662469   -3.2685588    2727.4187  0.055112728  0.054734873           12 
 4125000   0.58818469   -3.2746551    2735.1564  0.055255685  0.054722846            7 
 4126000    0.6002811   -3.2834293    2726.7834  0.055073182  0.054710795            7 
 4127000   0.60450842   -3.2851595    2729.3297  0.055111254  0.054698803            7 
 4128000   0.60329501   -3.2655001    2730.6536  0.055124628  0.054686797            8 
 4129000   0.59917258    -3.278368    2727.2848  0.055043288  0.054674719            7 
 4130000   0.60504166   -3.2981283    2723.8169  0.054959987   0.05466271           10 
 4131000   0.60228091   -3.2593524    2737.2056  0.055216768   0.05465072           15 
 4132000   0.58987969   -3.2865231    2723.8572  0.054934197   0.05463864            8 
 4133000   0.59817869   -3.2759896    2726.3946  0.054972066  0.054626554           11 
 4134000   0.58096158   -3.2643763    2735.6142  0.055144618  0.054614499            7 
 4135000   0.58231613   -3.2955604    2725.1717  0.054920833  0.054602462            9 
 4136000   0.60041004   -3.2742958    2736.4694  0.055135183  0.054590358           16 
 4137000   0.58365545   -3.2864874    2733.9173  0.055070447  0.054578272            5 
 4138000   0.59597936   -3.2871651    2733.6274    0.0550513  0.054566214            6 
 4139000   0.59450632   -3.2838511    2722.4359  0.054812673  0.054554181            5 
 4140000   0.58875592   -3.2942233    2732.3456  0.054998904  0.054542025            9 
 4141000   0.60243245   -3.2918368    2732.0544  0.054979762  0.054529938            4 
 4142000   0.58090922   -3.2947992    2734.0149  0.055005932  0.054517884            7 
 4143000    0.5972315   -3.2857954    2726.9502  0.054850555  0.054505863            8 
 4144000   0.59107793   -3.2771704      2725.68  0.054811775  0.054493802           12 
 4145000   0.59848618   -3.2919287    2724.5803  0.054776443  0.054481737            5 
 4146000   0.59092111   -3.2998925    2728.0236  0.054832442   0.05446966            6 
 4147000   0.59163594   -3.2755367    2733.7921  0.054935136  0.054457628            6 
 4148000   0.58578842    -3.275072    2732.2603  0.054891117  0.054445595           10 
 4149000   0.57873344   -3.2881505     2733.272  0.054898208  0.054433533            7 
 4150000   0.57832879   -3.2964621    2728.6274  0.054791714  0.054421534           10 
 4151000   0.58867541   -3.3036389     2728.627  0.054778507  0.054409482           12 
 4152000   0.59295056   -3.2772242    2732.5641  0.054844334  0.054397473            7 
 4153000   0.58557598    -3.277069    2725.4938  0.054689256  0.054385495           15 
 4154000   0.59224289   -3.2797102    2728.2414  0.054731211  0.054373488           16 
 4155000   0.58818217   -3.2759685    2729.5041  0.054743364  0.054361536           12 
 4156000   0.58478799   -3.2998844    2733.5382  0.054811081  0.054349482           13 
 4157000   0.57000584   -3.2844401     2733.093  0.054788971  0.054337514           10 
 4158000   0.58479087   -3.2856295    2727.0004  0.054653687  0.054325475            9 
 4159000   0.58311265   -3.2822656    2734.4538  0.054789889  0.054313465            6 
 4160000   0.58854258   -3.2854158    2730.1015  0.054689534  0.054301498            6 
 4161000   0.59511502   -3.2744669    2729.4891  0.054664126  0.054289513           11 
 4162000   0.57971478   -3.2978468    2736.3881  0.054789125  0.054277535            8 
 4163000   0.59025051   -3.2873561    2735.7424   0.05476304  0.054265518           14 
 4164000   0.59055053   -3.2949047     2728.087  0.054596681  0.054253529           10 
 4165000   0.59136825   -3.2924478    2733.2058   0.05468599  0.054241523            8 
 4166000   0.58952227   -3.2644034    2735.1717  0.054712188  0.054229585            6 
 4167000   0.58758718   -3.2742313     2726.216  0.054519959  0.054217579            8 
 4168000   0.58736169   -3.2976301    2736.7941  0.054718373  0.054205522           11 
 4169000   0.57887132   -3.2929714    2730.1965   0.05457337  0.054193541            8 
 4170000   0.58510233   -3.2730734    2736.3274  0.054682802   0.05418152            9 
 4171000   0.58167175   -3.2958993    2733.2628  0.054608463  0.054169559            4 
 4172000   0.58447776   -3.2714268    2728.6302   0.05450284  0.054157611            5 
 4173000   0.60540566    -3.300434    2731.9041  0.054555159  0.054145612            8 
 4174000   0.58918049   -3.3064206    2739.1501  0.054686754  0.054133617           10 
 4175000   0.59726461    -3.276372    2734.2144  0.054575137  0.054121621            3 
 4176000   0.58646309    -3.302595    2731.1897   0.05450171  0.054109632           12 
 4177000   0.58430737     -3.30318    2742.1196  0.054706719  0.054097667            7 
 4178000   0.59184909   -3.3059552    2737.0368  0.054592245  0.054085657            4 
 4179000   0.57821363   -3.2985555    2735.3543  0.054545631  0.054073699            6 
 4180000   0.57233757   -3.3127167    2734.8686  0.054522899  0.054061702            8 
 4181000   0.57644581   -3.2836977    2731.0267  0.054433283  0.054049692            5 
 4182000   0.58439807   -3.3048395    2731.7787  0.054435251   0.05403773            9 
 4183000   0.58804616   -3.3182568    2740.4733  0.054595451  0.054025716            9 
 4184000   0.58169679   -3.3136282    2736.8133  0.054509506  0.054013736            9 
 4185000   0.58462121   -3.3119328    2731.1991  0.054384689  0.054001768           10 
 4186000   0.58667862   -3.3038508    2732.0051  0.054387742  0.053989763            9 
 4187000   0.57820599    -3.305345    2736.1925  0.054458094  0.053977773            7 
 4188000    0.5839105    -3.297788    2725.2912  0.054228177  0.053965796            5 
 4189000   0.56866098   -3.3166121    2729.6012   0.05430097  0.053953823           16 
 4190000   0.58509449   -3.2971495    2737.1455  0.054438056   0.05394179           21 
 4191000   0.57971952   -3.3093277    2729.2009  0.054267099  0.053929787           16 
 4192000   0.57351733   -3.2923254     2730.075  0.054271528  0.053917792           22 
 4193000   0.57384978   -3.3132427    2732.7547  0.054311843  0.053905736            7 
 4194000   0.59004681   -3.2948982    2740.4263  0.054451326  0.053893774            6 
 4195000   0.56836076   -3.2989239    2737.0239  0.054370757   0.05388174           10 
 4196000   0.58943368   -3.3025309    2732.4823  0.054267603  0.053869775            7 
 4197000   0.56790609   -3.2996881      2734.68  0.054298308  0.053857801            9 
 4198000   0.57212322   -3.3148215    2739.3936  0.054378942  0.053845833            8 
 4199000   0.58278415   -3.3005343    2731.9918  0.054219096   0.05383384            6 
 4200000   0.57289842   -3.3026418    2730.0623  0.054167902  0.053821911            6 
 4201000   0.57705546   -3.2884523    2735.7036  0.054266913  0.053809909            5 
 4202000   0.58401768   -3.3035876     2726.531  0.054072089  0.053797935            6 
 4203000   0.58653994   -3.3088334    2743.0048  0.054385851   0.05378595           11 
 4204000   0.58785354   -3.3156142    2730.1004  0.054117119  0.053773898            7 
 4205000   0.59087943   -3.3108161    2728.9277  0.054081009  0.053761865            6 
 4206000    0.5723234   -3.3187297     2732.658   0.05414206  0.053749864            6 
 4207000   0.57596814    -3.284333    2739.5377  0.054265464  0.053737864            6 
 4208000   0.59311715   -3.3046952     2727.933  0.054022754  0.053725876            8 
 4209000   0.57139879   -3.2958006    2735.5062  0.054159861  0.053713877           14 
 4210000   0.57182469   -3.3023305     2729.687  0.054031809  0.053701835           13 
 4211000    0.5741924   -3.3186054    2731.2035  0.054048989  0.053689805           14 
 4212000   0.58135262   -3.3045086    2730.2267  0.054016831   0.05367776            9 
 4213000   0.57853664   -3.2988055    2735.0878  0.054100162  0.053665839           18 
 4214000   0.58155137   -3.3135892     2725.725  0.053902171    0.0536539           12 
 4215000   0.58402333   -3.3073962    2743.1734  0.054234349  0.053641867            9 
 4216000   0.58353639   -3.3056319    2738.2249  0.054123673  0.053629932            7 
 4217000    0.5867203   -3.3131606    2738.8471  0.054123135  0.053617938            7 
 4218000   0.57561502   -3.2887649    2741.5548  0.054163797  0.053605947           16 
 4219000   0.57378382   -3.3076612    2733.1828  0.053985597  0.053594014            7 
 4220000   0.58176981   -3.3121065     2734.778  0.054004305  0.053582102            5 
 4221000   0.57245507   -3.3058223    2732.4391  0.053945335   0.05357023            3 
 4222000   0.57420638   -3.3087659    2733.8867  0.053961131  0.053558234           14 
 4223000   0.58088908   -3.2999407    2736.9649  0.054009095  0.053546323            9 
 4224000   0.57072873   -3.3003195    2738.9426  0.054035326  0.053534447           13 
 4225000   0.57115945   -3.3120181    2733.9743  0.053924541  0.053522541            8 
 4226000   0.57439393   -3.3183821    2740.1791  0.054034137  0.053510599           20 
 4227000    0.5846179    -3.312238    2744.3765  0.054104103   0.05349878           13 
 4228000   0.56605522   -3.2996997    2743.1781  0.054067687    0.0534869            6 
 4229000   0.57109382   -3.3116078    2742.9422  0.054050251  0.053474983            9 
 4230000    0.5724657   -3.3013892    2738.7068  0.053954035   0.05346313           29 
 4231000   0.55798003    -3.311849    2738.6205  0.053939583  0.053451287           11 
 4232000   0.56881723   -3.3258747    2739.5952   0.05394603  0.053439457           13 
 4233000   0.57811265   -3.3029235    2742.2287   0.05398513  0.053427594            7 
 4234000   0.57510182   -3.2883854    2739.0492  0.053909802  0.053415742           14 
 4235000   0.56476339   -3.3157069     2742.205  0.053959171  0.053403894           14 
 4236000   0.58023052   -3.3191891    2741.6157  0.053934839  0.053391986            5 
 4237000    0.5662493   -3.3117734    2738.8925  0.053868548  0.053380143            5 
 4238000   0.57378288   -3.3095588    2749.7289  0.054068918  0.053368378           10 
 4239000   0.56833763   -3.2893976    2744.4216  0.053951828  0.053356612           13 
 4240000   0.57183422    -3.324152    2731.3566  0.053682323  0.053344794            8 
 4241000   0.58509785   -3.3433964    2744.1694   0.05392143  0.053332855            7 
 4242000   0.56870801   -3.3068991    2741.6437  0.053859101  0.053321023            4 
 4243000    0.5742771   -3.3220312    2743.4412   0.05388171  0.053309199            6 
 4244000   0.57059847     -3.32143    2742.1479  0.053843621  0.053297349            7 
 4245000   0.58836197    -3.316899    2737.6141  0.053741934  0.053285521            9 
 4246000   0.55556263   -3.3376261    2741.8168   0.05381176  0.053273672            8 
 4247000   0.57961155   -3.3170421    2740.7041  0.053777257  0.053261853           19 
 4248000   0.57168481     -3.31198    2748.3152  0.053913904   0.05325005            8 
 4249000   0.57345963   -3.3177625    2733.8847  0.053618198  0.053238207           13 
 4250000   0.56816341   -3.3117055    2749.0727  0.053903386  0.053226452           13 
 4251000   0.57091311   -3.3097981    2746.2104  0.053834595   0.05321477            6 
 4252000   0.57385441   -3.2993149    2744.1148  0.053780863  0.053202974            7 
 4253000   0.57405484   -3.3087976    2751.4987  0.053912898  0.053191205            4 
 4254000   0.58694511   -3.3306341    2738.5986   0.05364752  0.053179478           21 
 4255000   0.57736369   -3.3365718    2747.4477  0.053808219  0.053167718           11 
 4256000   0.57335911   -3.3276088    2736.5853  0.053582889   0.05315592            9 
 4257000   0.57276813   -3.3374075    2743.1895  0.053699583  0.053144144            9 
 4258000   0.56510931   -3.3114451    2747.1365  0.053764219  0.053132382            5 
 4259000   0.56307881   -3.3221816    2738.4492  0.053581615  0.053120626            8 
 4260000   0.57365049   -3.2972448    2750.6108   0.05380694  0.053108864           10 
 4261000   0.58212216   -3.3330584    2743.1219   0.05364785   0.05309713           10 
 4262000   0.57603958   -3.3183639    2742.2176  0.053617582  0.053085361            5 
 4263000   0.56253879   -3.3339919    2751.9017   0.05379431  0.053073656            8 
 4264000   0.57405421   -3.3072694    2749.4746  0.053734261  0.053061903            7 
 4265000   0.55887371   -3.3042579    2748.6216  0.053704994  0.053050184            7 
 4266000   0.56867573   -3.3296401    2750.7237  0.053733469  0.053038405            9 
 4267000   0.57407414   -3.3120744    2750.8192  0.053722741  0.053026674            7 
 4268000    0.5812083   -3.3226572    2742.8497  0.053554547  0.053014933            5 
 4269000   0.56779021   -3.2938981    2751.1197  0.053703438  0.053003242            6 
 4270000   0.56687851     -3.31174    2743.6757  0.053545584  0.052991542           11 
 4271000    0.5673835   -3.3096469    2751.3515  0.053682813  0.052979798           19 
 4272000   0.57135347   -3.3258381    2744.5366  0.053537309  0.052968038            6 
 4273000    0.5705005   -3.3205527    2744.9572  0.053532982  0.052956206            5 
 4274000   0.57326968   -3.3221349    2741.0347  0.053443977  0.052944432           12 
 4275000   0.55718436   -3.3293574     2743.957   0.05348844  0.052932644            6 
 4276000   0.57664868   -3.3137303    2753.3868  0.053659706  0.052920897            8 
 4277000   0.56094437   -3.3445608      2741.76  0.053420622  0.052909075           14 
 4278000   0.57342699    -3.328758    2747.0168  0.053510534  0.052897316            4 
 4279000   0.57784039   -3.3133739    2742.8177  0.053416251  0.052885541           11 
 4280000   0.56881896   -3.3309431    2750.9437  0.053561987  0.052873753           14 
 4281000   0.57677074    -3.342509    2741.8067  0.053371618  0.052861978           10 
 4282000     0.564185   -3.3202717    2745.6583  0.053434111  0.052850202           19 
 4283000   0.56313879   -3.3223407    2748.4041  0.053475058  0.052838424            5 
 4284000   0.56424259   -3.3210994    2744.2734  0.053382225  0.052826587            7 
 4285000   0.55763697   -3.3210843    2747.9686   0.05344163  0.052814761           12 
 4286000   0.56467462   -3.3344816    2742.6676  0.053326093  0.052802976            6 
 4287000   0.57271516   -3.3246175    2743.3729  0.053327363  0.052791206            6 
 4288000   0.57210414   -3.3259344     2746.354  0.053372862  0.052779433            5 
 4289000   0.56344085   -3.3316501    2742.1475  0.053278687  0.052767694            6 
 4290000   0.56240105   -3.3318869    2751.6428  0.053450715  0.052755912            5 
 4291000   0.57014855   -3.3253589    2749.4567  0.053395803  0.052744122           25 
 4292000   0.57465773   -3.3396597    2748.4247  0.053363325  0.052732361            9 
 4293000   0.56989695   -3.3110547    2743.5251  0.053255788  0.052720585           10 
 4294000   0.56059142   -3.3286508    2749.2415  0.053354321   0.05270882            6 
 4295000   0.56641868   -3.3293692     2742.522  0.053211525   0.05269706            9 
 4296000   0.55925331   -3.3265552    2741.8492  0.053186087  0.052685229            7 
 4297000    0.5641411   -3.3163221     2743.954  0.053214529  0.052673505            5 
 4298000   0.57003613   -3.3406284    2748.4188  0.053288715  0.052661817            5 
 4299000   0.56401582   -3.3281093    2747.4972  0.053258455  0.052650109            7 
 4300000   0.57725313   -3.3343464    2746.6276  0.053229217   0.05263843            9 
 4301000   0.56571916   -3.3275473    2747.7792  0.053239154  0.052626707            3 
 4302000   0.56021316   -3.3306024    2746.2525  0.053197205  0.052614931           15 
 4303000   0.56239861   -3.3249706    2749.7913  0.053253375   0.05260318           11 
 4304000    0.5683827   -3.3223108    2744.9655  0.053147567    0.0525915            9 
 4305000   0.56602473   -3.3494341    2751.1111  0.053254183  0.052579778            6 
 4306000   0.55637431   -3.3470031    2749.8242  0.053216911  0.052568062            3 
 4307000   0.55930404   -3.3422657    2745.6112   0.05312304  0.052556325            6 
 4308000   0.56083465   -3.3207719    2749.2822   0.05318172  0.052544526           14 
 4309000   0.55856141   -3.3483729    2748.7436  0.053158962  0.052532781            7 
 4310000   0.55927892   -3.3335162    2750.8547  0.053187445  0.052521086            7 
 4311000   0.57400512   -3.3401907    2739.7645  0.052960731  0.052509354            6 
 4312000   0.55762922   -3.3321111    2739.8799  0.052950679  0.052497612            6 
 4313000   0.56665935   -3.3508947    2739.6018  0.052933028  0.052485861            8 
 4314000   0.55392455   -3.3270087    2741.5077  0.052957573  0.052474054           11 
 4315000   0.56133044   -3.3456885    2747.2174   0.05305557  0.052462265            9 
 4316000   0.54295146   -3.3415991    2748.7783  0.053073415  0.052450517           16 
 4317000   0.56468218   -3.3283997    2750.7566  0.053099309  0.052438758           28 
 4318000   0.56192873   -3.3349983    2750.9346  0.053090446  0.052426963           13 
 4319000   0.57249145    -3.331224    2750.2921  0.053065758   0.05241523            7 
 4320000   0.56614185   -3.3314721    2744.5795  0.052943277  0.052403516            6 
 4321000   0.55667252   -3.3463298    2749.8486  0.053032643   0.05239171            6 
 4322000    0.5658713   -3.3408721    2743.4461  0.052896924  0.052379955            8 
 4323000   0.56413488   -3.3299331    2749.2629  0.052996817  0.052368256           10 
 4324000    0.5586221   -3.3275091    2741.8816  0.052842306  0.052356489            7 
 4325000   0.57193473   -3.3264678    2751.0257  0.053006276  0.052344728           11 
 4326000    0.5743083   -3.3275479    2734.7706  0.052680894  0.052333003            5 
 4327000   0.55871011   -3.3368313    2739.1563  0.052753183  0.052321237           18 
 4328000   0.55525219    -3.345317    2744.5684  0.052845201  0.052309383            9 
 4329000   0.55508866   -3.3311706    2750.6422  0.052949915  0.052297625           11 
 4330000   0.57443475    -3.338286    2752.8437  0.052980056  0.052285829           13 
 4331000   0.55244223   -3.3424508    2748.2513   0.05287946  0.052274087            5 
 4332000   0.55884752   -3.3533982    2750.2591  0.052905876  0.052262357            7 
 4333000   0.56730938    -3.329326    2749.2902  0.052875033  0.052250647           12 
 4334000   0.56481659   -3.3246866    2748.3516  0.052844785  0.052238963           11 
 4335000    0.5573867    -3.333032    2744.7799  0.052763935  0.052227238            6 
 4336000   0.55756374   -3.3366902    2749.0135  0.052833131  0.052215597            8 
 4337000   0.54447786   -3.3244401    2750.2625  0.052844949  0.052203848            7 
 4338000   0.55542894   -3.3329039    2748.4666  0.052798266  0.052192143            6 
 4339000   0.55817241   -3.3315487    2744.5665  0.052711195  0.052180423           18 
 4340000   0.56662158   -3.3424374    2749.5248  0.052794255  0.052168747            6 
 4341000   0.56062525   -3.3335145    2744.4111  0.052683927  0.052157064            6 
 4342000   0.54553232     -3.33425    2748.7717  0.052755484  0.052145357            6 
 4343000   0.56694026    -3.349952    2751.4136  0.052794029  0.052133684           10 
 4344000    0.5413028   -3.3512643    2752.0934  0.052794915  0.052121976           16 
 4345000   0.54573251   -3.3202788    2747.5126  0.052694909  0.052110289            6 
 4346000   0.57200887   -3.3357476     2751.461  0.052758494  0.052098608           10 
 4347000   0.55994553   -3.3489667    2756.6801  0.052846409  0.052086976            5 
 4348000   0.56601413   -3.3376214     2746.239  0.052634142  0.052075281           14 
 4349000   0.56070686   -3.3367253    2749.8265  0.052690781  0.052063604            7 
 4350000   0.56498821   -3.3352266    2746.9683  0.052623913  0.052051926           13 
 4351000   0.57720761   -3.3350363    2744.5449  0.052565404  0.052040214           14 
 4352000   0.55239828   -3.3477272     2751.809   0.05269242  0.052028512            8 
 4353000   0.55889148   -3.3553608    2756.6641  0.052773262  0.052016794           17 
 4354000   0.56901463   -3.3526872    2748.4652  0.052604218  0.052005087            8 
 4355000   0.55857914    -3.336888    2745.8358  0.052541825  0.051993403           20 
 4356000   0.54153484    -3.338923    2750.9749  0.052628078  0.051981718           27 
 4357000   0.54784793    -3.331534    2752.7003  0.052648999  0.051970071           12 
 4358000   0.54230097   -3.3386687    2747.1276  0.052530359  0.051958377            9 
 4359000   0.55482834   -3.3460881      2746.19  0.052500382  0.051946721           22 
 4360000   0.54712271   -3.3530399    2752.2123  0.052603447  0.051935014            9 
 4361000   0.55581782   -3.3397821    2755.4554  0.052653355  0.051923405           10 
 4362000   0.55517611   -3.3427421    2752.7201  0.052589029  0.051911754           10 
 4363000   0.56030631   -3.3296688    2749.1482  0.052508751  0.051900084            6 
 4364000   0.55734976   -3.3310627    2753.7391  0.052584386  0.051888416           10 
 4365000   0.54731917   -3.3537253    2752.5287  0.052549231  0.051876825           28 
 4366000   0.55799207   -3.3471315    2755.2757  0.052589626   0.05186518           15 
 4367000   0.55096179    -3.349246     2750.024  0.052477368  0.051853484           19 
 4368000   0.55517171   -3.3519767    2746.4608  0.052397375  0.051841794           24 
 4369000   0.55371641   -3.3626597    2748.3296  0.052421027  0.051830064            9 
 4370000   0.54819544   -3.3534799    2752.5261  0.052489056  0.051818357           19 
 4371000   0.55936999   -3.3516173    2754.4692  0.052514093  0.051806715            4 
 4372000    0.5517724   -3.3461971    2742.8155  0.052279954   0.05179505           18 
 4373000   0.54603412   -3.3651071    2751.5011  0.052433514  0.051783396            7 
 4374000   0.57020098   -3.3609645    2748.0312  0.052355419  0.051771751            9 
 4375000    0.5515615   -3.3451477    2751.0231   0.05240044  0.051760118            9 
 4376000   0.55294777   -3.3301065    2754.9363  0.052462985  0.051748522           19 
 4377000   0.55051604   -3.3440999    2756.8891  0.052488178  0.051736926           14 
 4378000   0.54622403   -3.3629096    2747.9852  0.052306708   0.05172532           10 
 4379000    0.5656726   -3.3642384    2756.0428    0.0524481  0.051713711            6 
 4380000    0.5511785   -3.3446705    2759.1992  0.052496179  0.051702116            4 
 4381000   0.55692288   -3.3557243    2756.6025  0.052434803  0.051690549           10 
 4382000   0.55163229   -3.3473246    2756.0052  0.052411479   0.05167894            8 
 4383000    0.5409717   -3.3542168    2753.8457  0.052358463  0.051667374            8 
 4384000   0.54928808   -3.3614575    2756.7494  0.052401715  0.051655827            8 
 4385000   0.55375813    -3.378916    2746.3983  0.052193051  0.051644279           15 
 4386000    0.5555854   -3.3470642    2753.9086  0.052323844   0.05163272            7 
 4387000   0.54835166   -3.3508041    2753.0059  0.052294771  0.051621118           17 
 4388000   0.54985956   -3.3559166    2755.8349   0.05233658  0.051609537           14 
 4389000   0.55668291   -3.3487135    2753.5648  0.052281552  0.051597935           17 
 4390000   0.55064343    -3.358011    2749.6051  0.052194479  0.051586344           19 
 4391000   0.55301134   -3.3504837    2756.7384  0.052317969  0.051574705            8 
 4392000   0.54885775   -3.3618409    2755.6515  0.052285433  0.051563067            6 
 4393000   0.55006872     -3.34382    2747.1967  0.052113149  0.051551442           10 
 4394000   0.54609488   -3.3577726    2746.6159  0.052090273  0.051539807           10 
 4395000    0.5413565   -3.3559292    2750.1641  0.052145697  0.051528122           10 
 4396000   0.54722382   -3.3516903    2753.7936  0.052202639   0.05151652            8 
 4397000   0.55266652   -3.3620145    2754.8639   0.05221105  0.051504888           10 
 4398000   0.54652426   -3.3590384    2745.0996  0.052014166  0.051493219           10 
 4399000    0.5438119   -3.3552739    2757.1715  0.052231027  0.051481587           10 
 4400000   0.54991222    -3.349015    2753.9576  0.052158288  0.051469942           11 
 4401000   0.55278677   -3.3417189    2762.8905  0.052315581  0.051458376            9 
 4402000   0.55615691   -3.3748819    2760.5458   0.05225931  0.051446781           29 
 4403000   0.54202899   -3.3678221    2757.9158  0.052197664  0.051435187            6 
 4404000   0.54605324   -3.3474547    2747.7126  0.051992744  0.051423543           11 
 4405000   0.53436424    -3.366735    2750.5536  0.052034689  0.051411875            8 
 4406000   0.55331397   -3.3664455    2751.3601  0.052038132   0.05140023            7 
 4407000   0.54860621    -3.350068    2752.6242  0.052050228   0.05138859            9 
 4408000   0.55176324   -3.3803508    2753.3342  0.052051842  0.051376985           19 
 4409000   0.55312146   -3.3688684    2753.4882  0.052042947  0.051365398            8 
 4410000   0.53986742   -3.3519523    2756.0443  0.052079446  0.051353843            7 
 4411000    0.5509926   -3.3665093    2756.1594  0.052069815  0.051342316           15 
 4412000   0.54729144   -3.3576915    2754.2985  0.052022864  0.051330749            6 
 4413000   0.53380478   -3.3564875     2757.977  0.052080538  0.051319161           11 
 4414000   0.54727356   -3.3430607     2759.175  0.052091356  0.051307655            8 
 4415000   0.54876676   -3.3695294    2757.9748  0.052056904  0.051296124           10 
 4416000   0.55418719   -3.3543909    2748.3254  0.051863024   0.05128451           33 
 4417000   0.54001941   -3.3524326     2749.406  0.051871671  0.051272841           10 
 4418000   0.54469976   -3.3550039    2758.5643  0.052032675  0.051261225            8 
 4419000   0.53976021   -3.3377744    2750.8812  0.051876014  0.051249711           16 
 4420000   0.54740055   -3.3433158    2756.7403  0.051974741  0.051238163            8 
 4421000   0.54695141    -3.375086    2752.7836  0.051888404    0.0512266            5 
 4422000   0.54584771   -3.3486197    2762.0439  0.052051182  0.051215041            6 
 4423000   0.54458013   -3.3750773    2754.6729  0.051900537   0.05120349            9 
 4424000   0.54384703   -3.3707726    2759.6533  0.051982619  0.051191871           10 
 4425000   0.54079126   -3.3761801    2755.8867  0.051899937  0.051180251            6 
 4426000   0.55191982   -3.3774686    2749.4668  0.051767338  0.051168616           32 
 4427000   0.53632058   -3.3607933    2752.9895  0.051821955  0.051157013           12 
 4428000   0.54688147   -3.3622561    2746.2304  0.051683046  0.051145394           16 
 4429000   0.54996337   -3.3443372    2756.0921   0.05185693  0.051133767            9 
 4430000   0.53921607   -3.3466868    2755.4513  0.051833169  0.051122124           13 
 4431000   0.53957743    -3.373764    2742.3731  0.051575512  0.051110432           14 
 4432000   0.54101307   -3.3606267    2752.4708  0.051753738    0.0510988           10 
 4433000    0.5383902   -3.3552571     2751.509  0.051723984  0.051087172            7 
 4434000   0.54721551   -3.3635262    2754.5134  0.051768783  0.051075571            8 
 4435000   0.53133932   -3.3566428    2751.3604  0.051697866  0.051063944            8 
 4436000    0.5392709   -3.3546873    2752.2776  0.051703441   0.05105232            8 
 4437000   0.53938693   -3.3718865    2747.3454  0.051599155   0.05104065            7 
 4438000   0.54454533   -3.3662884    2749.1394  0.051621214  0.051029001           10 
 4439000    0.5424554   -3.3717255    2751.2388  0.051648997  0.051017388            8 
 4440000   0.55318234   -3.3651313     2754.206  0.051693056  0.051005779            8 
 4441000     0.541908   -3.3557168    2752.1419  0.051642684  0.050994153            8 
 4442000   0.53250904   -3.3742099    2750.8123  0.051606113  0.050982553           17 
 4443000   0.53672429     -3.36977    2757.2937  0.051716065  0.050970964           12 
 4444000   0.54923533   -3.3703279    2755.5972  0.051672614   0.05095941            8 
 4445000   0.53676252   -3.3671809    2750.8545  0.051572075  0.050947794           10 
 4446000   0.54137442   -3.3583427    2750.7774  0.051559031  0.050936143           12 
 4447000   0.52989194   -3.3721782    2755.5498  0.051636868  0.050924568            9 
 4448000   0.53986407   -3.3740033    2761.7511   0.05174144   0.05091303            9 
 4449000   0.54462662   -3.3815654     2752.317  0.051553103  0.050901444           10 
 4450000   0.53357791   -3.3680715    2755.9045  0.051608699    0.0508899            8 
 4451000   0.52587846   -3.3696046    2753.9033  0.051559636  0.050878363            9 
 4452000   0.54601212   -3.3693586    2753.9487  0.051548905  0.050866782            9 
 4453000   0.54189938   -3.3611883    2756.2943  0.051581224  0.050855198           14 
 4454000   0.53423013   -3.3818309    2760.4899  0.051648142  0.050843613           19 
 4455000   0.53867788   -3.3692027    2752.3354  0.051484015  0.050832031           10 
 4456000   0.54404762   -3.3697845    2759.1151  0.051599251  0.050820454           14 
 4457000   0.54206816   -3.3820821    2752.9039  0.051471541  0.050808817           12 
 4458000   0.55562232     -3.37316    2748.2442  0.051372892  0.050797181            7 
 4459000   0.54219502    -3.375098    2757.0844  0.051526582    0.0507856           18 
 4460000   0.53170991   -3.3678256    2756.6991   0.05150783  0.050773993           18 
 4461000   0.53982491   -3.3874899    2757.3458  0.051508365  0.050762396           15 
 4462000   0.52663188   -3.3854929     2746.159  0.051287893  0.050750741            9 
 4463000   0.54471178   -3.3818951    2756.3009  0.051465772  0.050739151           14 
 4464000   0.53967106   -3.3737205    2754.7949  0.051426129  0.050727545           30 
 4465000   0.53482424   -3.3841447    2758.2208  0.051478552  0.050715967            8 
 4466000    0.5399579   -3.3553705    2756.0373  0.051426282  0.050704456           28 
 4467000   0.54646396    -3.367287    2762.3948  0.051533371  0.050692982           28 
 4468000   0.52949469   -3.3821426    2752.4418  0.051336203  0.050681374           10 
 4469000   0.53185498   -3.3709466    2745.0413  0.051186718  0.050669755            9 
 4470000   0.54356007    -3.397452    2754.4338   0.05135037  0.050658103            6 
 4471000   0.53970997   -3.3656223    2752.2791  0.051298723  0.050646456           17 
 4472000   0.54442772   -3.3745423    2757.1274  0.051377598  0.050634856            8 
 4473000    0.5389928     -3.35874    2750.9573   0.05125116  0.050623253            9 
 4474000   0.54139638   -3.3846006     2749.817  0.051218466  0.050611704            9 
 4475000   0.54699431   -3.3785661    2748.4017  0.051180664  0.050600121           21 
 4476000    0.5271032    -3.374113    2743.9496  0.051086341  0.050588495            7 
 4477000   0.53607536   -3.3627474     2752.527  0.051234589  0.050576882            7 
 4478000   0.53376872   -3.3694685    2748.6718  0.051151404   0.05056529            6 
 4479000   0.53397687    -3.394311    2751.1284  0.051185689  0.050553656            9 
 4480000   0.54110879   -3.3755318    2746.4007  0.051086323  0.050542002           24 
 4481000   0.52490267   -3.3845653    2746.3575  0.051074119  0.050530345           10 
 4482000   0.53333235   -3.3774897    2760.7297  0.051329944  0.050518742           22 
 4483000   0.52049781   -3.3778607    2751.6423  0.051149571  0.050507152           12 
 4484000    0.5337445   -3.3954668    2760.4217  0.051301325   0.05049557           18 
 4485000   0.52761855   -3.3825901    2752.8501  0.051149203  0.050483976            9 
 4486000   0.52893887   -3.3625367    2751.8855  0.051119882  0.050472377           10 
 4487000   0.53811277   -3.3919539    2757.3191  0.051209403    0.0504608           11 
 4488000   0.53481021   -3.3840767     2758.429  0.051218601  0.050449216            9 
 4489000   0.52566146   -3.3938773    2751.1831   0.05107268  0.050437638           21 
 4490000   0.52660297   -3.3800446    2758.2353  0.051192193   0.05042602            7 
 4491000   0.54338054   -3.3913452    2752.3723  0.051072001  0.050414465           11 
 4492000   0.53743143   -3.3729661     2750.576  0.051027308  0.050402877           20 
 4493000   0.53788269   -3.3761516    2755.9219  0.051115103  0.050391297            9 
 4494000   0.54001219   -3.3855192     2751.283  0.051017709  0.050379777           24 
 4495000   0.54423085   -3.3909548    2752.4927  0.051028787   0.05036818           12 
 4496000   0.52913706   -3.3863294    2750.6142  0.050982618  0.050356655           17 
 4497000   0.52525655   -3.3794397    2750.4541  0.050968314  0.050345117           17 
 4498000   0.53387578   -3.3966773    2758.3824  0.051103868  0.050333571           20 
 4499000   0.53874622   -3.3959269    2754.3218  0.051017297  0.050322033           10 
 4500000   0.52995732   -3.3915453    2760.4149  0.051118795  0.050310451           14 
 4501000   0.53080327   -3.3766271    2759.1544  0.051084099  0.050298947           14 
 4502000   0.53756269   -3.3759459    2754.8317  0.050992739  0.050287427           32 
 4503000   0.53175331   -3.3849375     2753.471  0.050956233   0.05027589           12 
 4504000   0.52230214   -3.3546296    2762.1701   0.05110587  0.050264378            6 
 4505000   0.54672617   -3.3949544    2762.5205  0.051101008  0.050252905           10 
 4506000   0.52271945   -3.3906817    2751.2795  0.050881778  0.050241404           24 
 4507000   0.53446801   -3.3806149    2752.9067  0.050900575  0.050229879           10 
 4508000   0.53331897   -3.3990386    2757.6388   0.05097676  0.050218311           16 
 4509000    0.5349668   -3.3985964    2755.7516  0.050930576  0.050206801           11 
 4510000    0.5248682   -3.3927633    2761.4905  0.051025323  0.050195259           10 
 4511000   0.52685811   -3.3783934    2759.7289  0.050981469   0.05018377            9 
 4512000    0.5279701   -3.3709905    2753.1474  0.050848615  0.050172316            7 
 4513000   0.53770855   -3.3787048     2756.127  0.050892367  0.050160794           13 
 4514000   0.52814676    -3.371466    2755.6251  0.050871827   0.05014927           10 
 4515000   0.52393565   -3.3932454    2765.1509  0.051036378   0.05013776           14 
 4516000   0.52613399   -3.3825087    2762.4316  0.050974896  0.050126248            8 
 4517000   0.51720986   -3.3859316    2756.9596   0.05086266  0.050114756           19 
 4518000    0.5374288    -3.399633    2757.4739  0.050860888  0.050103283            8 
 4519000   0.53724951   -3.3882154    2756.5736  0.050833031  0.050091799           12 
 4520000   0.52824882   -3.4035662    2756.6153  0.050822553  0.050080352           20 
 4521000   0.51999014   -3.4044851    2756.4017  0.050807376  0.050068869           15 
 4522000   0.53357132   -3.3936377    2762.1878  0.050902768  0.050057393           10 
 4523000   0.52291355   -3.3934146    2759.6914   0.05084552  0.050045897            8 
 4524000   0.53108284   -3.3903295    2757.5455  0.050794751  0.050034436           14 
 4525000   0.53006187   -3.3852703    2755.7315   0.05075012  0.050022962           11 
 4526000   0.51972957   -3.3950215    2756.4675  0.050752458  0.050011474            9 
 4527000   0.53162403   -3.3943621    2763.4919  0.050870552  0.050000023            8 
 4528000   0.52155813   -3.3855865    2757.3725  0.050746697  0.049988532           11 
 4529000   0.53437021   -3.3909152     2761.621  0.050813664  0.049977101            6 
 4530000   0.52588493   -3.3910178    2758.7889  0.050750348  0.049965601           12 
 4531000   0.53065906   -3.4058257     2753.226  0.050636835  0.049954175            9 
 4532000   0.52883858   -3.4043104    2757.9285  0.050712131  0.049942707           14 
 4533000   0.52037791   -3.4062213    2754.0562  0.050629756  0.049931276            9 
 4534000   0.51949094   -3.4115703     2757.313  0.050678447  0.049919796           15 
 4535000   0.53061828   -3.4208294    2760.0952  0.050718397  0.049908263           35 
 4536000   0.52528071   -3.4274309      2758.29  0.050674053  0.049896734           10 
 4537000   0.51842111   -3.3836952    2758.3344  0.050663698  0.049885248           12 
 4538000   0.54011817   -3.3885316    2754.5931   0.05058383  0.049873821           30 
 4539000   0.51649345   -3.3907203    2763.9987  0.050745368  0.049862384           35 
 4540000   0.52313924   -3.3981925     2756.309  0.050593043  0.049850886           12 
 4541000   0.52649806    -3.407285    2751.4288  0.050492344  0.049839408           15 
 4542000   0.53281884   -3.3919244    2762.0255  0.050675647  0.049827946           16 
 4543000   0.51822654   -3.4068334    2760.3488  0.050633736  0.049816533           11 
 4544000    0.5235204   -3.3821499    2755.5473  0.050534538  0.049805098            7 
 4545000   0.52886711   -3.4071401    2759.7438  0.050600362   0.04979365            9 
 4546000   0.52777017   -3.3817714    2764.2652  0.050672115   0.04978223           11 
 4547000   0.52129694   -3.3927077    2759.6999  0.050577301  0.049770827           13 
 4548000   0.52770705   -3.4036457    2754.8088  0.050476561  0.049759399           31 
 4549000   0.52118878   -3.3985603    2755.7031  0.050481848  0.049747963           11 
 4550000   0.52278989   -3.3800325    2752.9137  0.050419666  0.049736541           16 
 4551000   0.52634773   -3.3977125    2759.0781  0.050521463  0.049725106            9 
 4552000   0.52887535   -3.4037801    2757.8674  0.050488199  0.049713629            7 
 4553000   0.52471838   -3.3955176    2758.1294  0.050481905  0.049702187           11 
 4554000   0.52448893   -3.3948258    2757.4068  0.050457598  0.049690805            9 
 4555000   0.51943709   -3.3900335    2755.8128  0.050417358  0.049679375            8 
 4556000   0.52560257   -3.3956907    2762.2913   0.05052479  0.049667947            7 
 4557000   0.53644063   -3.4093997    2764.5303  0.050554647  0.049656532            8 
 4558000   0.51942605   -3.4172776    2758.8835  0.050440315   0.04964514            9 
 4559000   0.51440643   -3.3957061    2755.7682  0.050372308  0.049633717           14 
 4560000   0.52192489   -3.4163088    2755.3367  0.050353375   0.04962228           15 
 4561000   0.52543296   -3.4056703    2752.7876   0.05029576  0.049610808            9 
 4562000   0.52568829   -3.3982279    2758.6291  0.050391442  0.049599328           18 
 4563000   0.51819783   -3.3924181    2757.3021  0.050356164  0.049587905           15 
 4564000   0.52179036    -3.401721    2756.5063    0.0503306  0.049576541            8 
 4565000    0.5192811   -3.3964897    2759.0609  0.050366208  0.049565142           16 
 4566000   0.52857253    -3.404722    2757.8684  0.050333414   0.04955378           19 
 4567000   0.53215669   -3.4110161    2758.0987  0.050326595  0.049542425           15 
 4568000   0.51490276   -3.3991516    2751.8358  0.050201325   0.04953101           24 
 4569000   0.52541046   -3.4060365    2757.0065  0.050284646  0.049519644           10 
 4570000   0.52697729   -3.3913183    2762.0592  0.050365777  0.049508242           16 
 4571000   0.51595471   -3.3879796    2757.6921  0.050275141   0.04949686           16 
 4572000   0.52538115   -3.4186046    2756.2098  0.050237127  0.049485441           14 
 4573000   0.52304386   -3.3838364    2762.6693  0.050343854  0.049474045           13 
 4574000   0.52232401   -3.4008263    2751.2221  0.050124291  0.049462643            9 
 4575000   0.52796495   -3.4097834    2754.5229  0.050173459  0.049451243           10 
 4576000   0.52597942   -3.3908183    2761.2607  0.050285197  0.049439837           17 
 4577000   0.51993889   -3.4113861    2760.2188  0.050255241  0.049428412           12 
 4578000   0.52221112    -3.421243     2754.248  0.050135577  0.049416985            9 
 4579000   0.52142311   -3.3998145     2757.718  0.050187778  0.049405573            9 
 4580000   0.52036925   -3.4033645    2755.8681  0.050143161   0.04939413            8 
 4581000   0.52091484   -3.4234187    2758.3258  0.050176922  0.049382684           12 
 4582000   0.50796064   -3.3901272    2760.2114  0.050200266  0.049371231            5 
 4583000   0.50530562   -3.4139144    2756.4366  0.050120674  0.049359813            8 
 4584000   0.52083347   -3.4099884    2761.4037  0.050200038  0.049348372           10 
 4585000   0.51660482   -3.4041637    2758.2057  0.050130965  0.049336918           11 
 4586000   0.52062567   -3.4007659    2754.2791  0.050048683   0.04932544            9 
 4587000   0.51658744     -3.41794    2759.8115  0.050138281  0.049314001           18 
 4588000   0.50619345   -3.4158525     2754.961  0.050039251  0.049302542           11 
 4589000   0.51587181   -3.4024529    2759.0931  0.050103383  0.049291135           11 
 4590000    0.5176193     -3.41067    2757.6218  0.050065755  0.049279686           24 
 4591000   0.52167464   -3.4191901    2759.9289  0.050096727  0.049268261           16 
 4592000   0.51044316   -3.4042341    2760.5638   0.05009734  0.049256839           12 
 4593000   0.52392907   -3.4097753    2757.3841  0.050028742  0.049245365           11 
 4594000   0.51113102    -3.411793    2758.0241   0.05002946  0.049233964           11 
 4595000   0.51059216   -3.3867563    2756.8999  0.049998185  0.049222573           11 
 4596000   0.50647917   -3.3927071     2754.334  0.049940781  0.049211165           10 
 4597000   0.51500685   -3.4055334    2758.6119  0.050007467  0.049199744           17 
 4598000   0.50240078   -3.4144813    2757.2085  0.049971157  0.049188285           11 
 4599000    0.5218111   -3.4125546    2761.9459  0.050046131  0.049176815           13 
 4600000   0.50936296   -3.4217693    2749.9383  0.049817722  0.049165311           13 
 4601000   0.51937957   -3.4130643    2751.3887  0.049833166  0.049153767           17 
 4602000   0.51069847   -3.4098453    2760.5635  0.049988474  0.049142304           44 
 4603000   0.50986071   -3.4247072      2752.66  0.049834529  0.049130811           22 
 4604000   0.51575906   -3.4122849     2754.463  0.049856338  0.049119342           25 
 4605000   0.51799731   -3.4141804    2757.3805  0.049898307   0.04910789           11 
 4606000   0.51696044   -3.4090442    2759.0883  0.049918373  0.049096389           14 
 4607000   0.50916186   -3.4074292    2758.2474  0.049892326  0.049084913            9 
 4608000   0.51511837   -3.4056998    2752.8028  0.049783037  0.049073454           12 
 4609000   0.51217517   -3.4265992    2754.7324  0.049807124   0.04906196            8 
 4610000   0.52108407   -3.4067338    2760.0625  0.049892669  0.049050499           17 
 4611000   0.51645752   -3.4259671    2758.4781  0.049853215  0.049039034           12 
 4612000   0.51550593   -3.4195872    2757.5218  0.049825127  0.049027574           13 
 4613000   0.51642845   -3.4277885    2751.5076  0.049705679  0.049016097           20 
 4614000   0.51228673   -3.4069918    2750.1111  0.049669685  0.049004634           19 
 4615000   0.50823589   -3.4178555    2755.8368  0.049762311  0.048993132           28 
 4616000   0.50922374   -3.4322437    2755.2227  0.049740444  0.048981643           14 
 4617000   0.51299379   -3.4348678    2744.8795  0.049542985   0.04897012           14 
 4618000    0.5139029   -3.4251184    2752.0088  0.049660907   0.04895862           23 
 4619000   0.51381028   -3.4266478    2755.4308  0.049711893  0.048947135           11 
 4620000   0.52206486   -3.4051283    2756.5079  0.049720561  0.048935686            5 
 4621000   0.51577975   -3.4157518    2752.1913  0.049631957  0.048924242           25 
 4622000    0.5122158    -3.417308    2761.2828  0.049785137  0.048912855           27 
 4623000   0.51179499   -3.3907031    2756.4605  0.049687442   0.04890149           13 
 4624000   0.50684304   -3.4019432    2759.3543  0.049728848   0.04889011            7 
 4625000   0.51824198   -3.4083029    2761.4445  0.049755756  0.048878716           18 
 4626000   0.51664228   -3.4287247    2761.5908  0.049747636  0.048867315           13 
 4627000   0.51556377   -3.4060009    2758.8577  0.049687662  0.048855958           11 
 4628000   0.51346452   -3.4160736     2756.419  0.049633013  0.048844591           19 
 4629000   0.51530164   -3.4080208    2755.1291   0.04959907  0.048833173           15 
 4630000   0.50636203   -3.4252537    2751.2565  0.049518656   0.04882175           14 
 4631000   0.51190788   -3.4232343    2761.0197  0.049683648  0.048810354           10 
 4632000   0.51215294   -3.4245999    2757.2748  0.049605549  0.048799008           11 
 4633000   0.51444376   -3.4305788    2752.8998  0.049516148  0.048787587           34 
 4634000    0.5080905   -3.4263073    2757.2784  0.049584203   0.04877621           10 
 4635000   0.51416651   -3.3929692    2765.7367  0.049725579  0.048764887            7 
 4636000   0.50452792   -3.4160576     2761.463  0.049638032  0.048753521           10 
 4637000   0.51284803   -3.4280877    2758.1812  0.049568349   0.04874215           17 
 4638000   0.50625938   -3.4341063    2766.4147  0.049705597  0.048730799           14 
 4639000   0.50202319   -3.4354688    2760.2194  0.049583592  0.048719489           11 
 4640000   0.49864787   -3.4113598    2761.5763  0.049597276  0.048708153           13 
 4641000   0.51800188    -3.425374    2760.8059  0.049572755  0.048696776           16 
 4642000   0.50292387   -3.4365508    2755.1963  0.049461372  0.048685421           22 
 4643000   0.51975717   -3.4229738    2766.6124  0.049655618  0.048674085           18 
 4644000    0.5133859   -3.4269888    2759.3372  0.049514378   0.04866275            7 
 4645000   0.50192107    -3.418472    2764.7262  0.049600397  0.048651446           10 
 4646000   0.51702344   -3.4347103     2759.405  0.049494278  0.048640129            5 
 4647000   0.50263096   -3.4263343    2766.3471  0.049608118  0.048628786           12 
 4648000   0.49871496   -3.4288183    2755.6876  0.049406332  0.048617437           13 
 4649000   0.50224974   -3.4152649     2762.718  0.049521726  0.048606135           29 
 4650000   0.51454794   -3.4252635    2755.8998  0.049388884  0.048594846           13 
 4651000   0.51151763   -3.4416455    2759.9096  0.049450112  0.048583515           19 
 4652000   0.49889654   -3.4293172    2762.1121  0.049478935  0.048572185           11 
 4653000   0.51364153   -3.4285982    2765.2808  0.049525051  0.048560923           11 
 4654000   0.50777613   -3.4087586    2762.2804  0.049460685  0.048549659           11 
 4655000   0.50296727   -3.4183795    2762.9936  0.049462828  0.048538365           24 
 4656000   0.50528155   -3.4280872    2757.3387  0.049350993  0.048527069           12 
 4657000   0.50213923   -3.4217942    2772.5066  0.049611814  0.048515772           25 
 4658000   0.50800614    -3.455704    2761.6456  0.049406856  0.048504522           13 
 4659000   0.50200286   -3.4307184     2753.851  0.049256833   0.04849326            9 
 4660000   0.49085703   -3.4331172    2758.7535  0.049333932  0.048481956           10 
 4661000   0.50130344   -3.4197589    2761.4861  0.049372204  0.048470674           10 
 4662000   0.50896631   -3.4249973    2760.9045  0.049351217  0.048459401           18 
 4663000   0.50562332   -3.4194304    2754.9935  0.049234998   0.04844812           21 
 4664000    0.5075558   -3.4368994    2762.6995  0.049362127  0.048436793           11 
 4665000    0.5054101   -3.4229676    2758.2366  0.049271821   0.04842548           14 
 4666000   0.50346126   -3.4257469    2755.1131  0.049205478  0.048414114           25 
 4667000   0.50610115    -3.437049    2755.7432  0.049206185  0.048402796           18 
 4668000   0.50855656   -3.4155445    2759.4233  0.049261342   0.04839154           13 
 4669000   0.50651721   -3.4212934    2759.6708  0.049255208  0.048380258           17 
 4670000   0.50563283   -3.4195715    2754.5154  0.049152667  0.048368937           10 
 4671000   0.51462346   -3.4250478    2759.8855  0.049237948  0.048357622           34 
 4672000   0.50194201   -3.4225104    2764.8361  0.049315713  0.048346353            7 
 4673000   0.48917987   -3.4157545    2757.9128  0.049181697  0.048335031           17 
 4674000   0.49546414   -3.4327719    2759.1815  0.049193794  0.048323664           37 
 4675000   0.50528878   -3.4179512    2753.8176  0.049087658  0.048312307           16 
 4676000   0.50396774    -3.442539    2754.1512  0.049083105  0.048300943           18 
 4677000   0.49140473   -3.4282193    2761.5179  0.049203868  0.048289627           18 
 4678000   0.49443418   -3.4371353     2755.214  0.049081053  0.048278294           18 
 4679000   0.49909764   -3.4245603    2753.9725  0.049048452  0.048266963            7 
 4680000   0.50012118   -3.4372475    2756.4835  0.049082684  0.048255603           13 
 4681000   0.50977944   -3.4477166     2752.876  0.049007975  0.048244226           28 
 4682000   0.50194668   -3.4342682    2756.5075  0.049062143   0.04823286           16 
 4683000   0.50696323   -3.4199829    2753.9413  0.049006003  0.048221481           31 
 4684000   0.50559676   -3.4354943    2758.3536   0.04907404  0.048210127           18 
 4685000   0.49832339   -3.4397974      2752.58  0.048960868  0.048198748           21 
 4686000   0.49957957   -3.4223191    2752.7862  0.048954086  0.048187375            9 
 4687000    0.5017636   -3.4517051    2755.1061  0.048984888   0.04817605           10 
 4688000   0.49374801   -3.4312102     2763.381  0.049121533  0.048164727           12 
 4689000   0.49617223   -3.4312717    2760.9712   0.04906823  0.048153461            8 
 4690000   0.50130507   -3.4382423    2759.7087  0.049035335  0.048142171           18 
 4691000   0.51344624   -3.4340047    2758.6708  0.049006444  0.048130858           10 
 4692000   0.50948208   -3.4343504    2757.2168  0.048970176  0.048119503           27 
 4693000   0.50493678    -3.446391    2752.9553  0.048884069   0.04810816           16 
 4694000   0.50017039   -3.4488589     2760.028  0.048999218  0.048096791           14 
 4695000   0.49457122   -3.4301303    2758.2001  0.048956339  0.048085457           10 
 4696000   0.50347963   -3.4327607    2753.7003  0.048866062  0.048074162           18 
 4697000   0.50585665   -3.4332063    2758.7395  0.048945062  0.048062837           31 
 4698000   0.50493984   -3.4474979    2757.4066  0.048911001   0.04805155           28 
 4699000   0.49281026   -3.4407746    2761.0157  0.048964597  0.048040223           19 
 4700000   0.50985802   -3.4417091    2760.1478  0.048938791  0.048028902           16 
 4701000   0.50111817   -3.4241087     2754.358  0.048825746  0.048017609           25 
 4702000   0.50777913   -3.4499355     2762.978  0.048968135  0.048006331           33 
 4703000   0.49758876     -3.44896    2757.1584  0.048854604  0.047995004           12 
 4704000   0.49645492   -3.4353885    2760.8763  0.048910082  0.047983696           20 
 4705000   0.49733935   -3.4526112    2755.7117  0.048808213  0.047972421           16 
 4706000   0.49047715   -3.4442219    2754.2474  0.048771913  0.047961077           19 
 4707000   0.49248774   -3.4417644    2761.6123   0.04889194  0.047949699           44 
 4708000   0.49324319   -3.4426623    2764.1364  0.048926232   0.04793838           20 
 4709000   0.50313314   -3.4340708    2757.9377  0.048806147  0.047927112            8 
 4710000   0.49993308   -3.4627288    2756.5418  0.048771087  0.047915764           17 
 4711000   0.50314629   -3.4504128    2762.0034  0.048857345  0.047904424           21 
 4712000   0.49548115   -3.4453157    2749.0911  0.048618617  0.047893032           11 
 4713000   0.49425435   -3.4512797    2757.1611  0.048750992  0.047881714            8 
 4714000   0.50376101   -3.4449625     2757.365  0.048744255  0.047870376           14 
 4715000   0.49840951   -3.4563106    2755.5798  0.048702365  0.047859035           17 
 4716000   0.49769493   -3.4565419    2755.2538  0.048686278  0.047847746           28 
 4717000   0.49315846   -3.4521928    2762.4638  0.048803331  0.047836441           16 
 4718000   0.49642823   -3.4449727     2760.253  0.048753939  0.047825186           27 
 4719000   0.49232482   -3.4359177    2761.9482  0.048773543  0.047813886           18 
 4720000   0.49447736   -3.4530933    2757.7976  0.048689929  0.047802605           18 
 4721000   0.49830275   -3.4482701    2763.3697  0.048777973  0.047791313           12 
 4722000   0.49507808   -3.4442437      2756.62  0.048648524  0.047779993           30 
 4723000   0.49354114   -3.4426485    2749.5379  0.048513267  0.047768735           21 
 4724000   0.48110592   -3.4531131     2751.633  0.048539955  0.047757456           28 
 4725000    0.4952008   -3.4459261    2752.5834  0.048546444   0.04774616           14 
 4726000   0.48819981   -3.4392378    2756.0794  0.048597818  0.047734891           12 
 4727000   0.49595584   -3.4250768    2761.9296  0.048690671  0.047723612           27 
 4728000   0.49390324   -3.4415502    2759.0719  0.048630004  0.047712358           11 
 4729000   0.49580518    -3.449482    2761.2846  0.048658712  0.047701141            7 
 4730000   0.49649425   -3.4272957     2768.187  0.048770031  0.047689906            9 
 4731000   0.50042058   -3.4352433    2755.6089  0.048538168  0.047678687           22 
 4732000    0.4991375   -3.4385306    2756.9812  0.048552079  0.047667438           16 
 4733000    0.4895359   -3.4270827    2753.9458  0.048488376  0.047656187            7 
 4734000   0.48862649   -3.4346345     2756.151  0.048516952  0.047644935           13 
 4735000   0.49271863   -3.4639599    2748.8506  0.048378222  0.047633613            8 
 4736000   0.48944652   -3.4481136    2755.9837   0.04849352  0.047622296            5 
 4737000   0.49616442   -3.4512943    2758.3706  0.048525272  0.047611018           12 
 4738000   0.51222996   -3.4264834    2759.4221  0.048533525   0.04759983           13 
 4739000   0.50297815   -3.4381481     2758.307  0.048503676  0.047588612           22 
 4740000   0.48756264   -3.4463546    2754.2952  0.048422912  0.047577388           22 
 4741000   0.48651742   -3.4409139     2757.923  0.048476464  0.047566123           14 
 4742000   0.48390457   -3.4627355    2755.3264  0.048420609  0.047554885           25 
 4743000   0.48802703   -3.4643815    2748.7385  0.048294653  0.047543567           14 
 4744000   0.48799394   -3.4478363    2755.0099  0.048394637  0.047532248           23 
 4745000    0.4913485   -3.4311301    2755.7959  0.048398243     0.047521           15 
 4746000   0.49700314    -3.453407    2757.7104   0.04842166  0.047509751           46 
 4747000    0.4822526   -3.4635939    2759.1093  0.048436017  0.047498467           23 
 4748000   0.48411441   -3.4635062    2754.2809  0.048341072  0.047487139           10 
 4749000   0.49378686   -3.4485759    2755.0109  0.048343703  0.047475812           12 
 4750000   0.49136204   -3.4370905    2763.0162  0.048473968  0.047464596           21 
 4751000   0.49389563   -3.4615177    2756.5216  0.048349849   0.04745338           12 
 4752000   0.48719803   -3.4557406     2761.369   0.04842468  0.047442139           10 
 4753000   0.48870817   -3.4421619    2761.7476   0.04842113  0.047430925            8 
 4754000   0.50168789   -3.4361496    2753.8758   0.04827296  0.047419688            8 
 4755000   0.49742333     -3.45513    2756.8585   0.04831508  0.047408452           14 
 4756000   0.47854394   -3.4493982    2758.7885  0.048338739  0.047397199           19 
 4757000   0.50168735   -3.4516438    2760.0039  0.048349869  0.047385931           14 
 4758000   0.49033289   -3.4723096    2750.4764  0.048172838  0.047374661           18 
 4759000   0.49011466    -3.458643    2756.4392   0.04826713  0.047363394           16 
 4760000   0.48891817   -3.4538704    2759.7678  0.048315263   0.04735218           12 
 4761000   0.48613849   -3.4735612      2761.06  0.048327732  0.047340949           12 
 4762000   0.49541511    -3.441063    2759.6405  0.048292743  0.047329711           46 
 4763000   0.48062824   -3.4571383    2758.7844  0.048267625  0.047318478           13 
 4764000   0.48731568   -3.4585968    2764.7615  0.048362047   0.04730728           12 
 4765000   0.48466553     -3.46194    2757.4821  0.048224591  0.047296109           18 
 4766000   0.49842786   -3.4623001    2758.9515  0.048240164  0.047284884           29 
 4767000   0.48905794   -3.4647298    2762.0252  0.048283777  0.047273667           31 
 4768000   0.48346275    -3.451166    2756.0363  0.048168979  0.047262447           25 
 4769000   0.48810399   -3.4714084    2759.0568  0.048211658  0.047251257           17 
 4770000   0.48009045   -3.4486023    2755.5401  0.048140113  0.047240067           15 
 4771000   0.50329403   -3.4817252    2758.3745  0.048179531  0.047228873           17 
 4772000   0.48162756   -3.4592998    2758.5217  0.048172006   0.04721772           31 
 4773000   0.48492546   -3.4632592    2757.9124  0.048151275  0.047206536            7 
 4774000   0.48852347   -3.4444568    2758.8559  0.048157658  0.047195352           31 
 4775000   0.48953416   -3.4425304    2759.5444  0.048159588  0.047184181           25 
 4776000    0.4869325   -3.4629444    2754.8436  0.048067482   0.04717299           16 
 4777000   0.47874801    -3.468353    2757.6798  0.048106898  0.047161789           17 
 4778000   0.49336835   -3.4520537    2750.9488  0.047979434   0.04715058           10 
 4779000   0.48897982    -3.470265    2754.1998  0.048026083  0.047139309           24 
 4780000   0.48762228   -3.4593943    2758.6606  0.048093805  0.047128081           17 
 4781000    0.4841578   -3.4675558    2754.6614  0.048014038  0.047116894           18 
 4782000   0.48149503    -3.467138    2760.0869  0.048098546  0.047105688           26 
 4783000   0.48252773   -3.4751784    2759.6987  0.048081725  0.047094519           11 
 4784000   0.48839196   -3.4609451    2758.8413  0.048056739  0.047083328            9 
 4785000   0.49984036   -3.4551364    2756.0357  0.047997835  0.047072171           13 
 4786000   0.48514446    -3.462089    2764.5046  0.048135266  0.047060987            7 
 4787000   0.48104915   -3.4774686    2762.1909  0.048084932  0.047049791           26 
 4788000   0.48297291   -3.4646568     2754.119  0.047934403  0.047038606           15 
 4789000   0.48108305   -3.4555373    2753.1543  0.047907606  0.047027429           10 
 4790000   0.48778624    -3.473389    2755.9389   0.04794605  0.047016257           16 
 4791000   0.47853529   -3.4444635     2764.204  0.048079802   0.04700511           14 
 4792000   0.47312429   -3.4744019    2760.4828  0.048005057  0.046994018           12 
 4793000   0.48184994   -3.4672911    2757.6246  0.047945348  0.046982873           21 
 4794000   0.47499453   -3.4702768    2760.4165  0.047983877  0.046971712           26 
 4795000    0.4876192    -3.470492    2752.7403  0.047840464  0.046960523           14 
 4796000   0.49657835   -3.4672773    2757.2041  0.047908051  0.046949382           14 
 4797000   0.48614395   -3.4520894    2764.0108  0.048016309  0.046938239           11 
 4798000   0.48695613   -3.4540388     2758.598   0.04791229  0.046927129           14 
 4799000   0.48493978   -3.4710067    2757.5375   0.04788389  0.046916007           16 
 4800000   0.48837974   -3.4566146    2762.5771  0.047961408  0.046904917           12 
 4801000   0.47967626   -3.4484678    2762.3824  0.047948038   0.04689387           21 
 4802000   0.48000284   -3.4635646    2759.3007  0.047884574  0.046882801           16 
 4803000   0.48210624   -3.4619215    2762.2143  0.047925156  0.046871717           35 
 4804000   0.49287979   -3.4545674    2767.5422  0.048007601  0.046860661            9 
 4805000   0.49195182   -3.4868428    2754.6115  0.047773353   0.04684955           12 
 4806000    0.4737397   -3.4739834    2762.3313   0.04789727  0.046838421           17 
 4807000   0.48398797   -3.4882618    2759.9884  0.047846689  0.046827321           19 
 4808000   0.47867411   -3.4678048    2760.3003  0.047842144  0.046816208           27 
 4809000    0.4876144   -3.4799146    2763.4627  0.047886995  0.046805098           22 
 4810000   0.49080642   -3.4706463    2764.9557  0.047902906  0.046794026           23 
 4811000   0.47846977   -3.4694276    2767.8735  0.047943489  0.046782923           23 
 4812000   0.47907265   -3.4865388    2762.3126  0.047837222  0.046771814           23 
 4813000   0.48272012   -3.4721797    2756.8723  0.047733089  0.046760713           31 
 4814000   0.48098502   -3.4701331    2762.4242  0.047819281    0.0467496           19 
 4815000   0.47598415   -3.4730759    2760.6059   0.04777788  0.046738506           21 
 4816000   0.49042505   -3.4825422     2754.177  0.047656718  0.046727408           18 
 4817000   0.48343857   -3.4617747    2764.2595   0.04782125  0.046716348           30 
 4818000   0.48649136   -3.4773696    2762.2465  0.047776507  0.046705277           23 
 4819000   0.47813379   -3.4647436    2768.3524   0.04787218  0.046694233           30 
 4820000    0.4683177   -3.4607784    2770.5387  0.047900046  0.046683155           16 
 4821000   0.48551073   -3.4741309    2759.7498  0.047703619  0.046672089           30 
 4822000   0.49061419   -3.4636707    2759.3743  0.047687237  0.046661029           16 
 4823000   0.47952233   -3.4637372    2760.6147  0.047698782  0.046650011           13 
 4824000   0.47710748   -3.4778011    2767.8631  0.047814108  0.046638948           11 
 4825000   0.47750387   -3.4764622    2762.4959  0.047711501  0.046627901           17 
 4826000   0.48258922   -3.4802132    2757.1149  0.047608698  0.046616803           16 
 4827000   0.48564558   -3.4836249    2758.7326  0.047626762  0.046605749           14 
 4828000   0.47493316   -3.4691462    2757.5981  0.047597315  0.046594669           12 
 4829000   0.48187459   -3.4773753    2753.4454  0.047515797  0.046583601           12 
 4830000   0.48071918   -3.4784358     2754.504  0.047524224  0.046572559           12 
 4831000   0.47474598   -3.4496627    2763.0656  0.047662071  0.046561514            9 
 4832000   0.47847062   -3.4786961    2761.4187  0.047623804  0.046550481           12 
 4833000   0.46583576   -3.4762501    2757.5652  0.047547508  0.046539386           40 
 4834000   0.48010748   -3.4675564     2765.313  0.047671234  0.046528301           11 
 4835000   0.48023691    -3.465903    2764.4769  0.047646965  0.046517293           22 
 4836000   0.47215559   -3.4793957     2763.402   0.04761859  0.046506302           11 
 4837000   0.47305173    -3.461139    2756.6645  0.047492669  0.046495265           34 
 4838000   0.47383726   -3.4477935    2761.3491  0.047563544  0.046484246           33 
 4839000   0.47610204   -3.4652325    2752.6976  0.047404725   0.04647324           12 
 4840000   0.47856566   -3.4962405     2753.465  0.047408143  0.046462154           23 
 4841000   0.47528345   -3.4803403    2760.5775  0.047520786  0.046451076           22 
 4842000    0.4733881   -3.4748643    2762.5235  0.047544464  0.046440015           20 
 4843000   0.46593877    -3.475841    2759.5677  0.047483786  0.046428968           26 
 4844000   0.48903144   -3.4874867    2760.4771  0.047489628  0.046417935           32 
 4845000   0.47182176   -3.4781526    2758.4542  0.047445033  0.046406884           19 
 4846000   0.48130271    -3.473343    2753.7891  0.047355019  0.046395851           19 
 4847000   0.47967091   -3.4738218    2764.6475  0.047531935  0.046384838           17 
 4848000    0.4785933   -3.4838357    2760.2166  0.047445968  0.046373806           12 
 4849000   0.47994638   -3.5004851    2758.6904  0.047409954   0.04636278           35 
 4850000    0.4805253   -3.4853971    2761.8255  0.047454046  0.046351674           48 
 4851000   0.47212581   -3.5041047    2755.6304  0.047337842  0.046340547           45 
 4852000   0.48104831   -3.4836747    2758.4665  0.047376795  0.046329479           33 
 4853000   0.47340899   -3.4977162    2755.2059  0.047311043  0.046318418           22 
 4854000    0.4758938   -3.4854947    2754.1739  0.047283579  0.046307337           12 
 4855000   0.48045137   -3.4788599    2757.8962   0.04733773  0.046296266           30 
 4856000   0.48212362   -3.4862068    2755.3371  0.047284067  0.046285207           10 
 4857000   0.47685493   -3.4705541    2754.5395  0.047260646  0.046274174           50 
 4858000   0.48956452   -3.4767516    2759.6105  0.047337905  0.046263199           19 
 4859000   0.48228312   -3.4947007    2753.2217  0.047218592  0.046252192           21 
 4860000   0.47030034   -3.4898958    2756.0025  0.047256558  0.046241165           28 
 4861000   0.47715661   -3.4725203    2757.2865  0.047268849  0.046230108           16 
 4862000   0.47161192   -3.4829486     2757.757  0.047267191  0.046219087           22 
 4863000   0.47356097   -3.4949455     2755.571  0.047220011   0.04620805           37 
 4864000   0.48048681   -3.4822521     2763.096  0.047339227  0.046197034           19 
 4865000   0.47021999   -3.4814143     2768.457  0.047421327  0.046186073           13 
 4866000   0.47541714   -3.4938071    2760.8015  0.047280476  0.046175087           21 
 4867000   0.46791394   -3.4781768    2758.4441  0.047230397  0.046164054           32 
 4868000   0.46153944   -3.4839226    2754.7335  0.047157174  0.046153038           12 
 4869000   0.47157525   -3.4669097     2756.989  0.047186092  0.046142025           17 
 4870000    0.4761677   -3.4945898    2758.6742  0.047205239  0.046130994           25 
 4871000   0.47400564   -3.4883205    2758.2884  0.047188948  0.046119968           18 
 4872000   0.47212654   -3.4879002    2761.6108  0.047236091  0.046108936           12 
 4873000   0.47687961   -3.4845345    2760.4332  0.047206258  0.046097896           12 
 4874000   0.47062292   -3.4920485    2761.0687  0.047207439  0.046086826           17 
 4875000    0.4651578   -3.4875128      2762.65  0.047224785  0.046075775           12 
 4876000    0.4665288   -3.4820849    2760.5062  0.047178462  0.046064778           20 
 4877000   0.47411686   -3.4933058    2755.3682  0.047080996  0.046053778           14 
 4878000   0.47277916   -3.4951502     2752.557  0.047023319  0.046042754           11 
 4879000    0.4698966   -3.4852739    2756.7743  0.047085712  0.046031756           30 
 4880000   0.48077129   -3.4875253    2767.1664  0.047253524   0.04602076           16 
 4881000     0.467751   -3.4929977     2762.053  0.047156542  0.046009803           24 
 4882000   0.47112231   -3.4873594    2755.5413  0.047035732  0.045998815           18 
 4883000   0.47727957   -3.4881891    2755.3132  0.047022206  0.045987805           15 
 4884000   0.46278705   -3.4836345    2757.6426  0.047052323  0.045976832           19 
 4885000     0.470196   -3.4810959    2761.5032   0.04710855  0.045965873           10 
 4886000   0.46317836   -3.4774354    2757.4874  0.047030418  0.045954939           10 
 4887000    0.4694136   -3.4805089    2755.9438  0.046994472  0.045943992           21 
 4888000   0.47984253   -3.4889605    2762.1077  0.047089943  0.045933043           27 
 4889000   0.47106876   -3.4789862    2762.3457  0.047084368   0.04592209           27 
 4890000   0.48032437   -3.4851648    2754.1494  0.046935061  0.045911139           19 
 4891000   0.46587777   -3.4859198    2754.6281  0.046933622  0.045900152           33 
 4892000   0.47199259   -3.4952839    2757.8192  0.046978386  0.045889137           70 
 4893000   0.47038361   -3.5078066     2755.287  0.046925659  0.045878138           57 
 4894000   0.47347527   -3.5004911    2751.7289  0.046855484  0.045867127           55 
 4895000   0.46218713   -3.4925221    2759.0931  0.046971282  0.045856159           51 
 4896000   0.47631601   -3.4897976    2763.3479  0.047034108  0.045845216           92 
 4897000   0.46054362     -3.50234    2758.8074  0.046947237  0.045834279           46 
 4898000   0.47186247   -3.4871839    2758.3175  0.046929316  0.045823351           17 
 4899000   0.46239694   -3.4776835    2760.4786  0.046956497  0.045812436           28 
 4900000   0.46906197    -3.508974    2760.5343  0.046947862   0.04580149           18 
 4901000   0.47338223   -3.4910362    2763.0276  0.046980678  0.045790529           17 
 4902000   0.46777376   -3.4973085    2760.0635  0.046920704  0.045779623           23 
 4903000   0.46554276   -3.5104348    2761.3157  0.046932417  0.045768728           23 
 4904000   0.46864604   -3.4863146    2761.0391  0.046918146  0.045757786           28 
 4905000   0.46842937   -3.4763732    2758.6728   0.04686838  0.045746862           14 
 4906000   0.47043276   -3.4946636      2757.11  0.046832279  0.045735921           17 
 4907000   0.47024496    -3.494419    2761.1935  0.046892085  0.045725022           20 
 4908000   0.46227049    -3.495798    2761.4759  0.046887325    0.0457141           27 
 4909000   0.47153858    -3.507391    2758.7251  0.046831078  0.045703173           13 
 4910000   0.45989513   -3.4949402    2761.1632  0.046862919  0.045692246           22 
 4911000   0.46136039   -3.5052033    2761.2627  0.046855066  0.045681331           13 
 4912000   0.46345779   -3.4869107    2765.3912  0.046915567  0.045670409            8 
 4913000   0.47346654    -3.508322    2766.4708   0.04692433  0.045659512           17 
 4914000   0.44470403   -3.4914942    2757.2356  0.046758167  0.045648611           10 
 4915000   0.47853085   -3.5039285     2761.805  0.046826127  0.045637699           18 
 4916000   0.46649576   -3.4824028    2767.6354  0.046915437  0.045626825           21 
 4917000   0.45511734   -3.5009273    2758.9382  0.046758494  0.045615948           20 
 4918000   0.46268434    -3.503536     2756.109  0.046701047  0.045605037           12 
 4919000   0.46389392    -3.504749    2757.9569  0.046722859  0.045594179           19 
 4920000   0.45707974   -3.4884247    2767.8141   0.04688032  0.045583327           18 
 4921000   0.47867779   -3.5000171    2763.8593  0.046803822  0.045572503           16 
 4922000   0.45460932   -3.4862021    2765.2709  0.046818212  0.045561636           39 
 4923000   0.45980849   -3.5035809    2757.9062  0.046684037  0.045550746           16 
 4924000   0.46224159   -3.5133603    2761.3754  0.046733268  0.045539857           12 
 4925000   0.46093492   -3.5001172    2762.0682  0.046735502  0.045528955           21 
 4926000   0.45761816   -3.4966631    2763.6078   0.04675206  0.045518094           11 
 4927000   0.45967951   -3.4968874    2757.1538  0.046633411   0.04550719           21 
 4928000   0.46222151   -3.4933471    2760.5874  0.046682011  0.045496293           14 
 4929000   0.46485001   -3.4952052    2763.9874  0.046730024  0.045485434           17 
 4930000   0.46124103   -3.4961061    2760.7584  0.046665964  0.045474572           10 
 4931000   0.46341771   -3.5024518    2768.2032  0.046782316  0.045463715           12 
 4932000    0.4527832   -3.5073249    2762.3622  0.046674138  0.045452868           14 
 4933000   0.46224794   -3.4847416    2760.8932  0.046639861  0.045442044           16 
 4934000   0.47246456   -3.4820592     2757.276  0.046569316  0.045431219           12 
 4935000   0.45784803   -3.5061053    2757.8908  0.046570261  0.045420373           41 
 4936000   0.45446882   -3.4941721    2754.3074  0.046500327  0.045409538           24 
 4937000   0.46560123   -3.5088332    2758.9246  0.046568843  0.045398683           18 
 4938000   0.46269604     -3.49422    2757.6773  0.046538365   0.04538782           19 
 4939000   0.47856726   -3.5095454    2758.6686  0.046545667  0.045376963           23 
 4940000   0.46693747   -3.4931482    2764.0607  0.046627205  0.045366131            8 
 4941000   0.46871449   -3.5124573    2761.9793  0.046582664  0.045355313           19 
 4942000    0.4633596   -3.5051929    2757.3239  0.046494737  0.045344477           38 
 4943000   0.46742763   -3.5061674    2764.3517  0.046603811  0.045333636           37 
 4944000    0.4567622   -3.4978863    2752.5889  0.046396119  0.045322813           20 
 4945000   0.45392461   -3.5181834    2755.6029  0.046437528  0.045311933           18 
 4946000   0.45500579   -3.4964535    2761.7055   0.04653096  0.045301078           14 
 4947000   0.45507766    -3.518733    2758.1994  0.046462492  0.045290257           20 
 4948000   0.45514022   -3.5076712    2760.7666  0.046496338  0.045279433           16 
 4949000   0.45519843   -3.5068619    2762.2218  0.046511447  0.045268613           30 
 4950000   0.46836527   -3.4982391    2761.4684  0.046489367    0.0452578           30 
 4951000   0.46332211   -3.5062739    2762.0502   0.04648977  0.045247001           30 
 4952000   0.46259941   -3.5040714    2756.9431  0.046394438  0.045236181           17 
 4953000   0.46661069   -3.5030512    2761.1262  0.046455451  0.045225352           19 
 4954000   0.46014658   -3.5082475    2754.8202  0.046339998  0.045214501           23 
 4955000   0.46238846    -3.498289    2760.7144  0.046429775  0.045203679            7 
 4956000   0.46280655   -3.4934777    2759.9787  0.046408036  0.045192893           33 
 4957000   0.46045904   -3.5046921    2764.5886  0.046476171  0.045182124           23 
 4958000   0.46109995   -3.4956045    2759.7938  0.046386207  0.045171354           15 
 4959000   0.47086765   -3.5122376    2765.6185  0.046474734  0.045160572           31 
 4960000   0.46152291   -3.5114909      2760.19   0.04637416  0.045149826           32 
 4961000   0.46026524   -3.5131514    2759.7487  0.046357399  0.045139041           20 
 4962000   0.45885624   -3.5058861    2766.5144  0.046461682  0.045128266           25 
 4963000   0.45889373   -3.5188431    2761.6606  0.046370821  0.045117452           19 
 4964000   0.46357407   -3.5136438    2765.0703   0.04641872  0.045106673           37 
 4965000   0.46418246    -3.525937    2761.2634  0.046345475  0.045095905           11 
 4966000   0.46551995   -3.5036404     2759.742  0.046310612  0.045085149           23 
 4967000   0.45293477   -3.5056521    2760.1176   0.04630759  0.045074357           19 
 4968000   0.45050705   -3.5110151    2756.5565  0.046238535   0.04506362           21 
 4969000   0.45573448   -3.4993142    2757.7752  0.046249667  0.045052859           13 
 4970000   0.45061581   -3.5095151    2754.9884  0.046193636  0.045042094           33 
 4971000    0.4524746   -3.5152572    2764.5136  0.046344021  0.045031382           13 
 4972000   0.45701224   -3.5190474    2759.1346  0.046244546  0.045020641            9 
 4973000   0.45855391   -3.5162899    2755.9751  0.046182303  0.045009847           24 
 4974000   0.46146013   -3.5116954    2758.3143  0.046212208  0.044999068           12 
 4975000   0.45770275    -3.517354    2760.9775  0.046247529  0.044988299           21 
 4976000   0.45649221   -3.5255023    2760.9263  0.046237378  0.044977518           13 
 4977000   0.44799389   -3.5178446    2761.9795  0.046245722  0.044966724           31 
 4978000   0.46030392    -3.520245    2760.3586  0.046209297  0.044955953           18 
 4979000   0.45402842   -3.5207839    2754.1373  0.046095891  0.044945134           21 
 4980000     0.450496   -3.5201846    2762.3703  0.046224403  0.044934335           41 
 4981000   0.44800231   -3.5184996    2753.0756  0.046059619   0.04492354           26 
 4982000   0.45351859   -3.5422856    2755.6417  0.046093298  0.044912767           21 
 4983000    0.4643288   -3.5487362    2760.1055  0.046158698  0.044901961           26 
 4984000    0.4575063   -3.5226678    2762.9487  0.046196976  0.044891194           27 
 4985000   0.45961005   -3.5247719    2761.8887  0.046169989  0.044880424           18 
 4986000   0.45754438   -3.5522048    2759.5118  0.046121002  0.044869663           18 
 4987000   0.45360697    -3.512949    2762.4066  0.046160127  0.044858896           30 
 4988000   0.46043362   -3.5358901     2760.759  0.046123346  0.044848135           58 
 4989000    0.4473701   -3.5308235    2764.0416  0.046168931  0.044837396           19 
 4990000   0.45461505   -3.5163531    2761.0537  0.046109781  0.044826655           31 
 4991000   0.44385861   -3.5069626    2761.4267   0.04610677  0.044815939           16 
 4992000   0.46487035   -3.5089144    2764.5369  0.046149454  0.044805241           14 
 4993000   0.45747921    -3.527219    2764.6798  0.046142597   0.04479454            8 
 4994000   0.44324757   -3.5255088    2766.9878   0.04617187  0.044783823           25 
 4995000   0.44562012   -3.5342062    2761.4456  0.046070164  0.044773107           12 
 4996000   0.45634675   -3.5176992    2764.1366  0.046105828   0.04476235           34 
 4997000   0.45405451   -3.5228305    2757.5033   0.04598598  0.044751609            9 
 4998000   0.45651208   -3.5223679    2755.1258  0.045937139   0.04474083           21 
 4999000   0.44669716   -3.5062726    2760.8855  0.046023963  0.044730094           12 
 5000000   0.45688366   -3.5398134    2762.5015  0.046041691   0.04471935           12 
 5001000   0.44676336   -3.5244394    2756.6549  0.045935061  0.044708584           52 
 5002000   0.44718439   -3.5417658    2763.0125  0.046031795  0.044697851           23 
 5003000   0.45700951   -3.5167107    2760.7589  0.045985057  0.044687108           26 
 5004000   0.45487106   -3.5174251    2757.2747  0.045917845  0.044676398           17 
 5005000   0.45046537   -3.5212396    2757.5424  0.045913126   0.04466564           27 
 5006000   0.45429437   -3.5367967    2753.8303   0.04584216  0.044654868           17 
 5007000   0.44841462   -3.5222827    2755.9264  0.045867891  0.044644115           52 
 5008000   0.45158205   -3.5254895    2762.6679  0.045970911    0.0446334           40 
 5009000   0.44612036   -3.5278384     2759.986  0.045917116  0.044622657           89 
 5010000   0.44623746   -3.5256725    2763.2954  0.045962997    0.0446119           45 
 5011000   0.44807587   -3.5197656    2756.6134  0.045842703  0.044601166           56 
 5012000   0.44898067    -3.507834    2759.4346  0.045880464  0.044590441           53 
Loop time of 12066.8 on 48 procs for 5000000 steps with 4000 atoms

Performance: 71601.651 tau/day, 414.361 timesteps/s
99.4% CPU use with 48 MPI tasks x no OpenMP threads

MPI task timing breakdown:
Section |  min time  |  avg time  |  max time  |%varavg| %total
---------------------------------------------------------------
Pair    | 793.98     | 848.06     | 902.22     |  98.3 |  7.03
Neigh   | 80.793     | 84.209     | 86.938     |  16.1 |  0.70
Comm    | 775.35     | 829.87     | 891.58     | 101.0 |  6.88
Output  | 13.859     | 13.864     | 13.945     |   0.3 |  0.11
Modify  | 10168      | 10186      | 10198      |   6.3 | 84.41
Other   |            | 104.9      |            |       |  0.87

Nlocal:        83.3333 ave          89 max          78 min
Histogram: 4 3 9 4 7 4 6 3 4 4
Nghost:        2181.60 ave        2202 max        2163 min
Histogram: 2 1 8 6 8 9 7 3 1 3
Neighs:        14384.5 ave       15548 max       13000 min
Histogram: 2 2 2 8 7 8 7 3 3 6
FullNghs:      28769.2 ave       30981 max       26788 min
Histogram: 2 4 9 6 5 9 4 2 4 3

Total # of neighbors = 1380923
Ave neighs/atom = 345.23075
Neighbor list builds = 271605
Dangerous builds = 0

#clear
#
#next RN
#
#jump SELF
Total wall time: 3:21:10
