
units lj                  # Use reduced LJ style units
atom_style atomic         # Uncharged point particles
atom_modify map hash      # Needed for indexing of clusters etc
                          # Used to be able to find where atoms are in relation to each other.

lattice fcc 1.0 spacing 1 1 1
Lattice spacing in x,y,z = 1.5874011 1.5874011 1.5874011
region box block 0 10 0 10 0 10 units lattice
create_box 2 box
Created orthogonal box = (0.0000000 0.0000000 0.0000000) to (15.874011 15.874011 15.874011)
  3 by 4 by 4 MPI processor grid
create_atoms 1 box
Created 4000 atoms
  using lattice units in orthogonal box = (0.0000000 0.0000000 0.0000000) to (15.874011 15.874011 15.874011)
  create_atoms CPU = 0.003 seconds
set type 1 type/fraction 2 0.81 78393
Setting atom values ...
  3229 settings made for type/fraction
mass 1 1.0
mass 2 1.0
pair_style lj/cut  3.5
pair_modify tail  yes
pair_coeff 1  1  1.0  1.0   # Intearaction between 1 and 1 set with epsilon = 1 and sigma = 1
pair_coeff 1  2  1.5  0.8
pair_coeff 2  2  0.5  0.88

write_data data.0
System init for write_data ...
Neighbor list info ...
  update every 1 steps, delay 10 steps, check yes
  max neighbors/atom: 2000, page size: 100000
  master list distance cutoff = 3.8
  ghost atom cutoff = 3.8
  binsize = 1.9, bins = 9 9 9
  1 neighbor lists, perpetual/occasional/extra = 1 0 0
  (1) pair lj/cut, perpetual
      attributes: half, newton on
      pair build: half/bin/atomonly/newton
      stencil: half/bin/3d
      bin: standard
WARNING: Not all mixed pair coeffs generated from mixing. Use write_data with 'pair ij' option to store all pair coeffs. (../write_data.cpp:312)


#############################
#   M E L T   S Y S T E M   #
#############################

velocity all create 2.4 2750902 mom yes dist gaussian # Assign velocities
                                                    # Temperature 2.4, random number seed, zero linear momentum
                                                                                # Gaussian distribution

timestep 0.002   # simulation timestep
thermo 1000       # output thermodynamic data every 1000 steps bf 100

# Define a fix  in this case with index 1 applied to all
# particles in the simulation. This fix is for simulations
# in the anisotropic NPT ensemble. Note that we use the MTK
# correction.
fix 1 all npt temp 2.4 2.4 0.1 iso 5.68 5.68 0.5 mtk yes tchain 5 pchain 5 # Use NPT ensemble
                                                                         # Set temperature and pressure and damping
                                                                         # Numbers of thermostats in chain and in barostat
run 10000          # run for 10000 steps
Per MPI rank memory allocation (min/avg/max) = 3.642 | 3.644 | 3.648 Mbytes
Step Temp E_pair E_mol TotEng Press Volume 
       0          2.4   -3.6458899            0 -0.046789881   -3.2123361         4000 
    1000    2.4211168   -2.9743047            0   0.65646266    5.8388924    3798.3343 
    2000    2.3903929   -3.0061493            0    0.5785436    5.5755487    3795.4604 
    3000    2.3927988   -3.0241776            0   0.56412332    5.5167916    3800.0912 
    4000    2.3797513   -2.9423647            0   0.62636991    5.6214521    3829.0924 
    5000    2.3937453   -2.9394959            0    0.6502244    5.7528886    3818.0949 
    6000    2.3521227   -2.9962084            0   0.53109367    5.4702872     3814.562 
    7000    2.3561947   -3.0217452            0   0.51166332    5.5101474    3797.6873 
    8000    2.4562169   -2.9172825            0   0.76612184    5.8158706    3846.6397 
    9000     2.416895   -2.9748151            0   0.64962109     5.486947    3826.2903 
   10000    2.4201613   -2.9393961            0   0.68993822    5.5202096    3863.4539 
Loop time of 2.54591 on 48 procs for 10000 steps with 4000 atoms

Performance: 678735.845 tau/day, 3927.869 timesteps/s
99.7% CPU use with 48 MPI tasks x no OpenMP threads

MPI task timing breakdown:
Section |  min time  |  avg time  |  max time  |%varavg| %total
---------------------------------------------------------------
Pair    | 1.1472     | 1.2066     | 1.2919     |   2.9 | 47.39
Neigh   | 0.21277    | 0.22071    | 0.23027    |   0.9 |  8.67
Comm    | 0.78099    | 0.86453    | 0.93729    |   3.9 | 33.96
Output  | 0.00024416 | 0.0002515  | 0.00047893 |   0.0 |  0.01
Modify  | 0.21106    | 0.2389     | 0.25992    |   2.4 |  9.38
Other   |            | 0.01495    |            |       |  0.59

Nlocal:        83.3333 ave          93 max          74 min
Histogram: 1 4 4 9 8 8 7 2 1 4
Nghost:        1689.50 ave        1715 max        1660 min
Histogram: 2 0 8 6 4 6 9 6 5 2
Neighs:        9887.83 ave       11569 max        8305 min
Histogram: 1 3 8 6 6 11 5 3 3 2

Total # of neighbors = 474616
Ave neighs/atom = 118.65400
Neighbor list builds = 915
Dangerous builds = 249

# Equilibrate just above the melting temperature to avoid step fn in T

fix 1 all npt temp 1.25 1.25 0.1 iso 5.68 5.68 0.5 mtk yes tchain 5 pchain 5
run 2000
Per MPI rank memory allocation (min/avg/max) = 3.644 | 3.646 | 3.649 Mbytes
Step Temp E_pair E_mol TotEng Press Volume 
   10000    2.4201613   -2.9393961            0   0.68993822    5.5202096    3863.4539 
   11000    1.2287402    -4.409077            0   -2.5664274    5.6357611    2926.3974 
   12000    1.2271776   -4.4203495            0   -2.5800433    5.7280732    2915.6727 
Loop time of 0.649582 on 48 procs for 2000 steps with 4000 atoms

Performance: 532034.515 tau/day, 3078.903 timesteps/s
99.7% CPU use with 48 MPI tasks x no OpenMP threads

MPI task timing breakdown:
Section |  min time  |  avg time  |  max time  |%varavg| %total
---------------------------------------------------------------
Pair    | 0.28045    | 0.30883    | 0.35321    |   2.6 | 47.54
Neigh   | 0.039418   | 0.042676   | 0.049112   |   0.8 |  6.57
Comm    | 0.20063    | 0.2471     | 0.27346    |   3.1 | 38.04
Output  | 5.0685e-05 | 5.2028e-05 | 6.7449e-05 |   0.0 |  0.01
Modify  | 0.040018   | 0.045994   | 0.05132    |   1.4 |  7.08
Other   |            | 0.004926   |            |       |  0.76

Nlocal:        83.3333 ave          91 max          77 min
Histogram: 5 4 5 5 6 11 4 5 1 2
Nghost:        2036.83 ave        2056 max        2015 min
Histogram: 2 4 4 5 5 8 6 6 5 3
Neighs:        13099.5 ave       14700 max       11660 min
Histogram: 4 3 7 4 6 11 4 4 1 4

Total # of neighbors = 628777
Ave neighs/atom = 157.19425
Neighbor list builds = 143
Dangerous builds = 13

#############################
# L I N E A R  Q U E N C H  #
#############################

# Define solid atoms. This closely follows ten Wolde  Ruiz-Montero and Frenkel  Faraday Discuss  1996  104  93-110
# Compute components of the per-atom q6 vector
compute q6 all orientorder/atom degrees 1 6 components 6 nnn NULL cutoff 1.3 # compute the Q6 parameter.
                                                                             # Use all neighbours within 1.3 unit cell.

# get number of connections
compute coord_number all coord/atom orientorder q6 0.5

# An atom is solid if it has 8 or more connections (of a possible 14)
variable is_solid atom c_coord_number>=8
group solid dynamic all var is_solid    # Must be dynamic to update
dynamic group solid defined

# do clustering
compute cluster solid cluster/atom 1.3 # Create a cluster where all atoms within are solid and max 1.3 units from another member

# define chunks one chunk per cluster
compute clus_chunks solid chunk/atom c_cluster nchunk every compress yes  # Says which atoms are in which chunk

# count the size of each chunk
compute size_chunks solid property/chunk clus_chunks count


# Find the maximum entry in the vector of chunk sizes
variable max_n equal max(c_size_chunks)


# Thermo style which includes this variable
# thermo_style custom step temp pe vol v_max_n

thermo ${N}  # Print the thermo information every 100 steps
thermo 1000  

# Reset the npt fix at a lower temperature (below freezing)
fix 1  all npt temp  ${temp} ${temp}  0.1  iso  5.68  5.68  0.5  mtk yes tchain  5  pchain  5
fix 1  all npt temp  0.45 ${temp}  0.1  iso  5.68  5.68  0.5  mtk yes tchain  5  pchain  5
fix 1  all npt temp  0.45 0.45  0.1  iso  5.68  5.68  0.5  mtk yes tchain  5  pchain  5

dump dmp2 all dcd ${N} traj.dcd
dump dmp2 all dcd 1000 traj.dcd


compute msd all msd com yes
variable twopoint equal c_msd[4]/6/(step*dt+1.0e-6)
fix 9 all vector 10 c_msd[4]
variable fit equal slope(f_9)/6/(10*dt)
thermo_style custom step temp pe c_msd[4] v_twopoint v_fit v_max_n

fix 1 all npt temp 1.25 ${temp} 0.1 iso 5.68 5.68 0.5 mtk yes tchain 5 pchain 5
fix 1 all npt temp 1.25 0.45 0.1 iso 5.68 5.68 0.5 mtk yes tchain 5 pchain 5
run 5000000 # 5000000  # Run for this many steps
Neighbor list info ...
  update every 1 steps, delay 10 steps, check yes
  max neighbors/atom: 2000, page size: 100000
  master list distance cutoff = 3.8
  ghost atom cutoff = 3.8
  binsize = 1.9, bins = 8 8 8
  4 neighbor lists, perpetual/occasional/extra = 1 3 0
  (1) pair lj/cut, perpetual
      attributes: half, newton on
      pair build: half/bin/atomonly/newton
      stencil: half/bin/3d
      bin: standard
  (2) compute orientorder/atom, occasional
      attributes: full, newton on
      pair build: full/bin/atomonly
      stencil: full/bin/3d
      bin: standard
  (3) compute coord/atom, occasional
      attributes: full, newton on
      pair build: full/bin/atomonly
      stencil: full/bin/3d
      bin: standard
  (4) compute cluster/atom, occasional
      attributes: full, newton on
      pair build: full/bin/atomonly
      stencil: full/bin/3d
      bin: standard
Per MPI rank memory allocation (min/avg/max) = 9.836 | 9.840 | 9.845 Mbytes
Step Temp PotEng c_msd[4] v_twopoint v_fit v_max_n 
   12000    1.2271776   -4.4203495 4.0066245e-30 2.782378e-32 8.3333333e+20            1 
   13000    1.2286167   -4.4491839   0.79419622 0.0050910012  0.065996587            2 
   14000    1.2727041   -4.4579608    1.6001898 0.0095249387  0.067450783            3 
   15000    1.2700277   -4.4233257    2.4447669  0.013582038  0.067958632            1 
   16000    1.2435145   -4.4045397    3.2348694  0.016848278  0.068119825            1 
   17000    1.2419106   -4.4170026    4.1138941  0.020166147  0.068530403            1 
   18000    1.2568711   -4.3573159    5.0032132  0.023163023  0.069501915            3 
   19000    1.2607322   -4.4004683    5.9116109  0.025928117  0.070311572            1 
   20000    1.2440194    -4.419242    6.7139062  0.027974609  0.070605196            2 
   21000    1.2615578    -4.471067     7.586918  0.030106817  0.070846252            2 
   22000    1.2356861    -4.431765    8.5460525   0.03237141  0.071261843            2 
   23000    1.2073624    -4.427824    9.3991366  0.034054842  0.071794321            2 
   24000    1.2643749   -4.3987095    10.228309   0.03551496  0.071908978            3 
   25000    1.3016536    -4.427062    10.998896  0.036662987  0.071784834            4 
   26000    1.2371688   -4.4230149    11.638449  0.037302721   0.07132349            2 
   27000    1.2517804   -4.4087012    12.372581  0.038186977  0.070765671            4 
   28000     1.284656   -4.4406419    13.237789   0.03939818  0.070259133            2 
   29000    1.2583462   -4.3747296    13.975555   0.04015964  0.069857763            1 
   30000     1.243533    -4.426333    14.671836    0.0407551  0.069386808            1 
   31000    1.2666092   -4.4231197    15.276099  0.041064783  0.068811981            1 
   32000    1.2454538   -4.3909893    16.183093  0.042143472  0.068236384            1 
   33000    1.2465667   -4.3857491    16.950792  0.042805029  0.067807912            2 
   34000    1.2590635   -4.4093173    17.767921  0.043548824  0.067477492            4 
   35000    1.2535319    -4.407232    18.542257  0.044148229  0.067233581            2 
   36000    1.2465173   -4.3913735    19.455828  0.045036638  0.067075121            1 
   37000    1.2465592   -4.4191099    20.173654  0.045436158  0.066984333            3 
   38000    1.2599387   -4.4352736     20.81771  0.045652872  0.066881174            2 
   39000    1.2433864   -4.4276895    21.610379  0.046176022  0.066723624            1 
   40000    1.2427114   -4.4025513    22.385302  0.046636045  0.066535547            2 
   41000    1.2421108   -4.4273946    23.141531  0.047035632  0.066385838            3 
   42000    1.2383352   -4.4344702    23.978031  0.047575458   0.06624001            3 
   43000    1.2300163   -4.4158619    24.946207  0.048345362  0.066183546            1 
   44000     1.261757   -4.3499318    26.005129  0.049252138  0.066215314            4 
   45000    1.2328796   -4.4015001    26.499165  0.049072527  0.066230758            2 
   46000    1.2331932   -4.3875529    27.338494  0.049526257  0.066211801            1 
   47000    1.2644426   -4.4134523    28.185804  0.049974829  0.066229001            1 
   48000    1.2504614   -4.3952602    28.994984  0.050338514  0.066250016            1 
   49000    1.2493973   -4.4156942    29.627307  0.050386576  0.066266177            1 
   50000    1.2457145   -4.4517452    30.415098  0.050691829  0.066254339            1 
   51000    1.2525312   -4.4506329    31.267949  0.051091419  0.066265855            2 
   52000    1.2309757   -4.3832382    32.247113  0.051678065  0.066289621            5 
   53000    1.2491576   -4.4177371    33.140804  0.052108182  0.066344513            2 
   54000    1.2430474   -4.4291379     33.91315  0.052335108  0.066388476            2 
   55000    1.2498312   -4.4186709    34.792958  0.052716603  0.066442882            3 
   56000      1.23644   -4.3977796    35.950101  0.053497173  0.066534077            2 
   57000    1.2338184   -4.4088497    36.916854  0.053972008  0.066667031            1 
   58000    1.2220182   -4.4401369    37.945026  0.054518714  0.066850341            1 
   59000    1.2706452   -4.3942562    38.919267  0.054970716  0.067044793            2 
   60000    1.2325405   -4.3924679    39.464553  0.054811879  0.067234223            1 
   61000    1.2293409   -4.4027627    40.201492   0.05492007  0.067347809            1 
   62000    1.2440396   -4.4138584    40.883012  0.054950284  0.067438043            3 
   63000    1.2551342   -4.4404379    41.754717  0.055231106   0.06750674            2 
   64000    1.2401382   -4.4542028    42.851412  0.055796108  0.067626492            1 
   65000    1.2348231   -4.4205729    43.671776  0.055989457   0.06773354            2 
   66000    1.2529811   -4.4250612    44.566536  0.056270878  0.067834758            2 
   67000    1.2495344   -4.4219637    45.491057  0.056580917  0.067946294            1 
   68000    1.2571507   -4.4065748    46.252468  0.056681946  0.068030345            3 
   69000    1.2366886   -4.4138989    47.313231  0.057141582   0.06812843            2 
   70000    1.2131396   -4.4343027     47.94374  0.057075881  0.068204423            1 
   71000    1.2489317   -4.4209019    49.021295  0.057536731  0.068292051            2 
   72000    1.2435934   -4.4448205    50.079398  0.057962266  0.068388953            1 
   73000     1.243596   -4.4053012    50.649876  0.057819493  0.068480893            2 
   74000    1.2357267   -4.4585572    51.210061  0.057668987  0.068541629            3 
   75000    1.2454438    -4.438679    52.355055  0.058172283  0.068613816            1 
   76000    1.2172607   -4.4461025    52.801257  0.057896115  0.068673973            3 
   77000    1.2293923   -4.4132757    53.643934  0.058056206   0.06873612            1 
   78000    1.2717737   -4.3950542    54.810228  0.058557936  0.068775709            4 
   79000    1.2053922   -4.4197261    55.817557  0.058879279  0.068833894            2 
   80000    1.2446822   -4.4653951    56.536872  0.058892575  0.068915069            3 
   81000    1.2092408   -4.4268894    57.499344  0.059155703  0.068987252            2 
   82000    1.2482936   -4.4480908    58.486346  0.059437343  0.069072874            2 
   83000    1.2277826    -4.412181    59.350967  0.059589324   0.06916361            2 
   84000    1.2633699   -4.4096652     60.41065    0.0599312  0.069254928            3 
   85000    1.2431283   -4.3894775     61.12737  0.059928794  0.069330006            2 
   86000    1.2508273   -4.4105324    62.168965  0.060241244  0.069399865            2 
   87000    1.2079279   -4.4155694    62.874949  0.060225046  0.069458594            2 
   88000    1.2397283   -4.4275805    63.176194  0.059825941  0.069497094            4 
   89000     1.218268   -4.4102286    64.235537  0.060145634  0.069515814            1 
   90000    1.2197721   -4.4124636    64.515286  0.059736376  0.069514493            4 
   91000     1.245323   -4.4189178    65.668144  0.060135663  0.069516257            1 
   92000    1.2482116   -4.4502742    66.397263  0.060142448  0.069521335            3 
   93000    1.2429602   -4.4561555    66.810624  0.059866151  0.069517471            5 
   94000    1.2323553   -4.4342788     67.28575  0.059650487  0.069493455            1 
   95000    1.2293133    -4.436181    68.023346  0.059669601  0.069459634            1 
   96000    1.2417143   -4.4242751    69.052745  0.059941618  0.069429593            3 
   97000     1.225503   -4.4697997    69.688543  0.059869882  0.069393766            1 
   98000    1.2722524   -4.4164753    71.017431  0.060388972  0.069371662            2 
   99000    1.2269819   -4.4091942     71.85125  0.060480849  0.069379375            1 
  100000    1.2150808   -4.4409981    72.872117  0.060726764  0.069367995            3 
  101000    1.2434483   -4.4435336    73.025396  0.060251976  0.069338603            5 
  102000    1.2156331   -4.4701564    74.040052  0.060490239  0.069314223            2 
  103000    1.2278745   -4.4296124    74.849656  0.060557974  0.069286893            2 
  104000    1.1954621   -4.4301329    75.621167  0.060593884  0.069268665            2 
  105000    1.2226523   -4.4679253    76.447368  0.060672514  0.069239359            2 
  106000    1.2280391   -4.4227664    77.309332  0.060777776  0.069222575            2 
  107000    1.2191866   -4.4449751    78.160194  0.060872425  0.069201874            6 
  108000     1.245952   -4.4170619    79.206154  0.061115859  0.069185378            4 
  109000    1.2461841    -4.456336    80.041131  0.061193525  0.069171911            2 
  110000    1.2126343   -4.4164125    80.997914  0.061362056   0.06916735            2 
  111000    1.2448858    -4.437921    81.469943  0.061163621  0.069156322            3 
  112000    1.2301746   -4.4375523    82.516586  0.061396269  0.069139527            4 
  113000    1.2392876   -4.4499341    83.158008  0.061325964  0.069127534            2 
  114000    1.2036161   -4.4105673    84.326146  0.061641919  0.069112663            2 
  115000     1.238774   -4.4191614    85.317967  0.061824614  0.069098873            2 
  116000    1.2425272   -4.4636344    86.473915  0.062122065  0.069097112            2 
  117000    1.2384586   -4.4298037    86.591212  0.061674653  0.069086184            5 
  118000    1.2420066   -4.4222716    87.162714  0.061555589   0.06906465            2 
  119000    1.2170889   -4.4402397    87.966791  0.061601394   0.06904206            2 
  120000    1.2382163   -4.4843609     88.50372  0.061460916  0.069012552            4 
  121000    1.2212337   -4.4380531    89.425033  0.061587488  0.068993323            2 
  122000    1.2307443   -4.4486115      90.1629   0.06158668  0.068969431            2 
  123000    1.2418254   -4.4296567    91.027095  0.061671473  0.068941841            2 
  124000     1.237389   -4.4349678    91.701216  0.061627161  0.068909474            3 
  125000    1.2349966   -4.4128312    92.569023  0.061712681  0.068883255            4 
  126000    1.2232002   -4.3996146    93.470933    0.0618194  0.068855287            3 
  127000    1.2270896   -4.4648653    93.786081  0.061539423   0.06883103            3 
  128000    1.2460191   -4.4399359    95.690404   0.06229844  0.068826584            3 
  129000    1.2422154   -4.4240937    96.266259  0.062187505  0.068821003            2 
  130000    1.2277303   -4.4482804    97.180853  0.062295418  0.068817607            2 
  131000    1.2421585   -4.4318298    97.805472  0.062217221  0.068814691            4 
  132000    1.2277246   -4.4455678    98.844512  0.062401838  0.068810529            1 
  133000    1.2307485   -4.4676413    99.847176  0.062560887  0.068814172            2 
  134000     1.220427   -4.4418279    100.40379  0.062440166  0.068812863            1 
  135000    1.2215575   -4.4126949     101.5274  0.062671236  0.068804863            1 
  136000    1.2203565   -4.4067663    102.27686  0.062669646  0.068801126            1 
  137000    1.2102933   -4.4069797    102.44492  0.062314429   0.06878804            2 
  138000    1.1970937   -4.4784824     103.3046  0.062382006  0.068772685            3 
  139000     1.235763    -4.455969    104.25842  0.062505049  0.068755713            4 
  140000     1.226778   -4.4652511     105.1991  0.062618513  0.068745957            4 
  141000    1.2234238    -4.434517    106.53754  0.062965452  0.068746399            3 
  142000    1.2229881   -4.4610027    106.64527  0.062585252  0.068747164            3 
  143000    1.2162928   -4.4190761    108.42917   0.06318716  0.068747452            1 
  144000    1.2268472   -4.4347329    108.40372  0.062733633  0.068745081            1 
  145000    1.2301934   -4.4553001    109.37131  0.062857072  0.068740986            3 
  146000    1.2021618   -4.4653787    110.12112   0.06285452  0.068735212            2 
  147000    1.2632241     -4.45893    110.58253  0.062688509  0.068720509            2 
  148000    1.1986278   -4.4430561    111.61952  0.062848827  0.068713376            1 
  149000    1.1958849   -4.4854192    111.88673  0.062576469  0.068703505            2 
  150000    1.2384598   -4.4394046    112.64732  0.062581847  0.068685898            1 
  151000    1.2156561   -4.4381284     114.0207  0.062925332  0.068668601            1 
  152000    1.2170053   -4.4340467    114.84701  0.062964371  0.068651648            2 
  153000     1.200707   -4.4512859    115.86119  0.063105224  0.068641681            1 
  154000    1.2482966    -4.438477     116.7043  0.063151676  0.068632952            2 
  155000    1.2278266     -4.44893    116.93178  0.062866547   0.06861994            2 
  156000    1.2270416   -4.4721532    117.40907  0.062718519  0.068603179            7 
  157000    1.2241032   -4.4531272    118.97195  0.063148592  0.068588777            2 
  158000    1.2448763   -4.4411307    120.00226  0.063292333  0.068576586            1 
  159000    1.2352638   -4.5021479     120.0564  0.062922642  0.068563998            3 
  160000    1.2140361   -4.4726091    120.45989  0.062739528  0.068546446            2 
  161000    1.2310674   -4.4122297    122.23981  0.063271125  0.068533585            2 
  162000    1.2368932   -4.4423609    122.95915  0.063250593    0.0685247            2 
  163000    1.2452861   -4.4304298    123.52155  0.063150078  0.068519658            2 
  164000    1.2423103   -4.4776732    124.02089  0.063018745  0.068501216            2 
  165000    1.2210281   -4.4568823     124.4615  0.062859342  0.068480543            2 
  166000    1.2246009   -4.4692267    125.09835  0.062800374  0.068456258            2 
  167000    1.2264664   -4.4192843    125.96882  0.062858691  0.068428897            3 
  168000    1.2431125   -4.4476227    126.82871  0.062911066  0.068395237            1 
  169000    1.2357139    -4.406635     127.4112  0.062826036    0.0683646            4 
  170000    1.2063011   -4.4586413    127.92243  0.062707074  0.068334839            1 
  171000     1.212064   -4.4657602    128.55019   0.06264629  0.068307366            2 
  172000    1.2521477   -4.4693907    130.10972  0.063037654  0.068278357            1 
  173000    1.2475421   -4.4632043    131.02195  0.063112694  0.068249374            3 
  174000    1.2515596   -4.4559538    131.04733  0.062762131  0.068222035            2 
  175000    1.2293101   -4.4677996    132.84558  0.063259801  0.068203896            2 
  176000    1.2249857   -4.4794504    132.95175  0.062950638  0.068190945            2 
  177000    1.2358819   -4.4608339    134.87878  0.063502252  0.068180747            2 
  178000     1.222832   -4.4924487    135.73927  0.063548349  0.068173758            4 
  179000    1.2501159   -4.4478583    136.06306   0.06334407  0.068162087            2 
  180000    1.2109615   -4.4332962    137.51777  0.063665635  0.068153035            2 
  181000    1.2281355   -4.4401607    138.03076  0.063550074  0.068147932            3 
  182000    1.2193292   -4.4655628     138.9002   0.06359899  0.068142891            1 
  183000    1.2047057   -4.4378523    138.90684  0.063254482  0.068138461            3 
  184000    1.2066205   -4.4669122     140.1001  0.063451132  0.068134019            2 
  185000    1.2259443   -4.4501905    141.77516  0.063862686  0.068125267            1 
  186000    1.2254663   -4.5103245    141.36859  0.063337182  0.068117946            2 
  187000    1.1892086   -4.4523812    143.38801  0.063898402  0.068114419            2 
  188000    1.2385621   -4.4703127    144.12412  0.063884807  0.068114766            1 
  189000    1.2276792   -4.4243153    145.32472  0.064076157  0.068112445            1 
  190000    1.2157966    -4.414799    146.07014  0.064065852  0.068112389            2 
  191000    1.2067586   -4.4524535    146.24589  0.063807106  0.068107007            1 
  192000     1.203254   -4.4850319    146.67976  0.063663089  0.068100729            3 
  193000    1.1778399   -4.4376182    147.98682  0.063897589  0.068088167            3 
  194000     1.221282   -4.4486619    148.41801   0.06375344  0.068079506            3 
  195000    1.2151448   -4.4564293    149.20832  0.063764241  0.068068912            2 
  196000    1.2220843   -4.4939221    149.26701  0.063463864  0.068063296            2 
  197000     1.219708   -4.4259359    151.11977  0.063925451  0.068054028            3 
  198000     1.203364   -4.4585096    152.18467  0.064050787  0.068051422            1 
  199000    1.2174103   -4.4470822    152.37352  0.063808007  0.068046934            2 
  200000    1.2424305   -4.4414775    153.43737  0.063932236  0.068044083            4 
  201000     1.221008   -4.4228467    154.48783  0.064049682  0.068041662            2 
  202000    1.2191185   -4.4688946     155.2816  0.064060067  0.068038676            2 
  203000    1.2350945   -4.4587376    156.12285   0.06408984  0.068034879            2 
  204000    1.2401344   -4.4606193    157.05248  0.064155425  0.068029874            2 
  205000    1.2273002   -4.4154951    157.61273  0.064070214  0.068027417            3 
  206000    1.2189053   -4.4599788    158.37708  0.064068398   0.06802466            5 
  207000    1.2284577    -4.456439    159.46717  0.064197733  0.068024547            3 
  208000    1.2401072   -4.4724968    159.93122   0.06407501  0.068024606            3 
  209000     1.224401   -4.4661515     161.0474  0.064213477  0.068026198            2 
  210000    1.2068176   -4.4459542    162.86466  0.064628835  0.068028565            2 
  211000     1.245658   -4.4344021     163.7405  0.064668445  0.068032551            2 
  212000    1.2011253   -4.4643453    163.96013  0.064449736  0.068040776            1 
  213000    1.2398669    -4.457085    164.92244  0.064523648  0.068045491            2 
  214000    1.2115775   -4.4648525    165.91167  0.064607347  0.068052394            2 
  215000    1.2205185   -4.4722455    167.05292  0.064749193  0.068056299            3 
  216000    1.2225812   -4.4442895    168.29867  0.064930041  0.068063795            2 
  217000    1.2206142   -4.4614638    167.70647  0.064403408  0.068070128            5 
  218000    1.2351694   -4.4634899    168.92557  0.064573995  0.068074487            2 
  219000    1.2096376   -4.4604714      169.208  0.064386606  0.068077571            2 
  220000    1.2113022   -4.4851356    170.26868  0.064495712   0.06807992            2 
  221000    1.2391655   -4.4669997    170.41451  0.064258864  0.068079404            2 
  222000    1.1782022   -4.4624648     171.9901  0.064560847  0.068077619            2 
  223000    1.1985364   -4.4650692    171.83829  0.064214606  0.068071249            2 
  224000    1.2063674   -4.4415352    173.06379   0.06438385  0.068062304            3 
  225000     1.215742    -4.455366    173.77122   0.06435971  0.068053023            1 
  226000    1.2020802   -4.4645435    173.51143  0.063979139  0.068044375            3 
  227000    1.1876938   -4.4753686    174.46356  0.064046829  0.068035821            4 
  228000     1.199275   -4.4705552    175.44146   0.06412334   0.06802615            3 
  229000    1.2134502   -4.4483925    177.08005  0.064439612  0.068016217            1 
  230000    1.2186442   -4.4678796    177.39709  0.064274307  0.068008838            2 
  231000    1.2143652   -4.4460797    178.13394  0.064261883  0.068000655            3 
  232000    1.2074792   -4.4750656    178.36371  0.064067423  0.067987841            3 
  233000    1.2189221   -4.4800835    178.80306  0.063949594  0.067974236            2 
  234000    1.2272829   -4.4401504    180.95448  0.064442478   0.06795908            4 
  235000    1.2411041   -4.4568597    180.59427   0.06404052  0.067950687            2 
  236000    1.2194725   -4.4480785    182.16744  0.064324662  0.067941204            2 
  237000     1.183241   -4.4699175    182.44826  0.064151991  0.067931867            2 
  238000    1.2198754   -4.4820276    183.63982  0.064299657   0.06792223            2 
  239000    1.2191434   -4.4790099    184.21836  0.064232342  0.067911603            2 
  240000    1.2206136   -4.4926223    184.90954    0.0642047  0.067902407            2 
  241000    1.2151447   -4.4341889    186.84562  0.064607753    0.0678947            2 
  242000    1.2088654   -4.4582296    187.15227  0.064446373  0.067888655            2 
  243000     1.191204    -4.441145    188.25333  0.064558754  0.067883419            2 
  244000    1.1857757   -4.4800072    188.82138  0.064488175   0.06787672            3 
  245000    1.1902983   -4.4695846    189.40893  0.064424807  0.067867715            2 
  246000    1.2063896   -4.4713458    190.17362  0.064421958  0.067862133            2 
  247000    1.2089666   -4.4791506    190.42483  0.064245894  0.067853032            2 
  248000    1.2212451   -4.4688832    191.74024  0.064428845  0.067842718            3 
  249000    1.2073164   -4.5071516    192.60677  0.064460097   0.06783199            4 
  250000     1.200802   -4.4418934     192.8895  0.064296501  0.067822145            4 
  251000    1.1709683   -4.4585434    194.19109  0.064472473  0.067813634            2 
  252000    1.2185133   -4.4598629    194.93581    0.0644629  0.067806698            2 
  253000    1.2178733   -4.4959467    195.28162  0.064322008  0.067795006            3 
  254000    1.2228447   -4.4547749    196.54217  0.064482339  0.067789233            4 
  255000    1.1860355   -4.4857813    197.72135  0.064614819  0.067782041            4 
  256000     1.213994    -4.450776    198.64909  0.064664419  0.067775067            1 
  257000    1.1855853   -4.4931544    198.95807  0.064512993   0.06776933            2 
  258000    1.1886559   -4.4649058    199.55465  0.064455636  0.067762681            2 
  259000    1.2039256    -4.486844    199.80522  0.064287395  0.067754825            2 
  260000    1.2024644   -4.5219364     200.9245  0.064398879  0.067744603            4 
  261000    1.2012163   -4.4688252    202.17338  0.064550887  0.067738056            1 
  262000    1.1950857   -4.4264046    203.01948  0.064573624  0.067733344            2 
  263000    1.2118284   -4.4391614    204.24828  0.064717453   0.06772282            1 
  264000    1.2318509   -4.4696428    203.90378  0.064363565  0.067716941            2 
  265000    1.2058152   -4.4419311    205.04395  0.064479231  0.067710488            2 
  266000     1.210648   -4.4798711    205.64957  0.064426558  0.067702296            2 
  267000    1.2079199   -4.4911519    206.44584  0.064433782  0.067694704            1 
  268000    1.1970183   -4.4603945    207.99609  0.064675402  0.067687458            2 
  269000    1.1935621   -4.4790882    208.09609  0.064465952  0.067676119            2 
  270000    1.2125733   -4.4544367    209.84918  0.064768264  0.067669123            2 
  271000    1.2245444   -4.4990477    209.00852  0.064270762  0.067660887            7 
  272000    1.1923264   -4.4657817    209.70983  0.064249335  0.067653215            2 
  273000    1.2123169   -4.5178576    210.19711  0.064162732  0.067642879            2 
  274000    1.1949204   -4.5136938    212.01358  0.064481015  0.067634762            2 
  275000    1.2021566   -4.4573158    213.07479  0.064568119  0.067627471            4 
  276000    1.1912134    -4.505224     212.4621  0.064149186  0.067618865            3 
  277000    1.2055914   -4.4903609    213.85488  0.064336607  0.067607881            2 
  278000    1.2162246   -4.4852438    215.35935  0.064556159  0.067596131            3 
  279000    1.2376739   -4.4714274    216.15474  0.064562346  0.067582023            2 
  280000    1.2069885   -4.5220445     215.4107  0.064110328  0.067568824            2 
  281000    1.2004973   -4.4627132    216.08452  0.064082004  0.067553967            1 
  282000    1.1997974   -4.4833344    217.27273   0.06420589   0.06753784            1 
  283000    1.2040056   -4.4487554    218.48927  0.064337241  0.067521531            1 
  284000     1.214995   -4.5090655    217.86223  0.063926711  0.067503323            3 
  285000    1.2277411   -4.4419082    219.54924  0.064195685  0.067487504            2 
  286000    1.2061431   -4.5079041    220.03804  0.064113648  0.067472615            1 
  287000    1.1969705    -4.536273    220.46556   0.06401439  0.067456785            1 
  288000    1.1895909   -4.4740422    222.32743  0.064330855  0.067441425            4 
  289000    1.2035228   -4.4827382    222.65478  0.064202646   0.06742441            1 
  290000    1.1974959   -4.4546248    225.28169  0.064736118   0.06740757            2 
  291000     1.235823   -4.4911902    224.22873  0.064212121  0.067393149            2 
  292000     1.210637   -4.5007013    224.40578  0.064042746  0.067377727            2 
  293000     1.207258   -4.4543158    226.42124  0.064397393  0.067361519            2 
  294000    1.2096684   -4.4705563    227.63606  0.064522694  0.067348939            1 
  295000     1.190046   -4.4772775     227.9532  0.064393558  0.067338024            4 
  296000     1.219984   -4.4729166     228.5157  0.064334375  0.067329937            2 
  297000    1.2123809   -4.4535355    229.04187  0.064265395  0.067316788            2 
  298000    1.1878926   -4.4921233    230.53322  0.064466785  0.067306095            2 
  299000    1.1963757   -4.4676809     231.5146  0.064524694  0.067293767            5 
  300000    1.1904322   -4.4589687    231.39799  0.064277218  0.067282205            4 
  301000    1.1957636   -4.4720351    232.14394  0.064270193  0.067268972            3 
  302000    1.2212415    -4.498398    232.81271  0.064241917  0.067256532            1 
  303000    1.2119847   -4.4784674    233.10595  0.064110546  0.067244515            1 
  304000    1.2000587   -4.5028216    234.39508  0.064253036  0.067230808            3 
  305000    1.2098958   -4.4696484    236.48026  0.064612094  0.067218868            3 
  306000    1.1923403   -4.5094492    235.89311  0.064241044  0.067208116            5 
  307000    1.1861308   -4.5190585    236.99997   0.06433224  0.067199516            3 
  308000    1.2164199   -4.5239896    237.34147  0.064215766  0.067191921            3 
  309000    1.2139492   -4.4655913    239.66582  0.064634794  0.067181014            2 
  310000    1.1781984   -4.4805406    240.00772  0.064518205  0.067173489            1 
  311000    1.1992249   -4.5132412    240.28264  0.064384416  0.067166426            2 
  312000    1.1713702   -4.4998026    242.75895  0.064839463   0.06716169            1 
  313000    1.1837145   -4.4729462    244.62952   0.06513033  0.067160001            1 
  314000    1.2002182   -4.4764769    244.37819  0.064856207  0.067155637            2 
  315000    1.2019358   -4.4868096    244.86999   0.06478042  0.067153006            1 
  316000    1.2165581   -4.5094343     244.7112  0.064533545   0.06715027            2 
  317000    1.2110819   -4.4563182    247.06774  0.064949459  0.067147077            2 
  318000    1.2384283     -4.50209    246.78499  0.064671119  0.067144677            1 
  319000     1.201062   -4.4800842    249.32415  0.065131701  0.067141757            2 
  320000    1.2032216   -4.5261216    247.94532  0.064569093  0.067138609            2 
  321000    1.1810731   -4.4756591    249.62861  0.064804934  0.067134977            2 
  322000    1.1991897   -4.4793451     249.4511  0.064557739  0.067132329            2 
  323000    1.2122088   -4.4912997    251.86352  0.064980269  0.067130552            2 
  324000    1.2033331   -4.5134237    251.19128   0.06460681  0.067127545            2 
  325000    1.2136725   -4.4938291     253.1724  0.064916001  0.067121457            2 
  326000      1.21732   -4.4890235    253.23658  0.064733278  0.067115963            3 
  327000    1.1787814   -4.4677802    254.99358  0.064983074  0.067109509            1 
  328000    1.2034035   -4.4645078    255.53839   0.06492337   0.06710464            2 
  329000     1.197639   -4.5042402     255.4254  0.064697416  0.067098724            3 
  330000    1.1800202   -4.4885316    256.27981  0.064717124  0.067093946            3 
  331000     1.193641   -4.4861487    257.24698  0.064765102  0.067091357            2 
  332000    1.2272936    -4.534468    257.88298  0.064729662  0.067088849            7 
  333000    1.1861505   -4.4485263    259.45014  0.064927463  0.067085033            2 
  334000    1.2102672    -4.497991    259.53764    0.0647549  0.067078454            2 
  335000    1.2154422   -4.5111225    258.93944  0.064412796  0.067069883            2 
  336000    1.2146403   -4.4812664    260.29353  0.064556926  0.067064103            3 
  337000    1.2045081   -4.4979771    261.49005  0.064661239  0.067055848            2 
  338000    1.2072577   -4.5182573      262.178  0.064639546   0.06704823            1 
  339000    1.2191292   -4.4659286    262.89935  0.064626192  0.067043162            1 
  340000    1.2024693      -4.5254    264.41696  0.064808079  0.067038589            2 
  341000    1.1900813   -4.4894253    265.57194  0.064900278   0.06703513            3 
  342000    1.2150416   -4.4995535    265.11542  0.064599274  0.067030005            2 
  343000    1.1967575    -4.500534    266.48549  0.064743802  0.067023788            1 
  344000    1.1796355   -4.5224205    266.87852  0.064650804   0.06701763            1 
  345000      1.18611   -4.5254034    266.89465  0.064467306  0.067010223            1 
  346000    1.1937594   -4.4955559    269.53042  0.064915803  0.067004036            3 
  347000    1.2082305   -4.5257188    268.91158  0.064580111  0.066996709            1 
  348000    1.1818099   -4.4741515    270.39592  0.064749982   0.06699019            2 
  349000    1.1834152   -4.4990392    271.30194  0.064780789  0.066982955            2 
  350000    1.1931704    -4.529832    270.37561  0.064375144   0.06697567            4 
  351000    1.1814196   -4.5099356    271.92886  0.064560508  0.066968565            3 
  352000    1.1932706    -4.499149    273.66414  0.064787913  0.066962076            1 
  353000    1.2174034   -4.4962841    272.71341  0.064379936  0.066955296            1 
  354000    1.1954633   -4.5061802    274.79353  0.064687743  0.066948887            2 
  355000    1.1913266   -4.5243529    275.72055  0.064723134  0.066941562            2 
  356000    1.1967282   -4.5116347    276.46143  0.064714755  0.066935244            2 
  357000    1.1637337   -4.5358417    276.53985  0.064551785  0.066927218            3 
  358000     1.194439   -4.4751065    278.25448  0.064770596  0.066921045            2 
  359000    1.1875675   -4.4870504    278.61169  0.064673095  0.066915067            3 
  360000    1.1886101   -4.5001649    279.82963  0.064775377  0.066906832            2 
  361000    1.1774265   -4.5134293     280.6062  0.064775207  0.066897111            2 
  362000    1.1760476   -4.4828373    281.17207  0.064726534  0.066890965            1 
  363000    1.2106386   -4.4657718    282.03029  0.064745246  0.066884403            1 
  364000    1.1762553   -4.5230734    282.03076  0.064567481   0.06687729            2 
  365000    1.2068279   -4.4656454    284.01517  0.064843645   0.06686987            2 
  366000      1.18526   -4.5220224     282.9371  0.064421016  0.066861796            3 
  367000    1.1714886   -4.5061267    283.89818  0.064463711  0.066852537            6 
  368000    1.1821125   -4.5279058    284.50718  0.064426445  0.066841322            5 
  369000     1.180237   -4.4924732    285.04894  0.064374195  0.066831263            2 
  370000    1.2355154   -4.5116009     285.3347  0.064264572  0.066818302            2 
  371000    1.2151995   -4.5293775    285.09435  0.064037365  0.066807365            2 
  372000    1.1971807   -4.5061515    287.72036  0.064453487  0.066794568            1 
  373000    1.2218296   -4.4815053    288.16218  0.064379396   0.06678182            4 
  374000    1.1990477   -4.5236146    287.79734  0.064125968  0.066769608            4 
  375000    1.2079442   -4.5195939    288.77979  0.064173286  0.066756763            1 
  376000    1.1790631   -4.4966856    289.38749  0.064137299  0.066744387            3 
  377000    1.1966583   -4.4897325    290.62828  0.064241442  0.066731641            2 
  378000    1.2156225   -4.5017422    290.68629   0.06408428  0.066719463            1 
  379000    1.1666667   -4.4855474    292.46928  0.064307229  0.066705274            1 
  380000    1.1831863    -4.478559    293.74371   0.06441748  0.066693357            1 
  381000     1.188666   -4.4549554    294.30204  0.064370525  0.066683183            3 
  382000    1.2048785   -4.5166676    294.74197  0.064297986  0.066669932            3 
  383000    1.1871867   -4.5053111    295.04963  0.064197048  0.066655273            1 
  384000    1.1785332   -4.5223303    296.83184  0.064416632  0.066642222            2 
  385000    1.1873057   -4.5298959    297.03572  0.064293445  0.066629861            2 
  386000     1.208879   -4.5130621    298.01575   0.06433846  0.066617557            2 
  387000    1.1766504   -4.5433258    297.82869  0.064131932  0.066604294            3 
  388000    1.1854548   -4.4755429    298.91205  0.064199324   0.06659198            1 
  389000    1.2051968   -4.5168174     299.2932  0.064115938  0.066578646            2 
  390000    1.1975256   -4.4993954    300.57814  0.064226098  0.066566536            2 
  391000    1.1839724   -4.5069267    301.11665  0.064176608  0.066554492            1 
  392000     1.179659   -4.5155895    301.24551  0.064040287  0.066541508            2 
  393000    1.1918535   -4.5445977    302.92022  0.064232447  0.066528462            1 
  394000    1.2161347   -4.5159751    303.30156  0.064150077  0.066515492            2 
  395000    1.1990921   -4.5167633     303.7724  0.064087003  0.066502282            1 
  396000    1.1844782   -4.5160281    305.40907  0.064269585  0.066489229            2 
  397000    1.1984563    -4.575272    304.68597  0.063955914  0.066478622            4 
  398000    1.1923343   -4.5233707    305.49358  0.063964317  0.066467756            2 
  399000    1.1804015   -4.5218236    308.52938   0.06443805  0.066456154            3 
  400000    1.1894738     -4.51367    308.02521  0.064171919  0.066444834            2 
  401000    1.1864703   -4.4864343    308.02499  0.064011843   0.06643241            2 
  402000    1.2151696   -4.4788218    309.83887  0.064228622   0.06642083            2 
  403000    1.1759859   -4.5390195    309.40589  0.063979713  0.066408441            1 
  404000    1.2179937   -4.4923311    310.87642  0.064124674  0.066395845            1 
  405000    1.1864428   -4.5138262    311.90922  0.064178851  0.066383154            3 
  406000    1.1777446   -4.4817229    312.43581  0.064128862  0.066369867            2 
  407000    1.2090898   -4.5160151    313.73983  0.064238293  0.066358114            3 
  408000    1.1990747   -4.4641774    315.57011  0.064454679   0.06634574            3 
  409000    1.1769654   -4.5058308     314.9768  0.064176202  0.066333978            3 
  410000    1.1783777   -4.5053396    316.40345  0.064309645  0.066321164            3 
  411000    1.1672422   -4.5437784    314.84509  0.063837204  0.066309795            3 
  412000    1.1615249   -4.5078377    317.89048  0.064298236  0.066296585            1 
  413000    1.2076481   -4.5146045    317.60279  0.064084501  0.066285087            2 
  414000    1.1804252   -4.5061452    317.89498  0.063988522  0.066274697            2 
  415000    1.1817551   -4.5297065    319.19833   0.06409605   0.06626249            1 
  416000    1.1892704   -4.5200535    320.64754  0.064232281  0.066251116            5 
  417000    1.1950627   -4.5060374    321.03653  0.064155981   0.06624158            1 
  418000    1.1665689   -4.5162502    321.13147  0.064021425  0.066232347            3 
  419000    1.2119844   -4.4993666    323.62173  0.064363908  0.066223454            2 
  420000    1.1729629   -4.5160798    322.65369  0.064018589  0.066213318            3 
  421000    1.1651082   -4.5187618     322.1158  0.063760055   0.06620035            2 
  422000    1.1743346   -4.5432878    325.29349  0.064236472  0.066187399            2 
  423000     1.199462   -4.5533938    324.23429  0.063875943  0.066173306            3 
  424000    1.1656725   -4.5206364    324.81844  0.063840103  0.066159367            3 
  425000    1.1532991   -4.5035351    327.07436  0.064132227  0.066146121            2 
  426000    1.1830276   -4.5110394     327.5257  0.064069973  0.066134166            8 
  427000    1.1871864   -4.5430382    328.08573   0.06402922  0.066122575            2 
  428000     1.174584   -4.4874023    330.45347  0.064340629  0.066110997            3 
  429000    1.1842198   -4.5136073    330.50744  0.064201135  0.066098985            1 
  430000    1.1638209   -4.5371254    329.70174  0.063895686  0.066086125            3 
  431000    1.1886291   -4.5341684     330.4769  0.063897312  0.066074238            7 
  432000     1.220475   -4.5065848    330.58688  0.063770617  0.066060393            1 
  433000    1.1768885   -4.5429817    331.84498  0.063865469  0.066047739            2 
  434000    1.1709074   -4.5461516    333.18587  0.063975781  0.066034679            2 
  435000    1.1707293   -4.5217471    333.41677  0.063872944  0.066022423            3 
  436000    1.1669218   -4.4975379    333.56898  0.063755539  0.066010229            4 
  437000    1.1658072   -4.5213538    335.60898   0.06399866  0.065998064            1 
  438000    1.1837659   -4.5100141    336.71216  0.064062436  0.065988196            2 
  439000    1.1888012   -4.5383714    337.09009  0.063988247   0.06597745            5 
  440000    1.1767626   -4.5779262    336.85384  0.063798075   0.06596712            3 
  441000    1.1637343   -4.5190525    338.09003  0.063887006   0.06595583            2 
  442000    1.1741702   -4.5393538    339.00692  0.063915331  0.065944733            3 
  443000    1.1771028   -4.5045453    339.25153  0.063817066  0.065932756            6 
  444000    1.1619037    -4.539153    339.47935  0.063716094  0.065921323            2 
  445000    1.1783548   -4.5522109    339.94917  0.063660894  0.065908311            2 
  446000    1.1601481   -4.5130385    342.33957  0.063964793  0.065895582            1 
  447000    1.1756343   -4.5043211    343.89156  0.064111028   0.06588378            2 
  448000    1.1770091   -4.4941542    342.92717  0.063788536   0.06587102            2 
  449000    1.1840474   -4.5521952    343.71315  0.063792344  0.065860232            4 
  450000    1.1987932   -4.5083738     346.2477  0.064119945  0.065848373            5 
  451000    1.1991782   -4.5270454    346.64213  0.064050652  0.065836599            2 
  452000     1.186804   -4.5171862    345.85979   0.06376471  0.065824474            4 
  453000    1.1720437   -4.5357946    346.13688  0.063674922  0.065811325            1 
  454000    1.1602077   -4.5433535     347.4619  0.063777881  0.065797693            2 
  455000    1.2027338   -4.5060294    348.40827  0.063811038  0.065785512            2 
  456000     1.188827   -4.5258798    348.49407  0.063686782  0.065773099            4 
  457000     1.189866   -4.5473343    347.23364  0.063317586  0.065759908            5 
  458000    1.1795197   -4.5518607    349.99705  0.063682142  0.065746877            4 
  459000    1.2026214   -4.5178621    348.75824  0.063318489  0.065731951            1 
  460000    1.1987071   -4.5194483    350.42655  0.063483071  0.065717088            3 
  461000     1.202197   -4.5360698    350.51024  0.063360492  0.065701823            1 
  462000     1.169974   -4.5315225    353.02424   0.06367681  0.065687198            1 
  463000    1.1924531   -4.5212451    353.78744  0.063676645  0.065672397            1 
  464000    1.2047036   -4.5712891    351.30229  0.063093083  0.065657167            3 
  465000    1.1566369    -4.512658     355.1436  0.063645806  0.065640363            2 
  466000    1.1654702   -4.5361906    354.10839  0.063324105  0.065623447            3 
  467000    1.1995446   -4.5024106    354.60567  0.063277242  0.065606849            2 
  468000    1.1916461   -4.5352445    356.89729  0.063550088  0.065591812            2 
  469000    1.1781464   -4.5678105    356.87355  0.063410368  0.065578875            2 
  470000    1.1971479   -4.5020531    359.12188  0.063674092  0.065565023            1 
  471000    1.2157349   -4.5657804    358.25673  0.063385833  0.065552207            2 
  472000    1.1961538   -4.5141536    359.41608  0.063456228  0.065538766            5 
  473000     1.167839   -4.5147931    361.48079  0.063685833  0.065525081            1 
  474000    1.1778063   -4.5033709    360.77726  0.063427788  0.065509642            2 
  475000     1.202527   -4.5069849    361.39144  0.063402008  0.065494021            6 
  476000    1.1933826    -4.525404    361.28163  0.063249586  0.065478458            2 
  477000    1.1831648   -4.5494001    363.34195  0.063476931   0.06546134            3 
  478000    1.1795576   -4.5240055    363.59929  0.063388997  0.065445462            1 
  479000    1.1895565    -4.518394    364.17597  0.063356988  0.065429404            4 
  480000    1.1818728   -4.5648686    364.72509  0.063320328  0.065413482            2 
  481000     1.159234   -4.5353779    364.41726  0.063135354  0.065396949            4 
  482000    1.1968762    -4.542387    366.04694  0.063286124  0.065382131            2 
  483000    1.1684659   -4.5325315    367.61185  0.063425095  0.065367417            1 
  484000     1.168341   -4.5100666    368.80706  0.063499838  0.065353179            4 
  485000    1.1695092   -4.5462352    369.48692  0.063485726  0.065338828            1 
  486000    1.1727091   -4.5444302    369.27415  0.063318613  0.065324894            2 
  487000    1.1933202   -4.5646839    370.00257  0.063313239  0.065311335            1 
  488000     1.144591   -4.5078322    371.87842  0.063503829  0.065298786            3 
  489000    1.1727016   -4.5477764    371.51345  0.063311768  0.065284987            2 
  490000    1.1829821   -4.5640578    372.07096  0.063277374  0.065271594            5 
  491000     1.187948   -4.5147782    373.91139  0.063460861  0.065257664            2 
  492000     1.164879   -4.5378655    372.42117  0.063079466  0.065243084            5 
  493000    1.1723603   -4.5349847    374.07671  0.063231358  0.065229056            2 
  494000    1.1604677   -4.5565971    374.97044  0.063254123  0.065215452            2 
  495000    1.1545665   -4.5188651     377.4792  0.063548687  0.065202918            2 
  496000    1.1750911   -4.5259023    377.60058  0.063440958  0.065190261            5 
  497000    1.1735031    -4.516956    379.82546  0.063686362  0.065178153            2 
  498000    1.1534965   -4.5429949    379.02183     0.063424  0.065167413            2 
  499000     1.187975   -4.5517811    380.13316  0.063482492  0.065157098            3 
  500000    1.1736923   -4.5286103    381.79069  0.063631782  0.065146452            3 
  501000    1.1817535   -4.5241275    382.70897  0.063657514  0.065135605            1 
  502000    1.1827555   -4.5217571    383.18027  0.063608943  0.065124775            2 
  503000    1.1762889   -4.5600622    380.94017  0.063111361    0.0651144            2 
  504000    1.1738224   -4.5639492    383.99168  0.063490687   0.06510303            4 
  505000     1.147855   -4.5038385    385.44179  0.063604256  0.065092559            3 
  506000    1.1617578   -4.5126332    384.79644  0.063372272  0.065082732            1 
  507000    1.2001306   -4.5527657    385.27829  0.063326478  0.065070984            3 
  508000    1.1855056   -4.5241862    387.21774   0.06351997  0.065059409            3 
  509000    1.1714427   -4.5418667    386.33575  0.063250778  0.065047898            1 
  510000     1.179565   -4.5466979    387.34453  0.063291589  0.065035324            2 
  511000    1.1683878   -4.5219393    388.81543  0.063407604  0.065024387            5 
  512000    1.1853014   -4.5378133    390.38361  0.063538999  0.065014134            3 
  513000    1.1762354   -4.5198255    390.31116  0.063403372  0.065005632            3 
  514000    1.1858047   -4.5389754    390.03738  0.063235633  0.064996199            3 
  515000    1.1747957   -4.5677364    392.99066  0.063590722  0.064986062            2 
  516000    1.1523874   -4.5455545    393.88428  0.063611803  0.064976602            1 
  517000    1.1804712   -4.5150652    395.03629  0.063674451  0.064967541            3 
  518000    1.1582116   -4.5400796    394.37837  0.063445683  0.064958177            3 
  519000    1.1656628   -4.5275996    394.40537  0.063327774  0.064949146            3 
  520000    1.1532427   -4.5728483    395.26212  0.063343289  0.064938322            2 
  521000    1.1826681   -4.5365286    396.31728   0.06339048  0.064929656            2 
  522000    1.1748204   -4.5139893    399.02558  0.063701402  0.064921363            2 
  523000     1.168723    -4.561382    398.05723  0.063425307  0.064913951            2 
  524000    1.1490827    -4.565575    399.11993  0.063473272  0.064904742            2 
  525000    1.1488139   -4.5078891    400.68597  0.063600947   0.06489692            2 
  526000    1.1838824   -4.5711143    401.28958  0.063575662  0.064888679            2 
  527000    1.1529535   -4.5348268    400.54891  0.063337905  0.064880267            3 
  528000    1.1459169   -4.5424655    401.80466  0.063416139  0.064871246            2 
  529000    1.1527567   -4.5385803    403.30706  0.063532933  0.064862798            1 
  530000    1.1706728   -4.5382203    404.38591   0.06358269  0.064852808            2 
  531000    1.1730569   -4.5479567    404.38865  0.063463379  0.064844425            2 
  532000    1.1863792   -4.5286726      404.733  0.063398026  0.064835759            2 
  533000    1.1314767   -4.5376009    405.55315  0.063407309  0.064827075            2 
  534000    1.1544201   -4.5553595     406.4544  0.063429213  0.064817383            2 
  535000    1.1673494    -4.553836    408.36929  0.063608924  0.064807642            3 
  536000    1.1801588   -4.5719585    408.40733  0.063496164  0.064799516            5 
  537000     1.164212   -4.5799619    406.69829  0.063112707  0.064791169            2 
  538000    1.1642554    -4.526109    410.79638  0.063630171   0.06478162            1 
  539000     1.158454   -4.5477208    407.88424   0.06306188  0.064770397            2 
  540000     1.163494   -4.5653756    407.35123  0.062862844  0.064758432            6 
  541000    1.1832556    -4.544008    408.79212  0.062968595  0.064746635            2 
  542000     1.167291   -4.5832876    410.31414   0.06308643  0.064734116            2 
  543000     1.169302   -4.5644254     411.1853  0.063103943  0.064721863            2 
  544000    1.1778979   -4.5510381    413.43189   0.06333209  0.064710065            2 
  545000    1.1583959   -4.5867022    412.07125  0.063007836  0.064697151            3 
  546000    1.1662948   -4.5285154    412.59464   0.06297232  0.064683273            3 
  547000    1.1635579   -4.6015815    411.25476  0.062653071  0.064667858            2 
  548000    1.1601388   -4.5099732    412.61333  0.062745337   0.06465263            4 
  549000    1.1510847    -4.558861    414.24323   0.06287845  0.064639196            2 
  550000    1.1605875   -4.5510508    416.91159  0.063168423  0.064625392            2 
  551000    1.1782276   -4.5596063    415.72771  0.062874729  0.064612588            2 
  552000    1.1606502   -4.5608285    416.70359  0.062908151  0.064599252            3 
  553000    1.1498178   -4.5518254    417.43215  0.062904182  0.064586607            3 
  554000    1.1434837   -4.5781798    417.20542  0.062756531  0.064572856            2 
  555000    1.1568407   -4.5469026    417.99193   0.06276155  0.064560253            3 
  556000    1.1333764   -4.5829633      418.514  0.062726919  0.064547106            1 
  557000      1.16756   -4.5226265    421.05455  0.062994397  0.064534087            1 
  558000    1.1509802   -4.5419658    419.99191  0.062722806  0.064519335            2 
  559000    1.1684489   -4.5555018    421.14333   0.06278225  0.064505335            2 
  560000    1.1828927   -4.6028335    419.96891  0.062495373    0.0644903            1 
  561000    1.1748675   -4.5462149    421.78569  0.062653845  0.064474939            2 
  562000    1.1592329   -4.5273179    423.24545  0.062758815  0.064459821            2 
  563000    1.1577335   -4.5896293    422.01328  0.062464962  0.064444661            2 
  564000    1.1757336   -4.5505026    424.57895  0.062733296  0.064429866            2 
  565000    1.1543186   -4.5676434    424.77267  0.062650837  0.064415928            1 
  566000    1.1618965   -4.5564232    425.19011  0.062601607  0.064400712            2 
  567000    1.1629992   -4.5539925    424.79219  0.062432715   0.06438468            2 
  568000     1.182193    -4.568942    427.15455  0.062669388  0.064368663            2 
  569000    1.1770262   -4.5722603    426.83973  0.062513142  0.064353316            3 
  570000     1.169105   -4.5352599    428.40558  0.062632394  0.064337732            3 
  571000    1.1769049   -4.5665518     427.9922  0.062462376  0.064323702            3 
  572000     1.143318   -4.5583099    429.57125  0.062583224  0.064308374            2 
  573000    1.1398421    -4.578901    426.02974  0.061958949  0.064291659            2 
  574000    1.1574197   -4.5509317    431.13164  0.062591701  0.064275156            3 
  575000    1.1677462   -4.5637612    428.54147  0.062107459  0.064258215            1 
  576000    1.1753111   -4.5568026    430.12793  0.062229156  0.064242459            3 
  577000    1.1510989    -4.555496    432.21155  0.062422235  0.064226519            4 
  578000    1.1582832   -4.5822977    432.09307  0.062297156  0.064211034            5 
  579000    1.1637147   -4.5558665    432.57527  0.062258962  0.064195159            4 
  580000    1.1621487   -4.5859395     432.5178  0.062143362   0.06417846            4 
  581000    1.1623596   -4.5607497    435.44054  0.062455614  0.064161422            2 
  582000     1.187262   -4.5900717    434.00119  0.062142209  0.064145871            1 
  583000     1.147403   -4.5742761    436.79456  0.062434899  0.064129298            3 
  584000    1.1374293   -4.5670927    435.67665  0.062168472  0.064112711            2 
  585000    1.1685869   -4.5764478    435.99152  0.062107055  0.064096284            3 
  586000    1.1610166   -4.5617946    438.02288  0.062289942  0.064079888            3 
  587000    1.1906212   -4.5383296    439.00235  0.062322877  0.064064344            1 
  588000    1.1510343   -4.5434665    438.00438  0.062075451   0.06404793            2 
  589000    1.1718974   -4.5304083    438.94026  0.062102471  0.064030003            3 
  590000     1.160607    -4.531643    438.27093  0.061902674  0.064012776            2 
  591000    1.1678591     -4.56886    439.74078  0.062005186  0.063995928            2 
  592000    1.1580807   -4.5703243    441.23767  0.062111158  0.063978344            3 
  593000     1.187093   -4.5674387    439.78777  0.061802666  0.063961775            4 
  594000    1.1626993   -4.5801287    441.54971  0.061945807  0.063944013            4 
  595000     1.135681   -4.5449482    442.22145  0.061935777  0.063925399            4 
  596000    1.1597854   -4.5707418    442.74174  0.061904606  0.063907424            3 
  597000    1.1793083   -4.5593883    442.97713   0.06183377  0.063890012            1 
  598000    1.1613075   -4.5748116    444.77167  0.061980444  0.063872974            1 
  599000    1.1517481   -4.5681148    445.55206  0.061985539  0.063854999            2 
  600000    1.1414591   -4.5553922    446.81442  0.062057558  0.063836869            1 
  601000    1.1655552   -4.5845729    447.05129  0.061987145  0.063819892            2 
  602000    1.1707245   -4.5388225    447.33829  0.061923905  0.063802347            4 
  603000    1.1449114   -4.5773825    448.83931  0.062028649  0.063785292            4 
  604000    1.1691869   -4.5732135    449.35962   0.06199774  0.063768387            1 
  605000    1.1400125   -4.5723033     452.7496  0.062362203  0.063753219            1 
  606000      1.13675   -4.5845583     450.3839   0.06193398  0.063738185            3 
  607000    1.1566775   -4.5616138    451.55723   0.06199303  0.063723217            2 
  608000    1.1595765   -4.5605437    451.26669  0.061851246  0.063708313            3 
  609000    1.1662973   -4.5626896    452.74083    0.0619514  0.063693657            2 
  610000    1.1455807   -4.5366412    456.79512  0.062403704  0.063679876            2 
  611000     1.145407   -4.5758459    455.30769  0.062098703  0.063666512            5 
  612000    1.1451904   -4.6081636    454.40968  0.061874957   0.06365348            2 
  613000    1.1482955   -4.5857967    455.35547  0.061902593  0.063639559            2 
  614000    1.1591987   -4.5847489    455.57352  0.061831368  0.063625988            2 
  615000     1.163796   -4.6065125     456.6319  0.061874241   0.06361257            2 
  616000    1.1731896   -4.5811145    458.11005  0.061973762  0.063599222            4 
  617000     1.162287   -4.5875781    459.50582  0.062061834  0.063585428            2 
  618000    1.1427943    -4.557762    461.45275  0.062223942  0.063571765            1 
  619000    1.1215033   -4.5858901    461.46104  0.062124534  0.063560157            2 
  620000     1.155158   -4.5987504    460.19486  0.061854148  0.063547904            2 
  621000    1.1518243   -4.5272432    463.79117   0.06223714  0.063535277            4 
  622000    1.1474366    -4.579497    462.38993  0.061949347  0.063521216            2 
  623000    1.1500147   -4.5690457    464.45873  0.062126636  0.063508189            3 
  624000    1.1761771   -4.5712808    465.11533  0.062114761   0.06349488            4 
  625000    1.1096933   -4.5736154    465.39468  0.062052624   0.06348115            2 
  626000    1.1220044   -4.5573429    466.86631  0.062149402  0.063468139            2 
  627000    1.1181704   -4.5457133    467.92586  0.062191104  0.063455067            3 
  628000    1.1525243   -4.6289323    466.33985  0.061881614  0.063442024            3 
  629000    1.1409385   -4.5676309    469.18648  0.062160371  0.063429363            1 
  630000    1.1513282   -4.5932996    467.44363  0.061831168  0.063417448            3 
  631000    1.1586478   -4.5859695    469.25208  0.061972012  0.063404215            2 
  632000    1.1454396   -4.5188989     470.3488  0.062018565  0.063391703            4 
  633000    1.1421795    -4.608223    469.68515  0.061833221  0.063379189            1 
  634000    1.1400015   -4.6118103    471.53797  0.061979228  0.063365855            2 
  635000     1.163155   -4.5560475    473.02944  0.062077354  0.063353601            2 
  636000    1.1477184   -4.5745038    473.39129  0.062027161  0.063341166            2 
  637000    1.1542049   -4.5671442     475.6511  0.062225419  0.063330081            3 
  638000      1.17192   -4.5689045    474.73967  0.062008838  0.063317893            2 
  639000    1.1423593   -4.5827757    475.98009  0.062073565  0.063306406            3 
  640000     1.164549   -4.5851718    476.43222  0.062035445  0.063294834            3 
  641000    1.1421114   -4.5695817    478.85299  0.062253379  0.063284523            3 
  642000    1.1535349   -4.5696983     478.7419  0.062141991  0.063272383            1 
  643000    1.1420587   -4.5667008    478.20437  0.061975682  0.063259775            2 
  644000    1.1499229   -4.5912292     477.3279  0.061766032   0.06324697            3 
  645000    1.1677733   -4.5861818    476.44939  0.061556768  0.063233681            1 
  646000    1.1683725    -4.599231    477.38273  0.061581879  0.063219919            2 
  647000    1.1503737    -4.605113    478.42591   0.06162106  0.063206304            2 
  648000    1.1489553   -4.5932892    482.25019  0.062017772  0.063192536            3 
  649000    1.1358087   -4.5958086     481.0002   0.06176171  0.063180269            2 
  650000     1.123249   -4.5847611    483.37032  0.061970554  0.063168035            3 
  651000    1.1468648   -4.5796673    485.74911  0.062179866  0.063156853            3 
  652000    1.1387748   -4.5865695    485.23148  0.062018339  0.063145832            3 
  653000     1.132497   -4.5879868     484.6556  0.061849872  0.063134164            2 
  654000    1.1337231   -4.6037029    485.61897  0.061878054  0.063123269            3 
  655000    1.1385833    -4.610622    487.88686   0.06207212  0.063112306            4 
  656000     1.137242    -4.601323    486.51437  0.061803146  0.063100733            4 
  657000    1.1312724   -4.5739076    488.48429  0.061958941  0.063088188            3 
  658000    1.1555886   -4.5579499    487.36892   0.06172352  0.063076462            3 
  659000    1.1444114    -4.592464    489.06862  0.061844793  0.063065161            4 
  660000    1.1356645   -4.5981122    490.65385  0.061951243  0.063052977            1 
  661000    1.1169342   -4.5877217    489.88636  0.061760761  0.063040556            2 
  662000    1.1446327   -4.6043955    488.82913  0.061534381  0.063028463            2 
  663000    1.1263176   -4.5782331    490.69973  0.061676687  0.063017132            2 
  664000    1.1217296   -4.5893585    493.20186  0.061897824  0.063005729            2 
  665000    1.1402992   -4.5861309    494.63721  0.061984612  0.062994351            4 
  666000    1.1708232   -4.5739893    494.23119  0.061840739  0.062983334            2 
  667000    1.1384744   -4.5514743    497.04966  0.062100158  0.062973486            2 
  668000    1.1455096   -4.6250734    497.01913  0.062003385  0.062963397            4 
  669000    1.1326731   -4.5698099    497.65395  0.061989779  0.062953159            2 
  670000    1.1457574    -4.568927    497.14534  0.061833997  0.062942549            6 
  671000    1.1290394   -4.5602918    498.97903  0.061969576  0.062931934            2 
  672000    1.1392934   -4.5776641    500.50135   0.06206614  0.062921727            3 
  673000    1.1356961   -4.6179173    499.88025   0.06189701  0.062912041            2 
  674000    1.1183438   -4.5957231    499.76198  0.061790551  0.062902082            1 
  675000    1.1594162   -4.5783745    501.65571  0.061932803  0.062891757            2 
  676000    1.1590731   -4.5870753     502.5812  0.061955276  0.062880807            1 
  677000    1.1308836   -4.5892448    502.93976  0.061907898  0.062871302            3 
  678000    1.1364703   -4.6047709      504.361  0.061991273  0.062862079            5 
  679000    1.1418254   -4.6327587    503.47242  0.061790921  0.062851838            3 
  680000    1.1529896   -4.5992544    503.11992  0.061656853  0.062841647            4 
  681000    1.1334926    -4.565765    505.94403  0.061911898  0.062830977            4 
  682000    1.1445465   -4.5877933    506.04027  0.061832877  0.062820072            3 
  683000    1.1373881   -4.5885626    505.54374  0.061681764  0.062809914            1 
  684000    1.1669068   -4.5852078    508.05019  0.061896953   0.06279954            7 
  685000    1.1284222   -4.5901944     507.5738  0.061748638  0.062789499            2 
  686000    1.1371766   -4.5942537    507.92109  0.061700812  0.062779217            4 
  687000    1.1601945   -4.5930018     508.2973  0.061656636  0.062768303            2 
  688000    1.1394178    -4.599617    511.04237  0.061899512  0.062758877            2 
  689000    1.1505198   -4.5765834    510.99149  0.061803518  0.062749615            2 
  690000    1.1344257    -4.580267    511.47563  0.061772419  0.062740459            3 
  691000    1.1291072   -4.5787677    513.33768  0.061907584  0.062730205            2 
  692000    1.1458424   -4.6019698    509.28391   0.06132995  0.062720069            2 
  693000    1.1477141   -4.5953748    512.69627  0.061651788  0.062709586            4 
  694000    1.1405792    -4.562559    513.51535  0.061661306  0.062699321            2 
  695000    1.1486332   -4.5940478    514.09761  0.061642399  0.062689181            2 
  696000    1.1573438   -4.6174489    513.52312  0.061485048  0.062679314            2 
  697000     1.142434   -4.5898865    515.70542   0.06165775  0.062669126            2 
  698000    1.1389072   -4.6244149    515.84508  0.061586088  0.062658804            4 
  699000    1.1086856   -4.6134324    514.84093  0.061378271  0.062648096            4 
  700000    1.1104757   -4.5716044    518.59465  0.061737458  0.062637191            2 
  701000    1.1419442   -4.5941923    517.55471  0.061525761  0.062625955            4 
  702000    1.1506638   -4.6240906    516.10089  0.061265537  0.062614773            2 
  703000    1.1238671   -4.6006938    519.45188  0.061575614  0.062603264            3 
  704000    1.1378654   -4.5864664    520.29795  0.061588299  0.062591384            5 
  705000     1.120969   -4.6059823    518.69873  0.061311907   0.06257952            2 
  706000    1.1191532   -4.5876254    519.52329   0.06132239  0.062567224            4 
  707000    1.1416383   -4.5818339     521.3456  0.061450448   0.06255572            2 
  708000    1.1434239   -4.5844418    523.31571   0.06159554  0.062544522            3 
  709000    1.1322305   -4.6347009    521.66918  0.061315136  0.062532517            3 
  710000    1.1244181   -4.6056483    521.86618  0.061251899   0.06252022            3 
  711000    1.1415042   -4.6105183    522.68839  0.061262118  0.062507814            1 
  712000     1.167486    -4.589898    524.41048  0.061377631  0.062496927            3 
  713000    1.1415158   -4.6251086    525.56045  0.061425953  0.062485868            2 
  714000    1.1389428   -4.6175792    524.93367  0.061266768  0.062474518            3 
  715000    1.1475016   -4.6115745    527.27917  0.061454449   0.06246443            2 
  716000    1.1509812   -4.5968029    531.01494  0.061803415  0.062454801            3 
  717000    1.1585089   -4.5965159     529.8082  0.061576964  0.062446524            2 
  718000    1.1225173   -4.5985948    533.19304  0.061884058  0.062437825            4 
  719000    1.1205562   -4.6073674    532.47288   0.06171452  0.062429451            4 
  720000    1.1437254   -4.6041154    532.74407  0.061660193  0.062421606            2 
  721000    1.1520807    -4.611469    533.59422  0.061672933  0.062414519            3 
  722000    1.1268005   -4.6044876    535.20855  0.061773839  0.062406996            4 
  723000    1.1550055   -4.6023164     534.7099  0.061630924  0.062398361            3 
  724000    1.1263967   -4.6152566    533.96822  0.061460431  0.062390111            2 
  725000    1.1245147   -4.5987066     534.7563  0.061466241  0.062381659            8 
  726000    1.1271578   -4.5923459    540.16792  0.062002745  0.062374175            2 
  727000    1.1288014   -4.6292083    536.81133  0.061532706   0.06236527            3 
  728000     1.161192   -4.6291517    538.92613  0.061690262   0.06235644            2 
  729000    1.1607392   -4.6196573    538.70381  0.061580225  0.062347799            3 
  730000    1.1245969   -4.5872308     540.9714  0.061754726  0.062338748            2 
  731000    1.1341217   -4.5862213    540.38637  0.061603554  0.062330256            4 
  732000     1.135282   -4.5925695    542.59049   0.06177032  0.062321232            2 
  733000    1.1367665   -4.6158872    542.76818  0.061706251  0.062313164            5 
  734000    1.1432207   -4.6524115    541.50275  0.061478514  0.062304722            3 
  735000    1.1436434   -4.5938422    545.64035  0.061863986  0.062297237            1 
  736000    1.1173955   -4.6013727    543.18613  0.061502052  0.062289081            1 
  737000    1.1410051   -4.5688344    547.69165  0.061928047  0.062282566            2 
  738000    1.1362671   -4.5958514    547.62627  0.061836752  0.062274587            3 
  739000    1.1356558   -4.5828603    547.36893  0.061724056  0.062266455            1 
  740000    1.1174911   -4.6116849    548.06978   0.06171957  0.062259133            5 
  741000    1.1347159   -4.6016717    546.91598  0.061506521  0.062251143            3 
  742000     1.114217   -4.6551788    547.27743  0.061464222  0.062242618            3 
  743000    1.1272437   -4.6395541    546.91155  0.061340461  0.062233296            6 
  744000    1.1440492   -4.6190251    549.19626  0.061513918  0.062225106            4 
  745000    1.1414007   -4.5997564    549.64271  0.061481287  0.062216266            5 
  746000    1.1374035   -4.6011547    550.61989  0.061508031  0.062207795            3 
  747000    1.1357065   -4.6156561     548.1939  0.061155054  0.062198239            3 
  748000    1.1308192   -4.5869791    549.79842  0.061252052  0.062188437            2 
  749000    1.1314092   -4.6005124    551.82789  0.061396071  0.062178787            1 
  750000    1.1236736   -4.6525537    549.85704  0.061095226  0.062169347            4 
  751000    1.1196246    -4.628088    550.09637  0.061040432  0.062158651            2 
  752000    1.1122741   -4.6164971    552.31741  0.061205387  0.062147402            3 
  753000    1.1341477   -4.5965091    552.30965  0.061123246  0.062136586            2 
  754000    1.1655348   -4.6176696    551.60384  0.060964173  0.062126198            3 
  755000    1.1377503   -4.5944892    552.71682  0.061006271  0.062114674            1 
  756000    1.1351546   -4.6413298    552.93276  0.060949378  0.062103748            3 
  757000    1.1196555   -4.6501112    554.61032  0.061053535  0.062092421            2 
  758000    1.1412904   -4.6469285    554.87108  0.061001658  0.062081133            5 
  759000     1.137748   -4.5896255    557.13691   0.06117006   0.06206944            3 
  760000    1.1305857    -4.626597    558.08384  0.061193403  0.062058165            2 
  761000    1.1201603    -4.609596    558.01349  0.061105288  0.062046917            3 
  762000    1.1057494   -4.6173814    555.91879  0.060796018  0.062035021            5 
  763000    1.1132357   -4.6130819    557.41551  0.060879807    0.0620231            1 
  764000    1.1409002    -4.617986    558.08168  0.060872783  0.062011532            3 
  765000    1.1515494   -4.6290282    560.51212  0.061057965  0.062000782            2 
  766000    1.1453827   -4.6225324    561.02674  0.061034241  0.061990298            4 
  767000    1.1427098   -4.6399061    560.83592  0.060933933   0.06197886            2 
  768000    1.1411828   -4.5699746    564.70816  0.061274757   0.06196772            3 
  769000    1.1223889   -4.6246012    562.78208  0.060986354  0.061956881            2 
  770000    1.1397339   -4.6056653    563.39645  0.060973642  0.061946028            5 
  771000    1.1119136   -4.5952772    566.29446  0.061207789  0.061934939            5 
  772000    1.1307499    -4.635311    565.43001  0.061035192   0.06192455            2 
  773000    1.1570385   -4.6186099    565.08208  0.060918724  0.061913064            1 
  774000    1.1126563   -4.5838538     567.4877   0.06109902  0.061902846            3 
  775000    1.1086164   -4.6397086     563.2851   0.06056829  0.061891451            2 
  776000    1.1104449   -4.6051029    567.70459   0.06096484  0.061880185            2 
  777000     1.121777   -4.6366375    567.80801   0.06089747   0.06186912            3 
  778000    1.1406717   -4.6366496     567.5009    0.0607863  0.061858397            4 
  779000    1.1333702    -4.598496    570.26032  0.061003458   0.06184712            1 
  780000    1.1280613   -4.6259716    571.57689  0.061065907  0.061836024            1 
  781000    1.1246393   -4.6078167    570.87734  0.060913075  0.061824632            3 
  782000    1.1273373   -4.6217055    570.90824  0.060838474  0.061813902            2 
  783000    1.0961207   -4.6492944    570.74937  0.060743866  0.061803241            3 
  784000    1.1248914   -4.6229966    572.92583  0.060897728  0.061792017            2 
  785000    1.1232323   -4.6226606     572.2446  0.060747835  0.061781618            1 
  786000    1.1216274   -4.6517572    573.19454  0.060771262  0.061770662            1 
  787000    1.1165267    -4.610147     575.7889  0.060968752  0.061760992            1 
  788000    1.1142384   -4.5838255    577.46555  0.061068692   0.06175139            2 
  789000    1.1188853   -4.5993197    578.30944  0.061080423  0.061741895            2 
  790000    1.1381376   -4.6502597    575.73902  0.060731964   0.06173182            2 
  791000    1.1250475   -4.6085549    577.81809  0.060874219  0.061722267            6 
  792000    1.1243113   -4.6470488    579.37065  0.060960716  0.061712397            3 
  793000    1.1186291   -4.6157476    577.76107  0.060714698  0.061702268            6 
  794000    1.1414825   -4.6368423    577.90394  0.060653227  0.061691347            4 
  795000     1.125335   -4.5948305    579.62265  0.060757091  0.061680298            3 
  796000       1.1222   -4.6415001    580.78244  0.060802181  0.061669097            2 
  797000    1.1464156   -4.6422808    578.85602  0.060524469  0.061658182            4 
  798000    1.1587897   -4.6455729    580.59501  0.060630223  0.061647445            3 
  799000    1.1267711   -4.6136553    582.99444  0.060804593  0.061636742            3 
  800000    1.1387898   -4.6299218    581.23943  0.060545774  0.061626729            3 
  801000     1.149241   -4.6273841    584.08641  0.060766377  0.061615769            1 
  802000    1.0993024   -4.6290867    583.31495  0.060610447  0.061605196            2 
  803000    1.1175861   -4.6197155    583.09621  0.060512268  0.061594008            3 
  804000    1.1208011   -4.6523521    584.04385  0.060535225  0.061582398            4 
  805000    1.1349531   -4.6668498    583.69317  0.060423723  0.061570829            2 
  806000     1.105543   -4.6267723    588.12593  0.060807065  0.061559787            2 
  807000    1.1418472   -4.6104726     588.0317  0.060721985  0.061548942            1 
  808000    1.1183078   -4.5813699    589.62998  0.060811673   0.06153797            2 
  809000    1.1201409   -4.6142542    589.16675  0.060688788  0.061527616            3 
  810000    1.1270813   -4.6158807    590.22136  0.060722362  0.061517321            2 
  811000    1.1091504   -4.6069252    589.87467  0.060611865  0.061506674            3 
  812000    1.1181511   -4.6609237    589.68055  0.060517298  0.061495413            2 
  813000    1.1148001   -4.6456688    589.06042  0.060379297   0.06148335            1 
  814000    1.1363601   -4.6312358    589.76718  0.060377475  0.061472298            3 
  815000    1.1498566   -4.6253413    591.45652  0.060476127  0.061461049            4 
  816000    1.1373434   -4.6374678    590.99558  0.060354941   0.06144977            4 
  817000     1.133739   -4.6283734    592.64258   0.06044906  0.061438849            3 
  818000    1.1137375   -4.6166515    592.45202  0.060355748  0.061427176            3 
  819000     1.122012    -4.634213    593.49309  0.060387982  0.061416042            4 
  820000    1.1148877   -4.6196099    593.70824  0.060336203  0.061404762            5 
  821000    1.1042105   -4.6075909    596.08014  0.060503465   0.06139421            2 
  822000    1.1093665   -4.6403335    594.92881  0.060313139  0.061383187            3 
  823000    1.1325412   -4.6250337     596.4327  0.060392132   0.06137196            5 
  824000    1.1168697   -4.6089458    599.12829  0.060591453  0.061361215            2 
  825000    1.1121664   -4.6340448    599.54107  0.060559704  0.061350438            1 
  826000    1.1016041   -4.6346942    598.81211  0.060412844  0.061339039            2 
  827000    1.1243023   -4.6749586    598.37876  0.060296127  0.061327923            5 
  828000    1.1163724   -4.6245914     601.0606  0.060493217  0.061316243            2 
  829000    1.1094435   -4.6482959    600.67466   0.06038145  0.061305558            2 
  830000    1.1071076   -4.6461827    598.85012  0.060125514  0.061294813            2 
  831000    1.1273015   -4.6558779     601.3952  0.060308384  0.061283452            2 
  832000    1.1318238   -4.5859919    606.63628  0.060760846  0.061273103            7 
  833000    1.1400227   -4.6456522     602.5591  0.060280022  0.061263006            3 
  834000    1.1280229   -4.6414789    606.46393  0.060597914  0.061252966            1 
  835000    1.1228725   -4.6300152    604.69295  0.060348597  0.061241753            4 
  836000    1.1159211   -4.6445285     605.2551  0.060332446  0.061230383            1 
  837000    1.1100949   -4.6756476    604.62584  0.060197714  0.061219822            5 
  838000    1.1435099   -4.6230104    609.72877  0.060633331  0.061209338            5 
  839000    1.1135011   -4.6484041    607.41342  0.060331091  0.061198906            5 
  840000    1.1291789     -4.65916    608.37178  0.060354343  0.061188208            2 
  841000    1.1079168   -4.6458579    608.10345   0.06025599   0.06117835            2 
  842000    1.1311991   -4.6255473    611.22685  0.060493552  0.061168039            3 
  843000    1.1189368   -4.6167275    612.80697  0.060577992  0.061157976            2 
  844000    1.1118551   -4.6293225    612.87943  0.060513372  0.061148622            2 
  845000    1.1418211   -4.6080194    612.27654  0.060382302  0.061138226            2 
  846000     1.119204   -4.6241317    613.13305  0.060395297  0.061128482            5 
  847000    1.1184322   -4.6885761    611.28712  0.060142377  0.061118217            4 
  848000     1.121577   -4.6429055    613.86829  0.060325107  0.061108391            2 
  849000    1.1072104   -4.6369961     614.1617  0.060282853  0.061098113            8 
  850000    1.1174346   -4.6698641    613.90252  0.060186521  0.061087797            2 
  851000    1.1120791   -4.6237369    616.84351  0.060403791  0.061077704            2 
  852000    1.1177382    -4.613449    619.49545  0.060592278   0.06106841            1 
  853000    1.1161123   -4.6156417     618.2742  0.060401934   0.06105879            1 
  854000    1.1131214   -4.6274324    618.43266  0.060346668  0.061048379            4 
  855000    1.0985502   -4.6377585    622.53989  0.060676403  0.061038089            2 
  856000    1.1099029   -4.6412047    620.51331  0.060408227  0.061028457            4 
  857000     1.108475   -4.6518458    618.30301  0.060122813   0.06101864            4 
  858000    1.1192841   -4.6611446    618.91471  0.060112151  0.061008522            2 
  859000    1.1187173     -4.62828     620.5014    0.0601961  0.060998725            2 
  860000    1.0940974   -4.6001353    622.61853  0.060331252  0.060988603            2 
  861000    1.0972409   -4.6205122    622.30635  0.060230967  0.060978378            4 
  862000    1.1131377   -4.6653714    621.35947  0.060069554  0.060968469            7 
  863000    1.1267297   -4.6184604    623.73319  0.060229161  0.060958449            2 
  864000    1.1165553   -4.6466837    622.30574  0.060021772  0.060948373            4 
  865000    1.1143239   -4.6277594    622.05656  0.059928378  0.060937868            4 
  866000    1.1179434   -4.6379695    625.06341  0.060148519  0.060927485            3 
  867000    1.1319894   -4.6192209    628.71779  0.060430391  0.060917209            3 
  868000    1.1206234    -4.665726    625.35291  0.060037721  0.060907196            3 
  869000    1.1103346   -4.6309918    627.92587  0.060215369  0.060896603            3 
  870000    1.1267129   -4.6435787    626.99006  0.060056519  0.060885855            3 
  871000     1.077274   -4.6499493    627.11215  0.059999249  0.060874742            2 
  872000    1.0928006   -4.6322365    627.65608  0.059982423  0.060864312            2 
  873000    1.1028643   -4.6629214    628.51322  0.059995534  0.060854082            3 
  874000    1.0977312   -4.6087898    629.84042  0.060053435  0.060843656            5 
  875000    1.0930564   -4.6525411     630.5838    0.0600556  0.060832689            5 
  876000    1.0990736   -4.6298905    629.21932  0.059857241  0.060821727            1 
  877000    1.1254183   -4.6670632    630.92287  0.059950862  0.060810715            2 
  878000    1.1173443   -4.6440681     630.3604  0.059829196  0.060800325            2 
  879000    1.1234307   -4.6464159    631.70797  0.059888886  0.060790569            2 
  880000    1.1152888   -4.6417769    633.97957  0.060035944  0.060779787            3 
  881000    1.1048951   -4.6257932    635.68656  0.060129262  0.060769003            2 
  882000    1.1056957   -4.6601981    633.42583   0.05984749   0.06075836            2 
  883000    1.1009535   -4.6466533    636.30607  0.060051536  0.060747521            2 
  884000    1.1033999   -4.6749853    634.88531  0.059849671  0.060736466            4 
  885000    1.1280472    -4.653386    637.15608  0.059995864  0.060725426            5 
  886000     1.106485     -4.64707    637.38935   0.05995009  0.060714435            3 
  887000    1.1106351   -4.6579007    636.97058  0.059843159  0.060703613            3 
  888000    1.0933936   -4.6246051    636.40157   0.05972237  0.060692397            3 
  889000    1.1055585   -4.6558208     636.5336  0.059667566  0.060680911            1 
  890000    1.1593004   -4.6231902    639.33968  0.059863266  0.060669631            4 
  891000    1.1446324   -4.6842496    636.93575  0.059571245  0.060658007            5 
  892000    1.0992861   -4.6406203    638.25566  0.059627771  0.060646194            4 
  893000    1.1185166   -4.6439407    640.26489  0.059748496   0.06063425            2 
  894000    1.0847116   -4.6596544     640.0454  0.059661204  0.060622533            2 
  895000    1.1110731   -4.6534421     641.9478  0.059771676  0.060610691            2 
  896000    1.1049387   -4.6457723    641.40507  0.059654489  0.060598811            4 
  897000    1.1255648    -4.653689    641.08824  0.059558551  0.060586442            3 
  898000    1.0985646   -4.6307814    643.50086  0.059716115  0.060573757            2 
  899000    1.1184229   -4.6582199    640.45943  0.059367763  0.060561753            3 
  900000    1.1086581   -4.6580062    642.00601  0.059445001  0.060549079            1 
  901000     1.099582     -4.68755    641.06907  0.059292367  0.060536465            3 
  902000    1.1134176   -4.6469704    643.21251  0.059424659  0.060524209            3 
  903000    1.1131529   -4.6395697    644.38959  0.059467477   0.06051181            2 
  904000    1.1062292   -4.6194415    646.31288   0.05957899  0.060499418            3 
  905000    1.1302756   -4.6446757    648.33682  0.059699523  0.060487884            1 
  906000    1.0978129   -4.6559792    646.81873  0.059493997  0.060476555            5 
  907000    1.0918445   -4.6729211    647.30957    0.0594735  0.060464929            3 
  908000    1.1058729   -4.6729317    648.64902  0.059530931  0.060453809            1 
  909000    1.1229421   -4.6770052    650.45049  0.059630591  0.060442759            2 
  910000    1.0835402   -4.6915677    650.17698  0.059540017  0.060431766            3 
  911000    1.1121917   -4.6729397    653.51282  0.059779804  0.060421311            2 
  912000    1.0949952   -4.6516659    654.67113  0.059820096  0.060410998            1 
  913000    1.1160275   -4.6680178    651.97376  0.059508375  0.060400514            2 
  914000    1.0973799   -4.6368213    654.13053  0.059639909  0.060390269            5 
  915000    1.1067966    -4.651792    656.57294  0.059797171  0.060379935            5 
  916000    1.1080102   -4.6594681    656.27295  0.059704599  0.060368611            1 
  917000    1.1057772   -4.6767725    651.27684  0.059185464  0.060356873            2 
  918000    1.1009093   -4.6725554    656.26811  0.059574084  0.060345739            2 
  919000     1.090753   -4.6957181    657.04944  0.059580109   0.06033451            2 
  920000    1.0968409    -4.665954    656.75281  0.059488479  0.060323694            2 
  921000    1.1351025   -4.6554596    657.68222  0.059507982  0.060313132            5 
  922000    1.0996034   -4.6836365    656.88407    0.0593713  0.060302132            2 
  923000    1.0979702   -4.6659718    657.54891  0.059367001  0.060291185            3 
  924000    1.1032439   -4.6709004    659.01659  0.059435118   0.06027945            1 
  925000    1.0930602   -4.6532064    658.92935  0.059363005  0.060267227            2 
  926000    1.1232306   -4.6801651    657.23797  0.059146686  0.060255273            2 
  927000    1.1278268    -4.629579     658.7222  0.059216307  0.060242676            3 
  928000    1.0980276   -4.6746969    657.68224  0.059059109  0.060230688            2 
  929000     1.129584   -4.6436126    662.40977  0.059419606  0.060219164            2 
  930000    1.0937534   -4.6634613    661.51278  0.059275338  0.060207233            5 
  931000    1.1310838   -4.6650277    662.81336  0.059328084  0.060195757            3 
  932000     1.096008   -4.6771305    662.32012  0.059220326  0.060184416            3 
  933000    1.1123815   -4.7214738    661.13535  0.059051031  0.060172362            6 
  934000    1.0707081   -4.6630292    665.34452  0.059363358  0.060160908            3 
  935000    1.0946569   -4.6894233     664.1635  0.059194608  0.060149351            1 
  936000    1.1358596   -4.6612455     664.9231  0.059198994  0.060137242            3 
  937000    1.1130559   -4.6690962    666.21356  0.059250584  0.060125676            2 
  938000    1.1108494   -4.6564181    667.89002  0.059336355  0.060114242            3 
  939000    1.1147613   -4.6607894    666.51313   0.05915097  0.060102927            3 
  940000    1.0933815    -4.631025    670.05551  0.059402084  0.060090754            4 
  941000    1.1038411    -4.665984    667.62765  0.059123951  0.060078824            3 
  942000    1.0939066   -4.6557247    666.88097  0.058995131  0.060067346            2 
  943000    1.0900664   -4.6947917    670.56484  0.059258116  0.060055725            2 
  944000    1.0968997    -4.617065    673.85715  0.059485977  0.060044623            4 
  945000    1.0906833   -4.7051613    671.00622  0.059171624  0.060033131            2 
  946000    1.1246946   -4.6871332    670.27172  0.059044373  0.060021437            1 
  947000    1.0955516   -4.6675373    673.73827  0.059287071  0.060010161            1 
  948000    1.0726488   -4.6686806    674.97222  0.059333001   0.05999966            3 
  949000    1.0939203   -4.6690469    674.98165  0.059271307  0.059988532            2 
  950000    1.0890385   -4.6725068    672.12867  0.058958656   0.05997814            2 
  951000    1.1028322   -4.6792454    675.72043  0.059211394  0.059967143            3 
  952000    1.0907812   -4.6461469    675.69185  0.059146696  0.059955783            3 
  953000    1.0863703    -4.665879    676.34153  0.059141442  0.059945101            1 
  954000    1.0991039   -4.6307053    678.07612  0.059230968  0.059933724            2 
  955000    1.0770443   -4.6982137    676.97002  0.059072427  0.059923337            3 
  956000    1.1119665   -4.6684239    679.71312  0.059249749  0.059912662            2 
  957000    1.0693547   -4.6471517    682.36933  0.059419134  0.059902083            3 
  958000    1.1009692   -4.6469066    681.52105   0.05928332  0.059891218            3 
  959000    1.1130354   -4.6570141    680.45608  0.059128961  0.059880376            1 
  960000    1.0998386   -4.6835814    679.97382  0.059025505  0.059869489            3 
  961000    1.1013803   -4.6526358     683.1388  0.059238536  0.059858339            2 
  962000    1.0789988   -4.7053911    678.19286  0.058748515  0.059847534            5 
  963000     1.090361   -4.7003995    680.52959  0.058889718  0.059836573            3 
  964000    1.1160518   -4.6529128     684.3916  0.059162482  0.059825976            1 
  965000    1.0970699   -4.6853908    684.66373  0.059124674  0.059815009            3 
  966000    1.0783275   -4.6828639    683.88878  0.058996616  0.059803915            2 
  967000    1.0707888   -4.6637952    684.13669  0.058956971  0.059793179            3 
  968000    1.1150773   -4.7096454    683.14716  0.058810878  0.059782391            4 
  969000    1.1023116   -4.6896965    686.26367  0.059018203  0.059771567            3 
  970000    1.0935262   -4.6903305    686.84418  0.059007232  0.059760912            4 
  971000    1.0794247   -4.6700252    691.46207   0.05934278  0.059750339            3 
  972000    1.0933243   -4.6668978    687.59785  0.058950433  0.059739581            4 
  973000    1.0929565   -4.6668705      688.454  0.058963173  0.059728909            5 
  974000    1.0943884   -4.6588434    689.77538   0.05901569  0.059718507            3 
  975000    1.0735794   -4.6852943    692.35252  0.059175429   0.05970842            2 
  976000    1.1011479   -4.7068123    689.84467  0.058900672  0.059698018            2 
  977000     1.076757   -4.6741073    690.72512  0.058915483  0.059687615            3 
  978000    1.0976477   -4.6966358     691.8996  0.058955317  0.059676654            2 
  979000    1.1133807   -4.7097796    692.75924  0.058968271  0.059665427            1 
  980000    1.0678627   -4.6936429    691.45729  0.058797389  0.059654808            5 
  981000    1.0780706   -4.6677743    693.95978  0.058950032  0.059644196            2 
  982000    1.0955037   -4.6701525    695.44983  0.059016449   0.05963374            4 
  983000    1.0831289    -4.666624    697.05021  0.059092083  0.059623328            7 
  984000    1.0929852   -4.7065803    695.78666  0.058925022    0.0596129            2 
  985000    1.0951079   -4.7073317    695.64854  0.058853514  0.059602179            6 
  986000    1.1202883   -4.6642083    698.36592  0.059023489  0.059591879            6 
  987000    1.0820597   -4.6916455    699.79746  0.059084554  0.059581019            1 
  988000    1.0899894   -4.6936897    695.98202  0.058702937  0.059570427            2 
  989000    1.0755958   -4.6703235    699.14338  0.058909958  0.059559634            2 
  990000     1.085213   -4.6894231    698.07111  0.058760194  0.059549396            2 
  991000    1.0899265   -4.6612719    703.06991   0.05912125  0.059538693            2 
  992000    1.0861457   -4.7416135    699.74834  0.058782622  0.059528484            4 
  993000    1.0931872   -4.7050248    700.30934  0.058770506   0.05951769            6 
  994000    1.1013266   -4.6617117    702.22964  0.058872371  0.059507087            3 
  995000    1.0773669   -4.7161346    700.17639  0.058641239  0.059495884            3 
  996000     1.090478    -4.644897    704.23943  0.058922308  0.059484831            2 
  997000    1.1097836   -4.6789145    704.42212  0.058878479  0.059473639            2 
  998000    1.0870908   -4.6793099    703.35358  0.058730259   0.05946208            4 
  999000    1.1124954   -4.6890555    702.61843  0.058610146  0.059450583            3 
 1000000    1.0971994   -4.6919757    702.07359  0.058506133  0.059439389            5 
 1001000    1.1141014    -4.698784    705.69766  0.058749389  0.059428155            2 
 1002000    1.0800154   -4.6704995    706.99306  0.058798491   0.05941739            1 
 1003000    1.0679187   -4.6474144     707.1849  0.058755808  0.059406912            3 
 1004000    1.0989678   -4.6688313    708.43179  0.058800779  0.059395952            1 
 1005000    1.0962637   -4.7309424    706.08391  0.058547588  0.059384554            3 
 1006000    1.0795324    -4.684743    709.68965  0.058788076  0.059373312            3 
 1007000    1.1081296    -4.686196    708.79235  0.058655441  0.059362275            6 
 1008000    1.0572575   -4.6792824    708.66874  0.058587032   0.05935138            1 
 1009000    1.0947925    -4.706366    709.46636  0.058594843  0.059339853            4 
 1010000    1.0640632   -4.6913315    709.26127  0.058519907  0.059328874            2 
 1011000    1.1255488    -4.707117    712.19704  0.058704009  0.059318296            1 
 1012000    1.0796511   -4.7186409    712.45294  0.058667073    0.0593074            5 
 1013000     1.087595   -4.6843633    712.17473  0.058586273  0.059296188            2 
 1014000    1.0905301   -4.7292197    710.81665  0.058416884  0.059285448            3 
 1015000    1.0941475   -4.6876799     713.6933  0.058595509   0.05927422            4 
 1016000    1.0955441   -4.6522562    716.44538  0.058763565  0.059263524            1 
 1017000    1.1042494   -4.6778214    717.01271  0.058752271  0.059253773            4 
 1018000    1.0557131   -4.6950621    715.43503  0.058565409  0.059243409            2 
 1019000    1.0585703    -4.673368    717.51753  0.058678241  0.059232727            5 
 1020000    1.0999429    -4.687601    715.45451  0.058452166  0.059221906            2 
 1021000    1.0968164   -4.7393217    715.79098  0.058422378  0.059211013            7 
 1022000    1.0513116    -4.690368    717.87421  0.058535079  0.059200072            2 
 1023000    1.0880407   -4.6953801    719.79086   0.05863399  0.059190133            2 
 1024000    1.0858055   -4.7114362    719.46063  0.058549856  0.059180456            1 
 1025000    1.0996144   -4.6812239    721.64685  0.058670475  0.059170313            6 
 1026000    1.0773219   -4.6820806    721.69639  0.058617316  0.059160711            3 
 1027000    1.0843551   -4.6886211    724.22233  0.058765201  0.059150579            3 
 1028000    1.0789459   -4.6888391    726.17011   0.05886593  0.059140707            4 
 1029000    1.1019086   -4.6824529    723.26368  0.058573346  0.059131177            3 
 1030000    1.0662569   -4.7169324    722.12348   0.05842423  0.059121084            3 
 1031000    1.0724608   -4.7093691    725.34819  0.058628208  0.059111092            2 
 1032000    1.1102072   -4.6889144    726.07861  0.058630379  0.059100975            1 
 1033000    1.0846535   -4.7318165    725.39345  0.058518349  0.059090937            4 
 1034000    1.0725931    -4.695686     726.5104  0.058551773  0.059081138            4 
 1035000    1.1024854   -4.7116342    726.22417  0.058472155  0.059071487            2 
 1036000    1.0727638    -4.667414     726.8857  0.058468927  0.059061631            3 
 1037000    1.0978981   -4.7222079    725.44809  0.058297018  0.059051886            4 
 1038000    1.0829942   -4.7014945    727.66583  0.058418901  0.059041803            1 
 1039000    1.0441536   -4.7136729    727.14996    0.0583213  0.059031377            5 
 1040000    1.0702549   -4.7196576    727.88951   0.05832448  0.059020948            2 
 1041000    1.0700551   -4.6850009    729.78305  0.058420033  0.059010774            1 
 1042000    1.1164722   -4.6701491    731.15532  0.058473714  0.059000077            3 
 1043000    1.0861994   -4.6927024    730.95906   0.05840197  0.058989475            1 
 1044000    1.1017115   -4.6972843    730.94468  0.058344882   0.05897823            3 
 1045000     1.075164   -4.6895318    729.42533  0.058167889  0.058967267            1 
 1046000    1.0715484   -4.7212049    728.92262  0.058072229  0.058956718            2 
 1047000    1.0894332   -4.6882042    733.20519  0.058357624  0.058946315            2 
 1048000    1.0709354   -4.6778382    733.37762   0.05831565  0.058936067            2 
 1049000    1.0548427   -4.7090161    732.95682   0.05822663  0.058924725            3 
 1050000    1.0607999   -4.6863535    733.95467  0.058250371  0.058913971            3 
 1051000    1.0739228   -4.6919108    735.48018  0.058315904  0.058902993            2 
 1052000    1.0835092    -4.709025    731.13979   0.05791665  0.058892003            4 
 1053000    1.1028606    -4.722657    733.37322  0.058038399   0.05888104            4 
 1054000    1.0810308   -4.6748205    736.38455  0.058221422    0.0588698            3 
 1055000    1.0675851     -4.67657    736.55194  0.058179458  0.058858895            3 
 1056000     1.078747   -4.6999516    736.69446  0.058135611  0.058847333            4 
 1057000    1.0857488   -4.7172752     736.8314  0.058091407  0.058836002            3 
 1058000    1.0832058   -4.6780038    736.05391  0.057975261  0.058824721            2 
 1059000    1.0792413   -4.7228861    735.32512  0.057863167  0.058812842            2 
 1060000    1.0803913   -4.7480484    735.57835  0.057828486  0.058801141            7 
 1061000    1.0901993   -4.7121496    737.42702  0.057919182  0.058789452            4 
 1062000    1.0990036   -4.7144873    736.30507  0.057776606  0.058777757            4 
 1063000    1.0846145   -4.7080884    740.45208  0.058047357  0.058766018            3 
 1064000    1.0660947   -4.6988259    737.87069  0.057790624  0.058754244            2 
 1065000    1.0966666   -4.6940571    742.38123  0.058089298  0.058742524            2 
 1066000    1.1098456   -4.6699936    743.11737  0.058092352  0.058731117            6 
 1067000    1.0931335   -4.6709042    740.74465  0.057852597  0.058720134            2 
 1068000    1.0842292   -4.6923291    741.77658  0.057878947  0.058708246            7 
 1069000    1.1119151   -4.6994454    743.70697  0.057975286   0.05869695            6 
 1070000    1.0967311   -4.6857786    742.30378  0.057811821  0.058685165            3 
 1071000    1.0861476   -4.7158686    744.31525  0.057914352  0.058673733            4 
 1072000    1.0864401   -4.6958882    741.95624  0.057676947  0.058661938            2 
 1073000    1.0856705   -4.7071036     743.9313  0.057776584  0.058650561            4 
 1074000    1.0959888   -4.6977394    745.49824   0.05784437   0.05864005            2 
 1075000    1.0642857   -4.7170099    748.85273  0.058050599  0.058628898            2 
 1076000    1.0649959   -4.6966621    749.30906  0.058031991  0.058617388            3 
 1077000    1.0980422   -4.7339173    748.25011  0.057896171  0.058606056            4 
 1078000    1.0887036   -4.6973773    750.15256   0.05798953  0.058595002            4 
 1079000    1.0940429   -4.7151691    747.11739  0.057701374  0.058583691            5 
 1080000    1.0903196   -4.7227918    747.32837  0.057664226  0.058572745            2 
 1081000    1.0784645   -4.6952145    750.64152  0.057866291  0.058561287            1 
 1082000    1.0851577   -4.7624003    748.47995   0.05764633  0.058549838            3 
 1083000    1.0786275   -4.7072883     749.2173  0.057649838  0.058538505            1 
 1084000    1.0635783   -4.6859748    753.29751  0.057910325  0.058527779            1 
 1085000    1.0686762   -4.7361834    754.34852  0.057937674  0.058516786            4 
 1086000    1.0911529   -4.6771618    754.92535  0.057928587   0.05850596            2 
 1087000    1.0852325   -4.7084595    754.16584  0.057817068  0.058495164            3 
 1088000    1.0920577   -4.6997909    756.90327  0.057973596  0.058484886            2 
 1089000    1.0887774   -4.6976403    755.51857  0.057814399  0.058474466            4 
 1090000     1.073383   -4.7224988     754.4184  0.057677248  0.058463475            2 
 1091000    1.0621006    -4.704076    755.17736  0.057682353   0.05845294            3 
 1092000    1.0828127    -4.722553    754.61895  0.057586916  0.058441786            5 
 1093000     1.079451   -4.6827052    760.17569   0.05795789  0.058431168            1 
 1094000    1.0736266   -4.7188143    756.68489  0.057639008  0.058420523            5 
 1095000    1.0605357   -4.7106691    757.22233   0.05762727  0.058409524            3 
 1096000    1.0699598   -4.7374817    758.41952  0.057665718  0.058398165            7 
 1097000    1.0647354   -4.7239938    760.39797  0.057763444  0.058387508            4 
 1098000    1.0818651   -4.6700214    764.74661  0.058040878  0.058377345            3 
 1099000    1.0721092   -4.7092868    761.86699  0.057769714  0.058366641            9 
 1100000    1.0955671   -4.7044223    759.46515  0.057535238  0.058355725            3 
 1101000    1.0916756   -4.7774768    759.89308  0.057515371  0.058344285            5 
 1102000    1.0930042   -4.7001556    761.42117  0.057578734  0.058332718            3 
 1103000    1.0829009   -4.7473917    761.78812  0.057554255  0.058321212            4 
 1104000    1.0644248   -4.7197776    762.16439  0.057530524   0.05830924            2 
 1105000    1.0949049   -4.7086808    762.33172   0.05749108  0.058297488            2 
 1106000     1.087007   -4.7341302    760.28138  0.057284613  0.058285593            3 
 1107000    1.0448032   -4.6953659    763.57775  0.057481011  0.058273214            3 
 1108000    1.0554597   -4.7246449    761.21359  0.057251323  0.058261238            4 
 1109000    1.0583899   -4.6858078    764.30567  0.057432046  0.058248982            1 
 1110000    1.0536894   -4.7145332    763.13754  0.057292608  0.058236685            4 
 1111000    1.0700475   -4.6807388    766.03117  0.057458084  0.058224089            2 
 1112000    1.0952114   -4.7206571    766.46439  0.057438878   0.05821217            3 
 1113000      1.07036   -4.7009002    769.16525  0.057589491  0.058199955            4 
 1114000     1.053813   -4.7466809    764.72592  0.057205709   0.05818818            7 
 1115000    1.0743013   -4.7034498    767.93012  0.057393881  0.058176545            2 
 1116000    1.0631054   -4.6984552     771.0807  0.057577711  0.058165225            2 
 1117000    1.0775402   -4.7002908     772.5043  0.057632371   0.05815398            1 
 1118000    1.0580599   -4.7041561    769.97495  0.057392289  0.058143085            1 
 1119000    1.0685483   -4.6606249    772.80532  0.057551782  0.058131746            2 
 1120000    1.0473474   -4.6985044    771.95123  0.057436848  0.058120081            2 
 1121000    1.0690251   -4.7110596    773.92253  0.057532154  0.058109174            4 
 1122000     1.062542   -4.6777656    774.34365  0.057512155  0.058098262            4 
 1123000    1.0836316   -4.7049438    773.41592  0.057392099  0.058087738            8 
 1124000    1.0703018   -4.7234019    772.95815  0.057307099  0.058076971            1 
 1125000    1.0845315   -4.7093627    777.75941  0.057611808  0.058066188            5 
 1126000    1.0993692   -4.7341846    773.74659  0.057263661  0.058055063            4 
 1127000    1.0507385   -4.7238757    776.02911  0.057381626  0.058044116            2 
 1128000    1.0642105    -4.738163    776.62046  0.057374443  0.058033052            1 
 1129000    1.0693817   -4.7123268    774.22661   0.05714693  0.058021781            3 
 1130000    1.0564087   -4.7157423    777.15063  0.057311993  0.058010591            1 
 1131000    1.0524709    -4.712843    778.46041  0.057357826  0.057999392            2 
 1132000    1.0798025   -4.6985985     778.6632  0.057322085  0.057988091            2 
 1133000    1.0691326   -4.7339502    781.89999  0.057509561  0.057977827            3 
 1134000    1.0692588   -4.6924178     782.7118  0.057518504  0.057967345            3 
 1135000    1.0813283   -4.7492863    779.36288  0.057221944  0.057956669            3 
 1136000    1.0738874   -4.7452591    785.48016  0.057620317  0.057946161            3 
 1137000    1.0404136   -4.6768905    783.87903  0.057452289  0.057935558            3 
 1138000    1.0613478   -4.7035691    781.47165  0.057225516  0.057925288            2 
 1139000    1.0846206   -4.6775293    786.77465  0.057563261  0.057915146            3 
 1140000     1.080006   -4.7460584    783.61502    0.0572818  0.057904723            3 
 1141000    1.0766622   -4.7092645    786.13283  0.057415486  0.057894096            3 
 1142000    1.0866436   -4.7103154    786.33446  0.057379922  0.057883428            3 
 1143000    1.0687966   -4.7240676    787.42824  0.057409466   0.05787255            2 
 1144000    1.0981262   -4.7091904    789.00995  0.057474501   0.05786184            4 
 1145000    1.0668088     -4.69975     788.6743  0.057399876  0.057851771            4 
 1146000    1.0572479   -4.7384379    785.95543  0.057152082  0.057841435            2 
 1147000    1.0502311   -4.6905164    787.71453  0.057230059  0.057830862            3 
 1148000    1.0596322   -4.7273838    788.65539  0.057248504  0.057819906            3 
 1149000    1.0534537    -4.697422    791.62312  0.057413919  0.057809088            3 
 1150000    1.0619041   -4.7150003    787.60611  0.057072907  0.057798123            2 
 1151000    1.0679845   -4.7429315    788.76013  0.057106873  0.057787103            4 
 1152000    1.0794964   -4.7069235    790.05859  0.057151229  0.057776337            4 
 1153000    1.0673422    -4.739714    790.47586   0.05713182  0.057764816            2 
 1154000     1.067499   -4.7368424      789.124  0.056984691  0.057753372            6 
 1155000    1.0510244    -4.760349    791.53428  0.057109255  0.057741877            4 
 1156000    1.0629449   -4.7300392    791.23658  0.057038393  0.057730181            3 
 1157000    1.0665387   -4.7095211     792.9991   0.05711604  0.057718588            3 
 1158000     1.088578   -4.7538139    794.16066  0.057150306  0.057707486            4 
 1159000    1.0746128   -4.7346862    794.96401  0.057158758  0.057696083            2 
 1160000    1.0773293   -4.7229205    792.55284  0.056936267  0.057684712            2 
 1161000    1.0722903   -4.6965675    792.93918  0.056914957  0.057673591            1 
 1162000     1.050344   -4.7690667    791.12182  0.056735644  0.057662239            2 
 1163000    1.0858081   -4.7222841     793.9118  0.056886773  0.057650838            2 
 1164000    1.0923902   -4.7163766    798.73459  0.057183175  0.057639508            2 
 1165000    1.0987395   -4.7348163    798.79232  0.057138221  0.057628812            4 
 1166000    1.0722964   -4.7335317    795.62925  0.056863154   0.05761758            2 
 1167000    1.0737848   -4.7147371    797.90302  0.056976793  0.057606363            2 
 1168000    1.0733898   -4.7267746    796.45679  0.056824828  0.057595002            3 
 1169000    1.0631096   -4.7494388    799.73073  0.057009604  0.057583857            4 
 1170000     1.081716   -4.7285615    800.73004  0.057032054  0.057573037            2 
 1171000    1.0624078   -4.7247993    801.04763  0.057005952  0.057561929            3 
 1172000    1.0945799   -4.7464045    801.25432  0.056972008  0.057550904            4 
 1173000    1.0604761   -4.7357996    801.56517  0.056945522   0.05753974            2 
 1174000     1.080208   -4.7369373    800.88188  0.056848515   0.05752878            2 
 1175000    1.0786072   -4.7266477    804.27955  0.057041103  0.057517899            2 
 1176000    1.0713492   -4.7226487    801.39479  0.056788179  0.057506736            3 
 1177000    1.0493762   -4.7184012    801.30342  0.056733462  0.057495227            2 
 1178000    1.0761182   -4.7487706    800.97633  0.056662162  0.057484005            2 
 1179000    1.0609728   -4.7221833    805.15042  0.056909134  0.057472229            5 
 1180000    1.0470955   -4.7138772    803.84659  0.056768827   0.05746086            2 
 1181000    1.0601613   -4.7386273    804.30013  0.056752761  0.057449401            5 
 1182000    1.0467476   -4.7354325    802.82911  0.056601037  0.057437836            5 
 1183000    1.0636245   -4.7647374    805.87037  0.056767425  0.057426004            2 
 1184000    1.0629058   -4.7509167    803.97083  0.056585785  0.057414114            4 
 1185000    1.0545796   -4.7513387    805.02032  0.056611837  0.057402217            5 
 1186000    1.0596654   -4.7554451    805.36297   0.05658818  0.057390687            5 
 1187000    1.0594902   -4.7309003    806.71143  0.056635175  0.057379254            1 
 1188000    1.0711515   -4.7049897    808.27128  0.056696919  0.057368347            8 
 1189000    1.0677725   -4.7297263    809.65133  0.056745958  0.057357388            3 
 1190000    1.0479398   -4.7530572    807.15903  0.056523742  0.057346047            5 
 1191000    1.0586172   -4.7756448    807.93945  0.056530888  0.057334402            1 
 1192000    1.0457068   -4.7137963    811.84446  0.056756464  0.057323165            2 
 1193000    1.0602278   -4.7408153     810.3184  0.056602291  0.057311826            3 
 1194000    1.0884314   -4.7305049    812.35865  0.056697281  0.057300281            2 
 1195000     1.078975     -4.74933    815.06634  0.056838657  0.057289139            4 
 1196000    1.0665574   -4.7143863    813.60949  0.056689624  0.057277596            4 
 1197000    1.0591179   -4.7656216    811.61351  0.056503307  0.057266278            4 
 1198000    1.0407334   -4.7537472    812.79485  0.056538317  0.057254807            3 
 1199000    1.0462147   -4.7186111    814.66996  0.056621487   0.05724265            1 
 1200000    1.0495252   -4.7165354    815.07012  0.056602092  0.057231268            2 
 1201000    1.0969972   -4.7293046    816.44373  0.056650273  0.057219469            7 
 1202000    1.0787349   -4.7664753    814.09575   0.05644036  0.057207956            2 
 1203000    1.0765972   -4.7391375      816.025  0.056527085  0.057196678            3 
 1204000     1.048435   -4.7355985    819.95337  0.056752032  0.057185575            2 
 1205000    1.0880027   -4.7353971    819.40283  0.056666862  0.057174341            2 
 1206000    1.0634723   -4.7318249    821.76756  0.056783275  0.057163102            4 
 1207000    1.0636508   -4.7343408    821.82181  0.056739976  0.057152022            3 
 1208000    1.0679937   -4.7581455    821.98425  0.056704211  0.057140905            4 
 1209000    1.0592496   -4.7382137    820.81425  0.056576665  0.057129965            2 
 1210000    1.0758854   -4.7573124    819.95059  0.056470427  0.057118481            4 
 1211000       1.0785   -4.7918888    816.01825  0.056153196  0.057107099            3 
 1212000    1.0453223    -4.711941    822.62972  0.056561449  0.057096077            5 
 1213000    1.0745922   -4.7373853    821.33848  0.056426111  0.057085329            3 
 1214000    1.0426104   -4.7655999    821.42698  0.056385707  0.057074514            7 
 1215000    1.0662477   -4.7230066    824.98189   0.05658312  0.057063827            4 
 1216000    1.0540103   -4.7348505    826.68081  0.056653016  0.057053224            2 
 1217000     1.057575   -4.7545914     824.0646  0.056427321  0.057042416            4 
 1218000    1.0641322   -4.7300766    827.30205  0.056602493  0.057031528            2 
 1219000    1.0568361     -4.73703    825.94443   0.05646325  0.057020851            3 
 1220000    1.0733945   -4.7631241    826.34954  0.056444641  0.057010223            2 
 1221000    1.0344519   -4.7459702    831.29211  0.056735743  0.056999789            4 
 1222000    1.0423886   -4.7650469    830.51745  0.056636487  0.056989112            3 
 1223000    1.0514544   -4.7804393    828.50849  0.056453291   0.05697836            2 
 1224000    1.0647774   -4.7387609    830.78376  0.056562075  0.056967881            3 
 1225000    1.0593608   -4.7604216    829.08221   0.05640015  0.056957412            4 
 1226000    1.0401992   -4.7516712    833.87621  0.056680003  0.056946587            4 
 1227000    1.0511286   -4.7637554    831.60213  0.056479362  0.056936379            6 
 1228000    1.0462483   -4.7652466    830.40603  0.056352201  0.056925928            4 
 1229000    1.0475094   -4.7485691    833.97438  0.056548304  0.056915818            5 
 1230000    1.0486767   -4.7694878    831.47768  0.056333176  0.056905416            2 
 1231000    1.0780802   -4.7585519    838.22153  0.056743944  0.056895636            3 
 1232000    1.0566624   -4.7701716    834.45185  0.056442901  0.056885641            2 
 1233000    1.0679461   -4.7512427    832.21435  0.056245901  0.056875753            2 
 1234000    1.0617722   -4.7608225     836.2951  0.056475898  0.056865719            6 
 1235000    1.0695436   -4.7734294    836.69138  0.056456908  0.056855756            3 
 1236000    1.0579611   -4.7556744    837.23392   0.05644781  0.056845822            5 
 1237000    1.0311844   -4.7746819    839.22073  0.056536023  0.056835803            2 
 1238000     1.059574   -4.7383365    838.13168  0.056417049  0.056825798            2 
 1239000    1.0556852     -4.75008    841.21168  0.056578671  0.056815678            2 
 1240000    1.0493334   -4.7523467    838.55216  0.056354312  0.056805955            4 
 1241000    1.0533147   -4.7747722    839.58572  0.056378305  0.056796185            2 
 1242000    1.0595654   -4.7746149    841.69557  0.056474475  0.056786419            5 
 1243000    1.0539978   -4.7560807    842.75461  0.056500041   0.05677632            5 
 1244000    1.0441017    -4.752563     841.8306  0.056392725  0.056766537            2 
 1245000    1.0685972    -4.734216    840.81898  0.056279718  0.056756789            2 
 1246000    1.0414256   -4.7411998    843.97927  0.056445911   0.05674653            3 
 1247000    1.0531695   -4.8127499    839.03576  0.056070286  0.056736615            3 
 1248000     1.064916   -4.7565855    845.30365  0.056443887  0.056726148            4 
 1249000    1.0780235   -4.7705694    846.36613  0.056469584  0.056716255            3 
 1250000    1.0282276   -4.7563947    848.33154  0.056555436  0.056706518            1 
 1251000    1.0502165   -4.7290493    846.93864  0.056417442  0.056697005            2 
 1252000    1.0430707   -4.7432447    847.73409  0.056425325  0.056687214            1 
 1253000    1.0654363   -4.7156627    853.37438  0.056755412  0.056677678            2 
 1254000    1.0537838   -4.7491119    848.59527  0.056392561  0.056668444            3 
 1255000    1.0547628   -4.7531475     851.9287  0.056568971  0.056659289            4 
 1256000    1.0368184   -4.7616032    852.19642  0.056541694  0.056649942            2 
 1257000    1.0640015   -4.7760359    848.57325  0.056256514  0.056640661            5 
 1258000    1.0595611   -4.7906588    850.76613  0.056357057  0.056631641            4 
 1259000    1.0403989   -4.7367142    854.06165  0.056530425  0.056622678            2 
 1260000     1.061208   -4.7317266      853.195  0.056428241  0.056613901            5 
 1261000    1.0507965   -4.7507906    851.41233  0.056265684  0.056605132            2 
 1262000    1.0632973   -4.7611188    852.64116  0.056302243  0.056596339            2 
 1263000    1.0694767   -4.7781566    853.91535  0.056341736  0.056587275            3 
 1264000    1.0769585   -4.7191003    858.97832  0.056630954  0.056578525            2 
 1265000    1.0571304   -4.7564062    853.81082  0.056245772  0.056569667            4 
 1266000    1.0478879   -4.7504059    856.83839  0.056400631  0.056560578            2 
 1267000    1.0492511   -4.8102134    852.35606  0.056061304  0.056551062            3 
 1268000    1.0610947   -4.7788734    855.05894  0.056194725  0.056541468            5 
 1269000    1.0509477   -4.7583577    862.68995  0.056651559  0.056532108            5 
 1270000    1.0326803   -4.7158322    859.87411  0.056422185  0.056523159            3 
 1271000    1.0543024   -4.7534665    857.58446  0.056227673  0.056513951            8 
 1272000    1.0527289    -4.773555    855.02214  0.056015601  0.056504315            2 
 1273000    1.0481101   -4.7390969    856.05721  0.056039357  0.056494537            3 
 1274000    1.0672956   -4.7790131    858.93326  0.056183494  0.056484688            4 
 1275000     1.061972   -4.7423804     861.5343  0.056309432   0.05647511            3 
 1276000    1.0477458   -4.7860823    861.43902  0.056259079  0.056465801            1 
 1277000    1.0552755   -4.7599251    862.86587  0.056308136  0.056456487            3 
 1278000    1.0615073   -4.7462337    863.28556  0.056291442  0.056446904            4 
 1279000    1.0474899   -4.7064146    866.42833  0.056452198  0.056437822            2 
 1280000     1.050582   -4.7372096     863.7613   0.05623446  0.056428675            6 
 1281000    1.0623697   -4.7774519    865.71086  0.056317386  0.056419679            4 
 1282000     1.058917   -4.7528855    866.34034  0.056314375  0.056410728            2 
 1283000    1.0551496    -4.777981    864.52262  0.056152418  0.056401722            3 
 1284000    1.0391267   -4.7281038    867.43709  0.056297838  0.056392558            5 
 1285000    1.0549635   -4.7709723    864.62567  0.056071704  0.056383583            5 
 1286000    1.0593072   -4.7668597    868.48045  0.056277893  0.056375089            3 
 1287000    1.0418053   -4.7591235    872.43901  0.056490483  0.056366245            4 
 1288000    1.0459407   -4.7787102    867.62291  0.056135022  0.056357568            2 
 1289000    1.0584246   -4.7286819    869.44877  0.056209515  0.056348801            4 
 1290000    1.0593742   -4.7442507    871.08776  0.056271819  0.056340228            3 
 1291000    1.0268141   -4.7537851    868.37194  0.056052926  0.056331338            5 
 1292000    1.0487502   -4.7755689    871.12386   0.05618704  0.056322317            5 
 1293000     1.054283   -4.7392049    875.06866  0.056397825  0.056313567            5 
 1294000    1.0277056   -4.7755016    872.43643  0.056184726  0.056304835            2 
 1295000    1.0333655   -4.7978136     871.4457  0.056077587   0.05629568            2 
 1296000    1.0354485   -4.7691079    873.32004  0.056154838  0.056287235            3 
 1297000    1.0599443   -4.7195104    872.10713  0.056033611   0.05627857            3 
 1298000    1.0343688   -4.8096003    876.70405  0.056285571  0.056270295            3 
 1299000    1.0343997    -4.831636    873.28891  0.056023153  0.056261878            2 
 1300000    1.0532682   -4.7419428    878.06499  0.056286217  0.056253483            1 
 1301000    1.0468061   -4.7782936    878.12064  0.056246518  0.056245052            4 
 1302000      1.04619   -4.7495811    878.12246  0.056203434  0.056236846            2 
 1303000    1.0477312   -4.7691068    875.59986  0.055998968  0.056228126            2 
 1304000    1.0540024    -4.788545    879.45423  0.056202341  0.056219385            4 
 1305000    1.0290301   -4.7876648    878.19923  0.056079134  0.056210457            4 
 1306000    1.0556509    -4.799464    880.23545  0.056166121   0.05620154            1 
 1307000    1.0456871   -4.7352731     884.1481  0.056372615  0.056192969            2 
 1308000    1.0496316   -4.7953252    880.46054  0.056094581  0.056184345            3 
 1309000    1.0509218   -4.7633008     883.1887  0.056225407  0.056175626            4 
 1310000     1.054005   -4.7730741    883.15829  0.056180553   0.05616723            3 
 1311000    1.0656895   -4.7787909    880.84531  0.055990676  0.056158562            2 
 1312000    1.0556792    -4.757713    881.30716  0.055977335  0.056149665            2 
 1313000    1.0324586   -4.7299449    883.87452  0.056097647  0.056140778            3 
 1314000    1.0318547   -4.7640488    884.10672   0.05606968  0.056132088            9 
 1315000    1.0550112   -4.7999078    882.94994  0.055953735  0.056123322            2 
 1316000    1.0476616   -4.7838274    888.02046  0.056232298  0.056114775            4 
 1317000    1.0395506    -4.755724    886.14927  0.056071201  0.056106626            2 
 1318000    1.0495666   -4.7625776    886.56165  0.056054733  0.056098381            6 
 1319000    1.0442941   -4.7825792    888.63335  0.056143123  0.056089645            2 
 1320000    1.0319453   -4.7676918    886.99335  0.055997055  0.056080922            2 
 1321000     1.048311   -4.7882506    883.18862  0.055714649  0.056071841            7 
 1322000    1.0451064   -4.7824784    885.85045  0.055840295  0.056062692            2 
 1323000    1.0262623   -4.7630202    891.32981  0.056143223  0.056053953            3 
 1324000    1.0633594   -4.7850978    887.86622  0.055882818   0.05604488            4 
 1325000    1.0235265    -4.773553    890.99417  0.056037369  0.056035853            3 
 1326000    1.0292048   -4.7916232    887.27864  0.055761604  0.056026857            3 
 1327000    1.0590055   -4.7999372    889.27546   0.05584498  0.056017588            8 
 1328000    1.0319831   -4.7772174    889.37852  0.055809395   0.05600827            3 
 1329000    1.0420672   -4.7447544    892.81962  0.055983171  0.055999323            4 
 1330000    1.0316363   -4.8088353    889.60109  0.055739416  0.055989929            2 
 1331000    1.0277554   -4.7768793    891.52051  0.055817713  0.055980676            1 
 1332000    1.0664993   -4.7988495    889.09993   0.05562437  0.055971291            1 
 1333000      1.04467   -4.8337649    887.65589  0.055492366  0.055961936            4 
 1334000    1.0059315   -4.7706878    893.79971  0.055834565  0.055952713            3 
 1335000    1.0419556   -4.7728343     893.7816  0.055791611  0.055943371            3 
 1336000    1.0390191    -4.785074    890.58262  0.055550313  0.055934199            3 
 1337000    1.0328551   -4.7944915    894.86159  0.055775467  0.055925043            2 
 1338000    1.0271884   -4.7996891    892.74375  0.055601878  0.055915874            3 
 1339000    1.0142461   -4.7851755    893.08905  0.055581843  0.055906532            4 
 1340000    1.0365101   -4.7882608     898.4399  0.055873128  0.055897281            3 
 1341000    1.0414891   -4.7434681    899.48036   0.05589612  0.055888106            5 
 1342000    1.0456733    -4.807669    898.13793  0.055771108    0.0558789            3 
 1343000    1.0404877   -4.7856552    897.47971  0.055688738  0.055869781            5 
 1344000     1.007372   -4.7552363    897.99938  0.055679525  0.055860761            3 
 1345000    1.0386209   -4.7925847    897.76693  0.055623726  0.055851818            3 
 1346000    1.0240718   -4.7743921    898.70395  0.055640413  0.055842394            1 
 1347000    1.0324825    -4.777108    902.38492  0.055826833  0.055833578            1 
 1348000   0.99133443   -4.7814979     903.0486  0.055826447  0.055824284            5 
 1349000    1.0240469   -4.7694605    899.32074  0.055554777  0.055815123            3 
 1350000    1.0519842   -4.7777873    899.57696  0.055529442  0.055806062            1 
 1351000    1.0393445   -4.8050018    899.22834  0.055466836   0.05579686            4 
 1352000    1.0554764   -4.7732234    900.99954  0.055534981   0.05578792            3 
 1353000    1.0371876   -4.7844659    904.06941  0.055683014  0.055778688            3 
 1354000    1.0182034   -4.7899744    905.33411  0.055719726  0.055769731            3 
 1355000    1.0308119   -4.8221149    901.15738  0.055421733  0.055760394            4 
 1356000    1.0436758   -4.8183162    903.34883  0.055515537  0.055750862            2 
 1357000    1.0231365   -4.8138305    901.77335  0.055377877  0.055741384            3 
 1358000    1.0398506   -4.7945027    904.52905  0.055506201  0.055732158            2 
 1359000    1.0388255   -4.7787628    908.25607  0.055693897  0.055722748            4 
 1360000     1.046482   -4.7794184    908.95189  0.055695581  0.055713707            2 
 1361000    1.0261381   -4.7932841     905.1631  0.055422673  0.055704584            3 
 1362000    1.0327174   -4.7935348    910.06864  0.055682124  0.055695498            2 
 1363000    1.0234357   -4.7701794    908.24952  0.055530051  0.055686535            3 
 1364000    1.0476979   -4.8274877    909.01155  0.055535896  0.055677348            2 
 1365000    1.0434839   -4.8126273    906.83846  0.055362543  0.055668233            2 
 1366000    1.0266877   -4.7869212    909.05074  0.055456975  0.055659018            3 
 1367000    1.0435942    -4.788515    909.92311  0.055469587  0.055650382            3 
 1368000    1.0283764   -4.8029635     909.9572  0.055431116  0.055641351            2 
 1369000    1.0515091   -4.7784715    909.70412   0.05537522  0.055632428            3 
 1370000    1.0438588   -4.7842408    911.14687  0.055422559  0.055623496            5 
 1371000    1.0188095   -4.7830995    912.93699  0.055490943   0.05561471            4 
 1372000    1.0425534   -4.7937127    913.08823  0.055459684  0.055605738            4 
 1373000    1.0286058   -4.7590755    916.22045  0.055609399  0.055596765            3 
 1374000    1.0373412   -4.7614007    918.44298  0.055703722  0.055588016            4 
 1375000    1.0297354   -4.7717597    916.90444  0.055569966  0.055579387            6 
 1376000    1.0439094   -4.7762834    916.12527  0.055482393  0.055570593            6 
 1377000    1.0325156   -4.7863101    913.12888  0.055260765  0.055561388            5 
 1378000    1.0363816   -4.8009819    916.77152  0.055440948  0.055552261            6 
 1379000    1.0523781   -4.7494973    918.47273  0.055503549  0.055543093            2 
 1380000     1.028279   -4.8243716    917.15815  0.055383946  0.055533959            2 
 1381000    1.0508049   -4.7527784    918.75443  0.055440166  0.055524352            2 
 1382000    1.0256425   -4.7719689    919.29659  0.055432742  0.055514742            1 
 1383000    1.0287481   -4.8209182    917.18509  0.055265431  0.055505137            2 
 1384000    1.0104458   -4.7987292    921.81997  0.055504574  0.055495436            3 
 1385000    1.0249874   -4.7895876      920.501  0.055385138  0.055486124            4 
 1386000    1.0477774   -4.8035552    919.08572  0.055260084  0.055476698            2 
 1387000    1.0121497   -4.7980665    915.33952  0.054995164   0.05546721            6 
 1388000    1.0070154   -4.8114764    918.33749  0.055135536  0.055457395            3 
 1389000    1.0560251   -4.8166562    918.99451   0.05513526   0.05544763            4 
 1390000    1.0113669   -4.8237719     916.9978  0.054975887   0.05543797            5 
 1391000    1.0131411    -4.782049    921.34869  0.055197022  0.055428209            6 
 1392000    1.0661593    -4.794562    923.45979  0.055283752  0.055418987            4 
 1393000    1.0393175   -4.8336417    922.12674  0.055164318  0.055409283            7 
 1394000     1.012774   -4.7762393    922.80383  0.055165222  0.055399783            3 
 1395000    1.0342825   -4.7729077    925.81819  0.055305746  0.055390622            4 
 1396000      1.03123   -4.7939034    928.16564  0.055406258  0.055381103            3 
 1397000    1.0283329   -4.8087715    921.03361   0.05494116  0.055371154            5 
 1398000    1.0264171    -4.776801    924.43508  0.055104618  0.055361288            4 
 1399000    1.0313152   -4.8093306    923.18289  0.054990642  0.055351418            5 
 1400000    1.0212378   -4.7999926     925.7556    0.0551045  0.055341334            6 
 1401000     1.019928   -4.7942332    923.76893  0.054946998  0.055331328            3 
 1402000    1.0226654   -4.7881343    924.03919   0.05492387  0.055321305            2 
 1403000    1.0186063   -4.8017767    926.52546  0.055032399   0.05531143            9 
 1404000     1.018876   -4.8373332    923.63535  0.054821661  0.055301478            3 
 1405000    1.0232307   -4.7771462    928.19478  0.055053071  0.055291356            3 
 1406000    1.0387421   -4.7818056    930.65897  0.055159968  0.055281434            2 
 1407000    1.0092641   -4.7949942    926.00898  0.054845355  0.055271703            3 
 1408000    1.0221862    -4.806147     927.4624  0.054892424  0.055261852            2 
 1409000    1.0420173   -4.7818406    930.05226  0.055006639  0.055251577            4 
 1410000    1.0184733   -4.8098044    926.86228  0.054779094  0.055241601            3 
 1411000    1.0473808   -4.8096096      926.265  0.054704996  0.055231806            2 
 1412000    1.0200288   -4.8215444    931.63095  0.054982941  0.055221646            6 
 1413000    1.0344985   -4.8036955    931.77182  0.054952336  0.055212086            3 
 1414000    1.0366717   -4.7912192    934.51322  0.055075037  0.055202669            5 
 1415000    1.0347397   -4.8275532    931.35333  0.054850019  0.055192887            5 
 1416000    1.0199317   -4.7924748    935.49937  0.055055283  0.055183002            3 
 1417000    1.0240243   -4.7967248    936.68351  0.055086068  0.055173453            4 
 1418000    1.0216582    -4.807839    933.87451  0.054882141  0.055163767            2 
 1419000    1.0262913   -4.8223737    933.73746  0.054835416  0.055154128            2 
 1420000    1.0277092   -4.8368351    929.79227  0.054565274  0.055144473            3 
 1421000    1.0221656   -4.8100282    938.26173  0.055023559  0.055134624            4 
 1422000    1.0198522      -4.8309    933.95436   0.05473244  0.055125073            2 
 1423000    1.0211668   -4.7980291    937.32381  0.054891298  0.055115247            5 
 1424000    1.0242732   -4.8105391    937.96993  0.054890562  0.055105879            3 
 1425000    1.0217489   -4.8143555    941.23394   0.05504292  0.055096559            2 
 1426000    1.0356109   -4.8090914    939.91131  0.054927028  0.055087028            3 
 1427000    1.0273013    -4.817827    941.92426  0.055006089  0.055077436            4 
 1428000    1.0178088   -4.8322268    939.41272  0.054821004  0.055067936            3 
 1429000    1.0513674   -4.8181959    939.74241  0.054801867  0.055058221            3 
 1430000    1.0237292   -4.8521362    938.81377  0.054709427  0.055048259            4 
 1431000    1.0394112   -4.8020293    943.45898  0.054941706  0.055038481            2 
 1432000    1.0385294   -4.7758056    945.17898  0.055003432  0.055028908            3 
 1433000     1.019869   -4.8124371      940.155  0.054672889  0.055019576            5 
 1434000     1.038936   -4.8162811    938.73654  0.054552332   0.05500993            3 
 1435000    1.0077596   -4.8186834    942.20405  0.054715682  0.055000495            2 
 1436000    1.0130128   -4.7903923    944.13574  0.054789679  0.054991148            4 
 1437000    1.0066299   -4.7895529    946.16581  0.054869277  0.054982008            5 
 1438000    1.0429126   -4.8104185    946.38582   0.05484387  0.054972845            3 
 1439000    1.0263152   -4.7968498     947.4224  0.054865786  0.054963388            3 
 1440000    1.0473063   -4.7976727    947.34843  0.054823404  0.054954137            2 
 1441000    1.0380678   -4.8331272    944.89425  0.054643433  0.054944758            3 
 1442000    1.0235944    -4.805208    948.62855  0.054821345    0.0549354            2 
 1443000     1.008246   -4.8155152    946.65247  0.054669235  0.054925778            3 
 1444000    1.0320739   -4.7949839    948.61559  0.054744667  0.054916274            5 
 1445000    1.0183633   -4.8307786     949.5895  0.054762947    0.0549067            6 
 1446000    1.0169805   -4.8263042    951.51417  0.054835994   0.05489731            2 
 1447000    1.0504018   -4.8353196    945.92474    0.0544762   0.05488768            6 
 1448000     1.016974   -4.7864807    949.08699  0.054620568  0.054877835            2 
 1449000    1.0307837   -4.7889664    949.77378  0.054622371  0.054868137            4 
 1450000    1.0152449   -4.7652206    951.16093  0.054664421   0.05485867            2 
 1451000   0.99309185   -4.8082378      952.978  0.054731105  0.054849067            6 
 1452000    1.0041552   -4.8023004    950.65024  0.054559816  0.054839105            5 
 1453000    1.0251343    -4.816924    948.28906  0.054386847  0.054829049            4 
 1454000    1.0295652   -4.8195073    951.01449  0.054505645  0.054819223            5 
 1455000    1.0383895   -4.8259078     951.5832  0.054500756  0.054809137            2 
 1456000    1.0159103   -4.8128692    953.15884  0.054553505  0.054798961            2 
 1457000    1.0374557    -4.828363    951.25598  0.054407228  0.054788622            4 
 1458000    1.0326359   -4.8276217    952.86595  0.054461931  0.054778569            2 
 1459000    1.0074555   -4.8626641    951.56458  0.054350273  0.054768453            4 
 1460000    1.0385028     -4.84551    953.13602  0.054402741  0.054758119            3 
 1461000   0.99884381   -4.8348124    950.04834  0.054189388  0.054748084            4 
 1462000   0.99910449   -4.8345435    955.40246  0.054457504  0.054738289            6 
 1463000   0.99382934   -4.8061428    955.41327  0.054420897  0.054728263            3 
 1464000    1.0357399   -4.8183082    955.17471  0.054370145  0.054718035            3 
 1465000    1.0176289   -4.8422795    956.70729   0.05442021  0.054708142            3 
 1466000    1.0180292    -4.810959    954.84386  0.054277164  0.054698354            3 
 1467000    1.0191378   -4.8164444    959.11163  0.054482597  0.054688644            4 
 1468000    1.0154501   -4.8691985    955.36836   0.05423299  0.054678248            3 
 1469000   0.99573232    -4.809478    960.12827  0.054466092  0.054668003            5 
 1470000    1.0459474   -4.8355617     953.5746  0.054057517   0.05465769            2 
 1471000    1.0117078   -4.8250675     957.2573  0.054229396  0.054647373            3 
 1472000    1.0159485   -4.7859379    959.41307  0.054314599  0.054637029            3 
 1473000   0.99382095   -4.8430941    955.21302  0.054040112  0.054626747            5 
 1474000    1.0009545   -4.8401074    957.56215  0.054136259  0.054616325            4 
 1475000    1.0133987   -4.8134875    958.92141  0.054176351  0.054605812            3 
 1476000    1.0062781   -4.8188982    959.00264  0.054144232  0.054595505            3 
 1477000     1.013291   -4.8101198    959.84837   0.05415529  0.054585271            4 
 1478000    1.0182651   -4.8201809    962.04761  0.054242648  0.054574884            4 
 1479000    1.0215188    -4.805666    959.95259  0.054087931  0.054564132            8 
 1480000    1.0215985   -4.8001123     961.0198  0.054111475  0.054553627            3 
 1481000    1.0253296    -4.858904    959.47115  0.053987798  0.054543035            3 
 1482000    1.0221674   -4.8143904     962.5108   0.05412229  0.054532674            4 
 1483000    1.0159554   -4.8419757    960.13328  0.053952196  0.054522559            8 
 1484000   0.98307217   -4.8400976    961.48626  0.053991816  0.054511578            3 
 1485000   0.98618982   -4.8294396    966.46894   0.05423507  0.054500889            2 
 1486000    0.9944408    -4.828584    961.73503  0.053933099  0.054490239            2 
 1487000    1.0152638   -4.8442362    962.79829  0.053956416  0.054479994            3 
 1488000    1.0270205   -4.8425584    967.44204  0.054180222  0.054469651            5 
 1489000    1.0114555   -4.8381811    965.18291    0.0540174  0.054459283            2 
 1490000    0.9889938    -4.808536     968.1884  0.054149239  0.054448903            2 
 1491000    1.0237504   -4.8510876    967.82621  0.054092679   0.05443823            4 
 1492000    1.0096273   -4.8367292    962.51889  0.053759992  0.054427589            2 
 1493000    1.0159827   -4.8580903    961.89563  0.053689196    0.0544171            3 
 1494000   0.99448797   -4.8366872    969.24167  0.054063012  0.054406418            2 
 1495000    1.0070355    -4.817886    971.60011  0.054158312  0.054396057            3 
 1496000    1.0154453   -4.8364608    968.15722  0.053930326  0.054385492            2 
 1497000   0.97824346   -4.8509199    967.23443  0.053842932  0.054374964            4 
 1498000    1.0050467   -4.8192818    969.03239  0.053907009   0.05436424            2 
 1499000   0.99728646   -4.8317526    966.45846  0.053727955  0.054353552            4 
 1500000    1.0163285    -4.824818    969.15679  0.053842044  0.054342851            5 
 1501000    1.0320148   -4.8348089     974.0641   0.05407862  0.054332324            7 
 1502000    1.0042707   -4.7974909    970.89764  0.053866935  0.054321867            3 
 1503000    1.0004572    -4.806894    972.18244  0.053902331  0.054311538            3 
 1504000    1.0156462   -4.8222825    972.58688  0.053888901  0.054301172            2 
 1505000    1.0103002   -4.8270794    973.54829  0.053906329  0.054290533            3 
 1506000    1.0066307   -4.8797535    970.32425  0.053692134  0.054279802            2 
 1507000   0.98715013   -4.8318548    974.20815  0.053871276  0.054269079            3 
 1508000     1.032278   -4.8571071    971.32789  0.053676387  0.054258291            4 
 1509000    1.0107253   -4.8491172    972.51285  0.053706254  0.054247459            3 
 1510000    1.0044638   -4.8316187     973.9111  0.053747853  0.054236948            5 
 1511000   0.99477797   -4.8247023    977.35689  0.053902321  0.054226238            2 
 1512000    1.0047275   -4.8193872    977.29029  0.053863001  0.054215541            7 
 1513000    1.0218623   -4.8229126    977.19524  0.053822166  0.054204947            4 
 1514000    1.0096919   -4.8525025    976.51648  0.053749256  0.054194208            2 
 1515000    0.9901663   -4.8671435    971.88571   0.05345906  0.054183762            2 
 1516000    1.0139364   -4.8412155    979.27567  0.053830017  0.054173283            2 
 1517000    1.0046234   -4.8388136    978.28009  0.053739842  0.054162596            1 
 1518000    1.0048489   -4.7985945    982.16981  0.053917974  0.054152295            4 
 1519000    1.0077422   -4.8612002    978.91818  0.053704091  0.054141866            2 
 1520000    1.0067299   -4.8288455    979.87706   0.05372133  0.054131602            7 
 1521000    1.0068641   -4.8542638    985.09441  0.053971861  0.054121313            4 
 1522000    1.0055869   -4.8506195    980.35808  0.053677074  0.054111003           11 
 1523000    1.0042582   -4.8252895     986.4409  0.053974661  0.054100581            2 
 1524000   0.99935314   -4.8513168    981.94116  0.053693196  0.054090379            7 
 1525000    1.0028864   -4.8196958    987.85001  0.053980875   0.05408029            3 
 1526000   0.99450411   -4.8265588    984.48945  0.053761984  0.054070186            3 
 1527000    0.9806628   -4.8352772    981.49003  0.053563088  0.054059862            2 
 1528000    1.0104063   -4.8445619     984.7135  0.053703834  0.054049929            9 
 1529000   0.99283138   -4.8318905    982.82563  0.053565818  0.054039791            2 
 1530000    1.0067475   -4.8446447      983.151  0.053548529  0.054029562            2 
 1531000   0.98201598   -4.8174147    988.93557  0.053828411  0.054019566            2 
 1532000    1.0510007   -4.8542708    986.57741  0.053665003  0.054009405            6 
 1533000    0.9896525   -4.8309476    984.98387  0.053543372  0.053999277            5 
 1534000    1.0236297    -4.848665    986.38763  0.053584726    0.0539894            5 
 1535000    1.0113204   -4.8651781    988.03457  0.053639228  0.053979217            2 
 1536000   0.99207053    -4.839351    987.45257   0.05357273  0.053968829            4 
 1537000   0.99132022   -4.8310479    990.91377  0.053725535  0.053958575            5 
 1538000    0.9995896   -4.8398579    991.17159  0.053704573    0.0539487            2 
 1539000    1.0173367   -4.8736455    987.61448  0.053477067  0.053938538            5 
 1540000    1.0079003   -4.8518448    990.27533  0.053586327  0.053928116            4 
 1541000    1.0126441   -4.8379563    989.14398  0.053490373  0.053917534            3 
 1542000    1.0237573   -4.8488056    989.00515  0.053448182  0.053907174            3 
 1543000    1.0056985   -4.8461813    994.04369   0.05368566  0.053896846            2 
 1544000    1.0047311   -4.8532845    988.38844  0.053345663  0.053886523            3 
 1545000    1.0053527   -4.8487219    992.49925  0.053532861     0.053876            3 
 1546000    1.0003884   -4.8761889    987.30565  0.053218286  0.053865488            3 
 1547000    1.0077931   -4.8815655    990.65907  0.053364527  0.053854881            2 
 1548000   0.99614275   -4.8069927    989.86043   0.05328706  0.053844113            4 
 1549000    1.0069089   -4.8563584    995.56609  0.053559613  0.053833894            6 
 1550000    1.0069514   -4.8717268    992.87037  0.053380127  0.053823727            3 
 1551000    1.0102025   -4.8603904    990.38217  0.053212023  0.053813429            2 
 1552000    1.0066241    -4.857028    994.28439  0.053387263  0.053802716            2 
 1553000   0.97262443   -4.8354014    992.85197  0.053276023  0.053791961            2 
 1554000    1.0139362   -4.8673669    993.99677   0.05330313  0.053781234            6 
 1555000    1.0015481    -4.860766    995.53058   0.05335105  0.053770636            2 
 1556000    0.9812741   -4.8318456    998.38844  0.053469818  0.053760136            2 
 1557000    0.9797319    -4.861532    996.45482  0.053331986  0.053749303            2 
 1558000   0.99134711   -4.8564071    990.90038  0.053000662    0.0537385            8 
 1559000   0.99657724   -4.8615754    996.47105  0.053264435   0.05372771            7 
 1560000   0.98859355   -4.8608923    996.16737  0.053214069  0.053716876            2 
 1561000   0.99503293   -4.8341725      999.994  0.053384262  0.053706201            4 
 1562000   0.99111305   -4.8897103    993.14034   0.05298444  0.053694886            2 
 1563000    1.0034034   -4.8439179     998.0077   0.05321005  0.053683639            2 
 1564000   0.99001404   -4.8401302    997.79967  0.053164944  0.053672316            5 
 1565000    1.0117386   -4.8062225    997.07016  0.053092128  0.053661324            2 
 1566000    1.0261391   -4.8502917    997.28808  0.053069821  0.053650093            4 
 1567000   0.98592784   -4.8444499    995.42942   0.05293711  0.053638586            1 
 1568000   0.99673325   -4.8404937     996.7465  0.052973347  0.053627267            4 
 1569000    1.0208868   -4.8774543     994.0291  0.052795257  0.053615827            4 
 1570000    0.9722278   -4.8195843    996.21442  0.052877623  0.053604273            2 
 1571000   0.98643737   -4.8065151    1001.1742  0.053107054  0.053592892            3 
 1572000   0.99865941   -4.8393752    995.96296  0.052797019   0.05358138            5 
 1573000   0.99772048   -4.8657771    997.66589  0.052853671   0.05356982            5 
 1574000    1.0137173   -4.8736215    1001.2153  0.053008011  0.053558325            3 
 1575000    1.0173647   -4.8483896    1000.7034  0.052947271  0.053546874            5 
 1576000   0.96791024   -4.8404583    1001.5338  0.052957585   0.05353534            3 
 1577000    1.0016155   -4.8497223    1002.9522  0.052998952  0.053524068            2 
 1578000   0.98601343   -4.8377506     999.8182  0.052799863  0.053512457            6 
 1579000    1.0058106   -4.8475829    1001.9032   0.05287646  0.053501052            3 
 1580000    1.0060604   -4.8487204    996.53957  0.052560104  0.053489635            2 
 1581000    1.0031606    -4.869873    1001.8198  0.052805177   0.05347832           10 
 1582000    1.0082071   -4.8767626    997.52082  0.052545345  0.053466526            7 
 1583000    1.0168667   -4.8316861    1004.6312  0.052886461   0.05345489            2 
 1584000   0.99576904   -4.8899421    1000.6296  0.052642549  0.053443387            3 
 1585000     1.008842   -4.8399653    1005.7435  0.052878206  0.053431887           11 
 1586000   0.96872718   -4.8513566    1003.7654  0.052740932  0.053420475            6 
 1587000   0.99290591   -4.8560101    1003.6782  0.052703119  0.053409054            4 
 1588000   0.99334667   -4.8407341    1007.2907  0.052859502  0.053397834            3 
 1589000   0.96885564   -4.8316273    1010.9323  0.053017218  0.053386474            3 
 1590000   0.98132051   -4.8473524    1001.4013  0.052484343  0.053374985            5 
 1591000    1.0157229   -4.8915557    1004.2744  0.052601841  0.053363422            3 
 1592000    1.0048814   -4.8660817    1006.4118  0.052680682  0.053351972            1 
 1593000   0.97616857   -4.8631223    1004.8246  0.052564584  0.053340214            3 
 1594000   0.98973571   -4.8322532    1008.9381  0.052746659  0.053328682            3 
 1595000   0.97656482   -4.8607596    1006.9909  0.052611853  0.053317101            4 
 1596000    1.0020348   -4.8749725    1008.1986  0.052641947  0.053305278            2 
 1597000     1.005546   -4.8457462    1007.1214  0.052552775  0.053293742            8 
 1598000     1.001193   -4.8705278    1004.8752  0.052402751  0.053282201            2 
 1599000    1.0061177   -4.8644347    1007.8983  0.052527532  0.053270657            3 
 1600000    0.9753577   -4.8778142    1009.0325  0.052553776  0.053258816            5 
 1601000   0.97786179    -4.830575    1011.7428  0.052662022  0.053247075            4 
 1602000    1.0036297   -4.8596501    1010.6635  0.052573007  0.053235539            4 
 1603000    1.0263827   -4.8513577    1012.3971  0.052630334  0.053223914            2 
 1604000    1.0020159   -4.8629634    1010.1463  0.052480587  0.053212376            3 
 1605000   0.98981191    -4.874926    1010.2066  0.052451017  0.053200619            4 
 1606000   0.96946325   -4.8508771    1011.5022  0.052485587  0.053188948            3 
 1607000   0.98341068   -4.8774384    1012.1504   0.05248654  0.053177084            5 
 1608000   0.98912579   -4.8525691    1015.4569  0.052625252  0.053165559            2 
 1609000    0.9941466   -4.8393632    1015.8457  0.052612685   0.05315396            2 
 1610000   0.98156417    -4.878573    1014.4409  0.052507291   0.05314263            3 
 1611000    1.0075115   -4.8575179    1011.8368  0.052339995  0.053131046            7 
 1612000   0.99201633   -4.8628889    1011.6933  0.052300108   0.05311939            2 
 1613000   0.98491165    -4.889019    1015.3623  0.052457236  0.053107618           11 
 1614000    1.0023302   -4.8751372    1016.4433  0.052480551  0.053096222            3 
 1615000   0.98538286   -4.8842121    1015.2554  0.052386757  0.053084851            3 
 1616000    1.0195494   -4.8785307    1016.4295  0.052414887  0.053073398            3 
 1617000   0.98577534   -4.8568785    1019.4283  0.052537016  0.053061953            4 
 1618000    1.0023819   -4.8484459    1018.7571   0.05246998   0.05305067            4 
 1619000    1.0110626   -4.8997319    1017.9884  0.052398004  0.053039564            4 
 1620000   0.98903404   -4.8839899    1019.8737   0.05246264   0.05302828            2 
 1621000   0.98303502   -4.8804021    1019.5244  0.052412316   0.05301724            5 
 1622000   0.98785262    -4.877487    1023.3778  0.052577982   0.05300616            2 
 1623000    1.0103226   -4.8591443    1021.3086  0.052439341  0.052995178            3 
 1624000   0.99523008   -4.8348174    1024.7525  0.052583769   0.05298419           10 
 1625000    0.9856519   -4.8564715    1026.2165  0.052626489    0.0529732            5 
 1626000   0.98015741   -4.8556487    1024.5288  0.052507627  0.052962431            5 
 1627000    1.0037199   -4.8881529    1024.0849  0.052452617  0.052951436            3 
 1628000   0.99003915   -4.8816406    1019.8746  0.052204883  0.052940462            4 
 1629000    1.0080082   -4.8524583    1026.5287  0.052513233   0.05292933            3 
 1630000   0.99112032   -4.9015365    1026.0262  0.052455327  0.052918381            5 
 1631000   0.96062654   -4.8668075    1030.4408  0.052648721  0.052907635            3 
 1632000   0.97153966   -4.8581299    1026.6064  0.052420671  0.052896783            2 
 1633000   0.97671051   -4.9111561    1025.4026  0.052327136  0.052885839            4 
 1634000    1.0191297   -4.8860708    1029.8375  0.052521293   0.05287489            3 
 1635000   0.98972084   -4.8590519    1026.8771   0.05233828  0.052864373            2 
 1636000   0.98942897   -4.8560321    1030.1881  0.052474946  0.052853737            3 
 1637000   0.94776769   -4.8822325    1033.3402  0.052603352  0.052842727            3 
 1638000   0.99405867   -4.9019723    1028.3996  0.052319883  0.052831971            3 
 1639000    1.0012326   -4.8618366    1029.1939  0.052328344  0.052821188            4 
 1640000     1.012234   -4.8653882    1031.0962  0.052393102  0.052810487            4 
 1641000   0.99395563   -4.8969505     1028.261  0.052217197  0.052799663            3 
 1642000   0.97695821   -4.8690802    1031.6539  0.052357585   0.05278865            3 
 1643000   0.98550026   -4.8865529    1032.5538  0.052371361   0.05277777            4 
 1644000   0.98668391   -4.8771898     1030.661  0.052243563  0.052766974            4 
 1645000   0.99846897   -4.8408057    1030.9529  0.052226592  0.052756106            2 
 1646000   0.97418055   -4.8486674     1032.624  0.052279468  0.052745463            4 
 1647000    1.0064896   -4.8926855      1032.96  0.052264722   0.05273452            3 
 1648000     1.008538   -4.8613319    1036.1854  0.052396104  0.052723837            3 
 1649000   0.99908739   -4.8867244    1036.8371  0.052397268  0.052713163            3 
 1650000   0.97416672   -4.8544037    1032.4904  0.052145982  0.052702414            3 
 1651000   0.96953874   -4.8740405    1037.1331  0.052348731  0.052691692            2 
 1652000     1.000708   -4.9116731    1034.8031  0.052199511  0.052680732            5 
 1653000   0.97759385   -4.8495565    1034.5245  0.052153886  0.052669662            2 
 1654000   0.98837118   -4.8771422    1034.1607  0.052104024    0.0526587            4 
 1655000   0.99253348   -4.8661551    1034.7765  0.052103548  0.052647962            6 
 1656000   0.95787263   -4.8541759    1037.1812  0.052193096  0.052636999            6 
 1657000   0.94711189   -4.8561617    1038.0487  0.052205226  0.052626026            3 
 1658000    1.0087118   -4.8626924     1037.408  0.052141535  0.052615011            4 
 1659000   0.98012992   -4.8621863    1034.5637  0.051967233  0.052603981            2 
 1660000   0.99838034   -4.8663623    1036.4594  0.052031096  0.052592891            2 
 1661000   0.98481647   -4.8650744    1036.3893  0.051996251  0.052581707            3 
 1662000   0.97779046   -4.8957762    1035.3787  0.051914296  0.052570371            2 
 1663000   0.99093569   -4.9100007    1037.3397  0.051981344  0.052559475            4 
 1664000   0.99984273   -4.8656818    1038.5231  0.052009369  0.052548504            5 
 1665000   0.97454017   -4.8827244    1039.5996   0.05203201  0.052537565            4 
 1666000   0.98235334   -4.8752094    1042.2155  0.052131629  0.052526449            4 
 1667000   0.98317476   -4.9019196     1041.204   0.05204979   0.05251579            5 
 1668000    1.0035385   -4.8722337    1041.3806  0.052027409  0.052504878            4 
 1669000   0.97999147   -4.8844783    1037.9969  0.051827286   0.05249377            7 
 1670000   0.97610113   -4.8866955    1042.4022  0.052016079  0.052482779            6 
 1671000   0.99519611   -4.9099142      1039.54  0.051842211   0.05247151            6 
 1672000    0.9717238   -4.8865719    1044.2895  0.052047923  0.052460389            6 
 1673000   0.98216881   -4.8977605    1042.8006  0.051942649  0.052449418            3 
 1674000   0.97067509   -4.9018659    1042.6795  0.051905589  0.052438424            2 
 1675000   0.97970295   -4.8987611     1047.004  0.052089752  0.052427286            5 
 1676000    0.9953038   -4.9061942    1042.6195  0.051840669  0.052416533            3 
 1677000   0.98614826    -4.885926    1047.1143  0.052033109  0.052405769            2 
 1678000   0.99545924    -4.880747    1046.9336  0.051993129  0.052394928            3 
 1679000    0.9775267   -4.8669845    1048.1156  0.052020825  0.052383852            3 
 1680000   0.97388499   -4.9150554     1043.424   0.05175714  0.052372878            3 
 1681000   0.99363096   -4.8824168    1046.1509  0.051861536  0.052361952            9 
 1682000   0.97976791   -4.8849452    1048.0894  0.051926744  0.052351045            3 
 1683000   0.99812946   -4.8838802    1044.9434  0.051740119  0.052340166            5 
 1684000   0.96409313   -4.8666823     1052.796  0.052097982  0.052329512            4 
 1685000   0.97564719   -4.8990822    1047.4795  0.051804131  0.052318546            5 
 1686000    0.9771299   -4.8703467    1048.3094  0.051814423  0.052307674            2 
 1687000   0.96909217    -4.909322    1045.1369  0.051626994  0.052296719            3 
 1688000   0.96988003   -4.9067041    1045.9598  0.051637036  0.052285625            9 
 1689000   0.97902539   -4.8916526    1050.4965  0.051830298  0.052274616            4 
 1690000   0.95715963    -4.869906    1051.0587  0.051827351  0.052263552            9 
 1691000    0.9753508   -4.8708358    1050.9697  0.051792317  0.052252316            1 
 1692000   0.97634449   -4.8894988    1045.7938  0.051506789  0.052241162            4 
 1693000   0.97859993    -4.896371    1048.6456  0.051616735  0.052229958            4 
 1694000   0.97820832   -4.8704766    1048.9955  0.051603476  0.052219107            5 
 1695000   0.96552431    -4.880543    1052.0828  0.051724817  0.052208075            2 
 1696000   0.95673294   -4.9060944    1049.7808   0.05158121  0.052196817            3 
 1697000    0.9798555   -4.9095296    1052.8979  0.051703884  0.052185823            3 
 1698000   0.97215767   -4.8860862    1054.3264  0.051743541  0.052174859            2 
 1699000    0.9667088   -4.9203075    1049.4972  0.051476223  0.052163535            3 
 1700000    0.9799137   -4.9000694    1053.7649   0.05165514  0.052152034            6 
 1701000    0.9826662   -4.8520033    1051.6604  0.051521673  0.052140987            4 
 1702000   0.96883568   -4.8916808    1057.1314  0.051759272  0.052130035            2 
 1703000   0.99241807   -4.8604153    1055.4691  0.051647537  0.052118989            2 
 1704000   0.93998482   -4.8861022       1056.1  0.051648081  0.052107802            5 
 1705000   0.98427473   -4.8663737    1054.9223  0.051560228  0.052096735            3 
 1706000   0.97545373   -4.9117164    1057.1581  0.051639219  0.052085582            2 
 1707000   0.98543023   -4.9228884    1058.7541  0.051686883  0.052074503            5 
 1708000    0.9922975    -4.892597    1056.2754  0.051535684  0.052063257            3 
 1709000   0.96884398   -4.8746369    1060.5074   0.05171189  0.052052575            6 
 1710000   0.95080573   -4.8715779    1059.7432  0.051644404   0.05204185            3 
 1711000   0.96659918   -4.8692584     1062.359  0.051741625  0.052031315            4 
 1712000    0.9698662   -4.9135405    1058.2872  0.051513201  0.052020556            8 
 1713000    0.9678951   -4.8538117    1062.0654  0.051666927  0.052009505            2 
 1714000   0.97143917    -4.910061    1058.4671  0.051461837   0.05199868            8 
 1715000    1.0022355   -4.9077061     1057.093  0.051365064  0.051987712            6 
 1716000   0.96999236   -4.8905995    1061.1088  0.051530148   0.05197661            4 
 1717000   0.97620549   -4.8735245    1064.8115  0.051679842  0.051965969            4 
 1718000     1.007812   -4.8979322    1060.5645  0.051443757   0.05195528            3 
 1719000   0.99176591    -4.888523    1062.0899   0.05148778  0.051944665            2 
 1720000   0.96793858   -4.8686237    1063.2056  0.051511898  0.051933731            3 
 1721000   0.96768135   -4.9032635    1062.7079  0.051457867  0.051922937            3 
 1722000   0.97646967   -4.9077639    1066.1754  0.051595792     0.051912            3 
 1723000   0.97544454   -4.8666395    1066.5228  0.051582649  0.051901221            2 
 1724000    0.9787014   -4.9218111    1060.6924    0.0512709  0.051890516            6 
 1725000   0.98515189   -4.9327925    1064.8599  0.051442509   0.05187979            4 
 1726000   0.96539945   -4.8977499    1065.6352  0.051450136  0.051869019            2 
 1727000   0.97956409   -4.8878024    1063.3421  0.051309695  0.051858454            6 
 1728000   0.97933212   -4.8697794    1066.1312  0.051414505  0.051847627            2 
 1729000   0.95544458   -4.8845078    1065.9094  0.051374079  0.051836759            5 
 1730000    0.9694848   -4.9385903    1064.2263  0.051263309  0.051825657            4 
 1731000   0.97584095   -4.9088811    1065.9158   0.05131503  0.051814933            4 
 1732000   0.97448218   -4.8782114    1070.1345   0.05148838  0.051804144            6 
 1733000   0.96869599   -4.8929673    1067.9258   0.05135246  0.051793549            3 
 1734000   0.96156504   -4.9097802    1071.4887  0.051494072   0.05178276            3 
 1735000   0.96421101   -4.9083462     1066.481  0.051223873   0.05177174            5 
 1736000   0.99509589   -4.9105153    1070.0593  0.051366135   0.05176091            3 
 1737000   0.97228255   -4.9311277    1070.4536  0.051355479  0.051750118            4 
 1738000   0.97377737   -4.8896548    1072.0487  0.051402413  0.051739373            5 
 1739000   0.99928927   -4.8915998    1071.9732  0.051369233  0.051728618            4 
 1740000   0.96875906   -4.9044307     1072.366  0.051358523   0.05171789            2 
 1741000   0.96847106    -4.923095    1069.9567  0.051213704  0.051707269            3 
 1742000   0.97421475   -4.9700547    1070.0581  0.051189155  0.051696253            3 
 1743000   0.99892315   -4.9011494    1071.6773  0.051237201  0.051685351            5 
 1744000   0.96217431   -4.9244927    1071.6993  0.051208871  0.051674543            4 
 1745000   0.96099143   -4.8915686    1071.9307  0.051190577  0.051663689            4 
 1746000   0.96711658   -4.9129523    1073.5434  0.051238232   0.05165281            6 
 1747000   0.96147892   -4.8691551    1071.5961  0.051116012  0.051642116            3 
 1748000   0.97552566   -4.8723848     1077.615  0.051373712  0.051631313            4 
 1749000   0.95878004   -4.9246228    1073.7427  0.051159841  0.051620713            2 
 1750000    0.9929276   -4.9086247    1077.6132  0.051314916  0.051609771            3 
 1751000   0.99220251   -4.8958139    1079.3183  0.051366755  0.051598913            4 
 1752000   0.96006056    -4.918021    1073.1692  0.051044958  0.051588209            6 
 1753000   0.96271978   -4.8764053    1078.3619  0.051262689  0.051577555            4 
 1754000    0.9476458   -4.9053097    1074.5556  0.051052622  0.051566723            2 
 1755000   0.97468543   -4.9047897    1077.9305  0.051183787  0.051556113            5 
 1756000   0.95428072   -4.9018055     1079.601  0.051233912  0.051545623            2 
 1757000   0.96562384   -4.9181635    1075.3799  0.051004547  0.051534995            5 
 1758000   0.96567122   -4.9027677    1080.3691  0.051212037  0.051524433            3 
 1759000   0.98309236   -4.8905736     1081.588  0.051240666  0.051514008            5 
 1760000   0.97716207   -4.9144076    1080.5494  0.051162377  0.051503627            3 
 1761000   0.95903292   -4.9105214    1078.4151  0.051032324  0.051493066            5 
 1762000   0.95720025   -4.9254606    1079.0792   0.05103477  0.051482221            4 
 1763000   0.96109633   -4.8826314    1082.8623  0.051184641  0.051471599            4 
 1764000   0.96262924   -4.8753976    1081.3009  0.051081864  0.051461017            3 
 1765000   0.97617739   -4.9373526    1079.8273  0.050983348  0.051450223            3 
 1766000   0.98060701   -4.9290542    1080.6971  0.050995522  0.051439556            5 
 1767000   0.97537163    -4.897602    1086.8455  0.051256626  0.051428911            4 
 1768000   0.99317274    -4.925417    1083.3317  0.051062016  0.051418183            5 
 1769000   0.95820268   -4.9020626     1085.354  0.051128417  0.051407591            3 
 1770000   0.96596928   -4.9257719    1080.9771  0.050893463  0.051396849            6 
 1771000   0.96402215   -4.9379994    1081.7039  0.050898924  0.051386225            4 
 1772000   0.97403338   -4.8875992     1086.403  0.051091185  0.051375693            3 
 1773000   0.96993663   -4.9121975    1086.7101  0.051076807  0.051365079            3 
 1774000   0.96653891   -4.8913732    1087.3938  0.051080131  0.051354331            3 
 1775000   0.97634466   -4.9161307    1082.1857   0.05080684  0.051343639            4 
 1776000   0.94648631   -4.9155273    1088.3462  0.051067293  0.051332907            2 
 1777000   0.94829832   -4.9498603      1083.31   0.05080238  0.051322226            3 
 1778000   0.96401525   -4.9232567    1085.7381  0.050887613  0.051311201            2 
 1779000   0.97294519   -4.9158526    1084.7164  0.050811148  0.051300624            3 
 1780000   0.96721208   -4.8993232    1090.2809  0.051043114  0.051289972            6 
 1781000   0.96716841   -4.9204245    1087.6092  0.050889444  0.051279204            6 
 1782000   0.96737653   -4.9252587    1087.8987  0.050874427  0.051268289            4 
 1783000     0.968687   -4.9187997    1090.8236  0.050982594  0.051257489            2 
 1784000   0.96091008   -4.9123607    1092.4206  0.051028615  0.051246772            4 
 1785000   0.94596417    -4.920071    1089.7652  0.050876062  0.051235913            2 
 1786000   0.97653325   -4.9133328    1088.3475  0.050781423  0.051224963            1 
 1787000   0.95704965   -4.9323592    1090.4687  0.050851927  0.051214281            8 
 1788000   0.95354254   -4.8963039    1088.5314  0.050733194  0.051203573            5 
 1789000   0.96612038   -4.9379362    1087.0688  0.050636704   0.05119251            7 
 1790000   0.96481805    -4.876829     1093.716  0.050917875  0.051181634            2 
 1791000   0.95900113   -4.8980064    1090.5451  0.050741909  0.051170858            3 
 1792000   0.96658375   -4.9174536    1086.6968  0.050534636  0.051159829            3 
 1793000   0.96039374   -4.9318513    1089.9993  0.050659943    0.0511488            9 
 1794000   0.95605779   -4.9250444    1090.1722  0.050639736  0.051137539            5 
 1795000   0.97483208   -4.9431443    1091.3973  0.050668399  0.051126479            2 
 1796000   0.96778761   -4.9190866    1095.1817  0.050815781  0.051115487            7 
 1797000   0.96429218   -4.9365634    1095.0413  0.050780991  0.051104614            5 
 1798000    0.9719829   -4.9634806    1091.5534  0.050591093  0.051093757            4 
 1799000   0.95995874   -4.9020639    1095.7784  0.050758682  0.051082774            3 
 1800000   0.97371922   -4.9262089    1096.4959  0.050763698  0.051071875            5 
 1801000   0.95788075   -4.8909731    1097.6199   0.05078752  0.051061084            2 
 1802000   0.96451366   -4.8841843    1097.6624    0.0507613  0.051050195            3 
 1803000   0.97062017   -4.9079221    1093.3886  0.050535614  0.051039215            4 
 1804000   0.96573131    -4.918332     1097.066  0.050677475  0.051028164            3 
 1805000   0.95794309    -4.937004    1095.9887  0.050599665  0.051017303            6 
 1806000   0.96173132   -4.9229683    1096.2931   0.05058569  0.051006596            3 
 1807000   0.95206021   -4.9470889    1097.7073  0.050622918  0.050995715            3 
 1808000   0.98280211   -4.9016053      1101.73  0.050780328  0.050984904            3 
 1809000    0.9964341   -4.9143225    1099.8873  0.050667373  0.050974206            5 
 1810000   0.94074893   -4.9307283     1097.267  0.050518738  0.050963293            2 
 1811000   0.96498003   -4.9218315    1096.1933  0.050441438  0.050952435            3 
 1812000   0.95186999   -4.9135315    1097.7057  0.050483153   0.05094127            3 
 1813000   0.96249577   -4.9415507    1100.1825  0.050569153  0.050930381            4 
 1814000   0.97568599   -4.9519339    1095.8258  0.050341135  0.050919133            3 
 1815000   0.96982906   -4.9580595    1094.8332  0.050267822  0.050907925            5 
 1816000   0.96832773   -4.8878806    1104.0352  0.050662408   0.05089679            2 
 1817000   0.96410676   -4.9152888    1100.6481  0.050479183  0.050885674            2 
 1818000   0.95497116   -4.9402942    1093.1887  0.050109493  0.050874552            3 
 1819000   0.98583383   -4.9249991    1099.7685  0.050383382  0.050863503            6 
 1820000   0.96106208   -4.9110701    1102.4826  0.050479972  0.050852624            2 
 1821000   0.95238635   -4.9690403    1098.9998   0.05029287  0.050841552            3 
 1822000   0.95440115   -4.9223222    1105.4762  0.050561482  0.050830387            3 
 1823000   0.95571487   -4.9174628    1101.3894   0.05034693  0.050819253            3 
 1824000   0.97807981   -4.9559188    1101.5568  0.050326973  0.050808072            3 
 1825000   0.95405728   -4.9325586     1102.126  0.050325387  0.050797096            5 
 1826000   0.97363294     -4.90733    1101.2646  0.050258515  0.050786054            5 
 1827000   0.94651997   -4.9131914    1102.1204   0.05027004   0.05077489            3 
 1828000   0.95648264   -4.9198102    1101.3212  0.050206107  0.050763711            3 
 1829000   0.96941747   -4.9604264    1100.9655  0.050162453  0.050752362            5 
 1830000   0.94685036   -4.8955145    1103.7265  0.050260771  0.050741013            3 
 1831000   0.96361772    -4.918853    1104.0903  0.050249875  0.050729625            7 
 1832000   0.97083953   -4.9456679    1101.9237  0.050123894  0.050718066            5 
 1833000   0.94416528   -4.9298666    1105.1512   0.05024328  0.050706793            6 
 1834000   0.95412589    -4.929115    1102.4557  0.050093407   0.05069528            3 
 1835000   0.95584639   -4.9562329    1101.3038  0.050013796  0.050683968            4 
 1836000   0.96158217   -4.9094394    1107.8514  0.050283744  0.050672674            3 
 1837000   0.95830473   -4.9439847    1104.5472  0.050106479  0.050661292            4 
 1838000   0.94943432   -4.9554712     1104.019  0.050055269  0.050649831            5 
 1839000   0.95838993   -4.9371092    1105.4085  0.050091016  0.050638621            4 
 1840000    0.9585696   -4.9124745    1108.7814  0.050216551  0.050627273            3 
 1841000   0.96625269   -4.9344149    1108.7446  0.050187606    0.0506162            6 
 1842000   0.96697302   -4.9140768    1107.6888  0.050112593  0.050605186            4 
 1843000   0.97109042   -4.9325367    1108.8989  0.050140121   0.05059412            5 
 1844000   0.97010838    -4.936426    1110.8845  0.050202662  0.050583145            3 
 1845000   0.93825722   -4.9367723    1108.2705  0.050057387  0.050572133            3 
 1846000   0.94849658   -4.9555165    1109.3555  0.050079248  0.050560862            5 
 1847000   0.96410114    -4.942221    1113.1194  0.050221954  0.050549933            3 
 1848000   0.96396167   -4.9623996    1109.0321  0.050010468  0.050539061            3 
 1849000     0.945435   -4.9413943    1112.7052  0.050148964  0.050528177            5 
 1850000   0.95795571   -4.9669685    1110.4368  0.050019677  0.050517155            3 
 1851000   0.93942653   -4.9252889    1114.6878  0.050184036  0.050506097            7 
 1852000   0.96770652   -4.9462351    1113.9866  0.050125388  0.050495135            4 
 1853000   0.95104752   -4.9373143    1115.9875  0.050188319  0.050484182            2 
 1854000   0.95144602   -4.9299579    1108.6124  0.049829754   0.05047292            5 
 1855000   0.95823295   -4.9148179    1111.1367  0.049916292  0.050461782            6 
 1856000   0.95656481   -4.9211438     1115.164  0.050070222  0.050450688            7 
 1857000   0.93487366   -4.9705481    1110.5645  0.049836854  0.050439435            4 
 1858000   0.94798262   -4.9653736    1111.1969  0.049838395  0.050428209            4 
 1859000   0.94117966    -4.931873    1115.5856  0.050008319  0.050417142            6 
 1860000   0.93436325   -4.9178887    1116.5133  0.050022996  0.050406368            4 
 1861000   0.93881636    -4.918465    1114.6609  0.049913167  0.050395281            3 
 1862000   0.92675538   -4.9615283    1113.4574  0.049832502  0.050384171            2 
 1863000   0.95474729    -4.959779    1116.1344  0.049925497  0.050372953            3 
 1864000   0.95612527   -4.9429501    1118.7085  0.050013794  0.050362014            2 
 1865000   0.97429687   -4.9417875    1117.9235  0.049951897   0.05035081            4 
 1866000   0.94310976   -4.9454623    1113.8553  0.049743447  0.050339649            4 
 1867000   0.95112211   -4.9464831    1114.9813  0.049767066  0.050328358            3 
 1868000   0.93089385   -4.9254967     1117.225  0.049840514  0.050317167            5 
 1869000   0.96461951    -4.934252    1113.2468  0.049636472  0.050306027            4 
 1870000   0.93098334   -4.9270656    1115.5995  0.049714774  0.050294665            3 
 1871000   0.96533507   -4.9714721    1116.1975  0.049714836  0.050283365            2 
 1872000    0.9568889   -4.9131728    1119.4492   0.04983303   0.05027205            5 
 1873000    0.9507555   -4.9437313    1117.5836  0.049723418  0.050261017            3 
 1874000    0.9334251   -4.9225809    1121.2618  0.049860449  0.050249985            3 
 1875000   0.94822154   -4.9015652    1121.2138  0.049831726  0.050238849            4 
 1876000   0.94710556     -4.95916    1119.8626   0.04974514   0.05022755            2 
 1877000   0.95939583    -4.965613     1118.919  0.049676745   0.05021618            3 
 1878000   0.93862321   -4.9665031    1117.2901  0.049578013  0.050204726            9 
 1879000   0.95280544   -4.9183361    1123.2831  0.049817415  0.050193422            4 
 1880000   0.95789733   -4.9358622    1123.1729  0.049786032  0.050182225            3 
 1881000   0.97086548   -4.9787812    1117.0127  0.049486652  0.050170805            6 
 1882000   0.94811934   -4.9735569    1119.3394  0.049563381  0.050159283            4 
 1883000   0.94519701   -4.9402898    1122.3663  0.049671015  0.050148029            7 
 1884000   0.97441509   -4.9702593    1118.8409  0.049488715  0.050136751            9 
 1885000   0.93584845   -4.9300182    1119.5936  0.049495739  0.050125267            4 
 1886000   0.93253184   -4.9406617    1122.3935  0.049593208  0.050113883            5 
 1887000   0.95339846    -4.949314    1122.2229  0.049559391  0.050102512            4 
 1888000   0.94827293   -4.9648305    1124.6063  0.049638345    0.0500912            7 
 1889000   0.96399279    -4.969064    1122.3063  0.049510599  0.050079712            3 
 1890000   0.95650721   -4.9389423     1122.147   0.04947738  0.050068314            3 
 1891000   0.95014066   -4.9330693    1125.0612  0.049579642  0.050056836            7 
 1892000   0.93844884   -4.9834439    1126.1215  0.049600138    0.0500456            4 
 1893000   0.94685625   -4.9430192    1126.6241   0.04959606  0.050034374            5 
 1894000   0.94402597   -4.9306696    1126.6608   0.04957149  0.050023349            6 
 1895000   0.93811245   -4.9700167     1124.668  0.049457694  0.050012138            4 
 1896000   0.94659035   -4.9727119    1124.0145  0.049402886  0.050000821            4 
 1897000   0.92582231   -4.9731702    1127.9176  0.049548304  0.049989526            7 
 1898000   0.93997492   -4.9726081    1124.6009  0.049376577  0.049978159            8 
 1899000   0.94050169   -4.9691402    1124.1998  0.049332972  0.049966736            2 
 1900000   0.96063255   -4.9564768    1124.7063  0.049329225  0.049955191            4 
 1901000   0.94468938   -4.9352402    1128.4097  0.049465618  0.049943751            3 
 1902000   0.95331282   -4.9572045    1127.2796  0.049390099  0.049932278            7 
 1903000   0.93122633   -4.9795317    1129.8609  0.049477179  0.049920649            5 
 1904000   0.95676133   -4.9502979    1127.6466  0.049354283  0.049909285            3 
 1905000   0.94520071   -4.9997403    1125.5305  0.049235804  0.049898045            3 
 1906000   0.95515179   -4.9770696    1130.0473  0.049407453  0.049886352            3 
 1907000   0.94774486   -4.9718762    1126.0325  0.049206103   0.04987484            7 
 1908000   0.95698496   -4.9371719    1126.0656  0.049181759  0.049863415            2 
 1909000   0.93796121   -4.9790008    1125.6247  0.049136753  0.049851932            3 
 1910000   0.94577427   -4.9912942     1126.063   0.04913015  0.049840286            2 
 1911000   0.94457259   -4.9476294     1129.337  0.049247208  0.049828575            7 
 1912000   0.95032653   -4.9521319    1131.0804  0.049297439  0.049817255            4 
 1913000   0.93992442   -4.9656398    1129.2484  0.049191863   0.04980595            2 
 1914000   0.94343563    -4.931818    1130.6076  0.049225339  0.049794275            3 
 1915000    0.9640525   -4.9598924    1130.9518  0.049214612   0.04978257            4 
 1916000    0.9549846   -4.9749017    1126.4642  0.048993744  0.049770809            5 
 1917000   0.95882928   -4.9429742    1128.2969  0.049047858  0.049758939            2 
 1918000   0.93542184   -4.9547533    1131.8365  0.049176074  0.049747114            5 
 1919000   0.92922638    -4.940871    1128.3022  0.048996968  0.049735049            4 
 1920000   0.93214325   -4.9516988    1129.5035   0.04902359  0.049723071            3 
 1921000   0.92867095   -4.9421702    1134.5301  0.049216123   0.04971125            4 
 1922000   0.91087124   -4.9469233    1129.3779  0.048967132  0.049699473            7 
 1923000   0.94118301   -4.9657006    1127.8309  0.048874626  0.049687608            2 
 1924000   0.94859626   -4.9612678     1135.606  0.049185983  0.049675748            4 
 1925000    0.9376354   -4.9994572     1129.316  0.048888138  0.049663708            4 
 1926000   0.92302697   -4.9629709    1128.9958  0.048848903  0.049651706            4 
 1927000   0.95138384   -4.9537375    1137.4136  0.049187581  0.049639905            3 
 1928000   0.93339052   -4.9242198    1134.0309  0.049015858  0.049628003            4 
 1929000   0.95036436   -4.9780056    1130.4848  0.048837256  0.049616164            6 
 1930000   0.93700848   -4.9453306    1134.0949  0.048967826  0.049604187            4 
 1931000   0.93363378   -4.9536341    1132.9404  0.048892646  0.049592294            2 
 1932000   0.94421179   -4.9628476    1132.6457  0.048854627  0.049580753            4 
 1933000   0.93960674   -4.9469549    1134.1626  0.048894747  0.049568968            4 
 1934000   0.95250227   -4.9664436    1134.5414  0.048885788  0.049557326            3 
 1935000   0.92319672   -4.9422088    1136.8956  0.048961914  0.049545688            3 
 1936000   0.93789761   -4.9765565    1136.8306  0.048933826  0.049533989            6 
 1937000   0.95178922   -4.9640112    1136.7126  0.048903485  0.049522384            4 
 1938000   0.94925456   -4.9875916    1136.4314  0.048866157  0.049510916            4 
 1939000   0.93166895   -4.9949853    1133.9901  0.048736036   0.04949912            5 
 1940000   0.93011445   -4.9528783    1143.0132  0.049098506    0.0494875            5 
 1941000    0.9525922   -4.9664833    1135.1249  0.048734538  0.049475851            8 
 1942000   0.94446956   -4.9879593    1135.7817  0.048737627  0.049464038            6 
 1943000   0.94584716   -4.9384226    1136.6063  0.048747911  0.049452284            2 
 1944000   0.94954087   -4.9731426    1136.7415  0.048728629  0.049440308            8 
 1945000    0.9469643    -4.961475    1140.3157  0.048856716  0.049428428            5 
 1946000   0.93948765   -4.9513791    1140.3444  0.048832837  0.049416497            5 
 1947000   0.94178717   -4.9758996    1140.0932  0.048797005  0.049404643            2 
 1948000   0.93210836    -4.986657    1138.1273  0.048687853  0.049392775            5 
 1949000   0.93622289   -5.0066003    1139.5506   0.04872373  0.049381031            5 
 1950000   0.94400305   -4.9539525    1137.2864  0.048601985    0.0493694            6 
 1951000   0.93891078    -4.963617     1141.406  0.048753031   0.04935771            3 
 1952000   0.95242761   -4.9762939    1137.5846  0.048564914  0.049345833            4 
 1953000   0.94490815   -4.9745424    1141.8998  0.048724174  0.049334022            4 
 1954000   0.93110014   -5.0055653    1138.3329  0.048547123  0.049321983            2 
 1955000   0.93571831   -4.9990374    1139.7803  0.048583986  0.049309953            3 
 1956000   0.93917231   -4.9817201    1138.0896  0.048487117  0.049298054            7 
 1957000    0.9391683   -4.9694654    1142.5623  0.048652798  0.049286276            4 
 1958000   0.93911972   -4.9225941    1142.4126  0.048621578   0.04927451            3 
 1959000   0.94168767   -4.9850691    1142.9188  0.048618291  0.049262994            3 
 1960000   0.93339068   -4.9699607    1141.0694  0.048514856  0.049251142            5 
 1961000   0.94061385   -4.9442375      1145.81  0.048691568   0.04923948            9 
 1962000    0.9302931   -4.9454436    1147.3276   0.04873121  0.049227823            4 
 1963000     0.916776   -4.9895243     1146.025  0.048651088  0.049216002            9 
 1964000   0.93100199   -4.9712185    1144.9915  0.048582462  0.049204383            2 
 1965000   0.94608878   -4.9918503    1144.2075   0.04852449  0.049192657            4 
 1966000   0.92890367   -4.9551346    1146.5627  0.048599639  0.049181009            7 
 1967000   0.94470119   -4.9680245    1149.9779   0.04871962  0.049169579            3 
 1968000   0.95460188   -4.9819608    1145.4921  0.048504915  0.049157999            2 
 1969000   0.92035726   -4.9698868    1152.1122  0.048760463  0.049146508            5 
 1970000    0.9287688   -4.9423712    1152.4935  0.048751841  0.049134973            4 
 1971000   0.93192296    -4.977864    1150.6838  0.048650592  0.049123548            4 
 1972000   0.95504972   -4.9933556    1151.1347  0.048644976  0.049112112            5 
 1973000   0.96781574   -4.9714707    1147.4111  0.048463048  0.049100535            3 
 1974000   0.91852652    -4.978284     1146.959  0.048419413  0.049088872            4 
 1975000   0.93538764   -4.9740301    1146.0314  0.048355756   0.04907726            3 
 1976000   0.91036134   -4.9436089    1148.8812  0.048451466  0.049065825            3 
 1977000   0.93445378   -4.9900332    1149.7997  0.048465677  0.049054258            2 
 1978000   0.93919025   -4.9857703    1148.5635  0.048389091  0.049042928            7 
 1979000   0.93115336   -4.9876099    1151.2086  0.048476025  0.049031549            7 
 1980000   0.91367043   -4.9579639    1151.9161  0.048481319  0.049020226            6 
 1981000   0.95257215   -4.9957558     1150.453  0.048395298   0.04900867            2 
 1982000   0.94542415   -4.9797704    1155.0359  0.048563569  0.048997284            3 
 1983000   0.93995681   -4.9865083    1149.8792  0.048322372  0.048985745            2 
 1984000   0.92357677   -5.0044544    1149.4215  0.048278791  0.048974086            4 
 1985000    0.9200168   -4.9890308    1154.0325  0.048448049  0.048962509            7 
 1986000   0.94326063   -4.9937828    1150.8619  0.048290612  0.048950998            3 
 1987000   0.93515378   -4.9674033    1153.8182  0.048390294   0.04893953            3 
 1988000   0.93139885   -4.9591613     1158.425  0.048559064  0.048928081            5 
 1989000   0.93371747   -5.0080431    1152.4744  0.048285335  0.048916559            6 
 1990000   0.93809493   -4.9723569    1154.8046  0.048358653  0.048905174            6 
 1991000   0.92793183    -4.974105    1155.6267   0.04836877   0.04889373            5 
 1992000   0.94481712   -4.9623398    1155.1636  0.048325117  0.048882292            4 
 1993000   0.93815056   -4.9741227    1152.9312  0.048207525  0.048870919            7 
 1994000   0.93260776   -4.9941116    1160.7557   0.04851035  0.048859487            2 
 1995000    0.9429824   -5.0177731    1155.8974    0.0482831   0.04884797            5 
 1996000   0.93866913   -4.9939372    1157.8874  0.048341992  0.048836653            3 
 1997000    0.9159325   -4.9788588     1156.035  0.048240487  0.048825274            4 
 1998000   0.93936517   -4.9873214    1161.8829  0.048460248  0.048814227            4 
 1999000   0.93889843    -4.987751    1158.2483  0.048284488  0.048802991            5 
 2000000   0.93987879   -4.9714161    1162.3145   0.04842977  0.048791846            7 
 2001000   0.94429431   -4.9761687    1162.2842  0.048404307  0.048780888            6 
 2002000   0.94248193   -4.9863503    1157.5953  0.048184952  0.048769655            4 
 2003000   0.92461807   -4.9902728    1162.1173   0.04834903  0.048758402            3 
 2004000     0.946176   -4.9981315     1160.003  0.048236986  0.048747239            5 
 2005000   0.93382878   -5.0000503    1160.8276  0.048247199  0.048735981            3 
 2006000   0.93993438   -4.9858296    1160.3251  0.048202272  0.048724706            5 
 2007000   0.93514062   -4.9800183    1162.2828  0.048259542  0.048713523            4 
 2008000   0.93084615   -4.9930838    1164.4362  0.048324876  0.048702256            5 
 2009000   0.91567644   -4.9751593    1161.9207  0.048196479  0.048691016            4 
 2010000   0.90800474   -4.9756377     1161.678  0.048162437  0.048679776            7 
 2011000   0.94350552   -4.9743605    1166.1883  0.048325388  0.048668505            4 
 2012000    0.9466338   -4.9916078    1162.3275  0.048141464  0.048657292            5 
 2013000   0.91582538   -4.9864255    1166.9194  0.048307642  0.048646123            3 
 2014000   0.91381475   -4.9571905    1164.5054  0.048183773  0.048635004            5 
 2015000   0.93560628   -4.9647475    1163.8923  0.048134504  0.048623758            4 
 2016000   0.93727562   -4.9889783    1163.5999  0.048098542  0.048612582            3 
 2017000   0.92775733   -4.9691925      1164.67  0.048118905  0.048601331            2 
 2018000   0.93281356   -4.9706364    1160.9113  0.047939847  0.048589944            4 
 2019000   0.96365935   -5.0123422      1166.48  0.048145945  0.048578693            4 
 2020000   0.91347816   -4.9911396      1163.14  0.047984324  0.048567257            5 
 2021000   0.91852158   -5.0231066    1162.0092  0.047913955  0.048555804            4 
 2022000   0.93302201   -4.9981426    1164.9602  0.048011877  0.048544326            6 
 2023000    0.9296496   -5.0041263    1166.8305  0.048065187   0.04853294           11 
 2024000    0.9331168    -4.999579    1163.2223  0.047892883  0.048521416            5 
 2025000   0.95481151     -4.99634    1164.3968  0.047917564  0.048510047            4 
 2026000   0.92185825   -4.9633458     1168.156  0.048048535  0.048498557            5 
 2027000   0.94851398   -4.9889375    1168.5654  0.048041662  0.048487365            2 
 2028000   0.93444139   -4.9922334    1171.2348  0.048127664   0.04847614            7 
 2029000   0.95306205   -4.9996788    1169.9142  0.048049704  0.048464894            5 
 2030000   0.93555972   -5.0319243    1166.7089  0.047894453  0.048453561            6 
 2031000   0.93870436   -5.0008269    1169.9959  0.048005742  0.048442314            3 
 2032000   0.94262038   -4.9950353    1171.1571  0.048029735  0.048431074            2 
 2033000   0.93187907   -5.0013025    1171.6496  0.048026297  0.048419947            6 
 2034000   0.93478076   -4.9786904    1174.4514  0.048117479  0.048408669            4 
 2035000   0.93920361   -5.0080926    1168.5992  0.047854184  0.048397411            3 
 2036000   0.92827231   -5.0123501    1171.6324  0.047954831  0.048386025            7 
 2037000   0.92332736   -5.0123005    1167.4718  0.047761079  0.048374634            5 
 2038000   0.93919664   -4.9793387     1176.703  0.048115105  0.048363316            2 
 2039000   0.94113769   -5.0291617    1170.4264  0.047834983  0.048351936            4 
 2040000   0.93481889   -5.0023705    1172.3444  0.047889887   0.04834054            9 
 2041000   0.93616132   -4.9722648    1171.5302  0.047833178  0.048329224            4 
 2042000   0.94517905   -5.0002761    1170.5979  0.047771708  0.048318099            5 
 2043000   0.92193735   -4.9856323    1171.7402  0.047794919  0.048306834            3 
 2044000   0.94683056   -4.9821708    1170.3753  0.047715887  0.048295602            9 
 2045000   0.88884091   -5.0218722    1171.4677   0.04773707  0.048284411            3 
 2046000   0.92131122   -5.0045181    1174.0837  0.047820286  0.048273243            6 
 2047000   0.92168926   -5.0022702    1174.8574  0.047828423  0.048261965            6 
 2048000   0.93019845   -4.9898182    1180.0564  0.048016618  0.048250772            3 
 2049000   0.91496721   -4.9806058    1177.0703  0.047871738  0.048239728           12 
 2050000   0.91786741   -4.9949409    1172.6935  0.047670468  0.048228472            5 
 2051000   0.92005733   -5.0088787    1177.4466  0.047840347  0.048217064            3 
 2052000   0.90793881   -5.0127185    1177.5207   0.04782004  0.048205879            7 
 2053000   0.92507641   -4.9846844    1178.0953  0.047820072  0.048194668            3 
 2054000   0.92709351   -4.9859711    1177.2281  0.047761607  0.048183373            2 
 2055000     0.958905   -5.0000566    1180.1091  0.047855196  0.048172228            5 
 2056000    0.9216296   -4.9870038    1176.3698  0.047680358  0.048161036           10 
 2057000   0.93114346   -5.0069142    1179.0081  0.047764061  0.048149637            4 
 2058000   0.92236683   -5.0155285    1178.8033  0.047732558  0.048138406            3 
 2059000   0.92921155   -5.0007686    1178.5453  0.047698934  0.048127099            3 
 2060000   0.91565704    -5.008783     1178.238  0.047663349  0.048115837            3 
 2061000   0.95171798   -5.0149289    1179.5126  0.047691761   0.04810465            6 
 2062000    0.9130099   -5.0138295    1182.1631  0.047775748  0.048093466            2 
 2063000   0.90425995   -4.9952425    1183.7632  0.047817223  0.048082389            3 
 2064000    0.9280755   -5.0182772    1183.8274  0.047796649  0.048071247            6 
 2065000   0.92783072   -5.0243715    1182.4701   0.04771873  0.048060103            5 
 2066000   0.91756222    -5.019145    1178.4677  0.047534191  0.048048908            3 
 2067000   0.90356791   -5.0137915    1179.8977  0.047568849  0.048037907            2 
 2068000   0.91884072   -5.0193583    1182.6485  0.047656695  0.048026913            3 
 2069000   0.92944538   -4.9748191    1184.2757  0.047699197  0.048015964            6 
 2070000   0.92101057   -5.0213662    1181.8153  0.047577106  0.048004751            5 
 2071000   0.90981601    -5.028152    1183.2314  0.047611112  0.047993461            2 
 2072000   0.91641691   -5.0134282    1180.0617  0.047460653  0.047982163            5 
 2073000   0.91683879   -5.0264136    1182.8275  0.047548944  0.047970925            2 
 2074000   0.91006542    -5.002097    1182.4464  0.047510702  0.047959779            3 
 2075000   0.91364883   -4.9726896    1185.2617  0.047600873  0.047948546            5 
 2076000   0.92096674   -5.0315273    1183.3651  0.047501811   0.04793736            6 
 2077000   0.91483372   -5.0194012    1183.4528  0.047482459  0.047926208            4 
 2078000   0.91372321    -5.026141    1182.5672  0.047424093   0.04791484           14 
 2079000   0.90399517   -5.0037166    1187.7798  0.047610223  0.047903746            6 
 2080000   0.95516065   -4.9950498    1187.1721  0.047562985  0.047892799            6 
 2081000   0.94058552   -5.0027286    1184.3631  0.047427644  0.047881572            7 
 2082000   0.92910252   -5.0475082    1181.9162  0.047306926  0.047870376            3 
 2083000   0.90599575   -5.0165753    1189.4133  0.047584145   0.04785921            2 
 2084000   0.92645326   -5.0042528    1185.7886  0.047416371   0.04784807            3 
 2085000   0.91543895   -5.0056276    1187.7979  0.047473935  0.047837107            6 
 2086000   0.91762496   -5.0388569     1187.754  0.047449425  0.047826265            4 
 2087000    0.9208458   -5.0157502    1185.9467  0.047354526  0.047815446            5 
 2088000   0.91555197   -4.9689481    1195.9531  0.047731206   0.04780447            3 
 2089000   0.90794303   -5.0350811    1185.3429  0.047285101  0.047793455            5 
 2090000   0.91504718   -5.0102768    1187.8707  0.047363266  0.047782344            3 
 2091000   0.90430612   -4.9839915    1191.2642  0.047475859  0.047771313            7 
 2092000   0.92887782   -5.0048397    1193.3236  0.047535196  0.047760358            4 
 2093000    0.9159051   -5.0193283      1191.75  0.047449831  0.047749331            7 
 2094000   0.90445592   -5.0331534    1192.1749  0.047444084  0.047738299            4 
 2095000   0.92286035   -5.0151342    1193.4331  0.047471483  0.047727391            4 
 2096000   0.89207203   -5.0248826    1190.9656  0.047350733  0.047716495            3 
 2097000   0.90854533   -5.0007527    1191.8313  0.047362554   0.04770548            4 
 2098000   0.92315279   -5.0181577    1193.0874  0.047389871  0.047694422            5 
 2099000   0.91168276     -5.02419    1193.0392  0.047365382  0.047683409            4 
 2100000   0.91896372     -5.05222    1190.5408  0.047243684   0.04767219           14 
 2101000   0.90731902   -5.0157673    1192.9252  0.047315769  0.047660989            4 
 2102000   0.90383219   -5.0237552    1195.0939  0.047379237  0.047649788            2 
 2103000   0.92676993   -5.0288868    1196.1381  0.047398085  0.047638656            6 
 2104000   0.91623283   -4.9969834    1193.9617  0.047289358   0.04762767            6 
 2105000   0.92652761   -5.0283022     1192.584  0.047212352  0.047616538            4 
 2106000   0.93257709   -5.0509983    1195.5599  0.047307689  0.047605221           14 
 2107000   0.90998833   -5.0248887    1192.2098  0.047152737  0.047594173            4 
 2108000   0.91100783    -5.040863    1190.2681  0.047053609  0.047582943            3 
 2109000   0.92329881   -5.0047503      1191.31  0.047072469  0.047571803            6 
 2110000   0.91730409   -5.0193765    1191.9067  0.047073722  0.047560624            2 
 2111000   0.92029365    -5.034863    1191.8702  0.047049984  0.047549356            7 
 2112000   0.92823501   -4.9919702    1196.0699  0.047193413  0.047538042            4 
 2113000    0.8972125   -5.0067438    1193.4164  0.047066431  0.047526847            2 
 2114000   0.92809497   -5.0029121    1194.8915  0.047102313  0.047515504            3 
 2115000   0.90898158   -5.0030416     1196.765  0.047153861  0.047504277            4 
 2116000   0.91586688   -4.9982302    1196.5076   0.04712144  0.047493098            3 
 2117000   0.90540884   -5.0190309    1193.6415  0.046986362  0.047482027            6 
 2118000   0.90408707   -5.0067393    1198.1088  0.047139942   0.04747092            6 
 2119000   0.91792025   -5.0546103    1195.6567  0.047021263  0.047459909            4 
 2120000   0.90051936   -5.0587956    1196.8927  0.047047669  0.047448821            8 
 2121000   0.88032691    -5.002979    1203.6125  0.047289505  0.047437688            4 
 2122000   0.92012731   -5.0245137    1201.9645    0.0472025  0.047426679            5 
 2123000   0.90235518   -4.9993211    1201.8391  0.047175346  0.047415887            3 
 2124000   0.91720769    -4.997648    1200.2914  0.047092411  0.047404924            3 
 2125000   0.91881708   -5.0124947     1201.394   0.04711349  0.047393974            4 
 2126000   0.91652151   -5.0241062    1201.6427  0.047101076   0.04738294            6 
 2127000   0.90874726   -5.0282738    1200.0292  0.047015717  0.047371841            3 
 2128000   0.90882491   -5.0234661      1199.69   0.04698034  0.047360577            3 
 2129000   0.92615097   -5.0254883    1198.8427  0.046925109  0.047349623            5 
 2130000   0.90644194   -5.0259086    1201.2705  0.046998063  0.047338642            2 
 2131000   0.89491911   -5.0055665    1203.8487  0.047076829  0.047327687            4 
 2132000    0.8986579   -5.0063659    1207.6868  0.047204767  0.047316915            5 
 2133000   0.91926766   -5.0058181    1203.8568  0.047033006  0.047305976            3 
 2134000   0.92966633   -5.0280596    1203.2361  0.046986725  0.047294859            3 
 2135000   0.91574817   -5.0484069    1197.6079  0.046745039  0.047283813            3 
 2136000   0.90511787   -5.0594424    1196.6246  0.046684794  0.047272685            4 
 2137000   0.93173266   -5.0313814    1203.8854  0.046946086  0.047261671            3 
 2138000   0.90845002   -5.0160848    1201.8968  0.046846617  0.047250767            6 
 2139000   0.92933616   -5.0253386    1205.9525   0.04698272   0.04723988            7 
 2140000   0.90418111   -5.0459684    1207.5225  0.047021903  0.047228855            5 
 2141000   0.89988143   -5.0319277    1202.8525  0.046818173  0.047217857            5 
 2142000   0.90638813   -5.0492897    1204.3245  0.046853583  0.047207015            3 
 2143000    0.9150361   -5.0129602    1204.9664  0.046856683  0.047196026            5 
 2144000   0.90780298   -4.9965659    1208.2255  0.046961499  0.047185068            5 
 2145000   0.89153229   -5.0205994    1205.3468  0.046827772  0.047174126            6 
 2146000   0.89923942   -5.0204635     1207.436  0.046887077   0.04716313            4 
 2147000   0.90428711   -5.0373444    1204.1666   0.04673834   0.04715225            3 
 2148000    0.9028967    -5.021477    1206.7768  0.046817847  0.047141356            5 
 2149000   0.90459379    -5.000021     1210.154  0.046927021  0.047130473            3 
 2150000   0.90994909   -5.0248426    1210.9656  0.046936652  0.047119616            4 
 2151000   0.90367699   -5.0606595      1209.75  0.046867735  0.047108521            6 
 2152000   0.90019863   -5.0200714    1204.0421  0.046624927  0.047097594           10 
 2153000   0.90152546   -5.0659701    1206.4427  0.046696188  0.047086608            4 
 2154000   0.89339216   -5.0164752    1208.2284  0.046743594  0.047075492            9 
 2155000   0.90591564    -5.043774     1209.369  0.046766009  0.047064424            4 
 2156000   0.89962404   -5.0306105     1208.851  0.046724296  0.047053565            3 
 2157000   0.88336217   -5.0104442    1211.6948  0.046812502  0.047042788            7 
 2158000    0.9137806   -5.0202802    1208.2494  0.046657761  0.047031733            3 
 2159000   0.89778211   -5.0324372    1212.3671  0.046795085  0.047020823            4 
 2160000   0.92818664   -5.0046776    1212.5782  0.046781565  0.047010005            2 
 2161000   0.90000154   -5.0322889     1212.304  0.046749346  0.046999233            6 
 2162000   0.89893803   -5.0094868    1212.6544  0.046741228  0.046988358            4 
 2163000   0.91458606   -5.0672049    1211.4351   0.04667264   0.04697742            6 
 2164000   0.91492305   -5.0380546    1215.7295  0.046816449   0.04696672            3 
 2165000    0.9095536   -5.0266126    1215.4453  0.046783882  0.046955986           12 
 2166000   0.91702111    -5.028963    1213.7105  0.046695539  0.046945377            5 
 2167000   0.90569916   -5.0431438    1214.4006   0.04670053  0.046934663            6 
 2168000   0.90642602   -5.0292473    1215.6746   0.04672796  0.046923756            5 
 2169000   0.90591315   -5.0396114    1211.0107  0.046527229  0.046912962            8 
 2170000   0.91905565   -5.0459635    1213.3956  0.046597372  0.046901923            4 
 2171000    0.9167039   -5.0299532    1212.0129  0.046522835  0.046890869            5 
 2172000   0.91825872   -5.0428048    1216.2176  0.046662739  0.046880049            6 
 2173000   0.91723148   -5.0170399    1215.7843  0.046624646  0.046869201            6 
 2174000   0.88924896   -5.0487105    1219.0623  0.046728852  0.046858357            5 
 2175000   0.90914441   -5.0378284    1215.0761  0.046554641  0.046847462            4 
 2176000   0.92931239    -5.031086    1216.6555  0.046593731  0.046836694           10 
 2177000   0.91176143   -5.0101234     1219.819  0.046693424  0.046825838            2 
 2178000   0.88433936   -5.0172018    1216.4762  0.046544084  0.046815062            6 
 2179000   0.89438812   -5.0748552    1214.9192   0.04646318  0.046804207            5 
 2180000   0.92926526   -5.0196677    1215.6627  0.046470285  0.046793325           10 
 2181000   0.91363032   -5.0512836    1218.7553  0.046567143  0.046782579            3 
 2182000   0.90495615   -5.0227329    1223.0822  0.046711051  0.046771823            3 
 2183000   0.90627674   -5.0036967    1219.7618  0.046562903  0.046761152            8 
 2184000   0.90513398   -5.0647407    1220.5696  0.046572407   0.04675035            2 
 2185000   0.91017301   -5.0253911     1219.845  0.046523457  0.046739628            3 
 2186000   0.91237185   -5.0480868    1219.0301  0.046471108  0.046728999            3 
 2187000     0.899872   -5.0141995    1221.8316  0.046556606  0.046718287            6 
 2188000   0.90212954   -5.0361009    1219.0279  0.046428547  0.046707485            3 
 2189000   0.92401596   -5.0587186    1220.1252  0.046449108  0.046696744            5 
 2190000   0.89301954   -5.0137751    1223.8365   0.04656912  0.046685999            4 
 2191000   0.90384243   -5.0500265    1220.8197  0.046433126  0.046675265            3 
 2192000   0.90743289   -5.0677307    1221.4568  0.046436161  0.046664446            4 
 2193000   0.90991406   -5.0241774    1220.3443  0.046372712  0.046653756            5 
 2194000   0.91285053   -5.0687958    1224.0532  0.046492448  0.046643173            4 
 2195000    0.8895871   -5.0647745    1216.9204  0.046200472  0.046632314            9 
 2196000   0.89978287   -5.0382871    1220.9461  0.046332198  0.046621298            6 
 2197000   0.90584345   -5.0259402    1224.1632  0.046433136  0.046610501            7 
 2198000   0.88812305   -5.0483658    1220.9526  0.046290285  0.046599759            7 
 2199000   0.91883794   -5.0470621    1221.8054  0.046301552    0.0465888            5 
 2200000   0.91534773   -5.0383625    1225.8643  0.046434254  0.046577924            3 
 2201000   0.90959676   -5.0652212    1220.5115  0.046210491  0.046567075            5 
 2202000   0.90688914    -5.035941    1222.5077   0.04626505  0.046556333            2 
 2203000   0.89370513   -5.0419623    1222.9388  0.046260356   0.04654546            3 
 2204000   0.89334681   -5.0473355    1225.8742  0.046350357  0.046534795            3 
 2205000   0.90178005   -5.0494763    1220.5118  0.046126673  0.046524111            3 
 2206000   0.89195309   -5.0343767    1225.5735  0.046296974  0.046513324            3 
 2207000    0.8998849   -5.0334886    1229.7968  0.046435463   0.04650248            4 
 2208000   0.89913454   -5.0169686    1230.2594  0.046431892  0.046491712            7 
 2209000   0.92782464   -5.0489103    1224.6605  0.046199657  0.046480918            4 
 2210000   0.91773437   -5.0617962    1228.7448   0.04633276  0.046470171            2 
 2211000   0.88191135   -5.0656365    1227.3727  0.046260088  0.046459466            4 
 2212000   0.90609404   -5.0232781    1228.3427  0.046275719  0.046448692            3 
 2213000   0.91050313   -5.0298727    1227.2161  0.046212387   0.04643815            3 
 2214000   0.88752046     -5.06552    1221.9937  0.045994947  0.046427418            5 
 2215000   0.89571764   -5.0727908    1224.9513  0.046085452  0.046416631            4 
 2216000   0.89337914   -5.0521472     1229.957  0.046252894  0.046405874            5 
 2217000   0.90214554   -5.0633713      1227.13   0.04612577  0.046395086            4 
 2218000   0.89419888    -5.030955    1229.2276  0.046183783  0.046384296            3 
 2219000   0.88966652   -5.0400439    1230.1091  0.046196074  0.046373648            4 
 2220000   0.90058264   -5.0881064     1224.083   0.04594906  0.046362826            4 
 2221000   0.90342053   -5.0559345    1229.9435  0.046148264  0.046352124            4 
 2222000   0.91566307   -5.0726335    1227.5109  0.046036262  0.046341407            9 
 2223000   0.90777336   -5.0624967     1224.372  0.045897886  0.046330591            7 
 2224000   0.87136515   -5.0470219    1229.1429  0.046056013  0.046319768            4 
 2225000   0.89458785   -5.0461394    1231.3531  0.046118094  0.046309151            4 
 2226000    0.9018209   -5.0551739    1230.6383  0.046070615  0.046298294            5 
 2227000   0.89859337   -5.0609403    1232.9958  0.046138147  0.046287519            4 
 2228000   0.90727094   -5.0607255    1228.0762  0.045933432   0.04627654            6 
 2229000   0.91430424   -5.0624529    1230.8397  0.046016138  0.046265816            2 
 2230000   0.88241196   -5.0701588    1232.6502  0.046063161  0.046255118            2 
 2231000   0.91059453   -5.0495597    1231.6295  0.046004391  0.046244325            5 
 2232000   0.91193398   -5.0694256    1229.0016  0.045885664  0.046233499           13 
 2233000   0.89208698   -5.0552901    1229.5492  0.045885549  0.046222791            5 
 2234000   0.88619715   -5.0324774    1232.6316  0.045979992  0.046211883            3 
 2235000   0.89924589    -5.093613     1229.466  0.045841389  0.046201011            6 
 2236000   0.89485426   -5.0744057    1231.8061    0.0459081  0.046189927            4 
 2237000   0.89568814   -5.0451242    1233.3942  0.045946735  0.046179136            3 
 2238000   0.89449907    -5.038272    1236.2385  0.046032115  0.046168229            4 
 2239000   0.88027375   -5.0368041    1233.4166  0.045906529  0.046157418            5 
 2240000   0.87271928    -5.075042    1233.5243  0.045890042   0.04614661            2 
 2241000   0.92727453   -5.0587256    1237.7212  0.046025629  0.046135937            3 
 2242000   0.88273189   -5.0642933    1234.7033  0.045892925  0.046125063            8 
 2243000   0.90812127   -5.0740029    1236.5489  0.045941034  0.046114313            4 
 2244000   0.89557211   -5.0578521    1236.3638  0.045913688  0.046103509            5 
 2245000   0.88216028   -5.0848414     1236.424  0.045895471  0.046092618            6 
 2246000   0.89035824   -5.0692849    1241.1672  0.046051024  0.046081947            6 
 2247000   0.90848718   -5.0530938    1235.2283  0.045810275  0.046071346            3 
 2248000   0.90767607   -5.0580667    1239.5632  0.045950595  0.046060793            2 
 2249000   0.91140094    -5.058331    1235.3496  0.045774033  0.046050112            5 
 2250000   0.90585779   -5.0879901    1241.4517  0.045979694  0.046039517            5 
 2251000   0.90407203   -5.0771853    1234.4287  0.045699271  0.046028975            7 
 2252000   0.89689578   -5.0684543    1242.1954  0.045966379  0.046018398            4 
 2253000   0.87098162   -5.0886213    1240.5183  0.045883943  0.046007853            3 
 2254000   0.87375729   -5.0781181    1237.6282  0.045756737   0.04599731            4 
 2255000    0.8804386   -5.0484327    1243.3098  0.045946408  0.045986808            4 
 2256000   0.88141625   -5.0627087    1235.9932  0.045655776  0.045976058            5 
 2257000   0.87047328   -5.0716044    1240.4919  0.045801649  0.045965508            4 
 2258000   0.89929383   -5.0932279    1239.1148  0.045730543   0.04595491            4 
 2259000   0.88247153   -5.0472893    1238.9904  0.045705709  0.045944403            9 
 2260000    0.8855312    -5.066511    1243.9269  0.045867511  0.045933811            4 
 2261000   0.89041345   -5.0557457    1246.5423  0.045943619  0.045923535            3 
 2262000   0.88112063    -5.051543    1245.4032  0.045881344  0.045913061            5 
 2263000   0.89996024   -5.0660226    1245.1034  0.045850031  0.045902758            3 
 2264000   0.90378872     -5.05004    1244.8853  0.045821748  0.045892511            4 
 2265000   0.89272121   -5.0684636    1240.5619  0.045642454  0.045882168            3 
 2266000   0.86980361   -5.0858126    1240.6577  0.045625833  0.045871721            2 
 2267000   0.88358661   -5.1045803     1242.961  0.045690376  0.045861234            3 
 2268000   0.88959834    -5.076171    1240.6687  0.045586003  0.045850701            6 
 2269000   0.88914665   -5.0573734    1244.4175  0.045703596  0.045840322            6 
 2270000   0.90487583   -5.0884461    1240.9099  0.045554694  0.045829937            3 
 2271000   0.89322949   -5.0545705    1248.8066  0.045824401  0.045819446            4 
 2272000   0.89663218   -5.0645845    1248.0653  0.045777042  0.045808912            3 
 2273000   0.88563909   -5.0614683     1248.403  0.045769284  0.045798433            4 
 2274000    0.8725196    -5.086887    1248.0995  0.045738034  0.045787912            6 
 2275000   0.91050711    -5.103097    1246.5648  0.045661716  0.045777546            8 
 2276000   0.87903469   -5.0491245    1247.2227  0.045665739  0.045767102            5 
 2277000   0.90290385   -5.0645963    1244.9841  0.045563756  0.045756524            4 
 2278000   0.87019733   -5.0747029     1245.131  0.045549128  0.045745897            3 
 2279000   0.89169286   -5.0649371    1246.8977  0.045593745  0.045735279            8 
 2280000   0.89570594   -5.0587477    1248.5408    0.0456338  0.045724826            3 
 2281000   0.87144579    -5.061725    1249.4453   0.04564684  0.045714285            7 
 2282000   0.87643057   -5.0727994    1248.1481  0.045579467  0.045703727            3 
 2283000   0.88956905   -5.0946967    1248.6498  0.045577816  0.045693192            7 
 2284000   0.90660778   -5.0856888    1246.6602  0.045485267  0.045682827            4 
 2285000   0.88097649    -5.089383    1251.4517  0.045640107  0.045672426            3 
 2286000   0.89764962   -5.0934841      1249.04  0.045532225  0.045662189            2 
 2287000    0.8747683    -5.085947    1251.0853  0.045586841  0.045651806            4 
 2288000   0.88365023   -5.0758071    1253.1053   0.04564049  0.045641444            6 
 2289000   0.89057991   -5.0814917    1249.6346  0.045494196  0.045631138            4 
 2290000   0.90432992   -5.0590109    1249.7382  0.045478101  0.045620915            4 
 2291000   0.88088159   -5.0993246    1249.3208  0.045443067   0.04561058            2 
 2292000    0.8657819   -5.0657503    1250.0513  0.045449799  0.045600264            4 
 2293000   0.88798046   -5.0654867    1249.7588  0.045419348  0.045589825            4 
 2294000   0.86359219   -5.0680885    1252.1535   0.04548654  0.045579432            7 
 2295000   0.89579839    -5.075422    1250.5416  0.045408192  0.045569138            3 
 2296000     0.884247   -5.0691128    1252.7271  0.045467737  0.045558751            6 
 2297000   0.88570161   -5.0674512    1255.9043  0.045563209  0.045548555            4 
 2298000   0.87165568   -5.1105954    1253.7113  0.045463855  0.045538082            6 
 2299000   0.87059625   -5.0746454    1251.6352  0.045368826  0.045527755            3 
 2300000   0.89601642   -5.0649142    1257.5498    0.0455634  0.045517444            2 
 2301000   0.90617321   -5.0639849    1252.1565  0.045348271  0.045507144            6 
 2302000   0.87283538   -5.0864649    1253.8029  0.045388175  0.045496759            6 
 2303000   0.89057326   -5.0693107    1256.6979  0.045473219  0.045486425            4 
 2304000   0.89448513   -5.1181591    1252.2022  0.045290878  0.045476039            6 
 2305000   0.87509145   -5.1098407    1254.4838  0.045353717  0.045465586            7 
 2306000   0.87306669   -5.0791994    1254.0385  0.045317958  0.045455137            5 
 2307000   0.88289579   -5.0648748    1255.0787  0.045335887  0.045444614           13 
 2308000   0.89708678   -5.0831416    1254.9799  0.045312676  0.045434217            2 
 2309000   0.89983678    -5.084114    1253.1712  0.045227775  0.045423769            5 
 2310000    0.8547992   -5.0566727    1252.0623  0.045168192    0.0454133            6 
 2311000   0.89655819   -5.1329688    1252.8122   0.04517569  0.045402812            5 
 2312000   0.88915746   -5.0974373    1255.6269  0.045257602  0.045392369            5 
 2313000   0.89684192    -5.071815    1259.3221  0.045371168  0.045381813            5 
 2314000   0.88203344   -5.1045603    1255.6514  0.045219368  0.045371322            5 
 2315000   0.86812488   -5.0964899     1254.841  0.045170663  0.045360887            2 
 2316000   0.89933441   -5.0583326     1258.678  0.045289221  0.045350435            4 
 2317000   0.90073483   -5.0770414     1255.887  0.045169294  0.045339962            3 
 2318000    0.8779887   -5.0933442    1256.2184  0.045161719  0.045329388            3 
 2319000     0.872549    -5.108383    1257.6052   0.04519208  0.045318738            5 
 2320000   0.88284206   -5.0815186    1257.0203  0.045151591  0.045308306            5 
 2321000   0.87332601   -5.0925404    1260.7612   0.04526645  0.045297893            6 
 2322000   0.87703464   -5.1158549    1261.5872    0.0452766  0.045287495            4 
 2323000   0.87239425   -5.0933092    1260.0199  0.045200885  0.045277164            4 
 2324000   0.86358321   -5.0257916    1265.3722  0.045373358  0.045266784            3 
 2325000   0.88638359   -5.0618748    1259.9073  0.045157968  0.045256341           11 
 2326000   0.88682547   -5.1283669    1256.3974  0.045012803  0.045245924            4 
 2327000   0.87008293   -5.0925752    1259.5753  0.045107266  0.045235404            2 
 2328000   0.87099405   -5.0927805    1260.5833  0.045123974  0.045224952            4 
 2329000   0.87338224   -5.1311725    1256.7374   0.04496699  0.045214413            6 
 2330000   0.88952464   -5.0785936    1258.2154  0.045000552  0.045203917            4 
 2331000   0.86236199   -5.1004533    1261.6863  0.045105329  0.045193429            3 
 2332000   0.87504703   -5.1210459    1260.1208  0.045030044  0.045182923            4 
 2333000   0.87217079   -5.1112238    1257.6267  0.044921657   0.04517237            6 
 2334000   0.88654293   -5.0994325    1263.9505  0.045128197   0.04516188            7 
 2335000   0.87622385   -5.0818151    1262.3288  0.045050992  0.045151483            2 
 2336000   0.88558863   -5.1023679    1267.3625  0.045211276  0.045141085           13 
 2337000   0.87767981   -5.1135163    1262.6909  0.045025349  0.045130776            5 
 2338000   0.87982069   -5.0620309    1264.1062  0.045056536  0.045120456            4 
 2339000   0.87969083   -5.1045463    1263.8588  0.045028458  0.045110035            8 
 2340000    0.8848139   -5.0855612    1262.3314  0.044954821   0.04509973            6 
 2341000   0.89649185   -5.0886656    1265.1312  0.045035283   0.04508927            5 
 2342000   0.87894956   -5.1380632      1264.59  0.044996798  0.045078864            2 
 2343000   0.87217261    -5.110143    1262.8556  0.044915905  0.045068365            5 
 2344000   0.86318939   -5.1429665    1264.2107  0.044944921  0.045058002            5 
 2345000   0.88559817   -5.0997504    1264.1923  0.044925101  0.045047632            8 
 2346000    0.8685687   -5.1097174    1265.2919  0.044945009  0.045037385            3 
 2347000   0.86138902   -5.0909455    1266.3547  0.044963597  0.045027064            9 
 2348000   0.88081797   -5.1027936    1265.1644  0.044902202  0.045016672            4 
 2349000   0.87832485   -5.1206444    1263.7986   0.04483463  0.045006227            6 
 2350000   0.86803546   -5.1196461    1270.0884  0.045038594  0.044995957            8 
 2351000   0.88740315   -5.0827803    1271.0359  0.045053025  0.044985704            4 
 2352000    0.8752049   -5.0944735     1274.935  0.045172018   0.04497563            6 
 2353000   0.87628109   -5.1061019    1269.2299  0.044950767  0.044965397            6 
 2354000   0.87194467    -5.096908    1270.9086  0.044991101  0.044955173            4 
 2355000   0.84747634   -5.0736724    1273.4892  0.045063313  0.044944959            5 
 2356000   0.88138875   -5.0835524     1270.592  0.044941708  0.044934754            8 
 2357000   0.87730348   -5.0977428    1274.7808  0.045070738   0.04492458            6 
 2358000   0.86899053    -5.098013    1271.1292  0.044922576  0.044914454            5 
 2359000   0.86647068   -5.1286987    1268.8155    0.0448218  0.044904236            4 
 2360000   0.85354254   -5.0991409    1270.9701  0.044878888  0.044894129            4 
 2361000   0.88515293   -5.1283969     1270.556  0.044845262  0.044883936            4 
 2362000   0.87998031   -5.1331268    1269.5687  0.044791445  0.044873532            9 
 2363000   0.85712633   -5.1224294    1272.8074  0.044886704   0.04486315           12 
 2364000   0.86686871   -5.0873362    1274.7586  0.044936499  0.044853022            5 
 2365000   0.86090287   -5.0840013    1272.0387  0.044821659  0.044842819            3 
 2366000    0.8714726   -5.0842708    1274.4644  0.044888153  0.044832738            5 
 2367000   0.86559846   -5.1289625    1273.3038  0.044828328  0.044822584            5 
 2368000   0.85232701   -5.1037923    1277.0445  0.044941037  0.044812595            4 
 2369000   0.86821812   -5.1249439    1275.8208  0.044879019  0.044802563            5 
 2370000   0.85458996    -5.141281    1276.1661  0.044872226   0.04479251            6 
 2371000   0.87076147   -5.1236168    1270.9884  0.044671322  0.044782427            6 
 2372000   0.87360281   -5.1217115    1274.9751  0.044792548  0.044772262            6 
 2373000   0.86074271   -5.1011277     1278.726  0.044905393  0.044762215            3 
 2374000   0.87026998   -5.0940413    1277.2716  0.044835424  0.044752204           10 
 2375000    0.8904054   -5.0987278    1277.1034  0.044810645  0.044741999            3 
 2376000   0.87678511   -5.1124051      1277.76  0.044814816   0.04473191            3 
 2377000   0.86538068   -5.1083361    1273.5894  0.044649749  0.044721805            4 
 2378000   0.88313726   -5.1129054    1278.7713  0.044812563  0.044711664            7 
 2379000   0.86178502   -5.1166043    1278.1146  0.044770724   0.04470155            3 
 2380000   0.86539683   -5.1117543    1278.4948  0.044765226  0.044691414            7 
 2381000   0.84795016   -5.1308304    1275.5967   0.04464499  0.044681383            6 
 2382000   0.87292396   -5.1093167    1278.2941  0.044720616  0.044671254            4 
 2383000   0.89314874   -5.1042708    1273.9528  0.044550036  0.044661111           10 
 2384000   0.85859865    -5.126625     1277.587  0.044658383  0.044650882            6 
 2385000   0.86066222   -5.0986785    1275.8525  0.044579052  0.044640692            3 
 2386000   0.85953865     -5.10214    1281.9466  0.044773211  0.044630504            5 
 2387000   0.87301226   -5.1193137    1279.6615   0.04467468  0.044620387            7 
 2388000   0.88040554   -5.1169203    1281.1536  0.044708039  0.044610304            5 
 2389000   0.87299822   -5.0925178    1277.5561  0.044563838  0.044600025            4 
 2390000   0.86522519   -5.0988917    1278.7185  0.044585722  0.044589819            4 
 2391000   0.87668289   -5.0995826    1279.7254  0.044602168  0.044579664            4 
 2392000   0.86462461    -5.136833    1278.5498  0.044542565  0.044569481            3 
 2393000   0.85904272   -5.0893195    1279.1102  0.044543466  0.044559353            4 
 2394000   0.86281319    -5.106118    1282.0948  0.044628753  0.044549281            3 
 2395000   0.85731456   -5.0974049    1279.6637   0.04452553  0.044539086            9 
 2396000   0.86512179   -5.1326149    1279.4638  0.044499993  0.044528971            4 
 2397000    0.8728656   -5.0899686    1280.6516  0.044522724  0.044518692            4 
 2398000   0.86435024   -5.1194009     1282.761   0.04457746  0.044508524            8 
 2399000   0.86956745   -5.1362815    1283.8547  0.044596869  0.044498393            4 
 2400000   0.86495274   -5.0954643    1284.8074  0.044611368  0.044488123            5 
 2401000   0.85653841   -5.1182479    1282.0085  0.044495646  0.044478121           13 
 2402000   0.87950363   -5.1079471    1279.7328  0.044398169  0.044467997            4 
 2403000   0.86718943   -5.1122524    1287.3545  0.044644004  0.044457903            6 
 2404000   0.89463238   -5.1223315    1286.2522  0.044587223  0.044447962            6 
 2405000   0.86782491   -5.1002089    1283.8993  0.044487154  0.044437861            2 
 2406000   0.86201898   -5.1103526    1284.4895  0.044489108  0.044427734            4 
 2407000   0.87094167   -5.1185174    1284.2895    0.0444637  0.044417632            4 
 2408000   0.86544286   -5.1211344    1282.7339  0.044391398  0.044407454            5 
 2409000   0.86489472   -5.1131512     1287.635  0.044542513  0.044397472            4 
 2410000   0.88342542   -5.1193873    1290.4279  0.044620604   0.04438747            4 
 2411000   0.87109738   -5.1517218    1280.1002  0.044245135  0.044377302            3 
 2412000   0.87605041   -5.0983614    1286.6371  0.044452635  0.044367258            4 
 2413000   0.85491565   -5.1303453    1283.5309  0.044326943  0.044357255            5 
 2414000   0.87199812   -5.1219782    1289.1779  0.044503519   0.04434707            5 
 2415000   0.86631651   -5.1266691    1279.8464   0.04416309  0.044336919            6 
 2416000   0.87196623   -5.0855092    1289.7581  0.044486688  0.044326798            3 
 2417000   0.87426355   -5.1602067    1286.9198  0.044370424  0.044316764            6 
 2418000   0.85157556   -5.0993215    1290.7026  0.044482445  0.044306726            6 
 2419000   0.84461867   -5.1014956    1287.8987  0.044367463  0.044296759            6 
 2420000   0.88876289   -5.1142444    1290.4598  0.044437322  0.044286694            4 
 2421000   0.86410809     -5.12389    1286.0878  0.044268479  0.044276624            4 
 2422000   0.86887937   -5.1231424    1287.6889  0.044305289  0.044266453            4 
 2423000   0.85569053   -5.1288041    1286.3365  0.044240491  0.044256275            7 
 2424000   0.85824356   -5.1016187    1288.8517  0.044308708  0.044246321            4 
 2425000   0.88097451   -5.1207827    1288.8823  0.044291486  0.044236357            4 
 2426000   0.85733266   -5.1125522     1293.008   0.04441495  0.044226595            3 
 2427000   0.85101454   -5.1085045    1292.1909  0.044368593   0.04421665            5 
 2428000   0.85934347   -5.1242404    1288.2685  0.044215695   0.04420681            4 
 2429000   0.85912776   -5.1425133    1288.6979  0.044212223  0.044196676            4 
 2430000   0.85826664   -5.1432108    1287.0187  0.044136445   0.04418652            9 
 2431000   0.85739782   -5.1053651    1293.5305  0.044341508  0.044176479            4 
 2432000    0.8561068   -5.1163747    1294.1241  0.044343616  0.044166528            3 
 2433000   0.84004758   -5.1248823    1292.9352   0.04428467  0.044156521            6 
 2434000   0.85818972   -5.1111116    1293.0638  0.044270878  0.044146596            6 
 2435000   0.85913296   -5.1416086    1288.1488  0.044084492  0.044136628            9 
 2436000   0.87559518   -5.1295617    1294.7664  0.044292776  0.044126634            7 
 2437000   0.86773171   -5.1208127    1295.5666  0.044301963  0.044116579            2 
 2438000   0.87254427   -5.1031848    1294.5656  0.044249577  0.044106508            3 
 2439000   0.86843011   -5.1000846    1297.2787  0.044324134  0.044096575            4 
 2440000   0.87807504    -5.135028    1293.2375  0.044167947  0.044086495            4 
 2441000    0.8465906   -5.1087115     1296.458  0.044259798  0.044076445            3 
 2442000    0.8538043   -5.1237942    1294.5573  0.044176813  0.044066496            5 
 2443000   0.84390749    -5.125588    1293.1015  0.044109072  0.044056323            6 
 2444000   0.86592011   -5.1393849     1293.767  0.044113715  0.044046122            6 
 2445000    0.8501106   -5.1107769    1292.7352  0.044060505  0.044036033            4 
 2446000   0.85680883   -5.1179383      1293.86  0.044080811  0.044026016            4 
 2447000   0.86346608   -5.1025469    1291.1098  0.043969138  0.044016011            3 
 2448000   0.84847687   -5.1240731    1293.9823  0.044048962  0.044005903            5 
 2449000   0.86478637   -5.1291447    1295.8731  0.044095314  0.043995795            2 
 2450000   0.84284234    -5.152159    1293.0082  0.043979871  0.043985713            4 
 2451000   0.86437847   -5.1338406    1294.4852  0.044012146  0.043975705            7 
 2452000    0.8742974   -5.1400027    1293.4425  0.043958758  0.043965768            3 
 2453000   0.86490254   -5.1505271    1295.0058  0.043993945  0.043955747            3 
 2454000    0.8752073   -5.1021692    1295.2377  0.043983892  0.043945547            5 
 2455000   0.86580695   -5.1293491    1295.6328  0.043979388  0.043935549            4 
 2456000   0.88356833   -5.1666432    1293.2408  0.043880321  0.043925433            6 
 2457000   0.86332653   -5.1402107    1292.6061  0.043840934  0.043915258            4 
 2458000   0.86861748    -5.113718    1298.8518  0.044034846  0.043904957            3 
 2459000   0.84362583   -5.1471738    1293.8938  0.043848914  0.043894685            6 
 2460000   0.87308802   -5.1321979    1294.0928  0.043837832  0.043884647            5 
 2461000   0.83962153   -5.1080676    1296.7655   0.04391052  0.043874617            4 
 2462000   0.86466435    -5.132602     1296.422  0.043881059  0.043864478            5 
 2463000   0.85207728   -5.1268568    1295.5155  0.043832574  0.043854355            5 
 2464000   0.84170999   -5.1555994    1295.7735  0.043823508  0.043844129            5 
 2465000   0.83643861   -5.1768206    1293.4086  0.043725781  0.043833901            6 
 2466000     0.839676   -5.1714219    1289.6253  0.043580199  0.043823655            6 
 2467000   0.85265158   -5.1189134    1295.7849  0.043770603  0.043813602            8 
 2468000   0.87841143   -5.1260028    1297.2559  0.043802536  0.043803609            8 
 2469000   0.85531584   -5.1358226      1300.81  0.043904753  0.043793415            5 
 2470000   0.86305426   -5.1318824    1293.4486  0.043638618  0.043783324            6 
 2471000   0.86071373   -5.1207157     1297.057  0.043742648  0.043773239            8 
 2472000   0.85535542   -5.1415062    1300.3755  0.043836822  0.043763329            7 
 2473000   0.85591868   -5.1473739    1292.2722  0.043546036  0.043753182            7 
 2474000   0.87160596   -5.1515143    1303.9923  0.043923212   0.04374311            6 
 2475000   0.85098714   -5.1122033    1301.9887  0.043838003  0.043732966            3 
 2476000   0.86139408   -5.1116756    1297.6559  0.043674471  0.043722979            5 
 2477000   0.86770127   -5.1408892    1301.1666   0.04377495  0.043712962            4 
 2478000   0.87716219   -5.1543257    1302.4365  0.043799988  0.043702845            8 
 2479000   0.85373782   -5.1210892    1298.8195  0.043660734  0.043692918            3 
 2480000   0.85804556   -5.1257553    1305.0153   0.04385132  0.043682885            2 
 2481000   0.85397855   -5.1312602    1304.0687  0.043801849  0.043672894            4 
 2482000   0.87381477   -5.1361021    1300.8783  0.043677086  0.043662844            5 
 2483000   0.87191154   -5.1274394    1305.0614  0.043799885  0.043652901            5 
 2484000   0.86890543   -5.1370464    1300.6654  0.043634775  0.043642969            3 
 2485000   0.83731299   -5.1327745    1303.3522  0.043707316  0.043632947            4 
 2486000   0.85992308   -5.1582522    1300.2699  0.043586415  0.043622829            5 
 2487000   0.84528078   -5.1566018    1300.3938  0.043573039  0.043612656            5 
 2488000   0.83172109   -5.1357044    1301.8596  0.043604622  0.043602602            3 
 2489000   0.85007803   -5.1119718    1304.5713  0.043677893  0.043592578            5 
 2490000    0.8569518   -5.1318547    1305.7939  0.043701269  0.043582658            4 
 2491000   0.85452654   -5.1656219    1301.5762  0.043542626  0.043572629            5 
 2492000   0.83458065   -5.1571758    1308.5516  0.043758413  0.043562691            4 
 2493000   0.85582176   -5.1320283    1305.3232  0.043632945  0.043552792            5 
 2494000   0.85738315   -5.1430013    1307.5014  0.043688231  0.043542928            3 
 2495000   0.85218229   -5.1205422    1310.1517  0.043759243  0.043533015            5 
 2496000   0.85925257    -5.146606    1305.4298  0.043584062  0.043523035            5 
 2497000   0.85395784    -5.118163    1312.5094  0.043802878  0.043513245            4 
 2498000   0.86511897   -5.1501925    1307.7722  0.043627308  0.043503394            6 
 2499000   0.86817603   -5.1400733    1307.3455  0.043595621  0.043493587            5 
 2500000   0.85372578   -5.1505758    1306.5608  0.043552028  0.043483779            4 
 2501000   0.82811031   -5.1473806    1309.7576  0.043641131  0.043473845            6 
 2502000   0.85328631    -5.135621    1311.4899  0.043681385  0.043464056            3 
 2503000    0.8335139   -5.1522602    1310.5509   0.04363267  0.043454167            4 
 2504000   0.82057919    -5.162789    1309.5761  0.043582803  0.043444288            7 
 2505000   0.86247318   -5.1531481    1306.2268  0.043453985  0.043434354            7 
 2506000   0.83397364   -5.1275331    1309.4284  0.043543109  0.043424487            5 
 2507000   0.86663429   -5.1439045    1314.1369  0.043682252  0.043414619            6 
 2508000   0.85089145   -5.1385253    1313.0056  0.043627246  0.043404784            3 
 2509000   0.86162842   -5.1678717    1307.1543  0.043415514  0.043394937            7 
 2510000   0.85215764   -5.1422222    1309.5622  0.043478161  0.043384948            5 
 2511000   0.84905826   -5.1043182    1312.2611  0.043550416  0.043375015            5 
 2512000    0.8451057   -5.1744927    1309.9411  0.043456113  0.043364988            5 
 2513000   0.85314379   -5.1608345    1307.8045  0.043367971  0.043355027           12 
 2514000   0.83693974   -5.1060943    1312.3803  0.043502396  0.043345023            5 
 2515000   0.84434101   -5.1892131     1304.267   0.04321627  0.043335057            6 
 2516000   0.82844754   -5.1728585    1311.7312  0.043446318  0.043324982            5 
 2517000   0.85118926   -5.1581419    1307.4445  0.043287131  0.043314939            5 
 2518000   0.83676008   -5.1505788    1311.8726  0.043416489  0.043304888            3 
 2519000   0.84621418    -5.156499    1312.3255  0.043414236  0.043294957            3 
 2520000   0.84968072   -5.1753758      1309.18  0.043292989  0.043285015            4 
 2521000   0.84665647   -5.1336602    1315.1573    0.0434734  0.043274989            5 
 2522000   0.83411149   -5.1692212    1310.7758  0.043311385  0.043264937            5 
 2523000   0.84654147   -5.1108091    1310.7465  0.043293253  0.043254855            7 
 2524000   0.84573547   -5.1509515    1305.9351  0.043117244  0.043244835            3 
 2525000   0.83301979   -5.1695002     1311.973  0.043299439  0.043234842            6 
 2526000    0.8682142   -5.1778217    1311.2656  0.043258961  0.043224875            6 
 2527000   0.85502975   -5.1426687    1313.2068  0.043305857  0.043214987            5 
 2528000    0.8387817   -5.1440038    1311.8581  0.043244268  0.043205049            5 
 2529000   0.84934077   -5.1673199     1314.824  0.043324897  0.043195071            2 
 2530000    0.8366656   -5.1629786    1314.1626  0.043285987  0.043185177            4 
 2531000   0.84007155   -5.1330857    1315.6209  0.043316902  0.043175378            9 
 2532000   0.84779856       -5.165    1315.3228  0.043289983  0.043165469            3 
 2533000   0.82628818   -5.1728218    1316.9124  0.043325187  0.043155646            4 
 2534000   0.86528302   -5.1446343     1316.849  0.043306005   0.04314585            5 
 2535000    0.8416142   -5.1682833    1313.6312  0.043183143  0.043135926            8 
 2536000   0.82181687   -5.1705325    1314.2187  0.043185419  0.043125937            5 
 2537000   0.85966663   -5.1919447    1312.8997  0.043125072  0.043115921            5 
 2538000   0.83954077   -5.1731704    1312.8064  0.043105019  0.043106011            5 
 2539000   0.85507551     -5.16532    1314.8595  0.043155425  0.043096084            6 
 2540000   0.82495495   -5.1702351    1316.8175  0.043202675  0.043086163            6 
 2541000   0.84036796   -5.1497843    1314.7466  0.043117756  0.043076174            5 
 2542000   0.84886922    -5.182032    1313.8878   0.04307264  0.043066299            5 
 2543000   0.85077305   -5.1302039    1319.0884  0.043226123  0.043056354            6 
 2544000   0.85190204   -5.1666517    1319.6848  0.043228668  0.043046465            5 
 2545000    0.8228136   -5.1429521    1320.8764  0.043250702  0.043036613            4 
 2546000   0.84107103   -5.1516997    1316.4783  0.043089757  0.043026711            7 
 2547000   0.84504065   -5.1554512    1317.6195   0.04311018  0.043016698            9 
 2548000   0.84966001   -5.1887267    1316.6831  0.043062635  0.043006702            6 
 2549000   0.85789288   -5.1467385     1319.658  0.043142996  0.042996717            7 
 2550000   0.84303544   -5.1201883    1324.4216   0.04328175  0.042986979            4 
 2551000   0.84829074   -5.1377594     1319.992  0.043120084  0.042977129            6 
 2552000   0.83373964   -5.1409425    1322.3587  0.043180468  0.042967323            3 
 2553000   0.84496408   -5.1558696    1318.6709  0.043043181   0.04295753            5 
 2554000   0.83117995   -5.1625956    1314.2984  0.042883659   0.04294775            4 
 2555000   0.82003359   -5.1720431    1320.9557   0.04308401  0.042937766           17 
 2556000   0.84594993   -5.1852766    1320.1366  0.043040448  0.042927817            6 
 2557000   0.81513653    -5.197215    1319.7688  0.043011629  0.042918001            3 
 2558000   0.84758947   -5.1803245    1320.4421  0.043016748  0.042908073            3 
 2559000   0.85649785   -5.1604489     1320.179  0.042991371  0.042898211            7 
 2560000   0.83004107   -5.1929335    1321.4803  0.043016937   0.04288843            5 
 2561000   0.84893812   -5.2048619     1323.394  0.043062409  0.042878635            8 
 2562000   0.83748403   -5.1753422    1328.0359  0.043196587  0.042868962            3 
 2563000   0.83645643   -5.1891672    1324.0878  0.043051366  0.042859226            7 
 2564000   0.82761763   -5.1512995    1325.7465  0.043088483  0.042849585            8 
 2565000    0.8325621   -5.1508651    1327.5202   0.04312931  0.042839905            5 
 2566000   0.84965713   -5.1704965    1325.3642  0.043042487  0.042830129            4 
 2567000   0.85578062   -5.1650514    1326.5596  0.043064525    0.0428204            2 
 2568000    0.8416043    -5.173436    1319.1553   0.04280748  0.042810571            3 
 2569000   0.85350058   -5.1595502    1326.5447  0.043030513  0.042800812            5 
 2570000   0.84264856   -5.1468805    1330.3361  0.043136709  0.042791172            3 
 2571000   0.83006634   -5.1712168    1323.4081  0.042895375  0.042781429            4 
 2572000   0.83473785    -5.143292    1328.0911  0.043030426  0.042771863            7 
 2573000   0.81904889   -5.1674455    1326.3203   0.04295635  0.042762254            6 
 2574000   0.84273937   -5.1918161    1324.7583  0.042889092   0.04275253            4 
 2575000   0.86770123   -5.1654038    1330.7923  0.043067711  0.042742771            7 
 2576000   0.84201025   -5.1759689    1324.3083  0.042841238  0.042732971            3 
 2577000   0.83839047    -5.167609    1327.3496  0.042922958  0.042723204            5 
 2578000   0.84767318   -5.1628553    1330.2225  0.042999175  0.042713673            4 
 2579000    0.8404313   -5.2164259    1320.4769  0.042667601  0.042703913            3 
 2580000   0.82639437   -5.1891964    1324.1544  0.042769846   0.04269421            5 
 2581000   0.84318769   -5.1458217    1327.5775  0.042863795  0.042684451            4 
 2582000   0.84375066   -5.1769481     1325.702  0.042786665  0.042674823            8 
 2583000   0.84753236   -5.1702401    1327.8899  0.042840687  0.042665139            4 
 2584000    0.8373403   -5.1771676    1327.3376  0.042806295  0.042655358            5 
 2585000   0.83658034   -5.2067986    1327.9071  0.042808096   0.04264552            4 
 2586000   0.84597945   -5.1548584    1331.1877  0.042897257   0.04263575            8 
 2587000   0.85150143   -5.1814459     1331.454  0.042889253  0.042626004            4 
 2588000    0.8672918   -5.1696399     1329.094   0.04279669  0.042616408           11 
 2589000   0.84793555   -5.1861338    1331.0786   0.04284404  0.042606614            6 
 2590000   0.83367834   -5.1451061    1329.8959  0.042789443  0.042596983            7 
 2591000   0.82532713   -5.1899167    1328.3692  0.042723827  0.042587289            4 
 2592000   0.84258051   -5.1485824    1330.1549  0.042764755  0.042577507            6 
 2593000   0.84110345   -5.1836369    1326.6642  0.042636077  0.042567789            1 
 2594000   0.84539573   -5.1575306    1332.2532  0.042799191  0.042557979            4 
 2595000   0.86087368   -5.2008439    1326.8472  0.042609093  0.042548082           11 
 2596000   0.85495894   -5.1794782    1327.7714  0.042622348  0.042538107           12 
 2597000   0.83445665   -5.1589162     1331.825  0.042736008  0.042528125            4 
 2598000   0.84570869   -5.2272028    1326.3343  0.042543439  0.042518142            4 
 2599000   0.83884567   -5.1771083     1329.333  0.042623222  0.042508195            8 
 2600000   0.86256584    -5.211679     1325.594  0.042486986  0.042498214            5 
 2601000   0.82283093   -5.1632082    1334.1265  0.042744026  0.042488334           11 
 2602000   0.82750911   -5.1712157    1329.9728  0.042594568  0.042478494            4 
 2603000   0.83387211   -5.1705989     1330.009  0.042579362  0.042468586            4 
 2604000   0.83028781   -5.1925142    1326.3091  0.042444609  0.042458827            6 
 2605000   0.83821304   -5.1862956    1329.8495  0.042541572  0.042448968            3 
 2606000   0.84133503   -5.1751219    1332.1519  0.042598872  0.042438984            4 
 2607000   0.83849088   -5.1900238    1331.3574  0.042557135  0.042429219            6 
 2608000   0.84430286    -5.147345    1333.0549  0.042595057  0.042419398            6 
 2609000   0.83334678   -5.2070651    1331.8442  0.042540059  0.042409467            6 
 2610000   0.84223004   -5.1983549    1332.4724  0.042543819  0.042399515            6 
 2611000   0.84257515   -5.1906243    1333.5949   0.04256335  0.042389518            8 
 2612000    0.8318819   -5.1836686    1331.7967  0.042489684  0.042379651            5 
 2613000   0.83115615   -5.1586128    1334.4181  0.042557025  0.042369725            6 
 2614000   0.83209467   -5.1758201    1332.2628  0.042472035  0.042359959            3 
 2615000   0.81322762   -5.1664599    1337.1802    0.0426125  0.042350207            5 
 2616000   0.83189344   -5.2104714    1332.0923  0.042434134  0.042340447            8 
 2617000   0.82818443   -5.1924734    1332.0834  0.042417633  0.042330518           12 
 2618000   0.82535606   -5.1853805    1332.9303  0.042428391  0.042320621           10 
 2619000   0.83563845   -5.1930649     1331.107  0.042354175  0.042310671            5 
 2620000   0.82387224   -5.1858558    1332.5796  0.042384849  0.042300757            3 
 2621000   0.83140787   -5.1905355    1334.1206  0.042417673  0.042290889            6 
 2622000   0.82476746   -5.2011603    1333.9017  0.042394536     0.042281            8 
 2623000   0.84031699   -5.1998703    1333.9234  0.042379062  0.042271115            5 
 2624000   0.85195436   -5.1871871    1335.4161  0.042410319  0.042261153            3 
 2625000   0.82244022    -5.185179    1335.3009  0.042390503   0.04225119            3 
 2626000   0.83468112   -5.1783002    1337.5302  0.042445106   0.04224122            8 
 2627000   0.83801904   -5.1918647    1336.1684  0.042385752  0.042231205            4 
 2628000   0.83007398   -5.1925008    1334.2898  0.042310051  0.042221237            6 
 2629000   0.83349751   -5.1895019    1331.2931  0.042198971   0.04221134            5 
 2630000   0.83192059   -5.2179681    1331.6631  0.042194648  0.042201444            7 
 2631000    0.8420328   -5.1828447    1334.9795  0.042283653  0.042191463            5 
 2632000    0.8286129   -5.1755935    1334.7864  0.042261473  0.042181548            8 
 2633000   0.82309008   -5.1891383    1335.6659  0.042273258  0.042171637            3 
 2634000    0.8250167   -5.1794734    1338.5504   0.04234847   0.04216177            7 
 2635000    0.8180053   -5.1798124    1339.1968   0.04235284  0.042152027            9 
 2636000   0.84407195   -5.1909749    1335.0619  0.042206055  0.042142175            5 
 2637000   0.83857004   -5.1854895    1343.4703  0.042455767  0.042132372            7 
 2638000   0.83064308   -5.1925233    1339.5965  0.042317302  0.042122659           10 
 2639000   0.82796569   -5.1910555    1342.5891  0.042395764  0.042113006            4 
 2640000   0.83096539   -5.1776491    1340.6049  0.042317073  0.042103253           11 
 2641000   0.86054242   -5.1969846    1337.1665  0.042192555  0.042093434            8 
 2642000   0.82864213    -5.204092     1338.602  0.042221866  0.042083628            3 
 2643000   0.84370588   -5.1761039    1340.3745  0.042261777  0.042073791            4 
 2644000   0.84960578   -5.2087746    1337.0613  0.042141366  0.042063915            8 
 2645000   0.83538867   -5.1933411    1339.1212  0.042190334  0.042054146            8 
 2646000   0.83332809   -5.2045468     1339.077  0.042172997  0.042044373            9 
 2647000   0.84145155   -5.1942579    1337.2351  0.042099079  0.042034457           13 
 2648000   0.85023619   -5.2040237    1340.8081  0.042195624  0.042024494            5 
 2649000   0.84172498   -5.2059028    1338.2022  0.042097715  0.042014653            3 
 2650000   0.81641132   -5.1916885    1338.7924  0.042100389  0.042004864            4 
 2651000   0.83893132   -5.1645753    1341.1061  0.042157239  0.041995091           10 
 2652000   0.83473303   -5.1808754    1344.0676  0.042234401  0.041985385            7 
 2653000   0.82474441   -5.1905095    1342.0953  0.042156532  0.041975652           11 
 2654000   0.84563246   -5.2061168    1340.5649  0.042092593  0.041965924            5 
 2655000   0.83319503   -5.2162945    1340.5605    0.0420766  0.041956127            6 
 2656000     0.824742    -5.213658    1341.0488   0.04207608  0.041946334           14 
 2657000   0.82021672   -5.2038174    1342.8545  0.042116878  0.041936582            5 
 2658000   0.82709373   -5.2026225    1345.0652  0.042170341    0.0419269            5 
 2659000    0.8380361    -5.207387    1345.1874  0.042158311  0.041917116            4 
 2660000   0.82479505   -5.2156778    1343.7109  0.042096207  0.041907348            3 
 2661000   0.83189105   -5.2206175     1343.736  0.042081173  0.041897511            9 
 2662000   0.82999971   -5.1586545    1349.9342  0.042259396  0.041887759            5 
 2663000   0.81709441   -5.2066952    1343.2312  0.042033772  0.041878076            9 
 2664000   0.83298936   -5.2134047    1340.6439   0.04193706  0.041868206            8 
 2665000   0.82393749   -5.1829222    1348.4242  0.042164608  0.041858474            4 
 2666000   0.83790656   -5.1819281    1347.9495  0.042133957  0.041848785            9 
 2667000    0.8323512   -5.1670157    1350.2452  0.042189889  0.041839227            4 
 2668000    0.8167332   -5.1878656    1350.6561  0.042186909  0.041829659            5 
 2669000   0.80508399   -5.1787254    1345.1571  0.041999409  0.041820005            3 
 2670000    0.8038707    -5.216292    1342.3719  0.041896751  0.041810316            5 
 2671000   0.83709539   -5.2312001     1345.339  0.041973635  0.041800535            9 
 2672000   0.82119402   -5.2026856    1343.2529  0.041892869  0.041790735            4 
 2673000   0.82789427   -5.2309791    1351.0432  0.042120066  0.041780965            4 
 2674000   0.82618512   -5.2175467    1345.9489  0.041945553  0.041771315            8 
 2675000   0.84408234   -5.2010004    1348.1878  0.041999618  0.041761764            9 
 2676000   0.81130522    -5.196666    1349.7181  0.042031579  0.041752112            8 
 2677000   0.84280413    -5.207196    1349.7922  0.042018186  0.041742398            3 
 2678000   0.80597451   -5.2122867    1348.0691  0.041948877  0.041732713            7 
 2679000   0.83673019    -5.220267    1347.9259  0.041928763  0.041722989            8 
 2680000   0.83029484   -5.2103805    1346.1424  0.041857662  0.041713391            6 
 2681000   0.80244199   -5.1980102    1351.5254  0.042009367   0.04170374            8 
 2682000   0.81961844   -5.1941022     1348.358  0.041895291  0.041694075            3 
 2683000   0.83063152   -5.2128918    1349.0872  0.041902323  0.041684412            8 
 2684000   0.81172033   -5.2215449    1346.9665  0.041820867  0.041674788            7 
 2685000   0.80389545   -5.2175941    1348.7023  0.041859166  0.041665102            6 
 2686000   0.82607759   -5.1853556    1351.3482  0.041925669  0.041655433            7 
 2687000   0.82703086   -5.2130013    1351.2675  0.041907565  0.041645895            9 
 2688000    0.8238654   -5.2124948    1353.4532  0.041959734  0.041636271            5 
 2689000    0.8095846   -5.2301715    1352.9871  0.041929684  0.041626631           13 
 2690000   0.81479084   -5.2024468    1352.2593  0.041891551  0.041617096            9 
 2691000   0.80033085   -5.1901757    1349.4421  0.041788743  0.041607542            3 
 2692000   0.80634127   -5.1965265    1351.8242  0.041846959   0.04159798            6 
 2693000   0.81707148   -5.1942121    1353.5504  0.041884838  0.041588428            6 
 2694000   0.80927283   -5.2077422    1351.4282  0.041803645   0.04157891            6 
 2695000   0.80974461   -5.2081982    1352.8164  0.041831058  0.041569333            7 
 2696000   0.81243415   -5.2288667    1351.9208  0.041787858  0.041559836            8 
 2697000   0.81261482   -5.2001788    1355.7626   0.04189107  0.041550256            4 
 2698000   0.80207593   -5.2177392    1352.8113  0.041784387  0.041540673            6 
 2699000   0.80242913   -5.2208211    1352.3667  0.041755177  0.041531149            5 
 2700000   0.84218527   -5.1813341     1356.644  0.041871727   0.04152168            3 
 2701000   0.79623487   -5.2042162    1354.9977  0.041805434  0.041512144            6 
 2702000   0.82672128   -5.1884591    1355.1493  0.041794635  0.041502723            6 
 2703000   0.82514769   -5.2180424    1356.4409  0.041818994  0.041493177            4 
 2704000   0.83392565   -5.2092804    1355.1729   0.04176445  0.041483664            6 
 2705000   0.83442013   -5.2200309    1358.5684  0.041853617  0.041474253            7 
 2706000   0.80826292   -5.2146364    1357.9806  0.041820047  0.041464935            5 
 2707000   0.81068344   -5.2383394    1355.5535  0.041729882  0.041455524            8 
 2708000   0.81926825     -5.22211    1354.6347  0.041686199  0.041446032           10 
 2709000   0.81523726   -5.1943624    1357.5167  0.041759466  0.041436509            8 
 2710000    0.8126487    -5.221361     1357.764  0.041751662  0.041427059            9 
 2711000   0.81104079   -5.2344049     1354.047  0.041622002  0.041417546            4 
 2712000   0.83428631   -5.1991807    1357.2433  0.041704869  0.041408102            2 
 2713000   0.79410906   -5.2306851    1356.0994  0.041654363  0.041398602            4 
 2714000   0.79632982   -5.2371795    1353.6695  0.041564403  0.041389044            6 
 2715000    0.8366981   -5.2608192    1355.1774  0.041595376  0.041379598            7 
 2716000   0.80463668   -5.2181749    1357.8332   0.04166155  0.041370083            6 
 2717000   0.82379093   -5.1727847    1360.6877  0.041733765  0.041360642            4 
 2718000   0.81409109   -5.2181813    1361.9474  0.041757033  0.041351237            5 
 2719000   0.80937688   -5.2031824    1357.4266   0.04160312  0.041341837            4 
 2720000   0.82394817    -5.209338    1359.8509  0.041662099    0.0413324            8 
 2721000   0.81481335   -5.2269962    1359.4714  0.041635166  0.041322919           11 
 2722000   0.80467911    -5.241599    1360.8944  0.041663434  0.041313442            8 
 2723000   0.80410636      -5.2211    1359.4572   0.04160415  0.041303868            7 
 2724000   0.80984074   -5.2025868    1360.4261  0.041618519  0.041294427            2 
 2725000   0.82538333   -5.2219379    1360.7712  0.041613799  0.041284982            4 
 2726000   0.80656041   -5.2076898     1360.712  0.041596723  0.041275539            4 
 2727000   0.82130071   -5.2155827    1355.7208  0.041428946   0.04126606            4 
 2728000   0.78696044    -5.216053    1361.7266  0.041597221  0.041256645            6 
 2729000   0.81698857   -5.2355444    1359.2073  0.041505046   0.04124717            3 
 2730000   0.81249587   -5.2131687    1360.2799  0.041522587  0.041237756            5 
 2731000   0.81704204   -5.2023602    1359.3879  0.041480164  0.041228264            8 
 2732000   0.83423519   -5.2196993    1366.1164  0.041670218  0.041218909            4 
 2733000   0.80002253   -5.2463914    1363.9194  0.041587979  0.041209486            7 
 2734000   0.81765063    -5.221337    1364.5873  0.041593126   0.04120013            6 
 2735000   0.83874058   -5.2384411    1362.0759  0.041501399  0.041190718            5 
 2736000   0.80738343   -5.2127658    1364.6323  0.041564093  0.041181232            7 
 2737000   0.83423316   -5.2332131    1365.4604  0.041574121  0.041171776            5 
 2738000   0.81691302   -5.2116572    1359.4364  0.041375589  0.041162361            6 
 2739000   0.81951744   -5.2156895     1361.249  0.041415633  0.041152994            4 
 2740000   0.82809101   -5.2341369    1359.8849  0.041359029  0.041143503            8 
 2741000    0.8283563   -5.2371964    1362.5311  0.041424391  0.041134011            5 
 2742000   0.82477522   -5.2324014    1364.4767  0.041468415  0.041124602            7 
 2743000    0.8089974   -5.2408415    1360.7963  0.041341483  0.041115066            6 
 2744000   0.81121252   -5.2031845    1364.2701  0.041431915  0.041105653            7 
 2745000   0.81396465     -5.18939    1361.5869  0.041335365   0.04109617            8 
 2746000   0.80619244   -5.2256424    1363.0162  0.041363686  0.041086631           18 
 2747000   0.79554874   -5.2352916    1360.0449  0.041258492  0.041077094            3 
 2748000   0.83791938   -5.2300516    1360.3095  0.041251501  0.041067623            4 
 2749000   0.82450705   -5.2232215    1366.8296  0.041434147  0.041058192            2 
 2750000   0.80557583   -5.2416453    1365.3346  0.041373777  0.041048699            7 
 2751000   0.80309479   -5.2289693    1365.0167  0.041349107   0.04103928            2 
 2752000   0.82517327   -5.2365135    1364.8061  0.041327705  0.041029831           12 
 2753000    0.8238677   -5.2320606    1367.4755  0.041393494  0.041020345            4 
 2754000   0.81042159   -5.2238738    1367.9546  0.041392962  0.041010929            6 
 2755000   0.82152865   -5.2322729    1362.9104  0.041225359  0.041001383            4 
 2756000   0.80143768   -5.2475281    1362.4795  0.041197371  0.040991788           10 
 2757000   0.79180474   -5.2267154     1365.228  0.041265505  0.040982296            7 
 2758000   0.79903618     -5.22089    1368.1338  0.041338342  0.040972796            4 
 2759000   0.81322198    -5.227898    1364.2132  0.041204942   0.04096329            7 
 2760000   0.81210324   -5.2394021    1364.7583   0.04120647  0.040953836            7 
 2761000   0.81600122   -5.2037395    1371.6477  0.041399485  0.040944382            8 
 2762000   0.80183788   -5.2251913    1365.4034  0.041196097  0.040934748            4 
 2763000   0.80137713   -5.2311938    1368.0651  0.041261464  0.040925182            5 
 2764000   0.80846112   -5.2316267    1366.7289   0.04120625  0.040915728            6 
 2765000   0.81209547   -5.2049622      1367.73   0.04122152  0.040906275            6 
 2766000    0.8089144   -5.2312285    1366.5219  0.041170218  0.040896672            6 
 2767000   0.78790044   -5.2273513    1367.9441  0.041198172  0.040887144            4 
 2768000   0.79681108   -5.2067169    1369.5927  0.041232922  0.040877669            5 
 2769000   0.81346827   -5.2455886     1367.647  0.041159474   0.04086821            7 
 2770000   0.80712029    -5.205861    1367.5641  0.041142119  0.040858714            7 
 2771000   0.82399916   -5.2594177    1368.6476  0.041159857  0.040849253            5 
 2772000   0.82926195    -5.220795    1370.7642  0.041208639  0.040839776            9 
 2773000   0.81465405   -5.2345404    1365.4936  0.041035389  0.040830198            7 
 2774000   0.81471171    -5.250107    1364.2648  0.040983682  0.040820663            3 
 2775000   0.80186022   -5.2468277    1367.3641  0.041061986  0.040811199            8 
 2776000   0.80923393   -5.2463074    1372.8697  0.041212467  0.040801859            6 
 2777000   0.80168206   -5.2170385    1369.5305  0.041097423  0.040792416            9 
 2778000   0.81605003   -5.2390554    1371.6831  0.041147201  0.040782956            6 
 2779000   0.79730248   -5.2817089    1368.7057  0.041043111  0.040773511            5 
 2780000   0.81074746    -5.243034    1366.6276  0.040966054   0.04076418            7 
 2781000   0.79853769   -5.2658542    1368.3277   0.04100227  0.040754737            7 
 2782000   0.81237976   -5.2492068    1368.1831    0.0409832  0.040745238            7 
 2783000   0.79540685   -5.2202249    1369.8375  0.041018012  0.040735905            4 
 2784000   0.80694128   -5.2049539    1374.3422  0.041138117  0.040726567            5 
 2785000   0.79284486   -5.2098848    1374.5395   0.04112925  0.040717197            4 
 2786000   0.79597698   -5.2798748    1365.9961   0.04085894   0.04070779            8 
 2787000   0.81841587   -5.2440416    1369.1161  0.040937569  0.040698378            4 
 2788000   0.79643066   -5.2083431    1369.7035  0.040940445  0.040688991            4 
 2789000   0.79768385   -5.2394569    1376.5222  0.041129503  0.040679609            9 
 2790000   0.81473188   -5.2456272    1373.0839  0.041012064  0.040670303            6 
 2791000   0.79605711   -5.2408376     1370.587  0.040922816  0.040660949            8 
 2792000   0.81241606   -5.2497547    1374.1159  0.041013489    0.0406515            6 
 2793000   0.81515107   -5.2622107    1373.4363  0.040978527  0.040642188            5 
 2794000   0.81023231   -5.2637696    1371.1037  0.040894289  0.040632848            7 
 2795000   0.78953258   -5.2638507    1374.0269  0.040966812  0.040623446            8 
 2796000   0.79070315   -5.2369526    1370.5815  0.040849473  0.040613978            8 
 2797000   0.81484981   -5.2516667    1374.9287  0.040964387  0.040604617            6 
 2798000   0.80539352   -5.2195007    1378.0896  0.041043887  0.040595303           11 
 2799000   0.79409128   -5.2511746    1375.5788  0.040954472  0.040586032            7 
 2800000   0.79890293   -5.2501611    1372.4316   0.04084618  0.040576679            6 
 2801000   0.80729306   -5.2618581      1374.87  0.040904141  0.040567326           14 
 2802000   0.78671522    -5.271679      1373.82  0.040858317  0.040557988            5 
 2803000   0.80304315   -5.2497787    1374.2813  0.040857453  0.040548641            5 
 2804000   0.80280121   -5.2425299    1374.1574  0.040839199  0.040539349            3 
 2805000   0.80035589   -5.2454389    1377.2964  0.040917897  0.040529955            5 
 2806000   0.80858781   -5.2551737    1373.9003  0.040802455  0.040520663            5 
 2807000   0.78341533   -5.2269068    1376.8863  0.040876566  0.040511243            6 
 2808000   0.80929784   -5.2341946    1379.9208  0.040952067  0.040501957            3 
 2809000   0.80998267   -5.2393251    1378.9925  0.040909948  0.040492599           10 
 2810000   0.81162444   -5.2105828    1378.0846  0.040868464  0.040483312            9 
 2811000   0.80205519   -5.2174501    1379.2063  0.040887178  0.040474084            6 
 2812000   0.80029029   -5.2611317    1375.8409  0.040772904  0.040464728            4 
 2813000    0.8041175   -5.2655529    1375.6417   0.04075251  0.040455294            5 
 2814000   0.81189617   -5.2695597    1376.0619  0.040750472  0.040445913            8 
 2815000   0.79719333    -5.255185    1381.4477  0.040895431  0.040436603            4 
 2816000   0.81714675   -5.2458405    1381.5249  0.040883194  0.040427286            4 
 2817000   0.80725699   -5.2577866    1379.0591  0.040795736  0.040418029           10 
 2818000   0.81307528   -5.2599843    1378.8525  0.040775149   0.04040863            5 
 2819000   0.79932625   -5.2691671    1377.6813  0.040726065  0.040399317            7 
 2820000   0.80797499   -5.2702024     1380.455  0.040793588   0.04038987            4 
 2821000   0.80515981   -5.2571868    1375.8893  0.040644254  0.040380381            3 
 2822000   0.76592362   -5.2850263    1371.7189  0.040506699   0.04037094            3 
 2823000   0.79867015   -5.2410571    1383.2113    0.0408316  0.040361492            6 
 2824000   0.81133971    -5.244427    1378.0011  0.040663395  0.040352188            5 
 2825000   0.80831438   -5.2326449    1379.5238  0.040693916   0.04034282            8 
 2826000   0.79874515   -5.2818513    1379.3072  0.040673132  0.040333429            7 
 2827000   0.79570466   -5.2694649    1376.2784  0.040569462  0.040324055            8 
 2828000   0.80131129   -5.2630899    1374.6612  0.040507461  0.040314705            9 
 2829000   0.80889949    -5.280393    1381.3639  0.040690582  0.040305338            3 
 2830000    0.7970815   -5.2390328    1380.2035  0.040642036  0.040295981            5 
 2831000   0.80753126   -5.2793969    1374.1707  0.040450097  0.040286533            4 
 2832000   0.79976681   -5.2843218    1378.1031  0.040551528  0.040277081           11 
 2833000   0.77844453   -5.2501308     1381.211  0.040628634  0.040267732            4 
 2834000    0.7823248   -5.2645028    1376.3166  0.040470377  0.040258251           17 
 2835000   0.78822151   -5.2640235    1382.6099   0.04064109  0.040248838           10 
 2836000   0.79421493   -5.2560314    1376.5795  0.040449563  0.040239481            6 
 2837000   0.79129813   -5.2601868     1379.862  0.040531722  0.040230029            9 
 2838000   0.80826376   -5.2631609    1381.8729   0.04057649  0.040220628            6 
 2839000    0.7914886   -5.2306999    1385.5525  0.040670203  0.040211316            5 
 2840000   0.81609595   -5.2678622    1384.0458  0.040611673  0.040201994            4 
 2841000   0.79461497    -5.239973    1380.1903  0.040484285  0.040192609            6 
 2842000   0.80291603   -5.2475268    1384.8104  0.040605512  0.040183224            8 
 2843000   0.77737182   -5.2701008    1382.2205  0.040515314  0.040173867            4 
 2844000   0.80155386    -5.272073    1380.2484  0.040443285  0.040164554            5 
 2845000   0.78978527   -5.2544263    1385.9076  0.040594833    0.0401552            5 
 2846000   0.81498863   -5.2573779    1387.1511   0.04061698  0.040145899            5 
 2847000    0.7931559   -5.2724661    1385.3469  0.040549904  0.040136555            6 
 2848000   0.78905493   -5.2757292    1384.2167  0.040502596  0.040127342            7 
 2849000   0.79893775   -5.2698028    1382.8923  0.040449641  0.040118123            6 
 2850000   0.80274692   -5.2486159    1389.9005  0.040640366   0.04010882            8 
 2851000   0.78122545   -5.2710103    1382.6273  0.040413519  0.040099649            6 
 2852000   0.80781211   -5.2644623    1386.9246  0.040524912  0.040090397            9 
 2853000   0.78711149   -5.2679121    1384.6408     0.040444   0.04008113           10 
 2854000   0.80403226   -5.2566275    1386.8729  0.040495004  0.040071941            8 
 2855000   0.78812256    -5.292651    1388.7309  0.040535051   0.04006279            4 
 2856000   0.79271862   -5.3119706    1389.5164  0.040543778  0.040053639            4 
 2857000   0.79163113   -5.2683509    1387.4647  0.040469743  0.040044456            2 
 2858000   0.78470999   -5.2668716      1389.51   0.04051522   0.04003539            6 
 2859000   0.79324301   -5.2900348    1387.0006  0.040427907  0.040026203           12 
 2860000   0.79068341   -5.2652643    1388.0915  0.040445555  0.040017093            7 
 2861000   0.78530286   -5.2774957    1387.8546  0.040424519  0.040007968           14 
 2862000   0.79161102   -5.2885217    1390.8492   0.04049759  0.039998819            7 
 2863000   0.78735033    -5.270252    1388.8584  0.040425498  0.039989653            8 
 2864000   0.78356773   -5.2703014     1386.513   0.04034314  0.039980467            7 
 2865000   0.79698142    -5.256514    1388.5289  0.040387694  0.039971242            5 
 2866000   0.78390129   -5.2585515    1387.3597  0.040339605  0.039962135            5 
 2867000    0.7954879   -5.2471401    1391.8556  0.040456213  0.039953059            5 
 2868000   0.80852593    -5.248078    1391.1255  0.040420893  0.039943992            5 
 2869000   0.79444481   -5.2758968    1394.5274  0.040505616  0.039934888            4 
 2870000    0.7976526    -5.249299       1392.4  0.040429733  0.039925804            5 
 2871000   0.75841111   -5.2723089    1391.7861  0.040397833  0.039916672           11 
 2872000   0.78899535   -5.2658208    1391.8346  0.040385172   0.03990754            8 
 2873000   0.80809116   -5.2609386    1393.0708  0.040406973  0.039898445            2 
 2874000   0.79913764   -5.2693007    1389.0614  0.040276657  0.039889361            5 
 2875000   0.78746777   -5.2651105    1392.2979   0.04035646  0.039880202           11 
 2876000   0.78874214   -5.2559855    1386.5067  0.040174627  0.039871038            6 
 2877000   0.80067103   -5.2618435    1393.5068  0.040363421  0.039861952            5 
 2878000   0.78188268   -5.2863361    1389.9713  0.040247026  0.039852893            6 
 2879000   0.80420931   -5.3026697    1389.0803  0.040207255  0.039843695           16 
 2880000   0.79835884   -5.2570854    1394.1264  0.040339305  0.039834497            4 
 2881000   0.78034838   -5.2915667    1391.7272  0.040255906  0.039825303            4 
 2882000   0.78586798   -5.2857148    1386.5905  0.040093411  0.039816124            4 
 2883000    0.7990721   -5.2860626    1393.7512  0.040286485  0.039806967            6 
 2884000    0.7765696    -5.301244    1392.3031  0.040230671  0.039797904            9 
 2885000    0.7728671   -5.2757218    1393.5344  0.040252295  0.039788763            6 
 2886000   0.80052785   -5.2524742    1398.0954  0.040370046  0.039779672            5 
 2887000   0.81131219   -5.2723113    1396.4503  0.040308577  0.039770706           11 
 2888000   0.79275416   -5.2515065    1400.3507  0.040407164  0.039761615            4 
 2889000   0.78797584    -5.282592    1394.7431  0.040231428   0.03975252            4 
 2890000   0.77988506   -5.2433962    1398.3039  0.040320183  0.039743544            4 
 2891000   0.78045962   -5.3051174    1394.8114  0.040205563  0.039734379            5 
 2892000   0.78603653    -5.263297    1394.2828   0.04017643  0.039725311            6 
 2893000   0.78380643   -5.2538248    1399.0659   0.04030032  0.039716325            4 
 2894000   0.78609351   -5.3170292    1392.6334   0.04010117  0.039707207            8 
 2895000   0.78725921   -5.2970826    1395.1811  0.040160652  0.039698081            7 
 2896000   0.77873328    -5.257704    1398.3158  0.040236989  0.039688945            6 
 2897000   0.78888565   -5.2558489    1397.8633  0.040210082  0.039679921           10 
 2898000   0.78259622   -5.2872756    1396.2016  0.040148425  0.039670935            5 
 2899000   0.78573863   -5.3199501    1394.9417  0.040098359  0.039661793            5 
 2900000    0.7818906   -5.2933512    1397.7074  0.040164006   0.03965266            8 
 2901000    0.7928841   -5.3252765    1397.3918  0.040141095  0.039643551            4 
 2902000   0.78451334   -5.3035405     1395.267  0.040066246  0.039634502            6 
 2903000   0.78325135   -5.2890576    1393.6978  0.040007399  0.039625285           17 
 2904000   0.79667178   -5.2786168    1399.0196  0.040146337  0.039616237            3 
 2905000    0.7899905   -5.2861927    1396.7819  0.040068328  0.039607129            6 
 2906000   0.78764231   -5.2793943    1396.7777  0.040054419  0.039597997            6 
 2907000   0.78412138   -5.2782608    1398.2715  0.040083461  0.039589052            7 
 2908000   0.78453875   -5.2786782    1401.9817  0.040176001  0.039580205            7 
 2909000   0.78904324   -5.2822837     1397.039  0.040020596  0.039571254           11 
 2910000   0.79268232   -5.2736442    1400.4027  0.040103171  0.039562258            5 
 2911000   0.78147204   -5.2912426    1395.0251  0.039935449  0.039553233            8 
 2912000   0.78163846   -5.3075958    1399.9213  0.040061851  0.039544205            3 
 2913000   0.79517839   -5.2755227    1400.2583  0.040057738  0.039535186            6 
 2914000   0.79578747   -5.3087863    1396.7095  0.039942504  0.039526236            6 
 2915000   0.81455042   -5.2729052    1398.0789   0.03996795  0.039517243            5 
 2916000   0.77901977   -5.2843195    1398.2019  0.039957758  0.039508244            8 
 2917000   0.77913649   -5.2630485    1402.9059  0.040078444  0.039499291           11 
 2918000   0.79600386   -5.3216021     1401.239  0.040017107  0.039490361            3 
 2919000   0.77027071   -5.3192335    1400.6469  0.039986493  0.039481398            4 
 2920000   0.80729566   -5.2844881    1405.9442   0.04012398  0.039472382            6 
 2921000   0.76567909   -5.2743924    1400.5409  0.039956092  0.039463496            5 
 2922000   0.78722639   -5.3158631    1399.7265  0.039919192  0.039454475            5 
 2923000   0.79668606   -5.2750353    1400.9757  0.039941148  0.039445433            6 
 2924000   0.76672032   -5.2998937    1397.9883  0.039842349  0.039436369            8 
 2925000   0.80657797     -5.30945    1397.8219  0.039823985  0.039427269            9 
 2926000   0.78596651    -5.292709    1393.6547  0.039691692  0.039418164            5 
 2927000   0.79063925   -5.2787166    1399.0517  0.039831787   0.03940901            6 
 2928000   0.77612146   -5.2970873    1399.6691  0.039835756   0.03939986            7 
 2929000   0.77936725   -5.2943345    1400.2454   0.03983855   0.03939075           11 
 2930000   0.76121397   -5.3056596    1396.3838  0.039715124  0.039381562           11 
 2931000   0.78671105   -5.3070674    1400.4683  0.039817706  0.039372334           19 
 2932000   0.77643665   -5.2968766    1402.9091  0.039873495  0.039363309            9 
 2933000   0.76869495   -5.2766714    1396.8001  0.039686332  0.039354135            4 
 2934000   0.78252338   -5.3164381    1398.5202  0.039721659  0.039345016           11 
 2935000   0.78587403   -5.3014356    1399.2347  0.039728414  0.039335845            8 
 2936000     0.774476   -5.2870208    1402.0309  0.039794247  0.039326703            3 
 2937000   0.76385874   -5.2767203    1402.9067  0.039805548  0.039317529            8 
 2938000   0.77966446   -5.3120369    1401.4111  0.039749578  0.039308423           12 
 2939000   0.77522983   -5.2957028    1399.5688  0.039683815  0.039299291            2 
 2940000   0.78077431   -5.2795645    1403.4434  0.039780141  0.039290186            9 
 2941000   0.78597128   -5.3144677    1402.4645  0.039738879  0.039281105            6 
 2942000   0.75728377   -5.3043749    1399.8009  0.039649924  0.039271925            6 
 2943000   0.78046877   -5.2919578    1404.9848  0.039783236  0.039262769            2 
 2944000   0.77637014   -5.3190703    1398.5047  0.039586296  0.039253584            5 
 2945000   0.77062914   -5.3027298    1399.9929  0.039614967  0.039244421            5 
 2946000   0.79087337    -5.304344    1400.8506  0.039625779  0.039235256            6 
 2947000   0.77973456   -5.2860993    1405.4451  0.039742254  0.039226071            7 
 2948000   0.77719024   -5.2948066    1406.5452   0.03975987  0.039216908            5 
 2949000   0.77926656   -5.3417671    1400.4769  0.039574908  0.039207709           14 
 2950000   0.77329582   -5.3441447     1401.656  0.039594802  0.039198443           11 
 2951000   0.76856321   -5.2828651     1401.742  0.039583813  0.039189244            7 
 2952000    0.7810999   -5.2869025    1406.1195  0.039693978  0.039180242            8 
 2953000   0.77743091    -5.317076    1401.8024  0.039558708  0.039171156            6 
 2954000   0.76457143   -5.3083984    1400.3434  0.039504158   0.03916197            3 
 2955000   0.76918487   -5.3461528    1400.1448  0.039485188  0.039152803           18 
 2956000   0.77768269   -5.2638062    1405.9593  0.039635749  0.039143678            9 
 2957000   0.78399099    -5.297055    1401.8684  0.039507057  0.039134562           13 
 2958000   0.76611318   -5.3004045    1403.5919  0.039542256  0.039125448            4 
 2959000    0.7792701   -5.3320271    1399.8287  0.039422911  0.039116237           10 
 2960000    0.7807772    -5.323029    1404.6491  0.039545301  0.039107062            3 
 2961000   0.77088292    -5.312261    1404.0797   0.03951592  0.039097896            3 
 2962000   0.76970872   -5.3036798    1403.2894  0.039480346  0.039088699            3 
 2963000   0.78752965   -5.3119185    1399.0552  0.039347937  0.039079573            6 
 2964000   0.78309998   -5.2841425    1403.3343  0.039454967   0.03907041           10 
 2965000   0.77812393   -5.2935426    1403.7025  0.039452009  0.039061194            8 
 2966000   0.78282562    -5.315994    1401.3482  0.039372562  0.039052007            7 
 2967000    0.7724601    -5.312637    1405.7216  0.039482124  0.039042765            5 
 2968000   0.77815732   -5.2890778    1405.2264  0.039454919  0.039033575           13 
 2969000   0.76895731   -5.2697766    1403.0469  0.039380457  0.039024329           12 
 2970000   0.76430926   -5.2815657    1405.3629  0.039432181  0.039015138           12 
 2971000   0.77066788   -5.3007197    1402.0609  0.039326289  0.039005903            8 
 2972000   0.78028901   -5.3241528    1404.7466  0.039388364  0.038996622            6 
 2973000    0.7618266   -5.3419934    1399.3468  0.039223758  0.038987265            7 
 2974000   0.78066867   -5.3095422     1407.202  0.039430676   0.03897805            5 
 2975000   0.76804846   -5.3075241     1408.033  0.039440699  0.038968815            6 
 2976000    0.7777916    -5.273828    1408.8007  0.039448944  0.038959641            6 
 2977000    0.7888233   -5.3081333     1406.108  0.039360319  0.038950505            8 
 2978000   0.76819108   -5.3110419    1407.2937  0.039380281  0.038941258            7 
 2979000   0.77196855   -5.3140661    1406.4288  0.039342868  0.038931995            7 
 2980000   0.78006221   -5.3083808    1403.6087  0.039250803  0.038922641            7 
 2981000   0.76765548   -5.3143278    1406.3402  0.039313994  0.038913349            4 
 2982000   0.77883909   -5.3190756    1406.2854  0.039299279  0.038904144            5 
 2983000   0.77036338   -5.3086043    1407.9773  0.039333369  0.038894912            3 
 2984000   0.77906397    -5.321093    1406.3922  0.039275921  0.038885811            6 
 2985000   0.76567853   -5.3284616    1405.9068  0.039249213  0.038876547            5 
 2986000   0.78103454   -5.3242647    1405.6955  0.039230172   0.03886734            5 
 2987000   0.76176759   -5.3463215    1403.4717  0.039154998  0.038858087           11 
 2988000   0.76911743   -5.2870942    1407.5927  0.039256823  0.038848798            6 
 2989000   0.75867482   -5.3063949    1406.5211  0.039213814  0.038839577            5 
 2990000   0.74971105   -5.3344186     1407.417  0.039225669  0.038830413            5 
 2991000   0.76183622   -5.3132104    1409.0116  0.039256981  0.038821179            4 
 2992000   0.78699716   -5.2929309     1411.177  0.039304172  0.038812039            5 
 2993000   0.77766072   -5.3366328     1406.552  0.039162267  0.038802957            7 
 2994000   0.77838822   -5.3115927    1408.7357  0.039209968  0.038793822            4 
 2995000   0.78614854   -5.3192811    1408.5017  0.039190363   0.03878467           10 
 2996000   0.77494171   -5.3228091    1410.2658  0.039226351  0.038775524            9 
 2997000   0.78353667   -5.3032867    1409.9469  0.039204397    0.0387663            7 
 2998000   0.77906983    -5.315996    1411.7254  0.039240754  0.038757167            4 
 2999000   0.76233566   -5.3087304    1410.3341  0.039189009  0.038747993           13 
 3000000   0.77211729   -5.3239654    1407.0913  0.039085869  0.038738745           11 
 3001000   0.77590135   -5.3059851    1414.6176   0.03928184  0.038729595            7 
 3002000   0.77253846   -5.3218068    1407.3947  0.039068251  0.038720406            7 
 3003000   0.78192182    -5.313362    1411.8215  0.039178086  0.038711234           15 
 3004000   0.76922696   -5.3289374    1408.6373  0.039076712  0.038702153            5 
 3005000   0.77484867   -5.3038154    1409.4403  0.039085977  0.038693048            3 
 3006000   0.77409809   -5.3709375    1407.9352  0.039031248  0.038683856            9 
 3007000    0.7724681   -5.3244142    1411.8474  0.039126689  0.038674626            9 
 3008000   0.78777775   -5.3152727    1407.5494  0.038994608  0.038665394            9 
 3009000   0.76894463   -5.3183172    1408.3149  0.039002851  0.038656234           13 
 3010000   0.77189144   -5.3454371    1405.4072   0.03890939  0.038647046            9 
 3011000   0.77138884    -5.318841    1414.0476  0.039135603   0.03863787            5 
 3012000   0.76511889   -5.3268868    1407.2643  0.038934935  0.038628733            7 
 3013000   0.75396677   -5.3150449    1410.6793  0.039016465   0.03861955           10 
 3014000   0.76462688   -5.3232234    1410.4995  0.038998549    0.0386103            7 
 3015000   0.78052777   -5.3274231    1407.8505  0.038912397  0.038601034            4 
 3016000    0.7696036   -5.3052508    1408.0417  0.038904778  0.038591718            9 
 3017000   0.77336507   -5.3214119     1409.903  0.038943292  0.038582515            4 
 3018000   0.75246417   -5.3445633    1404.6844  0.038786294  0.038573228            3 
 3019000    0.7760027     -5.33838    1411.5576  0.038963167  0.038563985           15 
 3020000   0.75243577   -5.3015434    1409.7092  0.038899261  0.038554653            7 
 3021000   0.74902915   -5.3134902    1415.5806  0.039048346   0.03854544            8 
 3022000   0.75952006   -5.3298172    1412.1191  0.038939972  0.038536253           10 
 3023000   0.77930915   -5.3182209    1409.1756  0.038845946  0.038527003            7 
 3024000   0.75889695   -5.2941127    1415.1804  0.038998577  0.038517766            4 
 3025000   0.76041989   -5.3000888    1413.1586   0.03892999  0.038508596            5 
 3026000   0.77369845   -5.3038163    1412.0837  0.038887522  0.038499424           10 
 3027000   0.77123992   -5.3192098    1415.6573  0.038973055  0.038490169           11 
 3028000   0.76078651   -5.3260197    1412.4092  0.038870794  0.038480936            7 
 3029000   0.77548223   -5.3330215    1410.2045  0.038797308  0.038471682            9 
 3030000   0.77200772   -5.3025162    1414.7528  0.038909592  0.038462493           17 
 3031000   0.76086975   -5.3407199    1410.7734  0.038787348  0.038453291           11 
 3032000   0.76695436   -5.3131741    1416.6784  0.038936852  0.038444078           10 
 3033000   0.75642542   -5.3392149    1411.6109  0.038784782  0.038434873            4 
 3034000   0.77971039   -5.3359966    1413.6442  0.038827846  0.038425742            7 
 3035000   0.77736822   -5.3344203    1410.5981  0.038731414  0.038416561            6 
 3036000   0.75478216    -5.319033    1417.2916  0.038902383  0.038407362            5 
 3037000   0.77777997   -5.3494335    1415.0004  0.038826705  0.038398215           14 
 3038000   0.76932232   -5.3491624     1412.972  0.038758284  0.038389039           16 
 3039000   0.75027192    -5.335332    1417.1217  0.038859322  0.038379882            5 
 3040000   0.78049548   -5.3454187    1412.1778  0.038711013  0.038370706            6 
 3041000   0.76199388   -5.3557712    1413.1073  0.038723756  0.038361592            4 
 3042000   0.76846283   -5.3227073    1420.4353   0.03891177  0.038352458           10 
 3043000   0.74998292   -5.3065575       1417.9  0.038829553  0.038343349            5 
 3044000    0.7798677   -5.3253699    1418.8982  0.038844126    0.0383342            6 
 3045000   0.77871587   -5.3471832    1416.2319  0.038758399  0.038325021            5 
 3046000   0.76304552   -5.3445491    1418.4727   0.03880698  0.038315863            5 
 3047000   0.77924435   -5.3611611    1415.4286  0.038710988  0.038306779            5 
 3048000   0.77954086   -5.3504272    1412.4096  0.038615747  0.038297697            6 
 3049000   0.76103282   -5.3400463    1420.6682  0.038828801  0.038288717            7 
 3050000   0.76287993   -5.3222668    1418.0087  0.038743407  0.038279771            6 
 3051000   0.76075643   -5.3216479    1419.5309  0.038772284  0.038270725            3 
 3052000   0.77878585   -5.3458807    1416.8181   0.03868551  0.038261823            5 
 3053000   0.76795558   -5.3266242    1417.2911   0.03868575  0.038252848            7 
 3054000    0.7651374   -5.3238109     1415.979   0.03863728  0.038243793            4 
 3055000   0.75410228   -5.3595894    1415.6639  0.038616036  0.038234732           16 
 3056000   0.74496202   -5.3368601    1423.5019  0.038817133  0.038225631           14 
 3057000   0.75948906   -5.3377122    1421.5446  0.038751079  0.038216593            5 
 3058000   0.77431852   -5.3268511    1418.2938  0.038649821  0.038207559            5 
 3059000   0.76512584    -5.344353    1419.0844  0.038658724  0.038198476           11 
 3060000   0.76742531   -5.3462451    1420.8149  0.038693216   0.03818945            8 
 3061000   0.75699448   -5.3785951    1417.9269  0.038601952   0.03818038            6 
 3062000   0.76823694   -5.3290596    1417.0498  0.038565475   0.03817133            9 
 3063000   0.75566034   -5.3218891    1420.6236  0.038650115  0.038162274            6 
 3064000   0.76482329   -5.3597929     1417.813  0.038561058  0.038153215            4 
 3065000   0.75391402   -5.3470925     1419.475  0.038593665   0.03814413            6 
 3066000   0.75996984   -5.3137608    1422.3068  0.038658046  0.038135109            5 
 3067000   0.76303606   -5.3313905    1421.8755  0.038633722  0.038126064            9 
 3068000   0.78350627   -5.3569109    1421.4339  0.038609135  0.038117021            5 
 3069000   0.77323048   -5.3307763    1420.3552  0.038567263  0.038107894            6 
 3070000   0.75316788   -5.3676149    1418.5239  0.038504991  0.038098789            6 
 3071000   0.75560032    -5.314125    1421.0623  0.038561334  0.038089598            5 
 3072000   0.75268832   -5.3386076    1421.4435  0.038559123  0.038080528            5 
 3073000   0.77714374   -5.3354059    1421.1857  0.038539585  0.038071492            7 
 3074000   0.76550484   -5.3621818    1419.2509  0.038474597  0.038062426           17 
 3075000   0.76121383   -5.3437702    1421.1982  0.038514855  0.038053297           13 
 3076000   0.75239071     -5.34355    1419.6398  0.038460116  0.038044208            6 
 3077000   0.76549136   -5.3549613    1423.4428  0.038550611  0.038035195            3 
 3078000   0.75237005   -5.3541553    1420.9421  0.038470384  0.038026158            7 
 3079000   0.76379393   -5.3384048    1421.5391  0.038474048  0.038017097            8 
 3080000   0.75571576    -5.360405    1422.4217  0.038485434  0.038008093           11 
 3081000   0.78391173   -5.3661817    1425.6433   0.03856008  0.037999037           10 
 3082000   0.74428965    -5.346848    1421.7359  0.038441918  0.037990021            6 
 3083000   0.75872593   -5.3655836    1417.5289  0.038315735  0.037981001            6 
 3084000   0.74741864   -5.3643323    1422.2885  0.038431921  0.037971914            6 
 3085000   0.76647941   -5.3280678    1424.8354  0.038488259   0.03796288            9 
 3086000   0.73230277   -5.3253259    1423.9942  0.038453074  0.037953855            5 
 3087000   0.75160045   -5.3754028    1419.8579  0.038328957  0.037944792           16 
 3088000   0.75369321   -5.3566799    1424.5595  0.038443423  0.037935741            5 
 3089000   0.77142581   -5.3281701    1427.5619  0.038511975  0.037926789            3 
 3090000   0.76919715    -5.376398     1426.102  0.038460141  0.037917779            4 
 3091000   0.74014768    -5.347272    1422.0255  0.038337796   0.03790869           16 
 3092000    0.7753823   -5.3446147     1421.159  0.038302043    0.0378997            7 
 3093000   0.74565573   -5.3436645    1423.5029  0.038352809   0.03789076            4 
 3094000   0.77447033    -5.376327    1424.5138  0.038367642  0.037881824            5 
 3095000   0.75053821   -5.3529368    1426.8592  0.038418394  0.037872915            6 
 3096000   0.76764899   -5.3860229    1423.2775  0.038309579  0.037863942            3 
 3097000   0.74630397   -5.3482498     1427.516  0.038411259  0.037854958            6 
 3098000    0.7576169   -5.3620549    1428.0991  0.038414544  0.037845917            6 
 3099000   0.75418179    -5.336304    1426.3995  0.038356447  0.037837036            4 
 3100000   0.75907461   -5.3689019    1422.2831  0.038233416  0.037828107            5 
 3101000   0.75807918   -5.3498114    1424.1261  0.038270614  0.037819121            5 
 3102000   0.75171355    -5.357492    1430.2056  0.038421598   0.03781026            7 
 3103000   0.76877725   -5.3590637    1422.9734   0.03821499   0.03780136           11 
 3104000   0.77805538   -5.3691248    1426.5497  0.038298692  0.037792381            6 
 3105000   0.75369438    -5.369522    1423.4667  0.038203616  0.037783464            9 
 3106000   0.74391663   -5.3377772     1429.414  0.038350879  0.037774516           15 
 3107000   0.74894694   -5.3386997    1424.5351   0.03820768   0.03776564            9 
 3108000   0.76632276   -5.3464212    1425.3654  0.038217648  0.037756717            7 
 3109000   0.74890796   -5.3348559     1428.059  0.038277556   0.03774777            4 
 3110000   0.73466697   -5.4011176    1422.0378  0.038103907  0.037738752            7 
 3111000   0.76602673     -5.35475    1424.3112  0.038152554  0.037729739            6 
 3112000   0.74476165   -5.3373957    1431.5992  0.038335455   0.03772079           11 
 3113000   0.76086063   -5.3717898    1425.5033  0.038159955  0.037711905            6 
 3114000   0.75355343   -5.3512876    1423.8727  0.038104065  0.037702989            5 
 3115000   0.76967591   -5.3330093    1428.5724  0.038217561  0.037694023            7 
 3116000   0.75368481   -5.3623381    1428.5138  0.038203729  0.037685049            5 
 3117000   0.75104837   -5.3622273    1423.0651    0.0380458  0.037675977            9 
 3118000   0.75120235   -5.3521949    1423.9653  0.038057656  0.037666887           10 
 3119000    0.7569373   -5.3744325    1427.4262  0.038137923  0.037657868            3 
 3120000   0.74271441   -5.3509489    1426.0971  0.038090199  0.037648903           14 
 3121000   0.74889689   -5.3453249    1431.1587  0.038213146   0.03763999            9 
 3122000   0.75891248   -5.3732386    1424.7857  0.038030794  0.037630973            5 
 3123000   0.74257947   -5.3747835    1425.6366  0.038041323  0.037621993            8 
 3124000   0.77142026   -5.3538172    1425.7868  0.038033152  0.037612906            5 
 3125000   0.74782301   -5.3869222    1426.0797  0.038028792  0.037603952            7 
 3126000   0.74991935   -5.3598319    1427.0557  0.038042644  0.037594878           13 
 3127000   0.74436764   -5.3515724    1428.9557  0.038081112  0.037585847            7 
 3128000   0.75384039   -5.3671076    1425.8244  0.037985518   0.03757685            5 
 3129000   0.75968224   -5.3535961    1430.3841  0.038094814  0.037567835            4 
 3130000   0.74205629     -5.37192    1428.3006  0.038027173   0.03755881            7 
 3131000   0.75546123   -5.3835766    1429.0873  0.038035965   0.03754975            7 
 3132000   0.74797416   -5.3745337    1432.2835  0.038108864  0.037540771           13 
 3133000    0.7512951   -5.3642705    1430.6436  0.038053079  0.037531816           30 
 3134000   0.77097163   -5.3731802     1427.228  0.037950118  0.037522846            7 
 3135000   0.72635678   -5.3510471    1429.7483  0.038005005  0.037513835            5 
 3136000   0.76930582    -5.370878     1433.387  0.038089577  0.037504926            9 
 3137000   0.75287658   -5.3770628    1428.5443   0.03794879  0.037496026           11 
 3138000   0.75883005   -5.3449465     1430.693   0.03799376  0.037487093            8 
 3139000   0.75335826   -5.3745362    1428.9155  0.037934467  0.037478104            5 
 3140000    0.7511692   -5.3772681    1429.8359  0.037946813  0.037469076            6 
 3141000   0.75397162   -5.3905948      1429.32  0.037921044  0.037460166            6 
 3142000   0.76662763   -5.3924472    1424.8225  0.037789691  0.037451097            3 
 3143000   0.75166779   -5.3618811    1431.0531  0.037942864  0.037442096           11 
 3144000   0.75743119   -5.3881633    1425.7748  0.037790892  0.037433018           16 
 3145000    0.7361478   -5.3776821    1427.8827  0.037834729  0.037423943           17 
 3146000   0.74266371   -5.3719195    1430.7201  0.037897862  0.037414936            5 
 3147000   0.72939942   -5.3780194    1426.4305   0.03777223  0.037405872           11 
 3148000   0.75222141   -5.3718785    1426.9868  0.037774957  0.037396803            9 
 3149000   0.74141883   -5.3739861    1427.9961  0.037789671  0.037387688            7 
 3150000   0.74156286   -5.3655259    1429.2958  0.037812057  0.037378597           22 
 3151000   0.73503746   -5.3705389    1434.7306   0.03794379  0.037369614            6 
 3152000   0.75136701    -5.350764    1425.5245  0.037688358  0.037360535            6 
 3153000   0.77065264    -5.359129    1430.0769  0.037796724  0.037351532            8 
 3154000   0.73818783    -5.361653    1428.4177  0.037740904  0.037342465            5 
 3155000    0.7522781     -5.36619    1432.4105  0.037834403  0.037333427            6 
 3156000   0.73409203   -5.3537083    1437.4328  0.037955028  0.037324412           10 
 3157000   0.75619903   -5.3753117     1431.333  0.037781991  0.037315434           14 
 3158000    0.7577242   -5.3755376    1429.5393  0.037722696  0.037306482            6 
 3159000   0.70121386   -5.3838334    1434.9302  0.037852965  0.037297446            5 
 3160000   0.74956101   -5.3310499      1434.58  0.037831752  0.037288437            6 
 3161000   0.76467927   -5.3612878    1431.4695  0.037737782  0.037279564            4 
 3162000   0.73652227   -5.3640773    1435.5381  0.037833073  0.037270608           14 
 3163000   0.75577033   -5.3852192     1432.596  0.037743599  0.037261709           13 
 3164000   0.73460288   -5.4036914    1430.5683  0.037678263  0.037252666            5 
 3165000   0.75058886   -5.3531625    1433.8211  0.037752005  0.037243601           13 
 3166000   0.74860056   -5.3659994    1433.9525  0.037743537  0.037234578            5 
 3167000   0.74186304   -5.3871335    1434.6385  0.037749672  0.037225586            4 
 3168000   0.75344591   -5.3732178    1432.3333  0.037677119  0.037216584            6 
 3169000   0.73974536   -5.3694005    1435.2344  0.037741515  0.037207603            5 
 3170000   0.74085764   -5.3806279    1432.2632  0.037651503  0.037198654           11 
 3171000   0.74047022   -5.3924945    1435.2167  0.037717247  0.037189731            5 
 3172000   0.75752435   -5.3556639    1436.3338  0.037734704  0.037180809            7 
 3173000    0.7321353   -5.3928726    1435.4756  0.037700274  0.037171871           12 
 3174000    0.7459839   -5.3686232    1434.1461  0.037653489  0.037162892            7 
 3175000   0.73701275   -5.4035088    1430.6845  0.037550773  0.037153849            4 
 3176000   0.74592703   -5.3795301    1435.0608  0.037653779  0.037144845            5 
 3177000    0.7316292   -5.3739861     1432.075  0.037563609  0.037135839            7 
 3178000   0.74511782   -5.3629998    1432.6183  0.037566033  0.037126818            7 
 3179000   0.74244716   -5.3954482    1433.9958  0.037590327  0.037117781            6 
 3180000   0.76338126   -5.3801083    1431.2289  0.037505998   0.03710876            6 
 3181000   0.73487844   -5.4106611    1432.7827  0.037534913  0.037099649            6 
 3182000   0.72689795    -5.361423    1436.7804  0.037627813  0.037090658            8 
 3183000    0.7504218   -5.3635536    1432.9655  0.037516114  0.037081678            8 
 3184000   0.72340886   -5.3592536    1437.4036  0.037620488  0.037072629            6 
 3185000   0.74520487   -5.3795896    1432.5968  0.037482909  0.037063683            8 
 3186000   0.74587196   -5.3888372    1433.9443  0.037506389  0.037054761            8 
 3187000   0.73269557   -5.3915332    1433.3051  0.037477907  0.037045742            3 
 3188000    0.7311146   -5.4027708    1432.4543  0.037443911  0.037036628           13 
 3189000   0.71924014   -5.3710002    1430.8948  0.037391418  0.037027578            8 
 3190000   0.74257602   -5.4218039     1432.899  0.037432053  0.037018494           13 
 3191000   0.72947619    -5.393338    1437.9536  0.037552325  0.037009439            9 
 3192000   0.73953066   -5.3623275    1436.3435  0.037498525  0.037000401           12 
 3193000   0.74943381   -5.3708303    1435.7288  0.037470738   0.03699149            9 
 3194000   0.73851929   -5.3856699    1430.3581  0.037318883  0.036982516           10 
 3195000   0.73941439   -5.3880667    1432.2926  0.037357657  0.036973465           25 
 3196000   0.75631329   -5.3801519    1434.7764  0.037410732  0.036964319            7 
 3197000   0.73920475   -5.4044724    1436.9465  0.037455597  0.036955274            6 
 3198000    0.7462869    -5.382003    1434.9854  0.037392781  0.036946218            5 
 3199000   0.73078541   -5.3992184    1434.0977   0.03735797   0.03693721           11 
 3200000   0.74537092   -5.3863235    1433.5927  0.037333144  0.036928172            8 
 3201000   0.73950181   -5.4044578     1433.514  0.037319432  0.036919178            5 
 3202000    0.7322059   -5.3764071    1437.9255  0.037422587  0.036910216            5 
 3203000   0.73446594   -5.3616189    1436.0945  0.037363266  0.036901297            5 
 3204000   0.72790612   -5.3784429    1434.6564  0.037314201  0.036892387            4 
 3205000   0.74102878   -5.3862899    1438.5344  0.037403391  0.036883421            5 
 3206000   0.73395723   -5.3995403    1435.3733  0.037309557  0.036874431            8 
 3207000    0.7272293   -5.3940943    1435.3837  0.037298195  0.036865413            5 
 3208000   0.73955885   -5.3624876    1437.8247  0.037349978  0.036856448            5 
 3209000   0.73828933   -5.3740209    1438.9646  0.037367938  0.036847464            8 
 3210000   0.72875566   -5.3926464    1435.1398  0.037257005  0.036838455            9 
 3211000   0.74591128   -5.3874671    1432.4458  0.037175486  0.036829526            5 
 3212000    0.7431071   -5.4073432     1436.492  0.037268889  0.036820412            8 
 3213000   0.76231789   -5.3942647    1440.5433  0.037362363  0.036811433           12 
 3214000    0.7542086   -5.3945682    1434.5499  0.037195341  0.036802464            7 
 3215000   0.73560263   -5.3578627    1440.4916  0.037337782  0.036793577            4 
 3216000   0.74128435   -5.3760145    1438.0943  0.037264053  0.036784591           12 
 3217000   0.73143053   -5.3855491    1435.7724  0.037192323   0.03677558            8 
 3218000   0.74393449   -5.3952212    1437.6703  0.037229912  0.036766594            5 
 3219000   0.74380614   -5.4030919    1438.8587  0.037249112  0.036757596            6 
 3220000   0.72972826   -5.3906334    1443.4728  0.037356957   0.03674862           10 
 3221000   0.72978624   -5.3643166    1439.0267   0.03723033  0.036739568           11 
 3222000   0.72458906   -5.4033753    1437.6234  0.037182479  0.036730617            9 
 3223000   0.75044184   -5.3821483     1442.864  0.037306442  0.036721657            6 
 3224000   0.72963009   -5.3762945    1436.3223  0.037125783  0.036712715           11 
 3225000   0.74242024   -5.4020279    1439.5194  0.037196882  0.036703801            6 
 3226000   0.74064669   -5.3924043    1441.4952  0.037236392  0.036694875            8 
 3227000   0.75926302   -5.4079097    1439.2545  0.037166989  0.036685931            6 
 3228000   0.72704694   -5.3964911    1440.5489  0.037188893  0.036676982            5 
 3229000   0.74237853   -5.3903921    1438.4814  0.037124018  0.036667976            8 
 3230000   0.73964413   -5.4114366    1441.0882  0.037179777  0.036658922            6 
 3231000   0.73997568   -5.3799922    1444.9444  0.037267728  0.036650069            6 
 3232000   0.73718408   -5.3982084    1441.9089  0.037177931  0.036641115            9 
 3233000   0.72611091   -5.4146525    1438.5527  0.037079922  0.036632131           12 
 3234000   0.74258719   -5.4188375    1437.0787  0.037030476  0.036623167           12 
 3235000   0.71171623    -5.417697     1442.328  0.037154251  0.036614167           10 
 3236000   0.73849064   -5.4088707    1437.0575  0.037007044  0.036605202            8 
 3237000   0.73740899   -5.4026982    1438.9411  0.037044103  0.036596204            5 
 3238000   0.72710503   -5.3839105    1442.4959  0.037124147  0.036587237            6 
 3239000   0.72091886   -5.3681573    1441.6634  0.037091268  0.036578327            7 
 3240000   0.72403314   -5.4037346    1438.8376  0.037007139  0.036569422            5 
 3241000   0.74148998   -5.4020383    1445.2603  0.037160863    0.0365605            8 
 3242000   0.73544687   -5.4043377    1444.1951  0.037122021   0.03655162           11 
 3243000   0.73224731   -5.3987671    1441.8191   0.03704952  0.036542674            7 
 3244000   0.73995748   -5.4057789     1442.432  0.037053844  0.036533678            9 
 3245000   0.74832197   -5.4004541    1443.1287  0.037060315  0.036524723            8 
 3246000    0.7356984   -5.4057267    1440.4579  0.036980333  0.036515796           11 
 3247000   0.73011208   -5.4044542    1442.4535  0.037020161   0.03650685           11 
 3248000   0.74360952   -5.4126117     1441.627  0.036987556  0.036497968            4 
 3249000   0.72736636   -5.4155354     1441.415  0.036970734  0.036489041            7 
 3250000   0.74626973    -5.436926    1439.6481  0.036914055  0.036480076           10 
 3251000   0.74716029   -5.3918823    1441.9705  0.036962231    0.0364712            9 
 3252000   0.73152347   -5.4145615    1441.0845  0.036928159  0.036462345            5 
 3253000   0.72295573   -5.3983859    1438.9624  0.036862445   0.03645342            7 
 3254000   0.72113285   -5.4156975    1443.4725  0.036966618  0.036444484            7 
 3255000   0.73473494   -5.4034516     1443.828  0.036964363  0.036435535            6 
 3256000   0.74010251   -5.4107123    1439.9186  0.036852954  0.036426627           10 
 3257000   0.72390746   -5.4008967    1443.9665  0.036945208  0.036417657            6 
 3258000   0.73570022   -5.4017498    1443.4916  0.036921721  0.036408701           17 
 3259000    0.7408174   -5.3998549    1441.3078  0.036854552  0.036399734            6 
 3260000   0.73835124    -5.403175    1443.8408  0.036907997  0.036390747            6 
 3261000   0.73370325   -5.4078247    1442.8064  0.036870245  0.036381754            4 
 3262000   0.72910186   -5.4297225    1444.0601  0.036890969  0.036372761            5 
 3263000   0.73117827    -5.407208    1439.5497  0.036764473  0.036363832            7 
 3264000   0.71997925   -5.3758523    1443.7569  0.036860625  0.036354938            5 
 3265000   0.72208281   -5.4024936    1443.8525  0.036851775  0.036346043           10 
 3266000   0.73042616   -5.4114683    1443.4874  0.036831175  0.036337099           16 
 3267000   0.72794846   -5.3988406    1447.4605  0.036921245  0.036328159            7 
 3268000   0.73051861   -5.4313319    1447.1708   0.03690256  0.036319221           13 
 3269000   0.71605822   -5.4304254    1443.7265   0.03680347  0.036310278           24 
 3270000   0.73691265   -5.4234372    1440.4071  0.036707623  0.036301333            9 
 3271000   0.72481946   -5.4228331    1442.4616  0.036748741  0.036292338            6 
 3272000   0.72695219   -5.3605857    1443.3786  0.036760866  0.036283431            4 
 3273000   0.73550642   -5.4207063    1439.9541  0.036662442   0.03627452            9 
 3274000    0.7182774   -5.3867695    1445.3104  0.036787579  0.036265645            8 
 3275000    0.7328879   -5.4256897    1443.1251   0.03672074  0.036256712           12 
 3276000    0.7223623   -5.4260861    1442.9522  0.036705133  0.036247634            4 
 3277000    0.7286536   -5.4253499    1444.2824  0.036727758  0.036238608           14 
 3278000   0.72159519   -5.3973988    1444.0327  0.036710206   0.03622967            8 
 3279000   0.73284531   -5.3937891    1443.6975  0.036690492  0.036220778            8 
 3280000    0.7371367   -5.4039362    1444.2472  0.036693273  0.036211825            7 
 3281000   0.72722406   -5.4022019     1445.149  0.036704994    0.0362029           12 
 3282000   0.73262221   -5.4319153    1443.2606  0.036645861  0.036193951            9 
 3283000   0.73360358   -5.3971831    1447.8409  0.036750962   0.03618499            3 
 3284000   0.74534116   -5.4005943    1447.3538  0.036727411   0.03617616            6 
 3285000    0.7285487   -5.3950858      1445.65  0.036673007  0.036167326           14 
 3286000    0.7301983   -5.4106069    1448.4659  0.036733261  0.036158461            5 
 3287000   0.73890055   -5.4307821    1443.1828  0.036588144  0.036149569            6 
 3288000   0.72567439   -5.4225348    1445.1233    0.0366262   0.03614071           14 
 3289000   0.72070589   -5.4145939    1449.8746  0.036735447  0.036131915           10 
 3290000    0.7224557   -5.4041514    1448.7736  0.036696392  0.036123137            7 
 3291000   0.72770714   -5.4028312    1447.5772  0.036654949  0.036114281           10 
 3292000   0.73093629   -5.4218813    1446.6863   0.03662126  0.036105463           13 
 3293000   0.72583285   -5.4535245    1447.3213   0.03662621  0.036096627           12 
 3294000   0.73115862   -5.4138544    1445.3124  0.036564267  0.036087708           10 
 3295000    0.7388086   -5.4375635    1445.4606   0.03655692   0.03607882           13 
 3296000   0.71023196   -5.4367686    1446.2979  0.036566997  0.036069971            7 
 3297000   0.73392406   -5.4367464    1447.6252  0.036589456  0.036061108           11 
 3298000   0.72118991   -5.3975659    1451.6293  0.036679535  0.036052226           10 
 3299000   0.71745947    -5.415957    1452.4047  0.036688004  0.036043437            6 
 3300000   0.72407552   -5.3833753    1453.1032  0.036694524   0.03603469            7 
 3301000   0.73989336    -5.402321      1447.21  0.036534636  0.036025943            8 
 3302000   0.71980328    -5.444684    1445.8316  0.036488784  0.036017089           16 
 3303000   0.72666645   -5.3909263    1449.1015  0.036560235  0.036008228           14 
 3304000   0.72960527   -5.4152153    1449.7437  0.036565368  0.035999418            9 
 3305000   0.72579783   -5.4153678    1450.7297  0.036579165  0.035990578           14 
 3306000   0.73183709    -5.425514    1454.8091   0.03667093  0.035981746            7 
 3307000   0.73996025   -5.4430664     1445.275  0.036419591  0.035972912            8 
 3308000   0.72135537    -5.439177    1451.2594  0.036559335   0.03596404           11 
 3309000   0.70225973   -5.4405833    1447.2642  0.036447672  0.035955177            7 
 3310000   0.73233765   -5.4449867    1448.4456  0.036466405  0.035946278            7 
 3311000   0.71974198   -5.4476995     1450.246  0.036500704  0.035937422           12 
 3312000   0.72894304   -5.4268646    1452.3819  0.036543424   0.03592857            8 
 3313000   0.72430052   -5.4473941    1446.9162  0.036394915  0.035919702            9 
 3314000   0.71532592    -5.417822    1448.5579  0.036425213  0.035910853            7 
 3315000    0.7188536   -5.4248227    1450.1036  0.036453081  0.035902038            8 
 3316000   0.73506473   -5.4196358    1453.0735  0.036516725  0.035893265           10 
 3317000    0.7282276   -5.4210054    1449.8808  0.036425505  0.035884477            7 
 3318000   0.73425561   -5.4290915    1450.6783  0.036434555  0.035875658            9 
 3319000   0.71572663   -5.4463661    1451.7197  0.036449727  0.035866892            4 
 3320000   0.71116635   -5.4231822    1451.2863   0.03642787  0.035858127           11 
 3321000   0.72190814   -5.4413918    1451.7774  0.036429222  0.035849302            8 
 3322000   0.71169496   -5.4118591    1450.2656  0.036380333  0.035840561           10 
 3323000   0.71779137   -5.4255133    1451.4387  0.036398804  0.035831735           13 
 3324000     0.723425   -5.4398629    1448.6356  0.036317579  0.035822911           13 
 3325000   0.72570496   -5.4311158    1454.7062  0.036458801  0.035814126            6 
 3326000   0.71155555   -5.4288954    1452.9691  0.036404317  0.035805356            9 
 3327000   0.71442228   -5.4225415    1453.7244  0.036412293  0.035796538           10 
 3328000   0.72689563   -5.4305754    1447.6704  0.036249761  0.035787767            8 
 3329000   0.72844917   -5.4467476    1452.8647  0.036368897  0.035778967           16 
 3330000   0.73288482   -5.4246629    1450.6606  0.036302818  0.035770134           11 
 3331000   0.71331682   -5.4236793    1452.0344  0.036326289  0.035761292            8 
 3332000   0.72617763   -5.4572538    1449.9257  0.036262647  0.035752511            7 
 3333000    0.7219613    -5.428784      1450.83  0.036274377  0.035743759            8 
 3334000   0.72314917   -5.4462303    1452.0663  0.036294398  0.035734905            8 
 3335000   0.71986464   -5.3753677     1455.639  0.036372789  0.035726111            8 
 3336000   0.71832746   -5.4269565    1451.8413  0.036267018  0.035717329           10 
 3337000   0.70036166   -5.4418234    1450.7117  0.036227941   0.03570852           10 
 3338000   0.72313425   -5.4282005    1452.8666  0.036270886  0.035699652           14 
 3339000   0.71980403   -5.4489623    1451.9155  0.036236285  0.035690786            9 
 3340000   0.72627047   -5.4433443    1452.1315  0.036230826  0.035681965            9 
 3341000   0.71781069   -5.4381917    1454.3146  0.036274435  0.035673114            7 
 3342000   0.72169102   -5.4493584    1448.1325  0.036109428  0.035664261            7 
 3343000   0.73295321   -5.4225087    1451.5591  0.036184043  0.035655474           10 
 3344000   0.74351637   -5.4498495    1451.2889  0.036166489  0.035646665            6 
 3345000   0.71402357   -5.4396046    1454.7086  0.036240872  0.035637819            9 
 3346000    0.6949514   -5.4632758    1453.6603  0.036203932  0.035628995           13 
 3347000   0.70845714   -5.4406423    1453.7968  0.036196514  0.035620192            9 
 3348000   0.71727589   -5.4388941    1453.4758  0.036177712  0.035611416            8 
 3349000   0.72068097   -5.4576314    1454.3793  0.036189394  0.035602622            6 
 3350000   0.70738252   -5.4529401    1454.1848  0.036173752  0.035593828            7 
 3351000   0.71430719    -5.441335    1457.2925  0.036240239  0.035585124            5 
 3352000   0.71777069   -5.4630851    1459.9236  0.036294839  0.035576405            9 
 3353000   0.71949849    -5.413075    1460.3036   0.03629346   0.03556766            4 
 3354000   0.69958689   -5.4352736    1452.6953  0.036093602  0.035558907            7 
 3355000   0.69475458   -5.4328841    1457.8149  0.036210007   0.03555015            8 
 3356000   0.73386257    -5.460459    1455.5821  0.036143774  0.035541353           14 
 3357000   0.71081115     -5.43563     1455.195  0.036123399  0.035532538            7 
 3358000   0.73069354   -5.4324841    1452.5433  0.036046836   0.03552376           19 
 3359000   0.71205751   -5.4597304    1456.9079  0.036144386  0.035515004           19 
 3360000   0.71279616   -5.4273248    1455.7036   0.03610376  0.035506275           37 
 3361000   0.71429982   -5.4545506    1458.7082  0.036167516  0.035497567           24 
 3362000   0.70789765   -5.4236365     1460.689  0.036205856  0.035488846            8 
 3363000   0.70069244   -5.4558239    1455.6815  0.036071005  0.035480114           12 
 3364000   0.69730159   -5.4737697    1452.4072  0.035979171  0.035471331            9 
 3365000   0.70886337   -5.4516332     1456.654  0.036073651  0.035462547            6 
 3366000   0.72309382   -5.4344268    1456.3987  0.036056613  0.035453816            8 
 3367000   0.70366818   -5.4548578    1457.3529  0.036069521  0.035445142            5 
 3368000   0.72045661   -5.4673542    1453.5377  0.035964412  0.035436427            9 
 3369000   0.71543971   -5.4634101    1457.5684  0.036053439  0.035427733           11 
 3370000   0.70623585   -5.4529088    1459.9461  0.036101535  0.035419013            9 
 3371000   0.71578094   -5.4487513    1457.6634  0.036034397  0.035410279            6 
 3372000   0.71695736   -5.4405428    1455.7981  0.035977613  0.035401579           10 
 3373000   0.70553496   -5.4419496    1458.3241  0.036029354  0.035392936            8 
 3374000   0.72664383   -5.4716928    1456.3415  0.035969708   0.03538422            9 
 3375000   0.70626767   -5.4566118    1455.4077  0.035935993  0.035375498            9 
 3376000   0.71249694   -5.4589346    1452.6001  0.035856046  0.035366673           17 
 3377000    0.7176451   -5.4493835    1456.7862  0.035948726  0.035357869           10 
 3378000   0.70851762   -5.4616649    1458.9144  0.035990586   0.03534914           16 
 3379000   0.71153087   -5.4678713    1454.1859  0.035863319  0.035340403            3 
 3380000    0.7170547   -5.4559241     1460.452    0.0360072  0.035331621           11 
 3381000    0.7054123   -5.4220633    1458.1765  0.035940465  0.035322891            3 
 3382000   0.70262142   -5.4418565    1456.4805  0.035888047  0.035314126            5 
 3383000   0.70756117   -5.4570296     1457.162  0.035894227  0.035305309            8 
 3384000   0.69885764   -5.4718955    1461.8476  0.035999004   0.03529654            7 
 3385000   0.72282387   -5.4294363    1459.5769   0.03593247  0.035287819            6 
 3386000   0.70759653   -5.4718384    1460.3893   0.03594185  0.035279084           10 
 3387000   0.70989196   -5.4810622    1453.6231  0.035764765  0.035270379            8 
 3388000   0.70714273   -5.4454882    1457.1764  0.035841608  0.035261572           15 
 3389000   0.70963799   -5.4566856    1459.3966  0.035885625  0.035252812            6 
 3390000   0.70771212   -5.4601693    1461.0667  0.035916094  0.035244122            5 
 3391000   0.70091648   -5.4534242    1457.3423  0.035813975  0.035235434            8 
 3392000   0.72479871   -5.4563555    1459.0316   0.03584492  0.035226727            5 
 3393000   0.70531963   -5.4517236    1457.0589  0.035785904  0.035218041            4 
 3394000   0.71109416   -5.4594806    1459.9601  0.035846593  0.035209305            7 
 3395000   0.68206323   -5.4320779    1457.8499  0.035784239  0.035200538            6 
 3396000   0.70708416   -5.4588348    1455.1405  0.035707216  0.035191773           10 
 3397000   0.70828577   -5.4860675    1453.4975    0.0356564  0.035182965            6 
 3398000   0.70963287   -5.4547817    1460.5472  0.035818796  0.035174263            8 
 3399000   0.71782394   -5.4664907    1459.0296  0.035771051  0.035165557           10 
 3400000   0.71349457   -5.4448132    1459.0164  0.035760206  0.035156874            3 
 3401000   0.71529052   -5.4463799     1456.893  0.035697663  0.035148141           12 
 3402000   0.69191308   -5.4730906    1455.1743  0.035645069   0.03513943            9 
 3403000   0.70042146   -5.4654763    1458.9567  0.035727218  0.035130682            9 
 3404000   0.70886212    -5.406881    1461.0177  0.035767179  0.035121975            5 
 3405000   0.72161556   -5.4549282    1460.1926   0.03573648  0.035113232            9 
 3406000   0.69173164   -5.4893662    1454.5197  0.035587191  0.035104427            9 
 3407000   0.72721495   -5.4762765    1457.5836  0.035651689  0.035095576            8 
 3408000   0.72629931   -5.4703994    1458.4924  0.035663448  0.035086721           10 
 3409000   0.69909414   -5.4727486    1457.2397  0.035622365  0.035077899            7 
 3410000   0.69555431   -5.4809915    1457.8535  0.035626918  0.035069121           10 
 3411000   0.69581497   -5.4655426    1462.3494  0.035726311  0.035060317           18 
 3412000   0.70917056   -5.4377229     1460.887  0.035680123  0.035051587            9 
 3413000   0.69652158   -5.4942937    1459.3899  0.035633117   0.03504285            9 
 3414000    0.7246243   -5.4876648     1454.857  0.035512033   0.03503401           14 
 3415000   0.68762752    -5.476605     1458.877  0.035599731  0.035025198            5 
 3416000   0.70269603   -5.4355032    1459.3668  0.035601258   0.03501643            4 
 3417000    0.7002977   -5.4634419    1456.9921  0.035532926  0.035007703           13 
 3418000   0.70665582   -5.4759664    1458.9523  0.035570322  0.034998917            8 
 3419000   0.69906378   -5.4772361    1459.9851  0.035585091  0.034990147           12 
 3420000   0.71069419   -5.4734811    1458.9669  0.035549875  0.034981397            9 
 3421000   0.70126653   -5.4675943    1462.1217  0.035616334   0.03497265            8 
 3422000   0.68888004   -5.4545093    1457.6032   0.03549589  0.034963894            9 
 3423000   0.70272337   -5.4797294    1460.1909  0.035548517   0.03495507           13 
 3424000   0.70256773   -5.4629111    1464.0131  0.035631161  0.034946252            4 
 3425000   0.69848576   -5.4644926    1458.2322  0.035480103   0.03493749            9 
 3426000   0.69334727   -5.4660219    1459.5081   0.03550078  0.034928735           17 
 3427000   0.69332868   -5.4732662    1459.0773  0.035479945  0.034919984            6 
 3428000    0.6969981   -5.4725873     1458.028  0.035444088  0.034911241            9 
 3429000   0.70555444   -5.4964678    1457.8645  0.035429777  0.034902438            8 
 3430000   0.69932142   -5.4840182    1456.3787  0.035383351  0.034893587           12 
 3431000   0.70966356   -5.5057779    1456.9313  0.035386459  0.034884679           19 
 3432000   0.70274224   -5.4619195    1458.6959  0.035418996  0.034875829           10 
 3433000      0.71733   -5.4670721    1461.6268  0.035479824  0.034866978            9 
 3434000   0.69375065   -5.4595874    1458.7726  0.035400227  0.034858124            8 
 3435000   0.69707891   -5.4708051    1459.8193  0.035415315  0.034849302            7 
 3436000     0.687101   -5.4702961    1456.1027  0.035314871  0.034840518            9 
 3437000   0.68077749   -5.4510247    1460.7524  0.035417331  0.034831712           10 
 3438000   0.70504543   -5.4645888    1455.1905  0.035272216  0.034822879           15 
 3439000   0.70509748   -5.4748196     1457.627  0.035320998  0.034814021            9 
 3440000   0.70833908   -5.4632802    1458.1802  0.035324132    0.0348052           11 
 3441000   0.68732734   -5.4599411    1462.1388  0.035409736  0.034796397           17 
 3442000    0.7116835   -5.4945961    1458.7984  0.035318573  0.034787607           19 
 3443000   0.70483214   -5.4916915    1457.1079  0.035267401  0.034778767           26 
 3444000   0.69983769   -5.4443306    1462.7275  0.035393134  0.034769988           10 
 3445000   0.69414911   -5.4611906    1462.7249  0.035382799  0.034761258           16 
 3446000   0.67781852   -5.4888724    1459.5524  0.035295811  0.034752557           19 
 3447000   0.71017289   -5.5032996    1458.9173  0.035270217  0.034743783           12 
 3448000   0.70749923    -5.497245     1459.143  0.035265443   0.03473499            6 
 3449000   0.69195637   -5.4849873    1459.2085    0.0352568  0.034726184           14 
 3450000     0.679159    -5.487373    1461.7584  0.035308175  0.034717415           10 
 3451000   0.70314099   -5.4926132    1461.2681  0.035286102  0.034708616           27 
 3452000   0.71324207     -5.49416    1460.9182  0.035267433  0.034699854           15 
 3453000   0.69483089   -5.4886546    1461.8828  0.035280501  0.034691079            9 
 3454000    0.6917598   -5.4820313    1460.4105  0.035234765  0.034682264            6 
 3455000   0.69550073   -5.4993803    1462.0136  0.035263233  0.034673452           10 
 3456000   0.70269147   -5.4909122    1459.4408  0.035190991  0.034664604            7 
 3457000    0.7021328   -5.5065265    1458.7063  0.035163105  0.034655827           14 
 3458000   0.70967067   -5.4529551    1462.7393  0.035250127  0.034647092            8 
 3459000   0.70092208   -5.4976898    1460.7488  0.035191981  0.034638328            9 
 3460000   0.69322553   -5.4819382    1462.8197  0.035231688   0.03462959           19 
 3461000   0.69343933   -5.4679098    1462.2896  0.035208746   0.03462086            6 
 3462000   0.68382203   -5.4823189    1467.6815  0.035328363  0.034612137            6 
 3463000   0.71380489   -5.4939533    1458.7648  0.035103591  0.034603382            6 
 3464000   0.69782585    -5.466631    1460.1204  0.035126068  0.034594643           10 
 3465000   0.69059446   -5.4820738    1460.7571  0.035131244  0.034585907            7 
 3466000    0.6864703   -5.4908674    1459.9281  0.035101177  0.034577168            5 
 3467000   0.68492486   -5.4905231    1463.2581  0.035171091  0.034568398           16 
 3468000   0.69332094   -5.4906404    1463.8772  0.035175828  0.034559645           15 
 3469000   0.69745081   -5.4921487    1456.9558   0.03499942   0.03455089           10 
 3470000   0.70365996    -5.475142    1460.4954  0.035074337  0.034542147           18 
 3471000   0.67861417   -5.4774225    1462.1226    0.0351033  0.034533431            5 
 3472000   0.68912121   -5.4981286     1463.637  0.035129536  0.034524678           11 
 3473000   0.69349329   -5.4744513    1462.8279  0.035100007  0.034515924           12 
 3474000   0.70329813   -5.4807216    1464.2881   0.03512493  0.034507149            4 
 3475000   0.71485889   -5.4987429    1461.3776  0.035045026  0.034498331           14 
 3476000   0.68499333   -5.4883437    1460.7978  0.035021044  0.034489538            6 
 3477000   0.69661812   -5.4881081    1463.7497  0.035081721  0.034480754           10 
 3478000   0.69347486   -5.4935805    1461.4692  0.035016994  0.034471935           14 
 3479000   0.68855498   -5.5168921     1464.212  0.035072627  0.034463109            6 
 3480000   0.69461937   -5.5179686      1461.26  0.034991857  0.034454226            6 
 3481000   0.68730519   -5.4989043    1465.5703  0.035084992  0.034445402           19 
 3482000   0.68765075    -5.485934    1462.0735  0.034991228  0.034436613            8 
 3483000   0.68572907   -5.4938363    1460.4838  0.034943147  0.034427808            3 
 3484000   0.68775319   -5.4881959    1461.6324  0.034960592  0.034419018           28 
 3485000   0.69612656   -5.4934517    1462.6029  0.034973766  0.034410195           10 
 3486000   0.68986712   -5.4921441    1465.0122  0.035021329  0.034401469           10 
 3487000   0.69893526   -5.5081898    1461.2189  0.034920632  0.034392701            8 
 3488000   0.69791321   -5.4832831    1455.7152  0.034779128  0.034383842            9 
 3489000   0.70178859   -5.4983691    1458.7113  0.034840721  0.034375042           10 
 3490000   0.68684593   -5.5027928    1462.9532  0.034932024  0.034366299            4 
 3491000   0.69623377   -5.5048252    1462.2901  0.034906191  0.034357504           12 
 3492000   0.70382477    -5.494706    1460.8186  0.034861078  0.034348713            5 
 3493000   0.69412978   -5.4978699    1463.3527  0.034911555  0.034339882            5 
 3494000   0.70009871   -5.5017437    1458.1781  0.034778145  0.034331033            6 
 3495000   0.67503329   -5.4968154    1458.3741  0.034772868  0.034322172            7 
 3496000   0.70099096   -5.5061787    1461.0379  0.034826417  0.034313304           15 
 3497000   0.68807406   -5.5236579    1457.4309  0.034730504  0.034304446            6 
 3498000   0.70488711   -5.5227392    1459.8857  0.034779057    0.0342956            8 
 3499000   0.66355466   -5.5089194    1463.8935  0.034864568  0.034286811           13 
 3500000   0.69160781    -5.498449    1464.3994  0.034866652  0.034278014            6 
 3501000   0.69275132   -5.5179785    1462.1539  0.034803243  0.034269237            9 
 3502000   0.69691679   -5.4730839    1467.1895  0.034913132  0.034260457            6 
 3503000   0.69415281   -5.4661777    1465.1943  0.034855702  0.034251739           10 
 3504000   0.68734429   -5.4843451    1465.8919  0.034862345  0.034242988           10 
 3505000   0.68661108   -5.4932196    1462.9577  0.034782636  0.034234221           11 
 3506000   0.70041421   -5.4737249    1462.5232  0.034762389  0.034225464           36 
 3507000   0.67533683   -5.4717829    1463.6534  0.034779332  0.034216695            7 
 3508000   0.70492564   -5.4862133    1460.9284  0.034704686  0.034207958           11 
 3509000   0.68029707   -5.4906699    1465.3819  0.034800558  0.034199204           13 
 3510000   0.68981528    -5.515892     1465.248  0.034787465  0.034190408           13 
 3511000    0.7053443   -5.4730431    1468.4569  0.034853719  0.034181666            8 
 3512000   0.69818457    -5.504433    1465.3707  0.034770564  0.034172928           14 
 3513000    0.6797227   -5.4923905    1466.2217  0.034780854  0.034164234            9 
 3514000   0.69227842   -5.4728041    1464.7557   0.03473619  0.034155554            9 
 3515000   0.69466224   -5.4927753    1468.3127  0.034810638  0.034146897            8 
 3516000   0.68416438    -5.507727    1464.5328  0.034711149  0.034138253            8 
 3517000   0.70546645   -5.5003699    1471.3865  0.034863673  0.034129585           11 
 3518000   0.68821263   -5.4850172    1467.0345  0.034750675  0.034120883            6 
 3519000   0.68626745   -5.4938715    1466.4699  0.034727428  0.034112185           10 
 3520000   0.68768297   -5.4912829    1464.3507  0.034667393  0.034103457            7 
 3521000   0.69714033   -5.5084288    1465.7928  0.034691679  0.034094731            6 
 3522000   0.68502928   -5.4841735    1466.5689  0.034700192  0.034086019           10 
 3523000   0.68114764   -5.5417385    1462.5047  0.034594207  0.034077297            7 
 3524000   0.69505605   -5.5117635    1467.8291  0.034710299  0.034068565           14 
 3525000   0.70123008   -5.5246871    1462.7152  0.034579557  0.034059815            8 
 3526000   0.69016873   -5.5118433    1462.8591   0.03457315  0.034051152           11 
 3527000    0.6885389   -5.5103027    1465.7579  0.034631839  0.034042466           11 
 3528000   0.68844952   -5.5269911    1469.5234  0.034710965   0.03403379            7 
 3529000    0.6810237   -5.4860731    1465.0628  0.034595797  0.034025071            8 
 3530000   0.67839186   -5.5067087    1463.9535   0.03455981  0.034016376           13 
 3531000   0.67607525   -5.5091848    1462.6389  0.034518996  0.034007641            7 
 3532000   0.68224314   -5.4986048    1464.9911  0.034564721  0.033998958           10 
 3533000   0.67816108   -5.4961988    1465.5109  0.034567198  0.033990263            8 
 3534000   0.69546891   -5.5103799    1466.1114  0.034571575  0.033981561           13 
 3535000   0.69401238   -5.4808459    1468.9147   0.03462788  0.033972911           14 
 3536000    0.6974522   -5.5058636    1467.8446  0.034592868  0.033964276           14 
 3537000   0.68330822    -5.500802     1469.606  0.034624589  0.033955523            6 
 3538000   0.69580912   -5.5052056    1468.7583  0.034594834  0.033946817           22 
 3539000   0.66826695   -5.5002273    1464.4057  0.034482568  0.033938138           14 
 3540000   0.68780263   -5.5167441    1462.2022  0.034420956  0.033929387           10 
 3541000   0.68079446   -5.5366743    1463.9535   0.03445245  0.033920639           17 
 3542000   0.68290202   -5.5204834    1469.0882  0.034563528  0.033911963           11 
 3543000   0.68826697   -5.5205223    1467.6825   0.03452071  0.033903285           12 
 3544000   0.69051094   -5.5013198    1471.0351  0.034589802  0.033894621           12 
 3545000   0.67072327   -5.5222347    1465.8432  0.034457997  0.033885931           27 
 3546000   0.68486386   -5.5069744    1470.0447  0.034547017  0.033877222            4 
 3547000   0.66231754    -5.515053    1465.9618  0.034441355   0.03386855           10 
 3548000   0.68780485   -5.5269947     1469.001  0.034503029  0.033859933            7 
 3549000   0.67470505   -5.5023198    1467.8927  0.034467284  0.033851277           26 
 3550000   0.68573989    -5.499732    1467.5615    0.0344498  0.033842646           10 
 3551000   0.68323022   -5.5267877    1466.8773  0.034424042  0.033833988           17 
 3552000   0.67526275   -5.4857601    1473.2548  0.034563973  0.033825338            9 
 3553000   0.68121795   -5.5223086    1466.3724  0.034392824  0.033816718           16 
 3554000   0.68131696   -5.4990598    1465.8748  0.034371478  0.033808038            6 
 3555000   0.67921658    -5.516006    1469.8167  0.034454213  0.033799422           10 
 3556000    0.6811867   -5.5260059    1468.2322  0.034407392  0.033790764            7 
 3557000   0.68672202   -5.5340102    1469.4956  0.034427318  0.033782054            6 
 3558000   0.68200689   -5.5036193    1467.5361  0.034371747  0.033773437           11 
 3559000   0.67590188   -5.5298461    1471.0148  0.034443541  0.033764795            5 
 3560000   0.67638391   -5.5047312    1470.0096  0.034410337  0.033756187           15 
 3561000    0.6782231    -5.541758    1469.6906  0.034393208  0.033747596           26 
 3562000   0.67122456   -5.5224774     1469.482  0.034378673  0.033738917           12 
 3563000   0.68618283    -5.562438    1465.3636  0.034272701  0.033730277           27 
 3564000   0.69794388     -5.51293    1466.9658  0.034300547  0.033721612           14 
 3565000   0.68793429   -5.5103031    1468.4181  0.034324874  0.033712989           18 
 3566000    0.6769637   -5.5251881    1464.5267  0.034224311  0.033704351            5 
 3567000   0.68434428   -5.5058768    1467.9823  0.034295446  0.033695688            7 
 3568000   0.67951126   -5.5135715    1468.8708  0.034306586   0.03368706           13 
 3569000   0.68281675   -5.5050267    1472.9517  0.034392259  0.033678478            8 
 3570000   0.67713358   -5.5143805     1473.451   0.03439428  0.033669945            7 
 3571000   0.68336287   -5.5005872    1469.0538  0.034282036    0.0336614           11 
 3572000    0.6720444   -5.5210938    1472.5908  0.034354955  0.033652877            9 
 3573000   0.67404744   -5.5357219    1469.5944  0.034275456  0.033644278            5 
 3574000   0.68451635    -5.528666    1469.2235  0.034257218  0.033635622            6 
 3575000   0.69196425   -5.5298465    1471.4963  0.034300614  0.033626961           10 
 3576000   0.67213837   -5.5175857    1471.3165  0.034286832  0.033618367           11 
 3577000   0.67888417   -5.5304504    1469.9557  0.034245543  0.033609785           11 
 3578000   0.68148953   -5.5355249    1468.8775   0.03421086  0.033601178           16 
 3579000   0.65960517   -5.5160816     1470.651  0.034242595   0.03359253            9 
 3580000   0.68966652   -5.5146694    1474.2995  0.034317958   0.03358395            6 
 3581000   0.68008867   -5.5098906    1471.0207  0.034232075  0.033575403            7 
 3582000   0.69179354   -5.5010206    1478.6525  0.034400068  0.033566843           13 
 3583000   0.68975378   -5.4931033    1473.1899  0.034263418  0.033558322           10 
 3584000   0.66185038   -5.5363808    1470.0583  0.034181042  0.033549736           29 
 3585000   0.68293606    -5.529093    1470.1331  0.034173248  0.033541124           11 
 3586000   0.67033437   -5.5423814    1472.5104  0.034218962  0.033532516            9 
 3587000   0.67853091   -5.5247559    1470.1628  0.034154883   0.03352391            9 
 3588000   0.66580018   -5.5318138    1469.6749  0.034134033  0.033515316            8 
 3589000   0.68110234   -5.5277176    1472.6315  0.034193172  0.033506715            9 
 3590000   0.68272615   -5.5111369    1471.1878  0.034150135  0.033498122           10 
 3591000   0.67690541   -5.5249552    1467.2222  0.034048598  0.033489525            6 
 3592000   0.67725814   -5.5283823    1467.7563   0.03405151  0.033480924           10 
 3593000   0.67047873   -5.5235381    1468.1756  0.034051759  0.033472303           10 
 3594000   0.67657629   -5.5254412    1472.4719  0.034141902  0.033463702            9 
 3595000   0.69139195   -5.5305793    1471.5773  0.034111666  0.033455082            8 
 3596000   0.67876465    -5.530802    1472.8823  0.034132422  0.033446494           11 
 3597000   0.68370574   -5.5363679    1470.5639  0.034069222  0.033437904           11 
 3598000   0.67640337   -5.5261277    1472.0325  0.034093767  0.033429297           16 
 3599000   0.66989865   -5.5381403    1472.3617  0.034091916  0.033420743           11 
 3600000   0.68547955   -5.5303081    1471.4185  0.034060614  0.033412163           11 
 3601000   0.68117593   -5.5311631    1471.2393  0.034047009  0.033403609           12 
 3602000   0.68940028   -5.5304682    1472.3394  0.034063008  0.033395064            6 
 3603000   0.68053997   -5.5413504    1474.0072  0.034092127  0.033386517            6 
 3604000   0.67376703   -5.5393738    1473.6529  0.034074475  0.033377918            5 
 3605000   0.65981274   -5.5198799      1472.71  0.034043227  0.033369323            9 
 3606000   0.69256033   -5.4989596    1473.0934  0.034042647  0.033360788            7 
 3607000   0.67989582   -5.5210249    1473.0253  0.034031635  0.033352269            9 
 3608000   0.67529908   -5.5321808    1474.8574  0.034064519   0.03334374           20 
 3609000   0.65860539    -5.508537    1475.7159  0.034074902   0.03333521            8 
 3610000   0.67401346   -5.5345928    1470.9125  0.033954581  0.033326643            9 
 3611000   0.67624992   -5.5070184    1472.4293  0.033980184  0.033318053            4 
 3612000   0.69484196   -5.5183172    1473.2935  0.033990713   0.03330948           14 
 3613000   0.66557121   -5.5397217    1473.3311  0.033982173  0.033300897            7 
 3614000    0.6706204   -5.5377431    1469.9409  0.033894597  0.033292303            8 
 3615000   0.68729937   -5.5330221    1473.3445  0.033963682  0.033283731            6 
 3616000   0.68075196   -5.5094928    1474.9279  0.033990779  0.033275156            7 
 3617000    0.6638085   -5.5388646    1471.3097  0.033898021  0.033266611           22 
 3618000   0.67186829   -5.5242889    1468.6538  0.033827478  0.033258067            5 
 3619000   0.67161736   -5.5379177    1468.9026  0.033823861   0.03324949            8 
 3620000   0.67052598   -5.5379628    1475.1223  0.033957696  0.033240868            5 
 3621000   0.68376139   -5.5429174    1468.8938  0.033804976  0.033232249           15 
 3622000   0.68992644   -5.5535776    1467.3384  0.033759856  0.033223615            6 
 3623000   0.66902227   -5.5131844    1471.5065   0.03384641  0.033215033           13 
 3624000   0.66551679   -5.5265899    1468.8686  0.033776413  0.033206451           19 
 3625000   0.66470915    -5.532535    1475.9595  0.033930103  0.033197923            9 
 3626000   0.66987176   -5.5437881    1473.7282  0.033869465  0.033189373            8 
 3627000   0.65672886    -5.538224      1475.35  0.033897389  0.033180821           11 
 3628000   0.67459363   -5.5702295    1470.7015  0.033781273  0.033172182            5 
 3629000   0.67703638   -5.5586609     1470.638  0.033770507  0.033163534           14 
 3630000   0.66638651   -5.5704474    1469.7132  0.033739973  0.033154873           13 
 3631000   0.66514607   -5.5351746    1469.0588  0.033715661  0.033146275           16 
 3632000    0.6632705   -5.5324757    1468.7051  0.033698263  0.033137685            9 
 3633000   0.66645268   -5.5541022    1473.0279  0.033788144  0.033129077            7 
 3634000   0.66037244    -5.531575    1470.8827  0.033729653  0.033120501           10 
 3635000   0.67960164   -5.5295179    1473.1569  0.033772511  0.033111923           17 
 3636000   0.67018247   -5.5410188    1473.0491  0.033760752  0.033103354           11 
 3637000   0.65592832    -5.538709    1475.5773  0.033809396  0.033094769           12 
 3638000   0.66330366   -5.5450854    1474.1528  0.033767473  0.033086216           13 
 3639000    0.6793004   -5.5277595    1474.4165  0.033764233  0.033077689           15 
 3640000     0.644317   -5.5518207    1476.4499  0.033801509  0.033069117           11 
 3641000   0.66566518   -5.5400302    1475.9609  0.033781034   0.03306058           22 
 3642000   0.66246761   -5.5401549    1474.8252  0.033745771   0.03305202           14 
 3643000   0.65460155   -5.5273156    1479.9957  0.033854783  0.033043576           15 
 3644000   0.66366674    -5.548882    1476.2665  0.033760211  0.033035156            7 
 3645000   0.67444772   -5.5202986    1477.0607  0.033769107  0.033026699            6 
 3646000   0.65955964   -5.5295167    1474.6043  0.033703701  0.033018225           18 
 3647000    0.6721341   -5.5251158    1472.8438  0.033654233  0.033009737            4 
 3648000   0.66883044   -5.5418415    1476.7962  0.033735293   0.03300127           13 
 3649000   0.67755437   -5.5630748    1470.5394   0.03358316   0.03299274           13 
 3650000    0.6551424    -5.569484    1475.2383  0.033681239  0.032984199           15 
 3651000   0.66358275   -5.5445708    1477.5604  0.033725016  0.032975662            9 
 3652000    0.6561973   -5.5624325     1474.293  0.033641225   0.03296712           19 
 3653000   0.66957366    -5.588278    1470.9078  0.033554791  0.032958528            9 
 3654000   0.66134295   -5.5786222    1471.1466  0.033551054    0.0329499           12 
 3655000   0.66341713    -5.558012    1476.3545  0.033660614  0.032941329           12 
 3656000   0.65658685   -5.5500617    1471.8309  0.033548298  0.032932813           14 
 3657000   0.67407381   -5.5463476    1474.1657  0.033592328  0.032924287            9 
 3658000   0.64635163    -5.554808    1474.5719  0.033592397  0.032915736            8 
 3659000   0.65817146   -5.5551315    1474.2882  0.033576757  0.032907256           17 
 3660000   0.66102511   -5.5435653    1476.7824   0.03362437  0.032898796            7 
 3661000   0.67747136   -5.5454605    1477.6195  0.033634242  0.032890378            9 
 3662000   0.67853273    -5.536953    1478.0424  0.033634682  0.032881932            8 
 3663000   0.67781695   -5.5771213    1471.6103  0.033479167  0.032873406           45 
 3664000    0.6670212   -5.5526488    1478.6085  0.033629197   0.03286486           34 
 3665000   0.66456766   -5.5816474     1471.818   0.03346562  0.032856306           14 
 3666000   0.65527291   -5.5850991    1473.3802  0.033492003  0.032847718           10 
 3667000   0.67152521   -5.5592387    1475.1296  0.033522626  0.032839156            7 
 3668000   0.67328766   -5.5486702    1477.4014  0.033565098  0.032830619            5 
 3669000   0.67124578   -5.5617468    1477.0871  0.033548813  0.032822093           43 
 3670000   0.66635099   -5.5669066    1472.7298  0.033440732  0.032813547           15 
 3671000   0.66525773    -5.543808    1475.9277  0.033504215  0.032805031           10 
 3672000   0.66470168   -5.5575022    1475.1423  0.033477268  0.032796475           20 
 3673000   0.65796841   -5.5441991    1477.0854  0.033512239  0.032787938            8 
 3674000   0.67023795   -5.5530594     1474.375  0.033441639  0.032779413            6 
 3675000   0.65956107   -5.5581577    1473.2861  0.033407849  0.032770883            7 
 3676000   0.66132355    -5.582555    1473.5928  0.033405712  0.032762359            9 
 3677000   0.67270484   -5.5854842    1471.0745  0.033339555  0.032753849            9 
 3678000   0.66751412   -5.5541766    1475.1341  0.033422468  0.032745314            9 
 3679000   0.66138716   -5.5594679    1477.6345   0.03347002  0.032736805           13 
 3680000   0.66547405   -5.5631631    1474.1929  0.033382992  0.032728278           10 
 3681000   0.65815864   -5.5813316    1474.1853  0.033373751  0.032719711            7 
 3682000   0.65699207   -5.5613717     1473.044  0.033338856  0.032711125            8 
 3683000   0.66343497   -5.5888072    1473.1457  0.033332104  0.032702546           13 
 3684000   0.66416523   -5.5502699    1476.7828  0.033405328  0.032693989           23 
 3685000   0.66278944    -5.555462    1477.4296   0.03341089  0.032685506            7 
 3686000   0.64888297   -5.5524332     1476.388  0.033378277  0.032677008            7 
 3687000    0.6674893   -5.5629029    1474.5471  0.033327618  0.032668471           14 
 3688000   0.65906235   -5.5842809    1474.1909  0.033310533  0.032659878           20 
 3689000   0.67053256   -5.5880259    1474.0456   0.03329822  0.032651287            7 
 3690000   0.67207427   -5.5708092    1473.6685  0.033280679  0.032642726            7 
 3691000   0.65265901   -5.5611827    1475.5841  0.033314911  0.032634221            7 
 3692000   0.65553642   -5.5837847    1471.7764  0.033219944   0.03262568           15 
 3693000   0.65968524   -5.5734127    1472.4594  0.033226361  0.032617116           11 
 3694000   0.66118949   -5.5592513    1475.0923  0.033276762  0.032608616           24 
 3695000   0.66810218   -5.5628672    1475.0324  0.033266406  0.032600151            9 
 3696000    0.6720314   -5.5485629    1478.5901  0.033337618  0.032591647           18 
 3697000   0.66990452   -5.5645156    1477.7112  0.033308791  0.032583173           17 
 3698000   0.66267028   -5.5672787    1475.4379  0.033248556  0.032574664           12 
 3699000   0.65560476   -5.5529724     1475.741  0.033246395  0.032566113           16 
 3700000   0.67286614   -5.5729393    1475.6671  0.033235746  0.032557599           16 
 3701000   0.65336258   -5.5727902    1475.5492  0.033224111   0.03254907           11 
 3702000   0.66897188   -5.5786545    1476.1303  0.033228216  0.032540564           14 
 3703000   0.65108145   -5.5526527    1477.7806  0.033256383  0.032532107           15 
 3704000   0.64732325   -5.5689968    1475.3366  0.033192419  0.032523638           13 
 3705000   0.65219182   -5.5970645    1475.0995  0.033178126  0.032515151           12 
 3706000   0.65866583   -5.5657311    1474.4796  0.033155234  0.032506628           29 
 3707000   0.65160915   -5.5593879    1478.1371  0.033228512  0.032498127            9 
 3708000   0.66771734    -5.548273    1479.8088  0.033257119  0.032489679            9 
 3709000   0.67255994   -5.5956927    1471.9599  0.033071805  0.032481152           13 
 3710000   0.64615581   -5.5415034    1482.7197  0.033304575  0.032472666           11 
 3711000   0.65211843   -5.5928998    1472.5483  0.033067194  0.032464166           12 
 3712000   0.66175025   -5.5856249    1476.9544  0.033157201  0.032455669           12 
 3713000   0.67595785   -5.5766815    1476.2919  0.033133402  0.032447163           16 
 3714000   0.66436488   -5.5651558    1478.6197  0.033176711  0.032438668           20 
 3715000   0.67342793   -5.5575019    1477.4922  0.033142489  0.032430224            8 
 3716000   0.65256687   -5.5769544    1479.0494  0.033168491   0.03242176           17 
 3717000    0.6498071   -5.5718617     1476.203  0.033095754  0.032413302            6 
 3718000   0.66533537   -5.5694309    1475.7398  0.033076471  0.032404812           11 
 3719000   0.67639311   -5.5898823    1474.2468  0.033034123  0.032396292            9 
 3720000   0.63917435   -5.5435039    1479.7812  0.033149221  0.032387766           16 
 3721000   0.66217702   -5.5946351     1473.619  0.033002307  0.032379274           15 
 3722000   0.66272022   -5.5877451    1471.6007  0.032948251  0.032370704           11 
 3723000   0.65547179   -5.5895123    1476.9326  0.033058747  0.032362156           20 
 3724000   0.66964178   -5.5709978     1479.131  0.033099065  0.032353628           11 
 3725000   0.65651857   -5.5953267    1471.9317  0.032929121  0.032345083            9 
 3726000   0.65430333   -5.5692935    1475.4652  0.032999311  0.032336515            8 
 3727000   0.65143628   -5.5864989    1480.2523  0.033097494  0.032328015           12 
 3728000   0.66475637   -5.5778077    1477.2036  0.033020466  0.032319495            9 
 3729000   0.65694687   -5.5706105    1477.9853  0.033029081  0.032311018           17 
 3730000   0.65613469   -5.5781149    1481.2543   0.03309326  0.032302536            8 
 3731000    0.6349981   -5.5672168    1477.2134  0.032994134  0.032294036            4 
 3732000   0.66611702   -5.5883854    1477.5285   0.03299233  0.032285603            7 
 3733000   0.65599151   -5.5830449    1476.5587  0.032961843  0.032277122           11 
 3734000   0.64967057   -5.5917971    1481.2299  0.033057265  0.032268667            9 
 3735000   0.67149355   -5.5838576    1476.6211  0.032945585  0.032260191           16 
 3736000   0.65902164   -5.5959665    1476.0809  0.032924717   0.03225172            6 
 3737000   0.64363412   -5.5852394    1476.6828  0.032929328  0.032243221           12 
 3738000   0.65107523   -5.6109307    1477.9462  0.032948685  0.032234771           14 
 3739000   0.65374735   -5.5624774    1480.6049  0.032999129  0.032226304           16 
 3740000   0.65110988   -5.5551231    1481.6563  0.033013733  0.032217864           16 
 3741000   0.65377108   -5.5961196    1478.8739  0.032942928  0.032209423            7 
 3742000   0.65355602   -5.5855788    1476.9041  0.032890258  0.032201019            7 
 3743000   0.64733755   -5.5547535    1479.6639  0.032942913  0.032192634           12 
 3744000   0.65355156   -5.5832165    1480.6427    0.0329559  0.032184215           17 
 3745000   0.64597614    -5.559397    1481.0325  0.032955773  0.032175819           12 
 3746000   0.65123408   -5.5805165    1480.6327  0.032938082  0.032167438           22 
 3747000   0.65031434   -5.5620784    1482.0028  0.032959763  0.032159083           11 
 3748000   0.65656271   -5.5947913    1482.6741  0.032965896  0.032150692            5 
 3749000   0.65651688   -5.5939571    1479.6249  0.032889324  0.032142253           10 
 3750000   0.63406359   -5.5811798    1475.2508  0.032783352  0.032133825           11 
 3751000   0.64058862   -5.5737547    1477.4868  0.032824288  0.032125364           10 
 3752000   0.65735234   -5.5896583    1478.8197  0.032845142  0.032116881           11 
 3753000   0.67160622     -5.56837    1476.6032  0.032787175  0.032108458           11 
 3754000   0.67806654   -5.6075127    1477.2828  0.032793526  0.032100034           17 
 3755000   0.65326825   -5.6093295    1477.5487  0.032790694   0.03209156            8 
 3756000   0.66601246     -5.60056    1475.8456  0.032744178  0.032083077            8 
 3757000   0.64635858   -5.5763185    1478.7575   0.03280005  0.032074669           11 
 3758000   0.65499503   -5.6027915    1478.5943  0.032787704  0.032066207           25 
 3759000   0.64505066    -5.616119    1479.1859  0.032792098    0.0320577           19 
 3760000   0.65096178   -5.6017333    1475.8277  0.032708946  0.032049234           19 
 3761000   0.64650753   -5.5778101    1477.6407  0.032740423  0.032040764            8 
 3762000   0.64688441   -5.5766263    1483.9805  0.032872153  0.032032357            8 
 3763000   0.66776043   -5.6083078    1478.9603  0.032752243  0.032023955            5 
 3764000   0.64056336   -5.5773533    1480.3594  0.032774517  0.032015575           11 
 3765000   0.64447729   -5.5963266    1479.6514  0.032750141  0.032007169            7 
 3766000   0.63075382   -5.5739142    1483.2005   0.03281998  0.031998746            9 
 3767000   0.64424637   -5.5913224     1480.986  0.032762278   0.03199033            7 
 3768000   0.64586053   -5.6069292    1476.8444  0.032661986  0.031981902           10 
 3769000     0.644403   -5.6002627    1481.3319  0.032752541  0.031973486           16 
 3770000   0.65356876   -5.5988264    1482.3681  0.032766758  0.031965063           11 
 3771000   0.65441579    -5.595629    1479.2013  0.032688086   0.03195663            8 
 3772000   0.63921788   -5.5775273    1479.7732  0.032692055  0.031948193            6 
 3773000   0.64116741   -5.5909981    1481.1618   0.03271406  0.031939806            9 
 3774000   0.64509883   -5.5761687    1479.0007  0.032657673  0.031931415            6 
 3775000    0.6505969   -5.5751003    1480.5699  0.032683662  0.031923011           11 
 3776000   0.62492543   -5.6202277    1478.2999   0.03262491  0.031914601           12 
 3777000   0.64340404   -5.6100731     1476.202  0.032569985  0.031906145           16 
 3778000   0.65581252   -5.5904614    1477.2806  0.032585156  0.031897718           50 
 3779000   0.64383932   -5.5864446    1478.6739  0.032607257  0.031889296           10 
 3780000   0.64606887   -5.6109084    1477.7894  0.032579132  0.031880918           23 
 3781000   0.64285851   -5.5662507    1484.0294  0.032708045  0.031872573           10 
 3782000   0.64616788   -5.6010317    1481.2753  0.032638712  0.031864227           13 
 3783000   0.64963739   -5.6269313    1480.2099  0.032606616  0.031855862           10 
 3784000   0.66351557   -5.6183123    1480.9364  0.032613997  0.031847456           12 
 3785000   0.64779066   -5.5816023    1480.0989  0.032586942  0.031839096           10 
 3786000   0.64614663   -5.6140357     1481.387  0.032606687  0.031830733           10 
 3787000   0.65461029    -5.629451    1479.2661  0.032551405  0.031822314            6 
 3788000   0.64599516   -5.6083455    1480.9047   0.03257886  0.031813921            7 
 3789000   0.65123433   -5.5972906    1482.6406  0.032608441  0.031805567            9 
 3790000   0.64059618   -5.6169274    1476.1817  0.032457821  0.031797168           12 
 3791000   0.64600824   -5.6166379    1481.4257  0.032564533  0.031788792           25 
 3792000   0.65217926   -5.5718775    1484.9057  0.032632422  0.031780396           18 
 3793000   0.63320641   -5.6182705    1480.7397   0.03253229   0.03177202           55 
 3794000   0.65877431   -5.5888136    1483.3549  0.032581156  0.031763645           27 
 3795000   0.65475555   -5.5990671    1479.3184  0.032483936  0.031755289           32 
 3796000    0.6418915   -5.6107592    1480.4693  0.032500643    0.0317469            9 
 3797000   0.62902585   -5.6204145    1477.6166  0.032429475  0.031738483            8 
 3798000   0.64290433   -5.5967585    1480.6514  0.032487524  0.031730093           18 
 3799000   0.62673465    -5.581103    1477.7221  0.032414716   0.03172168           11 
 3800000   0.64693965   -5.6138361    1479.9505  0.032455054  0.031713276           19 
 3801000   0.63592033   -5.6312484    1477.3852  0.032390274  0.031704837           12 
 3802000   0.62589874   -5.5894084    1480.7231  0.032454917  0.031696433            8 
 3803000   0.65548762   -5.6048467       1480.4  0.032439302  0.031688048           13 
 3804000   0.65374265   -5.6073657    1477.4623  0.032366419  0.031679712            9 
 3805000   0.64538159   -5.5915093    1480.0787  0.032415215   0.03167128           10 
 3806000   0.64588814   -5.5868607     1481.023  0.032427373  0.031662931           15 
 3807000   0.64692104   -5.5803228    1483.1652  0.032465747  0.031654623            7 
 3808000   0.65297545   -5.6163163    1482.1566  0.032435151  0.031646293           20 
 3809000   0.63658484   -5.6078527    1480.8388  0.032397803   0.03163792           18 
 3810000   0.64131962   -5.5900687    1483.1129   0.03243904  0.031629535           11 
 3811000   0.64277635   -5.6065879    1478.1975  0.032323045  0.031621144           20 
 3812000   0.64089665   -5.5904112    1481.3546  0.032383582  0.031612749           16 
 3813000   0.65804482   -5.5969172    1481.9937  0.032389058  0.031604343           20 
 3814000   0.64950572   -5.6047761    1482.7663  0.032397446  0.031595979            5 
 3815000   0.63997935   -5.5899276    1481.7521  0.032366799    0.0315876           14 
 3816000   0.63891284    -5.595426    1479.2818  0.032304373  0.031579221           21 
 3817000   0.64768074   -5.6187344     1480.109  0.032313968  0.031570863           12 
 3818000   0.64246476   -5.6327493    1478.8559  0.032278155  0.031562469           12 
 3819000   0.64614147   -5.5956236    1481.8067   0.03233409  0.031554058           11 
 3820000   0.63450098   -5.6039498    1482.5425  0.032341676  0.031545673           19 
 3821000   0.63321943   -5.6104174    1479.8451  0.032274385  0.031537311           16 
 3822000   0.63853294   -5.6074815    1478.7543  0.032242156  0.031528936           19 
 3823000   0.63027612   -5.6155073     1482.239  0.032309683  0.031520567            9 
 3824000   0.63787118   -5.6262468    1480.9847  0.032273899  0.031512218           16 
 3825000   0.64860355   -5.6285898    1479.2872   0.03222848   0.03150388           10 
 3826000   0.63986736   -5.6148603    1477.4072  0.032179107  0.031495501           10 
 3827000   0.63801634   -5.5971945    1485.5619   0.03234827  0.031487172            6 
 3828000   0.64131388   -5.5826432    1482.0502  0.032263371  0.031478854            9 
 3829000   0.63724207   -5.6327224    1482.1941  0.032258077  0.031470517            9 
 3830000   0.62962784    -5.636813    1478.3182  0.032165322  0.031462167           10 
 3831000   0.63357955     -5.61733    1483.3542  0.032266471  0.031453774           10 
 3832000   0.62795856   -5.6119934    1480.2079  0.032189629  0.031445401           14 
 3833000   0.63727324   -5.6280924    1479.5529   0.03216699  0.031437038           18 
 3834000    0.6336815   -5.6147198    1480.9124  0.032188151   0.03142871           13 
 3835000   0.62677326    -5.616156    1480.8557  0.032178525  0.031420403           11 
 3836000   0.66015536   -5.6155051    1482.0366  0.032195791  0.031412085            8 
 3837000   0.63568949    -5.604149    1482.9235   0.03220666  0.031403739           19 
 3838000    0.6477322   -5.6240118    1484.3007  0.032228172  0.031395413           17 
 3839000   0.63985325   -5.6174163    1481.7719  0.032164885  0.031387095           12 
 3840000    0.6373994   -5.6210409    1480.3673  0.032126027   0.03137874           11 
 3841000   0.64828904   -5.6324982    1480.4712  0.032119917  0.031370382            8 
 3842000   0.62790689   -5.6187636    1480.6175  0.032114729  0.031362059            9 
 3843000   0.62567666   -5.6077602    1482.1835  0.032140331  0.031353738           13 
 3844000   0.63048213   -5.6138134    1474.5686  0.031966889  0.031345391           15 
 3845000   0.63129926   -5.6095867    1484.2003  0.032167323  0.031337037           28 
 3846000    0.6332467   -5.6285681    1483.5228   0.03214428  0.031328676           14 
 3847000   0.65028915   -5.6183609    1481.6987  0.032096411  0.031320331            9 
 3848000   0.64806169   -5.6263287    1477.8134  0.032003928  0.031311981           12 
 3849000   0.62864173   -5.6337898    1476.8914  0.031975652  0.031303653           18 
 3850000   0.62892209   -5.6252256    1481.6181  0.032069656  0.031295346           15 
 3851000   0.62582369   -5.6247907    1480.3901  0.032034755   0.03128701            7 
 3852000   0.64827854   -5.6397392    1480.0331  0.032018715  0.031278659           12 
 3853000   0.62767325   -5.6103296     1485.399  0.032126459  0.031270368           18 
 3854000   0.62569583   -5.6141729    1480.0928  0.032003391  0.031262045           13 
 3855000     0.639117   -5.6192495    1482.2823   0.03204242  0.031253718           14 
 3856000   0.64276055   -5.6454411    1479.9475  0.031983651  0.031245315           10 
 3857000   0.64891672   -5.6209204    1480.9718   0.03199749  0.031236953           21 
 3858000   0.64456329   -5.6193529    1481.6428  0.032003688   0.03122864           11 
 3859000   0.62364398   -5.6440511    1484.3638  0.032054155   0.03122032           10 
 3860000   0.64611513   -5.6283396    1485.0563    0.0320608  0.031212014           12 
 3861000   0.62831522   -5.6388193    1482.4205  0.031995607   0.03120368            6 
 3862000   0.63766967   -5.6450803    1481.6239  0.031970134  0.031195305           15 
 3863000   0.63299518   -5.6316135    1484.5089  0.032024094  0.031186978           18 
 3864000   0.64318637   -5.6170828    1487.9423  0.032089854  0.031178704            9 
 3865000   0.62889282   -5.6433457    1479.5583  0.031900783  0.031170432           14 
 3866000   0.61195089   -5.6406345    1483.2596  0.031972313  0.031162107           13 
 3867000   0.64528717   -5.6618936    1483.5046  0.031969326  0.031153785           15 
 3868000   0.62840865   -5.6137638    1482.6625  0.031942919  0.031145512            7 
 3869000   0.62673203   -5.6119343    1484.0165  0.031963826  0.031137244           19 
 3870000    0.6489726   -5.6297265    1482.7151  0.031927543  0.031128984           21 
 3871000   0.63018931   -5.6474686    1481.7795  0.031899154   0.03112076           18 
 3872000   0.63444071   -5.6371883    1485.2229  0.031965025  0.031112532           14 
 3873000   0.64888878   -5.6053311    1483.5868  0.031921568  0.031104268           18 
 3874000   0.64118002    -5.634958    1488.0565  0.032009477  0.031096062            9 
 3875000   0.63801979   -5.6138054    1483.6732  0.031906951  0.031087816           14 
 3876000   0.63699413   -5.6270789    1481.6458  0.031855129  0.031079574           32 
 3877000   0.63632777   -5.6243763    1483.8314  0.031893891  0.031071274           19 
 3878000   0.64008741    -5.645842    1478.7589  0.031776666  0.031062968            7 
 3879000   0.63110901    -5.634579    1483.8914  0.031878735  0.031054667           13 
 3880000    0.6236617   -5.6246891    1484.2529  0.031878285  0.031046388           15 
 3881000   0.61680725   -5.6257464    1480.5696  0.031790983  0.031038114           31 
 3882000   0.64508201   -5.6417509    1480.1069  0.031772859  0.031029825           21 
 3883000   0.61166663   -5.6444473    1484.6006  0.031861117  0.031021533           28 
 3884000    0.6281677   -5.6428044    1482.7123  0.031812398  0.031013251           17 
 3885000   0.63371658   -5.6348276    1486.0553  0.031875917  0.031004985           16 
 3886000   0.62957662   -5.6164866     1486.549  0.031878302  0.030996755           14 
 3887000    0.6201451    -5.648722    1481.8006    0.0317683  0.030988492           13 
 3888000   0.63170892   -5.6293717    1487.8988  0.031890834  0.030980185           16 
 3889000   0.61963227   -5.6109469    1486.1611  0.031845399  0.030971906           21 
 3890000   0.61761908   -5.6306754    1482.3165  0.031754853  0.030963609            6 
 3891000   0.63540778   -5.6294271    1483.4903  0.031771831  0.030955335           20 
 3892000   0.62394633   -5.6397092    1481.1221  0.031712959   0.03094704           19 
 3893000   0.62870306   -5.6372014    1482.3999  0.031732166  0.030938711           24 
 3894000   0.62313073   -5.6642421    1481.9011  0.031713344  0.030930392           24 
 3895000    0.6303348   -5.6326935     1483.237  0.031733784  0.030922117           32 
 3896000    0.6316791   -5.6087236    1484.0025  0.031742011  0.030913866           27 
 3897000   0.64167948   -5.6611705    1483.2021   0.03171675  0.030905609           14 
 3898000   0.63072837   -5.6351263    1482.3785  0.031691006   0.03089731           24 
 3899000    0.6285063   -5.6430769    1480.6181  0.031645254  0.030889015           37 
 3900000   0.63185099   -5.6465295    1479.5362  0.031614022  0.030880747           29 
 3901000    0.6218338   -5.6629995    1482.1601  0.031661969  0.030872474           53 
 3902000    0.6240496   -5.6352937    1481.0995  0.031631203  0.030864196           18 
 3903000   0.62564678   -5.6312127    1482.8653  0.031660802   0.03085588           31 
 3904000   0.63227568   -5.6440413      1484.35  0.031684384  0.030847604           25 
 3905000   0.61797018   -5.6395635    1485.4631  0.031700024  0.030839332           11 
 3906000   0.64271495    -5.615608    1485.0945  0.031684044  0.030831076            8 
 3907000   0.62971115   -5.6581028    1483.8292  0.031648946  0.030822821           10 
 3908000   0.62923875   -5.6629952    1482.7574  0.031617994  0.030814526            7 
 3909000   0.62223406   -5.6449243    1480.1583  0.031554496  0.030806235           13 
 3910000   0.61824572   -5.6380011    1480.8522  0.031561215  0.030797989            9 
 3911000   0.62636086   -5.6288143    1480.2837  0.031541031  0.030789723           12 
 3912000   0.63425839   -5.6420466    1482.9427  0.031589611  0.030781446            7 
 3913000   0.62095162   -5.6426454    1480.1309  0.031521657  0.030773163           20 
 3914000   0.62003806   -5.6546558    1479.9875   0.03151055  0.030764863           11 
 3915000   0.62044404   -5.6325798    1482.1481  0.031548492  0.030756574            8 
 3916000   0.61842575   -5.6447084    1481.8201  0.031533454  0.030748304            7 
 3917000    0.6240587   -5.6589239    1483.0898  0.031552417  0.030739997           16 
 3918000   0.61524371   -5.6731291    1481.7955  0.031516835  0.030731693           18 
 3919000   0.62087571   -5.6458057    1481.6124    0.0315049  0.030723395           12 
 3920000   0.62035169   -5.6584101    1479.9548  0.031461623  0.030715121           16 
 3921000   0.61907989   -5.6587088    1482.7465  0.031512933  0.030706854           36 
 3922000   0.62803126    -5.649248    1481.2783  0.031473702  0.030698589           30 
 3923000    0.6215367   -5.6381836    1478.2285  0.031400894   0.03069034            9 
 3924000   0.63039733    -5.628257    1491.4142  0.031672915  0.030682118            9 
 3925000    0.6348995   -5.6531544    1483.3505  0.031493641  0.030673898            9 
 3926000    0.6116096   -5.6446458    1484.5767  0.031511646  0.030665684           20 
 3927000   0.61739372   -5.6402073    1485.2093  0.031517047  0.030657478           18 
 3928000     0.622945   -5.6517331    1482.9819  0.031461768  0.030649242           21 
 3929000    0.6194555   -5.6692709    1483.3166   0.03146086  0.030641027           11 
 3930000   0.61900928    -5.652214    1484.2585  0.031472826  0.030632784           24 
 3931000   0.62404967   -5.6637253    1484.5335  0.031470651  0.030624578           15 
 3932000   0.62071956   -5.6516078    1480.8683  0.031384967   0.03061635            7 
 3933000   0.62342368   -5.6518214    1484.6389  0.031456881  0.030608101           17 
 3934000     0.608526   -5.6887984    1482.2015  0.031397254  0.030599827           10 
 3935000   0.61595076   -5.6530437    1485.1097  0.031450861  0.030591555            7 
 3936000   0.63161069   -5.6632881    1483.6097  0.031411113  0.030583306           20 
 3937000   0.60808964   -5.6507924    1488.7804  0.031512581   0.03057509            9 
 3938000    0.6178538   -5.6597548    1480.8352  0.031336449  0.030566871            5 
 3939000   0.61873367   -5.6685207     1480.485  0.031321084  0.030558596            8 
 3940000   0.63695073   -5.6641345    1483.7354  0.031381883  0.030550335           12 
 3941000   0.61860385   -5.6569964    1479.5936  0.031286339  0.030542045           12 
 3942000   0.61467928   -5.6642994    1481.3305  0.031315122    0.0305338            9 
 3943000   0.62366602   -5.6407244    1484.5239  0.031374671  0.030525569           13 
 3944000   0.62467317   -5.6567809    1474.8832  0.031163015  0.030517323            7 
 3945000   0.62507079   -5.6544272    1482.5096  0.031316215    0.0305091           15 
 3946000   0.60968495   -5.6327446    1482.9033  0.031316593  0.030500872           16 
 3947000   0.61981001   -5.6621558    1482.8351  0.031307219  0.030492639           10 
 3948000    0.6080448   -5.6320256     1486.678  0.031380404  0.030484422            7 
 3949000   0.61482062   -5.6415821    1482.5729   0.03128583  0.030476218           18 
 3950000   0.60944167   -5.6504126    1488.2383  0.031397433  0.030468005           15 
 3951000   0.61845705    -5.665558    1482.6856  0.031272369  0.030459746           11 
 3952000   0.61443072   -5.6576297    1485.1068  0.031315512  0.030451523           13 
 3953000   0.60810669    -5.677566    1482.9439  0.031261992   0.03044326           26 
 3954000   0.60848092   -5.6696729    1480.5655  0.031203961  0.030434999           21 
 3955000   0.61684905   -5.6655683    1482.9232  0.031245748  0.030426748           10 
 3956000   0.61133692    -5.659099    1483.1543  0.031242717  0.030418523           12 
 3957000   0.62219317   -5.6450938    1485.8524  0.031291643  0.030410283           12 
 3958000   0.61314723   -5.6911513    1480.2933  0.031166694  0.030402037           10 
 3959000     0.614044   -5.6751723    1482.8645  0.031212942   0.03039376           28 
 3960000    0.6067696   -5.6918384     1484.115  0.031231377  0.030385517           16 
 3961000   0.62089056   -5.6762671    1483.3088   0.03120653  0.030377292           10 
 3962000   0.59959552   -5.6584917    1484.1981  0.031217358  0.030369092           12 
 3963000   0.61074825    -5.656302    1484.7503  0.031221094  0.030360908           14 
 3964000   0.61228025    -5.658753    1485.6084  0.031231257  0.030352723           22 
 3965000   0.59922054   -5.6798001     1484.204  0.031193862  0.030344512           11 
 3966000    0.6196704   -5.6618532    1486.4155  0.031232465  0.030336333           10 
 3967000    0.6157333     -5.66636      1483.24  0.031157885  0.030328159           19 
 3968000   0.60788722   -5.6587657    1487.3088  0.031235483  0.030320016           13 
 3969000   0.62532309    -5.668111    1482.3115  0.031122689  0.030311881           13 
 3970000   0.62465342    -5.653116    1486.4208  0.031201109  0.030303733           11 
 3971000    0.6211802   -5.6379404    1482.9717  0.031120871  0.030295595           24 
 3972000   0.61417718   -5.6609513     1483.621  0.031126658  0.030287401           22 
 3973000    0.6157394   -5.6906154    1482.1604  0.031088187  0.030279215           36 
 3974000    0.6179405   -5.6639437    1484.4812  0.031129031  0.030271005           19 
 3975000   0.61864237   -5.7004568    1483.8466  0.031107895  0.030262815           35 
 3976000   0.62977755   -5.6615112    1484.8428  0.031120951  0.030254597           12 
 3977000   0.61412592   -5.6618478    1486.6511  0.031151016  0.030246435           16 
 3978000   0.61449219   -5.6704401    1487.8724   0.03116877  0.030238311           11 
 3979000      0.61004   -5.6585345    1483.4281  0.031067857  0.030230186           13 
 3980000   0.61288839   -5.6709545    1484.1811  0.031075819  0.030222046           12 
 3981000   0.60917642   -5.6651915    1484.6929  0.031078726  0.030213904           13 
 3982000    0.6077316   -5.6878972    1486.7468  0.031113903  0.030205737           33 
 3983000    0.6179151    -5.657342    1485.7598  0.031085442  0.030197584           19 
 3984000   0.62245139    -5.667739    1487.3235  0.031110348  0.030189415           27 
 3985000   0.61336577   -5.7027718    1485.6312  0.031067152  0.030181256           32 
 3986000   0.59854277   -5.6624504     1487.716  0.031102944  0.030173138           33 
 3987000   0.61068158   -5.6641963     1487.536   0.03109138  0.030165043           33 
 3988000   0.62223694   -5.6857677    1484.4134  0.031018334  0.030156918           14 
 3989000   0.61139341   -5.6888501     1484.636  0.031015209  0.030148744           10 
 3990000   0.61133047   -5.6715639    1481.9276  0.030950869  0.030140589           13 
 3991000    0.6085825   -5.6900122     1481.385  0.030931784    0.0301324           36 
 3992000   0.61860811    -5.686316    1481.0329  0.030916686  0.030124194           11 
 3993000    0.6165752   -5.6732964     1481.856  0.030926121  0.030115993           21 
 3994000   0.61775398    -5.660689    1484.9351  0.030982622  0.030107801           17 
 3995000   0.60577848   -5.6822301    1481.8198  0.030909882  0.030099616           28 
 3996000   0.61209094   -5.6937872    1482.7397  0.030921331  0.030091388           30 
 3997000   0.60917138   -5.6676626    1481.1874  0.030881231  0.030083235           31 
 3998000   0.60731243   -5.6738675    1483.9362  0.030930803  0.030075073           15 
 3999000   0.61679012   -5.6711409    1487.7982  0.031003546  0.030066938           14 
 4000000   0.62575156   -5.6763098    1484.3683   0.03092434   0.03005879            7 
 4001000   0.60910155   -5.6911945    1488.1329   0.03099502  0.030050652            9 
 4002000   0.61958403   -5.6973713    1480.2365  0.030822848  0.030042511           18 
 4003000   0.61652736   -5.6934296    1483.3351  0.030879655  0.030034354           15 
 4004000   0.61535174   -5.6731664    1482.5612  0.030855835  0.030026238           13 
 4005000   0.60494095   -5.6734777    1483.5174  0.030868028  0.030018069           18 
 4006000   0.59966086   -5.6994291    1485.3426  0.030898289  0.030009905            7 
 4007000   0.61740229    -5.688907    1482.9205  0.030840206  0.030001746           26 
 4008000   0.61275419    -5.705735    1481.7644  0.030808474  0.029993586           25 
 4009000   0.60154686    -5.654174    1487.7297  0.030924788  0.029985447           10 
 4010000   0.61867639   -5.6783754    1483.0047  0.030818884  0.029977344            6 
 4011000    0.6030539   -5.7016083     1484.968   0.03085199  0.029969197            9 
 4012000   0.61009065   -5.6798437    1480.9015  0.030759836  0.029961052            8 
 4013000   0.59733222   -5.6821657    1482.4416  0.030784151  0.029952949           10 
 4014000   0.60463251   -5.6852849    1488.7849  0.030908173  0.029944821           13 
 4015000   0.62083262   -5.6583025    1488.0402  0.030885019  0.029936723            5 
 4016000   0.60903102   -5.6733301    1482.5885  0.030764204  0.029928614           15 
 4017000   0.60703914    -5.673492    1483.4851  0.030775145  0.029920494           17 
 4018000   0.61214091   -5.6792481    1482.0399  0.030737513  0.029912399           19 
 4019000   0.61043572   -5.6801096    1484.6627  0.030784248  0.029904297           26 
 4020000    0.6012131   -5.7004859    1480.1264  0.030682554  0.029896161           18 
 4021000   0.61940299    -5.669584    1485.9798  0.030796232  0.029888027           24 
 4022000   0.60443202   -5.6846725    1484.2868  0.030753498  0.029879913           15 
 4023000   0.60468738   -5.6890484    1481.4502  0.030687095  0.029871789           18 
 4024000   0.60615822   -5.6874398    1485.1478  0.030756043  0.029863686           14 
 4025000   0.59962095   -5.6935426    1485.6149  0.030758073  0.029855576           19 
 4026000   0.60860218   -5.6727189    1483.4677  0.030705989  0.029847469           15 
 4027000   0.61928908   -5.6873652    1485.7533  0.030745662  0.029839352           18 
 4028000   0.60344072   -5.7029209    1485.9009  0.030741082  0.029831271           31 
 4029000   0.59644783   -5.6889982    1486.9736  0.030755638  0.029823198           12 
 4030000   0.61354146   -5.6949292    1484.8804  0.030704723  0.029815093           56 
 4031000   0.61430546     -5.66529    1486.5789  0.030732219  0.029807051           41 
 4032000   0.59708308   -5.6924149    1486.8001  0.030729168  0.029798985           17 
 4033000   0.59206094   -5.7062262    1486.2436   0.03071005  0.029790896           24 
 4034000   0.60788709   -5.7001081    1482.5569  0.030626278  0.029782812           37 
 4035000   0.60662589   -5.6849314    1487.6352  0.030723568  0.029774739           22 
 4036000   0.59942507   -5.6822596    1483.8844  0.030638513  0.029766655           34 
 4037000   0.59244924   -5.7076272    1482.5952   0.03060431  0.029758566           26 
 4038000   0.61413973    -5.706297    1482.4365  0.030593456   0.02975046           23 
 4039000   0.61238422   -5.6905561    1483.9187  0.030616463   0.02974233           20 
 4040000    0.6216772   -5.7110456    1482.4692  0.030578986  0.029734201           28 
 4041000   0.60459808   -5.6782542    1484.3495  0.030610193  0.029726088           16 
 4042000   0.59466061   -5.7084501    1485.9924  0.030636492  0.029717997           17 
 4043000   0.59088879   -5.6959976    1483.4875  0.030577284  0.029709894           10 
 4044000   0.60256542   -5.7073186     1480.001  0.030497878  0.029701776           16 
 4045000   0.60353797   -5.6909268    1484.7613  0.030588407  0.029693673           23 
 4046000   0.60534305   -5.7123413    1482.2653  0.030529439  0.029685559           12 
 4047000    0.6020255   -5.7146009    1484.0706  0.030559069  0.029677483           58 
 4048000   0.61743382    -5.695744     1485.575   0.03058249  0.029669396           16 
 4049000   0.60974742   -5.6952921    1482.5727  0.030513146   0.02966133           26 
 4050000   0.62228544   -5.7037741    1483.4881  0.030524446   0.02965323           14 
 4051000   0.59936244   -5.7186111    1484.6504   0.03054082  0.029645144           15 
 4052000   0.60203194   -5.7051255    1485.3367  0.030547398  0.029637041           22 
 4053000   0.60831026   -5.6834667    1485.3251  0.030539622  0.029628963           58 
 4054000   0.60370114    -5.717759    1484.9918  0.030525239   0.02962085           21 
 4055000   0.60170829   -5.7111742    1485.1141  0.030520225  0.029612759           22 
 4056000   0.59933942   -5.6849535    1488.1552  0.030575181  0.029604697           10 
 4057000   0.59341386    -5.700836     1483.867  0.030479563  0.029596669            6 
 4058000   0.59275646   -5.6899321    1485.0256  0.030495844  0.029588646           10 
 4059000   0.60836621   -5.7048618    1486.3985  0.030516516  0.029580641            8 
 4060000   0.60769796   -5.6939761     1484.989   0.03048007  0.029572629           10 
 4061000   0.60409344   -5.6790227    1488.1117  0.030536643  0.029564624           20 
 4062000   0.60383706   -5.6993065    1485.8237  0.030482187  0.029556586           18 
 4063000   0.60182911   -5.7018409    1485.2673  0.030463273  0.029548529           21 
 4064000   0.60116886   -5.7200569    1483.7786   0.03042525  0.029540448           30 
 4065000   0.60251681   -5.7192718    1483.1955  0.030405813  0.029532347           20 
 4066000   0.60512118    -5.711933    1481.8132  0.030370004  0.029524268           14 
 4067000   0.60524343   -5.7129146    1484.1657  0.030410739  0.029516183           10 
 4068000   0.60783292   -5.6929527    1484.5604  0.030411349  0.029508143           23 
 4069000   0.59075101    -5.696955    1488.2351  0.030479133  0.029500114           14 
 4070000   0.59361098   -5.6955176    1483.5001  0.030374696  0.029492061           23 
 4071000   0.59928806   -5.6981642    1483.7533  0.030372417  0.029484019            8 
 4072000   0.60350701   -5.7259031    1485.7948  0.030406737  0.029475952           29 
 4073000    0.6221519   -5.7121266    1483.3004  0.030348237  0.029467903           20 
 4074000   0.60986221    -5.728792    1482.7434  0.030329394  0.029459838           31 
 4075000   0.60101027   -5.6950899    1486.2041  0.030392721  0.029451789           15 
 4076000   0.61108255    -5.718146     1485.671  0.030374367  0.029443755           32 
 4077000   0.59666883   -5.7187479    1486.4047  0.030381912   0.02943571           44 
 4078000   0.60232526   -5.7087125    1486.3681  0.030373714  0.029427679           26 
 4079000    0.6057538   -5.7246132    1483.0528  0.030298538  0.029419635           18 
 4080000   0.60620586   -5.7107343    1481.7729  0.030264969  0.029411556           16 
 4081000   0.60601859   -5.6914321    1480.4411  0.030230359  0.029403485           11 
 4082000   0.60951664   -5.7242202    1482.8848  0.030272841   0.02939541            8 
 4083000   0.59036922   -5.7359439    1481.1413  0.030229842  0.029387296           17 
 4084000   0.60260654   -5.7235723    1485.4759  0.030310885  0.029379214           39 
 4085000   0.59953798    -5.717469    1483.0601  0.030254185  0.029371162            8 
 4086000   0.59149116   -5.7162405    1483.4747  0.030255236  0.029363108           16 
 4087000   0.60546708    -5.728909    1483.1442  0.030241094  0.029355051           18 
 4088000   0.59617387    -5.717965    1484.0288  0.030251729  0.029346962           20 
 4089000   0.59773371   -5.7382355    1486.8199  0.030301212  0.029338906           23 
 4090000   0.60028124   -5.7246796    1486.7579   0.03029254  0.029330841           19 
 4091000   0.59830882   -5.6932607    1484.0719  0.030230423  0.029322829           18 
 4092000   0.60172233   -5.6922505    1481.7834  0.030176429   0.02931479           27 
 4093000   0.59100773   -5.7044271    1484.1503  0.030217248  0.029306745           27 
 4094000   0.59571421   -5.7137162    1486.9976  0.030267823  0.029298757           14 
 4095000   0.59723173   -5.7106239    1487.9392  0.030279593  0.029290746           16 
 4096000   0.60530017   -5.7104438    1485.4896  0.030222364  0.029282734           21 
 4097000   0.59852979   -5.6962666    1483.0472  0.030165308  0.029274685           32 
 4098000   0.59072125   -5.7197509    1482.3553  0.030143876  0.029266638           22 
 4099000    0.5853714   -5.7107806    1484.8051  0.030186329  0.029258577           13 
 4100000   0.60219589   -5.7218897    1484.9034  0.030180964  0.029250562           20 
 4101000   0.58923714   -5.7303134    1483.7662  0.030150495   0.02924253           27 
 4102000   0.58118968    -5.739363    1483.1202  0.030130021  0.029234491           20 
 4103000   0.59857079   -5.7195315    1482.7693  0.030115551  0.029226443           18 
 4104000   0.60754004   -5.7194223    1484.1887  0.030137036  0.029218405           31 
 4105000   0.59356484   -5.7243578    1484.9543  0.030145235  0.029210386           23 
 4106000   0.59126409   -5.7200911     1483.696  0.030112356  0.029202375           28 
 4107000   0.58905295   -5.6815635     1485.472  0.030141061  0.029194344           16 
 4108000   0.60513025   -5.7122813    1483.8185  0.030100181  0.029186336           29 
 4109000   0.60591539   -5.7194631    1485.6835   0.03013068  0.029178351           13 
 4110000   0.58790864    -5.706072    1485.0508  0.030110519  0.029170357           16 
 4111000   0.60196262   -5.7375521    1483.8187   0.03007822  0.029162334           25 
 4112000   0.58697322   -5.7114971    1484.9961  0.030094766  0.029154334           24 
 4113000   0.58795788   -5.7220235    1486.4474  0.030116853  0.029146299           49 
 4114000   0.59145648   -5.7250184    1486.3316  0.030107188  0.029138288           29 
 4115000   0.59494986    -5.718435    1485.2007  0.030076968  0.029130305           24 
 4116000   0.58314948   -5.7230395    1485.1775  0.030069191  0.029122316           21 
 4117000   0.58737643   -5.7437134    1485.4427  0.030067256  0.029114297            9 
 4118000   0.58444792   -5.7360971    1482.6188  0.030002808  0.029106295           23 
 4119000    0.5977716   -5.7249914    1482.0949  0.029984925   0.02909831           16 
 4120000    0.6049326   -5.7020807    1487.2318   0.03008155  0.029090363           18 
 4121000   0.59238743   -5.7173424    1485.5046  0.030039323  0.029082376            8 
 4122000   0.59118459   -5.7282533    1482.7977   0.02997731  0.029074381           10 
 4123000   0.59519861   -5.7326188    1487.0277  0.030055537  0.029066396           31 
 4124000   0.60223762   -5.7344915    1483.6147  0.029979281  0.029058414            9 
 4125000   0.58044097   -5.7269752    1485.8438  0.030017046  0.029050449           27 
 4126000   0.58868882   -5.7179255    1489.0822  0.030075177  0.029042487           31 
 4127000   0.59515095   -5.7233837    1485.9606  0.030004858  0.029034523           15 
 4128000   0.58835198    -5.707256    1489.5187  0.030069419  0.029026602           39 
 4129000   0.57456106     -5.72641    1485.2581  0.029976146  0.029018653           28 
 4130000   0.58362945   -5.7305236    1484.9587  0.029962847  0.029010699           18 
 4131000   0.58986815   -5.7428834    1484.3344     0.029943  0.029002742            9 
 4132000   0.59565178   -5.7296652    1486.6529  0.029982513  0.028994771           27 
 4133000    0.5939555   -5.7469025    1481.4733  0.029870822  0.028986796           35 
 4134000   0.58722884   -5.7175418    1489.3482  0.030022338  0.028978833           15 
 4135000   0.59458118   -5.7430229    1482.9267  0.029885664  0.028970869           20 
 4136000   0.59614789    -5.715321     1485.948  0.029939314  0.028962877           28 
 4137000   0.59839635   -5.7408613    1483.5638  0.029884049  0.028954904           20 
 4138000   0.58376901   -5.7117588    1482.5221  0.029855851  0.028946911           14 
 4139000   0.59868155   -5.7364631    1485.4696  0.029907981  0.028938943           14 
 4140000   0.58325105    -5.734478    1485.3132  0.029897609  0.028931008           31 
 4141000   0.58927059   -5.7255089    1483.7384  0.029858697  0.028923068           17 
 4142000   0.60232097   -5.7327283    1489.5897  0.029969213   0.02891513           17 
 4143000   0.58381815   -5.7194071    1483.4136  0.029837751  0.028907209           11 
 4144000   0.57781503   -5.7339795      1483.02  0.029822636  0.028899249           22 
 4145000   0.57919245    -5.734715    1484.2838  0.029840849  0.028891317           28 
 4146000   0.58309539   -5.7210163    1488.1212  0.029910781  0.028883384           18 
 4147000   0.58135696   -5.7392938    1486.3315  0.029867606  0.028875465           22 
 4148000   0.59653942   -5.7204812    1485.6758  0.029847231  0.028867541           26 
 4149000   0.58516406   -5.7450433    1484.6919  0.029820276  0.028859625           48 
 4150000   0.58843239   -5.7326757     1486.509  0.029849578  0.028851687           13 
 4151000   0.58714617   -5.7255975     1486.163  0.029835441  0.028843742           47 
 4152000    0.5847241   -5.7336907    1483.5649   0.02977611    0.0288358           24 
 4153000   0.57480735   -5.7322277    1486.4725  0.029827284  0.028827857           13 
 4154000   0.58584906   -5.7167453      1489.63  0.029883445  0.028819936            6 
 4155000   0.59422967   -5.7301288    1487.4444  0.029832419  0.028812036           11 
 4156000   0.59022377   -5.7297407    1488.1942  0.029840275  0.028804163            9 
 4157000   0.59145752   -5.7239371    1488.0456  0.029830117  0.028796309           12 
 4158000   0.58370262   -5.7228076    1488.0216  0.029822463  0.028788442           15 
 4159000   0.58391047   -5.7357534    1487.3283    0.0298014  0.028780567           26 
 4160000   0.57487129   -5.7465471    1486.1575  0.029770784  0.028772679            9 
 4161000   0.58131337   -5.7334235    1489.3431  0.029827428  0.028764798           22 
 4162000   0.59237683   -5.7470083    1486.7113  0.029767566  0.028756892           16 
 4163000   0.58367646   -5.7319043    1487.1975  0.029770148     0.028749           22 
 4164000   0.58150309   -5.7436117    1485.8579  0.029736188  0.028741149           21 
 4165000   0.58267438   -5.7352685    1486.5707  0.029743312  0.028733253           16 
 4166000   0.59645209     -5.74983    1486.0855  0.029726466  0.028725339           22 
 4167000   0.58228817   -5.7352872    1487.0982  0.029739584  0.028717458            8 
 4168000   0.57515635   -5.7423517    1486.0591  0.029711673  0.028709583           25 
 4169000   0.59407863    -5.738885    1488.8548  0.029760431  0.028701678           29 
 4170000   0.57503884   -5.7356499    1487.2874  0.029721971  0.028693812           24 
 4171000   0.57967492   -5.7528786    1485.8226  0.029685579  0.028685922           48 
 4172000   0.58319324   -5.7185082    1489.0124  0.029742177  0.028678061           13 
 4173000   0.58676625   -5.7290176    1488.2039  0.029718905  0.028670201           17 
 4174000   0.58628673   -5.7527549    1488.6288  0.029720269  0.028662334           12 
 4175000   0.57775453   -5.7542327    1483.8671  0.029618105  0.028654456           16 
 4176000   0.58733054   -5.7608286    1484.9463   0.02963255  0.028646572           26 
 4177000   0.57873999   -5.7460704    1487.2386  0.029671188  0.028638712           13 
 4178000   0.57402994   -5.7542173    1490.4786  0.029728709  0.028630862           23 
 4179000   0.59161885   -5.7255799    1486.7143  0.029646532  0.028623023           16 
 4180000   0.58782339    -5.748939    1484.9095  0.029603459  0.028615203           16 
 4181000   0.58100904   -5.7356946    1488.5235   0.02966841  0.028607377           23 
 4182000   0.57860213   -5.7422229    1487.6917  0.029644742  0.028599533           36 
 4183000   0.58216143   -5.7378571    1486.6872  0.029617643   0.02859167           33 
 4184000    0.5848501   -5.7481906    1488.3274  0.029643233  0.028583809           17 
 4185000   0.59102174   -5.7481363     1486.562  0.029600995  0.028575967           24 
 4186000   0.58740755   -5.7515196    1485.4094  0.029570979  0.028568101           28 
 4187000   0.57735525   -5.7438713    1484.3516  0.029542863  0.028560217           65 
 4188000   0.57989452   -5.7546448    1486.2903  0.029574385  0.028552362           15 
 4189000   0.58920073   -5.7447179     1485.368  0.029548977  0.028544527           30 
 4190000   0.58577535   -5.7437367     1489.322  0.029620565  0.028536694           29 
 4191000   0.58318736   -5.7415571    1487.5267    0.0295778  0.028528861           11 
 4192000   0.58603604   -5.7311659    1489.8147  0.029616228  0.028521043           22 
 4193000   0.58372893   -5.7446238    1486.0779  0.029534897  0.028513209           41 
 4194000   0.57506079   -5.7507841    1488.1481  0.029568988  0.028505382           17 
 4195000   0.59075761   -5.7504246    1487.2101  0.029543308  0.028497535           46 
 4196000   0.59176186   -5.7439614    1487.8021  0.029548024  0.028489676           35 
 4197000   0.57592486   -5.7610097    1484.7853  0.029481083  0.028481828           23 
 4198000   0.57786216   -5.7657006    1487.1572  0.029521145  0.028473986           17 
 4199000   0.57287122   -5.7547757    1485.8218  0.029487612  0.028466168           36 
 4200000   0.57254845   -5.7774581    1485.1421  0.029467106  0.028458334           18 
 4201000   0.57419042   -5.7496688    1487.3678  0.029504241  0.028450492           46 
 4202000   0.57286724   -5.7509834    1485.3963  0.029458121  0.028442669           18 
 4203000   0.56810962     -5.74303    1488.3311  0.029509301  0.028434879           26 
 4204000   0.57752145   -5.7627149    1484.3077  0.029422527  0.028427088           13 
 4205000   0.58672206   -5.7617862    1485.5279  0.029439712  0.028419245           68 
 4206000   0.58012646   -5.7611195    1489.4395  0.029510213  0.028411411           12 
 4207000   0.58486527   -5.7415149    1489.9258  0.029512832  0.028403625            9 
 4208000   0.58257175   -5.7559662    1489.0735   0.02948894  0.028395851           39 
 4209000   0.57215737   -5.7512057    1490.3412  0.029507033  0.028388059           11 
 4210000   0.58571471   -5.7521705    1484.6831  0.029388027  0.028380274           31 
 4211000   0.58067802   -5.7673158    1486.2059  0.029411183  0.028372477           17 
 4212000   0.59382482   -5.7608069    1489.8617  0.029476529  0.028364691           19 
 4213000   0.55788593   -5.7614519    1491.3665  0.029499297  0.028356898           13 
 4214000   0.57243549   -5.7624365    1486.2642  0.029391398  0.028349111           27 
 4215000   0.58316609   -5.7542277    1490.9111  0.029476298  0.028341326           16 
 4216000   0.57791972   -5.7684801    1487.2305  0.029396554   0.02833355           24 
 4217000   0.57319296   -5.7650778    1489.8151  0.029440658  0.028325768           28 
 4218000   0.59641061   -5.7215057    1487.6168  0.029390247  0.028318014           33 
 4219000   0.58399059    -5.747742    1489.7433  0.029425284  0.028310262           21 
 4220000   0.58380813   -5.7794033    1484.6439  0.029317612  0.028302495           47 
 4221000   0.56913405   -5.7629551    1487.5365  0.029367774    0.0282947           39 
 4222000   0.57208461   -5.7864391    1485.8891  0.029328302  0.028286912           39 
 4223000   0.58418294   -5.7945808    1485.3295  0.029310315    0.0282791           70 
 4224000   0.57935476   -5.7706336    1487.3701  0.029343634  0.028271289           46 
 4225000   0.57229716   -5.7772136     1487.472  0.029338699  0.028263496           25 
 4226000   0.58908739   -5.7631046     1487.409  0.029330513  0.028255731            9 
 4227000   0.59047794   -5.7772907    1484.8702  0.029273523  0.028247929           36 
 4228000    0.5711828   -5.7712201    1487.1333  0.029311205  0.028240139           12 
 4229000   0.57691232   -5.7772723    1489.3999  0.029348938  0.028232372           12 
 4230000   0.57316926   -5.7544093    1487.9118  0.029312683  0.028224613            9 
 4231000   0.57804442   -5.7844523    1485.3272  0.029254849  0.028216845           18 
 4232000   0.59976828    -5.773414    1487.1726  0.029284274  0.028209059           12 
 4233000   0.56874194   -5.7772977    1487.6915  0.029287571  0.028201284           24 
 4234000   0.57520273   -5.7602693    1488.3313  0.029293248  0.028193519           12 
 4235000   0.57263314   -5.7610785    1489.2816  0.029305029  0.028185753           35 
 4236000   0.56790344   -5.7657348    1487.2675   0.02925849  0.028177984           10 
 4237000   0.58149859   -5.7618121    1488.0203   0.02926639  0.028170225           48 
 4238000   0.57759102    -5.750513    1486.9643  0.029238719  0.028162447           28 
 4239000    0.5793826   -5.7607284    1485.2718   0.02919855  0.028154689           12 
 4240000   0.55795533   -5.7770254    1484.4584  0.029175676  0.028146935           12 
 4241000   0.57550116    -5.758361    1487.1713  0.029222104   0.02813919           22 
 4242000   0.58026262   -5.7620045     1491.403  0.029298347   0.02813145           13 
 4243000   0.56483587    -5.780476    1489.0602  0.029245428  0.028123719           55 
 4244000   0.57592009   -5.7710391    1488.9212  0.029235807   0.02811599           16 
 4245000   0.55195366    -5.749003    1490.4494   0.02925892  0.028108256           34 
 4246000   0.56130238   -5.7799247    1486.7375  0.029179179  0.028100507           16 
 4247000   0.55638937   -5.7815431    1487.6015  0.029189261  0.028092731           14 
 4248000   0.57768284   -5.7756191    1485.7988  0.029147026  0.028084987           11 
 4249000   0.57268354   -5.7649793    1486.1345   0.02914675  0.028077248           10 
 4250000   0.56513547   -5.7813818    1486.2375  0.029141912  0.028069514           20 
 4251000   0.57327205   -5.7913533    1485.0893  0.029112548  0.028061753           18 
 4252000   0.57605674   -5.7702687    1488.9958  0.029182263  0.028054014           21 
 4253000   0.55806249   -5.7847603    1489.0972  0.029177388  0.028046303           12 
 4254000   0.57710706   -5.7811226    1489.8954  0.029186165  0.028038604           23 
 4255000   0.56682268   -5.7646552    1484.5787   0.02907518  0.028030893           30 
 4256000   0.57125512   -5.7694619    1488.2753  0.029140729  0.028023178           62 
 4257000   0.56787396   -5.7983632    1485.1664  0.029073025  0.028015446           23 
 4258000   0.57243933   -5.7841644    1489.4227  0.029149497  0.028007711           17 
 4259000   0.57089388    -5.784733    1485.9725  0.029075145  0.027999981           33 
 4260000    0.5697903   -5.7673319    1487.7826  0.029103729  0.027992254           15 
 4261000   0.56670906   -5.7609905    1489.0294  0.029121281  0.027984552           18 
 4262000   0.56631723   -5.7953424    1487.3164  0.029080955  0.027976838           17 
 4263000   0.56585678   -5.7727855    1486.6021  0.029060172  0.027969115           19 
 4264000   0.57780547   -5.7586079    1487.1033  0.029063151  0.027961428           10 
 4265000   0.56456101   -5.7771348    1487.8524  0.029070973  0.027953729           13 
 4266000   0.57033222   -5.7898106    1488.3872  0.029074605  0.027946039           19 
 4267000   0.56738245   -5.7794413    1487.5037  0.029050537  0.027938305           16 
 4268000   0.57225094   -5.7684343    1486.6447  0.029026958  0.027930587           37 
 4269000   0.56495361    -5.788718    1486.3319  0.029014052  0.027922905           18 
 4270000   0.56719624   -5.7676126    1488.1819  0.029043362  0.027915216           10 
 4271000   0.56901993    -5.759079    1486.9351  0.029012236  0.027907546           29 
 4272000    0.5749093   -5.7754566    1488.7946  0.029041717  0.027899922           23 
 4273000   0.56542197   -5.7740969    1489.6878  0.029052341  0.027892298           30 
 4274000   0.56428594   -5.7900865    1492.0623   0.02909184  0.027884671           20 
 4275000   0.56281822   -5.7845199    1488.2585  0.029010888  0.027877001           20 
 4276000   0.56824429   -5.7989418    1482.9809  0.028901249  0.027869318           15 
 4277000   0.55575089   -5.8074226    1489.1704  0.029015088  0.027861631           19 
 4278000   0.56567752    -5.778182    1489.8539   0.02902162   0.02785396           25 
 4279000   0.55513795    -5.795809    1486.6295  0.028952042  0.027846303           10 
 4280000   0.56731655   -5.7755863    1487.4383  0.028961026  0.027838639            9 
 4281000     0.556277   -5.7838863    1488.5708  0.028976307  0.027830986           17 
 4282000   0.56199259   -5.7957423    1485.7664  0.028914963  0.027823321           16 
 4283000   0.56416194   -5.7797025    1487.5772  0.028943443  0.027815675           24 
 4284000   0.57321093   -5.7966415    1486.2945  0.028911736  0.027808035           24 
 4285000   0.57007115   -5.7936394    1488.7316  0.028952384  0.027800386           10 
 4286000   0.56642523   -5.7808615    1491.0172  0.028990068  0.027792765           18 
 4287000   0.55570311   -5.7693824    1492.6374    0.0290148  0.027785182           22 
 4288000   0.56349259   -5.7678765    1493.4471  0.029023769  0.027777588           12 
 4289000   0.56364059   -5.7902807    1492.2307  0.028993369  0.027769994           14 
 4290000   0.56913213   -5.7869103      1489.64  0.028936286  0.027762386           21 
 4291000   0.57856047   -5.8000909    1490.6968  0.028950066  0.027754762           24 
 4292000    0.5709945   -5.8049577    1487.8817  0.028888662  0.027747131           17 
 4293000    0.5698813   -5.8055569    1491.1523  0.028945422  0.027739507           35 
 4294000   0.56745142   -5.8016016    1486.8719   0.02885561  0.027731848           16 
 4295000   0.56606052   -5.7950899    1489.0184   0.02889054   0.02772421           18 
 4296000   0.57253159   -5.7979135    1492.4151  0.028949703  0.027716576           17 
 4297000   0.58907677   -5.7936101    1487.3394  0.028844532  0.027708976           11 
 4298000   0.57210778   -5.8042183     1489.596  0.028881573  0.027701341           28 
 4299000   0.56823618   -5.8056702    1490.9291  0.028900696  0.027693732           14 
 4300000   0.55715651   -5.7908071    1491.5577  0.028906158  0.027686118           21 
 4301000   0.55816341   -5.7799717    1492.5129  0.028917944  0.027678528           26 
 4302000   0.56060186    -5.791229    1489.5695  0.028854205  0.027670919           49 
 4303000   0.55421116   -5.8052373    1486.8171  0.028794195  0.027663306           77 
 4304000   0.56950642   -5.8178764      1489.39  0.028837323  0.027655691           35 
 4305000    0.5627896   -5.7752193    1487.2229  0.028788674  0.027648089           15 
 4306000   0.57562535   -5.8136157    1487.0823  0.028779268  0.027640491           78 
 4307000   0.56347089   -5.8163575    1486.5457  0.028762202  0.027632885           31 
 4308000   0.57640578   -5.8071043    1489.1205  0.028805332  0.027625274           35 
 4309000    0.5675264   -5.7979053     1488.498  0.028786609  0.027617663           35 
 4310000    0.5511833   -5.8097093    1487.0974   0.02875285  0.027610031           37 
 4311000   0.56441004   -5.7863138    1486.6296  0.028737137  0.027602412           56 
 4312000   0.55081883   -5.8122906    1487.5148  0.028747581  0.027594789           25 
 4313000   0.56405292   -5.8210608    1487.8914  0.028748191  0.027587161           28 
 4314000   0.56724135   -5.8240659    1487.8259  0.028740261   0.02757956           89 
 4315000   0.57075789   -5.8206493    1486.0843  0.028699967  0.027571947           64 
 4316000   0.54769574   -5.8143748    1488.2047  0.028734257  0.027564317           49 
 4317000   0.55037883   -5.8274506    1484.1913   0.02865013  0.027556692           33 
 4318000   0.55585647    -5.815396    1488.2388  0.028721608  0.027549058           32 
 4319000   0.55595581   -5.8098118    1485.9754  0.028671285  0.027541443           19 
 4320000   0.55558344   -5.8126876    1485.2163  0.028650006  0.027533833           40 
 4321000   0.55153798   -5.7955642    1491.4639  0.028763865  0.027526232           36 
 4322000   0.56186218   -5.8149221    1486.4705   0.02866093  0.027518649           13 
 4323000   0.56511411   -5.8106455     1487.964  0.028683091  0.027511052           23 
 4324000   0.54776347   -5.7879842    1489.5134  0.028706317  0.027503466           30 
 4325000   0.55684879   -5.8127639    1484.1788  0.028596893  0.027495878           37 
 4326000   0.55689933   -5.8016045    1487.5269   0.02865478  0.027488274           52 
 4327000   0.55985405   -5.8037439    1487.1473  0.028640847  0.027480675           50 
 4328000   0.55693472    -5.813666    1485.6138  0.028604701  0.027473075           54 
 4329000    0.5614658   -5.8187683    1488.8767  0.028660905  0.027465469           73 
 4330000   0.54761983   -5.8235429    1486.7225  0.028612828  0.027457859           31 
 4331000   0.54623258   -5.8435751    1486.6751  0.028605309   0.02745024           99 
 4332000   0.56014284   -5.8327832    1486.7107  0.028599389  0.027442622           41 
 4333000   0.55622407    -5.809479     1490.153  0.028658993  0.027435013           58 
 4334000   0.55360418    -5.830484    1485.1229  0.028555662  0.027427388           43 
 4335000   0.55615865   -5.8256123    1483.1329  0.028510821  0.027419766           23 
 4336000   0.55696746   -5.8147897    1483.6067  0.028513352   0.02741213           45 
 4337000   0.57008636   -5.8284801    1486.1911  0.028556435  0.027404498           28 
 4338000   0.55595096   -5.8197058    1484.9422  0.028525861  0.027396869           67 
 4339000   0.55712012   -5.8159778    1483.9567   0.02850036  0.027389244           61 
 4340000   0.55046858   -5.7987196    1483.8997  0.028492698  0.027381614           50 
 4341000   0.54184013   -5.8202402    1484.2156  0.028492199  0.027373986           32 
 4342000   0.55149565   -5.8199074    1485.7355  0.028514807  0.027366349           24 
 4343000   0.55758041   -5.8159598    1487.8544  0.028548899  0.027358751           13 
 4344000   0.55388128   -5.8218816     1486.921   0.02852442   0.02735115           51 
 4345000   0.56324089   -5.8166026    1489.4097  0.028565586  0.027343534           14 
 4346000   0.56007106   -5.8026711    1491.2974  0.028595209   0.02733595           14 
 4347000   0.55431432   -5.7912726     1487.733  0.028520301  0.027328401           10 
 4348000   0.56058814    -5.806058    1486.8981  0.028497741  0.027320837           29 
 4349000   0.55505737   -5.8023309     1485.002  0.028454856  0.027313281           24 
 4350000   0.55143231    -5.801832    1486.1948  0.028471165  0.027305719           17 
 4351000   0.56214605   -5.8037883    1488.4131  0.028507108  0.027298152           36 
 4352000   0.53938494   -5.8234042    1487.6767  0.028486457  0.027290565           58 
 4353000   0.54844417   -5.8250489    1486.5726  0.028458776  0.027282972           79 
 4354000   0.55623584   -5.8254169    1483.9437  0.028401924  0.027275366           33 
 4355000   0.54662035   -5.8215991    1488.0933  0.028474806  0.027267794           63 
 4356000   0.55855717   -5.8181562    1486.8873  0.028445197  0.027260231           33 
 4357000   0.55843779   -5.7947489    1489.6013  0.028490576  0.027252675           67 
 4358000   0.55428211   -5.8242169      1487.36  0.028441181  0.027245121           61 
 4359000   0.56363125   -5.8077126    1486.4961  0.028418142  0.027237559           78 
 4360000   0.56181099   -5.8085218    1487.8414  0.028437336  0.027230008           32 
 4361000   0.54238892   -5.7964538    1490.2848  0.028477506  0.027222451           29 
 4362000   0.55819799   -5.8109304    1488.9037  0.028444591    0.0272149           52 
 4363000   0.54937586   -5.8018316    1487.5097  0.028411446  0.027207349           35 
 4364000   0.54832312   -5.8063044    1487.4997  0.028404744  0.027199797           37 
 4365000   0.55411526    -5.820917    1487.4618  0.028397515  0.027192235           31 
 4366000   0.55181992   -5.8114202    1487.1369  0.028384808  0.027184665           37 
 4367000   0.54844192   -5.8227954    1484.5446  0.028328842  0.027177106           75 
 4368000   0.56535673   -5.8180309    1486.9457  0.028368164  0.027169517           27 
 4369000   0.55532077   -5.8287643    1484.0961  0.028307318  0.027161945           55 
 4370000   0.54590335   -5.8269765    1486.1845  0.028340665  0.027154385           36 
 4371000   0.55336488   -5.8110606    1487.0764  0.028351186  0.027146823           47 
 4372000    0.5530209   -5.8278141    1490.6181  0.028412208  0.027139262           47 
 4373000    0.5521182    -5.851484    1485.6888  0.028311777  0.027131715           83 
 4374000   0.55167067    -5.807692    1487.7967  0.028345463  0.027124172           55 
 4375000    0.5535087   -5.8284062    1488.6286   0.02835483  0.027116641           21 
 4376000   0.55316176   -5.8245203    1485.3241  0.028285423    0.0271091           16 
 4377000    0.5459705   -5.8153415    1485.9795  0.028291439  0.027101573           30 
 4378000   0.54080838   -5.8165975    1488.6439  0.028335692  0.027094047           23 
 4379000   0.54354849    -5.847141    1484.4032  0.028248519  0.027086501           14 
 4380000   0.56700917   -5.8366244    1485.6162  0.028265149  0.027078947           33 
 4381000   0.54959148   -5.8216815    1484.8155  0.028243466  0.027071372           47 
 4382000    0.5433935   -5.8321941    1484.4978   0.02823098  0.027063815           13 
 4383000   0.54098033   -5.8256387    1485.9505  0.028252158  0.027056266           23 
 4384000   0.54843976   -5.8194521    1488.9501  0.028302732  0.027048735           22 
 4385000   0.55122045   -5.8271326     1485.024  0.028221664  0.027041204           35 
 4386000   0.55117599     -5.81772    1486.0157  0.028234073  0.027033677           74 
 4387000     0.549347   -5.8185352    1485.5284  0.028218379  0.027026154           45 
 4388000   0.55101113   -5.8332478     1486.898  0.028237959  0.027018613           92 
 4389000   0.54735007    -5.850888    1483.5318  0.028167612  0.027011051           75 
 4390000   0.55489927   -5.8394041    1484.1804  0.028173508    0.0270035           60 
 4391000   0.54389606   -5.8313589    1486.5261  0.028211609  0.026995948           91 
 4392000   0.54343419   -5.8406882    1486.2913   0.02820073  0.026988405           92 
 4393000   0.53314815   -5.8349533    1486.0934  0.028190556  0.026980854           16 
 4394000   0.54944597   -5.8373304    1484.6865  0.028157458  0.026973287           20 
 4395000   0.54963682    -5.856424    1487.7129  0.028208436  0.026965735           36 
 4396000   0.55383384    -5.854184    1485.3721  0.028157646  0.026958174           23 
 4397000   0.55793044   -5.8345278    1484.1841  0.028128726  0.026950619           29 
 4398000   0.55687176   -5.8345753    1485.2571  0.028142662  0.026943084           33 
 4399000   0.54805757    -5.817651    1490.3692  0.028233107  0.026935556           26 
 4400000   0.54824009   -5.8352856    1486.1212  0.028146235  0.026928041           24 
 4401000   0.55085685   -5.8549295    1478.5947  0.027997324  0.026920522           16 
 4402000   0.53602843   -5.8195427    1482.4199  0.028063379  0.026912996           25 
 4403000   0.56404804   -5.8466556    1481.7913  0.028045107  0.026905462           23 
 4404000    0.5516125   -5.8371339    1484.9379  0.028098279  0.026897923           91 
 4405000   0.55001954   -5.8361674    1485.0025  0.028093124  0.026890395           29 
 4406000   0.55334339   -5.8282389    1483.7269  0.028062621   0.02688287           33 
 4407000   0.54635935   -5.8339147    1484.9781  0.028079913   0.02687537           49 
 4408000   0.55449898   -5.8241143     1485.373  0.028081008  0.026867861           61 
 4409000   0.54801231   -5.8436327    1486.0536  0.028087503  0.026860361           38 
 4410000   0.54400354   -5.8311971    1485.7235  0.028074897  0.026852876           24 
 4411000   0.55568444   -5.8159597    1486.5636  0.028084402  0.026845404           57 
 4412000   0.53692798   -5.8354184    1489.5226  0.028133926  0.026837913           21 
 4413000   0.54981179   -5.8312626    1485.7487  0.028056286  0.026830436           21 
 4414000   0.54681697   -5.8487522    1484.1011  0.028018825  0.026822961           28 
 4415000   0.56231339   -5.8297064    1482.9514  0.027990777   0.02681549           49 
 4416000   0.55464966   -5.8263684     1484.864  0.028020532   0.02680803           33 
 4417000   0.55181582   -5.8224979    1486.5862   0.02804668  0.026800567           32 
 4418000   0.54257569   -5.8412572     1486.736  0.028043157  0.026793101           53 
 4419000   0.55230279   -5.8421007    1485.1201  0.028006339  0.026785619           34 
 4420000   0.55357851   -5.8550434    1486.9853  0.028035167  0.026778125           33 
 4421000   0.54546405    -5.823456    1486.5277    0.0280202  0.026770628           25 
 4422000   0.53678412   -5.8275845     1484.794  0.027981192   0.02676316           43 
 4423000   0.55308993   -5.8288377    1489.5398  0.028064281   0.02675568           23 
 4424000   0.55078303   -5.8497789     1484.753  0.027967771  0.026748216           41 
 4425000   0.53377091   -5.8194081    1486.9394  0.028002625   0.02674076           20 
 4426000   0.53474983   -5.8291699    1486.8325  0.027994285  0.026733301           24 
 4427000   0.54856668   -5.8377187    1489.0725  0.028030127  0.026725854           26 
 4428000   0.53470666   -5.8326141    1489.2269  0.028026703  0.026718401           17 
 4429000   0.54087942   -5.8298849    1486.8179   0.02797505  0.026710932           34 
 4430000   0.53820097   -5.8101066    1484.3041  0.027921446  0.026703477           85 
 4431000   0.53422582   -5.8546976    1486.7657  0.027961441  0.026695993           54 
 4432000   0.54040031    -5.847228    1483.5366  0.027894416  0.026688511           64 
 4433000   0.55225085   -5.8381297    1483.5229  0.027887866  0.026681042           53 
 4434000   0.55267452   -5.8378516    1482.7408  0.027866876  0.026673591           34 
 4435000   0.54263907   -5.8597051    1482.5365  0.027856755  0.026666123           40 
 4436000    0.5304689   -5.8398888    1483.3485  0.027865728  0.026658656           23 
 4437000   0.54753223   -5.8406467    1483.4719  0.027861767  0.026651214           28 
 4438000   0.53539324   -5.8363802    1485.4146  0.027891966  0.026643777           37 
 4439000   0.55440134   -5.8282378    1488.7926  0.027949099  0.026636341           65 
 4440000   0.53986958   -5.8361373    1486.1686  0.027893554  0.026628918           32 
 4441000   0.54689446   -5.8287612     1481.798  0.027805262  0.026621463           38 
 4442000   0.55480486   -5.8468959    1487.4603  0.027905229  0.026614003           42 
 4443000   0.53414452   -5.8543406    1483.8226  0.027830719  0.026606546           52 
 4444000   0.54535743   -5.8262608    1487.1064  0.027886033  0.026599072           34 
 4445000   0.53699224   -5.8642886     1484.037  0.027822217  0.026591612           21 
 4446000   0.53386219   -5.8552271    1483.8493   0.02781244  0.026584146           35 
 4447000   0.53980759   -5.8623829    1486.4299  0.027854544  0.026576699           22 
 4448000   0.54187151    -5.846975    1485.0893  0.027823166  0.026569245           29 
 4449000   0.53498135   -5.8318129    1484.4414  0.027804777  0.026561799           33 
 4450000   0.54173435    -5.852571    1487.1542  0.027849329  0.026554359           57 
 4451000   0.54166251   -5.8458477    1484.6644  0.027796458  0.026546921           37 
 4452000   0.53953439   -5.8647558    1484.1032   0.02777971  0.026539489           21 
 4453000   0.54384218   -5.8501204    1486.5253  0.027818798  0.026532054           21 
 4454000   0.53843777   -5.8366673    1484.9508  0.027783094  0.026524644           18 
 4455000   0.53984812   -5.8468472    1485.6992  0.027790856   0.02651721           25 
 4456000    0.5369455   -5.8503593    1486.6646  0.027802675  0.026509762           51 
 4457000   0.53176126   -5.8610283    1485.1848  0.027768768  0.026502327           23 
 4458000   0.53393985   -5.8608068    1483.9765  0.027739952  0.026494882           45 
 4459000   0.53463401   -5.8590235    1484.0923  0.027735896  0.026487429           42 
 4460000   0.53760402   -5.8843982     1484.693  0.027740901  0.026479969           39 
 4461000   0.53470992   -5.8611069    1483.5646  0.027713602  0.026472498           82 
 4462000   0.53395001    -5.880786    1482.1349   0.02768069   0.02646504           53 
 4463000   0.52715551   -5.8546038    1484.2281  0.027713573  0.026457593           32 
 4464000   0.53413427    -5.856255    1488.0036  0.027777845  0.026450174           31 
 4465000   0.54285119   -5.8605574    1485.4956  0.027724815   0.02644276           77 
 4466000   0.53533547   -5.8395364    1485.5741  0.027720073   0.02643534           24 
 4467000   0.53884389   -5.8609406    1484.3434  0.027690908  0.026427904           50 
 4468000   0.54439724   -5.8483588    1483.0475  0.027660539   0.02642048           61 
 4469000   0.54485475   -5.8826861    1485.0973  0.027692573  0.026413051           58 
 4470000   0.52705382   -5.8663931      1488.19  0.027744034  0.026405607          136 
 4471000   0.52896337   -5.8590086    1484.0803   0.02766123   0.02639816          146 
 4472000   0.53777458   -5.8690031    1483.9588   0.02765278  0.026390727          148 
 4473000    0.5462365   -5.8498376    1485.2584  0.027670811  0.026383304          142 
 4474000   0.53622143    -5.860598    1482.2694  0.027608952  0.026375874          138 
 4475000   0.53430611   -5.8594113    1483.9053  0.027633246  0.026368451          211 
 4476000   0.53615276   -5.8876658    1487.3382  0.027690985  0.026361007          230 
 4477000   0.53479845   -5.8716296    1483.3317  0.027610224  0.026353578          165 
 4478000   0.52602861   -5.8732328     1483.198   0.02760157  0.026346153           73 
 4479000   0.53288587   -5.8763149    1480.9061  0.027552766  0.026338732           73 
 4480000   0.52851749   -5.8798412    1483.4371  0.027593696  0.026331308           74 
 4481000     0.545233   -5.8624805    1481.5655  0.027552732  0.026323885          114 
 4482000   0.51875198   -5.8828952    1483.2636  0.027578156  0.026316457           62 
 4483000   0.52640217   -5.8665775    1487.2155  0.027645467  0.026309045           59 
 4484000   0.53262394   -5.8982201      1485.12  0.027600357  0.026301634           40 
 4485000   0.52815485   -5.8921594    1481.6947  0.027530559  0.026294218           54 
 4486000   0.52894813   -5.8896908    1481.3391  0.027517817  0.026286786           79 
 4487000   0.52761977   -5.8779935    1481.1005  0.027507252   0.02627937          114 
 4488000   0.52385616   -5.8865862    1483.1602  0.027539369  0.026271956           94 
 4489000   0.54094098   -5.8705832    1484.7455  0.027562663  0.026264546           41 
 4490000   0.53034977   -5.8592836    1484.1659  0.027545767  0.026257153           72 
 4491000   0.54358734   -5.8599201     1483.547  0.027528148  0.026249759           36 
 4492000   0.54644091   -5.8757473    1484.0611  0.027531558  0.026242376           43 
 4493000   0.53494537   -5.8656935    1484.5526  0.027534546   0.02623498           53 
 4494000   0.52457044   -5.8946044    1483.1912  0.027503175  0.026227565           64 
 4495000   0.53474518   -5.8682959    1485.0824  0.027532117  0.026220191           48 
 4496000   0.53666281   -5.8894422    1483.8411  0.027502985  0.026212815           47 
 4497000   0.53905764   -5.8492811    1482.7371  0.027476412  0.026205435           62 
 4498000   0.53234192   -5.8786688    1481.6494  0.027450151  0.026198056           49 
 4499000   0.52667848   -5.8755607    1483.2832  0.027474312  0.026190684           47 
 4500000   0.52848088   -5.8563813    1484.5687  0.027492012   0.02618333           43 
 4501000   0.52352032    -5.869131    1486.2199  0.027516476  0.026175955           62 
 4502000   0.53470804   -5.8624419    1482.6478  0.027444243  0.026168565           50 
 4503000    0.5341479   -5.8733705    1484.8909   0.02747966  0.026161184          127 
 4504000   0.52162918   -5.8872893    1483.2704  0.027443576  0.026153789           80 
 4505000   0.53404406   -5.8969788     1483.722  0.027445839  0.026146384           43 
 4506000   0.52410212   -5.8900318    1482.2553  0.027412622  0.026138996           91 
 4507000   0.53720841   -5.8811461    1481.5458  0.027393422  0.026131626           39 
 4508000   0.53438168   -5.8671837    1482.9296  0.027412926   0.02612424           19 
 4509000    0.5301584   -5.9014225    1480.5321  0.027362536  0.026116842           54 
 4510000   0.52928261     -5.89337    1480.0728  0.027347982  0.026109426           26 
 4511000   0.53136117   -5.8810452    1480.5704  0.027351113  0.026102029           21 
 4512000   0.53963751   -5.8858856    1481.6231  0.027364493   0.02609465           58 
 4513000   0.52841118   -5.8926295    1482.7415  0.027379081  0.026087281           18 
 4514000   0.51599049   -5.8751312    1484.2565  0.027400983   0.02607991           32 
 4515000   0.52968554   -5.8668962    1482.6013  0.027364365  0.026072532           46 
 4516000   0.52989839   -5.8827055    1484.3121  0.027389875  0.026065157           26 
 4517000    0.5222654   -5.8868929    1481.4159   0.02733038  0.026057792           50 
 4518000   0.53101323   -5.8807509    1480.2169  0.027302214  0.026050418           43 
 4519000    0.5329869   -5.8661931    1483.7785  0.027361852  0.026043079           22 
 4520000   0.52709841   -5.8950357     1482.103  0.027324908  0.026035715           54 
 4521000   0.52894501   -5.8904411    1479.7967  0.027276354  0.026028374           57 
 4522000    0.5157111   -5.8656914     1485.387  0.027373342  0.026021064           27 
 4523000   0.52461906   -5.8706921    1481.2311  0.027290719  0.026013719           64 
 4524000   0.52341601   -5.8762521     1481.054  0.027281425  0.026006383           38 
 4525000   0.51538994   -5.8716088    1481.9121    0.0272912  0.025999039           39 
 4526000   0.52576104   -5.8860714     1484.162  0.027326595  0.025991695           48 
 4527000   0.52751465   -5.8817849    1483.6504  0.027311141  0.025984368           47 
 4528000   0.52643376   -5.8932442    1483.3661  0.027299877  0.025977039           47 
 4529000   0.52257286    -5.880439     1484.597  0.027316497    0.0259697           94 
 4530000   0.53171536   -5.9022746    1484.3283  0.027305525  0.025962364           49 
 4531000   0.52921539   -5.8849222     1481.834  0.027253623  0.025955032           89 
 4532000   0.52110002   -5.8887958     1480.059  0.027214972  0.025947712          103 
 4533000   0.53052621   -5.8837256    1484.7078  0.027294429   0.02594038           87 
 4534000     0.524413    -5.887722    1483.6027  0.027268098   0.02593306           90 
 4535000   0.52397684   -5.8688983    1483.3617  0.027257658  0.025925746          107 
 4536000   0.51715262    -5.878361    1485.7045   0.02729469  0.025918454          138 
 4537000   0.53484228    -5.866177    1482.7822  0.027234998  0.025911169           83 
 4538000   0.51963713    -5.859617    1480.3174  0.027183734  0.025903865           55 
 4539000    0.5227569   -5.8774365    1481.5971   0.02720124  0.025896553           97 
 4540000    0.5345254   -5.8806798    1484.3316  0.027245441  0.025889262          130 
 4541000   0.52901517   -5.8702158    1482.9138  0.027213423  0.025881951          132 
 4542000   0.52474182   -5.8848014    1482.1656  0.027193704  0.025874644          156 
 4543000   0.52321591   -5.9049537     1479.706    0.0271426  0.025867319          142 
 4544000   0.52145754   -5.8933158    1479.7797  0.027137979  0.025859987           78 
 4545000   0.52189743   -5.8924036     1480.902  0.027152585  0.025852663          172 
 4546000    0.5203701   -5.8954224    1480.8531  0.027145716  0.025845342          164 
 4547000   0.52578378   -5.8786515    1483.7811  0.027193407  0.025838029          110 
 4548000   0.51637274   -5.9046414    1483.0298  0.027173662  0.025830707          181 
 4549000   0.52512398   -5.9114835    1478.9186  0.027092375  0.025823387           94 
 4550000   0.52643905    -5.899526    1476.3736  0.027039809   0.02581605          252 
 4551000   0.52603693   -5.8913166    1483.6331  0.027166797  0.025808709          433 
 4552000   0.51376512   -5.8997109    1480.6984  0.027107104  0.025801396          192 
 4553000   0.50595269   -5.9203961    1480.5717   0.02709883  0.025794075          187 
 4554000   0.52282312     -5.91239    1481.5316  0.027110445  0.025786757          182 
 4555000    0.5256762   -5.8921177    1480.3254  0.027082427  0.025779448          125 
 4556000   0.52755755   -5.9091117    1481.7548  0.027102627  0.025772155          167 
 4557000   0.52266445   -5.8931825     1481.711  0.027095878  0.025764859          139 
 4558000   0.52657954   -5.9150604    1481.5603  0.027087178  0.025757579          104 
 4559000   0.52000254   -5.9015677    1482.3421  0.027095527  0.025750299          201 
 4560000   0.51699444   -5.9066459    1480.1083  0.027048762   0.02574301          105 
 4561000   0.51712045   -5.8963713    1482.4062  0.027084818  0.025735725           63 
 4562000   0.52041234   -5.8989473     1479.945  0.027033921   0.02572846          112 
 4563000   0.52531378   -5.9193607    1483.2563   0.02708847  0.025721182          211 
 4564000   0.52412499   -5.9087764    1486.8328  0.027147837  0.025713936          106 
 4565000   0.51974952   -5.8986565    1483.6378  0.027083566  0.025706686           67 
 4566000   0.53583671     -5.90515     1483.058  0.027067053  0.025699436           47 
 4567000    0.5279945   -5.8962267    1481.8739  0.027039521   0.02569217          122 
 4568000   0.52059455   -5.8988425     1480.968  0.027017075  0.025684932           66 
 4569000   0.52311921   -5.9011811    1484.0702  0.027067743  0.025677684           87 
 4570000   0.52699613   -5.8804778    1482.5364  0.027033852  0.025670426          101 
 4571000   0.52092232   -5.9099351    1481.1858  0.027003314  0.025663177           69 
 4572000    0.5238472   -5.9082124    1483.3686  0.027037194  0.025655943           56 
 4573000   0.51158019   -5.8926984    1483.0801  0.027026023  0.025648731           92 
 4574000   0.52362306   -5.9060228    1484.3106  0.027042535  0.025641525           98 
 4575000   0.52407732   -5.8859074    1485.0227  0.027049594  0.025634298           56 
 4576000   0.51617763   -5.8791707    1484.9241  0.027041887  0.025627104           70 
 4577000   0.52281007   -5.8896261    1483.2346  0.027005218  0.025619912           70 
 4578000   0.51241316   -5.8907011    1486.2916  0.027054966  0.025612703           38 
 4579000   0.52548587   -5.8930598     1486.266  0.027048591  0.025605508           39 
 4580000    0.5278018   -5.8922802    1485.1584  0.027022534  0.025598323           25 
 4581000   0.52335563   -5.8981582    1484.4153  0.027003117  0.025591156           69 
 4582000    0.5152032   -5.8865102     1484.508  0.026998909   0.02558398           43 
 4583000   0.51720571   -5.8855827     1484.676  0.026996072  0.025576803           81 
 4584000   0.53037566   -5.9069913    1484.0938  0.026979599  0.025569599           59 
 4585000   0.51486356   -5.8833506    1489.6166  0.027074093  0.025562395           45 
 4586000     0.515952   -5.8894938    1482.1837  0.026933124  0.025555193           54 
 4587000   0.52461923   -5.9004556      1482.64  0.026935542  0.025547994           66 
 4588000   0.51729532   -5.8816726    1483.9834  0.026954072  0.025540794           43 
 4589000   0.53052293    -5.898459    1482.5038   0.02692133  0.025533597           54 
 4590000    0.5216383   -5.9039404    1484.9548  0.026959964  0.025526411          126 
 4591000    0.5201106   -5.9125975    1485.0938  0.026956615  0.025519238           63 
 4592000   0.51081041   -5.9003816     1484.015  0.026931166  0.025512061           75 
 4593000     0.519243   -5.9056039    1481.0259   0.02687107  0.025504864           43 
 4594000   0.50682425   -5.9049859    1483.9654  0.026918543  0.025497674           92 
 4595000   0.51633912   -5.9079683    1482.0832  0.026878549    0.0254905           87 
 4596000    0.5182807   -5.8981442    1485.0869  0.026927162  0.025483313           82 
 4597000   0.50480042   -5.9016454    1484.5029  0.026910719  0.025476145          147 
 4598000   0.50840797   -5.9190553    1481.5365  0.026851104  0.025468972          134 
 4599000   0.51412254   -5.8826356    1482.6946  0.026866249  0.025461806          113 
 4600000   0.52001638   -5.9265764    1483.1417  0.026868508   0.02545462          133 
 4601000   0.52674579   -5.9186948    1483.9745  0.026877754   0.02544742          126 
 4602000   0.51956549   -5.9075447    1481.7338  0.026831338  0.025440239           86 
 4603000   0.52053829   -5.9019537    1480.5712  0.026804462  0.025433051          110 
 4604000   0.51690504   -5.8917288    1483.0774  0.026844001  0.025425888           59 
 4605000   0.51968866   -5.8932619    1484.8309  0.026869905  0.025418736          118 
 4606000   0.51217163   -5.9201172     1484.608  0.026860037  0.025411579           60 
 4607000   0.52465513   -5.9084657    1481.4532  0.026797142  0.025404424           64 
 4608000   0.51726973   -5.9129549    1481.0735   0.02678446   0.02539729           70 
 4609000    0.5338633   -5.8985775    1481.5648  0.026787531  0.025390142           71 
 4610000   0.53560554   -5.8908779    1484.6184   0.02683692     0.025383          109 
 4611000   0.51813667   -5.9057134    1482.1724  0.026786894  0.025375859           77 
 4612000   0.51068535   -5.9116845    1481.2322  0.026764096   0.02536871          137 
 4613000   0.51952839   -5.8944957    1484.1668  0.026811309   0.02536155          175 
 4614000   0.51654631   -5.9176567    1479.9273  0.026728928  0.025354381           90 
 4615000   0.50525509   -5.9352642    1484.5715  0.026806997  0.025347226           91 
 4616000   0.51626493   -5.9122097    1481.6974  0.026749303  0.025340063           49 
 4617000   0.50606452     -5.92442    1483.9193  0.026783614  0.025332903           65 
 4618000   0.50969763   -5.9218849    1480.4364  0.026714963  0.025325743           91 
 4619000   0.51824581   -5.9144218     1484.932  0.026790286   0.02531861           64 
 4620000   0.51535639   -5.8955354    1484.4708   0.02677617  0.025311483           94 
 4621000   0.51318243    -5.891052    1484.9535  0.026779079  0.025304339           50 
 4622000   0.50654995   -5.9196368    1485.4398  0.026782054  0.025297198           75 
 4623000   0.51316158   -5.9184155    1481.9789  0.026713874  0.025290056           58 
 4624000   0.50972225   -5.9335796    1483.5343  0.026736129  0.025282905           43 
 4625000   0.51564347   -5.9264591    1483.4873  0.026729501  0.025275744          104 
 4626000   0.51880908   -5.9394614    1480.5631  0.026671047  0.025268583           74 
 4627000   0.51055468   -5.9244301    1482.9452  0.026708185  0.025261428          175 
 4628000   0.51837808   -5.9201945    1478.1115  0.026615375  0.025254295          175 
 4629000   0.51612519   -5.9095438     1483.857  0.026713059  0.025247143           87 
 4630000   0.50602875   -5.9194815    1480.7903  0.026652094  0.025240026          148 
 4631000   0.50817675   -5.9334779    1481.8199  0.026664865  0.025232888           86 
 4632000   0.52004854   -5.9158095     1479.692  0.026620825  0.025225736          103 
 4633000   0.51184052    -5.935364     1481.917  0.026655101  0.025218579          164 
 4634000   0.51025618   -5.9319495    1478.7222  0.026591897  0.025211416          171 
 4635000   0.50583368   -5.9247338    1479.8485  0.026606409   0.02520427          194 
 4636000   0.52544374   -5.9324392      1480.83  0.026618312  0.025197135           87 
 4637000   0.49921181    -5.929718    1482.4114  0.026640992  0.025189994           98 
 4638000   0.51393408   -5.9292298    1483.7016   0.02665843  0.025182863           72 
 4639000   0.52366103   -5.9168741    1482.9573  0.026639313  0.025175743           62 
 4640000   0.52459208   -5.9178247    1482.9291  0.026633066   0.02516863           64 
 4641000   0.51152717   -5.9166659     1483.238  0.026632874  0.025161528           65 
 4642000   0.52441008   -5.9182252    1481.7169   0.02659983  0.025154431           86 
 4643000   0.51796695   -5.9457456    1480.6371   0.02657472  0.025147325           81 
 4644000     0.515203   -5.9524537    1484.6545  0.026641087  0.025140214           56 
 4645000   0.51054687     -5.92555     1482.921  0.026604253   0.02513311           93 
 4646000   0.51595335   -5.9377059    1482.7767  0.026595938  0.025126001          131 
 4647000   0.49547768   -5.9313495    1479.8629  0.026537961  0.025118905           84 
 4648000   0.50573096   -5.9438706    1481.0719  0.026553929  0.025111802          161 
 4649000    0.5092928   -5.9406454    1481.9073   0.02656319  0.025104709           64 
 4650000   0.50408873   -5.9413854    1477.7518  0.026483007  0.025097601           54 
 4651000   0.50827954   -5.9438662    1478.8114  0.026496298  0.025090464           80 
 4652000   0.51405636   -5.9464738     1479.085  0.026495504  0.025083334           80 
 4653000   0.51699348   -5.9418305    1481.0382  0.026524791  0.025076211          135 
 4654000   0.51268481   -5.9636053    1480.6326  0.026511829  0.025069077          162 
 4655000   0.50067133   -5.9271591    1482.6715  0.026542634  0.025061946           87 
 4656000   0.51436251   -5.9489349    1479.3689  0.026477822  0.025054831           95 
 4657000   0.50938978    -5.944986    1479.3713   0.02647218  0.025047713           76 
 4658000   0.49709379   -5.9444811    1479.4098  0.026467185  0.025040611           96 
 4659000   0.49955628   -5.9400124    1481.3045  0.026495394    0.0250335           39 
 4660000   0.50136559    -5.943743    1484.7165  0.026550724  0.025026405          100 
 4661000   0.50479243   -5.9478435    1480.7753  0.026474563  0.025019308           67 
 4662000   0.51518186   -5.9231023     1483.644  0.026520163  0.025012216          136 
 4663000    0.5081773   -5.9486601    1483.8858  0.026518796  0.025005151           50 
 4664000   0.50828602   -5.9312389    1478.9937  0.026425702  0.024998066          125 
 4665000   0.50821774    -5.939372    1478.9657  0.026419537  0.024990979          143 
 4666000   0.50820217   -5.9429136    1481.5147  0.026459399  0.024983883          186 
 4667000   0.50276353   -5.9482599    1480.0328  0.026427269  0.024976798          128 
 4668000   0.50038487   -5.9472291    1482.8809  0.026472453  0.024969711           87 
 4669000   0.50576566   -5.9451848    1480.8279   0.02643014  0.024962621          132 
 4670000    0.4969473   -5.9555338    1480.8118  0.026424193  0.024955525          114 
 4671000   0.50214734   -5.9534628    1480.0282  0.026404557  0.024948449           60 
 4672000   0.50497385   -5.9292954    1481.6734  0.026428251  0.024941393           91 
 4673000   0.50877634   -5.9283326    1483.5481  0.026456026  0.024934342           55 
 4674000   0.50272181    -5.951887    1480.9964   0.02640487  0.024927298           66 
 4675000   0.50530626   -5.9477752     1480.783  0.026395419  0.024920243           67 
 4676000    0.4989232   -5.9303816    1483.5995  0.026439969  0.024913194           60 
 4677000   0.50918133   -5.9224886    1481.7497  0.026401357  0.024906144           67 
 4678000   0.51218098   -5.9446684    1480.7501  0.026377905  0.024899095           93 
 4679000   0.50837463   -5.9289046    1484.3966  0.026437213  0.024892043          133 
 4680000   0.51123085    -5.929691     1480.705   0.02636583  0.024884993          155 
 4681000   0.50540073   -5.9363029    1479.6054  0.026340621  0.024877928           98 
 4682000   0.50281088   -5.9275911    1481.4445  0.026367729  0.024870887           92 
 4683000   0.49902204   -5.9351543    1479.9124  0.026334835  0.024863843           85 
 4684000   0.50088897   -5.9263138    1478.4509  0.026303212  0.024856787           69 
 4685000    0.5021739   -5.9323978    1483.3524  0.026384781  0.024849763           47 
 4686000   0.50995336   -5.9373579    1477.7024  0.026278674  0.024842743           36 
 4687000   0.49697147   -5.9545476     1481.706   0.02634425  0.024835716           69 
 4688000   0.49976291   -5.9452928    1483.5948  0.026372206  0.024828696           85 
 4689000   0.49783093   -5.9462102    1481.8406  0.026335406   0.02482165           70 
 4690000   0.49913358   -5.9296073    1480.5519  0.026306893  0.024814612           65 
 4691000   0.49542096   -5.9461785    1478.4794  0.026264467  0.024807577           30 
 4692000   0.51496265   -5.9533606    1479.3543  0.026274409  0.024800538          123 
 4693000   0.49972923   -5.9532583    1476.8783  0.026224843  0.024793494           90 
 4694000   0.49863445   -5.9619924    1481.0997  0.026294201  0.024786458           36 
 4695000   0.50973122   -5.9503542    1482.9887  0.026322127  0.024779426           50 
 4696000    0.5013317   -5.9491882    1482.8679  0.026314379  0.024772386           68 
 4697000   0.49856927   -5.9497391    1480.6667  0.026269723  0.024765344           93 
 4698000   0.50550249   -5.9493011    1479.8111  0.026248955  0.024758303           79 
 4699000    0.4998508   -5.9585331    1481.5236  0.026273738  0.024751281          156 
 4700000   0.51116053   -5.9497529    1481.3019  0.026264218  0.024744255           87 
 4701000   0.50724674    -5.951189    1479.2274  0.026221856  0.024737221          107 
 4702000   0.49109078   -5.9535288    1478.8479  0.026209555  0.024730182           66 
 4703000   0.49750343    -5.940531     1481.209  0.026245818  0.024723145          108 
 4704000   0.49698222   -5.9768829    1480.8277  0.026233483  0.024716104           61 
 4705000   0.49362036   -5.9376971    1480.0936  0.026214907  0.024709063          105 
 4706000   0.49898382   -5.9668865    1479.4457  0.026197863  0.024702016           77 
 4707000    0.4849758   -5.9636992    1481.5192  0.026229007  0.024694985          131 
 4708000    0.4989055    -5.943053    1480.2823  0.026201542  0.024687958          218 
 4709000   0.49274857   -5.9429022    1480.0252  0.026191427   0.02468094          122 
 4710000   0.50199164   -5.9481226    1479.5644  0.026177714  0.024673917          126 
 4711000   0.49658848   -5.9460464    1477.9471  0.026143548  0.024666879          177 
 4712000   0.49751833   -5.9755798     1480.488  0.026182938  0.024659852          167 
 4713000   0.50224737   -5.9603853    1477.5833  0.026126021  0.024652799          127 
 4714000   0.49900238   -5.9709805     1479.799  0.026159648  0.024645755          106 
 4715000   0.50326525   -5.9725131    1478.6575  0.026133925  0.024638706          161 
 4716000   0.49285273   -5.9754256    1477.7037   0.02611153  0.024631666          166 
 4717000   0.49392219   -5.9717157    1477.5128  0.026102622  0.024624628          170 
 4718000   0.49561396   -5.9736594    1478.7201  0.026118414  0.024617593          217 
 4719000   0.50681509   -5.9722303    1478.5837   0.02611047  0.024610555          216 
 4720000   0.49579944   -5.9630894    1478.8136  0.026108997  0.024603524          160 
 4721000   0.49694975   -5.9614507    1479.7171  0.026119415    0.0245965          139 
 4722000   0.48983437   -5.9666009    1476.1319  0.026050612  0.024589483          304 
 4723000   0.49461281   -5.9506676    1480.3064  0.026118752  0.024582476          123 
 4724000    0.4913357   -5.9671131    1478.6983  0.026084857  0.024575472          196 
 4725000   0.49277255   -5.9541539    1480.6026   0.02611292  0.024568461          138 
 4726000   0.48275979   -5.9540725    1478.3094   0.02606696  0.024561453          169 
 4727000   0.50970601    -5.955441    1478.2606  0.026060584  0.024554461          194 
 4728000   0.50926507   -5.9837421    1478.2175  0.026054313  0.024547463          133 
 4729000    0.4824919   -5.9628136    1476.2259  0.026013708  0.024540466          188 
 4730000   0.49558448   -5.9480566    1481.9445  0.026108959  0.024533455          223 
 4731000   0.49580495   -5.9645478    1478.9864  0.026051335  0.024526464          316 
 4732000   0.49056258    -5.983248    1477.6563  0.026022406  0.024519473          354 
 4733000   0.49827352   -5.9691942    1477.8838  0.026020913  0.024512479          420 
 4734000   0.50140689   -5.9631365    1478.7831  0.026031248  0.024505474          474 
 4735000   0.48829336   -5.9678429    1476.6537  0.025988274  0.024498471          178 
 4736000   0.49779164   -5.9647519    1478.8497  0.026021427   0.02449147          389 
 4737000    0.4967156   -5.9725087    1477.8647  0.025998605  0.024484469          153 
 4738000   0.50487707   -5.9736957     1477.911  0.025993933   0.02447747          450 
 4739000   0.49648986   -5.9627702     1478.739  0.026003007  0.024470476          240 
 4740000   0.51006737   -5.9831909    1477.6285  0.025977998  0.024463475          241 
 4741000    0.4877403   -5.9740703    1478.6136  0.025989832   0.02445648          278 
 4742000   0.49339104   -5.9815863    1477.3154  0.025961539  0.024449473          498 
 4743000   0.49067787   -5.9912251    1474.9304  0.025914162  0.024442469          394 
 4744000   0.50222919   -5.9886103    1475.3382  0.025915862  0.024435458          314 
 4745000   0.49334496   -5.9926223    1477.4534  0.025947548  0.024428449          217 
 4746000   0.48687786   -5.9689544    1474.7407   0.02589445  0.024421432          644 
 4747000    0.4906326   -5.9837517    1474.5406  0.025885483  0.024414438          471 
 4748000    0.4852552   -5.9879249    1475.8673  0.025903315  0.024407452          581 
 4749000   0.50217899   -5.9926569    1478.1579  0.025938055  0.024400452          614 
 4750000   0.49328547    -5.982418    1476.2169  0.025898543  0.024393462          546 
 4751000   0.50268742   -6.0037839     1478.412  0.025931592  0.024386477          519 
 4752000   0.49914037   -5.9761003    1474.7919  0.025862653  0.024379497          560 
 4753000   0.49545781    -5.972438    1478.8193  0.025927823  0.024372527          354 
 4754000   0.49484568    -5.967175    1477.6762  0.025902332  0.024365563          435 
 4755000   0.48455045   -5.9721235    1477.6644  0.025896678  0.024358608          476 
 4756000   0.50156748   -5.9762353    1476.8712  0.025877333  0.024351638          487 
 4757000   0.49052111   -5.9804722    1476.7734  0.025870181  0.024344673          352 
 4758000   0.49389493   -5.9826032    1479.2468  0.025908063  0.024337719          472 
 4759000   0.49457109   -5.9834895     1479.066  0.025899453  0.024330753          418 
 4760000   0.47823303   -5.9939986    1478.3841  0.025882075  0.024323793          280 
 4761000    0.4804016   -5.9749838    1478.0507  0.025870802   0.02431684          493 
 4762000   0.48604336     -5.97327    1478.0066  0.025864598  0.024309884          392 
 4763000   0.50651151   -6.0017843    1474.2875  0.025794099  0.024302939          648 
 4764000   0.48243078   -5.9820573    1479.8699  0.025886332  0.024295979          683 
 4765000   0.49230115   -5.9869263    1475.9378  0.025812134  0.024289027          579 
 4766000   0.48813395   -5.9662304    1476.3997  0.025814794  0.024282092          632 
 4767000   0.49058434    -5.962351     1478.467  0.025845517  0.024275149          444 
 4768000   0.48739459   -5.9813879    1480.2828  0.025871832  0.024268206          507 
 4769000   0.49571862    -5.986466    1478.6806  0.025838411  0.024261266          588 
 4770000   0.50100958   -5.9910446    1476.0044   0.02578624  0.024254314          617 
 4771000    0.4980563     -5.98005    1475.2711  0.025768027  0.024247363          646 
 4772000   0.49559259   -5.9904337    1474.3458  0.025746468  0.024240415          679 
 4773000    0.4945963   -5.9808158    1478.2588  0.025809393  0.024233467          734 
 4774000   0.49097202   -5.9718722    1477.1138  0.025783999  0.024226538          547 
 4775000   0.49509485   -5.9814904    1476.3489  0.025765252    0.0242196          689 
 4776000   0.48527497   -5.9813524    1477.7064  0.025783543  0.024212661          662 
 4777000   0.48342918   -5.9950565    1472.6016  0.025689093   0.02420571          780 
 4778000   0.48301347   -5.9915001    1475.6327  0.025736582  0.024198763          861 
 4779000   0.47899288   -5.9955138    1476.4214  0.025744951  0.024191818          812 
 4780000   0.47854086   -5.9967968     1475.479  0.025723134  0.024184877          796 
 4781000   0.49225361    -6.003456    1475.8794  0.025724734   0.02417794          848 
 4782000   0.48278689   -6.0045328     1476.081  0.025722867   0.02417099          838 
 4783000   0.48551967   -5.9803953    1477.6872  0.025745473  0.024164055          761 
 4784000   0.49198902   -5.9922253    1478.0481  0.025746379  0.024157103          848 
 4785000   0.49554744   -6.0005255     1476.938  0.025721666  0.024150159          854 
 4786000   0.49369976   -5.9928993    1477.3831   0.02572404  0.024143211          860 
 4787000   0.48737189   -6.0161583    1478.5619  0.025739188  0.024136268          838 
 4788000   0.48596811   -5.9932842    1475.4836  0.025680235  0.024129325          810 
 4789000   0.48071191   -6.0085685    1478.2432  0.025722893  0.024122389          755 
 4790000   0.48937605   -6.0079018    1475.8597  0.025676056  0.024115458          785 
 4791000   0.49435861   -6.0079019    1471.9659  0.025602969  0.024108521          891 
 4792000   0.49733167   -5.9962328    1475.3288  0.025656107  0.024101592          756 
 4793000   0.48112876   -6.0081943    1477.1293  0.025682058  0.024094674          792 
 4794000   0.48924283   -6.0135713    1474.8254  0.025636654  0.024087744          823 
 4795000   0.46659108    -5.993049    1475.2873  0.025639335  0.024080829          872 
 4796000   0.48997233   -6.0042536    1476.8686  0.025661465   0.02407391          824 
 4797000   0.47961257    -6.003032    1473.7182  0.025601387  0.024066984          836 
 4798000   0.47619546   -6.0139881    1475.2415  0.025622507  0.024060058          862 
 4799000   0.48472176   -6.0141962     1474.644  0.025606793  0.024053137          859 
 4800000   0.49195253   -6.0000453    1475.3394  0.025613532  0.024046212          960 
 4801000   0.49339843   -6.0056252    1472.6261    0.0255611  0.024039298          938 
 4802000   0.47657225   -6.0065462    1473.5182  0.025571258  0.024032388          896 
 4803000   0.48120133   -6.0218882    1472.0366  0.025540228  0.024025473          999 
 4804000   0.48859808   -5.9891386    1470.9526  0.025516108  0.024018557          844 
 4805000   0.49119517   -6.0058351    1473.5317  0.025555528  0.024011639         1008 
 4806000   0.48258044   -6.0081332    1474.6287  0.025569232  0.024004719          821 
 4807000   0.48787383   -6.0176037    1473.5656  0.025545482   0.02399779          953 
 4808000   0.48628948   -6.0072096     1470.805  0.025492322   0.02399086          897 
 4809000   0.48233105   -6.0032486    1473.4499  0.025532853  0.023983936          985 
 4810000   0.49013329   -6.0251607    1476.6912  0.025583701  0.023977014          996 
 4811000   0.48398569    -6.008784    1471.8985  0.025495366   0.02397009          950 
 4812000   0.47948101   -6.0130741     1473.217  0.025512901  0.023963161          946 
 4813000   0.48762103   -6.0136169    1472.3641  0.025492834  0.023956245         1094 
 4814000   0.48521896   -5.9927758    1474.2574  0.025520312  0.023949328         1005 
 4815000    0.4782684   -6.0076589    1477.1173  0.025564509  0.023942425          974 
 4816000   0.48057087   -6.0085453    1476.0631  0.025540959  0.023935512         1014 
 4817000   0.48087851   -6.0259897    1472.8164   0.02547949  0.023928601         1051 
 4818000   0.47719112   -6.0117947    1474.2976   0.02549982  0.023921694         1010 
 4819000   0.47500454   -6.0251057    1474.8584  0.025504226  0.023914787         1019 
 4820000   0.46919911   -6.0122618     1471.685  0.025444071  0.023907895          939 
 4821000   0.48295168   -6.0378556    1470.6934  0.025421652  0.023900996         1009 
 4822000   0.46916245   -6.0307135     1475.573  0.025500708    0.0238941          979 
 4823000   0.47487915   -5.9985314    1475.7357  0.025498233  0.023887199          968 
 4824000   0.47455582   -6.0066896    1472.3939  0.025435217  0.023880307         1078 
 4825000   0.47727182    -6.011529    1475.7883  0.025488571  0.023873419          919 
 4826000   0.47890075   -6.0325554    1472.8652  0.025432816  0.023866518          880 
 4827000   0.48063569   -6.0078694    1472.7303  0.025425218  0.023859624         1049 
 4828000   0.48973206   -6.0160748    1472.0765  0.025408667  0.023852732          918 
 4829000   0.46984162   -6.0097943    1472.7543  0.025415101  0.023845836         1047 
 4830000   0.47546277   -6.0146412     1473.283  0.025418962   0.02383894         1015 
 4831000   0.48733915   -6.0211189    1472.6147  0.025402172  0.023832046          933 
 4832000   0.47535494   -6.0328077    1470.3292  0.025357498  0.023825151          987 
 4833000   0.48373656   -6.0350644    1472.8244  0.025395276  0.023818257         1050 
 4834000   0.49861295   -6.0258322    1472.6186  0.025386474  0.023811372          987 
 4835000   0.46808771   -6.0364404    1469.0606    0.0253199  0.023804486          978 
 4836000   0.46353206    -6.030908     1471.725  0.025360577  0.023797596         1078 
 4837000   0.47191675    -6.023564    1473.5295  0.025386423  0.023790721         1043 
 4838000   0.47831719   -6.0286421    1474.0284  0.025389769  0.023783844          904 
 4839000   0.47262011   -6.0279337    1472.4091  0.025356636  0.023776977          951 
 4840000   0.48067427   -6.0435728    1473.6478  0.025372723  0.023770104          943 
 4841000   0.47562728   -6.0247536    1473.2353  0.025360381  0.023763231         1021 
 4842000    0.4808982   -6.0240682    1473.8254  0.025365301  0.023756361         1165 
 4843000   0.47805787   -6.0450071    1470.2299  0.025298195  0.023749487         1135 
 4844000   0.47420378   -6.0378077    1469.8714  0.025286806  0.023742614         1127 
 4845000   0.47796835   -6.0510961    1473.9123  0.025351089  0.023735744         1154 
 4846000   0.46334642   -6.0379202    1477.1786  0.025402025  0.023728885         1081 
 4847000   0.46350472   -6.0570056    1470.3185  0.025278841   0.02372202         1240 
 4848000   0.46813356   -6.0466598    1471.7735  0.025298637  0.023715146         1127 
 4849000    0.4707228   -6.0387394    1471.3818  0.025286688   0.02370828         1192 
 4850000   0.47854298    -6.049976    1471.7058  0.025287041  0.023701414         1225 
 4851000   0.47361729   -6.0268167    1472.1288  0.025289095  0.023694549         1220 
 4852000   0.46259372   -6.0357849    1469.6224  0.025240836   0.02368768         1290 
 4853000   0.46833152   -6.0446161    1472.0239  0.025276872  0.023680823         1282 
 4854000   0.47681253   -6.0565762    1471.7871  0.025267599  0.023673958         1271 
 4855000   0.47501024   -6.0507746    1470.9962  0.025248818  0.023667093         1228 
 4856000   0.48112432   -6.0340811     1472.881  0.025275964   0.02366025         1146 
 4857000   0.46954124   -6.0206123    1472.1987  0.025259054   0.02365341         1272 
 4858000   0.47252364   -6.0328437    1470.8848  0.025231316  0.023646562         1258 
 4859000   0.47273259   -6.0291256    1472.5664  0.025254963  0.023639716         1163 
 4860000   0.46854284   -6.0351194    1474.3839  0.025280931   0.02363287         1227 
 4861000   0.48083952   -6.0254613    1473.5228  0.025260967  0.023626041         1226 
 4862000   0.47052495   -6.0148347    1472.7592  0.025242685  0.023619215         1174 
 4863000   0.47749605   -6.0316378    1473.4399  0.025249159  0.023612386         1193 
 4864000   0.46900921   -6.0334711    1472.1909  0.025222568  0.023605556         1150 
 4865000   0.47687069   -6.0496361    1470.8389  0.025194225  0.023598725         1095 
 4866000   0.47526306   -6.0451008    1471.3739  0.025198211  0.023591908         1049 
 4867000   0.47489575   -6.0366392    1472.0589  0.025204761  0.023585089         1207 
 4868000   0.45677554   -6.0360938      1473.33  0.025221343  0.023578263         1274 
 4869000   0.47153932   -6.0170628     1468.732  0.025137469  0.023571435         1161 
 4870000    0.4630501   -6.0300217    1470.3997  0.025160844  0.023564599         1204 
 4871000   0.46363895   -6.0468274    1468.6932  0.025126483  0.023557773         1241 
 4872000   0.46267673    -6.042109    1472.7348  0.025190456  0.023550957         1219 
 4873000   0.46762171   -6.0389569    1468.7286  0.025116775  0.023544136         1172 
 4874000   0.46686343   -6.0420485    1471.3179  0.025155894  0.023537325         1211 
 4875000   0.46243908   -6.0377619      1470.81  0.025142052  0.023530512         1018 
 4876000   0.47400587   -6.0450189    1471.8513  0.025154691  0.023523712         1167 
 4877000   0.47101786   -6.0647068    1472.0366    0.0251527  0.023516895         1386 
 4878000   0.47841312    -6.036922    1471.2098  0.025133419  0.023510093         1222 
 4879000    0.4805041   -6.0402518    1472.8429  0.025156161  0.023503287         1342 
 4880000   0.47086505   -6.0425349     1470.173  0.025105414  0.023496491         1306 
 4881000   0.46608282   -6.0435479    1470.1738  0.025100284  0.023489686         1319 
 4882000   0.46567206   -6.0489495    1471.5383  0.025118434  0.023482891         1256 
 4883000   0.47724373   -6.0350263    1470.8356  0.025101297  0.023476089         1362 
 4884000   0.46923467   -6.0480746    1471.6151  0.025109458  0.023469287         1306 
 4885000   0.46878116   -6.0477941    1470.1073  0.025078597  0.023462475         1360 
 4886000   0.47599297   -6.0537464     1470.714  0.025083811  0.023455658         1419 
 4887000     0.471081   -6.0527779    1471.5019  0.025092114  0.023448862         1287 
 4888000   0.46838718   -6.0559606    1471.0413  0.025079128  0.023442055         1302 
 4889000   0.46700932   -6.0451303    1471.2927  0.025078283  0.023435247         1460 
 4890000   0.46369822   -6.0512076    1468.8241  0.025031086  0.023428439         1481 
 4891000   0.47429516   -6.0499259    1467.8229  0.025008909  0.023421635         1495 
 4892000   0.47119196   -6.0401048    1468.7312  0.025019269  0.023414841         1396 
 4893000   0.46086038   -6.0585854    1471.2628  0.025057272  0.023408046         1470 
 4894000     0.479236   -6.0418628    1473.7909    0.0250952  0.023401277         1463 
 4895000   0.46158459   -6.0302032    1468.1802  0.024994556  0.023394485         1574 
 4896000   0.46790535   -6.0526991    1470.8787   0.02503538  0.023387713         1548 
 4897000   0.46729283   -6.0425684    1470.6737   0.02502678  0.023380921         1461 
 4898000    0.4654982   -6.0575891    1471.0279  0.025027696  0.023374136         1516 
 4899000   0.47302481   -6.0559933    1470.6408  0.025016003  0.023367359         1456 
 4900000   0.46486733   -6.0686726    1468.2619   0.02497044  0.023360573         1562 
 4901000   0.46386391   -6.0568664    1465.6586   0.02492108  0.023353784         1469 
 4902000   0.47016983   -6.0487579    1468.8691  0.024970575  0.023347004         1448 
 4903000   0.47770703   -6.0481328    1468.4488  0.024958338   0.02334023         1500 
 4904000   0.46751469   -6.0574545    1468.1988  0.024949001  0.023333443         1477 
 4905000   0.47048371   -6.0348013     1472.389  0.025015103  0.023326667         1524 
 4906000   0.46123606   -6.0575624     1467.746  0.024931139  0.023319882         1564 
 4907000   0.46808101   -6.0506434    1468.0018  0.024930402    0.0233131         1575 
 4908000   0.46933524   -6.0560016     1467.981  0.024924969  0.023306318         1539 
 4909000   0.47042179   -6.0629026    1467.9158  0.024918786   0.02329953         1526 
 4910000   0.44945369   -6.0476431    1468.1393  0.024917503  0.023292754         1522 
 4911000   0.47449703   -6.0519445    1467.3826   0.02489959  0.023285977         1535 
 4912000   0.46291429   -6.0284306    1468.7699  0.024918057  0.023279202         1501 
 4913000   0.46755474   -6.0566488     1468.332  0.024905557  0.023272419         1606 
 4914000   0.46929606   -6.0660159    1470.6653  0.024940058  0.023265635         1585 
 4915000   0.46788154   -6.0494346     1467.677  0.024884316  0.023258858         1550 
 4916000   0.46309006   -6.0643531    1470.5154   0.02492737  0.023252087         1579 
 4917000   0.45992411   -6.0653727    1466.8827  0.024860732  0.023245319         1578 
 4918000   0.46980516   -6.0579945    1468.3305   0.02488021  0.023238559         1628 
 4919000   0.46829583   -6.0744245    1469.4579  0.024894252  0.023231801         1609 
 4920000   0.45612716   -6.0726513    1469.9648  0.024897778   0.02322504         1613 
 4921000   0.45423015   -6.0561063    1469.0247  0.024876799  0.023218264         1583 
 4922000   0.47186149   -6.0681734     1469.276  0.024875999  0.023211493         1617 
 4923000    0.4656869   -6.0885622    1468.4705  0.024857311  0.023204724         1643 
 4924000   0.46280719   -6.0705919     1468.179   0.02484733  0.023197947         1573 
 4925000   0.46946504   -6.0678951    1469.2372  0.024860189  0.023191184         1650 
 4926000   0.46452708   -6.0718189    1468.2538  0.024838506  0.023184423         1603 
 4927000   0.46384584    -6.085464    1466.7004  0.024807192   0.02317766         1703 
 4928000    0.4588596   -6.0677712    1471.9001  0.024890085  0.023170887         1731 
 4929000    0.4669562   -6.0849667     1465.763  0.024781278  0.023164122         1740 
 4930000   0.47087171   -6.0857353    1465.7999  0.024776874  0.023157368         1759 
 4931000   0.46741507   -6.0671772    1466.7212  0.024787419  0.023150609         1708 
 4932000    0.4536529   -6.0696282    1466.8362  0.024784337  0.023143845         1799 
 4933000   0.46276716   -6.0834808    1470.6897   0.02484441   0.02313708         1767 
 4934000   0.46840426   -6.0803041    1467.4146  0.024784059  0.023130315         1804 
 4935000   0.45901234   -6.0653337     1467.911   0.02478742  0.023123559         1830 
 4936000   0.46497414    -6.078547    1466.4634  0.024757958   0.02311681         1821 
 4937000   0.46972026    -6.085989    1468.3256  0.024784377  0.023110054         1836 
 4938000   0.46250898   -6.0923875    1465.8362  0.024737347  0.023103299         1852 
 4939000    0.4597378   -6.0883472    1466.4757  0.024743127  0.023096539         1926 
 4940000   0.45581712   -6.0971685    1466.8227  0.024743973  0.023089773         1874 
 4941000   0.46404374   -6.0809651    1466.4041  0.024731905  0.023083021         1855 
 4942000   0.46438782   -6.0837742    1464.1369   0.02468867  0.023076258         1864 
 4943000   0.46878733   -6.0858328    1467.3765  0.024738291  0.023069506         1890 
 4944000   0.46756241   -6.0824148    1464.6237  0.024686887  0.023062756         1946 
 4945000   0.45386373   -6.0733252    1464.4392  0.024678787  0.023056005         1880 
 4946000   0.45743192   -6.0773955    1464.9724  0.024682781  0.023049257         1910 
 4947000   0.45694471   -6.0922219    1466.3918  0.024701701  0.023042504         1918 
 4948000   0.45573247   -6.0818547    1465.1568  0.024675909  0.023035757         1895 
 4949000   0.45542527   -6.0857029    1465.8704  0.024682939  0.023029013         1979 
 4950000   0.45464484   -6.0937508    1464.8033  0.024659988  0.023022262         1948 
 4951000    0.4639682   -6.0739875     1464.257  0.024645813  0.023015512         2006 
 4952000   0.46722788   -6.0914437    1464.2362  0.024640486   0.02300877         2009 
 4953000   0.46315661   -6.0905962    1464.9604  0.024647695  0.023002024         2076 
 4954000    0.4500485   -6.0832225    1466.8028  0.024673711   0.02299528         1965 
 4955000   0.46236444   -6.0801874    1466.9574  0.024671332  0.022988535         2005 
 4956000   0.46775827   -6.0893076    1464.4228  0.024623736  0.022981787         2049 
 4957000   0.45056383   -6.0918177     1464.868  0.024626253  0.022975035         2032 
 4958000   0.44766472   -6.0847088    1462.2457   0.02457721   0.02296829         2048 
 4959000   0.46304892   -6.0904465    1465.0723  0.024619753  0.022961555         1962 
 4960000    0.4575351   -6.0768836    1462.4223  0.024570267  0.022954826         2048 
 4961000   0.46513877   -6.0958442    1467.0541  0.024643117   0.02294809         2062 
 4962000   0.45952145   -6.0745826    1465.5919  0.024613595  0.022941359         2059 
 4963000   0.46093877   -6.0967597    1466.2577  0.024619815  0.022934622         2006 
 4964000   0.45334316   -6.0960323    1463.2655  0.024564623  0.022927884         2043 
 4965000   0.46263694   -6.0778839    1467.1491   0.02462486   0.02292115         2018 
 4966000   0.46421177   -6.1055482    1462.4997  0.024541881  0.022914418         2063 
 4967000   0.45517004   -6.0852846    1463.3264  0.024550809  0.022907678         2041 
 4968000   0.45744175   -6.0818011    1464.6132  0.024567452  0.022900943         2003 
 4969000   0.45582324   -6.1082534    1463.9843  0.024551961  0.022894223         2020 
 4970000   0.46355345   -6.0982533    1465.3801  0.024570424  0.022887499         2087 
 4971000   0.46127274   -6.0974731    1466.9235  0.024591355  0.022880781         2025 
 4972000    0.4654188   -6.0998603    1465.3742  0.024560441  0.022874063         2067 
 4973000   0.45043005   -6.0923978    1464.0367  0.024533091  0.022867355         1994 
 4974000   0.45719848   -6.0821655    1464.1294  0.024529711  0.022860635         2141 
 4975000   0.46042842   -6.1006116    1464.5675  0.024532119  0.022853923         2126 
 4976000   0.45832509   -6.1138632    1462.5863   0.02449401  0.022847202         2192 
 4977000   0.45943733   -6.1052772    1462.8084  0.024492807  0.022840489         2219 
 4978000   0.46141035   -6.0967623    1463.4814  0.024499154  0.022833779         2175 
 4979000    0.4537519   -6.0876211    1461.7579  0.024465386  0.022827064         2119 
 4980000    0.4507214   -6.0981323     1464.789  0.024511195  0.022820355         2132 
 4981000   0.46318791   -6.1127809    1461.7461  0.024455366   0.02281364         2148 
 4982000   0.44885886   -6.1240749    1463.1054  0.024473193  0.022806932         2149 
 4983000   0.46317692   -6.1131181    1462.6152  0.024460084  0.022800217         2310 
 4984000   0.45905752   -6.1091739    1461.3363  0.024433794   0.02279351         2266 
 4985000   0.44737883   -6.1053154    1461.1371  0.024425562  0.022786797         2268 
 4986000   0.45848644   -6.0980099    1463.5625    0.0244612  0.022780087         2173 
 4987000   0.45208472   -6.1269928    1463.8347  0.024460843  0.022773387         2187 
 4988000   0.45489532    -6.109274    1461.0197   0.02440891  0.022766688         2233 
 4989000   0.45286939   -6.1050931    1462.4394  0.024427731  0.022759982         2277 
 4990000   0.45988508    -6.106178    1464.3809  0.024455259  0.022753277         2218 
 4991000   0.45549693   -6.1104963    1465.1991  0.024464021  0.022746591         2141 
 4992000   0.45439437   -6.1176576    1459.8297  0.024369487   0.02273989         2261 
 4993000   0.44894559   -6.1110522    1461.6148  0.024394398  0.022733186         2222 
 4994000   0.44653774   -6.1119462    1464.7285  0.024441472  0.022726482         2224 
 4995000    0.4550172   -6.1147949    1464.5585  0.024433742  0.022719784         2205 
 4996000   0.44529202   -6.1130262    1461.7341   0.02438174  0.022713083         2272 
 4997000   0.45021449   -6.1260842    1459.5131  0.024339823  0.022706382         2277 
 4998000   0.44743949   -6.1268643    1459.6796  0.024337728  0.022699687         2293 
 4999000   0.45216795     -6.11019    1462.8485  0.024385685  0.022692998         2294 
 5000000   0.45239385   -6.1193693    1461.7115  0.024361858  0.022686302         2301 
 5001000   0.44847326    -6.122307    1461.4323  0.024352335  0.022679614         2311 
 5002000   0.45742857   -6.1305914    1460.5836  0.024333327  0.022672925         2337 
 5003000   0.45193446   -6.1109545    1458.0609  0.024286443  0.022666242         2391 
 5004000   0.45241575   -6.1169543    1459.8242  0.024310955  0.022659556         2388 
 5005000   0.44705262   -6.1155149     1460.652   0.02431988  0.022652873         2379 
 5006000   0.44834117   -6.1250847    1459.5306  0.024296355  0.022646187         2345 
 5007000   0.45996164   -6.1204396    1459.9623  0.024298688  0.022639496         2348 
 5008000   0.45296019   -6.1224342    1460.5972    0.0243044  0.022632819         2366 
 5009000   0.46188659   -6.1320328    1459.4651  0.024280714  0.022626139         2390 
 5010000   0.45675388   -6.1319518    1461.4192  0.024308371  0.022619453         2451 
 5011000   0.45766028   -6.1320278    1459.1512  0.024265802  0.022612763         2449 
 5012000   0.44975847   -6.1288439    1460.2303  0.024278902  0.022606083         2443 
Loop time of 12721.1 on 48 procs for 5000000 steps with 4000 atoms

Performance: 67918.745 tau/day, 393.048 timesteps/s
99.4% CPU use with 48 MPI tasks x no OpenMP threads

MPI task timing breakdown:
Section |  min time  |  avg time  |  max time  |%varavg| %total
---------------------------------------------------------------
Pair    | 898.18     | 960.91     | 1017.4     |  92.0 |  7.55
Neigh   | 86.168     | 89.48      | 93.092     |  18.9 |  0.70
Comm    | 814.86     | 872.46     | 937.4      | 101.8 |  6.86
Output  | 14.9       | 14.905     | 15.02      |   0.4 |  0.12
Modify  | 10653      | 10669      | 10690      |   9.1 | 83.87
Other   |            | 114.3      |            |       |  0.90

Nlocal:        83.3333 ave          92 max          78 min
Histogram: 4 5 9 9 6 7 5 2 0 1
Nghost:        2368.67 ave        2394 max        2339 min
Histogram: 2 2 3 8 4 8 8 6 4 3
Neighs:        16229.9 ave       19775 max       13796 min
Histogram: 4 6 6 8 5 10 5 2 1 1
FullNghs:      32459.9 ave       36280 max       30162 min
Histogram: 4 6 7 9 8 8 1 4 0 1

Total # of neighbors = 1558077
Ave neighs/atom = 389.51925
Neighbor list builds = 268881
Dangerous builds = 0

#clear
#
#next RN
#
#jump SELF
Total wall time: 3:32:04
