
units lj                  # Use reduced LJ style units
atom_style atomic         # Uncharged point particles
atom_modify map hash      # Needed for indexing of clusters etc
                          # Used to be able to find where atoms are in relation to each other.

lattice fcc 1.0 spacing 1 1 1
Lattice spacing in x,y,z = 1.5874011 1.5874011 1.5874011
region box block 0 10 0 10 0 10 units lattice
create_box 2 box
Created orthogonal box = (0.0000000 0.0000000 0.0000000) to (15.874011 15.874011 15.874011)
  3 by 4 by 4 MPI processor grid
create_atoms 1 box
Created 4000 atoms
  using lattice units in orthogonal box = (0.0000000 0.0000000 0.0000000) to (15.874011 15.874011 15.874011)
  create_atoms CPU = 0.016 seconds
set type 1 type/fraction 2 0.62 78393
Setting atom values ...
  2494 settings made for type/fraction
mass 1 1.0
mass 2 1.0
pair_style lj/cut  3.5
pair_modify tail  yes
pair_coeff 1  1  1.0  1.0   # Intearaction between 1 and 1 set with epsilon = 1 and sigma = 1
pair_coeff 1  2  1.5  0.8
pair_coeff 2  2  0.5  0.88

write_data data.0
System init for write_data ...
Neighbor list info ...
  update every 1 steps, delay 10 steps, check yes
  max neighbors/atom: 2000, page size: 100000
  master list distance cutoff = 3.8
  ghost atom cutoff = 3.8
  binsize = 1.9, bins = 9 9 9
  1 neighbor lists, perpetual/occasional/extra = 1 0 0
  (1) pair lj/cut, perpetual
      attributes: half, newton on
      pair build: half/bin/atomonly/newton
      stencil: half/bin/3d
      bin: standard
WARNING: Not all mixed pair coeffs generated from mixing. Use write_data with 'pair ij' option to store all pair coeffs. (../write_data.cpp:312)


#############################
#   M E L T   S Y S T E M   #
#############################

velocity all create 2.4 9622624 mom yes dist gaussian # Assign velocities
                                                    # Temperature 2.4, random number seed, zero linear momentum
                                                                                # Gaussian distribution

timestep 0.002   # simulation timestep
thermo 1000       # output thermodynamic data every 1000 steps bf 100

# Define a fix  in this case with index 1 applied to all
# particles in the simulation. This fix is for simulations
# in the anisotropic NPT ensemble. Note that we use the MTK
# correction.
fix 1 all npt temp 2.4 2.4 0.1 iso 5.68 5.68 0.5 mtk yes tchain 5 pchain 5 # Use NPT ensemble
                                                                         # Set temperature and pressure and damping
                                                                         # Numbers of thermostats in chain and in barostat
run 10000          # run for 10000 steps
Per MPI rank memory allocation (min/avg/max) = 3.642 | 3.644 | 3.648 Mbytes
Step Temp E_pair E_mol TotEng Press Volume 
       0          2.4   -4.6132646            0   -1.0141646   -4.0148013         4000 
    1000    2.3955566   -4.3439401            0  -0.75150349    5.9656964    3598.2104 
    2000    2.4203958   -4.3759943            0  -0.74630823    5.1316556    3658.8355 
    3000    2.4797966   -4.2930736            0  -0.57430854    5.7882371    3637.3304 
    4000    2.3801381   -4.3685655            0  -0.79925094    5.5159277    3617.7273 
    5000    2.3698404    -4.399296            0  -0.84542411    5.3877223    3609.6112 
    6000    2.4316541   -4.3017767            0  -0.65520735    5.8224445    3636.7405 
    7000    2.4381215    -4.351701            0  -0.69543302    5.5758178    3622.0479 
    8000    2.4249493   -4.4064128            0  -0.76989815    5.4514552    3603.0901 
    9000    2.4389085    -4.352027            0  -0.69457879    5.8471453    3608.3664 
   10000     2.411653   -4.3524902            0   -0.7359151    5.9971358    3598.0946 
Loop time of 2.64351 on 48 procs for 10000 steps with 4000 atoms

Performance: 653676.340 tau/day, 3782.849 timesteps/s
99.6% CPU use with 48 MPI tasks x no OpenMP threads

MPI task timing breakdown:
Section |  min time  |  avg time  |  max time  |%varavg| %total
---------------------------------------------------------------
Pair    | 1.2081     | 1.2669     | 1.3585     |   2.8 | 47.93
Neigh   | 0.21577    | 0.22367    | 0.23285    |   0.8 |  8.46
Comm    | 0.81666    | 0.89289    | 0.95917    |   3.6 | 33.78
Output  | 0.00024722 | 0.00025334 | 0.00031889 |   0.0 |  0.01
Modify  | 0.20817    | 0.2443     | 0.27187    |   3.6 |  9.24
Other   |            | 0.01547    |            |       |  0.59

Nlocal:        83.3333 ave          92 max          73 min
Histogram: 2 1 2 7 3 17 4 8 3 1
Nghost:        1764.98 ave        1798 max        1733 min
Histogram: 2 4 5 5 6 7 9 5 3 2
Neighs:        10617.2 ave       12221 max        8660 min
Histogram: 1 1 2 4 9 11 10 8 1 1

Total # of neighbors = 509628
Ave neighs/atom = 127.40700
Neighbor list builds = 907
Dangerous builds = 205

# Equilibrate just above the melting temperature to avoid step fn in T

fix 1 all npt temp 1.25 1.25 0.1 iso 5.68 5.68 0.5 mtk yes tchain 5 pchain 5
run 2000
Per MPI rank memory allocation (min/avg/max) = 3.644 | 3.646 | 3.650 Mbytes
Step Temp E_pair E_mol TotEng Press Volume 
   10000     2.411653   -4.3524902            0   -0.7359151    5.9971358    3598.0946 
   11000    1.2225424   -6.3082398            0   -4.4748846    5.5614406    2787.0259 
   12000    1.2717569   -6.4122799            0   -4.5051215    5.9180102    2749.4656 
Loop time of 0.650842 on 48 procs for 2000 steps with 4000 atoms

Performance: 531004.813 tau/day, 3072.945 timesteps/s
99.7% CPU use with 48 MPI tasks x no OpenMP threads

MPI task timing breakdown:
Section |  min time  |  avg time  |  max time  |%varavg| %total
---------------------------------------------------------------
Pair    | 0.30215    | 0.32146    | 0.34758    |   1.6 | 49.39
Neigh   | 0.041425   | 0.043453   | 0.046344   |   0.5 |  6.68
Comm    | 0.21218    | 0.23742    | 0.25956    |   2.2 | 36.48
Output  | 4.7772e-05 | 4.9664e-05 | 6.4815e-05 |   0.0 |  0.01
Modify  | 0.039505   | 0.043726   | 0.046631   |   1.0 |  6.72
Other   |            | 0.004726   |            |       |  0.73

Nlocal:        83.3333 ave          91 max          76 min
Histogram: 3 2 9 5 6 4 7 4 5 3
Nghost:        2115.08 ave        2142 max        2090 min
Histogram: 2 5 4 5 9 8 9 2 2 2
Neighs:        13890.8 ave       15328 max       12340 min
Histogram: 2 4 4 5 10 3 6 8 2 4

Total # of neighbors = 666760
Ave neighs/atom = 166.69000
Neighbor list builds = 143
Dangerous builds = 13

#############################
# L I N E A R  Q U E N C H  #
#############################

# Define solid atoms. This closely follows ten Wolde  Ruiz-Montero and Frenkel  Faraday Discuss  1996  104  93-110
# Compute components of the per-atom q6 vector
compute q6 all orientorder/atom degrees 1 6 components 6 nnn NULL cutoff 1.3 # compute the Q6 parameter.
                                                                             # Use all neighbours within 1.3 unit cell.

# get number of connections
compute coord_number all coord/atom orientorder q6 0.5

# An atom is solid if it has 8 or more connections (of a possible 14)
variable is_solid atom c_coord_number>=8
group solid dynamic all var is_solid    # Must be dynamic to update
dynamic group solid defined

# do clustering
compute cluster solid cluster/atom 1.3 # Create a cluster where all atoms within are solid and max 1.3 units from another member

# define chunks one chunk per cluster
compute clus_chunks solid chunk/atom c_cluster nchunk every compress yes  # Says which atoms are in which chunk

# count the size of each chunk
compute size_chunks solid property/chunk clus_chunks count


# Find the maximum entry in the vector of chunk sizes
variable max_n equal max(c_size_chunks)


# Thermo style which includes this variable
# thermo_style custom step temp pe vol v_max_n

thermo ${N}  # Print the thermo information every 100 steps
thermo 1000  

# Reset the npt fix at a lower temperature (below freezing)
fix 1  all npt temp  ${temp} ${temp}  0.1  iso  5.68  5.68  0.5  mtk yes tchain  5  pchain  5
fix 1  all npt temp  0.45 ${temp}  0.1  iso  5.68  5.68  0.5  mtk yes tchain  5  pchain  5
fix 1  all npt temp  0.45 0.45  0.1  iso  5.68  5.68  0.5  mtk yes tchain  5  pchain  5

dump dmp2 all dcd ${N} traj.dcd
dump dmp2 all dcd 1000 traj.dcd


compute msd all msd com yes
variable twopoint equal c_msd[4]/6/(step*dt+1.0e-6)
fix 9 all vector 10 c_msd[4]
variable fit equal slope(f_9)/6/(10*dt)
thermo_style custom step temp pe c_msd[4] v_twopoint v_fit v_max_n

fix 1 all npt temp 1.25 ${temp} 0.1 iso 5.68 5.68 0.5 mtk yes tchain 5 pchain 5
fix 1 all npt temp 1.25 0.45 0.1 iso 5.68 5.68 0.5 mtk yes tchain 5 pchain 5
run 500000 # 5000000  # Run for this many steps
Neighbor list info ...
  update every 1 steps, delay 10 steps, check yes
  max neighbors/atom: 2000, page size: 100000
  master list distance cutoff = 3.8
  ghost atom cutoff = 3.8
  binsize = 1.9, bins = 8 8 8
  4 neighbor lists, perpetual/occasional/extra = 1 3 0
  (1) pair lj/cut, perpetual
      attributes: half, newton on
      pair build: half/bin/atomonly/newton
      stencil: half/bin/3d
      bin: standard
  (2) compute orientorder/atom, occasional
      attributes: full, newton on
      pair build: full/bin/atomonly
      stencil: full/bin/3d
      bin: standard
  (3) compute coord/atom, occasional
      attributes: full, newton on
      pair build: full/bin/atomonly
      stencil: full/bin/3d
      bin: standard
  (4) compute cluster/atom, occasional
      attributes: full, newton on
      pair build: full/bin/atomonly
      stencil: full/bin/3d
      bin: standard
Per MPI rank memory allocation (min/avg/max) = 9.846 | 9.853 | 9.860 Mbytes
Step Temp PotEng c_msd[4] v_twopoint v_fit v_max_n 
   12000    1.2717569   -6.4122799            0            0 8.3333333e+20            2 
   13000    1.2148235   -6.4929382   0.50161902 0.0032155064  0.041424637            3 
   14000    1.2648741   -6.4521394   0.98103398 0.0058394877  0.040034966            2 
   15000    1.2609351   -6.4507252    1.4386314 0.0079923966  0.039634539            1 
   16000    1.2387403   -6.4744758    1.8474127 0.0096219409  0.038181523            2 
   17000    1.2515144   -6.4728537    2.3585315  0.011561428  0.038256157            2 
   18000     1.234299   -6.5165214    2.8732982  0.013302306  0.038648823            1 
   19000    1.2355658   -6.4350924    3.3956712  0.014893294  0.039255233            5 
   20000    1.2246672   -6.5242171    3.8873706  0.016197377  0.039778692            2 
   21000    1.2304564   -6.5034157    4.3776173  0.017371497  0.040230101            2 
   22000    1.2613035   -6.5051885    4.7943606  0.018160456  0.040402539            1 
   23000    1.2514575   -6.5132953    5.2933071  0.019178649  0.040385241            2 
   24000    1.2201351   -6.4964471    5.7192831  0.019858621  0.040304699            2 
   25000    1.2526444   -6.5135731    6.1542053  0.020514017  0.040003321            2 
   26000    1.2450151   -6.5391484     6.634103   0.02126315  0.039791658            2 
   27000    1.2236344   -6.5146342    7.1591668  0.022096193   0.03964214            3 
   28000    1.2340331   -6.5428269    7.6193582  0.022676661  0.039610468            8 
   29000    1.2579031   -6.5596117    8.1198177  0.023332809  0.039605723            4 
   30000    1.2095272   -6.5462493    8.5692879  0.023803577  0.039641368            3 
   31000    1.2331211    -6.508293    9.0261395  0.024263816  0.039615123            2 
   32000    1.2053703   -6.5100973    9.3996023  0.024478131  0.039467061            6 
   33000    1.2296967   -6.5649703    9.9081981  0.025020702  0.039368973            4 
   34000    1.2065092   -6.5680643    10.246435  0.025113811  0.039276428            3 
   35000    1.2480544   -6.5868923    10.737735  0.025566035  0.039126344            2 
   36000    1.2024514   -6.5773242    11.249523  0.026040562  0.039041392            3 
   37000    1.1867831   -6.5556724    11.561864  0.026040234   0.03891756            2 
   38000    1.2134176   -6.5510011     12.02556  0.026371843   0.03874392            4 
   39000    1.2143316   -6.5833488    12.280172  0.026239684  0.038552725            2 
   40000    1.2357235    -6.584851    12.780538   0.02662612  0.038362817            4 
   41000    1.2048003   -6.5946884    13.158513  0.026744944  0.038195228            2 
   42000    1.2154108   -6.5678046    13.509996  0.026805547  0.037997891            2 
   43000    1.2140114   -6.5450992     13.80139   0.02674688  0.037784231            2 
   44000    1.2106344   -6.5948142    14.176333  0.026849115  0.037540678            3 
   45000     1.194943   -6.5851764    14.414767  0.026694012  0.037285193            3 
   46000     1.184174   -6.5993015    14.702073  0.026634189  0.036996191            2 
   47000    1.1760042   -6.6490858    15.157511   0.02687502  0.036713501            3 
   48000    1.2155079   -6.5849556    15.536719  0.026973471  0.036458133            2 
   49000    1.1932408   -6.6389435     15.87045  0.026990561  0.036245625            3 
   50000    1.2180485   -6.6209785     16.43236  0.027387267  0.036062092            2 
   51000     1.161451   -6.5834566    16.822411    0.0274876  0.035896186            8 
   52000     1.181791   -6.6508523    17.152045  0.027487251  0.035734338            2 
   53000    1.2054516   -6.6125999    17.436424  0.027415761  0.035577551            5 
   54000    1.1621744   -6.6403802    17.954506   0.02770757   0.03541727            2 
   55000    1.1986929   -6.6512699    18.246585  0.027646341  0.035283443            3 
   56000    1.1478022   -6.6387851    18.533608  0.027579773  0.035132997            2 
   57000    1.1659783   -6.6585776    18.900796  0.027632743  0.034973674            8 
   58000    1.1581469   -6.6594738    19.140829  0.027501191  0.034806349            2 
   59000    1.1713533   -6.5926749    19.543495  0.027603807  0.034638458            4 
   60000    1.1727018   -6.6005855    19.978975  0.027748576  0.034469561            3 
   61000    1.1714912   -6.6608198    20.204458  0.027601718  0.034321352            2 
   62000    1.1921438   -6.6827927    20.570069  0.027647941  0.034172219            4 
   63000    1.1689715   -6.6956503    20.874235  0.027611421  0.034035073            4 
   64000    1.1526253    -6.616863     21.38847   0.02784957  0.033907623            5 
   65000    1.1801745   -6.6439105    21.804677  0.027954713  0.033788304            2 
   66000    1.1657136   -6.6844574     22.09971  0.027903674  0.033684646            3 
   67000    1.1701058   -6.7038741    22.339425  0.027785354  0.033569247            5 
   68000    1.1607042   -6.7270973    22.654211  0.027762513  0.033450751            2 
   69000    1.1342475   -6.7264988    22.903108  0.027660758  0.033331543            3 
   70000    1.1663773   -6.7427816      23.2093  0.027630119   0.03321063            2 
   71000    1.1475163    -6.694011    23.668904  0.027780404  0.033091415            3 
   72000    1.1782042   -6.7493485    24.027963  0.027810143  0.032989578            1 
   73000    1.1679621   -6.6687622    24.515459  0.027985684  0.032887798            4 
   74000    1.1558645   -6.6789899    24.903801  0.028044821  0.032797616            4 
   75000     1.139323   -6.6833248    25.194865  0.027994295  0.032714937            2 
   76000    1.1514609   -6.7459528    25.508045  0.027969348  0.032637763            1 
   77000    1.1270849   -6.7374105    25.954704  0.028089506  0.032558747            2 
   78000    1.1476903   -6.7483863    26.247711  0.028042427  0.032480333            2 
   79000    1.1457254    -6.729027    26.545437  0.028001516  0.032403562            3 
   80000    1.1533779   -6.7261192    26.747397  0.027861872  0.032311504            5 
   81000    1.1279581   -6.7428965    26.979966  0.027757167  0.032210231            3 
   82000    1.1595785   -6.7739176    27.222003  0.027664637  0.032110056            7 
   83000    1.1277089   -6.7589151    27.597237  0.027708069  0.032004337            3 
   84000    1.1485088   -6.7808734      27.8764  0.027655158  0.031902857            4 
   85000    1.1422479   -6.8006818    28.148906  0.027596967   0.03180279            4 
   86000    1.1155139    -6.786267    28.347815  0.027468813   0.03169985            5 
   87000     1.136117   -6.7637264    28.752361  0.027540575  0.031600264            1 
   88000    1.1304695   -6.7885059    29.062298  0.027521115  0.031501407            2 
   89000    1.1450793   -6.7544077    29.254652  0.027391996  0.031401846            2 
   90000    1.1273014   -6.7455913    29.672619  0.027474647  0.031304113            3 
   91000    1.1500347   -6.7991852    29.928643  0.027407182  0.031208629            8 
   92000    1.1392814   -6.7627718    30.288087  0.027434861  0.031113647            3 
   93000    1.1074529   -6.8081507    30.464856  0.027298258  0.031019123            3 
   94000    1.1297771    -6.790467    30.705497  0.027221185  0.030921258            5 
   95000    1.1221686   -6.7895409    31.045524  0.027232915  0.030827966            2 
   96000    1.1212353    -6.757202    31.516086  0.027357713  0.030742482            6 
   97000    1.1250296   -6.7836263    31.994161  0.027486392  0.030670936            4 
   98000     1.118225   -6.8096643    32.314954  0.027478702  0.030598285            2 
   99000    1.1157763   -6.8275547    32.590246  0.027432867  0.030530672            3 
  100000    1.1077877   -6.8284949     32.92419  0.027436825  0.030462609            5 
  101000     1.114542   -6.8773033    33.418272  0.027572831  0.030406718            3 
  102000    1.1211232   -6.8420129    33.735196  0.027561434  0.030354391            2 
  103000     1.139087   -6.8553857    34.065506  0.027561089  0.030296942            5 
  104000    1.1074329   -6.8580573     34.15521  0.027367956  0.030241475            5 
  105000    1.1103616    -6.875762    34.366873  0.027275296  0.030177287            7 
  106000    1.1119663   -6.8503598    34.698059  0.027278348  0.030106072            2 
  107000    1.0756317   -6.8490904    34.776927  0.027084834   0.03003503            4 
  108000    1.0978018   -6.8945387    34.870406  0.026906177  0.029956795            3 
  109000    1.0902998   -6.8796919    35.212038  0.026920518   0.02987738            6 
  110000    1.0689953   -6.8933513    35.542742  0.026926319  0.029796398            3 
  111000    1.0970578   -6.8877909    35.626861  0.026746893  0.029710864            3 
  112000    1.1017435   -6.8670213    35.960808  0.026756553  0.029627546            3 
  113000    1.0813197   -6.8557369    36.069733  0.026600098  0.029536428            3 
  114000    1.1079265   -6.9079835    36.426916  0.026627862  0.029446384            4 
  115000    1.0571353   -6.8910265     36.80011  0.026666746  0.029365812            4 
  116000    1.0636243   -6.8495364    37.162444  0.026697158  0.029288053            4 
  117000    1.0686876   -6.8712879    37.362662  0.026611583  0.029214876            3 
  118000     1.084915   -6.8930214    37.625303  0.026571542  0.029135419            2 
  119000    1.1029976   -6.8753061    37.863661  0.026515169  0.029054578            3 
  120000    1.0521229    -6.873906    37.793037  0.026245165  0.028972227            2 
  121000    1.0935995   -6.9138025    38.068372  0.026217887  0.028882134            6 
  122000    1.0953026   -6.8983678    38.262254   0.02613542  0.028789472            2 
  123000     1.094964    -6.949529    38.536507  0.026108745  0.028699322            2 
  124000     1.072945   -6.9729865    38.552811  0.025909147  0.028607758            3 
  125000    1.0955461   -6.9064558    38.913245  0.025942163  0.028513711            3 
  126000    1.0831912   -6.9469999    39.097284  0.025857992  0.028422903            9 
  127000     1.055419   -6.9470986    39.527713   0.02593682  0.028334698            2 
  128000    1.0550106   -6.9357877    39.562045  0.025756539  0.028244123            3 
  129000    1.0729964   -6.9644829    39.769001  0.025690569  0.028154621            4 
  130000    1.0709743   -6.9597836    39.907063  0.025581451  0.028061636            2 
  131000    1.0641567    -6.908934     40.34527   0.02566493  0.027969055            6 
  132000    1.0577342    -6.960127    40.322074  0.025455855  0.027878118            3 
  133000    1.0634179   -6.9668476     40.66828  0.025481378  0.027787272            2 
  134000    1.0183279   -6.9531206    40.862827  0.025412206   0.02769678            5 
  135000    1.0752436   -6.9618663    40.981321  0.025297112   0.02760763            2 
  136000    1.0359735   -6.9513747    41.427982  0.025384793  0.027522275            3 
  137000    1.0314037    -6.931502    41.694803  0.025361803  0.027436131            2 
  138000    1.0535839   -6.9627918    41.797198  0.025239854  0.027351704            3 
  139000    1.0230718   -6.9550478    41.941586  0.025144836  0.027264775            2 
  140000      1.04116    -6.965423    42.408052  0.025242888  0.027181515            7 
  141000    1.0748952   -7.0132623    42.448344  0.025087673  0.027098205            6 
  142000    1.0570981   -6.9906159     42.68537    0.0250501  0.027013668            1 
  143000    1.0384701    -7.004719    42.751841   0.02491366  0.026928897            2 
  144000    1.0450878   -6.9873919    42.999032  0.024883699  0.026846109            5 
  145000    1.0522492   -7.0345901    43.152503  0.024800289  0.026763842            3 
  146000    1.0388994    -7.061785    43.427115  0.024787166  0.026681742            6 
  147000    1.0171619   -6.9944415    43.727369  0.024788758  0.026600527            3 
  148000    1.0307554   -7.0591496    43.551863  0.024522445  0.026516404            4 
  149000    1.0531162   -7.0593649     43.91175  0.024559144  0.026430151            3 
  150000    1.0457271   -7.0798554    44.152696  0.024529276  0.026346916            6 
  151000    1.0256042   -7.0581667    44.373926  0.024488922  0.026264906            6 
  152000      1.01044   -7.0637607    44.612183  0.024458433  0.026184103            7 
  153000    1.0240654   -7.0611191    45.011098  0.024515849  0.026106615            5 
  154000   0.99293386   -7.0813326    45.134763  0.024423573  0.026029492            4 
  155000    1.0208795   -7.0782929    45.375415  0.024395384  0.025953275            4 
  156000    1.0248666   -7.0412959    45.613423  0.024366144  0.025875743            3 
  157000    1.0276633   -7.0730641    45.696404  0.024254991  0.025800834            3 
  158000    1.0408389   -7.0855761    46.014331  0.024269162  0.025727063            5 
  159000    1.0098325   -7.1057918    46.274962  0.024253125  0.025653992           16 
  160000    1.0272483   -7.1040157    46.412971  0.024173422  0.025582121            8 
  161000    1.0143396   -7.0872698    46.504668  0.024070739  0.025512264            2 
  162000   0.98955505   -7.1312175    46.655324  0.023999652  0.025438422           10 
  163000    1.0267049   -7.1149053    46.832035  0.023942758  0.025363404            2 
  164000   0.99980768   -7.0711548    47.128276  0.023947295  0.025291086            3 
  165000   0.99440299   -7.1398636    47.288509  0.023883085   0.02522025            8 
  166000    1.0010707   -7.0854697    47.519789  0.023855316  0.025150796            3 
  167000    1.0061563    -7.118717    47.755909  0.023830294   0.02508157            7 
  168000     1.011692   -7.1482044    47.807119  0.023713849  0.025011113            4 
  169000     1.012355   -7.1567143    47.892345  0.023615555  0.024939524            3 
  170000    1.0118522   -7.1162773    48.085214  0.023571183  0.024869154            8 
  171000   0.97518713   -7.1183816    48.206779  0.023492582  0.024797627            6 
  172000    1.0012029   -7.1273564    48.278565  0.023390777   0.02472499            3 
  173000    0.9873207   -7.1546982    48.440929  0.023333781  0.024650609            3 
  174000   0.97543112   -7.1996976    48.311079   0.02313749  0.024574041            6 
  175000   0.98122107   -7.1676618    48.585324  0.023135868   0.02449633            6 
  176000   0.98959259   -7.1589721    48.654662  0.023037245  0.024418358            6 
  177000   0.99629032   -7.1812765     48.91305  0.023028743  0.024339668            3 
  178000   0.99426597    -7.199768    48.908162   0.02289708  0.024261559            3 
  179000    0.9735885   -7.1829773    49.108718  0.022862532  0.024182895            6 
  180000   0.95854126   -7.1924671    49.066036  0.022715758  0.024103878            4 
  181000   0.97293006   -7.1561356    49.475918  0.022778968  0.024026027            6 
  182000   0.96055933   -7.1931007    49.626389  0.022722706  0.023950333            5 
  183000   0.96798298   -7.1879599    49.636831  0.022603293  0.023872404            4 
  184000   0.98107512   -7.1868186    49.767012  0.022539407  0.023793094            3 
  185000   0.96700211    -7.196409    49.832962   0.02244728  0.023715448            3 
  186000   0.98054766   -7.1849547    50.123089  0.022456581  0.023638808            3 
  187000   0.97603629   -7.1841216    50.218236  0.022378893  0.023562432           12 
  188000   0.94209298   -7.2168247    50.374053  0.022328924  0.023486732            4 
  189000   0.94182033   -7.2246238    50.472773  0.022254309  0.023411765            9 
  190000    0.9442258   -7.2314349     50.70849  0.022240566  0.023335817            5 
  191000   0.95733713   -7.2300925    50.708313  0.022124046  0.023259518            6 
  192000   0.97645503   -7.2666948     50.71271  0.022010725  0.023183081            8 
  193000   0.95657845   -7.2814563    50.881696  0.021969644  0.023106967           11 
  194000   0.96211686   -7.2206218    51.110733  0.021954782  0.023030856            4 
  195000   0.96151322   -7.2531475    51.185754  0.021874254  0.022954894            6 
  196000   0.95737339   -7.2744831     51.28371  0.021804298  0.022879481            3 
  197000   0.94163993   -7.2468565    51.418625  0.021750687  0.022804014            5 
  198000    0.9469864   -7.2889404     51.40097  0.021633405   0.02272835            6 
  199000   0.95252968   -7.2543688    51.640527  0.021625011   0.02265308            3 
  200000   0.94591526   -7.2589415     51.81765  0.021590688   0.02257828            9 
  201000   0.92946355   -7.2603331     51.62809  0.021404681  0.022502562            6 
  202000   0.93673131   -7.2833008    51.788471  0.021364881  0.022426084            5 
  203000    0.9433304   -7.2763931    51.978809   0.02133777  0.022349376            3 
  204000   0.93535827   -7.2739053    52.186333  0.021317946  0.022274268            4 
  205000   0.94607341   -7.2562384    52.446848  0.021319857  0.022200694            6 
  206000   0.93226924   -7.2881202    52.384525  0.021191151  0.022127548            6 
  207000   0.95903415   -7.3085034    52.489286  0.021130952  0.022053908            4 
  208000   0.93074713    -7.286804    52.568786  0.021061212  0.021979472            3 
  209000   0.93873406   -7.3090395    52.590211  0.020968983  0.021904621           14 
  210000   0.91875984   -7.2981569    52.789202  0.020948096  0.021829254           11 
  211000   0.93756159   -7.3425956    52.841541  0.020869487   0.02175559            3 
  212000   0.92631902   -7.3315617    52.909107  0.020797605   0.02168285            9 
  213000   0.94645262   -7.3280108    53.087827  0.020769885  0.021610981            7 
  214000   0.91769422   -7.3365452     53.28477  0.020749521  0.021538501            8 
  215000    0.9218819    -7.317538    53.432519  0.020710279   0.02146743           10 
  216000   0.91142796   -7.3083534    53.583592  0.020672682  0.021396332            5 
  217000   0.91623469   -7.3439078    53.516063  0.020551483  0.021324295            5 
  218000   0.92638609    -7.331891    53.661498  0.020512805  0.021253234            3 
  219000   0.91964618   -7.3504547    53.937124   0.02052402  0.021184127           10 
  220000   0.88754182   -7.3617613    53.858778  0.020401052  0.021115298            8 
  221000    0.9016645   -7.3598917    54.246958  0.020455112  0.021046439            8 
  222000   0.90748028   -7.3859626    54.166271  0.020332684  0.020977901            6 
  223000   0.92392125   -7.4102325    54.281952  0.020284735  0.020910094            5 
  224000   0.90405086   -7.3442237    54.672968  0.020339646  0.020842861            4 
  225000   0.89145319   -7.3895089    54.852792  0.020315849  0.020776877           13 
  226000    0.9211854   -7.4287842    54.762725  0.020192745  0.020711477            8 
  227000    0.9118527   -7.4260463    54.811471  0.020121686  0.020645922            5 
  228000   0.90547734   -7.4450952    54.752387  0.020011837  0.020579363            5 
  229000   0.92547366   -7.4579173    54.949058  0.019996018  0.020512822            7 
  230000   0.92520673   -7.4193926    55.057343  0.019948313  0.020446862            8 
  231000   0.90068004   -7.4871596    55.079267  0.019869866  0.020380958            5 
  232000    0.9086341   -7.4691831    55.062224  0.019778098    0.0203141            7 
  233000   0.91809038   -7.4583103    55.293873  0.019776063  0.020248249            4 
  234000    0.8963027   -7.4514438    55.341778   0.01970861  0.020182663            3 
  235000   0.90106832   -7.4044967    55.463959   0.01966807  0.020117995           13 
  236000   0.87075115   -7.4546456    55.644604  0.019648518  0.020053432            5 
  237000   0.88973111   -7.4462567    55.764203  0.019607666  0.019990188           15 
  238000   0.88110598   -7.4825292    55.917794  0.019579059  0.019927499            4 
  239000   0.89063956   -7.4689459    55.908254  0.019493812  0.019863847            5 
  240000   0.88259466    -7.461528    56.052409  0.019462642  0.019799847            9 
  241000    0.8903063   -7.4680177    56.081441  0.019391923  0.019736139            7 
  242000   0.87368085   -7.4531604    56.209773  0.019355982  0.019672671            6 
  243000   0.88317108   -7.4893844    56.152084  0.019256545  0.019608805            6 
  244000   0.86908203   -7.5173851    55.977179  0.019117889  0.019544929            7 
  245000   0.90058918   -7.4752896    56.210179  0.019119109  0.019480279            6 
  246000   0.87997445   -7.5215808    56.218334  0.019044151  0.019416294           10 
  247000   0.87734812   -7.5185794    56.410101  0.019031748  0.019352191            9 
  248000   0.83956859   -7.4954335    56.509911  0.018988545  0.019289065            6 
  249000   0.86968457   -7.5226522    56.588701  0.018938655  0.019226194            4 
  250000   0.86394806    -7.499338    56.655947  0.018885316  0.019163373            7 
  251000   0.85581174   -7.5444094    56.548823   0.01877451  0.019099998            8 
  252000   0.84725117    -7.555525    56.681159   0.01874377  0.019036692            7 
  253000   0.88087026   -7.5404978    56.692183  0.018673315  0.018973408           11 
  254000   0.83915478   -7.5249267    56.774294  0.018626737  0.018910502            8 
  255000   0.86856417   -7.5054861    56.889122  0.018591216  0.018847711            3 
  256000   0.85489946   -7.5382563    56.827589  0.018498564  0.018785184            5 
  257000   0.85485338   -7.5769389    56.949109  0.018465989   0.01872168            6 
  258000   0.87719765   -7.5921639    56.807037  0.018348526  0.018657763            4 
  259000   0.84844521    -7.581776     56.94093  0.018320763  0.018593895            7 
  260000   0.86202522   -7.5962206    56.920659  0.018243801  0.018529766            7 
  261000   0.86925695    -7.560144    57.048283   0.01821465  0.018466054           12 
  262000   0.83705186   -7.5937958    57.024341  0.018137513  0.018402194            7 
  263000   0.84484168   -7.6094073    57.071961  0.018083638  0.018338179            6 
  264000   0.84926925   -7.5245843    57.024381   0.01800012  0.018275261            4 
  265000    0.8553536   -7.6107002    57.175589  0.017979745   0.01821243           11 
  266000   0.84114862   -7.6062261     57.30961  0.017954138  0.018149537            8 
  267000   0.83120574   -7.5570974    57.464707  0.017935302  0.018086978            7 
  268000    0.8475071   -7.6009186    57.390902   0.01784543  0.018025656            9 
  269000   0.82405962    -7.591477    57.596245  0.017842703  0.017964422            9 
  270000   0.84074479   -7.6136522    57.585129  0.017773188  0.017903402            7 
  271000   0.84793977   -7.5969107    57.580955  0.017706321  0.017842421            4 
  272000   0.82719493    -7.626343    57.522296  0.017623252  0.017781191            7 
  273000    0.8200506   -7.6202704    57.672605   0.01760458  0.017720071           13 
  274000   0.81865288   -7.6514571    57.643421  0.017531454  0.017658848            6 
  275000   0.82202628   -7.6449869    57.606788  0.017456602   0.01759749           28 
  276000   0.82909373   -7.6313345    57.718143  0.017426976  0.017536532            6 
  277000   0.84041446   -7.6544272     57.80481  0.017390135  0.017475828            7 
  278000   0.83172963   -7.6766428    57.732321  0.017305852  0.017415174           20 
  279000   0.83532674   -7.6726947    57.890131  0.017290959   0.01735502           14 
  280000   0.81280034   -7.6406989    58.085006  0.017287204  0.017294705            7 
  281000   0.81559334   -7.6709794      58.0354  0.017210973  0.017234915           19 
  282000   0.82461037   -7.6995232     57.98053  0.017133726  0.017175477           19 
  283000   0.82020672    -7.698113    57.984149  0.017074249  0.017115453           34 
  284000   0.80643486   -7.7249976    58.106615  0.017050063  0.017055761           16 
  285000   0.79338086   -7.7206821    58.092937  0.016986239  0.016996366           16 
  286000   0.82655362   -7.7308505    58.269269  0.016978225  0.016937698           26 
  287000   0.79459941   -7.7087183    58.230283  0.016907748  0.016879367           11 
  288000   0.81955677    -7.731679    58.298498  0.016868778  0.016821158           16 
  289000   0.79950945   -7.7119326    58.352962  0.016826114  0.016763267           13 
  290000   0.79695828   -7.7197198    58.513241   0.01681415  0.016705376           15 
  291000   0.81997342   -7.7589803    58.230287   0.01667534  0.016647321           17 
  292000   0.83607151    -7.762956    58.233108  0.016619038  0.016589101           25 
  293000   0.79239571   -7.7412238    58.330762  0.016590091  0.016531335           13 
  294000    0.8045513   -7.7662842    58.311669  0.016528251  0.016473517           46 
  295000    0.8055257   -7.7419727     58.30635   0.01647072  0.016415844           17 
  296000   0.79882804   -7.7685067     58.45038  0.016455625   0.01635816           19 
  297000   0.78866937   -7.7369888    58.477962  0.016407958  0.016300226           27 
  298000   0.77905236   -7.7422026    58.430637  0.016339664  0.016242771           13 
  299000   0.79722284   -7.7525677    58.361581  0.016265769  0.016185623            9 
  300000   0.79040409   -7.7873799    58.513203  0.016253667  0.016128874           11 
  301000   0.78975981   -7.7910313    58.559206  0.016212405   0.01607239            9 
  302000   0.78773619   -7.7816684    58.532926   0.01615147  0.016016207           15 
  303000   0.77934571   -7.8134203    58.679945  0.016138599  0.015959805            4 
  304000   0.76746356   -7.8417609    58.534272  0.016045579  0.015903452            7 
  305000   0.80772399   -7.8050091    58.402599  0.015956994  0.015846971           10 
  306000    0.7726321   -7.7998873    58.608285  0.015960862  0.015790664           12 
  307000   0.78037408    -7.802646    58.568362  0.015898035  0.015734306            9 
  308000   0.79400153   -7.8149356    58.580199  0.015849621  0.015678234           14 
  309000   0.77829515   -7.8321761    58.713576  0.015834298  0.015622999           10 
  310000   0.77159958   -7.8267921    58.841723  0.015817668   0.01556777           13 
  311000   0.77595119   -7.8096871    58.822217   0.01576158  0.015512478           16 
  312000   0.77146003   -7.8460843    58.712675  0.015681804   0.01545753           15 
  313000   0.75019459   -7.8469917     58.73319  0.015637164   0.01540259           11 
  314000   0.76804872   -7.8548722    58.730101  0.015586545  0.015347749           13 
  315000   0.76168544   -7.8315702    58.680621  0.015523974  0.015292715           13 
  316000   0.75443407    -7.840148    58.749177  0.015492926  0.015237987           27 
  317000   0.76302454   -7.8515949    58.664068  0.015421679  0.015183089           13 
  318000   0.75499284   -7.8919106    58.686592  0.015379086   0.01512819           32 
  319000   0.75919964   -7.8895471    58.640102  0.015318731  0.015073789           27 
  320000   0.75758132   -7.8575526    58.688163  0.015283376  0.015019036           25 
  321000   0.73963825   -7.8951948    58.751826  0.015252291  0.014964731           32 
  322000   0.75469177   -7.9057907    58.789335  0.015214631  0.014910721           19 
  323000   0.74244974   -7.8933538     58.79234  0.015168302  0.014856897           18 
  324000   0.74691596   -7.8954285    58.852613  0.015136989  0.014803088           14 
  325000   0.76292213   -7.9073896    58.878478  0.015097046  0.014749854           50 
  326000   0.75494824   -7.9126971    58.705249  0.015006454  0.014696565           21 
  327000   0.75001102   -7.9297507    58.873942  0.015003553  0.014643278           33 
  328000   0.73745601   -7.9304738    58.654886  0.014902156  0.014590208           23 
  329000   0.74451601   -7.9127233    58.745984  0.014879935  0.014537249           31 
  330000   0.74750926   -7.9170265    58.799681  0.014848404  0.014484385           37 
  331000   0.73794301   -7.9342457     58.86014  0.014818766  0.014431824           69 
  332000   0.73509002   -7.9471303    58.746219  0.014745537  0.014379294           29 
  333000   0.73038114   -7.9350377    58.789208  0.014712014  0.014326672           23 
  334000   0.74417357   -7.9597366    58.584767  0.014616958  0.014274225           74 
  335000   0.73008147    -7.969411    58.695215    0.0146008  0.014221781           73 
  336000   0.75404897   -7.9372473    58.737851  0.014567919  0.014169336           76 
  337000   0.73719748   -7.9252075    58.728835  0.014522462  0.014117149           67 
  338000   0.73606414   -7.9935375    58.651843  0.014460514  0.014064956           60 
  339000   0.72087816   -7.9481484    58.587526  0.014402047  0.014012833           64 
  340000   0.70367965   -7.9548074     58.64412  0.014373559  0.013960838           41 
  341000   0.72775657   -7.9562833    58.684923  0.014341379  0.013909045           43 
  342000   0.72064063   -7.9968291    58.588321  0.014275907  0.013857245           64 
  343000     0.718828   -7.9653656    58.572333  0.014230402  0.013805806           75 
  344000   0.73859726    -8.014205    58.557718  0.014185494  0.013754289           39 
  345000    0.7131622   -8.0039964    58.542754  0.014140762  0.013702899           65 
  346000   0.71120879   -8.0125093    58.680457  0.014133058  0.013651692           88 
  347000    0.7024146   -7.9832911    58.567859  0.014065288  0.013600797           77 
  348000   0.72378146   -7.9901773    58.699034  0.014056282  0.013550137           62 
  349000   0.72663183   -8.0177788    58.483044  0.013964433  0.013499563           37 
  350000   0.70629851   -8.0319823    58.510195  0.013930999  0.013449135           43 
  351000    0.7057602   -8.0277681    58.563962  0.013904075  0.013398912           68 
  352000   0.71152742   -8.0288027    58.647576  0.013884369  0.013348826          152 
  353000   0.70237061   -8.0298257    58.444593  0.013797118   0.01329881           65 
  354000   0.70288501   -8.0445193     58.49315  0.013769574  0.013249045           72 
  355000   0.69709944   -8.0291623    58.650744   0.01376778  0.013199485          126 
  356000   0.69651339   -8.0775893    58.475378  0.013688057   0.01314999           77 
  357000   0.68675592   -8.0537292    58.655917  0.013691857  0.013100768           74 
  358000   0.70482964   -8.0723831    58.567464  0.013633022  0.013051636           64 
  359000    0.7038173   -8.0565638    58.441191  0.013565736   0.01300253           70 
  360000    0.7046134   -8.0627784     58.52697   0.01354791   0.01295356           52 
  361000   0.70461598   -8.0765804     58.49827  0.013503756  0.012904799           61 
  362000   0.67945465   -8.0771135    58.431811  0.013451153  0.012856075           64 
  363000   0.69796153   -8.0870941     58.38678   0.01340376  0.012807511          116 
  364000   0.68315087   -8.0927051    58.438005  0.013378664  0.012759241           85 
  365000   0.67827686   -8.0825311    58.699082  0.013401617  0.012711147           67 
  366000    0.6799077   -8.0924537    58.359802  0.013287751  0.012663172           95 
  367000   0.68802138   -8.0999455      58.4612  0.013274569   0.01261535           92 
  368000   0.68071852   -8.1176458     58.39511   0.01322353  0.012567831           94 
  369000   0.67861129   -8.1081599    58.473812  0.013205468  0.012520518           85 
  370000   0.66957552   -8.1086324    58.495667    0.0131747  0.012473437           30 
  371000   0.68370035   -8.1425078    58.323126  0.013100433  0.012426356           50 
  372000   0.66744123   -8.1226787    58.370171  0.013075755  0.012379557           64 
  373000   0.68186954   -8.1383258    58.397345   0.01304677  0.012332956           73 
  374000   0.65724425   -8.1157592    58.421138  0.013017188   0.01228636           52 
  375000   0.65746324   -8.1478606    58.232317  0.012940515  0.012240092           66 
  376000   0.65916564   -8.1461508    58.281946  0.012917098  0.012193708          127 
  377000   0.66969455   -8.1620179    58.370238  0.012902351  0.012147616          108 
  378000   0.65649179   -8.1566846    58.415299  0.012878152  0.012101763           51 
  379000   0.66884015     -8.15752     58.39074  0.012838773  0.012056155           63 
  380000   0.66958432   -8.1651074    58.302955  0.012785736  0.012010745           97 
  381000   0.65466213   -8.1714081     58.32975  0.012758038  0.011965563           77 
  382000    0.6618145   -8.1749058     58.24662  0.012706505  0.011920494           77 
  383000   0.65617736    -8.142765    58.415412  0.012710055  0.011875695           79 
  384000   0.65242556   -8.1268271    58.426134  0.012679283  0.011831066           76 
  385000   0.65655185   -8.1642341    58.304748  0.012620075  0.011786648           66 
  386000   0.65938389   -8.1645857    58.346559  0.012596407  0.011742429           88 
  387000    0.6395091   -8.1709181     58.34195  0.012562866  0.011698358           58 
  388000   0.65030716   -8.1767771    58.422993  0.012547894  0.011654476          109 
  389000   0.65006501   -8.1743428    58.283659  0.012485788  0.011610762           59 
  390000    0.6434633   -8.1928628     58.28858  0.012454825  0.011567172           67 
  391000   0.64731215    -8.167369    58.307087  0.012426915  0.011523846           64 
  392000   0.62319256   -8.1843017    58.298282  0.012393342   0.01148077           62 
  393000   0.64670629   -8.1829258    58.382657  0.012379698  0.011437737           55 
  394000   0.66038594    -8.167696    58.327526  0.012336617  0.011395036           57 
  395000   0.64816042   -8.2036845    58.324958  0.012304843  0.011352476           68 
  396000   0.63788198   -8.1994612    58.288989  0.012266201  0.011310179           54 
  397000   0.63261939   -8.1851787    58.306939  0.012239072  0.011268011           64 
  398000   0.62569054   -8.2095037    58.274023  0.012201429  0.011226026           59 
  399000   0.62511137   -8.2200289    58.185422  0.012152344  0.011184229           80 
  400000   0.61606379   -8.2205691    58.177557  0.012120324  0.011142501           70 
  401000    0.6217392   -8.2347036    58.231511  0.012101312  0.011100903          105 
  402000   0.61352538   -8.2017017    58.275094  0.012080243  0.011059347           83 
  403000   0.62976836   -8.2406272    58.044134  0.012002509  0.011017912           90 
  404000   0.62120057   -8.2350913    58.041685  0.011972295  0.010976631           73 
  405000   0.62841138   -8.2375911    58.112739  0.011957354  0.010935528           62 
  406000   0.63480989   -8.2412795    58.310514  0.011968496  0.010894659           74 
  407000   0.60828036   -8.2409136    58.113794  0.011898811  0.010853948           75 
  408000   0.62147209   -8.2407572    58.165508   0.01188021  0.010813443           94 
  409000   0.60146473   -8.2414876    58.099725   0.01183776  0.010773134           95 
  410000   0.61826717   -8.2565958    58.113137  0.011811613  0.010732905          165 
  411000   0.61495151   -8.2598453    58.126548  0.011785594  0.010692828          184 
  412000   0.61741351    -8.283833    57.993727  0.011730123  0.010652997           82 
  413000   0.60433892   -8.2732625    57.946877  0.011692267   0.01061334          154 
  414000    0.6097989    -8.263468    57.996433     0.011674  0.010573746           97 
  415000    0.5999594    -8.280537    58.016666  0.011649933  0.010534268           99 
  416000   0.61380668   -8.2693331    57.997969  0.011618183  0.010495079          166 
  417000      0.62042    -8.279402    58.057046  0.011602128  0.010456084          158 
  418000   0.60860995   -8.2824644     58.08923  0.011580788  0.010417336          158 
  419000   0.60253943   -8.2888568    58.011505   0.01153769  0.010378691          151 
  420000   0.60466197   -8.2916503     58.05816  0.011519476  0.010340249          180 
  421000   0.58907624   -8.2949505    58.023423  0.011485238  0.010301985           56 
  422000     0.605117   -8.2962859    57.964599  0.011446406  0.010263897           81 
  423000   0.60734903   -8.3002692    57.910158  0.011408621   0.01022591          135 
  424000   0.58714445   -8.2829337    58.038458   0.01140693  0.010188059          137 
  425000   0.58234219   -8.3030533    57.957544  0.011364224  0.010150362          120 
  426000   0.58236549     -8.30283    57.925614  0.011331302  0.010112859           84 
  427000   0.58092207   -8.3135826    57.925697  0.011304781  0.010075466           82 
  428000   0.58178887   -8.3058037    58.013951  0.011295551   0.01003833          110 
  429000   0.58692079   -8.3144322    57.949678  0.011256736  0.010001341          203 
  430000   0.58554807   -8.3241863     57.92086  0.011224973 0.0099644324          181 
  431000   0.57842262   -8.3104622    57.817751  0.011178993 0.0099276637          163 
  432000   0.59074949   -8.3320085     57.85984  0.011161235 0.0098911111           75 
  433000   0.58040537    -8.325593    57.960805  0.011154889 0.0098546926           78 
  434000   0.57161829   -8.3326231    57.905403  0.011118549 0.0098184123           60 
  435000   0.56954898    -8.319412    57.896305  0.011091246 0.0097822896           80 
  436000    0.5643227   -8.3444757    57.897593  0.011066054 0.0097462853           84 
  437000   0.56353716   -8.3351014    57.868052  0.011035098 0.0097105283          220 
  438000   0.55758888   -8.3184621     57.90294  0.011016541 0.0096749288          138 
  439000   0.56441398   -8.3604928    57.759693  0.010964254  0.009639452           70 
  440000   0.55770031   -8.3479354    57.885687  0.010963198 0.0096041967           71 
  441000   0.56201694    -8.354114    57.791491  0.010920539 0.0095690477           80 
  442000   0.56374159   -8.3543661    57.903462  0.010916942 0.0095340902          163 
  443000   0.56884418   -8.3350736    57.794506  0.010871803 0.0094993654          184 
  444000   0.56235346   -8.3386728    57.785268  0.010845583 0.0094647264          187 
  445000   0.56899018   -8.3462885    57.799748  0.010823923 0.0094302115           83 
  446000    0.5495245   -8.3447663     57.77677  0.010795361 0.0093959009          201 
  447000   0.54009321    -8.363414    57.703254  0.010757504 0.0093616957          126 
  448000    0.5544237   -8.3548169    57.729106  0.010738301 0.0093276361          212 
  449000    0.5482185    -8.379757    57.742447  0.010716861 0.0092937416          165 
  450000    0.5525482   -8.3830308    57.663516  0.010678429 0.0092599769          166 
  451000   0.53914074   -8.3746592    57.641578  0.010650698 0.0092263743          104 
  452000   0.55629206   -8.3785096    57.763885  0.010649684 0.0091929372           85 
  453000   0.54389823   -8.3844532    57.707368  0.010615778 0.0091596561          139 
  454000   0.54491794   -8.3910092    57.650105  0.010581884 0.0091265583          109 
  455000   0.53632847   -8.3815782    57.644597  0.010557618 0.0090936143           95 
  456000   0.54589155   -8.3876176    57.821511  0.010566797  0.009060796          102 
  457000   0.53111923   -8.3901376    57.704446  0.010522328 0.0090281428          120 
  458000   0.53653254   -8.3929285    57.754409  0.010508444 0.0089956598          193 
  459000   0.52425943   -8.3991766    57.637156  0.010464262  0.008963308           71 
  460000    0.5282557   -8.4190441     57.73258  0.010458801 0.0089310861           79 
  461000   0.52200403   -8.3952505    57.713553  0.010432674  0.008898983          110 
  462000   0.52812446   -8.3812318    57.761128  0.010418674 0.0088670671          206 
  463000   0.52057361   -8.3914332     57.72789  0.010390189 0.0088352765           92 
  464000   0.52177999   -8.4181108    57.629795  0.010350179 0.0088036327          136 
  465000   0.51883915   -8.4253286    57.581141  0.010319201 0.0087721135          179 
  466000   0.51569743   -8.4316435    57.475357   0.01027814 0.0087407442          199 
  467000   0.52977489   -8.4001289    57.647842   0.01028691 0.0087095017           86 
  468000   0.50892909   -8.4086014    57.619398  0.010259864 0.0086783842          139 
  469000   0.51709293    -8.428005    57.676859  0.010248198 0.0086474519           67 
  470000   0.51761328    -8.430603     57.60759  0.010214112 0.0086166424          195 
  471000   0.50429158   -8.4318111    57.630194  0.010196425 0.0085860246          173 
  472000    0.5167007   -8.4438495    57.626136  0.010174106 0.0085555162          185 
  473000   0.51682475   -8.4375924     57.51523  0.010133057 0.0085251533          158 
  474000   0.50695606   -8.4380411    57.546232  0.010117129 0.0084948815           72 
  475000   0.50301549   -8.4453775    57.633357  0.010111115 0.0084647845          134 
  476000   0.50874659   -8.4603802     57.58362  0.010081166 0.0084348277           86 
  477000   0.51505103   -8.4532365    57.560084   0.01005592 0.0084049607          207 
  478000   0.50651583   -8.4548458     57.61293  0.010044095 0.0083753028          182 
  479000   0.49829193   -8.4500065    57.545032  0.010011314 0.0083457201           79 
  480000   0.49117323     -8.46292      57.5385  0.009989323 0.0083162406          153 
  481000   0.50166237   -8.4429783     57.53241 0.0099674999 0.0082869211          151 
  482000   0.49834686   -8.4647485    57.478938 0.0099375757 0.0082577061          147 
  483000   0.50006377   -8.4571517    57.522719 0.0099245546 0.0082286235          129 
  484000   0.48803401   -8.4518242    57.550977 0.0099089147 0.0081996151          205 
  485000   0.48916954   -8.4722966    57.490039 0.0098780136 0.0081707898          182 
  486000   0.48704607   -8.4633082    57.521998 0.0098631683    0.0081421          107 
  487000   0.49610818   -8.4751312    57.490364 0.0098375024  0.008113556          199 
  488000   0.49642075   -8.4647375    57.463547 0.0098127642 0.0080851169          183 
  489000   0.48289896   -8.4691112    57.507055 0.0098001116 0.0080567687          222 
  490000   0.49464087   -8.4716603    57.484573 0.0097762879 0.0080285845          196 
  491000     0.480264   -8.4675302     57.45358 0.0097511167 0.0080005142          167 
  492000   0.48515963   -8.4855603    57.327064 0.0097098686 0.0079725802          107 
  493000   0.49017383   -8.4882965    57.373401 0.0096980056 0.0079447892          130 
  494000   0.47026114   -8.5028562    57.497874 0.0096993715 0.0079171419          258 
  495000   0.47785595   -8.4828119    57.507428 0.0096813852  0.007889591          204 
  496000   0.47315608   -8.4975129    57.389148  0.009641994 0.0078622107          145 
  497000   0.48500423   -8.5005483    57.507857 0.0096424978 0.0078349236           76 
  498000   0.46551713   -8.5005986    57.402789 0.0096055536 0.0078077895          116 
  499000   0.46363852   -8.5083484    57.409566 0.0095874358 0.0077807301          102 
  500000   0.47096962   -8.4926036    57.412569 0.0095687614  0.007753817          180 
  501000   0.46569564   -8.4860983    57.379051  0.009544087 0.0077270296          174 
  502000   0.47181324   -8.4786153    57.484058 0.0095425063 0.0077003913          109 
  503000   0.46100769   -8.5109033    57.345364 0.0095005573 0.0076738475          193 
  504000   0.46473239   -8.5070703    57.356655  0.009483574 0.0076474753          180 
  505000   0.46521575    -8.490467    57.344593 0.0094628042  0.007621157          200 
  506000   0.46309864   -8.5096378    57.315005 0.0094392301 0.0075949315          200 
  507000   0.45785469     -8.53139    57.396404 0.0094339914 0.0075688288          132 
  508000   0.44920931   -8.5183964     57.42295 0.0094197752 0.0075428251          148 
  509000   0.45137455   -8.5342064    57.329406 0.0093859538 0.0075169352          254 
  510000   0.44572997   -8.5293697    57.354737  0.009371689 0.0074911689           95 
  511000   0.44931564   -8.5236883     57.29562 0.0093437084 0.0074655138          241 
  512000   0.43692272   -8.5268971    57.253683 0.0093186333 0.0074399522          217 
Loop time of 1304.1 on 48 procs for 500000 steps with 4000 atoms

Performance: 66252.681 tau/day, 383.407 timesteps/s
99.4% CPU use with 48 MPI tasks x no OpenMP threads

MPI task timing breakdown:
Section |  min time  |  avg time  |  max time  |%varavg| %total
---------------------------------------------------------------
Pair    | 90.95      | 100.83     | 108.42     |  33.9 |  7.73
Neigh   | 9.02       | 9.4853     | 9.7684     |   6.0 |  0.73
Comm    | 82.126     | 91.746     | 100.44     |  35.1 |  7.04
Output  | 0.98073    | 0.98158    | 1.0052     |   0.3 |  0.08
Modify  | 1082.6     | 1088.5     | 1092.9     |   7.9 | 83.46
Other   |            | 12.59      |            |       |  0.97

Nlocal:        83.3333 ave          91 max          74 min
Histogram: 1 0 4 1 9 17 9 4 2 1
Nghost:        2413.83 ave        2434 max        2395 min
Histogram: 4 2 6 3 8 11 4 6 2 2
Neighs:        16762.1 ave       19205 max       14419 min
Histogram: 4 6 3 4 6 8 5 8 2 2
FullNghs:      33525.5 ave       36636 max       29754 min
Histogram: 1 0 3 2 10 14 11 5 1 1

Total # of neighbors = 1609224
Ave neighs/atom = 402.30600
Neighbor list builds = 26633
Dangerous builds = 0

#clear
#
#next RN
#
#jump SELF
Total wall time: 0:21:47
