
units lj                  # Use reduced LJ style units
atom_style atomic         # Uncharged point particles
atom_modify map hash      # Needed for indexing of clusters etc
                          # Used to be able to find where atoms are in relation to each other.

lattice fcc 1.0 spacing 1 1 1
Lattice spacing in x,y,z = 1.5874011 1.5874011 1.5874011
region box block 0 10 0 10 0 10 units lattice
create_box 2 box
Created orthogonal box = (0.0000000 0.0000000 0.0000000) to (15.874011 15.874011 15.874011)
  3 by 4 by 4 MPI processor grid
create_atoms 1 box
Created 4000 atoms
  using lattice units in orthogonal box = (0.0000000 0.0000000 0.0000000) to (15.874011 15.874011 15.874011)
  create_atoms CPU = 0.002 seconds
set type 1 type/fraction 2 0.36 78393
Setting atom values ...
  1453 settings made for type/fraction
mass 1 1.0
mass 2 1.0
pair_style lj/cut  3.5
pair_modify tail  yes
pair_coeff 1  1  1.0  1.0   # Intearaction between 1 and 1 set with epsilon = 1 and sigma = 1
pair_coeff 1  2  1.5  0.8
pair_coeff 2  2  0.5  0.88

write_data data.0
System init for write_data ...
Neighbor list info ...
  update every 1 steps, delay 10 steps, check yes
  max neighbors/atom: 2000, page size: 100000
  master list distance cutoff = 3.8
  ghost atom cutoff = 3.8
  binsize = 1.9, bins = 9 9 9
  1 neighbor lists, perpetual/occasional/extra = 1 0 0
  (1) pair lj/cut, perpetual
      attributes: half, newton on
      pair build: half/bin/atomonly/newton
      stencil: half/bin/3d
      bin: standard
WARNING: Not all mixed pair coeffs generated from mixing. Use write_data with 'pair ij' option to store all pair coeffs. (../write_data.cpp:312)


#############################
#   M E L T   S Y S T E M   #
#############################

velocity all create 2.4 2750902 mom yes dist gaussian # Assign velocities
                                                    # Temperature 2.4, random number seed, zero linear momentum
                                                                                # Gaussian distribution

timestep 0.002   # simulation timestep
thermo 1000       # output thermodynamic data every 1000 steps bf 100

# Define a fix  in this case with index 1 applied to all
# particles in the simulation. This fix is for simulations
# in the anisotropic NPT ensemble. Note that we use the MTK
# correction.
fix 1 all npt temp 2.4 2.4 0.1 iso 5.68 5.68 0.5 mtk yes tchain 5 pchain 5 # Use NPT ensemble
                                                                         # Set temperature and pressure and damping
                                                                         # Numbers of thermostats in chain and in barostat
run 10000          # run for 10000 steps
Per MPI rank memory allocation (min/avg/max) = 3.642 | 3.644 | 3.648 Mbytes
Step Temp E_pair E_mol TotEng Press Volume 
       0          2.4   -6.0964775            0   -2.4973775   -4.1129651         4000 
    1000    2.4282931   -4.9787643            0   -1.3372352    5.7042859    4022.2416 
    2000    2.4204233    -5.017865            0   -1.3881377    5.9312263    3979.4857 
    3000    2.4039696   -4.9859294            0   -1.3808765    5.3965698    4042.3205 
    4000    2.4375779   -5.0444927            0     -1.38904    5.4133355    4009.1605 
    5000    2.4409579   -5.0768445            0    -1.416323    5.4438646    3997.7019 
    6000    2.3990685   -5.0134966            0   -1.4157935    5.5428579    4012.1709 
    7000    2.3687514   -5.0672646            0   -1.5150258    5.5482278    3985.5258 
    8000    2.3979266   -4.9882664            0   -1.3922757    5.8455601     4001.395 
    9000    2.4413007   -5.0121497            0   -1.3511141    6.0670084    3971.0139 
   10000    2.3497422   -5.0290219            0   -1.5052897    5.6250595    3996.2416 
Loop time of 2.47401 on 48 procs for 10000 steps with 4000 atoms

Performance: 698461.220 tau/day, 4042.021 timesteps/s
99.6% CPU use with 48 MPI tasks x no OpenMP threads

MPI task timing breakdown:
Section |  min time  |  avg time  |  max time  |%varavg| %total
---------------------------------------------------------------
Pair    | 1.0843     | 1.161      | 1.2656     |   3.4 | 46.93
Neigh   | 0.20598    | 0.21686    | 0.23768    |   1.1 |  8.77
Comm    | 0.70542    | 0.83829    | 0.91699    |   4.3 | 33.88
Output  | 0.00025106 | 0.0002553  | 0.00032665 |   0.0 |  0.01
Modify  | 0.21911    | 0.24228    | 0.26446    |   2.7 |  9.79
Other   |            | 0.01538    |            |       |  0.62

Nlocal:        83.3333 ave          93 max          71 min
Histogram: 1 2 4 4 5 13 6 5 5 3
Nghost:        1638.88 ave        1671 max        1604 min
Histogram: 4 3 8 5 2 2 8 5 7 4
Neighs:        9551.83 ave       11059 max        7801 min
Histogram: 2 1 5 6 7 7 6 8 2 4

Total # of neighbors = 458488
Ave neighs/atom = 114.62200
Neighbor list builds = 906
Dangerous builds = 207

# Equilibrate just above the melting temperature to avoid step fn in T

fix 1 all npt temp 1.25 1.25 0.1 iso 5.68 5.68 0.5 mtk yes tchain 5 pchain 5
run 2000
Per MPI rank memory allocation (min/avg/max) = 3.643 | 3.645 | 3.649 Mbytes
Step Temp E_pair E_mol TotEng Press Volume 
   10000    2.3497422   -5.0290219            0   -1.5052897    5.6250595    3996.2416 
   11000    1.2450022   -6.9570317            0   -5.0899953    5.8371759    3187.2468 
   12000    1.2639305   -7.0380525            0   -5.1426307    5.4254246    3183.1539 
Loop time of 0.594267 on 48 procs for 2000 steps with 4000 atoms

Performance: 581556.930 tau/day, 3365.491 timesteps/s
99.6% CPU use with 48 MPI tasks x no OpenMP threads

MPI task timing breakdown:
Section |  min time  |  avg time  |  max time  |%varavg| %total
---------------------------------------------------------------
Pair    | 0.24486    | 0.28873    | 0.32488    |   2.6 | 48.59
Neigh   | 0.037586   | 0.041038   | 0.043568   |   0.7 |  6.91
Comm    | 0.17546    | 0.2148     | 0.26386    |   3.3 | 36.15
Output  | 7.0146e-05 | 7.1867e-05 | 8.7921e-05 |   0.0 |  0.01
Modify  | 0.041942   | 0.044655   | 0.047423   |   0.8 |  7.51
Other   |            | 0.004975   |            |       |  0.84

Nlocal:        83.3333 ave          92 max          72 min
Histogram: 1 0 3 1 11 10 6 8 5 3
Nghost:        1915.96 ave        1937 max        1889 min
Histogram: 1 1 3 6 6 8 14 4 2 3
Neighs:        12028.4 ave       13457 max        9271 min
Histogram: 1 0 0 2 6 8 10 12 7 2

Total # of neighbors = 577365
Ave neighs/atom = 144.34125
Neighbor list builds = 141
Dangerous builds = 8

#############################
# L I N E A R  Q U E N C H  #
#############################

# Define solid atoms. This closely follows ten Wolde  Ruiz-Montero and Frenkel  Faraday Discuss  1996  104  93-110
# Compute components of the per-atom q6 vector
compute q6 all orientorder/atom degrees 1 6 components 6 nnn NULL cutoff 1.3 # compute the Q6 parameter.
                                                                             # Use all neighbours within 1.3 unit cell.

# get number of connections
compute coord_number all coord/atom orientorder q6 0.5

# An atom is solid if it has 8 or more connections (of a possible 14)
variable is_solid atom c_coord_number>=8
group solid dynamic all var is_solid    # Must be dynamic to update
dynamic group solid defined

# do clustering
compute cluster solid cluster/atom 1.3 # Create a cluster where all atoms within are solid and max 1.3 units from another member

# define chunks one chunk per cluster
compute clus_chunks solid chunk/atom c_cluster nchunk every compress yes  # Says which atoms are in which chunk

# count the size of each chunk
compute size_chunks solid property/chunk clus_chunks count


# Find the maximum entry in the vector of chunk sizes
variable max_n equal max(c_size_chunks)


# Thermo style which includes this variable
# thermo_style custom step temp pe vol v_max_n

thermo ${N}  # Print the thermo information every 100 steps
thermo 1000  

# Reset the npt fix at a lower temperature (below freezing)
fix 1  all npt temp  ${temp} ${temp}  0.1  iso  5.68  5.68  0.5  mtk yes tchain  5  pchain  5
fix 1  all npt temp  0.45 ${temp}  0.1  iso  5.68  5.68  0.5  mtk yes tchain  5  pchain  5
fix 1  all npt temp  0.45 0.45  0.1  iso  5.68  5.68  0.5  mtk yes tchain  5  pchain  5

dump dmp2 all dcd ${N} traj.dcd
dump dmp2 all dcd 1000 traj.dcd


compute msd all msd com yes
variable twopoint equal c_msd[4]/6/(step*dt+1.0e-6)
fix 9 all vector 10 c_msd[4]
variable fit equal slope(f_9)/6/(10*dt)
thermo_style custom step temp pe c_msd[4] v_twopoint v_fit v_max_n

fix 1 all npt temp 1.25 ${temp} 0.1 iso 5.68 5.68 0.5 mtk yes tchain 5 pchain 5
fix 1 all npt temp 1.25 0.45 0.1 iso 5.68 5.68 0.5 mtk yes tchain 5 pchain 5
run 500000 # 5000000  # Run for this many steps
Neighbor list info ...
  update every 1 steps, delay 10 steps, check yes
  max neighbors/atom: 2000, page size: 100000
  master list distance cutoff = 3.8
  ghost atom cutoff = 3.8
  binsize = 1.9, bins = 8 8 8
  4 neighbor lists, perpetual/occasional/extra = 1 3 0
  (1) pair lj/cut, perpetual
      attributes: half, newton on
      pair build: half/bin/atomonly/newton
      stencil: half/bin/3d
      bin: standard
  (2) compute orientorder/atom, occasional
      attributes: full, newton on
      pair build: full/bin/atomonly
      stencil: full/bin/3d
      bin: standard
  (3) compute coord/atom, occasional
      attributes: full, newton on
      pair build: full/bin/atomonly
      stencil: full/bin/3d
      bin: standard
  (4) compute cluster/atom, occasional
      attributes: full, newton on
      pair build: full/bin/atomonly
      stencil: full/bin/3d
      bin: standard
Per MPI rank memory allocation (min/avg/max) = 9.818 | 9.823 | 9.829 Mbytes
Step Temp PotEng c_msd[4] v_twopoint v_fit v_max_n 
   12000    1.2639305   -7.0380525 4.6714371e-30 3.2440534e-32 8.3333333e+20            1 
   13000    1.2429475   -7.0467071   0.49248805 0.0031569746  0.040340656            1 
   14000    1.2326659   -7.0521385   0.96605834 0.0057503471  0.039362497            1 
   15000    1.2109321   -7.0242338    1.4553729  0.008085405  0.040109251            2 
   16000    1.2381398   -7.0289153    1.9099697 0.0099477586  0.039572301            2 
   17000    1.2581522   -6.9968406    2.4132962  0.011829883  0.039437708            2 
   18000    1.2532093   -7.0201777     2.863962  0.013259083   0.03965202            2 
   19000    1.2316464   -7.0640905    3.3040912  0.014491628  0.039331166            1 
   20000    1.2221706   -7.0424143    3.7962613  0.015817755  0.039329021            2 
   21000    1.2493453   -7.0880405    4.1837095  0.016602021  0.039012995            3 
   22000    1.2608687   -7.0688132    4.5922337  0.017394824  0.038573137            1 
   23000      1.22746   -7.0385824    5.0201376  0.018188904  0.038202371            1 
   24000    1.2316018   -7.0822601    5.4087818  0.018780492  0.037785644            2 
   25000    1.2482001   -7.0755632    5.8144597  0.019381532  0.037490877            1 
   26000    1.2151946   -7.0917626    6.1761521  0.019795359  0.037071007            2 
   27000    1.2281475   -7.0848999    6.6215122  0.020436766  0.036690977            2 
   28000    1.2164264   -7.0197831     7.103232  0.021140571  0.036518782            2 
   29000    1.2397872   -7.0436501    7.5823948   0.02178849  0.036441458            1 
   30000    1.2158631   -7.0780135    7.8233799   0.02173161  0.036291095            1 
   31000    1.2254284   -7.1048115    8.1704121  0.021963473  0.035985096            1 
   32000     1.219707   -7.1022192    8.6674811  0.022571565  0.035771189            1 
   33000    1.2090188   -7.1406625    9.0118368  0.022757163  0.035572262            1 
   34000    1.2179163   -7.1364667    9.4323484  0.023118501  0.035400895            1 
   35000    1.2347542   -7.1027944     9.772922  0.023268861  0.035205433            4 
   36000    1.2084184   -7.1403253    10.183111  0.023572016  0.035067266            1 
   37000    1.2069614   -7.1092222    10.518964   0.02369136   0.03488105            2 
   38000    1.2081317   -7.0971625    10.977199  0.024072804  0.034710886            2 
   39000    1.1959808   -7.1114291    11.268476  0.024077941  0.034535359            1 
   40000    1.2033659   -7.1295462    11.613699  0.024195206  0.034357626            3 
   41000    1.2054781   -7.1130276    12.040338  0.024472232  0.034190282            1 
   42000    1.2154281   -7.1443413    12.235038  0.024275868  0.034005073            2 
   43000    1.2009486   -7.1122444    12.691567   0.02459606  0.033809388            1 
   44000    1.1862819   -7.1259346    13.112009  0.024833351  0.033689984            5 
   45000    1.2229339   -7.1417621    13.383559  0.024784369  0.033561409            1 
   46000    1.1818464   -7.1207613    13.803845  0.025006966  0.033421654            1 
   47000     1.198339   -7.1544589    14.214756  0.025203468  0.033310713            1 
   48000    1.2024695   -7.1044486    14.754933  0.025616202  0.033230316            2 
   49000    1.2138518   -7.1198866    15.087985  0.025659838  0.033170772            3 
   50000    1.2020453   -7.1752111     15.53692  0.025894867  0.033129915            1 
   51000    1.1877508   -7.1679166    15.855726  0.025908048   0.03309013            1 
   52000    1.1894333   -7.1574627    16.116912  0.025828384  0.033023427            2 
   53000    1.1912761   -7.1423368    16.586518  0.026079431  0.032967824            2 
   54000     1.185386   -7.2074612     16.86143  0.026020725  0.032906882            2 
   55000    1.1966716    -7.187404     17.34959  0.026287258  0.032873811            1 
   56000    1.1651042   -7.1805689    17.560832   0.02613219  0.032817995            1 
   57000    1.1819643   -7.2154018    17.883917  0.026146077  0.032731469            2 
   58000    1.1966534   -7.2253325    18.238107  0.026204177  0.032637125            2 
   59000    1.2064475   -7.1807408    18.673086  0.026374415  0.032557917            1 
   60000    1.1750554   -7.1912749    19.130394  0.026569991  0.032505958            2 
   61000    1.1762404   -7.2093183    19.437268  0.026553645  0.032468183            2 
   62000    1.1725307   -7.1614779    19.845421  0.026673952  0.032410063            1 
   63000    1.1605797   -7.2529164    20.027629  0.026491573  0.032347509            1 
   64000     1.183028   -7.1979525    20.493878  0.026684737  0.032274495            1 
   65000    1.1750287   -7.2253577    20.800943  0.026667875  0.032212809            2 
   66000    1.1699841    -7.193107    21.127354  0.026675951  0.032147941            1 
   67000    1.1339378   -7.2324517    21.431176  0.026655692  0.032084651            1 
   68000    1.1810619   -7.2327868    21.821636  0.026742201  0.032021152            3 
   69000    1.1637575    -7.201222    22.225271  0.026842114  0.031961867            2 
   70000    1.1618529   -7.2583447    22.533228  0.026825271  0.031900376            1 
   71000    1.1446849   -7.2372907     22.96621  0.026955646  0.031852396            2 
   72000    1.1738561   -7.2476991     23.17178  0.026819189  0.031796731            3 
   73000    1.1459168   -7.2532904    23.511284  0.026839366  0.031736582            1 
   74000    1.1736829   -7.2524804    23.789893   0.02679042  0.031669318            3 
   75000    1.1379884   -7.2118528    24.084482  0.026760535  0.031594194            1 
   76000     1.134599   -7.2787911    24.467516  0.026828417  0.031522612            1 
   77000    1.1512404   -7.2965119    24.844847  0.026888362   0.03145864            1 
   78000    1.1610981   -7.2767659    25.185016  0.026907069  0.031396465            1 
   79000    1.1568242   -7.2621978    25.430033  0.026824929  0.031330296            2 
   80000    1.1694269   -7.2496611    25.819828  0.026895654  0.031260922            2 
   81000    1.1518355   -7.3214166    26.100609  0.026852478  0.031194741            1 
   82000    1.1534155   -7.2576773    26.402373   0.02683168  0.031122951            1 
   83000    1.1343273    -7.258074    26.674284  0.026781409  0.031045967            1 
   84000    1.1143088   -7.2640736    26.968341  0.026754306  0.030974726            1 
   85000    1.1398816   -7.2573657    27.265725  0.026731103  0.030899651            2 
   86000    1.1277613   -7.2599634    27.626327  0.026769697  0.030826471            1 
   87000    1.1479498   -7.3131309    27.857124  0.026683069  0.030746329            1 
   88000    1.1130315   -7.2512216    28.172343  0.026678355  0.030674646            2 
   89000    1.1413171    -7.322354    28.603138  0.026781965  0.030605713            2 
   90000    1.1180171   -7.3070521    28.993452  0.026845789  0.030545848            1 
   91000    1.1154038   -7.2946405    29.401205   0.02692418  0.030492549            4 
   92000    1.1157203   -7.2923754    29.597141  0.026809004  0.030437486            1 
   93000    1.1011092   -7.2994662    29.691685  0.026605453  0.030370759            2 
   94000    1.1036868   -7.3696192    30.080408  0.026667028  0.030298851            2 
   95000    1.1259095   -7.3480317     30.41167  0.026676904  0.030230938            2 
   96000    1.1232097   -7.3076612     30.89252  0.026816424  0.030170597            1 
   97000    1.0983959   -7.3029514    31.223988  0.026824732  0.030114486            1 
   98000    1.1102117   -7.3713668    31.364291  0.026670316  0.030056434            1 
   99000    1.0858004   -7.3009129    31.775104   0.02674672  0.029995559            1 
  100000    1.1272551   -7.3272004    31.907415  0.026589512  0.029932337            1 
  101000    1.1260043   -7.3697335    32.029234  0.026426761  0.029861335            2 
  102000    1.1095815    -7.319697    32.494824  0.026548059  0.029795422            2 
  103000    1.1018096   -7.3205035    32.928905  0.026641509  0.029733411            1 
  104000    1.1554669   -7.3506255     33.11743  0.026536402  0.029673642            2 
  105000    1.1035644   -7.3109869    33.496307  0.026584371  0.029614041            1 
  106000    1.1198771   -7.3651172    33.764145  0.026544139  0.029555203            2 
  107000    1.0658617   -7.3455278    34.080531   0.02654247  0.029497042            1 
  108000    1.0796365   -7.4095089    34.288733  0.026457355  0.029440618            2 
  109000    1.0999213   -7.3785431    34.610692  0.026460774  0.029389018            3 
  110000    1.0928192   -7.3699201    34.988002  0.026506062  0.029334142            1 
  111000     1.092616   -7.4011641    34.991744  0.026270078  0.029275659            2 
  112000    1.0786376   -7.3943275    35.486224   0.02640344  0.029216803            1 
  113000    1.0934889   -7.3783384    35.799485    0.0264008  0.029161133            1 
  114000    1.0915199   -7.3585702    35.965746   0.02629075  0.029100747            1 
  115000    1.0924377   -7.4298103    35.987558  0.026077941  0.029034954            2 
  116000    1.0696922   -7.4133199    36.290913  0.026071058  0.028964312            2 
  117000    1.0754901   -7.4140485    36.527456  0.026016706  0.028892962            1 
  118000    1.0748075   -7.3931115    36.884996  0.026048726  0.028824112            1 
  119000    1.0687527   -7.4246127    36.962604  0.025884176  0.028755338            3 
  120000    1.0678415   -7.4427003    37.170315  0.025812719  0.028683015            4 
  121000    1.0710866   -7.4037116    37.559272  0.025867267  0.028608984            2 
  122000    1.0717103   -7.4146418    37.713803  0.025760794  0.028533177            1 
  123000    1.0833166   -7.4216278    37.950048  0.025711414  0.028457219            1 
  124000    1.0668391   -7.3743297      38.3771  0.025791061  0.028386815            2 
  125000    1.0789624   -7.4316345    38.679825   0.02578655  0.028319785            1 
  126000     1.060824   -7.4660492    38.912051  0.025735483  0.028254162            2 
  127000    1.0729988   -7.4306428     39.21635  0.025732513  0.028189873            1 
  128000    1.0752838   -7.4990869    39.341016  0.025612641  0.028124233            2 
  129000    1.0622802   -7.4819593    39.606897   0.02558585    0.0280583            3 
  130000    1.0802471   -7.4477343    39.760114  0.025487253  0.027988674            4 
  131000    1.0400398   -7.4513057    40.305508  0.025639636  0.027921179            1 
  132000     1.077838   -7.4344368    40.313729  0.025450586  0.027853088            3 
  133000    1.0522004   -7.4715191    40.487117  0.025367868  0.027781919            3 
  134000    1.0626167   -7.4918187    40.628975  0.025266775   0.02771022            2 
  135000    1.0561574   -7.4666025    41.183288  0.025421783  0.027639737            3 
  136000    1.0576095   -7.4440426     41.05121  0.025153928  0.027569757            2 
  137000    1.0655781   -7.4859013     41.27903  0.025108899  0.027497262            2 
  138000    1.0388899   -7.4835895    41.635696  0.025142328  0.027425149            2 
  139000    1.0517667   -7.5179062    41.759616  0.025035741  0.027351493            2 
  140000    1.0597802   -7.4762168    42.088915  0.025052926   0.02727978            1 
  141000    1.0466805   -7.5305077    42.216828  0.024950844  0.027208719            2 
  142000    1.0378156   -7.5058764    42.409183  0.024888018  0.027137376            1 
  143000    1.0541677   -7.5302052    42.576064  0.024811226  0.027068107            1 
  144000    1.0306809   -7.5132626    42.761718  0.024746364  0.026993094            3 
  145000    1.0468442   -7.4880836    43.126994  0.024785629  0.026920359            3 
  146000    1.0090271   -7.5220622    43.276317  0.024701094  0.026850381            2 
  147000    1.0461474   -7.5522876    43.528526  0.024676035  0.026780329            1 
  148000    1.0284936   -7.4941707    43.710161  0.024611577  0.026709051            1 
  149000    1.0230157    -7.494688    43.955503  0.024583615   0.02663778            2 
  150000    1.0424121   -7.5703802    44.142852  0.024523807  0.026566913            3 
  151000    1.0497856   -7.5319985    44.489217  0.024552548  0.026498869            2 
  152000    1.0255138   -7.5579965    44.576856  0.024439066   0.02643162            4 
  153000    1.0534862   -7.5026339    44.807113  0.024404746  0.026361705            1 
  154000    1.0338803   -7.5457637    44.858744  0.024274212   0.02628982            2 
  155000    1.0301963   -7.5416316    45.033781   0.02421171   0.02621753            3 
  156000    1.0192687   -7.5712876    45.233584  0.024163239  0.026145752            3 
  157000    1.0115656   -7.5140223    45.574929  0.024190514  0.026073938            1 
  158000    1.0092641   -7.5548303    45.833846  0.024173969  0.026004786            2 
  159000    1.0222415    -7.569076    46.047011  0.024133653  0.025935092            1 
  160000    1.0316873   -7.5939728    46.053516  0.023986206  0.025865704            1 
  161000   0.98353034   -7.5710994     46.33135   0.02398103  0.025795739            3 
  162000    1.0072874   -7.5477553    46.824524  0.024086689  0.025729393            3 
  163000    1.0023782   -7.5942254    46.826121  0.023939734  0.025664804            2 
  164000    1.0133107   -7.6021256    47.176984  0.023972045  0.025599598            1 
  165000    1.0210188   -7.5769176    47.202126  0.023839457  0.025532099            1 
  166000   0.98582649   -7.6161328    47.401093  0.023795729   0.02546444            1 
  167000      1.01156    -7.577572    47.617232  0.023761094  0.025397905            1 
  168000    1.0026163   -7.5699003    47.842794  0.023731545  0.025332582            1 
  169000    1.0042396   -7.6129319    48.119015  0.023727325  0.025267592            2 
  170000   0.99357425   -7.5850066    48.341964  0.023697041  0.025205084            2 
  171000    1.0065474   -7.6167181    48.490052   0.02363063  0.025142224            2 
  172000   0.97962792   -7.5904225    48.659594  0.023575385  0.025079676            7 
  173000   0.98438866   -7.6342024    48.704357  0.023460673  0.025017354            1 
  174000    0.9963408   -7.6369039    48.818547   0.02338053  0.024952491            2 
  175000   0.98613016    -7.653705    48.772201  0.023224858  0.024884825            2 
  176000   0.99305095   -7.6511992    49.078272  0.023237818  0.024815407            3 
  177000    1.0058282   -7.6661444    49.210522  0.023168796  0.024747098            2 
  178000   0.98018626   -7.6700969    49.360141   0.02310868    0.0246776            3 
  179000   0.99247187   -7.6685254    49.398376  0.022997381  0.024609296            1 
  180000   0.97711365   -7.6915257    49.713697    0.0230156  0.024541919            1 
  181000   0.94819415   -7.6693169    49.883387  0.022966568  0.024473854            1 
  182000   0.98612133   -7.6337714    50.259568  0.023012623  0.024407087            2 
  183000   0.95730897   -7.6590706    50.520252  0.023005579  0.024343045            1 
  184000   0.95121707   -7.6389187    50.623246  0.022927195  0.024277511            1 
  185000   0.94363134    -7.686253    50.611849   0.02279813  0.024212481            2 
  186000    0.9863356   -7.7150406    50.726313  0.022726843  0.024147137            2 
  187000   0.96692689   -7.6976621    51.010603  0.022731998   0.02408175            1 
  188000    1.0015734   -7.6860898    51.051301  0.022629123  0.024016067            2 
  189000   0.97521353      -7.7017    51.195288  0.022572878  0.023951119            3 
  190000   0.96615203   -7.7101295    51.332325  0.022514178  0.023884669            2 
  191000    0.9540617   -7.6563102    51.679286  0.022547681  0.023819652            3 
  192000   0.96191762   -7.6869589    51.632341   0.02240987  0.023754259            1 
  193000   0.98334036   -7.7189379    51.749746   0.02234445  0.023689163            2 
  194000   0.95749813   -7.6993725    52.283783   0.02245867   0.02362529            4 
  195000   0.95104866   -7.7317793    52.038504  0.022238677  0.023562087            1 
  196000   0.95038458   -7.6946419    52.209886  0.022198081   0.02349676            3 
  197000   0.94837252   -7.7078781    52.310798  0.022128087  0.023430441            3 
  198000   0.94094658   -7.7214292    52.401648  0.022054566  0.023362634            4 
  199000   0.95431191   -7.7476947    52.370083  0.021930521  0.023296113            2 
  200000   0.95912188   -7.7296069    52.453274  0.021855531  0.023227368            2 
  201000   0.95195324   -7.7280594    52.619709    0.0218158  0.023156461            5 
  202000   0.97064347   -7.7233375    52.640819  0.021716509  0.023085381            2 
  203000   0.97435143   -7.7372205    52.908921   0.02171959  0.023015534            1 
  204000   0.94500974   -7.7360088    52.888807  0.021604905  0.022945677            1 
  205000   0.95357454   -7.7759785     52.71674  0.021429569   0.02287442            2 
  206000   0.93833111   -7.7640543     52.92572  0.021410081  0.022801057            2 
  207000   0.95546933    -7.741552    53.015626  0.021342845  0.022727334            2 
  208000   0.92974565   -7.7613894    52.990595  0.021230206  0.022653832            2 
  209000   0.93187447   -7.7584063    53.172057   0.02120098  0.022580217            8 
  210000   0.91961749   -7.7723847    53.177928  0.021102352  0.022506778            2 
  211000   0.92793496   -7.7235952    53.397991  0.021089254  0.022433409            1 
  212000   0.92809036   -7.7546711    53.542243  0.021046479  0.022360906            1 
  213000   0.89347013   -7.7544844    53.638537  0.020985343  0.022287916            2 
  214000   0.92862602   -7.8063644    53.537338  0.020847873  0.022214281            1 
  215000   0.91981356   -7.7932836    53.660426  0.020798615  0.022140527            1 
  216000   0.94458409   -7.8122346    53.830302  0.020767863  0.022067489            2 
  217000   0.94122768   -7.8055359    54.013097  0.020742357  0.021995026            1 
  218000   0.92091756   -7.8066186    54.127412  0.020690907  0.021922443            2 
  219000     0.897087   -7.8067541    54.320289  0.020669821  0.021850133            1 
  220000   0.91434654   -7.8187539    54.481939  0.020637098  0.021779127            2 
  221000   0.89901581   -7.8289712    54.528608  0.020561315  0.021708224            2 
  222000    0.9091255   -7.8413244    54.453282  0.020440421  0.021636918            2 
  223000   0.91085685   -7.7957057    54.393947  0.020326587  0.021565074            2 
  224000   0.91222333   -7.7983626      54.5995  0.020312314  0.021493515            2 
  225000    0.9224427   -7.7860896    54.687115  0.020254487  0.021422832            3 
  226000   0.90616026   -7.8473982     55.02704  0.020290207  0.021352655            2 
  227000   0.90465671    -7.811763    55.028954  0.020201525  0.021282764            5 
  228000   0.88723146   -7.8241171    55.070379  0.020128062  0.021211966            2 
  229000   0.90593061   -7.8697666     55.21174  0.020091608  0.021141227            2 
  230000   0.91745061   -7.8527712    55.181237  0.019993202  0.021070663            1 
  231000   0.88294083   -7.8757619    55.362514  0.019972047  0.021000585            1 
  232000   0.89319118   -7.8670933    55.444583  0.019915439  0.020932205            2 
  233000    0.8966541   -7.8711633    55.597682  0.019884722  0.020863813            2 
  234000   0.89654947   -7.8618257    55.674054  0.019826942   0.02079573            1 
  235000   0.90058051   -7.8509907    55.916177  0.019828431  0.020727012            1 
  236000   0.90778159   -7.8543652    55.931236   0.01974973  0.020659688            2 
  237000   0.90465277   -7.8092022    56.042502  0.019705521  0.020591777            1 
  238000   0.89967284   -7.8475868    56.015561  0.019613292   0.02052472            4 
  239000   0.90021827   -7.8691055    56.040643  0.019539973  0.020457527            4 
  240000   0.88047652   -7.9089017    56.233067  0.019525371  0.020390508            1 
  241000   0.86667842   -7.8533131    56.380136  0.019495206  0.020324176            1 
  242000   0.88735632   -7.9008514     56.29031  0.019383716  0.020258187            2 
  243000    0.8829735   -7.9286227    56.483013  0.019370032  0.020192498            2 
  244000   0.88580621   -7.9327807    56.522439  0.019304112  0.020126706            2 
  245000   0.88254397   -7.9460263    56.715388  0.019290948  0.020061908            5 
  246000   0.87306296   -7.9368485    56.852333  0.019258921  0.019997324            2 
  247000   0.87623592   -7.8969725    57.049863  0.019247592  0.019934257            2 
  248000    0.8739441   -7.9473064    57.038252  0.019166079  0.019871023            3 
  249000    0.8830426   -7.9200166    57.245214  0.019158372  0.019807762            5 
  250000    0.8582294   -7.9235978    57.232018  0.019077339  0.019744682            2 
  251000    0.8610397   -7.9187385    57.179197  0.018983797  0.019681071            2 
  252000   0.87201303   -7.9357773    57.253844  0.018933149  0.019617551            2 
  253000   0.87832364   -7.9725873    57.218405  0.018846642  0.019553546            2 
  254000   0.86520499   -7.9703849    57.251486  0.018783296  0.019489614            3 
  255000   0.84553432   -7.9623396    57.325319  0.018733764  0.019425186            2 
  256000   0.86227969    -7.954026    57.548252  0.018733155  0.019361169            2 
  257000   0.86096707   -7.9351986     57.72951  0.018719037  0.019297991            2 
  258000   0.84614748   -7.9736427    57.602316  0.018605399  0.019234642            2 
  259000   0.84608951   -7.9716384    57.632726  0.018543348   0.01917123            3 
  260000    0.8516814   -7.9543929    57.728994  0.018502883  0.019108006            1 
  261000   0.86313649   -7.9881609    57.686454  0.018418408  0.019044966            1 
  262000   0.85222988    -7.971122     57.92857  0.018425118  0.018982362            1 
  263000   0.86276105   -8.0226281     57.95788  0.018364347  0.018920462            2 
  264000   0.84391463   -8.0014491    58.127629  0.018348368  0.018859055            2 
  265000   0.84565121   -8.0117367    58.191628  0.018299254  0.018798434            1 
  266000    0.8440776   -7.9737231    58.292131  0.018261946   0.01873773            2 
  267000   0.83824225   -7.9887208    58.357017  0.018213801  0.018677381            1 
  268000   0.85902939   -7.9936798    58.487273  0.018186341   0.01861719            5 
  269000   0.85578733   -7.9914834    58.491824  0.018120144  0.018557212            1 
  270000    0.8556226    -8.013389    58.502694  0.018056387  0.018497678            2 
  271000   0.84580446   -8.0053978     58.50788  0.017991353  0.018437954            1 
  272000   0.82666119   -8.0238206    58.570713  0.017944458  0.018378186            2 
  273000   0.83124204   -8.0117567    58.679159  0.017911831  0.018317908            1 
  274000   0.83793887   -8.0496331    58.622665  0.017829278  0.018258163            2 
  275000   0.83359203   -8.0206143    58.731719  0.017797491  0.018198125            1 
  276000   0.83307334   -8.0650948    58.699289  0.017723215  0.018138165            1 
  277000   0.81828168   -8.0466308    58.645789  0.017643137  0.018078022            2 
  278000   0.82199087   -8.0480284    58.927246  0.017664042  0.018017994            2 
  279000   0.79923786   -8.0560183    58.963342  0.017611512  0.017958851            3 
  280000   0.80645581   -8.0553397    58.958619  0.017547208  0.017900026            2 
  281000   0.80801938   -8.0918317    58.868873  0.017458147  0.017841218            3 
  282000   0.79934494   -8.1073309    59.062272   0.01745339  0.017782536            1 
  283000   0.80907947   -8.1035287    59.079257  0.017396719  0.017724115            3 
  284000   0.81106991     -8.09682    59.122704  0.017348211  0.017666038            1 
  285000   0.81487013   -8.0762847    59.158333  0.017297758  0.017608315            5 
  286000    0.8244385   -8.0747134    59.321746  0.017284891  0.017550738            2 
  287000    0.8032513   -8.0368018    59.635794  0.017315852  0.017493671            1 
  288000   0.80295817   -8.0832723    59.462249  0.017205512  0.017436947            5 
  289000   0.81401976   -8.0826714    59.478849  0.017150764  0.017380161            3 
  290000   0.80426251   -8.1111772    59.502474  0.017098412  0.017323466            2 
  291000   0.78980984   -8.1320827    59.509043  0.017041536  0.017266924            3 
  292000   0.79047009   -8.1121889       59.591  0.017006564  0.017209736            2 
  293000   0.79068445   -8.0922095    59.620103  0.016956798  0.017153009            5 
  294000   0.80718087   -8.0834285    59.741151  0.016933433  0.017096625            2 
  295000   0.80343756    -8.089179    59.728674  0.016872507  0.017040647            4 
  296000   0.79024349   -8.1554777    59.610406  0.016782209  0.016984043            3 
  297000   0.78833523   -8.1309143    59.576707  0.016716248  0.016927711            2 
  298000   0.78968909   -8.0997139    59.794043  0.016720929  0.016871142            2 
  299000   0.78043272    -8.127046    59.712889  0.016642388  0.016815307            2 
  300000   0.80160359    -8.144164    59.845733  0.016623815  0.016759521            1 
  301000   0.79405456   -8.1460801    59.902395  0.016584273   0.01670376            2 
  302000   0.77760824   -8.1294158    59.928533  0.016536571  0.016647911            1 
  303000   0.77816496   -8.1513701     59.77523  0.016439832  0.016592416            2 
  304000   0.77948123   -8.1308591    59.701604  0.016365571   0.01653748            3 
  305000    0.7790152   -8.1616614    59.764078  0.016328983  0.016482143            2 
  306000   0.78156301   -8.1572359    59.835504  0.016295072  0.016426658            3 
  307000   0.76041109   -8.1867231    59.836174  0.016242175  0.016371021            4 
  308000   0.76095641   -8.1401157    59.908442  0.016208994  0.016315679            3 
  309000   0.77339436   -8.1916748    59.656451  0.016088579  0.016260424            4 
  310000   0.77728746     -8.15945    59.993102  0.016127178   0.01620538            5 
  311000   0.76864339   -8.1681308    59.970338  0.016069222  0.016150585            1 
  312000   0.77507794   -8.1842955    60.014058  0.016029396  0.016095819            2 
  313000   0.77278722   -8.1690895    60.232913  0.016036452   0.01604163            2 
  314000   0.77957014   -8.1929113    60.068256  0.015941682  0.015987773            3 
  315000   0.76779761   -8.1814193    60.150654  0.015912871  0.015933589            1 
  316000   0.76534938    -8.212035    60.135967  0.015858641  0.015879636            2 
  317000   0.75485242   -8.1929617    60.207985  0.015827546  0.015825836            3 
  318000   0.73462403   -8.2089089    60.226266  0.015782564  0.015771566            6 
  319000   0.74773287   -8.2121684    60.184314   0.01572213  0.015717765            2 
  320000   0.75227235   -8.2359047    60.097024  0.015650267  0.015663939            2 
  321000   0.75395027   -8.2269152    60.105213  0.015603638  0.015610253            1 
  322000   0.75893264   -8.2379923    60.141772  0.015564641  0.015556946            2 
  323000   0.73621054   -8.2795512    60.147606  0.015517958  0.015503966            2 
  324000   0.74969953   -8.2109105    60.398177   0.01553451   0.01545107            3 
  325000   0.76238099   -8.2507367    60.203953  0.015436911  0.015398078            2 
  326000   0.74877477   -8.2673977    60.286505  0.015410661  0.015345097            4 
  327000   0.74635637   -8.2408191    60.219632  0.015346491  0.015292349            4 
  328000   0.74640053   -8.2620901    60.254301  0.015308511  0.015240002            2 
  329000   0.74223723    -8.250103    60.331147  0.015281445  0.015188076            1 
  330000   0.74497982   -8.2566914    60.366508  0.015244068  0.015136433            2 
  331000   0.73129971   -8.2863487    60.379664  0.015201325  0.015084872            3 
  332000   0.74911907   -8.2726977     60.23055   0.01511811  0.015033262            2 
  333000   0.72984839   -8.2831706    60.239735  0.015075009  0.014981552            2 
  334000   0.73330941   -8.2964639     60.20814  0.015021991  0.014929751            2 
  335000   0.73678128   -8.3151069    60.330158  0.015007502  0.014878064            2 
  336000   0.72693242   -8.3146122    60.324757  0.014961497  0.014826385            4 
  337000   0.72380257   -8.2877135    60.394812  0.014934424  0.014774994            2 
  338000   0.73207886   -8.3137329     60.36525  0.014882951  0.014723907            3 
  339000   0.72596139   -8.3392429     60.35587  0.014836743   0.01467275            4 
  340000   0.72689288    -8.307791    60.449237  0.014815989  0.014621763            3 
  341000   0.71672686   -8.2997438    60.458488  0.014774802  0.014570965            4 
  342000   0.70423652   -8.3026768    60.432527  0.014725275  0.014520444            2 
  343000   0.72010037   -8.3041416    60.613108  0.014726217  0.014470031            2 
  344000   0.72130371   -8.3203092    60.404718  0.014632926   0.01442012            2 
  345000   0.71442045   -8.3292218    60.418087  0.014593741  0.014370122            2 
  346000   0.72335771   -8.3165814    60.523836  0.014577032  0.014320263            4 
  347000   0.71088612   -8.3347026    60.366048   0.01449713  0.014270585            6 
  348000   0.73041694   -8.3444507    60.387832  0.014460688   0.01422108            4 
  349000    0.7127872    -8.358964    60.381273  0.014417687  0.014171408            3 
  350000   0.68248269   -8.3279121    60.481856  0.014400442  0.014122086            2 
  351000   0.71310157   -8.3240371     60.43935  0.014349323  0.014072901            1 
  352000     0.708431   -8.3594967    60.378635  0.014294184  0.014023567            2 
  353000   0.70240565   -8.3688098    60.399486  0.014258613  0.013974659            1 
  354000   0.69486973   -8.3389605    60.492186  0.014240157  0.013926218            3 
  355000   0.70199505   -8.3835484    60.497256  0.014201234  0.013877871            3 
  356000   0.69401918    -8.345473    60.565504  0.014177318  0.013829635            3 
  357000   0.70172773   -8.3463054    60.586511  0.014142509  0.013781762            1 
  358000   0.68888824   -8.3531096    60.649264  0.014117613  0.013734315            2 
  359000   0.69232638   -8.3611679    60.520778  0.014048463  0.013686978            1 
  360000   0.69251282   -8.3881556    60.569834  0.014020795   0.01363966            2 
  361000   0.69502958   -8.3996184    60.675019  0.014006237  0.013592451            1 
  362000   0.68928949   -8.3840023    60.614919  0.013953711  0.013545515            4 
  363000   0.69869893   -8.3942591    60.631249   0.01391902  0.013498717            2 
  364000   0.68580592   -8.4186872    60.471315  0.013844166  0.013451865            2 
  365000   0.67752869   -8.3898699    60.502808  0.013813427  0.013405361            3 
  366000   0.68202447   -8.3925512    60.695059  0.013819458  0.013359061            2 
  367000   0.67626351   -8.3986482    60.671383  0.013776427  0.013312857            2 
  368000   0.68723645   -8.4007192    60.657428  0.013735831  0.013267107            2 
  369000   0.68898328    -8.405294    60.650921  0.013697137  0.013221315            4 
  370000     0.686344   -8.4097591    60.719205  0.013675497  0.013175714            3 
  371000    0.6786984   -8.4408106    60.670486  0.013627692  0.013130292            2 
  372000    0.6853314    -8.419639    60.727357  0.013603799  0.013084871            4 
  373000   0.67784338   -8.4398004    60.632047  0.013546034  0.013039671            2 
  374000   0.67077379    -8.437704    60.588749  0.013500167  0.012994505            3 
  375000   0.66168556    -8.450604     60.70439  0.013489864   0.01294956            5 
  376000   0.69504135   -8.4735471    60.627731  0.013436997  0.012904726            2 
  377000   0.66342959   -8.4485558    60.615531  0.013398658  0.012860055            1 
  378000   0.65663802   -8.4757379    60.747888  0.013392392  0.012815515            2 
  379000   0.66199741   -8.4818096    60.610056  0.013326749  0.012771253            1 
  380000   0.65749891   -8.4784381    60.617294  0.013293266  0.012727211            2 
  381000   0.66705088   -8.4848326    60.682956  0.013272738  0.012683233            3 
  382000   0.64606455   -8.5119168    60.578429  0.013215189  0.012639298            7 
  383000     0.650056   -8.5043866    60.674045  0.013201489  0.012595465            3 
  384000     0.662834   -8.4886517    60.787009  0.013191625  0.012551854            2 
  385000   0.64499463   -8.5193089    60.596558  0.013116138   0.01250834            2 
  386000   0.65489131   -8.5055795    60.478743  0.013056723  0.012464872            3 
  387000   0.66571182   -8.4980508     60.62464  0.013054401  0.012421567            2 
  388000   0.64768695   -8.4921893    60.635903  0.013023175  0.012378425            2 
  389000   0.62584746   -8.4816579    60.501992  0.012961009  0.012335377            1 
  390000   0.64917339   -8.5238566    60.436225  0.012913723  0.012292483            2 
  391000   0.64968442   -8.5207654    60.418559  0.012876931  0.012249604            3 
  392000   0.64199696   -8.5312314    60.502353  0.012861895   0.01220691            4 
  393000   0.63324067   -8.5368898    60.451241  0.012818329  0.012164255            3 
  394000   0.63514693   -8.5394436    60.584008  0.012813876  0.012121715            2 
  395000   0.64834473   -8.5521296    60.490561  0.012761722  0.012079388            1 
  396000   0.63046485   -8.5495768    60.560175  0.012744145  0.012037372            2 
  397000   0.63117302   -8.5288683    60.543522  0.012708548  0.011995493            2 
  398000    0.6366838   -8.5343364    60.574238  0.012683048  0.011953642            1 
  399000   0.63541419   -8.5406952    60.500636  0.012635889  0.011912019            2 
  400000   0.63996944   -8.5578589      60.5537  0.012615354  0.011870565            2 
  401000   0.59699242    -8.572861    60.498849  0.012572496  0.011829253            2 
  402000   0.62616029   -8.5542748    60.518605  0.012545316   0.01178812            2 
  403000   0.63476629   -8.5677022    60.494124  0.012509124  0.011747013            2 
  404000   0.64655483   -8.5501935    60.565821   0.01249295  0.011706011            3 
  405000   0.61765703   -8.5786734    60.425626  0.012433256  0.011665195            2 
  406000    0.6200349   -8.5590968     60.30074  0.012376999  0.011624564            1 
  407000   0.62541493   -8.5773307    60.357069  0.012358122  0.011584189            6 
  408000   0.60835085   -8.5885718    60.380308  0.012332579  0.011543855            2 
  409000   0.62702922    -8.580164    60.457168  0.012318086  0.011503714            3 
  410000   0.60191562    -8.580607    60.393338  0.012275069  0.011463763            1 
  411000   0.60786007   -8.5799962    60.467788  0.012260298  0.011423945            1 
  412000   0.61098637   -8.6243634    60.395405  0.012215899  0.011384222            3 
  413000   0.60526866   -8.5993391    60.415881  0.012190452  0.011344545            2 
  414000   0.61571293   -8.5997361    60.376276  0.012153035  0.011305119            1 
  415000   0.59632597   -8.6304367     60.40155  0.012128825  0.011265855            3 
  416000   0.60860103   -8.6196944    60.371018  0.012093553  0.011226689            2 
  417000    0.5951992   -8.6176652    60.447367  0.012079809  0.011187812            2 
  418000   0.59510337   -8.6349791    60.330504  0.012027613  0.011149061            2 
  419000   0.59558879   -8.6225558    60.383272  0.012009402   0.01111049            3 
  420000   0.59519184   -8.6471565    60.376609  0.011979486  0.011072032            1 
  421000   0.59634077   -8.6271288    60.444117  0.011964394  0.011033804            2 
  422000   0.58564574   -8.6340041    60.347895  0.011917041  0.010995667            5 
  423000   0.60818564   -8.6222492    60.339137  0.011887143  0.010957657            2 
  424000   0.58872785   -8.6301284    60.358916  0.011862994  0.010919679            2 
  425000    0.5902712   -8.6448856     60.35208  0.011833741  0.010881796            2 
  426000   0.59211357   -8.6481214    60.408766  0.011817051  0.010844179            2 
  427000   0.58880666   -8.6358451    60.248621  0.011758123  0.010806655            1 
  428000   0.57995668    -8.668227    60.287029  0.011738129  0.010769213            4 
  429000   0.57269852   -8.6565305    60.303053   0.01171388  0.010731956            2 
  430000   0.57246939    -8.666796    60.318143  0.011689563  0.010694811            1 
  431000   0.58625964   -8.6599025    60.336988  0.011666084  0.010657865            1 
  432000   0.58535036   -8.6459483    60.297287  0.011631421  0.010621112            4 
  433000   0.57810492   -8.6621803    60.265001  0.011598345  0.010584369            1 
  434000   0.56594756   -8.6453012    60.336778  0.011585403  0.010547898            1 
  435000   0.58244971   -8.6755137    60.286606  0.011549158  0.010511553            2 
  436000   0.57082483   -8.6769301    60.273408  0.011520147  0.010475436            2 
  437000   0.57598284   -8.6755836     60.18272  0.011476491  0.010439461            2 
  438000   0.56793103   -8.6731869    60.215324  0.011456492  0.010403607            1 
  439000   0.56676166   -8.6741274    60.224451  0.011432128  0.010367809            3 
  440000   0.56022386   -8.6821785    60.206682  0.011402781  0.010332151            1 
  441000    0.5593703   -8.6953512    60.187964  0.011373387  0.010296638            2 
  442000   0.56768373   -8.6722205    60.192804  0.011348568  0.010261273            3 
  443000   0.56021247   -8.6984798    60.106399  0.011306697  0.010226025            4 
  444000   0.54803206   -8.6741442    60.289801  0.011315653  0.010190907            3 
  445000   0.55562082    -8.689885    60.173197  0.011268389  0.010155911            1 
  446000   0.55362768   -8.6885803    60.191037  0.011246457  0.010121137            1 
  447000   0.55629628   -8.7136299    60.109476  0.011206092  0.010086483            1 
  448000   0.55904394   -8.6915229     60.14742  0.011188136   0.01005195            3 
  449000   0.55660365   -8.7204235    60.135319  0.011160972  0.010017563            3 
  450000   0.55770372   -8.7303763     60.09931  0.011129502  0.009983333            3 
  451000   0.54503053   -8.7296108    60.112469  0.011107256 0.0099492124            2 
  452000   0.54253675   -8.7275034    60.173656  0.011093963 0.0099152939            4 
  453000   0.56020038   -8.7197582     60.20499  0.011075237 0.0098815412            2 
  454000   0.54156602   -8.7247745     60.10511  0.011032509 0.0098479354            2 
  455000   0.53920451   -8.7058503    60.155112   0.01101742 0.0098144824            2 
  456000   0.52943404   -8.7318471    60.157603  0.010993714 0.0097811522            1 
  457000   0.52066766   -8.7360584     60.14552  0.010967454 0.0097479481            1 
  458000   0.53561744   -8.7114441    60.067878  0.010929381 0.0097149002            1 
  459000   0.53340291    -8.730904    60.132779  0.010917353 0.0096820189            3 
  460000   0.54626533   -8.7362494    60.163461  0.010899178  0.009649301            1 
  461000   0.53714927   -8.7372309    60.116942  0.010867126 0.0096166491            1 
  462000   0.54223794   -8.7307956    60.040715  0.010829855 0.0095841211            1 
  463000   0.52554297   -8.7515844    60.076719  0.010812944 0.0095517176            3 
  464000   0.53131975   -8.7252136    60.101091  0.010794018 0.0095194121            2 
  465000    0.5192067   -8.7404172    60.117079   0.01077367 0.0094872963            2 
  466000   0.51670547    -8.755879    60.037291  0.010736282 0.0094552584            1 
  467000   0.52194663   -8.7574661    60.042948  0.010714302 0.0094233546            4 
  468000   0.53135351   -8.7580894    60.000353  0.010683824 0.0093916381            3 
  469000   0.53100589   -8.7614881    59.952692  0.010652575 0.0093600125            2 
  470000   0.52509131   -8.7650206    60.040234  0.010645432 0.0093285138            4 
  471000   0.52378755   -8.7625333    60.045552  0.010623771 0.0092971333            2 
  472000   0.51790931   -8.7684732    60.104735  0.010611712 0.0092658944            2 
  473000   0.51604859   -8.7658514    59.959054  0.010563611 0.0092347688            1 
  474000   0.50609376   -8.7696926     60.05273  0.010557794 0.0092037625            2 
  475000   0.51001071   -8.7902522    60.087661  0.010541695 0.0091728691            2 
  476000    0.5059845   -8.7659556    59.959711  0.010497148 0.0091420245            2 
  477000   0.50719671   -8.7730485    59.943408  0.010472293 0.0091113707            2 
  478000   0.50848703   -8.7824232    60.002376  0.010460665 0.0090809132            2 
  479000   0.51534362    -8.787237    59.960236  0.010431495 0.0090505485            3 
  480000   0.50289387   -8.7966477    59.945262  0.010407164 0.0090203163            2 
  481000   0.49660477   -8.7961627    60.004575  0.010395803 0.0089902138            2 
  482000   0.49547325   -8.7829586    59.875385  0.010351899 0.0089601829            3 
  483000    0.5020134   -8.8108019    59.926085  0.010339214 0.0089303641            1 
  484000   0.49616196   -8.7911891    59.887615  0.010311228 0.0089006442            2 
  485000   0.49437567   -8.7867503    59.957438  0.010301965  0.008871018            4 
  486000   0.49779615   -8.8108031     59.89515  0.010270088 0.0088415332            1 
  487000   0.50124792    -8.819333    59.884512  0.010247179 0.0088121643            1 
  488000   0.48861596   -8.7933164    59.961423  0.010239314 0.0087828692            2 
  489000   0.48652412   -8.7953305    59.883347  0.010205069 0.0087537081            3 
  490000   0.48294556   -8.8087118    59.966645  0.010198409 0.0087246271            3 
  491000   0.48489905   -8.8144576    59.809812   0.01015102   0.00869568            2 
  492000   0.47188629   -8.8164936    59.889874  0.010143949 0.0086668963            1 
  493000   0.48013193   -8.8167807    59.913677  0.010127396 0.0086381843            2 
  494000   0.47789208   -8.8162087    59.836906  0.010093945  0.008609593            2 
  495000   0.47411535   -8.8138104    59.917291  0.010087086 0.0085811353            2 
  496000    0.4778613   -8.8223356    59.902729  0.010064303 0.0085527916            2 
  497000   0.48255225   -8.8273016    59.765167  0.010020987 0.0085245486            4 
  498000   0.46927561   -8.8396105    59.829553  0.010011639 0.0084964905            3 
  499000   0.47586904   -8.8318291    59.977932  0.010016355 0.0084684947            2 
  500000    0.4534098   -8.8509077     59.82793 0.0099713216 0.0084406034            2 
  501000   0.45428295   -8.8584151    59.695182 0.0099293383 0.0084128491            1 
  502000    0.4686767   -8.8441645    59.773659 0.0099225862 0.0083851994            2 
  503000   0.46288997   -8.8528109      59.7894 0.0099054672 0.0083576638            2 
  504000   0.45804057   -8.8507459    59.864433 0.0098982197 0.0083303319            1 
  505000   0.45449765   -8.8660897    59.721534 0.0098550386   0.00830306            2 
  506000   0.46192612   -8.8478814    59.766019 0.0098428885 0.0082759071            1 
  507000   0.46066318   -8.8484433    59.866371 0.0098399689 0.0082488462            3 
  508000   0.45728197   -8.8523566    59.736137 0.0097992351   0.00822192            2 
  509000   0.44986275   -8.8650779    59.761822 0.0097841882 0.0081950451            2 
  510000   0.45277813   -8.8567206    59.769198 0.0097662089 0.0081683166            2 
  511000   0.44335379   -8.8644215    59.790058 0.0097504987 0.0081416955            2 
  512000   0.44534981   -8.8831363    59.804456 0.0097337982 0.0081152015            1 
Loop time of 1239.74 on 48 procs for 500000 steps with 4000 atoms

Performance: 69691.797 tau/day, 403.309 timesteps/s
99.4% CPU use with 48 MPI tasks x no OpenMP threads

MPI task timing breakdown:
Section |  min time  |  avg time  |  max time  |%varavg| %total
---------------------------------------------------------------
Pair    | 79.236     | 85.216     | 91.444     |  38.8 |  6.87
Neigh   | 8.0532     | 8.4901     | 9.2682     |   8.5 |  0.68
Comm    | 77.805     | 83.473     | 90.801     |  35.7 |  6.73
Output  | 0.89964    | 0.90011    | 0.9101     |   0.2 |  0.07
Modify  | 1045.6     | 1050.2     | 1053.5     |   5.7 | 84.71
Other   |            | 11.47      |            |       |  0.92

Nlocal:        83.3333 ave          94 max          75 min
Histogram: 2 2 4 11 12 11 4 1 0 1
Nghost:        2132.35 ave        2158 max        2110 min
Histogram: 2 4 6 6 10 5 7 6 1 1
Neighs:        14047.7 ave       15759 max       12607 min
Histogram: 2 2 9 8 7 11 2 2 4 1
FullNghs:      28096.0 ave       31942 max       25047 min
Histogram: 2 2 4 10 14 9 5 1 0 1

Total # of neighbors = 1348608
Ave neighs/atom = 337.15200
Neighbor list builds = 26690
Dangerous builds = 0

#clear
#
#next RN
#
#jump SELF
Total wall time: 0:20:43
