
units lj                  # Use reduced LJ style units
atom_style atomic         # Uncharged point particles
atom_modify map hash      # Needed for indexing of clusters etc
                          # Used to be able to find where atoms are in relation to each other.

lattice fcc 1.0 spacing 1 1 1
Lattice spacing in x,y,z = 1.5874011 1.5874011 1.5874011
region box block 0 10 0 10 0 10 units lattice
create_box 2 box
Created orthogonal box = (0.0000000 0.0000000 0.0000000) to (15.874011 15.874011 15.874011)
  3 by 4 by 4 MPI processor grid
create_atoms 1 box
Created 4000 atoms
  using lattice units in orthogonal box = (0.0000000 0.0000000 0.0000000) to (15.874011 15.874011 15.874011)
  create_atoms CPU = 0.002 seconds
set type 1 type/fraction 2 0.3 78393
Setting atom values ...
  1229 settings made for type/fraction
mass 1 1.0
mass 2 1.0
pair_style lj/cut  3.5
pair_modify tail  yes
pair_coeff 1  1  1.0  1.0   # Intearaction between 1 and 1 set with epsilon = 1 and sigma = 1
pair_coeff 1  2  1.5  0.8
pair_coeff 2  2  0.5  0.88

write_data data.0
System init for write_data ...
Neighbor list info ...
  update every 1 steps, delay 10 steps, check yes
  max neighbors/atom: 2000, page size: 100000
  master list distance cutoff = 3.8
  ghost atom cutoff = 3.8
  binsize = 1.9, bins = 9 9 9
  1 neighbor lists, perpetual/occasional/extra = 1 0 0
  (1) pair lj/cut, perpetual
      attributes: half, newton on
      pair build: half/bin/atomonly/newton
      stencil: half/bin/3d
      bin: standard
WARNING: Not all mixed pair coeffs generated from mixing. Use write_data with 'pair ij' option to store all pair coeffs. (../write_data.cpp:312)


#############################
#   M E L T   S Y S T E M   #
#############################

velocity all create 2.4 8172548 mom yes dist gaussian # Assign velocities
                                                    # Temperature 2.4, random number seed, zero linear momentum
                                                                                # Gaussian distribution

timestep 0.002   # simulation timestep
thermo 1000       # output thermodynamic data every 1000 steps bf 100

# Define a fix  in this case with index 1 applied to all
# particles in the simulation. This fix is for simulations
# in the anisotropic NPT ensemble. Note that we use the MTK
# correction.
fix 1 all npt temp 2.4 2.4 0.1 iso 5.68 5.68 0.5 mtk yes tchain 5 pchain 5 # Use NPT ensemble
                                                                         # Set temperature and pressure and damping
                                                                         # Numbers of thermostats in chain and in barostat
run 10000          # run for 10000 steps
Per MPI rank memory allocation (min/avg/max) = 3.642 | 3.644 | 3.648 Mbytes
Step Temp E_pair E_mol TotEng Press Volume 
       0          2.4   -6.4318281            0   -2.8327281   -3.9834666         4000 
    1000    2.4217959   -5.0284399            0   -1.3966542    5.5886344    4142.1264 
    2000    2.4590684   -5.0848878            0   -1.3972074    5.4006092     4127.294 
    3000    2.4037816   -4.9095816            0   -1.3048105    5.4390076    4207.2173 
    4000    2.4196869   -4.9385699            0   -1.3099469    5.4205666     4198.874 
    5000    2.3761897   -5.0297339            0   -1.4663405    5.4485325    4140.7843 
    6000    2.3994361   -4.9915257            0   -1.3932714    5.6122301    4160.9299 
    7000    2.4406656   -4.9668469            0   -1.3067638    5.6914221    4173.1787 
    8000    2.3986315   -5.0117318            0   -1.4146841    5.7120879    4139.8622 
    9000    2.3718249   -4.9909744            0   -1.4341265    5.7581773    4143.8385 
   10000    2.3707857   -4.9544627            0   -1.3991732    5.5314572    4181.4747 
Loop time of 2.41596 on 48 procs for 10000 steps with 4000 atoms

Performance: 715244.358 tau/day, 4139.146 timesteps/s
99.6% CPU use with 48 MPI tasks x no OpenMP threads

MPI task timing breakdown:
Section |  min time  |  avg time  |  max time  |%varavg| %total
---------------------------------------------------------------
Pair    | 1.0625     | 1.1197     | 1.1889     |   2.8 | 46.35
Neigh   | 0.20531    | 0.21261    | 0.22292    |   0.8 |  8.80
Comm    | 0.76654    | 0.82406    | 0.89896    |   3.5 | 34.11
Output  | 0.00025012 | 0.000255   | 0.00032007 |   0.0 |  0.01
Modify  | 0.22286    | 0.24412    | 0.27661    |   2.4 | 10.10
Other   |            | 0.01523    |            |       |  0.63

Nlocal:        83.3333 ave          98 max          73 min
Histogram: 3 4 6 10 9 4 8 3 0 1
Nghost:        1597.40 ave        1639 max        1561 min
Histogram: 3 3 7 9 5 6 4 6 3 2
Neighs:        9128.29 ave       10809 max        7399 min
Histogram: 1 1 7 5 11 5 10 5 1 2

Total # of neighbors = 438158
Ave neighs/atom = 109.53950
Neighbor list builds = 906
Dangerous builds = 201

# Equilibrate just above the melting temperature to avoid step fn in T

fix 1 all npt temp 1.25 1.25 0.1 iso 5.68 5.68 0.5 mtk yes tchain 5 pchain 5
run 2000
Per MPI rank memory allocation (min/avg/max) = 3.643 | 3.645 | 3.649 Mbytes
Step Temp E_pair E_mol TotEng Press Volume 
   10000    2.3707857   -4.9544627            0   -1.3991732    5.5314572    4181.4747 
   11000    1.2564052   -6.8415025            0   -4.9573658    5.6832332    3343.8282 
   12000     1.258243      -6.8941            0   -5.0072074     5.768166    3327.7794 
Loop time of 0.573065 on 48 procs for 2000 steps with 4000 atoms

Performance: 603073.084 tau/day, 3490.006 timesteps/s
99.6% CPU use with 48 MPI tasks x no OpenMP threads

MPI task timing breakdown:
Section |  min time  |  avg time  |  max time  |%varavg| %total
---------------------------------------------------------------
Pair    | 0.2499     | 0.27573    | 0.29922    |   2.3 | 48.11
Neigh   | 0.036856   | 0.039985   | 0.042691   |   0.6 |  6.98
Comm    | 0.18203    | 0.20691    | 0.23764    |   2.9 | 36.11
Output  | 5.3153e-05 | 5.4558e-05 | 6.912e-05  |   0.0 |  0.01
Modify  | 0.041674   | 0.045575   | 0.049199   |   1.0 |  7.95
Other   |            | 0.00481    |            |       |  0.84

Nlocal:        83.3333 ave          89 max          77 min
Histogram: 2 2 5 6 6 8 6 6 2 5
Nghost:        1858.92 ave        1878 max        1839 min
Histogram: 3 2 2 4 9 11 8 6 2 1
Neighs:        11489.8 ave       12758 max       10185 min
Histogram: 2 2 6 6 6 11 7 3 0 5

Total # of neighbors = 551510
Ave neighs/atom = 137.87750
Neighbor list builds = 142
Dangerous builds = 18

#############################
# L I N E A R  Q U E N C H  #
#############################

# Define solid atoms. This closely follows ten Wolde  Ruiz-Montero and Frenkel  Faraday Discuss  1996  104  93-110
# Compute components of the per-atom q6 vector
compute q6 all orientorder/atom degrees 1 6 components 6 nnn NULL cutoff 1.3 # compute the Q6 parameter.
                                                                             # Use all neighbours within 1.3 unit cell.

# get number of connections
compute coord_number all coord/atom orientorder q6 0.5

# An atom is solid if it has 8 or more connections (of a possible 14)
variable is_solid atom c_coord_number>=8
group solid dynamic all var is_solid    # Must be dynamic to update
dynamic group solid defined

# do clustering
compute cluster solid cluster/atom 1.3 # Create a cluster where all atoms within are solid and max 1.3 units from another member

# define chunks one chunk per cluster
compute clus_chunks solid chunk/atom c_cluster nchunk every compress yes  # Says which atoms are in which chunk

# count the size of each chunk
compute size_chunks solid property/chunk clus_chunks count


# Find the maximum entry in the vector of chunk sizes
variable max_n equal max(c_size_chunks)


# Thermo style which includes this variable
# thermo_style custom step temp pe vol v_max_n

thermo ${N}  # Print the thermo information every 100 steps
thermo 1000  

# Reset the npt fix at a lower temperature (below freezing)
fix 1  all npt temp  ${temp} ${temp}  0.1  iso  5.68  5.68  0.5  mtk yes tchain  5  pchain  5
fix 1  all npt temp  0.45 ${temp}  0.1  iso  5.68  5.68  0.5  mtk yes tchain  5  pchain  5
fix 1  all npt temp  0.45 0.45  0.1  iso  5.68  5.68  0.5  mtk yes tchain  5  pchain  5

dump dmp2 all dcd ${N} traj.dcd
dump dmp2 all dcd 1000 traj.dcd


compute msd all msd com yes
variable twopoint equal c_msd[4]/6/(step*dt+1.0e-6)
fix 9 all vector 10 c_msd[4]
variable fit equal slope(f_9)/6/(10*dt)
thermo_style custom step temp pe c_msd[4] v_twopoint v_fit v_max_n

fix 1 all npt temp 1.25 ${temp} 0.1 iso 5.68 5.68 0.5 mtk yes tchain 5 pchain 5
fix 1 all npt temp 1.25 0.45 0.1 iso 5.68 5.68 0.5 mtk yes tchain 5 pchain 5
run 5000000 # 5000000  # Run for this many steps
Neighbor list info ...
  update every 1 steps, delay 10 steps, check yes
  max neighbors/atom: 2000, page size: 100000
  master list distance cutoff = 3.8
  ghost atom cutoff = 3.8
  binsize = 1.9, bins = 8 8 8
  4 neighbor lists, perpetual/occasional/extra = 1 3 0
  (1) pair lj/cut, perpetual
      attributes: half, newton on
      pair build: half/bin/atomonly/newton
      stencil: half/bin/3d
      bin: standard
  (2) compute orientorder/atom, occasional
      attributes: full, newton on
      pair build: full/bin/atomonly
      stencil: full/bin/3d
      bin: standard
  (3) compute coord/atom, occasional
      attributes: full, newton on
      pair build: full/bin/atomonly
      stencil: full/bin/3d
      bin: standard
  (4) compute cluster/atom, occasional
      attributes: full, newton on
      pair build: full/bin/atomonly
      stencil: full/bin/3d
      bin: standard
Per MPI rank memory allocation (min/avg/max) = 9.810 | 9.815 | 9.820 Mbytes
Step Temp PotEng c_msd[4] v_twopoint v_fit v_max_n 
   12000     1.258243      -6.8941 2.8722426e-30 1.9946128e-32 8.3333333e+20            2 
   13000    1.2315212   -6.8767314   0.51034515 0.0032714431  0.041920513            1 
   14000    1.2592255   -6.8815573   0.97136626 0.0057819418  0.040027248            3 
   15000    1.2370162   -6.9290293    1.4853828 0.0082521264  0.040119949            1 
   16000    1.2482371   -6.8523987     1.972223  0.010271994  0.040776604            1 
   17000    1.2577576   -6.8840517    2.4296581  0.011910089  0.040476942            1 
   18000    1.2418718   -6.8595428    2.8944862  0.013400399  0.040068964            1 
   19000    1.2453068   -6.8659978    3.3283595  0.014598068  0.039562194            1 
   20000    1.2657391   -6.8421709    3.8243606  0.015934835  0.039474083            1 
   21000    1.2204508   -6.8671224    4.2895496  0.017022022  0.039568356            1 
   22000    1.2633073   -6.8301437    4.8355362  0.018316425  0.039614167            1 
   23000    1.2784255   -6.8449471    5.3120427  0.019246531  0.039652283            1 
   24000    1.2436537   -6.9339114    5.7744286  0.020050099  0.039779612            1 
   25000    1.2338432   -6.8993899    6.2456046  0.020818681  0.039841276            1 
   26000    1.2425109   -6.8814086    6.7874307  0.021754585  0.039916624            2 
   27000    1.2203109   -6.9230842     7.232159  0.022321478  0.039998227            1 
   28000    1.2455449   -6.8785299    7.6227491  0.022686753  0.039982084            1 
   29000    1.2334044   -6.8989626    8.0960345  0.023264466  0.039948782            1 
   30000    1.1993281   -6.8423233     8.616357  0.023934324  0.039836939            1 
   31000    1.2352675   -6.8918437    9.0669148  0.024373427  0.039785067            2 
   32000    1.2436702    -6.874723    9.5517283  0.024874292  0.039748055            1 
   33000    1.2591146   -6.8496924    10.116613  0.025547002  0.039782503            1 
   34000    1.2439106   -6.8838203    10.575175  0.025919546  0.039806601            1 
   35000    1.2456652   -6.8991048    11.159745  0.026570821  0.039872966            2 
   36000    1.2649748   -6.9140087    11.629251  0.026919561  0.039991526            1 
   37000     1.243496   -6.8562578    11.975583  0.026972033  0.040047873            2 
   38000    1.2629729   -6.9424421    12.374971  0.027138095  0.039967911            1 
   39000    1.2507175   -6.9368423    12.675933  0.027085326   0.03985817            2 
   40000    1.2506261   -6.9032102    13.254225  0.027612967  0.039716458            2 
   41000    1.2622032   -6.8475776    13.804187   0.02805729  0.039634969            1 
   42000    1.2447417   -6.8773918    14.179293  0.028133517  0.039605581            1 
   43000    1.2590869   -6.8822447    14.566407   0.02822947  0.039522739            3 
   44000     1.259854   -6.8919523    14.914349  0.028246873  0.039409907            1 
   45000    1.2276554   -6.8738987    15.416951  0.028549908  0.039292228            1 
   46000    1.2429372   -6.9088029    15.840375  0.028696331  0.039191361            1 
   47000    1.2473292   -6.9210102    16.371305  0.029027137  0.039127574            1 
   48000    1.2541164    -6.924664    16.970462  0.029462607  0.039084708            1 
   49000    1.2332478   -6.9444829    17.437479  0.029655576  0.039054862            1 
   50000    1.2661505   -6.9288982    17.972892  0.029954819  0.039044537            1 
   51000    1.2309331   -6.9140174    18.325963  0.029944384  0.039030551            1 
   52000    1.2366011   -6.9129634    18.758496  0.030061692  0.039011549            1 
   53000    1.2461544   -6.8592254    19.229211  0.030234608  0.038989465            3 
   54000    1.2617879   -6.8581363    19.897835  0.030706535  0.038991375            2 
   55000     1.223224   -6.9108263    20.549119  0.031135028   0.03904062            2 
   56000     1.212799   -6.8688276    20.994472  0.031241774  0.039098004            1 
   57000    1.2292151   -6.8713898    21.596357  0.031573621  0.039164937            3 
   58000    1.2156286   -6.9029683     21.95033   0.03153783  0.039239575            1 
   59000    1.2262938   -6.8847575    22.449563  0.031708422  0.039284035            1 
   60000    1.2518905    -6.888519    22.833558  0.031713275  0.039310832            2 
   61000    1.2634804   -6.8955644     23.23055  0.031735723  0.039323638            1 
   62000    1.2425167   -6.9063112    23.703834  0.031859992  0.039338263            1 
   63000    1.2491779   -6.8942044    24.132665  0.031921514   0.03935033            1 
   64000    1.2519469   -6.9055014    24.484409   0.03188074  0.039337294            2 
   65000     1.261638   -6.8505048    25.067942  0.032138386  0.039323822            2 
   66000    1.2395407   -6.8559821    25.391538  0.032060023  0.039299794            1 
   67000    1.2153299   -6.8959991    25.777804  0.032061944  0.039270498            1 
   68000    1.2313213   -6.9421853    26.196926  0.032104076  0.039229124            2 
   69000    1.2547312   -6.8842139     26.66153  0.032199915  0.039185208            1 
   70000    1.2202432   -6.9160133    27.067278   0.03222295  0.039152251            1 
   71000    1.2306537    -6.893053    27.433167  0.032198552  0.039099181            1 
   72000    1.2332356   -6.9210593    27.968258  0.032370669  0.039049792            2 
   73000    1.2319247   -6.8911673    28.463644  0.032492744  0.039011761            2 
   74000    1.2038152     -6.89569    29.005071  0.032663368  0.038985516            1 
   75000    1.1991518   -6.9110329    29.327351  0.032585945  0.038964238            4 
   76000    1.2857129   -6.9302062    29.817941  0.032695111  0.038933739            2 
   77000    1.2087757   -6.8810371    30.379768  0.032878537  0.038904368            1 
   78000    1.1889403   -6.8768987    30.638199  0.032733118  0.038875647            1 
   79000    1.2108368   -6.8977502    30.972697  0.032671621  0.038830124            1 
   80000    1.2152327   -6.9161322    31.286971  0.032590595   0.03878029            1 
   81000    1.2483574   -6.9500325    31.732164  0.032646259  0.038727418            1 
   82000    1.2449306   -6.8944996    32.386686  0.032913298  0.038685451            1 
   83000    1.2384406   -6.9149547    32.971802  0.033104219  0.038653712            1 
   84000    1.2331734   -6.8978883    33.478642  0.033212939  0.038641002            1 
   85000     1.245115   -6.8932324      34.0327  0.033365392  0.038630482            1 
   86000    1.2330015   -6.8942546    34.267319  0.033204766  0.038618531            4 
   87000    1.2261436   -6.9169747    34.853382  0.033384465  0.038602471            3 
   88000    1.2145004   -6.8965192     35.36342  0.033488087  0.038589829            2 
   89000    1.2352791   -6.8734095    35.722765  0.033448282   0.03857395            2 
   90000    1.2300279   -6.9526368     36.18721  0.033506675  0.038554179            2 
   91000    1.2134742    -6.872806    36.785565  0.033686415  0.038540868            2 
   92000    1.2577709   -6.9168562    37.123455  0.033626317    0.0385333            1 
   93000    1.2527317   -6.9439467    37.554436  0.033650928  0.038528232            1 
   94000    1.2387852   -6.9077053    37.898119  0.033597623  0.038516624            1 
   95000    1.2605793   -6.8992947    38.385464  0.033671459  0.038500269            2 
   96000    1.2389447   -6.8672509    38.919931  0.033784662  0.038489425            5 
   97000    1.2484914     -6.92355    39.444852  0.033887329  0.038485388            4 
   98000    1.2439215   -6.9177807    39.927977  0.033952361  0.038483949            1 
   99000    1.2393347     -6.92051    40.293514  0.033917099  0.038479609            1 
  100000     1.213744   -6.9216116    40.871452  0.034059543  0.038470505            2 
  101000    1.2226388   -6.9270341    41.439465  0.034190978  0.038467533            2 
  102000    1.2510186   -6.9132616    41.863961  0.034202582  0.038469201            2 
  103000    1.2637625   -6.8994042    42.540839  0.034418154  0.038474782            1 
  104000    1.2410355   -6.8829618    43.109923  0.034543208  0.038487525            1 
  105000    1.2406556   -6.8427683     43.56194  0.034572968  0.038497344            2 
  106000    1.2429402   -6.9123911    43.873367  0.034491641  0.038500363            3 
  107000    1.2491782   -6.9019948    44.273517  0.034480932  0.038503473            1 
  108000    1.2294052   -6.9156568    44.664923  0.034463675  0.038506983            1 
  109000    1.2394211   -6.8790068    45.157136  0.034523804  0.038505418            1 
  110000    1.2488221   -6.9285163     45.45074  0.034432379  0.038503625            1 
  111000    1.2404003   -6.8990308    45.836527  0.034411807  0.038497061            3 
  112000    1.2113491   -6.9199712    46.181018  0.034360876  0.038489788            1 
  113000    1.2214067   -6.8849464    46.790998  0.034506635  0.038479143            1 
  114000    1.2508744   -6.9268968    47.162322  0.034475382  0.038464246            1 
  115000    1.2188894   -6.8818261    47.910915  0.034718054  0.038459765            2 
  116000    1.2356352   -6.9131491    48.266164  0.034673968  0.038459212            2 
  117000    1.2251373   -6.8910619    48.785314  0.034747375  0.038460313            2 
  118000    1.2465577   -6.9477819    49.371882  0.034867148  0.038465613            2 
  119000    1.2194154   -6.9263584    49.900014  0.034943987  0.038474844            1 
  120000     1.257241   -6.9389806    50.142404  0.034821114   0.03848132            1 
  121000     1.224492   -6.9044854    50.616389  0.034859772  0.038482633            1 
  122000    1.2382259   -6.9392074    50.957607  0.034807108  0.038480337            2 
  123000     1.240516   -6.9325315     51.43263  0.034845955  0.038476644            1 
  124000     1.214058   -6.9882069    51.619382  0.034690445  0.038469822            2 
  125000    1.2496992   -6.9247227    52.484525  0.034989683  0.038466827            2 
  126000    1.2099902   -6.9058956    53.076767  0.035103681  0.038465508            3 
  127000    1.2360855    -6.895496    53.432195  0.035060495  0.038462058            1 
  128000    1.2230228   -6.8670834    53.607196  0.034900518  0.038456151            1 
  129000    1.2242523   -6.9076443     54.27976  0.035064444  0.038453529            1 
  130000    1.2163642   -6.9309233    54.731033  0.035083996  0.038449754            3 
  131000    1.2159229   -6.9243238    55.074625  0.035034748  0.038444047            2 
  132000    1.2203199   -6.9229573    55.435763  0.034997325  0.038436127            1 
  133000    1.1963678   -6.9188573    56.064705  0.035128261  0.038429467            1 
  134000    1.2354771   -6.8920026    56.314122   0.03502122  0.038427766            1 
  135000    1.2224696   -6.8746799    57.138746  0.035270831  0.038427024            1 
  136000    1.2523573    -6.937213    57.842419  0.035442659  0.038429667            3 
  137000    1.2417312   -6.8838176    58.230896  0.035420253  0.038435116            2 
  138000    1.2228992   -6.9479494    58.541215  0.035350975  0.038441562            1 
  139000    1.2219634   -6.9142127    59.117005   0.03544185  0.038448371            1 
  140000    1.2263079   -6.9679804    59.745016  0.035562509  0.038457228            2 
  141000    1.2368146   -6.9402439    60.108708  0.035525241  0.038466049            3 
  142000    1.2335127   -6.9041396    60.429902  0.035463557  0.038473239            2 
  143000      1.24508    -6.949697    60.830472  0.035448993  0.038470517            1 
  144000    1.2114149   -6.9230508    61.019586   0.03531226  0.038465436            2 
  145000    1.2133542   -6.9445169    61.382634  0.035277376  0.038460032            2 
  146000    1.2385859   -6.9244339    61.816515  0.035283399  0.038454461            2 
  147000    1.2459614   -6.8942198    62.476558   0.03541755  0.038447877            1 
  148000    1.2570745   -6.9573329    62.746125  0.035330025  0.038441967            2 
  149000    1.2329262   -6.8948001    62.788177   0.03511643  0.038434879            2 
  150000    1.2210912   -6.9110429    63.707035  0.035392797  0.038422122            2 
  151000     1.228073   -6.9244396    64.119416  0.035385991  0.038413504            1 
  152000    1.2089482   -6.9532954    64.236943  0.035217622  0.038401417            1 
  153000    1.2055291   -6.8857389    64.921123  0.035360089  0.038387821            3 
  154000    1.1988316   -6.9421969     65.08905  0.035221347  0.038373036            1 
  155000    1.2221164   -6.9338663    65.754138  0.035351687  0.038357764            1 
  156000    1.2437283   -6.9331014    65.796649  0.035147782   0.03834338            1 
  157000    1.2117265   -6.9209099    66.273051  0.035176779  0.038327465            1 
  158000    1.2223265   -6.9354491    66.727133  0.035193636    0.0383078            1 
  159000    1.2029621   -6.9449444    66.878337  0.035051539  0.038287556            1 
  160000    1.2319881   -6.9003685    67.375913  0.035091621  0.038267148            6 
  161000    1.2463564   -6.9388755    67.828833  0.035108091  0.038248823            2 
  162000    1.2228757   -6.9202048     68.32684  0.035147551  0.038229004            1 
  163000    1.2047536   -6.9014289    69.039706  0.035296373  0.038209979            1 
  164000    1.2254296   -6.9261403    69.219655  0.035172589  0.038191877            1 
  165000    1.2347146   -6.9423822    69.798271  0.035251652  0.038173059            3 
  166000     1.217502   -6.9305906    70.371628  0.035327122  0.038156168            1 
  167000    1.1956594   -6.9003936    70.932506  0.035395462   0.03814068            1 
  168000    1.2357071   -6.9455752    71.252002  0.035343255  0.038127029            1 
  169000    1.2530259    -6.901559    71.879972  0.035443773  0.038118364            3 
  170000     1.213498   -6.9112517    72.357819  0.035469519  0.038106291            3 
  171000    1.2178326   -6.9603749    72.316162  0.035241794  0.038094053            2 
  172000    1.2444401    -6.904395    72.773164  0.035258316    0.0380785            1 
  173000    1.2303579   -6.9584073    72.807425  0.035071014  0.038058523            1 
  174000    1.1981495   -6.9097789    73.338418  0.035123763  0.038037706            1 
  175000    1.2216504   -6.9491637    73.656121  0.035074343  0.038013923            1 
  176000    1.2181036   -6.9520726    73.849904  0.034966811  0.037987216            2 
  177000     1.215714   -6.9301844     74.29855  0.034980485  0.037961546            2 
  178000    1.2385071   -6.9431469    74.823935  0.035029932  0.037934782            3 
  179000    1.2282826   -6.9375362    74.959195  0.034897204  0.037906903            2 
  180000    1.2285876    -6.956482    75.363252  0.034890394  0.037879933            1 
  181000    1.2136063   -6.9341316    75.798277  0.034897917  0.037850404            2 
  182000    1.2101842   -6.9314557    75.858435  0.034733716  0.037819603            1 
  183000      1.22492   -6.9398398     76.59548  0.034879545   0.03778997            1 
  184000     1.212739   -6.9628036    77.186935  0.034957851  0.037766201            3 
  185000    1.2360099   -6.9545603    77.207302  0.034778064  0.037739106            1 
  186000    1.2167428   -6.9490263    78.042024  0.034965065  0.037709298            2 
  187000    1.2112604   -6.9324699    78.148527  0.034825547   0.03768258            1 
  188000    1.2362482   -7.0000944    78.587149  0.034834729  0.037653274            2 
  189000    1.2145004   -6.9482738    79.374611  0.034997624  0.037627403            2 
  190000    1.2191087   -6.9475176    79.801669  0.035000732   0.03760573            3 
  191000    1.2197588   -6.9229466    80.119776  0.034956272  0.037580954            1 
  192000    1.2224899   -6.8831444    80.587522  0.034977223  0.037555121            1 
  193000    1.2371952   -6.9742041    80.849047  0.034908915  0.037529785            1 
  194000    1.2240077   -6.9427835    81.181565  0.034871806  0.037506239            1 
  195000    1.2203892   -6.9111268    82.017065  0.035050028  0.037485807            2 
  196000     1.242119   -6.9243099    82.233675  0.034963297  0.037465575            2 
  197000     1.196339   -6.9514754    82.161708  0.034755375  0.037441417            2 
  198000    1.2050389   -6.9588941    82.816821  0.034855564  0.037418371            2 
  199000    1.2189925   -6.9430669    83.194882  0.034838728  0.037395119            2 
  200000    1.2336663   -6.9196318    84.039551  0.035016479   0.03737333            1 
  201000    1.2599785   -6.9436431    84.607267   0.03507764  0.037352303            1 
  202000    1.2205842   -6.9589505    84.858548  0.035007652  0.037332079            2 
  203000     1.202702   -6.9618661    84.865711  0.034838141  0.037310207            1 
  204000    1.2456114   -6.9300488    85.657301  0.034990727  0.037288174            1 
  205000    1.2267241   -6.9327727    85.722937  0.034846722  0.037268657            3 
  206000    1.2131717   -6.9437177    86.539184   0.03500776   0.03724969            1 
  207000    1.2112641   -6.9602664    86.767589  0.034930591  0.037233447            2 
  208000    1.1925044   -6.9479806    87.647399  0.035115144  0.037218963            2 
  209000    1.2176909   -6.9194506    88.209877  0.035171402  0.037207672            2 
  210000     1.231041   -6.9528256    88.415229  0.035085408  0.037194778            1 
  211000    1.2064148   -6.9794429     88.57043  0.034980423  0.037180731            1 
  212000    1.2447076   -6.8994632    89.470636  0.035169275  0.037166086            1 
  213000    1.2224884   -6.9894659    89.766703  0.035119993  0.037152815            4 
  214000    1.2229932   -6.9331758    90.122351  0.035094373  0.037141782            3 
  215000    1.2105367   -6.9745341    90.422256  0.035047386  0.037128446            1 
  216000    1.2497942   -6.9351515    90.877711  0.035060845  0.037116735            1 
  217000    1.2344855   -6.9564681    91.712539  0.035219869  0.037104831            1 
  218000     1.233476   -6.9580233    92.486015  0.035353981  0.037095297            1 
  219000    1.2066983   -6.9701601    92.676764  0.035265131  0.037088861            1 
  220000     1.210305   -6.9399797    93.350447  0.035360018  0.037082943            1 
  221000     1.213701   -6.9739282    93.461728  0.035241979  0.037075242            3 
  222000    1.2283482   -6.9319203    94.019192  0.035292489   0.03706599            1 
  223000    1.2028689   -6.9195385    94.299251  0.035238883  0.037055216            2 
  224000    1.2165556   -6.9040256     94.57512  0.035184196  0.037045217            3 
  225000    1.2150667   -6.9274517     95.03908  0.035199659  0.037033199            3 
  226000    1.2135705   -6.9403896    95.652693  0.035270167  0.037023978            1 
  227000    1.2260136   -6.8947511    95.668566  0.035120619  0.037013768            2 
  228000    1.1802312   -6.9727431    95.981397   0.03508092  0.037002506            1 
  229000    1.2019635   -6.9404409    96.458517  0.035101353  0.036990548            1 
  230000     1.228926   -6.9661318    96.502233  0.034964577  0.036977375            4 
  231000    1.2289925   -6.9221926    97.742479  0.035260635  0.036966146            1 
  232000    1.2202791   -6.9458516    98.259346  0.035294305  0.036956807            1 
  233000    1.2303214   -6.9588558    98.161086  0.035107684  0.036948744            2 
  234000    1.2324108   -6.9117234    99.452824  0.035417672   0.03693985            2 
  235000    1.2504635   -6.9448345    99.505005  0.035285463  0.036933109            1 
  236000     1.241351   -6.9164492    100.54792  0.035504207  0.036928077            1 
  237000    1.2164904   -6.9660188    100.85668  0.035462967  0.036924276            4 
  238000    1.2038682   -6.9299871    100.97113  0.035354036   0.03691914            1 
  239000    1.1937019   -6.9381166    101.12356  0.035259261  0.036912304            2 
  240000    1.2080861   -6.9796216    101.55502   0.03526216  0.036905086            2 
  241000    1.1963201   -6.9556629    102.16509  0.035326794  0.036897807            1 
  242000    1.2157901   -6.9881904    102.82121  0.035406754  0.036893514            1 
  243000    1.2282836   -6.9142613    103.56102  0.035514755  0.036889976            2 
  244000     1.229322   -6.9757775    103.74787  0.035433015  0.036886305            2 
  245000    1.2085987   -6.9634817    104.50801  0.035546942  0.036881283       -1e+20 
  246000    1.2182302    -6.960684    103.87111  0.035186689  0.036874278            1 
  247000    1.2008583   -6.9496278    104.82762  0.035366943  0.036865756            1 
  248000    1.2191919   -6.9736254    105.05163  0.035299608  0.036858497            3 
  249000     1.206322   -6.9666851    105.47166  0.035298414  0.036853078            1 
  250000    1.2208334   -6.9215844    105.93364  0.035311213  0.036848097            1 
  251000    1.2162609   -6.9719326    106.10815  0.035228469  0.036841527            1 
  252000    1.2325634   -6.9641316    106.95618  0.035369108  0.036835029            3 
  253000    1.1756578   -6.9937398    107.17995  0.035303012  0.036829885            1 
  254000    1.2022361   -6.9796195     107.7971  0.035366503  0.036824554            3 
  255000    1.2196749   -6.9958742    108.33918  0.035404961  0.036819708            1 
  256000    1.2096874   -6.9462747    108.91002  0.035452481   0.03681728            2 
  257000    1.2122803   -6.9564274    109.61098  0.035541823  0.036814798            2 
  258000    1.2201823    -6.982663    109.76998  0.035455421  0.036810764            1 
  259000    1.2377797   -6.9594743    110.42118  0.035528052  0.036807826            1 
  260000    1.2160536   -6.9607765    110.35069  0.035368809  0.036804971            1 
  261000    1.1925699   -6.9414034    110.71344  0.035349118  0.036799563            1 
  262000    1.2066024    -6.961453     111.5384   0.03547659  0.036793985            1 
  263000    1.2009368   -6.9983088    111.90439  0.035457665  0.036788831            1 
  264000    1.1810323   -6.9582237    112.04356  0.035367284  0.036784588            2 
  265000     1.181711   -6.9714891    112.82242  0.035478749  0.036779326            1 
  266000    1.2280578   -6.9480741    113.25064  0.035479523  0.036775424            3 
  267000    1.2041279    -6.925996    113.83448  0.035528863  0.036772453            1 
  268000    1.2103525   -6.9765756    114.05044  0.035463446  0.036767651            2 
  269000    1.1957527   -6.9662045    114.47738  0.035463874  0.036764449            1 
  270000    1.2009701   -6.9588989    115.17992  0.035549358  0.036762479            1 
  271000    1.2001756    -6.991312    115.34015  0.035467449  0.036761064            1 
  272000     1.183225   -6.9704977    115.63222  0.035426538  0.036757565            1 
  273000    1.1937143   -6.9387147    116.22615  0.035478068  0.036753622            1 
  274000    1.2114623   -7.0012159    116.21323  0.035344656  0.036748611            1 
  275000    1.1963074   -6.9509532    116.97493  0.035446949  0.036743646            2 
  276000    1.2152045   -6.9856932    117.22773  0.035394846    0.0367401            2 
  277000     1.199648   -6.9416424    118.30425  0.035590929  0.036736426            2 
  278000    1.2255565   -6.9706582    118.03508  0.035382218   0.03673256            1 
  279000    1.1860815   -6.9404569    118.59373   0.03542226  0.036728455            4 
  280000    1.2314529   -6.9381359    119.35662  0.035522805  0.036725058            1 
  281000    1.2107195   -6.9746888    119.38756  0.035405564  0.036721758            1 
  282000     1.206957   -6.9770187    120.24647  0.035533826  0.036719324            2 
  283000    1.1962655   -6.9948842    120.27519  0.035416723  0.036715475            2 
  284000    1.2172999   -6.9861152     120.9916  0.035502231   0.03671059            1 
  285000    1.2076438    -6.948863    120.90049  0.035351021  0.036704841            1 
  286000    1.2124559   -6.9792743    120.98765  0.035252813   0.03669793            1 
  287000    1.2076137   -6.9776917    121.93605  0.035405357  0.036691632            1 
  288000    1.2297078   -6.9425484    121.93894  0.035283259  0.036685298            1 
  289000    1.1843546   -6.9478717    122.37815  0.035287818  0.036677535            2 
  290000    1.2317649   -6.9295348    123.04156  0.035356769  0.036669496            2 
  291000    1.2063978   -6.9864348    122.94543   0.03520774  0.036661414            1 
  292000     1.215063   -6.9652508    123.47835  0.035239255  0.036652233            2 
  293000    1.1940894   -6.9694141     124.0871  0.035292121  0.036642392            2 
  294000    1.2086959   -6.9777431    123.74775  0.035075894   0.03663315            2 
  295000    1.2072694   -6.9983038     124.8979  0.035281894  0.036625017            1 
  296000    1.2091456   -6.9713738    125.06793  0.035210565  0.036616923            2 
  297000    1.2049047   -7.0279719    125.56891  0.035232579  0.036609761            1 
  298000    1.1885134   -6.9571425     125.9564  0.035222708  0.036599096            2 
  299000    1.2232499   -6.9637132    126.34369  0.035212846  0.036589519            1 
  300000    1.1945138   -6.9607644    126.70141  0.035194835   0.03657965            2 
  301000    1.2360823   -7.0043913    126.67525  0.035070667  0.036569307            3 
  302000    1.1954989   -6.9613155    127.04542  0.035056684  0.036558645            2 
  303000    1.1755152   -7.0058456    127.49542  0.035064747  0.036548942            1 
  304000    1.2162473   -6.9913853    128.22785  0.035150179  0.036539507            1 
  305000    1.1948424   -6.9839816    128.41139  0.035085079   0.03652958            2 
  306000    1.1931017   -6.9379419      129.019  0.035135894  0.036518648            2 
  307000    1.2204551   -6.9805484    129.01168  0.035019456  0.036507251            1 
  308000    1.1855935    -6.959167    129.47993  0.035032448  0.036495526            3 
  309000     1.190231   -6.9367764    130.24544  0.035125523  0.036483829            1 
  310000    1.1944558   -6.9948341    129.95549  0.034934271  0.036470944            3 
  311000    1.2090718   -6.9798422     131.0624  0.035118542  0.036460753            1 
  312000    1.2157161   -7.0274193    130.90076   0.03496281  0.036450086            4 
  313000    1.1662674   -6.9830627    132.12171  0.035176174  0.036441034            3 
  314000    1.2184333   -6.9709359    132.53856  0.035174777  0.036432811            1 
  315000     1.181569   -6.9540676    133.23915  0.035248453  0.036425807            2 
  316000    1.1825574   -6.9618978    133.40853  0.035181574  0.036419442            2 
  317000    1.2138733   -6.9714141    134.34494  0.035316755  0.036414433            1 
  318000    1.1816999    -6.987746    134.22059  0.035173109  0.036408768            1 
  319000    1.1962504   -6.9929034    134.84532  0.035226049  0.036401192            1 
  320000    1.2112168   -6.9227797    135.80222  0.035365162  0.036396061            2 
  321000    1.1886835   -6.9749453    135.72955  0.035236125  0.036391659            2 
  322000    1.1989449   -7.0060014      136.559  0.035341355  0.036386514            1 
  323000    1.1785122   -6.9981872    136.88027  0.035314826  0.036381566            1 
  324000    1.2063401   -6.9573364    137.80723  0.035444247  0.036378606            1 
  325000    1.1980266   -6.9644321    138.10591  0.035411771  0.036375922            3 
  326000    1.1686041   -6.9734936    138.48824   0.03540088  0.036373672            1 
  327000    1.1950267   -7.0077376    138.82472  0.035378368  0.036369803            1 
  328000    1.2133851   -6.9685874    139.52059  0.035447303  0.036366306            1 
  329000    1.1856646   -7.0316029    139.95573  0.035449779  0.036365091            3 
  330000    1.2242258   -6.9652228    140.30044  0.035429403  0.036362949            3 
  331000    1.2017601   -6.9782028    140.86623   0.03546481  0.036361842            3 
  332000     1.197622   -6.9824783    141.16314  0.035432514   0.03636018            1 
  333000     1.194519   -7.0027355    141.20068  0.035335506  0.036358683            1 
  334000    1.1825779   -6.9952973    141.69809  0.035353814  0.036355659            2 
  335000    1.1633345   -6.9767005    142.46743  0.035439658  0.036352092            1 
  336000    1.1914126   -7.0136784    142.82183  0.035422081  0.036349097            3 
  337000    1.1954077   -6.9704236    143.33575  0.035444053  0.036347148            1 
  338000    1.1864587   -7.0000881    143.84648  0.035465108  0.036344666            4 
  339000     1.190033   -7.0246876    144.88066  0.035614716  0.036344664            1 
  340000    1.2062784   -6.9594098    145.25556  0.035601854  0.036344179            1 
  341000    1.2028194   -6.9633994     145.8659  0.035646604  0.036344364            1 
  342000    1.2018983   -6.9921688    145.54102  0.035463213  0.036343941            1 
  343000     1.185555    -6.990675    145.99575  0.035470299  0.036343285            2 
  344000     1.184605   -6.9739646    146.36077  0.035455613  0.036342561            1 
  345000     1.184403   -6.9919791    146.40677  0.035363953  0.036340392            1 
  346000    1.1976091    -6.980925    147.21211  0.035455711  0.036338427            1 
  347000     1.186235   -7.0017045    147.77392  0.035488453  0.036335149            1 
  348000    1.2047792   -6.9778133    147.85138  0.035405023  0.036332151            1 
  349000    1.2160284   -7.0316537    147.49784  0.035219159  0.036328625            2 
  350000    1.2038621   -7.0040662    148.60318   0.03538171  0.036324722            2 
  351000    1.1995384   -7.0132065    148.90446  0.035352436  0.036321245            2 
  352000     1.200413   -6.9762236    149.53072  0.035400264  0.036317465            3 
  353000    1.1840464   -6.9955558    150.31897  0.035486065  0.036313984            3 
  354000     1.217219   -6.9709469    150.08294  0.035330258  0.036312326            1 
  355000    1.1761282   -6.9797437    150.76745   0.03539142  0.036309371            2 
  356000    1.1901506   -6.9657429    151.49317  0.035461885  0.036307395            2 
  357000    1.1944814   -6.9585408     151.9654  0.035472781  0.036304691            1 
  358000    1.1674554     -6.98767    151.82871  0.035341878  0.036300912            2 
  359000    1.1993652   -7.0040435    151.74437  0.035223855   0.03629813            2 
  360000    1.1918025    -6.998661    152.50642  0.035302412  0.036293629            2 
  361000    1.1800041   -7.0315729    152.70152  0.035249659   0.03628782            1 
  362000    1.1962397    -7.018917    152.52532  0.035111721  0.036280338            1 
  363000    1.1733449   -7.0203984     153.1681  0.035162557  0.036274262            2 
  364000    1.2027706   -6.9607935    153.61049  0.035167237   0.03626778            1 
  365000    1.1749682   -6.9890453    154.08229  0.035178605  0.036261673            1 
  366000    1.1962695   -6.9811477    155.07738  0.035309057  0.036254071            2 
  367000    1.2043331   -6.9794449    154.53889  0.035090574   0.03624742            1 
  368000    1.1790536   -6.9819028    154.90057  0.035077123  0.036240162            2 
  369000    1.2083255   -6.9576866    155.80806  0.035187006  0.036232344            1 
  370000    1.1751479    -6.986571    155.68445  0.035064064  0.036223656            2 
  371000    1.2128315   -7.0092476    155.92983  0.035024669  0.036214771            2 
  372000    1.1973209   -6.9740196    156.59032  0.035078476  0.036205889            1 
  373000    1.1831481   -7.0059011    157.06864  0.035091296  0.036197545            2 
  374000    1.1866405   -7.0234395    156.77137  0.034931232  0.036188546            1 
  375000    1.2147116   -6.9451921     157.8952  0.035087823  0.036179521            1 
  376000    1.1800837   -6.9883068    157.97282  0.035011706   0.03617079            1 
  377000    1.1939647   -7.0723485     157.6821  0.034854575   0.03616063            2 
  378000    1.1697669   -7.0136052    158.38925  0.034918266  0.036150371            1 
  379000    1.1982388   -6.9872948    158.60175  0.034872855  0.036140525            2 
  380000    1.1563468   -6.9929284    159.24911   0.03492305  0.036129472            2 
  381000    1.1857524   -7.0061245    159.14307  0.034808196  0.036117594            2 
  382000    1.1717643   -7.0142318    159.54282  0.034804279  0.036106128            2 
  383000    1.1981023    -6.992912    159.63157  0.034732718  0.036094068            2 
  384000    1.1918589   -6.9869397    160.01163  0.034724747  0.036081954            1 
  385000    1.1949947   -6.9975352    160.08657  0.034650772  0.036069818            1 
  386000    1.2000057   -7.0425471    160.53525   0.03465787   0.03605618            1 
  387000    1.1729433   -6.9670339    161.40879  0.034756416  0.036042361            2 
  388000    1.2012637   -7.0107492    161.22412  0.034627173  0.036029237            2 
  389000    1.1994541   -6.9841217    161.43005  0.034582272  0.036015669            2 
  390000    1.1663596   -7.0137228    161.77069  0.034566386  0.036002213            1 
  391000    1.1927324   -6.9959527    162.37474  0.034606723  0.035988225            1 
  392000    1.1767786   -7.0228167    162.70304  0.034588231  0.035974528            2 
  393000    1.1876309   -6.9722878    163.75435  0.034723145  0.035961085            3 
  394000    1.1810948   -7.0200515    163.47183   0.03457526  0.035948196            2 
  395000    1.1967918    -6.983487     164.7291  0.034752974  0.035936114            2 
  396000    1.1777299   -6.9659536    164.39569  0.034595052  0.035924171            2 
  397000    1.1721012   -6.9905964    165.00279  0.034635345  0.035911974            2 
  398000    1.1708916   -6.9864887    165.50794   0.03465409  0.035899527            5 
  399000    1.1632626   -7.0131877    165.32331  0.034528678   0.03588633            2 
  400000    1.1744095   -7.0017939    165.52455  0.034484281   0.03587244            2 
  401000    1.1845731   -7.0235746    165.96128  0.034489044   0.03585918            2 
  402000    1.1614254   -7.0068893    166.73663  0.034563978  0.035846443            1 
  403000    1.1821181   -7.0349439    166.91113  0.034514295  0.035834287            1 
  404000    1.1961045   -7.0037349     167.3479  0.034518956  0.035821319            1 
  405000    1.1872905   -7.0117873    167.64955  0.034495792  0.035808472            2 
  406000     1.189302   -6.9998182    168.10406  0.034504118   0.03579574            1 
  407000    1.1852753   -7.0251669    168.51787  0.034504068  0.035783276            3 
  408000    1.1864456     -6.95661    168.78347  0.034473748  0.035770897       -1e+20 
  409000    1.1972369   -7.0152443    169.14863  0.034463862  0.035758103            2 
  410000    1.1868097   -7.0142837    169.27468  0.034405422  0.035744981            1 
  411000     1.197936   -7.0427475    169.89364  0.034447211  0.035732396            2 
  412000    1.1925423   -7.0165559    170.56936  0.034500276  0.035720557            1 
  413000    1.1522565   -7.0449583    170.41363  0.034385316  0.035707709            1 
  414000    1.1846174   -6.9743288    171.74388  0.034570024  0.035695784            1 
  415000    1.2091356    -6.983672    172.31326  0.034601056  0.035684665            4 
  416000    1.2024504   -7.0272696    172.73644  0.034602653  0.035673897            1 
  417000    1.1801052    -7.027841     173.1896  0.034610232  0.035662731            2 
  418000    1.1940812   -7.0526443    173.03822  0.034497253  0.035651445            1 
  419000    1.1621501   -7.0281674     173.3568  0.034478281  0.035640273            5 
  420000    1.1743889   -7.0238182    173.72131  0.034468515  0.035629714            2 
  421000    1.1683949   -7.0371023    174.17031  0.034475516  0.035618893            1 
  422000    1.1654168   -6.9795896    175.43448  0.034643461  0.035608676            2 
  423000    1.2002323   -6.9679489    175.54222  0.034582786  0.035598386            1 
  424000    1.1737588   -6.9987794    176.04932  0.034600888  0.035588288            2 
  425000    1.1885693   -7.0036511    175.80572  0.034471709  0.035578654            3 
  426000    1.2157486   -7.0164905    176.51784  0.034530093  0.035568583            1 
  427000    1.1629015   -7.0225203    176.43234  0.034432541  0.035557956            2 
  428000    1.1657727     -7.07725    176.36199  0.034338394  0.035546942            3 
  429000    1.1720514   -6.9777909    178.32867  0.034640379  0.035536561            1 
  430000    1.1909719    -7.018524    178.26312  0.034547117  0.035526326            1 
  431000    1.1631755   -7.0438423    178.63478   0.03453882  0.035517639            1 
  432000       1.1719   -6.9981471    178.98346  0.034526131  0.035508497            2 
  433000     1.150549   -7.0072873    179.25579  0.034498805  0.035498719            2 
  434000    1.1703677    -7.012503    179.24696  0.034417618  0.035488436            3 
  435000    1.1779054   -7.0392801    179.48943  0.034384948  0.035477319            1 
  436000    1.1834423   -7.0589664    179.88589  0.034381859  0.035466835            2 
  437000    1.2084697   -7.0156896    180.40336  0.034401861   0.03545662            1 
  438000    1.1685903   -7.0464336    180.55685  0.034352521  0.035446191            1 
  439000    1.1872539   -7.0363547    180.93203  0.034345487  0.035434635            3 
  440000    1.1945881   -7.0218183    181.44104  0.034363834  0.035423199            3 
  441000     1.185325   -7.0055685     181.3611  0.034270805  0.035411243            1 
  442000    1.1684023   -7.0077182    182.09886  0.034332364  0.035400126            2 
  443000    1.1648064   -6.9966757    183.10539  0.034444203  0.035389384            1 
  444000    1.1727062   -7.0175126    183.30151  0.034403436  0.035378353            1 
  445000    1.1800478   -7.0514548    183.70076  0.034400891  0.035367558            3 
  446000    1.1923381    -7.083178    183.09276  0.034210156  0.035356346            2 
  447000    1.1701893   -7.0276224    184.18035  0.034336382  0.035344712            2 
  448000    1.1848667   -7.0142666    184.01565  0.034229102  0.035333796            4 
  449000    1.1773225   -7.0525282     184.1264  0.034173422  0.035322281            2 
  450000    1.1841319   -7.0145896    184.78465   0.03421938  0.035309985            1 
  451000     1.166926   -7.0185905    185.34963  0.034247898  0.035298012            2 
  452000     1.179966   -7.0562944    185.79512  0.034254262  0.035286327            1 
  453000    1.1906904   -7.0163039    185.47155  0.034119123   0.03527489            2 
  454000    1.1880132     -7.00616    186.88796  0.034303958  0.035263738            4 
  455000     1.183997   -7.0150105    186.37653  0.034134896   0.03525305            1 
  456000    1.1707581   -7.0180519    187.31728  0.034231959  0.035242021            1 
  457000    1.2081741   -7.0539362    187.43508  0.034178534  0.035231006            2 
  458000    1.1734999   -7.0488647    187.92456   0.03419297  0.035220718            1 
  459000    1.2040812   -7.0486139    187.91971  0.034117594  0.035209366            1 
  460000    1.1709957   -6.9980256    188.96339  0.034232498  0.035198295            2 
  461000    1.1931563   -7.0512439    189.13205  0.034188729  0.035187709            2 
  462000    1.1531577   -7.0655257    188.59069   0.03401708  0.035176938            1 
  463000    1.1461973   -7.0225294    189.27442  0.034066671  0.035165957            2 
  464000    1.1746688   -6.9780753    190.90295  0.034285731  0.035155077            1 
  465000     1.189022    -6.999702    190.65629  0.034167793  0.035144168            1 
  466000     1.174918   -7.0225581    190.03173  0.033982785  0.035133005            1 
  467000    1.1902633   -7.0087485    190.16907  0.033934523  0.035120861            1 
  468000    1.1741468   -7.0464166     191.3749  0.034076728  0.035109096            2 
  469000    1.1738012   -7.0121938     191.8793  0.034093693  0.035097705            2 
  470000    1.2005085   -6.9991331     192.9606  0.034212872  0.035086969            1 
  471000    1.1553835   -7.0417668    192.18007  0.034002136  0.035076211            1 
  472000    1.1873756    -7.042731    193.15989  0.034103088  0.035064902            3 
  473000    1.1839592   -7.0468756    192.78286  0.033964563  0.035053167            1 
  474000    1.1779567   -7.0112828    193.75922   0.03406456  0.035041726            1 
  475000    1.1548456   -6.9933187    194.34919  0.034096349  0.035030095            1 
  476000    1.1736842   -7.0165885    194.35162  0.034025143  0.035018725            1 
  477000    1.1669286   -7.0399966    193.91364  0.033877295  0.035007377            2 
  478000    1.1844752   -7.0399355     194.7955  0.033960164  0.034995705            1 
  479000    1.1712963   -7.0396337    194.68138  0.033869411  0.034983468            1 
  480000    1.1914293   -7.0416961     195.0943  0.033870537  0.034970572            2 
  481000    1.1902444   -7.0225623    195.15388  0.033810444  0.034957855            2 
  482000     1.170734   -6.9847901    196.22227  0.033925012  0.034945673            1 
  483000    1.1786095   -7.0274424    196.67126   0.03393224  0.034933732            1 
  484000    1.1587479    -7.009464    196.57853  0.033846166  0.034921426            2 
  485000    1.1909765    -7.035128    196.48584  0.033760454  0.034908726            3 
  486000    1.1653741   -7.0561154    196.73885   0.03373437  0.034896385            2 
  487000    1.1671031    -7.003114    198.72526  0.034005006  0.034884636            2 
  488000    1.2071368   -7.0378524    198.51796  0.033899925  0.034873343            1 
  489000    1.1754612   -7.0501147    198.35691  0.033803155   0.03486205            1 
  490000    1.1995898   -7.0441189    199.09154  0.033859105   0.03485003            1 
  491000     1.162484   -7.0411843    199.69637  0.033892799   0.03483918            1 
  492000    1.1831055   -7.0695925    199.57093  0.033802664  0.034827501            2 
  493000    1.1879679    -7.037584    200.89312  0.033957593  0.034815894            1 
  494000    1.1532867   -7.0249409    200.89495  0.033889161  0.034805075            1 
  495000    1.1510766   -7.0170005    201.61179  0.033941379  0.034793839            1 
  496000     1.181458   -7.0373159    201.54088  0.033861036  0.034782519            3 
  497000    1.1713519   -7.0414793     201.9154  0.033855701  0.034771953            1 
  498000    1.1884448   -7.0301814    201.61457  0.033737379  0.034760814            1 
  499000    1.1784392   -7.0599466    202.18112  0.033764381  0.034748833            1 
  500000     1.158797   -7.0066679    202.92805  0.033821342  0.034737126            2 
  501000    1.1810855   -7.0593832    203.67593  0.033878232  0.034725873            1 
  502000    1.1747754   -7.0084957      204.459  0.033940737   0.03471538            3 
  503000    1.1945343   -7.0261276    204.41502  0.033865974  0.034704145            2 
  504000    1.1884052   -7.0168797    205.13879  0.033918451  0.034693598            1 
  505000    1.1696619   -7.0627289    204.96901  0.033823269  0.034682913            2 
  506000    1.1621762   -6.9989984    205.64714  0.033868107  0.034672229            3 
  507000    1.1852509   -7.0431115    204.62921  0.033633993   0.03466177            1 
  508000    1.1408862    -7.016647    205.59477  0.033726176  0.034650679            2 
  509000      1.15547    -7.063322    206.11877  0.033745705  0.034640023            3 
  510000    1.1836165   -7.0353007    206.48247  0.033738965  0.034628857            1 
  511000    1.1728188   -7.0010136    207.37728  0.033818865  0.034617952            1 
  512000    1.2009749   -7.0466084    207.28867   0.03373839  0.034607976            2 
  513000    1.1529438   -7.0500386     208.2523  0.033829159  0.034597765            2 
  514000    1.1594568   -7.0340039    209.03775  0.033890686  0.034588627            1 
  515000    1.1751467   -7.0346043    208.83465  0.033792014  0.034579018       -1e+20 
  516000    1.1713426   -7.0445174    209.31726  0.033804467  0.034569116            2 
  517000    1.1667355    -7.068999    209.04044  0.033694461   0.03455904            2 
  518000    1.1667566   -7.0515946    209.94293  0.033774603  0.034549557            1 
  519000     1.188018   -7.0408226    210.46254  0.033792958   0.03454001            1 
  520000    1.1529963   -7.0139112    211.20978  0.033847721  0.034531259            1 
  521000    1.1548131   -7.0255182     211.1981  0.033780886  0.034521443            1 
  522000     1.159171   -7.0371734    211.03009   0.03368935  0.034510945            2 
  523000    1.1646286   -7.0948637    211.42123  0.033687257  0.034501212            1 
  524000    1.1722928   -7.0247851    212.52994   0.03379929  0.034491924            2 
  525000    1.1575111   -7.0675979    212.46417  0.033724471  0.034482871            1 
  526000    1.1836125   -7.0631637    213.25235  0.033785226  0.034473685            1 
  527000    1.1872685   -7.0356466    214.02189  0.033842803  0.034464877            1 
  528000    1.1387514   -7.0471167    213.45298  0.033688918   0.03445546            2 
  529000    1.1893734   -7.0570927    214.11412  0.033729382  0.034446075            2 
  530000    1.1799827   -7.0448163     214.5117  0.033728254  0.034436542            2 
  531000    1.1544484   -7.0361526    214.67097  0.033689731  0.034427255            1 
  532000    1.1702304   -6.9963658    216.31895  0.033884548  0.034418548            2 
  533000     1.166822   -7.0731778    215.50135  0.033693144   0.03441004            1 
  534000    1.1696756   -7.0481336    216.34657  0.033761948  0.034401201            2 
  535000    1.1739487   -7.0891297    216.17269  0.033671758  0.034392178            3 
  536000    1.1663487   -7.0814637    216.47137  0.033655375  0.034383424            3 
  537000    1.1658522   -7.1001197    217.15183  0.033698297  0.034374774            1 
  538000    1.1693969   -7.0645842    217.76096  0.033730013  0.034366845            2 
  539000    1.1719012   -7.0968482    217.69185  0.033656748  0.034358074            4 
  540000    1.1487218   -7.0413022    218.30872  0.033689617   0.03434967            2 
  541000    1.1767758   -7.0592763    218.50569  0.033657684  0.034341175            1 
  542000    1.1918095   -7.0983079    219.06838    0.0336821  0.034332305            2 
  543000     1.181839   -7.0620714    219.81241  0.033734256  0.034323608            3 
  544000    1.1615855   -7.0750139    220.88033  0.033835834  0.034315242            3 
  545000    1.1753506   -7.0481519    219.52193  0.033566044  0.034307228            2 
  546000    1.1603132   -7.0579118    220.48024   0.03365083  0.034299215            3 
  547000    1.1797803    -7.062087     221.4223   0.03373283  0.034291112            3 
  548000    1.1482216   -7.0694124    221.40747  0.033669019  0.034282804            2 
  549000    1.1643301   -7.0271078     221.7899  0.033665741  0.034274808            3 
  550000    1.1560166   -7.0460137    222.73046  0.033747039  0.034267034            2 
  551000    1.1724969   -7.0528562    222.85535   0.03370468  0.034258774            1 
  552000    1.1432319   -7.0636038    223.22181  0.033698945  0.034250972            2 
  553000    1.1326035   -7.0462077    223.58425  0.033692624  0.034242576            2 
  554000    1.1721764   -7.0563257    223.40032  0.033604139  0.034234065            3 
  555000    1.1444362   -7.0405953    224.28686  0.033676705  0.034226027            2 
  556000    1.1540979   -7.0847805    224.05114  0.033580806  0.034217335            1 
  557000    1.1495747   -7.1070907    223.84996  0.033490419  0.034208786            4 
  558000     1.160042   -7.0882027    224.37204   0.03350837  0.034200124            2 
  559000    1.1438683   -7.0803752    223.81687  0.033365664  0.034191038            2 
  560000    1.1450966   -7.0458361    225.47064  0.033552178  0.034181928            1 
  561000    1.1535218   -7.0434749    226.04005  0.033576954  0.034173004            4 
  562000    1.1727037   -7.0667331     226.2406  0.033546946  0.034164651            2 
  563000    1.1655456   -7.0431082    226.62136  0.033543718  0.034156291            2 
  564000    1.1652913   -7.0399508    226.97786  0.033536918  0.034147988            4 
  565000    1.1627257   -7.0709896    227.06671  0.033490664  0.034139748            5 
  566000    1.1379508   -7.0666619    227.81031  0.033540977  0.034131385            1 
  567000    1.1658288   -7.0438698    228.31272  0.033555661  0.034123302            3 
  568000    1.1552657   -7.0835973    228.21598  0.033482391  0.034114777            2 
  569000    1.1485052   -7.0487105    229.65648  0.033634516  0.034106875            1 
  570000    1.1755468   -7.0757323    230.08986  0.033638868  0.034099365            1 
  571000    1.1562186   -7.0641168    230.72483  0.033672626  0.034092434            2 
  572000    1.1576615     -7.05571    230.68103  0.033607376  0.034085582            1 
  573000    1.1621716   -7.0478994    232.03849  0.033746144  0.034079618            4 
  574000     1.139044   -7.0404569    232.19932  0.033710702  0.034074157            3 
  575000    1.1702641   -7.0443809    232.58434  0.033707875    0.0340685            3 
  576000    1.1610245   -7.0273514    234.18952  0.033881586  0.034062934            2 
  577000    1.1643659   -7.0753621    232.76201  0.033616698  0.034057626            2 
  578000    1.1733189   -7.0772999     233.8766  0.033719233  0.034052219            1 
  579000     1.187238   -7.0631138    234.38876  0.033734709  0.034046889            5 
  580000    1.1716177   -7.1156654    233.84816  0.033598874   0.03404148            1 
  581000    1.1709049   -7.0666873    235.44802  0.033770514  0.034036293            1 
  582000    1.1701959    -7.062855    235.46255  0.033714568  0.034030902            1 
  583000    1.1795687    -7.079039    236.17995  0.033759283   0.03402563            1 
  584000     1.146338   -7.0921641    237.45005  0.033882713    0.0340209            2 
  585000    1.1503464   -7.0649057    237.03244  0.033765305  0.034016337            2 
  586000    1.1629032   -7.0793893    237.28764  0.033743976  0.034011766            2 
  587000    1.1735463   -7.0945302    237.68228  0.033742516  0.034007019            1 
  588000    1.1509157   -7.0510872      239.288  0.033912698  0.034002315            2 
  589000    1.1734057   -7.0218304    239.47224  0.033881189  0.033998429            3 
  590000    1.1456106   -7.0699404    239.38485   0.03381142  0.033994334            1 
  591000    1.1701663   -7.0596299    239.75739  0.033806739  0.033990216            2 
  592000    1.1684721   -7.0262725    240.05313  0.033791263   0.03398612            1 
  593000    1.1682381   -7.0267642    240.55672  0.033805048  0.033982701            1 
  594000    1.1350327   -7.0557708    240.89382   0.03379543  0.033978779            2 
  595000    1.1737166   -7.0872152    241.21439  0.033783527  0.033974839            1 
  596000    1.1507775   -7.0677055     241.9203  0.033825546  0.033970896            3 
  597000    1.1553961   -7.0192979    242.38706   0.03383404  0.033967197            1 
  598000    1.1593688   -7.0611877    242.90861  0.033850141  0.033963233            2 
  599000    1.1723725   -7.0979038     242.2881  0.033707304  0.033959376            3 
  600000    1.1647801   -7.0810649    242.95815  0.033744188   0.03395491            2 
  601000    1.1585424   -7.0594727    243.60075  0.033777142  0.033950506            3 
  602000    1.1545186   -7.0804288    243.90012  0.033762475  0.033946338            2 
  603000     1.138114   -7.0472813    243.91625  0.033708713  0.033941823            1 
  604000    1.1734102   -7.0855956    244.08108  0.033675645  0.033936903            1 
  605000    1.1692286   -7.0877589    244.08423  0.033620418  0.033932255            2 
  606000    1.1942267    -7.040837    245.24017  0.033723896  0.033927961            2 
  607000    1.1554272   -7.0536338    246.07191  0.033782525  0.033923394            1 
  608000    1.1355361   -7.0566611    244.90581  0.033567134  0.033919086            4 
  609000    1.1576555   -7.0897364    246.22255  0.033692193  0.033914264            2 
  610000     1.144896   -7.0870577    245.80743   0.03358025  0.033909127            2 
  611000    1.1656554    -7.068556    245.82008  0.033527016  0.033903644            3 
  612000    1.1662678   -7.0870432    245.33988  0.033406846  0.033897776            1 
  613000    1.1556786   -7.0825826    247.19595  0.033604669  0.033891652            3 
  614000    1.1309358    -7.080413    247.17715  0.033547387  0.033885586            2 
  615000    1.1608133   -7.0707525     247.5712  0.033546233  0.033880069            1 
  616000    1.1384079   -7.0577661    248.93319  0.033676026  0.033874489            1 
  617000    1.1306196   -7.0811449    248.54301  0.033568748  0.033869033            2 
  618000    1.1198172   -7.0790385    247.78697  0.033412482  0.033863021            1 
  619000    1.1320993   -7.0387314    249.46494  0.033584403  0.033857494            2 
  620000    1.1416113   -7.0383817    249.19825  0.033494389  0.033852237            2 
  621000    1.1408403   -7.0799784    250.10938  0.033562718   0.03384617            2 
  622000    1.1298787   -7.0987205    249.33262  0.033404692  0.033840103            1 
  623000    1.1395171   -7.0680183    250.52663  0.033510785  0.033833878            1 
  624000    1.1471754   -7.0913332    250.59055  0.033465618  0.033828272            1 
  625000    1.1650473   -7.0851575    251.34457   0.03351261  0.033822074            1 
  626000     1.163791   -7.0944226    249.99577  0.033279522  0.033815915            2 
  627000    1.1515964   -7.0790255    252.55159  0.033566134  0.033809936            2 
  628000    1.1271094   -7.1043869    252.13253  0.033457077  0.033804343            2 
  629000     1.134162   -7.0810234    252.76887  0.033488191   0.03379799            1 
  630000    1.1764413   -7.0237241    253.61538  0.033547008  0.033792323            1 
  631000     1.152804   -7.0553541    253.90186  0.033531678  0.033786411            1 
  632000    1.1254295    -7.074882    252.90779  0.033347547   0.03378018            1 
  633000    1.1328157   -7.0668867    252.98954  0.033305627  0.033773214            2 
  634000    1.1631027   -7.1271198    253.33953  0.033299097  0.033766633            3 
  635000    1.1541412   -7.0751519    254.71849  0.033427623  0.033760129            1 
  636000    1.1752044   -7.0983409     254.3158  0.033322301  0.033753357            1 
  637000     1.130602   -7.1081397    254.40558  0.033281734   0.03374686       -1e+20 
  638000    1.1528303   -7.0629413     255.1995  0.033333268  0.033740496            2 
  639000    1.1517235   -7.0978444    255.97326  0.033382011  0.033734325            7 
  640000    1.1394673   -7.0995409    256.51699   0.03340065  0.033728183            2 
  641000    1.1332546   -7.0543313    257.24049  0.033442601  0.033722232            1 
  642000    1.1253447    -7.077574    257.83174  0.033467256  0.033716417            2 
  643000     1.158563   -7.0695506    257.48973  0.033370883  0.033710507            2 
  644000    1.1376695   -7.1319728    258.21127  0.033412431  0.033704443            3 
  645000    1.1546307   -7.1003386    258.76671  0.033432392  0.033698527       -1e+20 
  646000    1.1634611   -7.0873889    257.89214   0.03326782  0.033692243            2 
  647000    1.1780331   -7.0645837    259.51766  0.033425767  0.033686073            2 
  648000    1.1476306   -7.0577662    258.98275  0.033305395  0.033679691            1 
  649000    1.1354632   -7.0562453    259.47392  0.033317144  0.033673513            1 
  650000    1.1450531   -7.1152695     259.3393  0.033248629  0.033667266            2 
  651000     1.161837   -7.0932686    260.48035  0.033343619  0.033661119            2 
  652000    1.1336771   -7.0962308    260.69921  0.033320452   0.03365466            1 
  653000     1.123764   -7.0889045    260.23838  0.033210615   0.03364785            4 
  654000     1.152052    -7.122782    260.28417  0.033165669  0.033640564            1 
  655000    1.1572625   -7.1469757    260.39948  0.033129704  0.033633103            2 
  656000     1.128556   -7.0902654     260.9446   0.03314845  0.033625424            1 
  657000    1.1205154   -7.1086467    261.38579  0.033153956  0.033618028            2 
  658000      1.13555   -7.1148182    261.03103  0.033058641  0.033610392            2 
  659000    1.1506401   -7.1067281    261.46158  0.033062921  0.033602554            1 
  660000    1.1504766   -7.1078773    261.17814  0.032977038   0.03359423            2 
  661000    1.1647085   -7.0615933    262.18782   0.03305444  0.033586491            2 
  662000    1.1562698   -7.0923359    262.98265  0.033104563  0.033578403            1 
  663000    1.1535124   -7.0863471    262.28199  0.032966564  0.033570207            2 
  664000    1.1542896   -7.1163064    263.14078  0.033024697   0.03356243            2 
  665000     1.148268   -7.0519858     263.9106  0.033071504  0.033554597            2 
  666000    1.1368881   -7.1003084    263.95332  0.033027192  0.033546928            2 
  667000    1.1473463   -7.0708426    264.29465  0.033020321  0.033539358            2 
  668000    1.1286054   -7.0992342    265.09372  0.033070573  0.033531631            1 
  669000    1.1216019   -7.0865286    265.35449  0.033053624  0.033524263            1 
  670000    1.1341907   -7.0872027    266.10172  0.033097229  0.033516903            3 
  671000    1.1287615    -7.108673    266.57922  0.033107206  0.033509455            2 
  672000    1.1510966   -7.1126116    266.19639  0.033010465  0.033502501            1 
  673000    1.1446215   -7.0788939    266.72194  0.033026491  0.033495349            1 
  674000    1.1229998   -7.1279581    266.31278  0.032926901  0.033488317            1 
  675000    1.1607406   -7.0836282    267.64105  0.033042104   0.03348084            2 
  676000    1.1553174   -7.0602753    268.57144  0.033107919  0.033473552            2 
  677000     1.147203   -7.0955513    269.19972  0.033136352  0.033466488            1 
  678000    1.1449955   -7.1173744    267.85796  0.032922562  0.033459051            1 
  679000    1.1542058   -7.1489033    269.34074  0.033056055  0.033451321            1 
  680000     1.147788   -7.0856696    269.31835    0.0330047  0.033444036            1 
  681000    1.1277505   -7.1112035    269.24075  0.032946739  0.033436928            1 
  682000    1.1439981   -7.1144923    270.23837  0.033020328  0.033429331            1 
  683000    1.1638693    -7.121188    269.37247  0.032866333  0.033421835            1 
  684000      1.11867   -7.1447765    270.28644  0.032929634  0.033414569            1 
  685000     1.132114   -7.0907409    271.41067  0.033018329  0.033407349            1 
  686000    1.1163063   -7.0855216    271.83439   0.03302167  0.033400248            1 
  687000    1.1408125   -7.1080475    271.81041  0.032970695  0.033392829            2 
  688000    1.1466295    -7.131045    272.41148  0.032995576  0.033385268            1 
  689000    1.1325762      -7.1126    272.26908  0.032930464   0.03337766            2 
  690000    1.1510901   -7.1296184    271.93038  0.032841834  0.033369996            2 
  691000    1.1180668   -7.0721088    272.86069  0.032906499  0.033362613            1 
  692000    1.1250271   -7.1166388    272.42742   0.03280677   0.03335527            1 
  693000    1.1368947   -7.0553063    272.71772  0.032794339   0.03334758            1 
  694000    1.1275248   -7.1151347    272.90804  0.032769937  0.033339699            5 
  695000    1.1466541   -7.0792863    273.37241  0.032778467  0.033331649            1 
  696000    1.1445894   -7.0710612    274.33552  0.032846685  0.033323961            2 
  697000    1.1414266   -7.0996371    274.03147  0.032763208  0.033316296            1 
  698000    1.1221021   -7.1155532    274.94726  0.032825604  0.033308363            2 
  699000     1.144194   -7.1110659      274.399  0.032713281  0.033300094            2 
  700000    1.1290979   -7.1203394    274.68979  0.032701165   0.03329187            3 
  701000    1.1527278    -7.117581    276.29057  0.032844813  0.033283791            1 
  702000     1.153021   -7.0657899    276.44973   0.03281692  0.033275888            3 
  703000     1.105699   -7.0879134    276.28439  0.032750639  0.033267778            1 
  704000    1.1555203   -7.1164853    275.68832   0.03263356   0.03325906            2 
  705000    1.1452625   -7.0723044    276.46566  0.032679156  0.033250456            1 
  706000    1.1661946   -7.1523978    276.22161  0.032604062  0.033242229            1 
  707000    1.1547596   -7.1039907    277.08092  0.032659231  0.033233841            4 
  708000    1.1373733   -7.1058898    277.95545  0.032716037  0.033225755            1 
  709000    1.1183629    -7.145868    277.71743  0.032641917  0.033217927            1 
  710000    1.1590907    -7.121901    278.98386  0.032744585   0.03321017            2 
  711000    1.1592278    -7.116813    279.86932  0.032802311  0.033202213            1 
  712000    1.1198016   -7.1564305    279.19104  0.032676854  0.033194494            1 
  713000    1.1615166    -7.085578    281.48157  0.032898734  0.033186781            1 
  714000    1.1574481   -7.1787961    279.53168  0.032625079   0.03317909            2 
  715000     1.121498   -7.1387979    280.59641  0.032703544  0.033171312            3 
  716000    1.1421475   -7.1358811    281.01831  0.032706973  0.033163746            1 
  717000    1.1606401   -7.0943956    282.25655  0.032805271  0.033156839            1 
  718000    1.1169783   -7.1227483    281.43867  0.032664655  0.033149722            2 
  719000    1.1173797   -7.1370531    282.52302  0.032744903  0.033142267            1 
  720000     1.146495   -7.1391453    282.79961  0.032731437  0.033134622            1 
  721000    1.1335012   -7.0688986    283.88254  0.032811204    0.0331274            1 
  722000    1.1396236   -7.0834195    283.32908   0.03270188  0.033120154            5 
  723000    1.1304573   -7.1408429     284.2063  0.032757757  0.033112839            1 
  724000    1.1221448   -7.1107499     283.7861  0.032664146  0.033105249            1 
  725000    1.1563205   -7.1316661    284.47237  0.032697973  0.033098064            2 
  726000    1.1844956   -7.1169271    284.11226    0.0326116  0.033090718            1 
  727000    1.1341416   -7.1099597     285.3628  0.032710087  0.033083201            1 
  728000    1.1314779   -7.1526254    284.37809  0.032552437  0.033075625            2 
  729000    1.1300062   -7.0882432    286.05313  0.032699261  0.033068697            7 
  730000    1.1370398   -7.1136582       286.59  0.032715753  0.033061415            2 
  731000    1.1092622   -7.1562736     286.1996  0.032626493  0.033053978            2 
  732000    1.1320148   -7.1094591     287.0117  0.032674374  0.033046984            1 
  733000    1.1648022   -7.1150302     287.5428  0.032690177  0.033040408            2 
  734000    1.1621866   -7.1130461    288.11273  0.032710346  0.033034177            2 
  735000    1.1291578   -7.1437904    288.28223   0.03268506  0.033027324            1 
  736000    1.1324071   -7.1440147    287.25464  0.032524302  0.033020287            4 
  737000    1.1470485   -7.1022654    288.51602  0.032622797  0.033012914            1 
  738000     1.132448   -7.1132934    289.76835  0.032720003   0.03300588            1 
  739000    1.1447571   -7.1038589    290.07124  0.032709883  0.032998655            1 
  740000    1.1153272   -7.0652659    290.18229  0.032678186  0.032991444            2 
  741000    1.1331783   -7.1226779    288.97125  0.032497892   0.03298446            3 
  742000    1.1502751   -7.0795375    290.06807  0.032577277  0.032976995            1 
  743000    1.0997565   -7.1410545    289.42604  0.032461423  0.032969462            4 
  744000    1.1247272    -7.124924    289.90796  0.032471769  0.032961598            1 
  745000    1.1407694   -7.1331086     290.9281  0.032542293  0.032954152            1 
  746000    1.1367374    -7.140488    291.34972  0.032545768  0.032946543            3 
  747000    1.1081802   -7.1550696    291.42252  0.032510321  0.032938613            2 
  748000    1.1472262   -7.0960039    292.47808  0.032584456  0.032930844            2 
  749000    1.1466362     -7.12092    292.13447  0.032502723  0.032923268            5 
  750000    1.1385587   -7.1906886    291.49669  0.032388521  0.032915381            1 
  751000    1.1263742   -7.1351174    292.67975   0.03247667  0.032907462            2 
  752000    1.1309741   -7.1467193    292.82035  0.032449063  0.032899537            2 
  753000    1.1330493   -7.0988884     292.8821  0.032412804  0.032891584            3 
  754000     1.123281   -7.1226574    293.28243  0.032414061    0.0328838            1 
  755000     1.152417   -7.1480121    293.86717   0.03243567  0.032876049            1 
  756000    1.1384344   -7.1155166    294.66049  0.032480213  0.032868569            1 
  757000    1.1239373   -7.1026369    294.35146  0.032403288  0.032861202            3 
  758000    1.1348435   -7.1374471    295.32167  0.032467203  0.032853772            2 
  759000    1.1423699   -7.1189231    295.32276  0.032424545  0.032846522            2 
  760000    1.1221143   -7.1324826    295.36023   0.03238599  0.032839141            1 
  761000    1.1162846   -7.1767712    295.21437  0.032327461    0.0328314            1 
  762000    1.1461894   -7.1155743    296.00559  0.032371565  0.032823595            1 
  763000    1.1145929   -7.1501983    296.46543  0.032379361  0.032816211            2 
  764000    1.1377836   -7.1467129    297.16805  0.032413618   0.03280904            1 
  765000    1.1576317   -7.1169561    297.91521  0.032452637  0.032801701            2 
  766000    1.1382057   -7.1219539    298.28814  0.032450842  0.032794699            1 
  767000    1.1491804   -7.0836663    299.79828  0.032572608  0.032787824            2 
  768000    1.1471311   -7.1182926    298.24642  0.032361808  0.032780641            2 
  769000    1.1414095    -7.119584    299.45443  0.032450632  0.032773585            1 
  770000    1.1338297   -7.1683173    298.99208  0.032358451  0.032766626            1 
  771000    1.1365914    -7.178874    299.39505  0.032360035  0.032759607            5 
  772000    1.1324869   -7.0772197    300.15263  0.032399895  0.032752353            2 
  773000    1.1476022   -7.1139704    300.25553  0.032369074  0.032745103            1 
  774000    1.1175218   -7.1252971    299.43885  0.032239325  0.032737707            2 
  775000    1.1262596   -7.1282526    299.61685  0.032216865  0.032730083            3 
  776000      1.12514   -7.1281701    301.54471  0.032382378  0.032722385            1 
  777000     1.139529   -7.1257583    300.01252  0.032176375  0.032714667            1 
  778000    1.1383975   -7.1312266    300.94818  0.032235238  0.032706797            2 
  779000    1.1261941   -7.1159978    301.69064  0.032273282  0.032698908            2 
  780000    1.1356407   -7.1081929    303.11902  0.032384511  0.032691345            2 
  781000    1.1369621   -7.1298413    302.91177  0.032320931  0.032683833            2 
  782000    1.1054302   -7.0880831    303.07488  0.032296982  0.032675993            2 
  783000    1.1698167   -7.1015576    303.59891  0.032311505  0.032668717            2 
  784000    1.1227999   -7.1372246    303.85912  0.032297951  0.032661127            2 
  785000    1.1258187    -7.132276    303.87615  0.032258615  0.032653606            2 
  786000    1.1053303   -7.1702564    302.88101  0.032112066  0.032645747            3 
  787000    1.1194703   -7.1511352    303.93289  0.032182644  0.032637714            2 
  788000    1.1410163   -7.1425982    304.99083  0.032253684  0.032630195            1 
  789000    1.1017897   -7.1029975    304.85336  0.032198284  0.032622695            2 
  790000    1.1234965   -7.0978913    305.57007  0.032233129  0.032615085            2 
  791000    1.1397203    -7.144052    305.22876  0.032156422   0.03260782            4 
  792000    1.1368629   -7.1793854     305.3907   0.03213286  0.032599778            1 
  793000    1.1290282   -7.1764475    304.91492  0.032042341  0.032591903            2 
  794000    1.1153106    -7.147824     306.6885   0.03218813  0.032584192            1 
  795000    1.0987714   -7.1796032    307.25238  0.032206749  0.032576458            2 
  796000    1.1506564    -7.156469     306.8125  0.032120236  0.032568854            2 
  797000     1.133503   -7.0997136    308.84419  0.032292366  0.032561187            1 
  798000    1.1339891   -7.1385902    308.17157   0.03218166  0.032553762            1 
  799000    1.0939401   -7.1542059     308.2405  0.032148571  0.032546379            2 
  800000    1.1083078   -7.1429054    308.79697  0.032166351  0.032538748            1 
  801000     1.136671   -7.1175313     309.6338  0.032213254  0.032531703            3 
  802000    1.1251643   -7.1602093    310.50746  0.032263868  0.032525039            5 
  803000    1.1021865   -7.1375132    310.91857  0.032266352  0.032518647            2 
  804000    1.1243572   -7.1321441     311.1957  0.032254944  0.032512035            1 
  805000    1.1173002    -7.146625    311.43662  0.032239815   0.03250535            2 
  806000    1.1089003   -7.1314161     311.3565  0.032191533  0.032498408            1 
  807000    1.1249704    -7.151618    311.51721  0.032168237  0.032491399            1 
  808000    1.1099872   -7.1344706    312.29484  0.032208626  0.032484494            1 
  809000    1.1247696   -7.1192461    313.12583  0.032254412  0.032477734            2 
  810000    1.1187225   -7.1582726    312.05447   0.03210437  0.032470958            3 
  811000    1.1078284   -7.1998413     313.3092  0.032193712   0.03246396            1 
  812000    1.1272987   -7.1812647    313.60648  0.032184573  0.032457353            1 
  813000    1.1206868   -7.1520467    313.99425  0.032184732  0.032450662            2 
  814000     1.118131   -7.1248638    314.93827  0.032241838  0.032443988            2 
  815000    1.1103769   -7.1741206    314.95314  0.032203798  0.032437329            2 
  816000    1.1192629   -7.1441165    314.62214  0.032130529  0.032430757            1 
  817000    1.1261548   -7.1199871    315.78089  0.032209393  0.032424356            3 
  818000    1.1345276   -7.1695884    314.99671  0.032090129   0.03241766            1 
  819000    1.1238816   -7.1399515    316.03746  0.032156844  0.032410968            1 
  820000    1.1324796   -7.1794884    315.69032  0.032082349   0.03240402            2 
  821000    1.1252761   -7.1821601    315.38853   0.03201264  0.032397248            2 
  822000    1.1390196   -7.1509741    317.59792   0.03219768  0.032390595            1 
  823000    1.1016558   -7.1412897     317.4253  0.032141079  0.032383895            1 
  824000    1.1385749   -7.1685289    316.10933  0.031968985   0.03237716            3 
  825000    1.1175988   -7.1734194    317.38475  0.032059065  0.032370239            2 
  826000    1.1446554   -7.1974554    317.90882  0.032073126  0.032362932            2 
  827000    1.1281631   -7.1043087    318.12526  0.032056153   0.03235596            1 
  828000    1.1199752   -7.1665599    317.81468  0.031986179  0.032348868            1 
  829000    1.1301149   -7.1417091    317.65888  0.031931934  0.032341498            2 
  830000    1.1238735   -7.1644789    319.16655  0.032044835  0.032334419            2 
  831000    1.1216759   -7.1300987    319.73996  0.032063775  0.032327342            2 
  832000    1.1517678   -7.1422425    317.92651  0.031843601  0.032320057            1 
  833000    1.1354041   -7.1928752    319.07048  0.031919816  0.032312789            1 
  834000    1.1021821   -7.1389021    319.23708  0.031898189  0.032305294            1 
  835000    1.1139916   -7.1570439    319.69589  0.031905778  0.032297755            1 
  836000    1.1181838   -7.1926036    320.05597  0.031903505   0.03229005            3 
  837000     1.120099   -7.1576127    319.97497  0.031857324  0.032282276            1 
  838000    1.0936415   -7.1517121    320.33687  0.031855297  0.032274712            2 
  839000    1.1147668   -7.1399773     321.2389  0.031906923  0.032267057            1 
  840000    1.1141792   -7.1756322    321.21771  0.031866836  0.032259211            2 
  841000    1.1290604   -7.1375566    323.82844  0.032087638  0.032251796            1 
  842000    1.1105417   -7.1688667     322.6389    0.0319318  0.032244226            1 
  843000    1.1181057   -7.1679403    322.42207  0.031872486  0.032236734            2 
  844000    1.1247214   -7.1544006     322.3272  0.031825355  0.032229238            1 
  845000    1.1192944   -7.1364412    322.92091  0.031846244  0.032221855            1 
  846000    1.1250325    -7.188106    322.95617  0.031812074  0.032214308            2 
  847000    1.1130289   -7.1855335    322.75484  0.031754707  0.032206788            2 
  848000    1.1322304   -7.1548915    323.66745  0.031806943  0.032199283            1 
  849000    1.0969102   -7.1757212    324.23251  0.031824942  0.032191961            3 
  850000    1.1268938   -7.1504929    325.02443   0.03186514  0.032184534            1 
  851000     1.110995   -7.1803033    325.29105  0.031853804  0.032176909            1 
  852000    1.1191243   -7.1646423    324.82312  0.031770649  0.032169289            1 
  853000    1.1220002   -7.1874894    326.32808   0.03188043  0.032162084            1 
  854000    1.1161041   -7.1394865    326.85095  0.031894121  0.032155081            1 
  855000    1.1172544    -7.169565    327.52072  0.031922098  0.032148268            2 
  856000    1.1322355   -7.1500364    328.71305  0.032000881  0.032141342            2 
  857000    1.1036118   -7.1575546    327.02027  0.031798937  0.032134548            2 
  858000    1.1110935   -7.1664837    328.36923  0.031892893  0.032127946            1 
  859000    1.0913259   -7.2034477    327.82385  0.031802857   0.03212135            2 
  860000    1.1184073   -7.1836963    328.85559  0.031865852  0.032114595            3 
  861000    1.1314207    -7.207273    328.29454   0.03177454   0.03210782            3 
  862000    1.1033376   -7.1675026    329.57856   0.03186181  0.032100747            3 
  863000    1.1158266   -7.1683007    329.16779  0.031785225  0.032093971            2 
  864000    1.1246774   -7.1502686    330.69159  0.031895408  0.032086961            1 
  865000    1.1070819   -7.1365255    331.05817  0.031893851   0.03208032            2 
  866000    1.0766048   -7.1640736     330.7136  0.031823864  0.032073944            2 
  867000    1.1195172   -7.1906445    331.81854  0.031893362   0.03206732            2 
  868000    1.1231259   -7.1751645     331.4087  0.031817272  0.032060752            1 
  869000    1.0772983   -7.1853563    332.14846  0.031851597  0.032054215            1 
  870000    1.1233795   -7.1644542    332.47726   0.03184648  0.032047711            2 
  871000    1.1212277   -7.1767931    332.72092   0.03183323   0.03204147            1 
  872000    1.1003294   -7.1993897    331.89558   0.03171785  0.032035107            2 
  873000    1.0817661   -7.1977293    332.73212  0.031761371  0.032028632            2 
  874000    1.1471283   -7.1644005    334.37864  0.031882021  0.032022111            2 
  875000    1.0867223   -7.1506495    333.92163   0.03180206  0.032015536            1 
  876000    1.1064484   -7.1903392    334.17008  0.031789392  0.032008659            1 
  877000    1.1094522    -7.130618    335.17228  0.031848373  0.032002288            1 
  878000    1.1298674   -7.1821807    334.36753  0.031735719  0.031995559            2 
  879000    1.1187633   -7.1902517    334.67424  0.031728692  0.031988721            3 
  880000    1.0982596   -7.2053599    334.07871  0.031636241  0.031981581            1 
  881000    1.0892464   -7.2256673    333.69305  0.031563853  0.031974281            2 
  882000    1.1220886   -7.2070763    334.66054  0.031619476   0.03196691            2 
  883000    1.1064844   -7.1286392    334.69115  0.031586556  0.031959335            2 
  884000    1.1032506   -7.1550192    335.31304   0.03160945  0.031951495            2 
  885000    1.1205529   -7.1934588    334.96441  0.031540905  0.031943824            2 
  886000    1.1027669   -7.1584452    335.36409  0.031542898  0.031936017            1 
  887000    1.1180339   -7.1891696    336.12054  0.031578404  0.031928221            1 
  888000    1.1212709   -7.1728875    335.87477   0.03151978   0.03192039            1 
  889000    1.1194753   -7.1745176    336.11216  0.031506576  0.031912351            2 
  890000    1.1023536   -7.1435418      337.814  0.031630524  0.031904746            5 
  891000    1.1064179   -7.1871841    337.32195  0.031549004  0.031897265            3 
  892000    1.1038481   -7.1259802    338.44875  0.031618904  0.031889814            2 
  893000     1.109637   -7.1800108    337.88665  0.031531042  0.031882411            2 
  894000    1.1186799   -7.1885668    338.29153  0.031533513  0.031875019            1 
  895000     1.109635   -7.1763188    339.02281  0.031566369  0.031867768            2 
  896000    1.1101173   -7.1943022    337.48808  0.031388401  0.031860228            1 
  897000    1.1175562   -7.1684567    338.74254   0.03146995  0.031852578            1 
  898000    1.1159627   -7.2233072    338.38392  0.031401626  0.031844919            1 
  899000    1.1095986   -7.1436696    340.38892  0.031552551  0.031837363            2 
  900000     1.107905   -7.1605127     339.6293  0.031447157  0.031829958            1 
  901000    1.0992338   -7.2041634    340.22863  0.031467687  0.031822305            1 
  902000    1.1043145   -7.1722837    340.75998   0.03148189  0.031814963            1 
  903000    1.1110606   -7.1632229    342.40322  0.031598673   0.03180798            2 
  904000    1.1128302   -7.1725736    341.53248  0.031483452  0.031800886            1 
  905000    1.1082136   -7.1941953    341.47427  0.031443303  0.031793627            1 
  906000    1.1024379    -7.171999     342.9259  0.031542117  0.031786282            1 
  907000    1.0875241   -7.1932325    342.03844  0.031425803  0.031779075            3 
  908000    1.1330227   -7.1727619    342.71434  0.031453225   0.03177164            1 
  909000    1.1214786   -7.1830007    342.96289  0.031441409  0.031764395            2 
  910000    1.1061236   -7.1507631    344.02763  0.031504361  0.031757186            1 
  911000    1.0934881   -7.1710779     344.0037   0.03146759  0.031749822            1 
  912000    1.1130285   -7.1699422    343.94058  0.031427319  0.031742343            3 
  913000    1.0935947   -7.1864847    343.96483  0.031395111  0.031734936            1 
  914000    1.1085664   -7.1919759    343.56479  0.031324288  0.031727325            1 
  915000    1.1205042   -7.1736368    344.98262  0.031419182  0.031719872            2 
  916000    1.1231428   -7.1805357    345.39585  0.031422476  0.031712512            1 
  917000    1.1064954    -7.188519    345.99282  0.031442459  0.031705197            1 
  918000    1.1194148   -7.1702787    346.68182  0.031470754  0.031697952            4 
  919000    1.1222989   -7.2125205    346.71076  0.031439133   0.03169075            5 
  920000    1.1023441   -7.1721543    347.39396  0.031466844  0.031683614            2 
  921000    1.1064205    -7.183646    347.26544   0.03142105  0.031676729            4 
  922000    1.0952037   -7.1977545    347.81424  0.031436573  0.031669989            2 
  923000    1.1121283   -7.1791411    348.78354  0.031490027  0.031663417            2 
  924000    1.1081851   -7.1641845      349.983  0.031564123  0.031656882            1 
  925000    1.1073972   -7.1905032    349.07622  0.031448308   0.03165009            2 
  926000    1.1102219   -7.2237045    349.42766  0.031445974  0.031643474            2 
  927000    1.1121166     -7.16768    351.00043  0.031553436  0.031637235            1 
  928000     1.107109   -7.2067305    350.28893  0.031455544  0.031631078            1 
  929000    1.1166114   -7.1949817    351.45564   0.03152634   0.03162481            1 
  930000    1.0971913   -7.1727447    352.41698  0.031578582   0.03161848            1 
  931000    1.1053072   -7.1753068    351.17396  0.031433401  0.031612117            1 
  932000    1.1233397   -7.1685871     352.4904  0.031517382  0.031605656            2 
  933000    1.1086947   -7.1845841    352.21223  0.031458755  0.031599553            5 
  934000     1.095619   -7.2027264    352.37758  0.031439827  0.031593483            1 
  935000    1.1122303   -7.2142946    352.82602  0.031446169  0.031587669            1 
  936000    1.1036684   -7.2021591    353.65761  0.031486611  0.031581995            2 
  937000    1.1124283   -7.1902033    354.30396  0.031510491  0.031576287            2 
  938000     1.116815    -7.214649    353.58416  0.031412949  0.031570477            1 
  939000     1.090774   -7.2027238    355.10255  0.031514248  0.031564627            2 
  940000    1.0828129   -7.2304102    353.77353  0.031362901  0.031558635            3 
  941000    1.1048943    -7.128305    356.93565  0.031609604  0.031552881            1 
  942000    1.0924656   -7.2021093    355.16907  0.031419769  0.031546871            3 
  943000    1.1077829   -7.2152607     354.5857  0.031334898  0.031540574            4 
  944000    1.1054887   -7.1722023    355.82689  0.031411272   0.03153415            1 
  945000    1.1208565   -7.1905312    355.29617  0.031331232  0.031527984            1 
  946000    1.0822836   -7.1903511    357.22818  0.031468303  0.031521794            6 
  947000    1.0915823   -7.1400226    357.35122  0.031445901  0.031515779            3 
  948000    1.0890256   -7.2054731     356.7464  0.031359564  0.031509808            3 
  949000    1.1002461   -7.1559985    357.06411  0.031354418   0.03150363            2 
  950000    1.1135216   -7.1870529    358.21358  0.031422244  0.031497288            2 
  951000    1.0971238   -7.1947216    356.75903  0.031261745  0.031490598            2 
  952000    1.0802884   -7.2067518    357.52229  0.031295719  0.031484071            2 
  953000    1.0941149   -7.2056912    357.69036  0.031277576  0.031477596            2 
  954000    1.0966279   -7.2086705    358.25523  0.031294133   0.03147092            1 
  955000    1.1056909   -7.2106705    358.66659  0.031297259  0.031464514            1 
  956000    1.1007366   -7.2073856    358.49853  0.031249872  0.031457941            2 
  957000    1.1017038   -7.1680847    358.95024  0.031256552  0.031451362            1 
  958000    1.0947637   -7.1726513    360.07978  0.031322179  0.031444806            2 
  959000    1.1261101   -7.2061885    358.75918  0.031174763  0.031438336            2 
  960000    1.1035517   -7.1896522    359.42724  0.031200281  0.031431528            1 
  961000     1.089776   -7.2265953    358.41442  0.031079988  0.031424584            2 
  962000    1.1095114   -7.2242805    359.91918   0.03117803  0.031417682            2 
  963000    1.0897288    -7.200969    359.78469  0.031134016  0.031410882            2 
  964000    1.1325838    -7.207108    360.16157  0.031134299  0.031404061            1 
  965000    1.0923569   -7.1874299    361.00424  0.031174805  0.031396977            1 
  966000     1.086434    -7.205664     359.9045  0.031047662   0.03139002            1 
  967000    1.0885765   -7.1874205    361.59817  0.031161511  0.031382952            1 
  968000    1.0821967   -7.2121811    361.55108  0.031125265  0.031375719            1 
  969000    1.1008264   -7.2082114    362.19543  0.031148558  0.031368651            2 
  970000    1.1065459   -7.1554151    362.92063  0.031178748  0.031361898            2 
  971000    1.0832114   -7.2120179    363.06521  0.031159046  0.031355119            2 
  972000    1.0866791   -7.2103499    362.18263  0.031051323  0.031347938            4 
  973000    1.1301385   -7.1929065    364.77774   0.03124167  0.031340956            3 
  974000     1.096854   -7.2055684    363.98332  0.031141625  0.031334271            2 
  975000    1.1091245    -7.191813    365.18956  0.031212783   0.03132754            1 
  976000    1.1156262   -7.1992561    364.31713  0.031106312  0.031320792            2 
  977000    1.0561094   -7.1848436    363.78947  0.031029467  0.031313899            4 
  978000    1.0969737    -7.237327    364.84455  0.031087641  0.031307122            2 
  979000    1.1292342   -7.2197383    363.75353  0.030963018  0.031300129            2 
  980000    1.1021239   -7.2156654    364.22609  0.030971606  0.031293028            3 
  981000    1.0764708   -7.1825243    364.82184  0.030990642  0.031285896            2 
  982000     1.119846    -7.199994    366.46233  0.031098297  0.031279124            2 
  983000    1.1218416   -7.2299633     365.7788  0.031008714  0.031272104            1 
  984000    1.0787961   -7.1802611    365.54441  0.030957352  0.031264823            1 
  985000    1.1291937   -7.1773823    366.13802  0.030976144  0.031257541            2 
  986000    1.0611023   -7.1915045    367.81182  0.031086192  0.031250539            4 
  987000     1.098291   -7.2112696    368.01434  0.031071795  0.031243508            2 
  988000    1.0982999   -7.2131791    366.78201  0.030936404  0.031236487            2 
  989000     1.086451   -7.2477495     368.0096  0.031008561  0.031229367            2 
  990000     1.103173   -7.2564197    366.50851  0.030850885  0.031222305            1 
  991000     1.086697   -7.1989336    368.07639  0.030951597  0.031215226            4 
  992000    1.0836358   -7.2075245    367.54934  0.030876121  0.031208428            2 
  993000    1.0974698   -7.2065983    369.71304  0.031026606  0.031201502            1 
  994000    1.1150014   -7.2626496    368.44858  0.030889385  0.031194266            2 
  995000    1.1117544   -7.1954899    370.40356  0.031022074  0.031187106            3 
  996000    1.1109888    -7.214446    369.95804  0.030953652  0.031180141            1 
  997000    1.0881802    -7.228646    370.89896  0.031001251  0.031173343            3 
  998000    1.0885528   -7.1553264    372.01758  0.031063592  0.031166613            1 
  999000    1.1571321   -7.1789248    372.99707  0.031114203   0.03116001            1 
 1000000     1.114643   -7.2306791    371.10213  0.030925177  0.031153572            1 
 1001000    1.0865066   -7.2154109    371.04564   0.03088958  0.031146671            2 
 1002000    1.0957842   -7.2224148     372.3028  0.030963307   0.03113969            1 
 1003000    1.0908887   -7.2440221     371.3919  0.030856754  0.031132924            1 
 1004000    1.0906049   -7.2247185    372.45986  0.030914663   0.03112593            3 
 1005000    1.0719729   -7.2113582    372.70725  0.030904415  0.031119146            4 
 1006000    1.0950357   -7.2252989    373.63299   0.03095038  0.031112439            2 
 1007000    1.1070708   -7.1932349    373.80264  0.030933685  0.031105785            2 
 1008000    1.0898783   -7.2320221    372.77214  0.030817802  0.031099082            1 
 1009000    1.0838694   -7.1677534    375.52162  0.031014339  0.031092406            3 
 1010000     1.108919   -7.2263775    374.76136  0.030920904  0.031085817            2 
 1011000    1.1210787   -7.2387649    375.34187  0.030938169  0.031079216            2 
 1012000    1.0996013   -7.1975255    375.70439   0.03093745  0.031072633            2 
 1013000    1.1083411   -7.1966444    375.96282  0.030928169  0.031066236            1 
 1014000    1.0849629   -7.2437529    375.05208  0.030822821  0.031059718            1 
 1015000    1.0812961   -7.2301404    376.79462  0.030935519  0.031052979            2 
 1016000    1.0886348   -7.2155088    376.00638  0.030840419  0.031046437            1 
 1017000    1.1085658   -7.2236026     376.7317  0.030869527  0.031039698            2 
 1018000    1.0847119   -7.2009678    375.91626  0.030772451  0.031032831            2 
 1019000    1.1039238   -7.1662733    377.36366   0.03086062   0.03102623            2 
 1020000    1.1108058   -7.2248782    377.45241  0.030837615  0.031019613            2 
 1021000    1.0894151   -7.2154846    378.22112  0.030870154  0.031012891            1 
 1022000    1.0888887   -7.2448879     378.5608  0.030867645  0.031006326            1 
 1023000    1.0770316   -7.2291433       378.95  0.030869175  0.030999937            1 
 1024000    1.1154916   -7.2186999    378.74013  0.030821951  0.030993421            1 
 1025000    1.0749591   -7.2580546     377.8978  0.030723398  0.030986642            3 
 1026000    1.0974521   -7.2356224    379.82045  0.030849614   0.03097998            1 
 1027000    1.0711965   -7.2014777     378.3762  0.030702386  0.030973016            2 
 1028000    1.0872776   -7.2746103    378.70929  0.030699521  0.030966082            3 
 1029000    1.0918957   -7.2317772    379.20331  0.030709695  0.030958937            1 
 1030000    1.0877441   -7.2412338    379.08186  0.030670054  0.030951912            1 
 1031000    1.0754383   -7.2414157    380.60157   0.03076314  0.030945025            2 
 1032000    1.0864138   -7.2252979    379.29096    0.0306275  0.030937991            1 
 1033000    1.0950167   -7.2934001     380.1624  0.030668151  0.030930831            3 
 1034000    1.0860033   -7.2129647    381.57024  0.030751953  0.030923648            2 
 1035000    1.0669995   -7.2334194    381.07122  0.030682063  0.030916603            2 
 1036000    1.0743556   -7.2137391    381.78338  0.030709732   0.03090966            5 
 1037000    1.0815557   -7.2091466    381.45038  0.030653358  0.030902707            1 
 1038000    1.0673913   -7.2223416    380.69541  0.030563215  0.030895271            3 
 1039000    1.0781174   -7.2609188     379.4737  0.030435812  0.030887756            2 
 1040000    1.0882722   -7.2026835    381.83734  0.030595941  0.030880311            2 
 1041000    1.0798471   -7.2447084    380.75183  0.030479654  0.030872709            3 
 1042000    1.0730437   -7.2085902    383.64227  0.030681563  0.030865007            2 
 1043000    1.0902173   -7.2076496    381.87715  0.030511118  0.030857381            2 
 1044000      1.10474   -7.2212221     382.1521  0.030503839  0.030849709            2 
 1045000    1.0788396   -7.2173928    382.47554  0.030500442  0.030842103            2 
 1046000     1.072643   -7.2800777    381.16168   0.03036661  0.030834203            1 
 1047000    1.0551074   -7.2099507    382.66312  0.030457109  0.030826411            2 
 1048000    1.0831118   -7.1670246    382.38761  0.030406139  0.030818443            1 
 1049000    1.1126552   -7.2610634    381.88322  0.030337084  0.030810406            2 
 1050000    1.0784855   -7.1888483    382.20206  0.030333497  0.030802293            3 
 1051000    1.0748899   -7.2411455    383.92069  0.030440905   0.03079417            1 
 1052000    1.0730493   -7.2465028    383.28678  0.030361754  0.030785928            1 
 1053000    1.0480678   -7.2292439    384.34151  0.030416391  0.030777824            2 
 1054000     1.082105   -7.2103497    382.89869  0.030273458  0.030769604            2 
 1055000    1.0886253   -7.2362674    383.70553  0.030308494  0.030761303            2 
 1056000    1.0916049   -7.2309514    385.12138  0.030391523  0.030752858            1 
 1057000     1.085812   -7.2600567    383.92663  0.030268577  0.030744694            3 
 1058000    1.0716682   -7.2317005    384.58365  0.030291718  0.030736508            1 
 1059000    1.0936715   -7.1974436    385.54878   0.03033906   0.03072819            2 
 1060000    1.0899769   -7.2462828    383.81219  0.030173914  0.030719839            3 
 1061000     1.072035   -7.2249916    384.49921  0.030199435  0.030711376            5 
 1062000     1.116542   -7.2376098    384.34092  0.030158578  0.030702813            1 
 1063000    1.0662462   -7.2424624    386.20819  0.030276591  0.030694386            2 
 1064000    1.0707471   -7.2414337    386.16039  0.030244391  0.030686001            4 
 1065000    1.0880862   -7.2123656    387.10546  0.030289942  0.030677604            1 
 1066000    1.0835319   -7.2406023    386.69669  0.030229572   0.03066925            2 
 1067000     1.089643   -7.2247232    386.47237  0.030183721  0.030660985            2 
 1068000    1.0667508   -7.2700868     386.8479  0.030184761  0.030652601            2 
 1069000    1.0643985   -7.2364908    388.35369  0.030273908  0.030644423            6 
 1070000    1.0941292   -7.2097031    388.24312  0.030237003  0.030636238            1 
 1071000    1.0656998   -7.2695714    387.05599  0.030116401  0.030627908            2 
 1072000    1.0780407    -7.239759    388.81982  0.030225422  0.030619696            2 
 1073000    1.0929517   -7.2331188    390.27557  0.030310312  0.030611669            2 
 1074000    1.0623008   -7.2223465    389.23864  0.030201632  0.030603516            1 
 1075000    1.0702499       -7.244     389.1553  0.030167078  0.030595411            1 
 1076000    1.0801161   -7.2546614    389.10077  0.030134818  0.030587286            1 
 1077000    1.0813131   -7.2232997    388.89159  0.030090652  0.030579086            2 
 1078000    1.0890099   -7.2266391    389.87358   0.03013865  0.030570971            1 
 1079000    1.0435033   -7.2109671    391.37586  0.030226742  0.030562769            3 
 1080000     1.072371   -7.2323286    390.92399  0.030163888  0.030554616            2 
 1081000    1.0541623   -7.2262395    391.00756  0.030142427  0.030546316            2 
 1082000    1.1073264    -7.225773    390.21472  0.030053506  0.030538125            2 
 1083000    1.0716903   -7.2398159    392.30767  0.030186802   0.03052999            1 
 1084000    1.0794088   -7.2764505    391.10957  0.030066848  0.030521905            1 
 1085000    1.0684229   -7.2655209     392.1714  0.030120691  0.030514102            2 
 1086000    1.0827538   -7.2540348    392.82636  0.030143214  0.030506259            2 
 1087000    1.0752643   -7.2057391    394.21901  0.030222248  0.030498508            2 
 1088000    1.0990365   -7.2578482    392.86711  0.030090924  0.030490906            3 
 1089000    1.0834599   -7.2591543    393.95393   0.03014646  0.030483083            2 
 1090000    1.0793285   -7.2469931    394.00098  0.030122399  0.030475554       -1e+20 
 1091000    1.0872197   -7.2346494    393.70651  0.030072297  0.030467798            2 
 1092000    1.0893303   -7.1909291    395.80292   0.03020474  0.030460056            1 
 1093000    1.0729222   -7.2398585    393.72073  0.030018354  0.030452432            1 
 1094000     1.078794   -7.2316664    396.32668  0.030189418   0.03044463            2 
 1095000    1.0984665   -7.2397455     396.0214  0.030138615  0.030436757            2 
 1096000    1.0560184   -7.2520587    395.47579  0.030069631   0.03042889            2 
 1097000    1.0732188   -7.2452937    395.27839  0.030027225   0.03042115            2 
 1098000    1.0528393   -7.2560343    396.01185  0.030055544  0.030413232            1 
 1099000    1.0662393    -7.268334    396.06842  0.030032486   0.03040548            4 
 1100000    1.0791142   -7.2879189    396.66074  0.030050056  0.030397593            1 
 1101000    1.0534047   -7.2365529    398.12214  0.030133374  0.030389875            1 
 1102000    1.0701471   -7.2328488    398.00884  0.030097462  0.030382192            3 
 1103000    1.0667202    -7.273366    396.42849  0.029950777  0.030374333            1 
 1104000    1.0714609    -7.228876    397.36761  0.029994536  0.030366565            3 
 1105000    1.0723882   -7.2260416    399.37817  0.030119017  0.030358909            1 
 1106000     1.065645   -7.2314704     398.7954  0.030047875   0.03035127            1 
 1107000     1.084074    -7.298387    399.80296  0.030096579  0.030343517            3 
 1108000    1.0707025   -7.2575033    399.99344  0.030083742   0.03033573            2 
 1109000    1.0829241   -7.3064437    399.14453  0.029992826  0.030328028            2 
 1110000    1.1096009    -7.266875    400.23395  0.030047594  0.030320314            1 
 1111000    1.0700579   -7.2533351    400.22901  0.030020178  0.030312597            2 
 1112000     1.066611   -7.2836537    400.02442  0.029977849  0.030304871            4 
 1113000     1.074034   -7.2609433    400.55465  0.029990615  0.030297107            2 
 1114000    1.1087632   -7.2598951    401.39834  0.030026806  0.030289493            2 
 1115000    1.0723393   -7.2501992    400.96941  0.029967818  0.030281762            4 
 1116000    1.0388613    -7.238063    402.27629  0.030038552  0.030274117            2 
 1117000    1.0753674   -7.2659919    401.59757  0.029961024  0.030266367            1 
 1118000    1.0746127   -7.2455952    402.55799  0.030005813  0.030258964            1 
 1119000    1.0798151   -7.2998453    401.06354  0.029867705  0.030251394            1 
 1120000    1.0482671   -7.2537345    402.18761  0.029924673  0.030243813            1 
 1121000    1.0615786   -7.2289299    403.58275  0.030001691  0.030236313            2 
 1122000     1.065649   -7.2542871    402.44702  0.029890598  0.030228789            3 
 1123000    1.0784924   -7.2049709    403.98215  0.029977898  0.030221092            2 
 1124000    1.0798056   -7.2708007    403.36481  0.029905457  0.030213541            2 
 1125000    1.0569306   -7.2643655    403.80285  0.029911322  0.030205905            2 
 1126000    1.0735063   -7.2828039    404.13889  0.029909628  0.030198337            1 
 1127000    1.0743848   -7.2658347    403.72672  0.029852612  0.030190533            1 
 1128000    1.1002205   -7.3190323    402.55872  0.029739858  0.030182751            2 
 1129000     1.046744   -7.2759815    404.58707  0.029863232  0.030174836            4 
 1130000    1.0722709   -7.2859811    404.41311  0.029823976  0.030166978            2 
 1131000    1.0681061   -7.2188444     405.8314  0.029902108  0.030159218            3 
 1132000    1.0871565   -7.2731608    404.98319   0.02981325  0.030151352            3 
 1133000    1.0959746   -7.2466391    404.89334  0.029780328  0.030143713            1 
 1134000    1.0622253   -7.2592495    406.23993  0.029853022  0.030136056            2 
 1135000    1.0845698   -7.2779384    405.58977  0.029778985  0.030128364            1 
 1136000    1.0905349   -7.2596143    406.66623  0.029831736  0.030120791            2 
 1137000    1.0968976   -7.2578942    406.63359  0.029803107   0.03011312            4 
 1138000    1.0863406   -7.2222602    407.54008  0.029843298  0.030105589            1 
 1139000    1.0734248   -7.2198039    407.99413  0.029850316  0.030097945            1 
 1140000    1.0728743   -7.2695571    406.99122   0.02975082  0.030090277            5 
 1141000    1.0692083   -7.2830415    407.97214  0.029796388   0.03008262            2 
 1142000    1.0681921   -7.2858311    407.87672  0.029763333  0.030074843            1 
 1143000    1.0805577   -7.2605342    408.75861   0.02980159  0.030067193            2 
 1144000     1.081234   -7.3073034    407.40827  0.029677176  0.030059443            2 
 1145000    1.0400378   -7.2398457    408.46449  0.029728129  0.030051848            3 
 1146000    1.0648187   -7.2814528    409.07693  0.029746723  0.030044196            3 
 1147000     1.056395   -7.2852552    410.05624  0.029791938   0.03003644            1 
 1148000    1.0474693   -7.2885153    409.32294  0.029712757  0.030028574            1 
 1149000    1.0746975   -7.2779291     409.7916  0.029720888    0.0300207            1 
 1150000    1.0726578   -7.2319121    410.86681  0.029772957  0.030012723            2 
 1151000    1.0711566   -7.2659031     408.4407  0.029571438  0.030004795            3 
 1152000    1.0881019    -7.275886       409.99  0.029657841  0.029996801            2 
 1153000     1.053891   -7.2740982    409.87692  0.029623946  0.029988742            2 
 1154000    1.0611077   -7.2739949    410.32069  0.029630321  0.029980507            2 
 1155000    1.0438757   -7.2283283     411.8704  0.029716479   0.02997246            6 
 1156000    1.0597359   -7.2771971    410.19308  0.029569859   0.02996447            6 
 1157000    1.1103394   -7.3008924    410.53177  0.029568695  0.029956284            2 
 1158000    1.0807648   -7.2491642    411.08459  0.029582944  0.029948191            1 
 1159000    1.0682041   -7.2677426    411.94936  0.029619597  0.029940288            2 
 1160000    1.0415308   -7.2340725    412.66712  0.029645627  0.029932526            2 
 1161000    1.0690845   -7.2933407    412.13418  0.029581839  0.029924659            1 
 1162000     1.049113   -7.2393585    412.79942  0.029604089  0.029916866            2 
 1163000    1.0571253   -7.2813453     412.7472  0.029574892  0.029909067            1 
 1164000    1.0557856   -7.2859384    412.19748  0.029510129  0.029901255            1 
 1165000    1.0737574   -7.2910637    412.51703  0.029507656  0.029893428            1 
 1166000    1.0588137    -7.269857    412.82715  0.029504514  0.029885412            1 
 1167000    1.0898311   -7.2900651    413.68488   0.02954048  0.029877443            1 
 1168000    1.0738552   -7.2708164    413.98472  0.029536581   0.02986954            2 
 1169000     1.066061   -7.2506171    414.64313   0.02955825  0.029861808            1 
 1170000    1.0490006   -7.2944316    415.26025  0.029576941  0.029854004            1 
 1171000     1.059573   -7.2499098     415.5712  0.029573811  0.029846252            1 
 1172000    1.0768193   -7.2559367    414.64405  0.029482654  0.029838479            1 
 1173000    1.0927631   -7.2609786     416.0783  0.029559413  0.029830594            2 
 1174000    1.0728651   -7.2368704    415.49197  0.029492616  0.029822938            2 
 1175000    1.0555092   -7.2513002    416.62852  0.029548122  0.029815136            2 
 1176000    1.0689181   -7.2266949    417.36676  0.029575309  0.029807288            3 
 1177000    1.0695291   -7.3044365     415.7797  0.029437815  0.029799333            5 
 1178000    1.0510998   -7.2631576    417.10467  0.029506556  0.029791486            3 
 1179000    1.0516818   -7.2706124    415.84458  0.029392464  0.029783722            1 
 1180000    1.0347641   -7.3015087    416.67599  0.029426271  0.029776053            1 
 1181000    1.0658485   -7.2559591    418.49261  0.029529538  0.029768216            2 
 1182000     1.066882   -7.2882214    416.67339  0.029376297  0.029760483            2 
 1183000    1.0495874   -7.2952812    416.41683  0.029333392  0.029752667            3 
 1184000    1.0732875   -7.3290199    417.01452  0.029350684  0.029744657            1 
 1185000    1.0656811   -7.2994514    416.88536  0.029316833  0.029736762            2 
 1186000     1.068207   -7.2837238    418.72737  0.029421541  0.029728892            1 
 1187000    1.0585233   -7.2651235    420.87251  0.029547354  0.029721147            2 
 1188000    1.0804918   -7.2562824    420.42311  0.029490959  0.029713509            1 
 1189000    1.0815724   -7.2595652    419.41615  0.029395581  0.029705955            1 
 1190000    1.0574848   -7.2732192    419.28433  0.029361648   0.02969844            1 
 1191000    1.0479848   -7.3348001    419.57727  0.029357492  0.029690775            2 
 1192000    1.0632556   -7.2912539    420.11102  0.029370177  0.029683052            2 
 1193000    1.0555472   -7.2714783    419.82295  0.029325437  0.029675062            2 
 1194000    1.0545698   -7.3095939    420.80298  0.029369275  0.029666916            3 
 1195000    1.0545861   -7.2925194    419.46453  0.029251362  0.029658973            1 
 1196000    1.0882271   -7.3034827    419.73172  0.029245521  0.029651097            1 
 1197000    1.0673918   -7.3030649    421.10547  0.029316727  0.029643125            2 
 1198000    1.0500945   -7.2827181    422.44959  0.029385753  0.029635413            2 
 1199000    1.0721218   -7.2765876    422.69683  0.029378428  0.029627854            2 
 1200000    1.0642068   -7.2834697    424.19638  0.029458082  0.029620407            2 
 1201000    1.0735621   -7.3036993     422.8013  0.029336754  0.029612714            1 
 1202000    1.0565729   -7.2826859    423.01551  0.029327199    0.0296051            2 
 1203000    1.0431138    -7.271184    423.12884  0.029310671  0.029597373            2 
 1204000    1.0487509   -7.2947601     423.7532  0.029329541  0.029589765            1 
 1205000    1.0417567   -7.2711402    425.62588  0.029434708  0.029582248            3 
 1206000    1.0674398   -7.2852167    423.97971  0.029296553  0.029574801            1 
 1207000    1.0776119   -7.2773512    425.60387  0.029384415  0.029567173            2 
 1208000    1.0671716   -7.2830366    425.27483  0.029337391  0.029559582            1 
 1209000    1.0491843   -7.2803437    425.92532  0.029357962  0.029552155            1 
 1210000     1.056027   -7.2760244    425.03504  0.029272386   0.02954455            1 
 1211000    1.0626942   -7.2807951    426.04813  0.029317928  0.029536933            2 
 1212000    1.0359115   -7.2654672    425.37022  0.029247127   0.02952932            2 
 1213000    1.0767228   -7.2798799    425.98343  0.029265144  0.029521579            4 
 1214000    1.0823489   -7.2928186    425.35822  0.029198121  0.029513928            3 
 1215000    1.0404615   -7.2654773    425.53528  0.029186233  0.029506166            1 
 1216000    1.0396605   -7.3458145    426.04985  0.029197495  0.029498411            2 
 1217000    1.0463875   -7.2635117    427.41303  0.029266847  0.029490577            1 
 1218000      1.04407   -7.2823425    427.42061  0.029243337  0.029482988            1 
 1219000    1.0509333   -7.3045363    425.81739  0.029109748  0.029475149            3 
 1220000    1.0682156   -7.2119434    427.95777  0.029232088  0.029467302            2 
 1221000      1.07816   -7.3108061     428.1094  0.029218496  0.029459624            2 
 1222000    1.0539091   -7.2625925    427.70203  0.029166805  0.029451995            2 
 1223000    1.0545628   -7.3007832    428.14257  0.029172974  0.029444254            2 
 1224000    1.0641468   -7.3030258    427.20125  0.029085052  0.029436394            2 
 1225000    1.0607867   -7.2835407    429.21814  0.029198513  0.029428492            1 
 1226000    1.0600603   -7.2918771    428.04465  0.029094933   0.02942068            1 
 1227000    1.0459192   -7.3310913    427.87442  0.029059659  0.029412765            1 
 1228000    1.0748484   -7.2883595    429.03779  0.029114942  0.029404749            3 
 1229000    1.0670076   -7.3121757    428.61507  0.029062589  0.029396865            2 
 1230000    1.0452155   -7.2994693    428.92137  0.029059713  0.029388846            1 
 1231000    1.0800061   -7.2693784    429.26164  0.029059142  0.029380818            2 
 1232000    1.0809937   -7.2838603    430.61035  0.029126783  0.029372884            1 
 1233000    1.0625588   -7.2812209    428.46998  0.028958501  0.029364964            2 
 1234000    1.0671429    -7.319707    429.45198  0.029001349  0.029357134            2 
 1235000    1.0506652   -7.2780094    430.67726  0.029060544  0.029349133            2 
 1236000    1.0394601   -7.2849882    429.54948  0.028960995  0.029341221            1 
 1237000    1.0608782   -7.2656134    431.20031  0.029048795  0.029333295            2 
 1238000    1.0495409   -7.2835853     431.4091  0.029039385  0.029325541            4 
 1239000    1.0682913   -7.2557605    431.97452  0.029053976  0.029317747            1 
 1240000     1.072614   -7.3097393    432.63636  0.029075024  0.029310023            1 
 1241000    1.0478829   -7.3110365    432.63296  0.029051367  0.029302252            1 
 1242000     1.069372   -7.3293575    431.73099  0.028967457  0.029294386            3 
 1243000    1.0601469   -7.2801823    433.65247  0.029072973  0.029286528            2 
 1244000    1.0618637   -7.3334272    433.49642  0.029039149  0.029278742            3 
 1245000    1.0520232   -7.3207357    432.90639  0.028976331  0.029270772            1 
 1246000    1.0609575   -7.2642138    431.87393  0.028884025  0.029262875            2 
 1247000    1.0521791   -7.2919404    433.22172   0.02895093  0.029254955            1 
 1248000    1.0399996   -7.3112254    432.87771  0.028904762  0.029246819            2 
 1249000     1.036646   -7.3372176     431.8691  0.028814325  0.029238794            2 
 1250000    1.0427953   -7.2806439    432.88249  0.028858833  0.029230737            3 
 1251000    1.0413298   -7.3386651    434.51995  0.028944841  0.029222734            2 
 1252000    1.0736405    -7.321807     433.4932  0.028853381  0.029214839            1 
 1253000    1.0587982   -7.2824161     434.8916  0.028923357  0.029206889            3 
 1254000    1.0285328   -7.2831427     435.9837  0.028972867  0.029199015            2 
 1255000    1.0549711   -7.2987149    435.14339  0.028893984  0.029190988            6 
 1256000    1.0523273   -7.2993555    434.30049  0.028815054  0.029182922            4 
 1257000    1.0747891   -7.2865031    434.89273  0.028831393  0.029174932            1 
 1258000     1.055991   -7.3663814    434.59724  0.028788901  0.029166682            2 
 1259000    1.0316361   -7.3002435    435.56036  0.028829783  0.029158678            1 
 1260000      1.03728   -7.3482203    434.96543  0.028767555  0.029150532            3 
 1261000    1.0231272   -7.2858266    437.46302  0.028909795  0.029142634            3 
 1262000    1.0313417   -7.2767703    437.20806  0.028870052  0.029134976            2 
 1263000    1.0490372   -7.3448421    436.25063  0.028784022  0.029127229            1 
 1264000    1.0541623   -7.2962731    438.04972   0.02887986  0.029119383            4 
 1265000    1.0563237   -7.3106904     436.9088  0.028781871  0.029111672            1 
 1266000    1.0372791   -7.3168997    439.11309  0.028904232  0.029103967            1 
 1267000    1.0420616   -7.3201838    437.06515  0.028746722  0.029096328            1 
 1268000    1.0523566   -7.3467905    438.56728  0.028822771  0.029088566            2 
 1269000    1.0574676   -7.3198953     438.7118  0.028809548  0.029080816            3 
 1270000    1.0407386   -7.3264998    439.80461  0.028858571  0.029073093            2 
 1271000    1.0295225    -7.311185    440.24717  0.028864882  0.029065477            1 
 1272000    1.0350689   -7.3048513    439.63871  0.028802327  0.029057799            2 
 1273000    1.0720911   -7.2801677     440.3723  0.028827723  0.029050265            1 
 1274000    1.0341127   -7.3296456    439.21999  0.028729722  0.029042599            3 
 1275000    1.0458414   -7.3167537    440.12946  0.028766632  0.029034785            1 
 1276000    1.0396945   -7.3152685    440.54417  0.028771171  0.029026986            2 
 1277000    1.0550597   -7.3623941    440.41078  0.028739936  0.029019148            2 
 1278000    1.0354148   -7.2894973     441.5657  0.028792755  0.029011476            2 
 1279000    1.0397456   -7.3163819    440.72261  0.028715312  0.029003876            1 
 1280000    1.0504709    -7.312717    441.17248  0.028722167   0.02899623            2 
 1281000    1.0402001   -7.3413305    441.53752  0.028723492  0.028988465            2 
 1282000    1.0502434   -7.3068334    441.02501  0.028667772  0.028980761            2 
 1283000    1.0240364   -7.2635473    443.39225  0.028799185  0.028973192            2 
 1284000    1.0617555   -7.3378439    443.05553  0.028754902   0.02896564            1 
 1285000    1.0553827    -7.326018    443.10296    0.0287356  0.028958118            2 
 1286000    1.0378432   -7.2942565     443.9335  0.028767075  0.028950519            2 
 1287000    1.0155514   -7.3429163    443.99656  0.028748806  0.028943151            2 
 1288000    1.0381886   -7.3182943    444.77036   0.02877655  0.028935777            2 
 1289000    1.0152171   -7.3385608    444.21693  0.028718446  0.028928199            1 
 1290000    1.0680704   -7.3142385    443.86715  0.028673588  0.028920569            4 
 1291000    1.0353959   -7.3239111     443.4963   0.02862744  0.028912939            1 
 1292000    1.0343766    -7.307937    444.51065  0.028670707  0.028905317            2 
 1293000    1.0508619   -7.3364757    444.36326  0.028639035  0.028897758            2 
 1294000    1.0300807   -7.3491446    445.31526  0.028678211   0.02889031            1 
 1295000    1.0591818   -7.3335976    445.63832  0.028676854  0.028882936            1 
 1296000    1.0684393   -7.3318073    446.57125  0.028714715  0.028875562            1 
 1297000      1.04728   -7.3703379    445.38502  0.028616359  0.028868008            2 
 1298000    1.0455496   -7.3211076    444.79484  0.028556422  0.028860234            1 
 1299000    1.0326281   -7.3321445    446.00673  0.028612184  0.028852465            2 
 1300000     1.039895   -7.3113779    446.04307  0.028592504  0.028844495            4 
 1301000    1.0565846   -7.2800618    445.54165  0.028538409  0.028836611            1 
 1302000    1.0621271    -7.302291     448.1291  0.028682098  0.028828715            1 
 1303000    1.0483255   -7.2973073    446.29766  0.028542956  0.028820846            1 
 1304000    1.0565629   -7.3426533    445.33704  0.028459678  0.028812958            1 
 1305000      1.04366   -7.2801837     447.8893  0.028600849  0.028805248            3 
 1306000    1.0285391   -7.2886488     448.6236  0.028625804  0.028797599            1 
 1307000    1.0565719   -7.3176674    446.98106  0.028499175  0.028789782            3 
 1308000    1.0423628   -7.3320911    448.41973  0.028569045  0.028782117            2 
 1309000     1.030135   -7.2928371    449.04089  0.028586764   0.02877448            2 
 1310000    1.0471857   -7.3381837    447.57514  0.028471701  0.028766636            2 
 1311000    1.0504082   -7.3052372    448.23279  0.028491787   0.02875879            1 
 1312000    1.0454765   -7.3280575    448.89256  0.028511976  0.028751186            2 
 1313000    1.0651695   -7.3068568    449.11881  0.028504621  0.028743484            1 
 1314000    1.0314412   -7.3402324    448.72809  0.028458149  0.028735806            3 
 1315000     1.031201   -7.2872125    450.65298   0.02855849  0.028728143            1 
 1316000    1.0629571   -7.3401656    450.22845  0.028509907  0.028720516            4 
 1317000    1.0489107   -7.3445591    449.37793  0.028434443  0.028712987            1 
 1318000    1.0563441   -7.3333493    451.67876  0.028558343  0.028705488            1 
 1319000    1.0287615   -7.3389903     451.6127  0.028532518  0.028697953            2 
 1320000    1.0497291    -7.353817    450.36658  0.028432234  0.028690463            1 
 1321000     1.028519   -7.3168891    452.09123  0.028519507  0.028683149            3 
 1322000    1.0681862   -7.3736575    451.58945  0.028466304  0.028675982            2 
 1323000    1.0463553   -7.3418623    451.82274  0.028459482  0.028668677            1 
 1324000    1.0641928   -7.3383731    454.29227  0.028593421   0.02866151            3 
 1325000    1.0597365   -7.3133815    454.82389  0.028605276  0.028654378            2 
 1326000    1.0446192   -7.3265125    454.86826  0.028586492  0.028647379            3 
 1327000    1.0129648   -7.2927659    455.20129  0.028585863  0.028640455            3 
 1328000     1.041839   -7.3556048    454.01378   0.02848982  0.028633327            1 
 1329000    1.0641956   -7.3216084    454.32103  0.028487649  0.028626187            1 
 1330000    1.0252199   -7.3567987    454.16408  0.028456396  0.028619039            2 
 1331000    1.0251192   -7.3502126    455.77543  0.028535902  0.028611782            2 
 1332000     1.050716   -7.3600988    453.92209  0.028398529  0.028604437            1 
 1333000    1.0460124   -7.3157696    454.36668  0.028405018  0.028597027            1 
 1334000    1.0767928   -7.3173783    455.41601  0.028449276  0.028589821            2 
 1335000    1.0312382   -7.3504938    455.45156  0.028430185  0.028582399            2 
 1336000    1.0363973   -7.3581959    453.98852  0.028317647  0.028574962            2 
 1337000    1.0559182   -7.3337618    455.20241  0.028372127  0.028567786            4 
 1338000    1.0427382   -7.3454209    456.09082  0.028406254  0.028560427            1 
 1339000    1.0558033   -7.3428987    454.66142  0.028296081  0.028552898            6 
 1340000    1.0309702   -7.3415142    455.40934  0.028321476  0.028545086            1 
 1341000    1.0501865    -7.363876     454.2935  0.028231015  0.028537507            3 
 1342000    1.0323013    -7.358563    455.65575   0.02829457  0.028529863            1 
 1343000     1.033201   -7.3684853    455.98717  0.028294066  0.028522242            2 
 1344000    1.0247471   -7.3584882    456.63399  0.028313119  0.028514684            2 
 1345000    1.0141959   -7.2989519    456.80094  0.028302413  0.028507013            1 
 1346000    1.0312615   -7.3481459    456.21222  0.028244937  0.028499315            5 
 1347000    1.0377687   -7.3546468    456.40512  0.028235902  0.028491764            2 
 1348000    1.0276378   -7.3174333     457.7618  0.028298825  0.028484153            1 
 1349000    1.0477745   -7.3295792    457.05505  0.028234189  0.028476542            1 
 1350000    1.0418498   -7.3003821    457.70536  0.028253417  0.028469013            3 
 1351000    1.0100724   -7.3374032     458.5708  0.028285887  0.028461534            2 
 1352000    1.0233489   -7.3740413     457.4271  0.028194471  0.028453902            2 
 1353000    1.0357049   -7.3275138      458.814  0.028259054  0.028446341            3 
 1354000    1.0180257    -7.313364    459.03626  0.028251863  0.028438628            3 
 1355000    1.0407385   -7.3571311    457.25885    0.0281217  0.028430968            1 
 1356000     1.021605   -7.3698944    459.04146  0.028210513  0.028423253            2 
 1357000    1.0254223   -7.3395427    457.89908   0.02811957  0.028415591            1 
 1358000    1.0416986   -7.3579553    459.11082  0.028173221  0.028407985            1 
 1359000    1.0379303   -7.3429601    459.57508  0.028180959  0.028400276            2 
 1360000    1.0306447   -7.3943373    457.85176  0.028054642  0.028392649            1 
 1361000    1.0258236   -7.3436479    458.95461  0.028101556  0.028384927            1 
 1362000    1.0472532   -7.3874969    458.00732  0.028022964  0.028377195            2 
 1363000    1.0513081   -7.3496702    459.34683  0.028084301  0.028369349            1 
 1364000     1.040764   -7.3873734    459.44852  0.028069924  0.028361385            1 
 1365000    1.0384549   -7.3450114    459.84329  0.028073461  0.028353427            4 
 1366000    1.0067205   -7.3221642    461.00364  0.028123697  0.028345645            2 
 1367000    1.0327211   -7.3657085     459.5049  0.028011759  0.028337701            1 
 1368000    1.0487592   -7.3546129    459.43629  0.027987103  0.028329625            3 
 1369000    1.0552437    -7.324797    461.24204  0.028076579  0.028321632            2 
 1370000    1.0365313   -7.3571668    459.59581   0.02795595  0.028313625            1 
 1371000    1.0301181   -7.3427149    461.96356  0.028079477  0.028305558            2 
 1372000    1.0110835   -7.3525541    461.20911  0.028013187  0.028297504            3 
 1373000    1.0265168   -7.3628026     460.6824  0.027960816  0.028289426            2 
 1374000    1.0436533   -7.3919723    459.52662  0.027870367  0.028281329            2 
 1375000    1.0339183   -7.3288012    462.55584  0.028033688  0.028273161            1 
 1376000    1.0202089   -7.3357812    460.19818  0.027870529  0.028265051            3 
 1377000    1.0262787   -7.3353653    460.68485  0.027879742  0.028256962            2 
 1378000    1.0394452   -7.3695978    461.69053  0.027920327  0.028248782            5 
 1379000    1.0158464   -7.3327187    461.74549  0.027903401  0.028240489            2 
 1380000   0.99558594   -7.3259327    461.12236  0.027845553  0.028232185            2 
 1381000    1.0267334   -7.3568222     461.6476  0.027857084  0.028224102            2 
 1382000    1.0338303   -7.3518989      461.659  0.027837615  0.028215885       -1e+20 
 1383000    1.0564809   -7.3286527    462.39638  0.027861917  0.028207803            1 
 1384000    1.0341635   -7.3715874    461.49305  0.027787395  0.028199567            1 
 1385000    1.0237066   -7.3138907    462.55636  0.027831309  0.028191169            1 
 1386000    1.0125164   -7.3668021    461.98202  0.027776697  0.028182961            2 
 1387000    1.0402248   -7.3091222    462.54723  0.027790629  0.028174731            3 
 1388000    1.0183495   -7.3809843    462.76381   0.02778361  0.028166503            1 
 1389000    1.0313676   -7.3457657    463.07411  0.027782224  0.028158185            4 
 1390000    1.0261572   -7.3497271    463.60495  0.027794062  0.028150015            3 
 1391000    1.0472042    -7.342394    463.67467  0.027778257  0.028141785            2 
 1392000     1.016381   -7.3438533    463.49211  0.027747372  0.028133565            2 
 1393000    1.0172745   -7.3544448    464.34764  0.027778633  0.028125403            1 
 1394000    1.0215894   -7.3370223    464.04944   0.02774088  0.028117054            2 
 1395000    1.0409898   -7.3740414    464.75424  0.027763097   0.02810868            1 
 1396000    1.0130718   -7.3642726    463.43385  0.027664389   0.02810033            2 
 1397000    1.0278757    -7.348049    465.77137  0.027784024  0.028092005            3 
 1398000    1.0131296   -7.3576384    466.30832  0.027796156    0.0280837            1 
 1399000    1.0093406   -7.3511915    465.56548   0.02773204  0.028075468            2 
 1400000    1.0347332    -7.314514    466.80062  0.027785751  0.028067192            3 
 1401000    1.0450033    -7.335191    466.10488  0.027724535  0.028059101            2 
 1402000    1.0355217   -7.3931018    466.08375  0.027703504  0.028050874            1 
 1403000    1.0091276    -7.342289    466.80024  0.027726315  0.028042706            2 
 1404000    1.0345974   -7.3582059    467.96494  0.027775697  0.028034502            2 
 1405000    1.0254832   -7.3452405    469.09646   0.02782304  0.028026445            3 
 1406000    1.0294474   -7.3777811    467.11357  0.027685726  0.028018419            1 
 1407000    1.0291132   -7.3744396    467.19828  0.027671066    0.0280103            2 
 1408000    1.0258236   -7.3815112    467.78893  0.027686371  0.028002168            1 
 1409000    1.0295336   -7.3707033     468.4292  0.027704589  0.027994042            3 
 1410000     1.004662   -7.3485736    468.63911  0.027697347  0.027985925            2 
 1411000     1.039167   -7.3651902    469.20275  0.027711006  0.027977866            1 
 1412000    1.0028409   -7.3716212    468.24572  0.027634898  0.027969744            3 
 1413000    1.0161985   -7.3688944    469.24445  0.027674242  0.027961521            2 
 1414000    1.0282915   -7.3684463    469.11425  0.027646998  0.027953426            1 
 1415000    1.0063372   -7.3671471    469.53109  0.027652008  0.027945201            1 
 1416000    1.0370917   -7.3531895    468.77507  0.027587987  0.027937029            2 
 1417000    1.0371459   -7.3926169    468.40485  0.027546745  0.027928756            5 
 1418000     1.022979   -7.3802273    467.20805  0.027456985  0.027920501            1 
 1419000     1.035784   -7.3488646     471.1576  0.027669579   0.02791226            2 
 1420000     1.044517   -7.3496702     470.6824  0.027622207  0.027904015            1 
 1421000    1.0524807   -7.3880156    470.01794  0.027563801  0.027895889            1 
 1422000    1.0406593   -7.3823928     470.6992  0.027584341  0.027887784            1 
 1423000    1.0348617    -7.347083    471.11374  0.027589233  0.027879788            3 
 1424000    1.0385046   -7.3487488    472.38124  0.027644033    0.0278718            4 
 1425000    1.0378174   -7.3797838    470.44758  0.027511554  0.027863796            2 
 1426000    1.0103355   -7.4095288     471.7915  0.027570798  0.027855728            1 
 1427000    1.0149503   -7.3573645    472.42313  0.027588363  0.027847851            5 
 1428000    1.0115079   -7.3892514    472.54153  0.027575953  0.027840099            2 
 1429000    1.0138295   -7.3649801    473.08685  0.027588456    0.0278323            1 
 1430000    1.0055817   -7.3692026     473.2215   0.02757701  0.027824242            1 
 1431000    1.0018645   -7.3950409    473.14655  0.027553374  0.027816331            1 
 1432000    1.0310825    -7.370719    473.01804  0.027526655  0.027808429            1 
 1433000    1.0124893   -7.4183507    472.44863  0.027474333  0.027800439            2 
 1434000     1.009016   -7.4225982    471.52329    0.0274014  0.027792353            3 
 1435000    1.0366268   -7.3545782    473.76267   0.02751235  0.027784296            1 
 1436000   0.99883427   -7.3390033    473.98293  0.027505973   0.02777631            2 
 1437000     1.030411   -7.3742436    473.53766   0.02746101  0.027768269            1 
 1438000    1.0201273   -7.3424877    474.73365  0.027511222  0.027760265            2 
 1439000    1.0205149   -7.4022728    473.45604  0.027418117    0.0277522            1 
 1440000    1.0342178    -7.383368    475.79307  0.027534321   0.02774422            1 
 1441000    1.0038221   -7.3758213    475.41612  0.027493414  0.027736356            2 
 1442000    1.0257844   -7.3425634     475.6931  0.027490355  0.027728466            2 
 1443000    1.0058706   -7.3984289    474.75367  0.027417052  0.027720561            2 
 1444000     1.048806   -7.3535642    476.58137  0.027503542  0.027712655            2 
 1445000    1.0308847   -7.3832937    474.66013   0.02737371  0.027704808            1 
 1446000     1.010222   -7.3901127    475.58097  0.027407847   0.02769691            3 
 1447000    1.0146558   -7.4079676    475.36413  0.027376419  0.027688967            2 
 1448000    1.0046205   -7.3826493     475.8476  0.027385336  0.027681033            1 
 1449000    1.0112059   -7.3553605    479.17286  0.027557675  0.027673281            3 
 1450000    0.9996649   -7.3886222    478.08061  0.027475897  0.027665505            2 
 1451000    1.0149607   -7.3843656    476.41159  0.027361107  0.027657573            1 
 1452000    1.0306028   -7.3666488    477.76173   0.02741975  0.027649868            1 
 1453000    1.0259449   -7.3446927    479.36661  0.027492923   0.02764209            1 
 1454000    1.0161992   -7.3781633    478.03627  0.027397769  0.027634371            1 
 1455000    1.0231176   -7.3739756    478.65815  0.027414556  0.027626662            3 
 1456000    1.0419093   -7.3739231    477.88175  0.027351291  0.027618946            1 
 1457000    1.0161063   -7.4112026    478.28224  0.027355424  0.027611069            1 
 1458000    1.0142634   -7.3330385    478.26988  0.027335956  0.027603274            3 
 1459000    1.0375888   -7.3691259    478.50229  0.027330494  0.027595397            2 
 1460000    1.0216148   -7.3604811    479.01011   0.02734076  0.027587455            2 
 1461000    1.0123986   -7.4251692    477.14741    0.0272158  0.027579483            2 
 1462000    1.0187862   -7.3551433    479.20387  0.027314402  0.027571379            2 
 1463000    1.0395092   -7.3936702    479.45143  0.027309833  0.027563413            2 
 1464000    1.0257657   -7.3959894    478.57756  0.027241436  0.027555511            2 
 1465000    1.0276058   -7.4011284    479.15052  0.027255433  0.027547657            3 
 1466000    1.0241274   -7.3726758    480.44766  0.027310577  0.027539873            1 
 1467000    1.0242706   -7.3889305    479.06334  0.027213323  0.027531894            4 
 1468000    1.0147891   -7.4095116    479.69199  0.027230471  0.027523971            1 
 1469000    1.0029991   -7.3844077    480.76646  0.027272888  0.027516125            2 
 1470000    1.0304838    -7.383357    482.11647  0.027330865  0.027508255            2 
 1471000    1.0313428   -7.3695924    482.10873  0.027311848  0.027500372            4 
 1472000    1.0112888   -7.3302326     482.6643  0.027324745  0.027492482            2 
 1473000    1.0013747   -7.4384075    480.79877  0.027200654  0.027484646            1 
 1474000    1.0172614   -7.3826695    481.83736  0.027240918  0.027476786            1 
 1475000    1.0145775   -7.3766183    482.11647  0.027238219  0.027469028            2 
 1476000    1.0155386   -7.3915596    483.39289   0.02729183  0.027461279            3 
 1477000    1.0163799   -7.3735439    482.40643  0.027217695   0.02745354            5 
 1478000    1.0107857   -7.3646538    482.57136  0.027208579   0.02744578            4 
 1479000    1.0056639   -7.3894832    484.00003   0.02727068  0.027437975            3 
 1480000    1.0278347   -7.3695536    484.14122  0.027260204  0.027430291            6 
 1481000    1.0208206   -7.4195472    483.50418  0.027205952  0.027422522            1 
 1482000     1.019377   -7.3432509    483.80752  0.027204652  0.027414645            3 
 1483000    1.0484543   -7.3829641    484.05753  0.027200356  0.027406945            2 
 1484000    1.0336094   -7.3807411    484.36486  0.027199285   0.02739915            1 
 1485000    1.0292984   -7.4162536    484.63982  0.027196398  0.027391502            2 
 1486000    1.0230596   -7.3889718    483.59899  0.027119728   0.02738373            2 
 1487000   0.98201058   -7.3507641    485.48706    0.0272073  0.027375986            2 
 1488000    1.0082118    -7.396847    485.21946  0.027174029  0.027368243            2 
 1489000    1.0200836   -7.4151955    485.76601  0.027186367   0.02736067            2 
 1490000    1.0365991   -7.3875824    486.50427  0.027209411  0.027353109            1 
 1491000    1.0090162   -7.4003197    486.24357  0.027176591  0.027345496            4 
 1492000    1.0295712   -7.3812181    486.19481  0.027155653   0.02733796            2 
 1493000    1.0324172   -7.3991138    484.70918  0.027054542  0.027330461            2 
 1494000    1.0098123   -7.4180231    484.76301  0.027039436   0.02732289            2 
 1495000    1.0114414   -7.4069398    488.84947  0.027249134  0.027315363            2 
 1496000    1.0092615   -7.3730586    488.64308  0.027219423  0.027307902            2 
 1497000    1.0169001   -7.4171067    487.20797  0.027121352   0.02730048            2 
 1498000    1.0122398   -7.4058352     488.1091  0.027153377  0.027293141            3 
 1499000     1.018295   -7.4211079    488.59053  0.027162026  0.027285761            2 
 1500000    1.0106228   -7.3925387    488.48223  0.027137902  0.027278213            1 
 1501000    1.0004806   -7.4314954    488.99086   0.02714806  0.027270843            3 
 1502000   0.99976859   -7.3938125    490.90469  0.027236168  0.027263504            1 
 1503000   0.98128074   -7.4046911     488.2165  0.027069001  0.027256155            1 
 1504000    1.0023363    -7.378464    490.57023  0.027181418  0.027248863            1 
 1505000    1.0199124   -7.4000052    490.95713   0.02718478  0.027241558            1 
 1506000   0.99251617    -7.428422    490.36182  0.027133788  0.027234116            4 
 1507000    1.0127137   -7.4342041    489.65854  0.027076894  0.027226796            2 
 1508000    1.0180213   -7.3838955    491.87346  0.027181336  0.027219435            4 
 1509000    1.0073559   -7.4118901    491.23273   0.02712794  0.027212202            1 
 1510000    1.0155026   -7.4059166    491.65339  0.027133189  0.027205138            3 
 1511000    1.0096347   -7.3869743    492.81729  0.027179423  0.027198078            2 
 1512000    1.0295538    -7.404817    493.32289  0.027189313  0.027190999            3 
 1513000    1.0139942   -7.3940855    492.63395  0.027133397  0.027183977            2 
 1514000    1.0178699    -7.432259    492.07718  0.027084829  0.027176859            1 
 1515000    1.0172329   -7.4118266    493.08981  0.027122652  0.027169729            1 
 1516000   0.98733203   -7.3964787    494.76555  0.027196875    0.0271628            1 
 1517000    1.0001958   -7.4065835    493.26977  0.027096779  0.027155785            1 
 1518000   0.99968154    -7.409727    493.45314  0.027088995  0.027148852            2 
 1519000    1.0182047   -7.3979784    494.23782   0.02711421  0.027141845            2 
 1520000     1.030255   -7.4049459    494.47895  0.027109592   0.02713497            2 
 1521000   0.99510583   -7.3896663    495.18131  0.027130249    0.0271281            2 
 1522000    1.0192897   -7.4322472      495.574  0.027133924  0.027121305            3 
 1523000    1.0011108    -7.394127    494.73062  0.027069962  0.027114553            1 
 1524000    1.0323347   -7.3877947    496.99245  0.027175878  0.027107816            2 
 1525000    1.0007616   -7.4058697    496.59291  0.027136225  0.027100966            3 
 1526000   0.98875973   -7.4143263    495.56968  0.027062565  0.027094019            2 
 1527000    1.0098772   -7.4031856    496.84008  0.027114171  0.027087005            2 
 1528000     1.033056    -7.391653    496.34554  0.027069456  0.027080057            3 
 1529000    1.0176079   -7.3981921    496.19896  0.027043763  0.027073185            3 
 1530000   0.99279428   -7.3697046    496.67895   0.02705223  0.027066427            1 
 1531000    1.0121254   -7.4266271    497.74744  0.027092719  0.027059689            2 
 1532000    1.0081836   -7.4201901    497.11746  0.027040767  0.027052829            2 
 1533000   0.99921881   -7.4431696     497.1106  0.027022755  0.027045843            2 
 1534000   0.98632459   -7.4360369    495.37778  0.026911005  0.027038719            2 
 1535000    1.0048332   -7.4165124    496.67582  0.026963942  0.027031595            2 
 1536000    1.0092126   -7.4448582    497.37237  0.026984178   0.02702451            2 
 1537000    1.0019291   -7.4421818     497.1303  0.026953497  0.027017479            2 
 1538000    1.0225159   -7.4203326      497.547   0.02695855  0.027010459            2 
 1539000   0.99525625   -7.4174647    497.35688  0.026930739  0.027003409            1 
 1540000    1.0045156   -7.4041363    498.70747  0.026986335  0.026996364            4 
 1541000   0.98159878    -7.415948    498.68795  0.026967767  0.026989322            2 
 1542000    1.0005748   -7.4193046     497.8561  0.026905323  0.026982224            1 
 1543000    1.0046622   -7.4543978    496.78933  0.026830273  0.026975026            3 
 1544000   0.99308799     -7.43271    498.07287  0.026882171  0.026967835            1 
 1545000    1.0134539   -7.4324093    498.70352  0.026898787   0.02696077            1 
 1546000   0.98486528    -7.368932    498.87994  0.026890898    0.0269536            1 
 1547000    1.0000421   -7.3992666    500.00063  0.026933884  0.026946497            2 
 1548000    1.0193165   -7.4135602    499.21653  0.026874275  0.026939343            1 
 1549000      1.00153   -7.4146026    499.35464  0.026864355  0.026932086            3 
 1550000   0.98857133   -7.4168964    498.82583  0.026818593  0.026924872            2 
 1551000    1.0088185     -7.42427    500.18291  0.026874216   0.02691775            1 
 1552000    1.0028138   -7.4116797    499.88769  0.026841049  0.026910553            1 
 1553000   0.99700998   -7.4179402    500.44799  0.026853831  0.026903505            1 
 1554000   0.98420342    -7.433494    499.23742  0.026771634  0.026896319            1 
 1555000   0.99151112   -7.4110527     499.9887  0.026794679  0.026889136            2 
 1556000    1.0347571   -7.4250548    500.45296  0.026802322  0.026881934            3 
 1557000    1.0048473   -7.3814251    500.51909  0.026788647  0.026874703            3 
 1558000   0.99492078    -7.410439    500.18495  0.026753581  0.026867467            1 
 1559000    1.0025783   -7.3799384     501.2829  0.026795109  0.026860274            1 
 1560000    1.0004689   -7.3905908    500.51594  0.026736963  0.026853066            2 
 1561000    1.0279232   -7.4254886    500.10996  0.026698162  0.026845813            2 
 1562000   0.99367746   -7.3676954    501.43955  0.026752003  0.026838611            1 
 1563000    1.0059795   -7.4298726    501.27935  0.026726346  0.026831445            1 
 1564000   0.99794176   -7.4190405    502.59404  0.026779308  0.026824155            2 
 1565000    1.0392019   -7.4556699    500.60713  0.026656397  0.026816924            2 
 1566000    1.0112607   -7.4525701    501.38806  0.026680931  0.026809647            3 
 1567000   0.99112462   -7.3891842    503.48154  0.026775236  0.026802484            1 
 1568000    0.9870431   -7.4207501    502.36876   0.02669902  0.026795378            4 
 1569000    1.0028812   -7.4471336    503.82992  0.026759609  0.026788217            2 
 1570000    1.0149716   -7.4438232    502.93267   0.02669494  0.026781033            1 
 1571000   0.98503799   -7.4017539       503.39  0.026702207  0.026773804            2 
 1572000   0.98968653   -7.3806914    503.94859  0.026714832  0.026766538            1 
 1573000   0.98926956   -7.4720092    503.07038  0.026651323  0.026759372            1 
 1574000    1.0048655   -7.4220732    504.24184  0.026696412  0.026752239            1 
 1575000    1.0017493   -7.4641026    504.10436  0.026672188  0.026745035            1 
 1576000    1.0024108   -7.4277363    505.16641  0.026711422  0.026737838            1 
 1577000    1.0155979   -7.4164615     505.2282  0.026697749  0.026730614            1 
 1578000    1.0039473   -7.4510489    505.38139   0.02668892  0.026723407            1 
 1579000    1.0051241   -7.4144217    505.29264  0.026667334   0.02671617            2 
 1580000    0.9808719   -7.4321626    505.42639   0.02665751  0.026709018            3 
 1581000   0.98158624   -7.4620594    504.02183  0.026566616  0.026701784            3 
 1582000   0.99105817   -7.3951233    506.19915  0.026664515  0.026694569            1 
 1583000   0.99228662   -7.4308965    504.51273  0.026558893  0.026687455            2 
 1584000    1.0007175   -7.4368238    505.69305  0.026604222  0.026680172            2 
 1585000    0.9862128   -7.3856424    507.69652  0.026692772  0.026672922            2 
 1586000   0.99831002   -7.4317811    506.90536  0.026634372  0.026665724            1 
 1587000    1.0079061   -7.3963669    507.08987  0.026627277  0.026658452            1 
 1588000   0.99502615   -7.4151184     507.5355  0.026633895  0.026651248            1 
 1589000    0.9903016   -7.4308706    506.49388  0.026562507  0.026644052            3 
 1590000    1.0247482   -7.4062308    507.56971  0.026602186  0.026636886            2 
 1591000    1.0152698   -7.4242095    506.76236  0.026543178  0.026629786            3 
 1592000   0.99090908   -7.4562681    506.16934  0.026495464  0.026622536            1 
 1593000    1.0005686     -7.40739    508.31662   0.02659116  0.026615355            1 
 1594000    1.0022813   -7.4646858    506.61711  0.026485629   0.02660821            3 
 1595000   0.98589546    -7.455143    508.14639  0.026548923  0.026600969            2 
 1596000   0.99552857   -7.4580797    507.64579   0.02650615  0.026593666            2 
 1597000   0.97945547   -7.4566724    506.50174  0.026429855  0.026586352            2 
 1598000    1.0204528   -7.4297522    508.01532  0.026492247  0.026579056            1 
 1599000     1.010316   -7.4656187    507.76945  0.026462865  0.026571849            2 
 1600000   0.99133233   -7.4333464    509.22338  0.026522051  0.026564736            2 
 1601000   0.97373636   -7.4339343    508.57468   0.02647172  0.026557574            1 
 1602000    1.0086227   -7.4353592    509.71451  0.026514488   0.02655045       -1e+20 
 1603000   0.99484046   -7.4152836    511.52072  0.026591844  0.026543342            3 
 1604000   0.98292726   -7.4178533    510.04633  0.026498666  0.026536263            1 
 1605000   0.98961129    -7.421802     509.2923  0.026443006   0.02652927            3 
 1606000   0.98731542   -7.4369425    509.82778  0.026454326   0.02652233            1 
 1607000    0.9920709   -7.4294028     511.7558  0.026537845  0.026515353            1 
 1608000   0.99228523   -7.4427223    512.24995   0.02654695  0.026508368            2 
 1609000   0.98674681   -7.4768102    510.95888  0.026463584  0.026501335            3 
 1610000   0.99944401   -7.4779899    510.50622  0.026423717  0.026494275            1 
 1611000    1.0082362   -7.4284107    513.30478  0.026552078  0.026487177            4 
 1612000   0.97835065   -7.4397027     510.6283  0.026397245  0.026480257            1 
 1613000    1.0161055   -7.4137054     512.7549  0.026490747  0.026473248            2 
 1614000   0.99882789   -7.4125298    513.00228  0.026487107  0.026466262            2 
 1615000   0.99338503   -7.4323053    512.57671  0.026448747  0.026459371            1 
 1616000   0.98564527    -7.440056    513.53389  0.026481739  0.026452369            2 
 1617000   0.99273283   -7.4298447    513.61646  0.026469617   0.02644533            3 
 1618000   0.98363485   -7.4426114    513.19204  0.026431399  0.026438252            2 
 1619000   0.99655737   -7.4219935    513.62564  0.026437391  0.026431234            2 
 1620000     1.000954   -7.4404976    514.12617  0.026446819  0.026424351            3 
 1621000    0.9748515   -7.4524026    514.70427  0.026460224  0.026417414            2 
 1622000   0.99592403   -7.4218437    515.66779  0.026493413  0.026410581            3 
 1623000   0.98656765   -7.4403271    513.46361  0.026363915   0.02640377            2 
 1624000    1.0076048   -7.4334531    515.79322  0.026467222  0.026396885            2 
 1625000   0.99288566   -7.4563225    514.84607  0.026402362  0.026389998            2 
 1626000   0.99162285   -7.4470717    515.44394  0.026416766   0.02638322            1 
 1627000    1.0116737    -7.443844    515.37855  0.026397181  0.026376421            1 
 1628000   0.99918612    -7.405597    517.36891  0.026482847  0.026369707            2 
 1629000   0.99626981   -7.4422795    516.57244  0.026425846   0.02636315            2 
 1630000    0.9928599   -7.4207678    515.77462  0.026368846  0.026356429            2 
 1631000    1.0150472   -7.4650506    515.78954   0.02635344  0.026349721            1 
 1632000   0.97896499    -7.424149    518.03533  0.026451968  0.026342965            2 
 1633000   0.98110489   -7.3969946    518.38386  0.026453555  0.026336188            2 
 1634000   0.99555765   -7.4046885    517.25187  0.026379634  0.026329522            2 
 1635000    0.9957904   -7.4568372    517.10428  0.026355978  0.026322848            2 
 1636000    1.0237787   -7.4323313    518.56824  0.026414438  0.026316195            2 
 1637000    1.0080515   -7.4329973    520.71506  0.026507588  0.026309544            1 
 1638000    1.0110332    -7.463225    518.19365  0.026363128   0.02630297            1 
 1639000   0.98567326    -7.440659    519.35625  0.026406155  0.026296454            5 
 1640000   0.99270979   -7.4040994    519.76058  0.026410598  0.026289908            4 
 1641000    1.0123922   -7.4357294    519.25403  0.026368781  0.026283323            2 
 1642000    0.9982843   -7.4479207    518.60728  0.026319898  0.026276648            3 
 1643000   0.98480587   -7.4703568    518.21096  0.026283778  0.026269961            3 
 1644000   0.99067931   -7.4680225    519.38601  0.026327353   0.02626328            2 
 1645000   0.98320748   -7.4418024    519.93659   0.02633924  0.026256577            3 
 1646000    1.0157615   -7.4665518    520.13177  0.026333119  0.026249807            2 
 1647000   0.96858373   -7.4385256    519.78622  0.026299647  0.026243064            1 
 1648000   0.96689538    -7.469031    519.88402  0.026288634   0.02623639            2 
 1649000   0.98427359   -7.4399545    519.66931  0.026261841  0.026229733            1 
 1650000   0.97110361   -7.4136714    522.92073  0.026410138  0.026223063            1 
 1651000   0.96945397   -7.4401914    521.18047  0.026306303  0.026216404            3 
 1652000   0.96849116   -7.4691613    520.73708  0.026268012  0.026209739            2 
 1653000   0.97873192   -7.4116575    522.73132  0.026352658  0.026203054            4 
 1654000    0.9921147   -7.4654588    521.09654   0.02625436  0.026196401            2 
 1655000   0.98162997   -7.4821073    520.22828  0.026194778  0.026189651            2 
 1656000   0.98633609   -7.4843008    521.21439  0.026228582  0.026182813            2 
 1657000   0.97857242   -7.4372355    522.23923  0.026264294  0.026176071            3 
 1658000    1.0023577   -7.4300312    523.29866  0.026301702  0.026169371            2 
 1659000   0.98354515   -7.4774763    522.35745   0.02623857  0.026162646            1 
 1660000   0.97989387    -7.415743    523.66876  0.026288592  0.026156039            1 
 1661000   0.97406714    -7.439103    522.96722  0.026237569  0.026149418            3 
 1662000   0.99149842   -7.4555046     523.9417  0.026270643  0.026142724            1 
 1663000    1.0003399   -7.4543651    522.21852  0.026168497  0.026135916            1 
 1664000   0.94288486   -7.4660905    523.65187  0.026224553  0.026129188            6 
 1665000   0.98047464   -7.4633874    522.18645  0.026135458  0.026122412            4 
 1666000   0.99198666   -7.4874168    522.27941   0.02612442  0.026115602            1 
 1667000   0.99116679   -7.4664466    523.06192  0.026147867  0.026108826            1 
 1668000    1.0085963    -7.428389    524.14955  0.026186529  0.026102114            3 
 1669000   0.99013928   -7.4534646    523.62242  0.026144519  0.026095462            2 
 1670000   0.98399522   -7.4346162    523.09697  0.026102643  0.026088838            2 
 1671000   0.98716988   -7.4611457    524.90629  0.026177254  0.026082149            2 
 1672000    0.9839317    -7.454783    523.63798  0.026098384  0.026075481            2 
 1673000   0.97342858   -7.4754151    525.52001   0.02617653   0.02606869            2 
 1674000   0.96958158     -7.48778    524.29997  0.026100158  0.026061933            2 
 1675000   0.99618207   -7.4819582    525.15052  0.026126892  0.026055204            2 
 1676000   0.99201732   -7.4695719    523.71408   0.02603988   0.02604845            2 
 1677000   0.99767742    -7.468789    524.86116  0.026081354  0.026041798            2 
 1678000   0.96209304   -7.4737937     524.5355  0.026049637   0.02603513            2 
 1679000    0.9781271   -7.4291616     527.6012  0.026186281  0.026028576            3 
 1680000   0.97586194   -7.4769794    525.96982  0.026089773  0.026022009            1 
 1681000    1.0033245   -7.4369197    526.03215  0.026077343  0.026015272            1 
 1682000   0.98387491   -7.4482548    526.30812  0.026075511  0.026008681            2 
 1683000   0.97107487   -7.4948145     526.4954  0.026069291  0.026002043            1 
 1684000   0.98315063   -7.4907281     527.4633  0.026101707  0.025995386            1 
 1685000    0.9970018    -7.445326     527.5281  0.026089421  0.025988936            2 
 1686000   0.98461896   -7.4583942    528.18958  0.026106642  0.025982518            3 
 1687000   0.96381327   -7.4768697     527.3251  0.026048464  0.025975983            1 
 1688000   0.98929443   -7.4252715    529.77849  0.026154152  0.025969576            2 
 1689000    0.9690792   -7.4491237    529.40944  0.026120458  0.025963269            1 
 1690000   0.97556786   -7.4441204    530.02286  0.026135249  0.025956853            2 
 1691000   0.99050443   -7.4675992    530.23209  0.026130105  0.025950462            2 
 1692000   0.97583782   -7.4668878    531.17818  0.026161258  0.025944128            2 
 1693000   0.99700144   -7.4364823    531.65177  0.026169116   0.02593791            2 
 1694000   0.98939178    -7.449094    531.48486  0.026145457  0.025931681            2 
 1695000   0.96815597   -7.5126483    528.93302  0.026004573  0.025925373            4 
 1696000   0.96231175   -7.4347261      531.584  0.026119497  0.025919162            3 
 1697000   0.99900003   -7.4936764    530.71527  0.026061445  0.025912934            2 
 1698000   0.98534453   -7.5091767    530.79234  0.026049879  0.025906569            1 
 1699000   0.97611198   -7.4929325     531.0566  0.026047508   0.02590018            2 
 1700000   0.97513266   -7.4799209    533.49047  0.026151494   0.02589385            3 
 1701000   0.95821577   -7.4683577    533.21704  0.026122724  0.025887614            2 
 1702000   0.97063768   -7.4757389    532.01095  0.026048323  0.025881366            1 
 1703000   0.98420541   -7.4738492    532.76274  0.026069815  0.025875157            2 
 1704000   0.99009497   -7.4725139    533.39426    0.0260854   0.02586886            5 
 1705000   0.96907493   -7.4973335    532.71361  0.026036833  0.025862529            2 
 1706000   0.97402799   -7.4908166    531.76604  0.025975285  0.025856155            2 
 1707000   0.95116349   -7.4757713    532.94361  0.026017556   0.02584984            4 
 1708000   0.97373606   -7.4516498    534.98159  0.026101756  0.025843583            2 
 1709000   0.97645107   -7.4386451    533.65388  0.026021742  0.025837312            1 
 1710000   0.97603838   -7.4502256    534.21841  0.026034035  0.025831054            4 
 1711000   0.97131014   -7.5067525    532.27441  0.025924139  0.025824678            2 
 1712000   0.99354983    -7.471732     536.4028  0.026109949  0.025818375            2 
 1713000   0.97780953   -7.4530118    533.85998  0.025971005  0.025812121            1 
 1714000    0.9687094   -7.4622613    535.29572  0.026025658  0.025805877            1 
 1715000   0.97957188   -7.4932638    534.27903   0.02596108  0.025799587            3 
 1716000   0.98282625   -7.4755709    533.18404  0.025892776  0.025793136            2 
 1717000   0.98024977   -7.4694542    534.19981  0.025926995   0.02578678            2 
 1718000   0.97742955   -7.4622564     535.9973  0.025999093  0.025780514            1 
 1719000   0.98115629   -7.4936386    534.59977  0.025916219  0.025774134            4 
 1720000   0.98174071   -7.4466868    535.46413   0.02594303  0.025767861            2 
 1721000   0.97596291   -7.4508609    536.05691  0.025956659    0.0257616            3 
 1722000   0.97338943   -7.4374112    535.68003  0.025923346  0.025755422            2 
 1723000   0.97347517   -7.4381349    536.21763  0.025934302  0.025749232            1 
 1724000   0.96276981   -7.4958281    535.72239  0.025895321  0.025742965            2 
 1725000   0.96719098   -7.4760743    537.72618   0.02597711  0.025736704            2 
 1726000   0.97580681   -7.4561528    536.70426   0.02591272  0.025730477            1 
 1727000   0.95412548   -7.4948083    536.86125  0.025905291  0.025724166            1 
 1728000   0.98707397   -7.4784773    536.84202  0.025889372  0.025717815            4 
 1729000   0.99076825   -7.4655838    538.00837  0.025930613  0.025711489            1 
 1730000   0.98585044   -7.4668242    537.06304  0.025870089  0.025705181            2 
 1731000   0.96504046   -7.5044864    536.04303  0.025806038   0.02569881            2 
 1732000    0.9574197   -7.5076454    536.06332  0.025792115  0.025692412            2 
 1733000   0.98923654   -7.4663789    538.85288  0.025911371   0.02568611            1 
 1734000   0.97746124   -7.4594311    537.92821   0.02585199  0.025679782            1 
 1735000   0.95529447   -7.4767853     537.8421  0.025832954  0.025673467            1 
 1736000   0.93992681   -7.4772132     536.7729  0.025766748  0.025667078            1 
 1737000   0.98954174   -7.5098196    537.63229  0.025793144   0.02566072            3 
 1738000    0.9645363   -7.4442718    538.59426  0.025824428  0.025654299            2 
 1739000   0.96954908   -7.4857802    537.88917  0.025775789  0.025647927            1 
 1740000   0.96914908   -7.4845988    538.72218  0.025800871  0.025641479            3 
 1741000   0.97198443   -7.4853895    538.18743  0.025760455  0.025634991            2 
 1742000   0.95827527   -7.4733926     539.3407  0.025800837  0.025628552            4 
 1743000   0.98496351   -7.4726868    539.21071   0.02577982  0.025622117            1 
 1744000   0.98822878   -7.4733572    539.20776  0.025764897  0.025615757            2 
 1745000   0.98125749   -7.4569249    540.74294  0.025823445  0.025609426            2 
 1746000   0.98129423   -7.4777461    539.71737  0.025759707  0.025603072            3 
 1747000   0.97312471   -7.4971961    538.91133  0.025706513  0.025596616            3 
 1748000   0.97175737   -7.4511989    539.66084  0.025727538  0.025590196            4 
 1749000   0.95490044   -7.4996016    538.84271  0.025673847  0.025583708            1 
 1750000    0.9571728   -7.4987437     539.5571  0.025693195   0.02557725            5 
 1751000   0.96853769   -7.4981314    539.49534  0.025675582  0.025570679            3 
 1752000   0.97854799   -7.5002094    539.62203  0.025666953  0.025564147            3 
 1753000   0.97523711   -7.4776692    539.93229  0.025667061  0.025557608            2 
 1754000   0.96049189   -7.5057961     539.8049  0.025646375  0.025551068            2 
 1755000   0.98854548   -7.4983697    539.14197  0.025600283   0.02554457            1 
 1756000   0.97120391   -7.4960755    541.21949  0.025684296  0.025537983            3 
 1757000   0.97327582   -7.4685501    541.18615  0.025668096  0.025531355            1 
 1758000   0.96908912   -7.5453921    539.04631  0.025552062  0.025524732            3 
 1759000   0.99803797   -7.4881731    539.82824   0.02557458  0.025518119            2 
 1760000   0.98065477    -7.465124    541.06107  0.025618422  0.025511559            2 
 1761000   0.95536636   -7.4706681     540.7561  0.025589442  0.025505072            1 
 1762000   0.97149386   -7.4881609      540.821  0.025577989  0.025498467            2 
 1763000   0.97855592   -7.4723542    540.86762  0.025565685  0.025491929            1 
 1764000   0.96103933   -7.5051215    541.00224  0.025557551  0.025485282            2 
 1765000   0.96376844   -7.4999079    541.13267  0.025549229  0.025478713            2 
 1766000   0.96116438   -7.5447127    540.42243  0.025501247  0.025472119            2 
 1767000   0.98390246   -7.4840261    541.57825  0.025541325  0.025465475            3 
 1768000    0.9763616   -7.5482234    540.97658  0.025498519  0.025458784            3 
 1769000   0.96468464   -7.5071895    541.60678  0.025513792  0.025452056            2 
 1770000   0.98129144   -7.4820892    542.00884  0.025518307  0.025445463            2 
 1771000   0.98253948   -7.5120033     541.8436  0.025496123  0.025438787            1 
 1772000   0.98704257    -7.478528    542.44727  0.025510124  0.025432134            1 
 1773000   0.95741235   -7.5239564    541.70165   0.02546069  0.025425431            2 
 1774000   0.96001124   -7.4861054    544.70323  0.025587337   0.02541868            4 
 1775000   0.96752113    -7.467097    541.53495  0.025424176  0.025411922            4 
 1776000   0.96627333    -7.484199    541.79809  0.025422207   0.02540511            2 
 1777000   0.97636241   -7.4981809    542.46033  0.025438957  0.025398366            2 
 1778000   0.96908166   -7.5194526     541.9557  0.025400999  0.025391586            2 
 1779000   0.94526439   -7.5012735    542.53813  0.025414003  0.025384768            1 
 1780000   0.96786244   -7.4662603    542.68554  0.025406627  0.025377953            1 
 1781000   0.97009825     -7.49877    543.88563  0.025448514   0.02537121            3 
 1782000   0.94709075   -7.4704324    542.99396  0.025392535  0.025364466            5 
 1783000   0.96842876   -7.4601512    545.37066  0.025489374  0.025357798            1 
 1784000   0.96203426   -7.4980435     541.4842  0.025293544  0.025351017            2 
 1785000    0.9463015   -7.4949878    543.07127  0.025353467  0.025344211            1 
 1786000    0.9652365   -7.5473035    542.88654  0.025330652  0.025337342            2 
 1787000    0.9515666   -7.5302308    542.98207  0.025320932  0.025330483            2 
 1788000   0.94902106   -7.5131701    542.37081  0.025278281  0.025323649            3 
 1789000   0.99349805   -7.4725256    542.57949  0.025273872  0.025316723            1 
 1790000   0.97099363   -7.5184019    544.46004  0.025347302  0.025309881            1 
 1791000   0.96792035   -7.5404467      544.473  0.025333752  0.025303009            3 
 1792000   0.96287542   -7.4902992    546.26992  0.025403177  0.025296232            1 
 1793000   0.96737256   -7.5471772    543.50342   0.02526043  0.025289466            2 
 1794000    0.9879881   -7.5391205    544.26522  0.025281736  0.025282656            3 
 1795000   0.95523676   -7.5115626    544.74857  0.025290091  0.025275765            3 
 1796000   0.96761984   -7.5243331    545.76484  0.025323165  0.025268885            1 
 1797000   0.95140543   -7.5253871    545.84104  0.025312606  0.025262032            1 
 1798000   0.97255921   -7.5159871    544.74094  0.025247541  0.025255261            4 
 1799000   0.97473391   -7.5288314    545.37621  0.025262933  0.025248478            6 
 1800000   0.96524161   -7.5053824    544.36448  0.025202059  0.025241735            2 
 1801000   0.97403869   -7.4980935    546.47993  0.025285949  0.025234897            2 
 1802000   0.98204035   -7.5523633    544.62082  0.025185942  0.025228097            2 
 1803000   0.95338459   -7.4987956    546.00186  0.025235804  0.025221276            2 
 1804000   0.94986868    -7.488773    546.06036  0.025224518  0.025214455            1 
 1805000   0.95699638   -7.5306423    545.61318  0.025189897  0.025207585            1 
 1806000   0.97533473   -7.4998901    547.67036  0.025270873   0.02520071            1 
 1807000   0.94789213   -7.4994871    546.21231  0.025189647   0.02519384            2 
 1808000   0.98151083   -7.4952023    547.44615  0.025232584  0.025186919            1 
 1809000   0.97250492   -7.5464922    545.99198  0.025151648  0.025179955            2 
 1810000   0.97245797   -7.4962738    545.59679  0.025119558   0.02517295            2 
 1811000   0.94161725   -7.4903549    547.67303  0.025201226  0.025166113            3 
 1812000   0.95545939    -7.542988    547.46425  0.025177716   0.02515919            1 
 1813000   0.96710335    -7.528691     546.5381  0.025121258  0.025152307            1 
 1814000   0.94776373   -7.5113637    548.24788  0.025185955  0.025145473            3 
 1815000   0.96497706   -7.5348066    547.74841  0.025149147  0.025138588            3 
 1816000    0.9535987   -7.5246984     547.7246  0.025134205  0.025131666            1 
 1817000   0.94305892   -7.4858352      549.218  0.025188864  0.025124765            4 
 1818000   0.96484159   -7.5113537    548.56256  0.025144965  0.025117846            3 
 1819000   0.94341439   -7.5032026    547.96695  0.025103855  0.025110936            2 
 1820000   0.94397704   -7.5561168    547.56116  0.025071482  0.025104035            2 
 1821000   0.96189084   -7.5002362    549.40996  0.025142319  0.025097163            3 
 1822000    0.9425052   -7.5023629    548.52138  0.025087879  0.025090233            1 
 1823000   0.95191037   -7.5319722    549.28841   0.02510918  0.025083371            2 
 1824000   0.97861457   -7.5018569    550.40799  0.025146564  0.025076597            3 
 1825000   0.94315411   -7.5115419    550.13312  0.025120234  0.025069793            3 
 1826000   0.93993212   -7.5079911    548.64727  0.025038667  0.025062964            1 
 1827000    0.9677022   -7.4925178    551.01481  0.025132951  0.025056172            3 
 1828000   0.95476651   -7.5219076     548.6284  0.025010412  0.025049299            2 
 1829000   0.95871295   -7.5133695    550.80993  0.025096133  0.025042392            1 
 1830000    0.9487822   -7.5393836    549.52524  0.025023918  0.025035537            2 
 1831000   0.96040856   -7.5071531    550.32838  0.025046804  0.025028731            2 
 1832000   0.95654432   -7.5233348     551.5019  0.025086513  0.025021909            3 
 1833000   0.97126889   -7.4989189    550.81616  0.025041651  0.025015075            3 
 1834000   0.96535073   -7.4812305    551.77617  0.025071618  0.025008292            3 
 1835000   0.96167102   -7.5287684     551.4082  0.025041244  0.025001488            2 
 1836000   0.97568869    -7.491541    552.64889  0.025083918  0.024994705            2 
 1837000   0.95865345   -7.5424262    550.90102  0.024990973  0.024987874            2 
 1838000    0.9624609   -7.5398861    550.60827  0.024964104  0.024981064            1 
 1839000   0.94275285   -7.5124312    551.97623  0.025012517  0.024974319            1 
 1840000   0.97082845   -7.5192109    551.35304  0.024970699  0.024967479            2 
 1841000   0.97795131   -7.5338627    552.78154  0.025021797  0.024960697            2 
 1842000   0.95665555   -7.5485568    551.04527  0.024929663  0.024953952            2 
 1843000   0.97082332   -7.5499994    551.79439  0.024950008  0.024947204            1 
 1844000   0.97184403   -7.5342761    553.38509  0.025008365  0.024940417            1 
 1845000   0.95748508   -7.5157248    553.81071  0.025014034  0.024933546            2 
 1846000   0.96222989      -7.4739    554.19763   0.02501795  0.024926827            3 
 1847000   0.97499392   -7.5100341    553.06844  0.024953458  0.024920003            3 
 1848000   0.94309531   -7.5120463    551.01135  0.024847193  0.024913162            2 
 1849000   0.95596136    -7.521118    553.34705  0.024939023  0.024906328            1 
 1850000   0.94504376   -7.5342186    551.89363  0.024860073  0.024899408            2 
 1851000   0.96427628   -7.5348984    552.76207  0.024885741  0.024892556            2 
 1852000   0.95201908   -7.5039882    553.96901  0.024926612  0.024885718            2 
 1853000   0.96603052   -7.5231976    554.91081  0.024955514  0.024878891            4 
 1854000   0.97252471   -7.5052253    553.12675  0.024861864  0.024872045            2 
 1855000   0.95161086   -7.5300347    553.99205  0.024887334  0.024865169            3 
 1856000   0.94353754   -7.5609567    552.43494  0.024804011  0.024858326            3 
 1857000   0.97152456    -7.529683    553.25724  0.024827555  0.024851507            2 
 1858000   0.95247546   -7.5318007    554.64019   0.02487622  0.024844606            3 
 1859000   0.94133028   -7.5483168    553.65625  0.024818731  0.024837687            2 
 1860000   0.92668184   -7.5460359    553.98952  0.024820319  0.024830824            3 
 1861000   0.95661775   -7.5391454    553.97594  0.024806374  0.024823969            2 
 1862000   0.94873906   -7.5045933    554.02446  0.024795223  0.024817127            1 
 1863000   0.94245469   -7.5409845    554.86438  0.024819484  0.024810305            2 
 1864000    0.9451709   -7.5162987     554.5861  0.024793728  0.024803452            1 
 1865000   0.95854522   -7.5310666    555.18052  0.024806994   0.02479659            1 
 1866000   0.95872075   -7.5359688    556.14125  0.024836604  0.024789798            3 
 1867000   0.95310097   -7.4965027    556.27112  0.024829098  0.024782954            1 
 1868000   0.94702347    -7.556251    556.36117  0.024819824  0.024776096            2 
 1869000   0.95295257   -7.5251923    555.52779  0.024769386  0.024769253            1 
 1870000   0.96383031   -7.5498409    555.16368  0.024739914  0.024762329            2 
 1871000   0.96359337   -7.5069749    556.07562  0.024767309   0.02475544            1 
 1872000    0.9498031   -7.5302014    557.06727  0.024798223   0.02474851            1 
 1873000   0.92853693   -7.5384136    556.44002  0.024757075  0.024741592            2 
 1874000   0.94214187   -7.5015986    556.69242  0.024755088  0.024734732            1 
 1875000   0.95749111   -7.5278187    556.48243  0.024732552  0.024727859            2 
 1876000   0.95555574   -7.5424338    555.57679   0.02467914  0.024720908            2 
 1877000   0.98695768   -7.5397563        557.4  0.024746937  0.024713951            3 
 1878000    0.9617448   -7.5629852    556.50961  0.024694249  0.024706937            3 
 1879000   0.96472639   -7.5670251    555.72055  0.024646113  0.024699974            1 
 1880000   0.96024428   -7.5711178    556.39487  0.024662893  0.024692906            2 
 1881000   0.96909946   -7.5432424    557.64464   0.02470515  0.024685913            2 
 1882000   0.94415392   -7.5495298    557.27753  0.024675768  0.024678942            2 
 1883000   0.93104302   -7.5716945    556.13784  0.024612225  0.024671951            2 
 1884000    0.9462158   -7.5542171    557.36971   0.02465365  0.024664913            2 
 1885000   0.96170246   -7.5171613    559.15322  0.024719417  0.024658072            1 
 1886000   0.96101695   -7.5317047    556.59542  0.024593294  0.024651225            2 
 1887000   0.95891198   -7.5519231    557.76231  0.024631792  0.024644262            1 
 1888000   0.92852103   -7.5565638    556.43443  0.024560136  0.024637246            3 
 1889000     0.953568   -7.5580314    558.79517  0.024651278   0.02463032            2 
 1890000   0.94121365   -7.5543172    559.87939   0.02468604  0.024623406            2 
 1891000   0.96380709   -7.4975537    559.52814  0.024657507  0.024616577            1 
 1892000   0.93738037   -7.5388052    559.01634  0.024621932   0.02460968            1 
 1893000   0.94664083    -7.559336    558.93551  0.024605367  0.024602774            2 
 1894000   0.95040203   -7.5474851    557.86142  0.024545117  0.024595752            1 
 1895000   0.95370364   -7.5146851    559.83978  0.024619163  0.024588769            1 
 1896000   0.95924842   -7.5283894    559.13458  0.024575184  0.024581889            2 
 1897000   0.96146914     -7.54689    560.90772  0.024640121  0.024575068            4 
 1898000   0.97220527   -7.4830911    561.38119  0.024647927  0.024568234            1 
 1899000   0.95227838   -7.5313103    561.18181  0.024626198  0.024561485            3 
 1900000   0.93743699   -7.5505278    559.63451  0.024545373  0.024554605            1 
 1901000   0.94699028    -7.516979     559.7946  0.024539479  0.024547718            1 
 1902000   0.94392677   -7.5518578    558.89136  0.024487003   0.02454086            2 
 1903000   0.94549095    -7.585652    558.39914  0.024452581  0.024533924            2 
 1904000   0.93587427    -7.530712    561.27956  0.024565807   0.02452706            3 
 1905000   0.97349399   -7.5540072      560.179  0.024504768  0.024520178            1 
 1906000   0.95405841   -7.5434449    560.51987  0.024506815  0.024513247            2 
 1907000     0.958453   -7.5506579    559.22717  0.024437475  0.024506372            3 
 1908000    0.9624849   -7.5660443    561.88757  0.024540862  0.024499429            3 
 1909000   0.94600051   -7.5298227    561.50946  0.024511501   0.02449251            3 
 1910000   0.94116932   -7.5727779    560.13845   0.02443885   0.02448557            2 
 1911000   0.97082179   -7.5738286    559.79216  0.024410961  0.024478639            1 
 1912000   0.94087766   -7.5542894    561.25626  0.024462006  0.024471636            2 
 1913000   0.94867277   -7.5344132    560.84432  0.024431274  0.024464614            3 
 1914000   0.93447506   -7.5548245    562.17198  0.024476314  0.024457607            1 
 1915000   0.94695081   -7.5644954    561.92597  0.024452827  0.024450705            3 
 1916000   0.92922807   -7.5459325    561.53702  0.024423148  0.024443705            1 
 1917000   0.96256781   -7.5357279    562.74324  0.024462843  0.024436769            2 
 1918000   0.96617853   -7.5459288    563.20131  0.024469991  0.024429849            3 
 1919000   0.92682133   -7.5317551    563.35652  0.024463979  0.024422969            1 
 1920000    0.9606978     -7.55479    563.18879  0.024443958  0.024416078            1 
 1921000   0.92450952   -7.5431186     562.8078  0.024414706  0.024409116            1 
 1922000   0.96212115   -7.5857638    563.35001  0.024425512  0.024402176            1 
 1923000   0.94167374   -7.5089121    565.53901  0.024507671  0.024395284            2 
 1924000   0.94302751   -7.5340825    565.33848  0.024486248  0.024388452            2 
 1925000   0.95278854   -7.5603542    562.58768  0.024354445  0.024381572            2 
 1926000   0.97174484   -7.5288345    564.07563   0.02440618  0.024374693            1 
 1927000    0.9134895   -7.5515497     564.3623  0.024405911  0.024367847            1 
 1928000   0.95140413   -7.5547066    563.83988  0.024370672  0.024361022            3 
 1929000   0.93486805    -7.540921    564.61874  0.024391685  0.024354274            2 
 1930000   0.93077754   -7.5515213    565.68729  0.024425185  0.024347549            3 
 1931000   0.95403424   -7.5444483    565.45155  0.024402363  0.024340806            3 
 1932000   0.94629252   -7.5516584     565.8849  0.024408424  0.024334148            1 
 1933000   0.92066771   -7.5736053    565.92286  0.024397433  0.024327447            4 
 1934000   0.93363515   -7.5836697     564.9637  0.024343489  0.024320699            2 
 1935000    0.9442517   -7.5655505    566.13562  0.024381379  0.024313912            2 
 1936000   0.94239451   -7.5518279    567.25943  0.024417158  0.024307181            3 
 1937000   0.94153133   -7.5943219    566.23621  0.024360532  0.024300463            2 
 1938000   0.92391923   -7.5490276    566.73813  0.024369545   0.02429374            3 
 1939000   0.94404401   -7.5407264    565.67417   0.02431125  0.024287036            1 
 1940000    0.9539848   -7.5616127    566.26868  0.024324256  0.024280322            3 
 1941000   0.93147799   -7.5300025    567.09624  0.024347254   0.02427357            1 
 1942000   0.94396036   -7.5641358    566.81442  0.024322623  0.024266944            2 
 1943000    0.9470387   -7.5284669    566.70114  0.024305247  0.024260217            2 
 1944000   0.93745469    -7.553269    566.58539  0.024287783  0.024253457            2 
 1945000   0.93973985   -7.5217044    567.75602  0.024325451  0.024246731            4 
 1946000   0.93581797   -7.5854828    565.46672  0.024214916  0.024240042            2 
 1947000   0.96067981   -7.5968456     568.1006  0.024315211  0.024233307            2 
 1948000   0.92277943   -7.5796638    567.85577  0.024292256  0.024226572            2 
 1949000   0.92476818   -7.5700177    569.64287  0.024356203  0.024219915            1 
 1950000   0.93808741   -7.5698341    569.64709  0.024343893  0.024213274            1 
 1951000   0.92446177   -7.5371062    570.50225  0.024367941  0.024206675            4 
 1952000   0.96140253    -7.573477    567.35412  0.024221061  0.024199999            2 
 1953000   0.94081695   -7.5369126    569.41004  0.024296383  0.024193423            1 
 1954000   0.94543782   -7.5425551    568.54223  0.024246939  0.024186835            1 
 1955000   0.93754035   -7.5872862    569.22295  0.024263553  0.024180172            1 
 1956000   0.94446843   -7.5667184    569.13768  0.024247515  0.024173564            3 
 1957000   0.93244233   -7.5838968    570.18838  0.024279866  0.024166947            2 
 1958000   0.92710784   -7.5581279     571.0084  0.024302366  0.024160353            2 
 1959000   0.93863352   -7.5833131     571.1992  0.024298077  0.024153749            1 
 1960000    0.9373127   -7.5787769    569.02816  0.024193374  0.024147122            3 
 1961000    0.9468732    -7.550701    569.14856  0.024186153  0.024140455            2 
 1962000   0.92577294   -7.6041861     571.2834    0.0242645  0.024133783            1 
 1963000   0.95214853   -7.5804485    570.02698  0.024198802   0.02412715            3 
 1964000   0.90755715   -7.5984959    571.49643   0.02424883  0.024120475            2 
 1965000   0.94549516   -7.5392796    570.44633  0.024191956  0.024113883            1 
 1966000   0.93703041   -7.5783321    571.82469  0.024238076  0.024107305            3 
 1967000   0.92755933   -7.5728669    571.38604   0.02420717  0.024100697            1 
 1968000    0.9383459   -7.5918287     570.8474  0.024172061   0.02409414            1 
 1969000   0.92631667   -7.5786528    573.22808  0.024260542    0.0240876            2 
 1970000   0.93769838   -7.5914701    572.06687  0.024199106  0.024081008            1 
 1971000   0.93786274   -7.5763946    572.21242  0.024192982  0.024074455            4 
 1972000   0.91839861   -7.5705888    571.97216  0.024170561  0.024067978            2 
 1973000   0.93867227   -7.5720274    575.12619  0.024291527  0.024061555            1 
 1974000    0.9488466   -7.5843661    572.82778  0.024182193  0.024055108            3 
 1975000   0.94697572   -7.5572322    572.67449  0.024163481  0.024048662            3 
 1976000    0.9271736   -7.5632735    574.22222  0.024216524  0.024042218            2 
 1977000   0.95102616   -7.5556129    573.23701  0.024162747  0.024035753            2 
 1978000    0.9394467   -7.5443271    574.30068  0.024195344  0.024029319            2 
 1979000   0.92086669   -7.5724976    574.36197  0.024185698  0.024022938            1 
 1980000   0.94431181    -7.573421    575.18852  0.024208271  0.024016518       -1e+20 
 1981000   0.95084706   -7.5644259    574.82765   0.02418087  0.024010091            3 
 1982000   0.93782114   -7.5526788    574.75275  0.024165521  0.024003721            2 
 1983000   0.93978537   -7.5864784    574.48968  0.024142279  0.023997281            1 
 1984000   0.91738112   -7.5932949     575.0402  0.024153234  0.023990865            5 
 1985000   0.92629733   -7.5388047    576.06043  0.024183897  0.023984495            3 
 1986000   0.94029235   -7.6476777    574.57268  0.024109294  0.023978038            3 
 1987000   0.92873839   -7.5912404    574.31176  0.024086217  0.023971584            1 
 1988000   0.92595144   -7.5987224     576.0143  0.024145469  0.023965162            4 
 1989000   0.92954708    -7.551533    576.60264  0.024157979  0.023958732            1 
 1990000    0.9437217   -7.5681623    575.24438  0.024088961  0.023952291            1 
 1991000   0.94053831   -7.5699137     575.0912  0.024070451   0.02394588            2 
 1992000   0.91255394   -7.6079605    577.01009  0.024138641   0.02393935            1 
 1993000   0.94219521   -7.5891121    576.87582  0.024120916  0.023932863            2 
 1994000   0.92211125   -7.5985219    575.94439  0.024069892  0.023926398            1 
 1995000   0.91882995   -7.5566131     577.4787  0.024121917  0.023919932            6 
 1996000   0.91633321   -7.6045527    574.05934  0.023967073  0.023913442            1 
 1997000   0.92372969    -7.585895    575.68353  0.024022848  0.023906913            2 
 1998000   0.92461252   -7.6226497    576.07555  0.024027175  0.023900439            2 
 1999000   0.94546155   -7.5982097    576.26677  0.024023127  0.023893983            4 
 2000000   0.91870037   -7.6247676    576.41703  0.024017376  0.023887463            3 
 2001000    0.9423256    -7.583958    575.83185  0.023981003  0.023880985            1 
 2002000   0.91210858   -7.5848563    577.18334  0.024025281  0.023874464            2 
 2003000   0.95458449   -7.5819978    577.07688  0.024008857  0.023867952            4 
 2004000    0.9376814   -7.5613788     577.8797   0.02403026  0.023861493            3 
 2005000   0.92378408   -7.6030981     577.0339  0.023983121  0.023855046            2 
 2006000   0.92436875   -7.5952648    577.64482  0.023996545  0.023848621            1 
 2007000   0.93189308   -7.5926592    577.51082  0.023979024  0.023842155            1 
 2008000   0.92342684   -7.6085856    577.12493  0.023951068  0.023835651            2 
 2009000   0.92612762   -7.5645503    579.51808  0.024038414  0.023829201            1 
 2010000   0.92515256   -7.5805897    579.04098  0.024006674  0.023822816            2 
 2011000   0.93231534   -7.5804026    578.60671  0.023976741  0.023816423            2 
 2012000   0.93092677   -7.5633559      580.216  0.024031478  0.023810012            3 
 2013000    0.9513659   -7.5969257     577.7907  0.023919138   0.02380363            1 
 2014000   0.92142592   -7.5990619    578.90132  0.023953216  0.023797248            1 
 2015000   0.92700367    -7.607419    577.26662  0.023873723  0.023790807            2 
 2016000   0.92758949   -7.6028955    577.50856  0.023871882  0.023784334            1 
 2017000   0.92561155    -7.560105     579.7985  0.023954656  0.023777904            1 
 2018000   0.93642492   -7.5706629    579.45967  0.023928794  0.023771553            2 
 2019000   0.92358095   -7.5681642    579.95614  0.023937434  0.023765188            2 
 2020000   0.91768841   -7.5708682    580.01411  0.023927975  0.023758692            1 
 2021000   0.92237818   -7.5673931     579.7247  0.023904202  0.023752271            1 
 2022000   0.93865129   -7.6449112    578.72403  0.023851139  0.023745807            2 
 2023000   0.94686623   -7.6159768    578.94547  0.023848471   0.02373936            3 
 2024000   0.93021651    -7.575304    580.63831  0.023906386  0.023732901            1 
 2025000   0.93148268   -7.5503992    580.90237  0.023905447  0.023726519            1 
 2026000   0.95958868   -7.5885626    579.95933  0.023854859  0.023720162            1 
 2027000   0.91501774    -7.582441    583.03252  0.023969434  0.023713752            3 
 2028000   0.91711997   -7.6196714    580.01605  0.023833664  0.023707313            1 
 2029000   0.93968382   -7.6180309    580.65735  0.023848256   0.02370079            1 
 2030000   0.91900853   -7.6182093    579.69946  0.023797187  0.023694296            2 
 2031000   0.92212037   -7.6099209    580.07357  0.023800819  0.023687774            2 
 2032000   0.94385836   -7.5746179     581.0114  0.023827567   0.02368134            2 
 2033000   0.92452168   -7.5952475    580.78243  0.023806461  0.023674874            3 
 2034000   0.91837039   -7.5719101     581.7689  0.023835173  0.023668434            1 
 2035000   0.93237428   -7.6098592    580.98054  0.023791177  0.023661975            2 
 2036000   0.95262384   -7.5954456    581.06496  0.023782947  0.023655504            2 
 2037000   0.93966196   -7.5990261    580.04046   0.02372936  0.023649011            1 
 2038000   0.92219293   -7.6004435    581.34163   0.02377092  0.023642473            1 
 2039000   0.95412895   -7.6169372    580.13568  0.023709975  0.023635903            3 
 2040000   0.93141678   -7.6229479     582.3239  0.023787741  0.023629362            1 
 2041000   0.92760353   -7.5999597    580.47696  0.023700676  0.023622773            1 
 2042000   0.93840606   -7.6204828    580.38831  0.023685452   0.02361623            2 
 2043000   0.91628353   -7.6214418    581.89067  0.023735139  0.023609727            3 
 2044000   0.90134319   -7.5847421    581.61058  0.023712108  0.023603282            2 
 2045000   0.89215306   -7.6245057    581.16346  0.023682293  0.023596702            4 
 2046000   0.93190026   -7.5974656    581.51086  0.023684867  0.023590147            1 
 2047000   0.94126975   -7.5878661    582.34392  0.023707211  0.023583645            1 
 2048000   0.92481975   -7.5795282    583.94487  0.023760777  0.023577108            2 
 2049000   0.90695328   -7.6152097    582.68592   0.02369798  0.023570567            3 
 2050000    0.9298004   -7.6427711    581.94344  0.023656237  0.023563942            1 
 2051000   0.91208086   -7.6007454    583.00623  0.023687885  0.023557325            2 
 2052000   0.93775932   -7.6054345    583.84819  0.023710534  0.023550812            1 
 2053000   0.94042093   -7.6160763    583.08361   0.02366795   0.02354431            3 
 2054000   0.93014088   -7.6027394    582.19044   0.02362019  0.023537817            1 
 2055000   0.94281022   -7.5920055    584.51898  0.023703122  0.023531271            1 
 2056000   0.92681383   -7.6094016    582.50728  0.023610055  0.023524732            4 
 2057000   0.90973575    -7.619444    582.31618  0.023590835  0.023518144            2 
 2058000   0.89209903   -7.5846048    583.44905  0.023625245  0.023511574            3 
 2059000   0.92649561   -7.6000305    583.80142  0.023628032  0.023505037            3 
 2060000   0.94022494   -7.5849635    584.07355  0.023627571  0.023498554            2 
 2061000   0.91519986   -7.5779808     585.3303  0.023666922  0.023492023            2 
 2062000   0.92260106   -7.5802119    584.41968  0.023618642  0.023485524            5 
 2063000   0.92633206   -7.5926311    583.99253  0.023589939  0.023478993            3 
 2064000   0.90251041   -7.6250442    583.86921  0.023573531   0.02347243            2 
 2065000   0.93730451   -7.6185682    584.34858   0.02358146  0.023465921            1 
 2066000   0.91412924   -7.5769702    585.38009  0.023611653  0.023459341            4 
 2067000   0.91535269   -7.6439262    582.61231  0.023488643  0.023452769            2 
 2068000   0.91266442   -7.6139035    585.24286  0.023583288  0.023446175            5 
 2069000   0.93517932   -7.6304688    585.73808  0.023591835   0.02343963            3 
 2070000   0.92508513   -7.6268449    583.20899  0.023478623  0.023433084            2 
 2071000   0.90497967   -7.5992651    585.69138  0.023567173  0.023426509            2 
 2072000   0.92691885   -7.5878532    585.25152  0.023538108  0.023420012            4 
 2073000    0.9094797   -7.6178589    587.14151   0.02360273  0.023413521            2 
 2074000   0.91460194   -7.6884197    584.57979   0.02348842  0.023406998            1 
 2075000    0.9010213   -7.5863464    585.00237  0.023494071  0.023400371            1 
 2076000   0.93824735    -7.607253    586.64186  0.023548565  0.023393786            5 
 2077000   0.92078093   -7.6118029    587.61502  0.023576273  0.023387265            2 
 2078000   0.94423926   -7.6138969    585.73614  0.023489579  0.023380713            2 
 2079000   0.89148122   -7.5964502    585.99227  0.023488547  0.023374152            2 
 2080000   0.92326088   -7.6007387    588.00989  0.023558089  0.023367672            2 
 2081000   0.90977367   -7.6559752     586.6554  0.023492528  0.023361186            1 
 2082000   0.93185724   -7.6530249    585.06613  0.023417633   0.02335465            2 
 2083000   0.91313695   -7.5968799    586.87798  0.023478876  0.023348143            2 
 2084000   0.91424486    -7.613634    587.15374  0.023478637   0.02334164            1 
 2085000   0.92230653   -7.6161699    586.33041  0.023434469  0.023335124            1 
 2086000   0.90699773   -7.5832182    587.93907  0.023487499  0.023328627            3 
 2087000   0.90892262   -7.5943779    586.58128  0.023422028  0.023322132            2 
 2088000    0.9396894   -7.6330237    586.58694  0.023411037  0.023315645            2 
 2089000   0.90806745   -7.6186173    588.35305  0.023470283   0.02330915            1 
 2090000   0.90846404   -7.6093719    588.73374  0.023474232  0.023302709            2 
 2091000   0.92212441   -7.6017818    589.44156  0.023491215  0.023296309            1 
 2092000   0.93733212   -7.6047011    588.70669  0.023450712  0.023289952            3 
 2093000   0.92526395   -7.5997432    588.84214  0.023444901  0.023283521            3 
 2094000   0.92643066   -7.6498698    589.03518  0.023441387  0.023277101            2 
 2095000   0.92392939   -7.6214436    586.88332  0.023344603   0.02327063            3 
 2096000   0.90750541   -7.6284986    589.29253  0.023429251  0.023264183            3 
 2097000   0.91000756   -7.5745149    589.08681  0.023409903  0.023257739            1 
 2098000   0.90360634   -7.5987598    589.71138  0.023423553  0.023251276            3 
 2099000   0.92742962    -7.636402    588.02923   0.02334561  0.023244764            1 
 2100000   0.88877603   -7.5652178    589.39039  0.023388508  0.023238293            3 
 2101000   0.91548003   -7.6116575    589.72749  0.023390746  0.023231828            2 
 2102000   0.90610397   -7.5852405    589.64845  0.023376485  0.023225374            1 
 2103000   0.93745673   -7.6481882    588.55268  0.023321948  0.023218806            2 
 2104000   0.92617914   -7.6113755    589.31058  0.023340882  0.023212265            6 
 2105000    0.9020569   -7.6302648    587.52859  0.023259247  0.023205707            1 
 2106000   0.90223774   -7.6503017    588.80089  0.023298547  0.023199106            1 
 2107000   0.92971365   -7.6281589    589.08746  0.023298824  0.023192542            1 
 2108000   0.93213901   -7.6725712    589.34753  0.023298052  0.023185958            2 
 2109000   0.92627733   -7.5864519    590.71728  0.023341129  0.023179414            1 
 2110000   0.92249478    -7.615765    590.49629  0.023321338  0.023172926            3 
 2111000   0.92613356   -7.6448984    591.34567  0.023343821  0.023166372            1 
 2112000   0.92698581   -7.6055575    588.63596  0.023225851   0.02315989            2 
 2113000   0.90300309   -7.6368144    589.70184  0.023256896  0.023153367            1 
 2114000   0.91437429   -7.6248659     589.9921  0.023257336  0.023146908            3 
 2115000   0.93130258   -7.5915106    590.88846  0.023281657  0.023140463            4 
 2116000   0.92124595   -7.6566311    591.17269  0.023281848  0.023134041            1 
 2117000   0.92630261   -7.6236371    591.21691  0.023272591    0.0231276            3 
 2118000    0.9079983   -7.6456595    589.16919  0.023181035  0.023121092            2 
 2119000   0.93509149   -7.6256551    591.11506   0.02324662  0.023114529            3 
 2120000   0.91410495   -7.6230836    591.82999  0.023263758  0.023107982            3 
 2121000   0.92896038   -7.6226315    591.34795   0.02323385  0.023101429            1 
 2122000   0.90614928   -7.6334855    590.70202  0.023197535  0.023094924            3 
 2123000   0.89661035   -7.6275419    590.97964  0.023197505  0.023088389            2 
 2124000   0.93077355   -7.5836958    592.71219  0.023254559   0.02308185            4 
 2125000   0.89855625   -7.6166267    592.65909  0.023241533  0.023075341            1 
 2126000   0.92355713    -7.598654    591.54688  0.023187005  0.023068838            3 
 2127000   0.92138534   -7.6069769    591.55075  0.023176256  0.023062298            1 
 2128000   0.89049487    -7.641547    591.34935  0.023157478  0.023055765            3 
 2129000   0.91806893   -7.6132437    592.21275  0.023180396  0.023049238            3 
 2130000   0.90369046   -7.6152967    591.51374  0.023142165  0.023042723            3 
 2131000   0.90831104   -7.6290674    590.92831  0.023108412  0.023036117            1 
 2132000   0.91130943   -7.6250689    591.74353  0.023129438  0.023029505            1 
 2133000   0.90747568   -7.6036589    592.00192  0.023128689  0.023022891            4 
 2134000   0.93630703   -7.6366508    591.22026  0.023087327   0.02301627            1 
 2135000   0.89964943   -7.6341854    591.15774  0.023074073  0.023009617            4 
 2136000   0.91946877   -7.6463497    592.14472  0.023101776  0.023002966            2 
 2137000   0.92623501     -7.64433    591.66407  0.023072222  0.022996288            2 
 2138000   0.89814843   -7.6341006    592.98789   0.02311303   0.02298965            2 
 2139000   0.91261617   -7.6253698    593.04416  0.023104416  0.022983008            1 
 2140000    0.9148196   -7.6441203    593.29907  0.023103546  0.022976428            2 
 2141000   0.90515112   -7.6716281    592.88491  0.023076635  0.022969831            2 
 2142000   0.91418669   -7.6386897    591.84112  0.023025254  0.022963253            2 
 2143000   0.89296708   -7.6357491    593.07767  0.023062594  0.022956723            1 
 2144000   0.92549087   -7.6358017    594.07888  0.023090753   0.02295026            3 
 2145000   0.92393278   -7.6490319    595.09252  0.023119368    0.0229438            3 
 2146000   0.91176463   -7.6525683     594.5831  0.023088812  0.022937269            3 
 2147000   0.89730832   -7.6416995    594.46471  0.023073463  0.022930809            2 
 2148000   0.90439853    -7.646379    594.88137  0.023078886  0.022924319            3 
 2149000   0.89744645   -7.6176249    594.66214  0.023059645  0.022917824            4 
 2150000   0.91998541   -7.6447032    596.07385  0.023103638   0.02291131            1 
 2151000   0.90638336   -7.6287166    593.66965  0.022999754  0.022904799            2 
 2152000     0.879769   -7.6576343    595.04812  0.023042446  0.022898337            2 
 2153000   0.90131904   -7.6209382    596.18188  0.023075626  0.022891875            2 
 2154000   0.90735786   -7.6251874    595.28102  0.023030061  0.022885477            4 
 2155000   0.90253226   -7.6422618    594.71971  0.022997669  0.022879016            2 
 2156000   0.92131833   -7.6413493    595.84658  0.023030557   0.02287254            1 
 2157000   0.93082983   -7.6260925    596.10214  0.023029754  0.022866104            1 
 2158000     0.906271   -7.6104435    596.15821  0.023021247  0.022859723            5 
 2159000   0.89336934   -7.6698576    595.06846  0.022968522   0.02285332            3 
 2160000   0.92093679   -7.6125488    595.74561  0.022984013  0.022846852            2 
 2161000   0.90111668   -7.6561372    595.10225  0.022948567  0.022840406            3 
 2162000   0.92050131   -7.6571343     597.4437  0.023028203  0.022833965            3 
 2163000   0.89939454   -7.6464501    596.08994    0.0229654  0.022827514            2 
 2164000   0.88953712   -7.6282881    598.02636  0.023029358  0.022821064            1 
 2165000   0.90084874   -7.6680996    596.39478  0.022955919  0.022814558            3 
 2166000   0.91890397   -7.6388432    596.46331  0.022947957  0.022808058            1 
 2167000   0.91709746   -7.6521165    596.72256  0.022947337  0.022801563            1 
 2168000   0.90473908   -7.6456078    595.50764  0.022890054  0.022795075            2 
 2169000   0.92371645   -7.6201928    597.14247  0.022942311  0.022788578            5 
 2170000      0.92125   -7.6725129    596.56372  0.022909513  0.022782016            3 
 2171000   0.90322346   -7.6582565    597.18054  0.022922637   0.02277543            2 
 2172000   0.88990711   -7.6823394    595.47993  0.022846836  0.022768885            2 
 2173000   0.89931381   -7.6331817    597.23017  0.022903443  0.022762334            5 
 2174000   0.89935368   -7.6365028    596.51973  0.022865675   0.02275575            2 
 2175000   0.90109306   -7.6520581    597.30244  0.022885151  0.022749143            3 
 2176000   0.90315874   -7.6627313    596.25006  0.022834331  0.022742586            1 
 2177000   0.88859017   -7.6148417    597.51661  0.022872325  0.022736079            2 
 2178000   0.89725241   -7.6571562    597.50261  0.022861287  0.022729594            4 
 2179000   0.93266062   -7.6441539     597.1279  0.022836466  0.022723111            1 
 2180000   0.89951252   -7.6280402    598.40231  0.022874706  0.022716579            1 
 2181000   0.90706136   -7.6397353    596.97788  0.022809792  0.022710065            2 
 2182000   0.90070512   -7.6414092    597.53099  0.022820462  0.022703576            4 
 2183000   0.89347533   -7.6604882    596.76308  0.022780695   0.02269709            2 
 2184000   0.90857418   -7.6078963    598.03965  0.022818973  0.022690574            1 
 2185000   0.91225133   -7.6240235    598.09933  0.022810806   0.02268411            7 
 2186000   0.91056295   -7.6468654    598.25183  0.022806184  0.022677687            2 
 2187000   0.89961709   -7.6536628    599.95906  0.022860809  0.022671231            1 
 2188000   0.90336159   -7.6813673    597.45781  0.022755096  0.022664742            1 
 2189000   0.90697909   -7.6404692    598.72486  0.022792937  0.022658232            1 
 2190000   0.91378357   -7.6280461      597.655  0.022741819  0.022651738            2 
 2191000   0.89912813   -7.6198323    599.00528  0.022782796  0.022645267            4 
 2192000   0.90309633   -7.6426222    600.33302  0.022822879  0.022638787            2 
 2193000   0.91121285   -7.6313846    597.49843  0.022704759  0.022632331            2 
 2194000   0.88410929   -7.6703719    599.07432  0.022754266  0.022625782            4 
 2195000   0.89389898   -7.6746191    600.50936  0.022798381  0.022619267            3 
 2196000   0.88928061   -7.6679245     598.6664  0.022718063  0.022612677            2 
 2197000   0.90342058   -7.6202763    600.53959  0.022778774  0.022606162            2 
 2198000   0.89775234    -7.665814    599.30507  0.022721606  0.022599665            3 
 2199000   0.88131626   -7.6296978     599.6557  0.022724561  0.022593124            1 
 2200000   0.91153025   -7.6523552    599.83446  0.022721002  0.022586585            1 
 2201000   0.90339558   -7.6932359    599.68678  0.022705088  0.022580109            2 
 2202000   0.89487881   -7.6815667    600.06467  0.022709078  0.022573624            1 
 2203000   0.90567077   -7.6948353    598.29085  0.022631671  0.022567115            1 
 2204000   0.90995637   -7.6209071     599.1257  0.022652968  0.022560635            6 
 2205000   0.90415043   -7.6469207    600.74044   0.02270372  0.022554159            2 
 2206000   0.89468824   -7.6497363    600.50562  0.022684558  0.022547612            3 
 2207000    0.9283718   -7.6582816    600.48915  0.022673658  0.022541046            3 
 2208000   0.89341389   -7.6473645    601.21354  0.022690728  0.022534499            2 
 2209000    0.9165313   -7.6584506    602.01245  0.022710595  0.022528005            2 
 2210000   0.91299942   -7.6671151    600.01375  0.022624953  0.022521489            1 
 2211000   0.90388208   -7.6869209     600.8947  0.022647923  0.022514952            1 
 2212000     0.882935    -7.700685    600.03853   0.02260543  0.022508366            1 
 2213000    0.9211454   -7.6628771      602.224  0.022677512  0.022501792            2 
 2214000   0.89211469   -7.6592706    599.21491  0.022554009  0.022495221            2 
 2215000   0.89481486   -7.6778267    600.56446    0.0225946   0.02248866            3 
 2216000   0.88423606   -7.6721209    600.65718   0.02258789  0.022481995            2 
 2217000   0.90072948   -7.6522815    600.91172   0.02258727  0.022475354            2 
 2218000   0.89429751   -7.6641094     600.6544  0.022567418  0.022468768            2 
 2219000   0.92252863   -7.6777424    600.81209   0.02256317  0.022462194            1 
 2220000   0.90498688   -7.6432755    601.98622   0.02259708  0.022455661            2 
 2221000   0.89748576   -7.6587451    602.39091   0.02260209  0.022449126            2 
 2222000   0.90458801    -7.633861    602.99643  0.022614628   0.02244258            1 
 2223000   0.91085518    -7.676566    602.28115  0.022577641  0.022436059            1 
 2224000   0.87565154   -7.6808447    601.94252  0.022554801  0.022429529            2 
 2225000   0.89870176   -7.6521402    601.69076  0.022535235  0.022423005            8 
 2226000   0.90202686   -7.6828251    601.10471  0.022503171  0.022416457            2 
 2227000   0.88944313   -7.6600821    601.60679  0.022511854  0.022409884            2 
 2228000    0.8886774   -7.6483223    601.15929  0.022485012  0.022403387            2 
 2229000   0.87944263   -7.6654201    601.90315  0.022502735  0.022396862            1 
 2230000   0.89910486   -7.6524736    603.24284  0.022542707   0.02239032            3 
 2231000   0.89456084   -7.6535988    604.56179  0.022581869  0.022383811            2 
 2232000   0.88221901   -7.6969924    601.60274  0.022461273   0.02237734            3 
 2233000   0.88295505   -7.6593824    602.89018   0.02249926  0.022370839            3 
 2234000   0.90630016   -7.6466546    602.52325  0.022475502  0.022364336            1 
 2235000   0.91671318    -7.667054    603.94482   0.02251845  0.022357844            2 
 2236000   0.89442569   -7.6591718    603.46164  0.022490371  0.022351391            1 
 2237000   0.90406616   -7.6333008    603.75175  0.022491125  0.022344958            2 
 2238000    0.9041484    -7.620698    605.66591   0.02255235  0.022338564            1 
 2239000   0.87722859   -7.6512749    604.25812  0.022489881  0.022332127            5 
 2240000   0.89629032   -7.7041347    603.60612  0.022455585  0.022325682            1 
 2241000   0.89187683    -7.683702    601.92291  0.022382973  0.022319222            2 
 2242000   0.87726556     -7.66711    603.84813  0.022444549  0.022312701            2 
 2243000   0.88762768   -7.6533256    603.19868  0.022410413  0.022306158            4 
 2244000   0.89261647   -7.6843955    603.98698  0.022429701  0.022299645            1 
 2245000   0.89496578   -7.6814713     604.9239  0.022454488  0.022293113            3 
 2246000   0.89904415   -7.6521937    603.48642  0.022391155  0.022286545            2 
 2247000   0.90269657    -7.668766    604.29521  0.022411186  0.022279976            2 
 2248000   0.89849101   -7.6524057    604.06401  0.022392646   0.02227344            4 
 2249000   0.88063463   -7.6301139    605.18854  0.022424357  0.022266928            3 
 2250000   0.90656881   -7.6436925    604.50606  0.022389113  0.022260441            2 
 2251000   0.88150608   -7.6534655    604.83484  0.022391339  0.022253942            1 
 2252000   0.88143732   -7.6433598    605.83762  0.022418503  0.022247486            3 
 2253000   0.90971013   -7.6772915    605.21794  0.022385632  0.022240984            2 
 2254000    0.8966107   -7.6358112    607.04284  0.022443169  0.022234551            2 
 2255000   0.88660602   -7.6481157    604.98944  0.022357333  0.022228126            2 
 2256000   0.90660296   -7.6611049    606.31836  0.022396512  0.022221727            6 
 2257000   0.90377496   -7.6598617    604.59386  0.022322916  0.022215302            6 
 2258000   0.90586075   -7.6847855      605.802  0.022357617  0.022208914            7 
 2259000   0.88673568   -7.6571874    606.40004  0.022369782   0.02220249            2 
 2260000   0.89114215   -7.6735258    606.33591  0.022357519  0.022196035            2 
 2261000   0.88599283   -7.6907639    605.72549  0.022325132  0.022189606            2 
 2262000   0.88661858   -7.6882921    606.36986  0.022339002   0.02218311            5 
 2263000   0.88093863   -7.6714977    607.13016  0.022357128  0.022176689            2 
 2264000   0.90367091   -7.6669736    606.89861   0.02233873  0.022170271            1 
 2265000   0.87614461   -7.7194116    605.78424  0.022287868  0.022163785            1 
 2266000    0.8783249   -7.7037144    606.38277  0.022300043  0.022157276            2 
 2267000   0.91635988   -7.7196211    606.68398  0.022301279  0.022150736            2 
 2268000   0.88509806   -7.6925507    605.26521  0.022239315  0.022144168            2 
 2269000   0.89594934   -7.7109267    605.93967  0.022254285  0.022137576            2 
 2270000   0.89881442   -7.6727223    607.43795  0.022299484  0.022131021            3 
 2271000   0.87704909   -7.6963067    606.01515  0.022237456  0.022124452            3 
 2272000    0.8869526   -7.7145598    606.12193  0.022231585  0.022117943            1 
 2273000   0.89466292   -7.6911625     606.5077  0.022235947  0.022111387            2 
 2274000   0.88907214   -7.7198186    605.70686  0.022196821  0.022104869            4 
 2275000   0.89078209   -7.6667595     607.2838  0.022244828   0.02209843            2 
 2276000   0.90133626   -7.7038652     605.8463  0.022182422   0.02209195            4 
 2277000   0.89744623   -7.6940952    607.11594  0.022219146  0.022085466            1 
 2278000    0.8916666   -7.7006765    607.31386  0.022216632  0.022078963            1 
 2279000   0.89224051   -7.7169042    608.70151  0.022257624  0.022072487            2 
 2280000   0.87324456   -7.7180478    607.48715  0.022203478  0.022065977            1 
 2281000   0.88367798   -7.7135165    608.22132  0.022220565  0.022059462            3 
 2282000   0.91187645   -7.7156612    607.95521  0.022201111  0.022053012            1 
 2283000   0.90761996   -7.6883788     608.8033  0.022222343  0.022046497            1 
 2284000    0.8907321   -7.7157241    606.60402  0.022132371  0.022039932            4 
 2285000   0.87008187   -7.7186696     605.7739  0.022092411  0.022033378            3 
 2286000   0.88475024   -7.6999125    607.38077  0.022141323  0.022026759            1 
 2287000    0.8799357   -7.7170657    607.06013  0.022119958  0.022020213            3 
 2288000    0.8977737   -7.7140149    606.98257  0.022107465  0.022013638            2 
 2289000    0.8959804   -7.6943177    608.17946  0.022141381  0.022007108            4 
 2290000   0.89037644   -7.6985578    608.37983  0.022139004   0.02200054            2 
 2291000   0.88292321   -7.7299934    608.21207  0.022123238  0.021994003            5 
 2292000   0.90545949   -7.6903113    607.04084  0.022071002  0.021987401            3 
 2293000    0.8884541   -7.6944935    607.77715  0.022088136  0.021980864            2 
 2294000   0.89415166   -7.7291416    608.09374  0.022090008  0.021974357            2 
 2295000   0.87731757   -7.7047444    608.25592  0.022086271  0.021967831            1 
 2296000   0.89906159   -7.7214483    606.82273  0.022024634  0.021961303            2 
 2297000   0.88393232    -7.707068    607.68889  0.022046469   0.02195479            2 
 2298000   0.85597126   -7.6943693    608.49718  0.022066187  0.021948222            3 
 2299000   0.88689175   -7.7355598    607.13175  0.022007095  0.021941675            2 
 2300000   0.87678692   -7.7079201    609.87711  0.022096997  0.021935087            1 
 2301000   0.88573261   -7.6805048    609.49808  0.022073667   0.02192855            6 
 2302000   0.89334342   -7.6808051    609.47835  0.022063364  0.021921987            2 
 2303000   0.87407443   -7.7027503    607.54538  0.021983839   0.02191543            2 
 2304000   0.87899334   -7.7263576    607.25457  0.021963779  0.021908834            1 
 2305000   0.87311058   -7.7159019    605.99671  0.021908775  0.021902191            1 
 2306000   0.88982247   -7.7163817    608.20043  0.021978911    0.0218956            1 
 2307000   0.88727831   -7.7289523    607.71255  0.021951761     0.021889            2 
 2308000   0.86727507   -7.7156259    608.15377   0.02195818  0.021882378            1 
 2309000   0.87859398   -7.7234071    609.21019  0.021986798  0.021875798            2 
 2310000   0.88043316   -7.7222095    606.48759  0.021879062  0.021869209            4 
 2311000   0.88385355   -7.7538257    608.05028  0.021925944  0.021862563            1 
 2312000   0.88814027   -7.6814773    609.15442  0.021956258  0.021855939            1 
 2313000   0.87772664   -7.7524295    608.45986  0.021921742  0.021849352            1 
 2314000   0.89250255   -7.7013242    608.91671  0.021928721  0.021842757            3 
 2315000   0.89499193     -7.72686    609.54273  0.021941783  0.021836218            2 
 2316000   0.88424183   -7.6944889    608.43994  0.021892629  0.021829692            2 
 2317000   0.87775241   -7.7251081    609.12872  0.021907953  0.021823073            2 
 2318000   0.87634786   -7.7112319    608.79916  0.021886654  0.021816515            1 
 2319000   0.86803343   -7.6916196    610.62322  0.021942763  0.021809949            2 
 2320000   0.89546451   -7.7071633    610.42135  0.021926054  0.021803411            3 
 2321000   0.85167078   -7.6912593      610.989  0.021936989   0.02179687            2 
 2322000   0.87928882   -7.6906802    610.43022  0.021907487  0.021790355            1 
 2323000   0.88695211   -7.6812411    610.79128  0.021911009  0.021783874            1 
 2324000    0.8798814   -7.7317742    609.22297  0.021845345  0.021777296            2 
 2325000   0.88147223   -7.6926949    608.90641  0.021824603  0.021770741            2 
 2326000   0.87158774   -7.7019598    610.82246  0.021883866  0.021764194            1 
 2327000   0.87866277   -7.7037063    611.73652  0.021907195  0.021757657            3 
 2328000   0.86156795   -7.7314897    609.72127  0.021825647  0.021751127            3 
 2329000   0.87025942   -7.6837035    611.68884  0.021886677  0.021744595            2 
 2330000   0.87966961   -7.7148695    610.31598  0.021828182   0.02173807            2 
 2331000    0.8677859   -7.6633138    611.48057  0.021860452  0.021731578            2 
 2332000   0.86976471   -7.6795385    612.74287  0.021896186  0.021725108            2 
 2333000    0.8593072   -7.7126456    611.74438  0.021851135  0.021718641            1 
 2334000   0.87544242   -7.7146096    612.02154  0.021851669  0.021712196            2 
 2335000   0.86246826   -7.6987496     612.1043  0.021845264   0.02170573            2 
 2336000   0.88834802   -7.7067617    611.92589  0.021829548  0.021699297            3 
 2337000   0.87491457   -7.6982914    611.85276    0.0218176  0.021692881            1 
 2338000   0.87653743   -7.7299155    612.24067  0.021822094  0.021686427            5 
 2339000   0.88734578   -7.6950283    613.45765  0.021856123  0.021680006            4 
 2340000   0.86973503   -7.7067393    611.39698  0.021773397  0.021673491            3 
 2341000   0.85904845   -7.7199971    612.11529  0.021789666  0.021667019            2 
 2342000   0.88085236   -7.7106143    613.41105  0.021826468  0.021660533            2 
 2343000   0.88771989    -7.710952    612.87792   0.02179819  0.021654096            6 
 2344000   0.88880189   -7.7152139    612.23604  0.021766071  0.021647627            2 
 2345000   0.87509976   -7.7219577    612.04082  0.021749851  0.021641168            2 
 2346000   0.88859665    -7.694794    614.84875  0.021840322  0.021634753            1 
 2347000   0.85957969   -7.6826528    614.29716  0.021811432  0.021628316            4 
 2348000   0.87410199   -7.7058962    612.26049  0.021729858  0.021621877            3 
 2349000   0.87082533    -7.713145    612.57223  0.021731667  0.021615425            2 
 2350000   0.88772397   -7.7093154    614.72607  0.021798797  0.021609033            2 
 2351000   0.87476723   -7.7128905    613.80254  0.021756789   0.02160261            2 
 2352000   0.87248764     -7.67209    614.28255  0.021764546  0.021596201            2 
 2353000   0.89375927   -7.7065875    613.59941  0.021731102  0.021589804            1 
 2354000    0.8992149   -7.6746492    613.17545  0.021706862  0.021583367            1 
 2355000   0.85343317   -7.6830095    612.95244  0.021689754  0.021576917            3 
 2356000   0.87533096    -7.729586    614.50172  0.021735347   0.02157045            3 
 2357000    0.8698899   -7.6842618    614.78454  0.021736124  0.021563993            2 
 2358000   0.88185812   -7.7291647    612.44268  0.021644143  0.021557533            1 
 2359000   0.85428872   -7.7368331    612.04387   0.02162088  0.021550971            3 
 2360000   0.86873352   -7.7383514    613.28501  0.021655544  0.021544464            1 
 2361000   0.86189157   -7.7126943    614.88563  0.021702867   0.02153798            3 
 2362000   0.89259165   -7.7131572    614.09099  0.021665643  0.021531546            2 
 2363000   0.88025752   -7.7125146    613.15615  0.021623506  0.021525111            1 
 2364000    0.8783339   -7.6913696    614.71561  0.021669332  0.021518668            2 
 2365000   0.88426022    -7.674054    615.43488  0.021685514  0.021512183            2 
 2366000   0.86777948   -7.7231301    613.68598   0.02161475  0.021505731            3 
 2367000   0.88182767    -7.735791    613.70758  0.021606379  0.021499187            1 
 2368000   0.87058841   -7.7607481    613.02649  0.021573286  0.021492628            5 
 2369000   0.86998708   -7.7360038    612.57178  0.021548184  0.021486004            3 
 2370000   0.87665313   -7.7357037    613.94172  0.021587262  0.021479429            2 
 2371000   0.87049086   -7.7378075    613.60278  0.021566244  0.021472854            4 
 2372000   0.88214846    -7.754535     613.5162   0.02155411  0.021466283            1 
 2373000   0.86691163   -7.7331464    614.68872  0.021586203  0.021459706            1 
 2374000   0.87437056   -7.7036383    615.37428  0.021601175  0.021453182            1 
 2375000   0.87462041   -7.7602985    613.28958  0.021518932  0.021446686            3 
 2376000   0.88609422   -7.7157163     614.5864  0.021555359  0.021440146            1 
 2377000   0.85330826   -7.7367031    614.27263  0.021535291   0.02143362            2 
 2378000   0.88991462   -7.7373915    615.68274   0.02157565   0.02142712            1 
 2379000   0.86738143   -7.7463321    614.71059  0.021532527  0.021420618            3 
 2380000   0.86763834    -7.730837    614.71344   0.02152358  0.021414095            3 
 2381000    0.8660804   -7.7238124    614.31286   0.02150052  0.021407581            2 
 2382000    0.8817849   -7.7144549     614.4005   0.02149456  0.021401075            2 
 2383000   0.87368096   -7.7503126     615.2008  0.021513526  0.021394576            2 
 2384000   0.88369108   -7.7359268    615.75409  0.021523843   0.02138806            1 
 2385000   0.87748309   -7.7319106    615.34142  0.021500399  0.021381522            1 
 2386000   0.85865419   -7.7118151    617.10351  0.021552931   0.02137502            1 
 2387000   0.87374156   -7.7531462    616.43269  0.021520482  0.021368531            1 
 2388000   0.85889914   -7.7437335    615.99517  0.021496202  0.021362005            1 
 2389000    0.8602097   -7.7262006    615.88404  0.021483328  0.021355542            2 
 2390000   0.87946328   -7.7228015    614.83067  0.021437611  0.021349092            2 
 2391000   0.87299365   -7.7359534    616.84361  0.021498801  0.021342661            1 
 2392000   0.85322809   -7.7369264    615.47548   0.02144215  0.021336231            3 
 2393000    0.8956011   -7.7481834    616.48986  0.021468514   0.02132981            2 
 2394000   0.85885579   -7.7498831     616.1346   0.02144718  0.021323317            3 
 2395000   0.87807233   -7.7199651    615.70272  0.021423198  0.021316818            2 
 2396000   0.88149607   -7.7441396    616.93528  0.021457126  0.021310341            2 
 2397000   0.86099243   -7.7078645    618.40021  0.021499103  0.021303846            4 
 2398000   0.84934822   -7.7466059    616.00927   0.02140705  0.021297311            2 
 2399000   0.87588814   -7.7523498    616.37077  0.021410684  0.021290815            2 
 2400000   0.87718323   -7.7703109    616.82862   0.02141766  0.021284285            2 
 2401000   0.87014998   -7.7554367    616.17755  0.021386143  0.021277809            3 
 2402000   0.86602068   -7.7720515    616.83018  0.021399881  0.021271325            3 
 2403000   0.86432928   -7.7385692    617.18658  0.021403335  0.021264855            2 
 2404000    0.8764759   -7.7519921    618.70165  0.021446951  0.021258352            1 
 2405000   0.88059253   -7.7421315    617.85966  0.021408859  0.021251871            2 
 2406000   0.87088312    -7.732101    616.39639  0.021349279  0.021245376            2 
 2407000   0.87405241   -7.7673461     616.6029  0.021347559  0.021238851            1 
 2408000   0.90303411   -7.7578279    616.77572  0.021344675  0.021232347            1 
 2409000   0.88568826   -7.7486817    618.06518   0.02138042  0.021225879            5 
 2410000   0.86527321    -7.752105    618.54417  0.021388111  0.021219407            2 
 2411000   0.84904063   -7.7461975    618.09827  0.021363828   0.02121299            1 
 2412000   0.84931714   -7.7360561    618.81174  0.021379621  0.021206604            3 
 2413000   0.87170051     -7.75537    619.12802  0.021381683  0.021200203            1 
 2414000   0.87092285   -7.7311474    619.11657  0.021372431  0.021193806            4 
 2415000   0.87744656   -7.7328337    617.56274  0.021309963  0.021187456            1 
 2416000   0.87351786   -7.7741291    619.60634  0.021371631  0.021181052            2 
 2417000   0.85966256   -7.7493915    618.86022  0.021337065  0.021174629            2 
 2418000   0.87768107   -7.7294291    618.78022  0.021325483  0.021168266            6 
 2419000   0.87740054   -7.7436907    619.07563  0.021326844  0.021161935            3 
 2420000   0.87959425   -7.7408843     621.0286  0.021385282   0.02115558            1 
 2421000   0.87242558   -7.7443232    620.02261  0.021341822  0.021149225            1 
 2422000   0.88897625   -7.7326199    619.18985  0.021304357  0.021142841            2 
 2423000   0.85330871    -7.719438    620.66826  0.021346411  0.021136495            3 
 2424000   0.87784885   -7.7606001     618.8323  0.021274488  0.021130177            2 
 2425000   0.86164688   -7.7284041    620.53437  0.021324205  0.021123852            2 
 2426000   0.86181133   -7.7214997    621.04409  0.021332924  0.021117554            5 
 2427000   0.87452011   -7.7298528     620.7912  0.021315451  0.021111278            1 
 2428000   0.84941913   -7.7328059     620.9886  0.021313447  0.021104941            2 
 2429000   0.85096922   -7.7227492    620.51069  0.021288277  0.021098541            3 
 2430000   0.86204917   -7.7103558    621.46524  0.021312251  0.021092182            4 
 2431000   0.83842739   -7.7569041    619.62692  0.021240468  0.021085819            1 
 2432000   0.84620564   -7.7695666    620.20269  0.021251463  0.021079419            4 
 2433000   0.86403114    -7.742043    620.62821  0.021257303  0.021073032            2 
 2434000   0.85315793   -7.7782775     618.4494  0.021173973  0.021066614            2 
 2435000    0.8616413   -7.7935045    617.69218  0.021139363  0.021060156            2 
 2436000   0.85045965   -7.7375541    619.76548  0.021201611  0.021053751            3 
 2437000   0.86946357   -7.7404009    619.89232  0.021197248  0.021047358            1 
 2438000   0.86131207   -7.7588359    619.95951   0.02119085  0.021040894            3 
 2439000   0.86196582    -7.781578     620.0899  0.021186617  0.021034412            1 
 2440000   0.84673843   -7.7491644    619.97843  0.021174127  0.021027983            4 
 2441000   0.87206782   -7.7208867    620.60987  0.021187009  0.021021578            2 
 2442000   0.85913001   -7.7491219    621.57956  0.021211424  0.021015185            2 
 2443000   0.87212929   -7.7507217    621.06978  0.021185352  0.021008788            4 
 2444000   0.87380167   -7.7472677    621.14742  0.021179331  0.021002388            2 
 2445000   0.87460123   -7.7517401    620.97331  0.021164735   0.02099598            2 
 2446000   0.87120235   -7.7388757    621.74768  0.021182464  0.020989607            2 
 2447000   0.84820795   -7.7523233    620.92222  0.021145696  0.020983261            1 
 2448000   0.85207713   -7.7409964    621.78166  0.021166315  0.020976894            2 
 2449000   0.86293975     -7.75663    620.97599  0.021130257  0.020970492            1 
 2450000   0.85409136   -7.7458373    619.79751  0.021081548   0.02096405            2 
 2451000   0.86089778   -7.7279145    621.38221  0.021126826  0.020957625            1 
 2452000   0.86123392   -7.7890542    620.89381  0.021101611  0.020951213            2 
 2453000   0.86181735   -7.7484486    622.12046  0.021134681  0.020944765            1 
 2454000   0.84922496   -7.7568863     620.6545  0.021076287  0.020938367            2 
 2455000   0.85894871   -7.7761772    622.47105  0.021129364  0.020932014            2 
 2456000   0.85654057   -7.7507828    622.31711  0.021115537  0.020925669            1 
 2457000   0.88244049   -7.7609309    621.69636  0.021085889  0.020919317            5 
 2458000   0.85991882   -7.7695265    622.08829  0.021090599  0.020912975            1 
 2459000   0.88450468   -7.7722248    622.06426  0.021081207  0.020906615            2 
 2460000   0.84015867   -7.7849188    621.27145  0.021045781  0.020900242            3 
 2461000   0.86180873   -7.7731189    624.10698  0.021133245  0.020893874            3 
 2462000   0.85306071   -7.7967799    621.78521  0.021046074  0.020887549            2 
 2463000   0.86031912    -7.754844    621.59337  0.021031038  0.020881214            2 
 2464000   0.86913054   -7.7857316     621.5374   0.02102061  0.020874852            3 
 2465000   0.87001667   -7.7493488     623.2101  0.021068631  0.020868524            4 
 2466000    0.8554821    -7.756719    623.48711  0.021069448   0.02086221            2 
 2467000   0.85069485   -7.7719765     622.3544  0.021022646  0.020855906            1 
 2468000   0.84318202   -7.7534049    622.13451  0.021006703  0.020849591            2 
 2469000   0.84103612   -7.7890771    623.61847  0.021048281  0.020843268            2 
 2470000   0.85780766   -7.7952312     624.6719    0.0210753  0.020836947            3 
 2471000   0.84571157   -7.7708296    623.81066  0.021037726  0.020830626            2 
 2472000   0.84632036   -7.7615627    622.97764  0.021001134   0.02082434            1 
 2473000   0.84056603   -7.7578474    623.54288  0.021011689  0.020818033            2 
 2474000   0.84604423   -7.7544155    623.90625  0.021015436   0.02081175            2 
 2475000   0.84834448   -7.7918773    623.51538  0.020993784  0.020805477            3 
 2476000   0.87428483   -7.7850967    624.50774  0.021018704  0.020799216            2 
 2477000   0.83513156   -7.8068587    623.40788  0.020973216   0.02079292            2 
 2478000   0.85709954   -7.7708014    625.89529  0.021048402   0.02078666            3 
 2479000   0.87312997    -7.739473     624.8357  0.021004293  0.020780416            3 
 2480000   0.85517053   -7.7907267    624.21772  0.020975058  0.020774138            7 
 2481000   0.85673955   -7.7636714    624.93059  0.020990548  0.020767842            2 
 2482000   0.83873605   -7.7572587    624.70966  0.020974673  0.020761585            1 
 2483000   0.84096862    -7.779721    623.36084  0.020920957  0.020755288            2 
 2484000   0.84901993   -7.7372919    625.49733   0.02098421  0.020749039            1 
 2485000   0.87681547    -7.744583    626.25179  0.021001066  0.020742834            2 
 2486000   0.84227774   -7.7717865    625.84578  0.020979008  0.020736591            3 
 2487000   0.85260377   -7.7905961     625.6207  0.020963031  0.020730307            1 
 2488000   0.86158381   -7.7870821    624.61715  0.020920992  0.020724067            1 
 2489000    0.8537667   -7.7681579    625.48067  0.020941498  0.020717812            1 
 2490000   0.84867446   -7.7685063    625.60079  0.020937108  0.020711593            2 
 2491000   0.83160281   -7.7718277    625.70248  0.020932105  0.020705344            2 
 2492000   0.85102567   -7.7853652    625.35197  0.020911984   0.02069909            3 
 2493000   0.85141604   -7.7548427    625.28551  0.020901374  0.020692805            2 
 2494000    0.8598231   -7.7737992    625.94631  0.020915073  0.020686567            1 
 2495000   0.87308412   -7.7585253    626.29327  0.020918279  0.020680329            3 
 2496000    0.8544485   -7.8013661    625.10437  0.020870205  0.020674068            2 
 2497000   0.84353855    -7.777853    625.90055  0.020888418  0.020667807            2 
 2498000    0.8481115   -7.7791652    625.93355  0.020881157  0.020661578            3 
 2499000   0.85434166   -7.7775396    626.96718  0.020907269  0.020655326            1 
 2500000   0.84122211   -7.7927844     625.7501  0.020858337  0.020649076            1 
 2501000   0.85408127   -7.8027947    625.77931   0.02085097  0.020642769            3 
 2502000   0.86141995    -7.780866    626.77756  0.020875885  0.020636498            1 
 2503000   0.84144766   -7.7631595    627.25301  0.020883374  0.020630272            3 
 2504000   0.83023734   -7.8076812    627.52476  0.020884077  0.020624058            4 
 2505000   0.84859766   -7.7697027    626.76196  0.020850365  0.020617905            3 
 2506000   0.84804093   -7.7499314     629.3651  0.020928608  0.020611802            2 
 2507000   0.85068872    -7.770337    627.62294   0.02086235  0.020605663            3 
 2508000   0.83208757   -7.7957618    626.82747  0.020827601  0.020599512            2 
 2509000    0.8548202   -7.7855895    627.96129  0.020856958  0.020593319            3 
 2510000   0.84999933   -7.7804754    627.64671  0.020838204  0.020587145            1 
 2511000   0.85781774   -7.7588902    627.39492  0.020821549  0.020580983            3 
 2512000   0.86422921   -7.7959714    626.03102  0.020768014  0.020574827            2 
 2513000   0.86344145   -7.7666612    627.43359   0.02080626  0.020568642            2 
 2514000   0.84187021   -7.7778678    629.96904  0.020882029  0.020562492            2 
 2515000    0.8432105   -7.7761433     628.3666   0.02082063  0.020556297            4 
 2516000   0.84517667   -7.7700055     627.6821  0.020789683  0.020550144            2 
 2517000   0.85884106   -7.7698321    627.52258  0.020776141  0.020543955            3 
 2518000    0.8563297   -7.7615615    629.32071    0.0208274  0.020537757            3 
 2519000   0.86098975   -7.7861467    629.01746  0.020809099  0.020531592            3 
 2520000   0.84922287   -7.7834479    629.43883  0.020814776   0.02052545            2 
 2521000   0.83582798   -7.7871137    629.20694  0.020798854  0.020519311            3 
 2522000   0.82460592   -7.7627861    629.13164  0.020788119  0.020513167            2 
 2523000   0.83920828   -7.7651221    628.79717  0.020768833  0.020507021            1 
 2524000   0.83787173   -7.7785601    629.03558  0.020768475  0.020500915            1 
 2525000   0.84653163   -7.7749875    629.13336  0.020763477  0.020494767            1 
 2526000   0.85070748   -7.7895762    628.34497  0.020729248  0.020488597            1 
 2527000   0.85393492   -7.7932686    628.01909  0.020710299  0.020482444            1 
 2528000   0.83395324   -7.7719893     629.0793  0.020737055  0.020476279            4 
 2529000    0.8608838   -7.7770956    629.73539  0.020750474  0.020470119            2 
 2530000    0.8643927   -7.7431174     630.4076  0.020764414  0.020464026            2 
 2531000   0.85062136   -7.7661398    630.95668  0.020774288  0.020457977            2 
 2532000   0.84367787   -7.7928702    629.88049  0.020730664  0.020451902            1 
 2533000   0.83348046    -7.783424     629.7428   0.02071795    0.0204458            2 
 2534000   0.83774757    -7.743362    631.19798  0.020757629  0.020439756            2 
 2535000   0.85695317   -7.7580454    630.76773  0.020735297  0.020433682            1 
 2536000   0.86149065   -7.7618157     629.9322  0.020699665  0.020427631            2 
 2537000    0.8382917   -7.8026589    629.97629  0.020692954  0.020421576            3 
 2538000   0.81901634   -7.8031397    630.32255   0.02069617  0.020415463            2 
 2539000   0.84737803    -7.818976    629.17236  0.020650268  0.020409384            1 
 2540000   0.85167242   -7.8105951    629.75309  0.020661191  0.020403298            3 
 2541000   0.84845238    -7.780702    630.50161  0.020677608  0.020397205            2 
 2542000   0.83111015   -7.8404183    630.43316  0.020667229   0.02039109            2 
 2543000   0.86302922   -7.8039791    631.12863  0.020681892  0.020385002            1 
 2544000   0.83843668   -7.7941023    632.13391  0.020706692  0.020378888            2 
 2545000   0.85202283   -7.7738737    631.27677   0.02067049  0.020372825            3 
 2546000   0.82599679   -7.8139905    631.11345  0.020657026  0.020366749            5 
 2547000   0.83985053   -7.8065959    630.37218  0.020624662  0.020360667            4 
 2548000   0.85117888   -7.8016596    630.85612  0.020632395  0.020354638            3 
 2549000   0.86367762   -7.7960505    630.42838  0.020610317  0.020348663            3 
 2550000   0.84508575   -7.7517446    633.53019  0.020703601  0.020342693            2 
 2551000   0.83166342   -7.7999804     631.7539  0.020637459  0.020336725            2 
 2552000   0.86451412   -7.7995922    631.86146  0.020632885  0.020330728            3 
 2553000    0.8435779   -7.7998929     631.8075  0.020623041  0.020324769            1 
 2554000   0.85156075   -7.7544143    633.67155  0.020675788  0.020318799            1 
 2555000   0.84798309   -7.7979162    634.31243  0.020688599  0.020312847            2 
 2556000   0.85307233   -7.8010217    633.56954  0.020656284  0.020306874            2 
 2557000   0.84501997    -7.807711    632.82813  0.020624043  0.020300888            1 
 2558000   0.83857238   -7.8081717    633.45473  0.020636393  0.020294881            2 
 2559000   0.84258075   -7.7656421    632.46598  0.020596131  0.020288925            2 
 2560000   0.83332457   -7.7944976    632.77304  0.020598081  0.020282956            2 
 2561000   0.83758914   -7.7680674    633.27915  0.020606506  0.020277013            5 
 2562000   0.84189682   -7.7841423    633.49576  0.020605509  0.020271027            2 
 2563000   0.86537174   -7.8281672     633.2509  0.020589508  0.020265062            1 
 2564000   0.84313462   -7.8221314    632.93888  0.020571336  0.020259059            3 
 2565000    0.8469397   -7.8054148    634.38834  0.020610408  0.020253111            2 
 2566000   0.84109906   -7.8136044    632.66257  0.020546329   0.02024713            3 
 2567000   0.85056027   -7.7977602    635.29054  0.020623638  0.020241132            1 
 2568000    0.8322122   -7.8004361     632.9187  0.020538639  0.020235137            3 
 2569000   0.83072038   -7.8052878    634.57311   0.02058431   0.02022916            3 
 2570000   0.84774676   -7.8246987    633.51423  0.020541966  0.020223157            5 
 2571000   0.84878258   -7.7856473    635.02621  0.020582984  0.020217155            2 
 2572000   0.83762139   -7.7671233    634.59486  0.020561005   0.02021118            1 
 2573000   0.82309862   -7.7891548    633.57941  0.020520126  0.020205187            2 
 2574000   0.84045325   -7.8194401    632.53833  0.020478449  0.020199162            2 
 2575000   0.86643782   -7.8089973    633.74036  0.020509397  0.020193128            2 
 2576000   0.85471002   -7.8086268    634.04623   0.02051133  0.020187094            2 
 2577000   0.84920513   -7.7920304    634.38963  0.020514475  0.020181075            2 
 2578000   0.85482672   -7.7920885    634.48448  0.020509584   0.02017508            1 
 2579000   0.84970989   -7.8000716    632.56087  0.020439475  0.020169066            1 
 2580000   0.84072526   -7.8010602     634.7209  0.020501321  0.020163097            1 
 2581000   0.83731835   -7.8171047    633.85906  0.020465551  0.020157075            3 
 2582000    0.8261636    -7.803708    634.89457  0.020491046  0.020151078            3 
 2583000    0.8511112   -7.8027402    633.59808  0.020441285  0.020145058            2 
 2584000   0.84341835    -7.786456     635.6943  0.020500977  0.020139052            4 
 2585000   0.85479951   -7.8276715    632.83373  0.020400829  0.020133111            2 
 2586000    0.8519429   -7.8305899    633.27477  0.020407153  0.020127138            4 
 2587000   0.83476406   -7.8259196    634.19252  0.020428828  0.020121148            4 
 2588000   0.84826545   -7.7661856    635.91073   0.02047626   0.02011518            2 
 2589000   0.83271348   -7.8076256    635.73688  0.020462755  0.020109178            2 
 2590000   0.81754447   -7.8413882    634.24034  0.020406703  0.020103185            2 
 2591000   0.82576649   -7.8157114    635.84556  0.020450455  0.020097179            3 
 2592000   0.82474518   -7.8447626    635.07908  0.020417923  0.020091189            1 
 2593000   0.84497285   -7.8126641    634.68247  0.020397303  0.020085199            1 
 2594000   0.84080727   -7.7894262    638.24233  0.020503801  0.020079246            3 
 2595000   0.84087813   -7.7964911    637.53102  0.020473058  0.020073354            2 
 2596000   0.83914708   -7.7807879    636.23426  0.020423544   0.02006744            2 
 2597000   0.84183107   -7.8548264    634.83754  0.020370862  0.020061503            2 
 2598000   0.82501693    -7.807988    634.61021  0.020355729   0.02005557            2 
 2599000   0.84924176    -7.800766    634.56411  0.020346419  0.020049644            2 
 2600000   0.83722365    -7.830835     637.2748  0.020425474  0.020043755            2 
 2601000   0.83160654   -7.8107002    636.47973  0.020392148  0.020037876            1 
 2602000   0.83910851   -7.7887697    637.70509  0.020423555     0.020032            1 
 2603000   0.83680917   -7.7995348    637.74664  0.020417039  0.020026106            3 
 2604000   0.82127953   -7.8216352    634.90558  0.020318279  0.020020219            2 
 2605000   0.83364607   -7.8402086    635.83325  0.020340155  0.020014328            2 
 2606000   0.84303199   -7.8068411    637.68714  0.020391633  0.020008453            2 
 2607000    0.8297807    -7.789756    638.35729  0.020405232    0.0200026            1 
 2608000   0.82569854   -7.8383507    636.63877  0.020342497  0.019996695            2 
 2609000   0.82612333   -7.7759864    637.00124  0.020346277  0.019990804            1 
 2610000   0.82993204   -7.8290758    637.20299  0.020344923  0.019984917            6 
 2611000    0.8465893   -7.8188387    636.91373  0.020327899   0.01997902            2 
 2612000   0.82173441   -7.8339051    638.30153  0.020364393   0.01997314            3 
 2613000   0.83267138   -7.8147747    637.85133  0.020342242  0.019967239            1 
 2614000   0.81405376   -7.8279402    637.00114  0.020307356  0.019961336            3 
 2615000   0.82568435   -7.8050048    636.47456   0.02028281  0.019955444            2 
 2616000   0.84383686   -7.8124277    638.59342  0.020342553  0.019949545            1 
 2617000   0.83614667   -7.8129375    637.54938  0.020301534  0.019943673            1 
 2618000   0.81573543   -7.8075233    638.10306  0.020311404  0.019937779            2 
 2619000   0.84041773   -7.8119261    638.63045  0.020320429  0.019931917            2 
 2620000   0.84157771   -7.8093078     638.6532  0.020313397  0.019926061            1 
 2621000   0.83792459   -7.8177204    638.90289  0.020313586  0.019920207            2 
 2622000   0.82520924   -7.8018116    640.73587  0.020364095  0.019914381            3 
 2623000   0.83962064   -7.8218924    639.34712   0.02031221  0.019908567            3 
 2624000   0.83006187   -7.8044539    640.29584  0.020334599  0.019902749            2 
 2625000   0.82963978   -7.8321664    639.79659  0.020311003  0.019896935            2 
 2626000   0.83658916   -7.8525948    640.02808  0.020310614  0.019891128            2 
 2627000   0.83183323   -7.8798754    637.02005  0.020207463   0.01988528            2 
 2628000   0.82912151   -7.8221132    638.52197  0.020247399  0.019879403            2 
 2629000   0.83040826   -7.8327394    637.38995  0.020203815  0.019873524            3 
 2630000   0.83274872   -7.8387439    638.18582   0.02022135  0.019867636            2 
 2631000   0.83936809   -7.8883583    638.94955  0.020237855  0.019861778            1 
 2632000    0.8279765   -7.8062616    639.64017  0.020252032  0.019855904            3 
 2633000   0.83467264   -7.8375309    638.68411  0.020214081  0.019850037            2 
 2634000   0.84787715   -7.8609893    639.61917   0.02023599  0.019844178            2 
 2635000   0.81728724   -7.8603842    637.43958   0.02015938  0.019838261            2 
 2636000   0.85488955   -7.8497974     638.8312  0.020195726  0.019832392            4 
 2637000    0.8367077   -7.8517868    640.26275  0.020233306  0.019826534            3 
 2638000   0.81980064   -7.8620736    638.92394  0.020183344  0.019820681            3 
 2639000    0.8448944   -7.8282604    639.87947  0.020205869  0.019814824            2 
 2640000   0.83566863   -7.8441865    640.43492  0.020215749   0.01980897            4 
 2641000   0.85062964    -7.833209    639.59879  0.020181711  0.019803122            2 
 2642000   0.83374342   -7.8332038    639.39585  0.020167671  0.019797258            2 
 2643000   0.83960262   -7.8212445    640.29935  0.020188528  0.019791405            1 
 2644000   0.83806755   -7.8647629    638.90057  0.020136806  0.019785571            2 
 2645000   0.82662395   -7.8483259    638.37077  0.020112501  0.019779674            1 
 2646000   0.83008545   -7.8452149     640.7903  0.020181101  0.019773779            2 
 2647000   0.82027423   -7.8583533    637.24047   0.02006172  0.019767912            4 
 2648000    0.8167301   -7.8182792    639.57446  0.020127595  0.019762049            1 
 2649000   0.82357667   -7.8090199    639.61563  0.020121292  0.019756245            2 
 2650000    0.8420898   -7.8424602    640.61296  0.020145062  0.019750485            3 
 2651000   0.84260443   -7.8282469    641.97336  0.020180226  0.019744695            2 
 2652000   0.81821036   -7.8369178    639.79484  0.020104162  0.019738922            6 
 2653000   0.83368406   -7.8424652    641.89563  0.020162572  0.019733104            1 
 2654000   0.82879025   -7.8423125    641.67868  0.020148162  0.019727268            1 
 2655000   0.81863383   -7.8292276    640.65716  0.020108511  0.019721458            1 
 2656000   0.80625596   -7.8797671    640.16461  0.020085486  0.019715668            5 
 2657000   0.82899557   -7.8641228    640.88609  0.020100555  0.019709841            2 
 2658000   0.83346152   -7.8401631    640.13808  0.020069541  0.019704005            5 
 2659000   0.83438168   -7.8610623    639.88421  0.020054037   0.01969819            2 
 2660000   0.83232785   -7.8627889    640.83169  0.020076181  0.019692365            3 
 2661000   0.82122537   -7.8308993    642.04121  0.020106514  0.019686559            2 
 2662000   0.81392451   -7.8501649    640.67037  0.020056047  0.019680731            2 
 2663000   0.80713316   -7.8367932    642.63873  0.020110112  0.019674931            2 
 2664000   0.83779286   -7.8325255    641.61627  0.020070579   0.01966913            1 
 2665000   0.84953401   -7.8315643    640.29292  0.020021667  0.019663304            3 
 2666000   0.84740222   -7.8367588    642.22946  0.020074689  0.019657504            2 
 2667000   0.82217984   -7.8568433    641.32656   0.02003895   0.01965171            2 
 2668000   0.82013587   -7.8357711    641.48847  0.020036496  0.019645889            1 
 2669000   0.81531259   -7.8482559    641.21532  0.020020461  0.019640059            1 
 2670000   0.82300582   -7.8426533    641.83163  0.020032198  0.019634218            1 
 2671000   0.84012871   -7.8716336    639.54372  0.019953317  0.019628393            2 
 2672000   0.81856735   -7.8495105    641.15582  0.019996127  0.019622556            3 
 2673000   0.81939582   -7.8392816    642.09839  0.020018032  0.019616735            2 
 2674000   0.81430445   -7.8298239    642.99837  0.020038593  0.019610932            4 
 2675000   0.82925854   -7.8486752    643.11484   0.02003473   0.01960522            3 
 2676000   0.82812309   -7.8778478    641.59313  0.019979856  0.019599447            2 
 2677000   0.82328268   -7.8251618    642.91658  0.020013591  0.019593691            3 
 2678000   0.81387571   -7.8417106    643.09944  0.020011807  0.019587909            3 
 2679000   0.81025475   -7.8296015    642.78216  0.019994468  0.019582121            2 
 2680000   0.84085805   -7.8595328    641.95031  0.019961142  0.019576349            2 
 2681000   0.82535575    -7.857638    641.88627  0.019951705  0.019570569            1 
 2682000   0.82163358    -7.861521    643.30273  0.019988278   0.01956477            5 
 2683000    0.8359764   -7.8553821    643.54417  0.019988327  0.019558983            2 
 2684000   0.81885186   -7.8405388     641.6696  0.019922678  0.019553205            2 
 2685000   0.83263062   -7.8592884    641.88053  0.019921804  0.019547412            2 
 2686000   0.82765913   -7.8551728    642.75146  0.019941408  0.019541621            2 
 2687000   0.82942939   -7.8654947    641.46565  0.019894109  0.019535855            2 
 2688000    0.8202552   -7.8657321     641.7989  0.019897039  0.019530064            1 
 2689000     0.835739   -7.8677736     642.7669  0.019919639  0.019524282            1 
 2690000   0.82733247    -7.850055    643.22904   0.01992655   0.01951849            1 
 2691000   0.81226778   -7.8468393    642.85556   0.01990758  0.019512704            3 
 2692000   0.79111492   -7.8528297     643.9458  0.019933934  0.019506936            7 
 2693000   0.82168384   -7.8185274    645.21373  0.019965767  0.019501147            3 
 2694000   0.81369878   -7.8386703    644.72387  0.019943203  0.019495441            1 
 2695000   0.81039933   -7.8393983    643.35091  0.019893349  0.019489734            4 
 2696000    0.8278856   -7.8531818    643.65737  0.019895443  0.019484017            3 
 2697000   0.81072626   -7.8554174    644.04599  0.019900074  0.019478288            4 
 2698000   0.81644787    -7.864514    645.05175  0.019923763   0.01947256            2 
 2699000    0.8114235   -7.8607587    643.34004  0.019863531  0.019466829            5 
 2700000   0.81992904   -7.8818148    643.10168  0.019848817  0.019461096            3 
 2701000   0.82423534   -7.8743892    643.82918  0.019863914  0.019455355            2 
 2702000   0.83218738   -7.8799137    644.12434  0.019865665  0.019449566            2 
 2703000    0.8221311   -7.8819217    643.25966  0.019831658  0.019443807            2 
 2704000    0.8184098   -7.8862038    642.75207  0.019808681  0.019438056            6 
 2705000   0.81417806   -7.8793703    643.99489  0.019839645  0.019432304            2 
 2706000   0.81987778   -7.8625059    644.94371  0.019861533  0.019426573            3 
 2707000   0.81953217    -7.863874    644.27738  0.019833684  0.019420851            1 
 2708000   0.82484428    -7.912476    643.98243  0.019817283  0.019415161            7 
 2709000    0.8260641    -7.854153    644.05135  0.019812088  0.019409485            2 
 2710000   0.80707039   -7.8861946    644.92998  0.019831795  0.019403791            4 
 2711000   0.82432983   -7.8841354     644.7526  0.019819027   0.01939808            3 
 2712000   0.82728571   -7.8683963     645.3387  0.019829729  0.019392377            2 
 2713000   0.80660049   -7.8774831    645.93984  0.019840885   0.01938669            6 
 2714000    0.8372249   -7.8746792    645.94904  0.019833857   0.01938105            3 
 2715000    0.8296377   -7.8436882    645.75855  0.019820704   0.01937542            2 
 2716000   0.81079781   -7.8615046    645.76153  0.019813498  0.019369822            3 
 2717000   0.82296614   -7.8547805    645.07131  0.019785036  0.019364177            2 
 2718000   0.81551168   -7.8509646    646.79473  0.019830596  0.019358542            1 
 2719000   0.82262536   -7.8751156    646.99015  0.019829292  0.019352901            2 
 2720000   0.80185436   -7.8673015    645.35611   0.01977194  0.019347258            3 
 2721000   0.82217723   -7.8777397    645.40817  0.019766268  0.019341596            2 
 2722000   0.81902502   -7.8661029    645.60139  0.019764921  0.019335964            2 
 2723000   0.84080309   -7.8571713    646.32406  0.019779779  0.019330345            2 
 2724000   0.81865674   -7.8734295    646.44182   0.01977612  0.019324696            2 
 2725000   0.82577285   -7.8742995    644.94802  0.019723181  0.019319053            1 
 2726000    0.8144767   -7.8594023    648.67741  0.019829953   0.01931341            3 
 2727000   0.83573943   -7.8473371    646.88861  0.019768018  0.019307781            2 
 2728000   0.81173645   -7.8502538    645.11076  0.019706463  0.019302146            1 
 2729000   0.84000851   -7.8971033    646.38225  0.019738068  0.019296469            2 
 2730000    0.8217561   -7.8267333    647.53648  0.019766071  0.019290827            2 
 2731000   0.80469114   -7.8925516    647.11199   0.01974588  0.019285198            1 
 2732000   0.82491433   -7.8308151    647.12223  0.019738965  0.019279586            1 
 2733000   0.83011788   -7.8443819    648.20664  0.019764808  0.019273985            5 
 2734000   0.81243659   -7.8565094    647.43922  0.019734187  0.019268384            2 
 2735000   0.80379844   -7.8812715      647.382  0.019725229  0.019262753            5 
 2736000   0.81066611   -7.8539621    646.19582   0.01968189  0.019257121            1 
 2737000   0.79163661   -7.8930852    646.22473  0.019675579  0.019251456            2 
 2738000   0.81403895   -7.8567199    647.56704  0.019709248  0.019245797            1 
 2739000   0.83419789   -7.8853883     645.6105  0.019642525  0.019240165            4 
 2740000   0.82484346   -7.9077832    645.56302  0.019633912  0.019234491            3 
 2741000   0.79941161   -7.8412112    646.14917  0.019644569  0.019228824            4 
 2742000   0.81345991   -7.8427642    647.79903  0.019687547   0.01922319            2 
 2743000   0.84402064   -7.8659836    647.07068  0.019658242  0.019217548            2 
 2744000   0.82561207   -7.8674677    647.66819  0.019669223  0.019211863            2 
 2745000   0.81780381   -7.9031427    646.15649  0.019616165  0.019206159            1 
 2746000   0.81603799   -7.8897942    647.52849  0.019650658  0.019200446            2 
 2747000   0.81403445   -7.8877917    646.22684  0.019604018  0.019194737            4 
 2748000   0.79982203   -7.8835971    646.01982  0.019590606  0.019189049            3 
 2749000   0.80816366   -7.8791713    647.02176  0.019613852  0.019183329            3 
 2750000   0.79935009   -7.8681669    644.99293   0.01954524  0.019177611            2 
 2751000   0.80376251   -7.8719618     646.8806  0.019595317  0.019171888            1 
 2752000   0.78892706   -7.8678195    647.72461  0.019613754  0.019166191            5 
 2753000   0.81432704   -7.9026396    645.56258  0.019541185    0.0191605            1 
 2754000   0.81517161   -7.8652572    648.02512  0.019608603  0.019154795            2 
 2755000   0.81555042   -7.8750622    646.89588  0.019567328  0.019149082            6 
 2756000   0.80101482   -7.8654028     647.5245  0.019579236  0.019143376            2 
 2757000   0.81017549   -7.8830871    647.19158  0.019562072  0.019137719            2 
 2758000    0.8053949   -7.8641386    648.41958  0.019592083  0.019132018            3 
 2759000   0.82117311   -7.8683314    646.69606  0.019532925  0.019126318            3 
 2760000   0.79440874    -7.874572    647.57928  0.019552514  0.019120605            2 
 2761000   0.79443893   -7.8907067    646.28767  0.019506449  0.019114902            1 
 2762000    0.8240158   -7.9294485    647.89921  0.019548009  0.019109174            3 
 2763000   0.79183183   -7.8724653    646.57251   0.01950092  0.019103483            2 
 2764000   0.80677091   -7.8917815      646.038   0.01947775  0.019097781            1 
 2765000   0.80924901   -7.9040891    645.77965  0.019462919  0.019092049            1 
 2766000   0.80033776   -7.8785278    647.75236  0.019515316  0.019086325            2 
 2767000    0.8134851    -7.897014    647.07346  0.019487817  0.019080609            2 
 2768000    0.8121302   -7.9087416    646.52248  0.019464188   0.01907489            1 
 2769000   0.80495606   -7.8568865    648.42528  0.019514424  0.019069156            1 
 2770000   0.77916173   -7.8718508    647.40109  0.019476567   0.01906344            2 
 2771000   0.81748296   -7.8768822    648.22076  0.019494189  0.019057721            2 
 2772000   0.79361025   -7.9005394    649.14444  0.019514924  0.019052008            1 
 2773000    0.8118714   -7.8672592    648.51273  0.019488903  0.019046288            2 
 2774000   0.79627601   -7.9344721    646.05573  0.019408067  0.019040574            2 
 2775000   0.80566387   -7.8869965    647.87543  0.019455719  0.019034841            2 
 2776000   0.83127503   -7.8971813     648.1001  0.019455455   0.01902911            2 
 2777000    0.8153338   -7.9014518    647.60769  0.019433672  0.019023386            2 
 2778000   0.80340037   -7.8664495    649.30249  0.019477517  0.019017674            1 
 2779000   0.79236261   -7.8912147    648.76357  0.019454347  0.019011961            2 
 2780000    0.7943403   -7.8823232    647.16114  0.019399315  0.019006254            1 
 2781000   0.79282413   -7.9106376    645.75566  0.019350223  0.019000516            2 
 2782000     0.819179   -7.9306264    646.95263  0.019379123  0.018994766            1 
 2783000    0.8064111   -7.8906442    647.92848   0.01940138  0.018989031            2 
 2784000   0.81358418   -7.8983839    648.60026  0.019414519  0.018983313            2 
 2785000   0.78663217   -7.9342959    648.18198  0.019395032  0.018977625            3 
 2786000   0.81348506   -7.9031955      648.823  0.019407245  0.018971939            1 
 2787000   0.81300624   -7.9165795    648.00841  0.019375924  0.018966244            1 
 2788000   0.80347459   -7.8767517    648.01129  0.019369061   0.01896057            7 
 2789000   0.80796218   -7.8998713    648.15254  0.019366336  0.018954878            2 
 2790000   0.79855198   -7.8918587    648.03799  0.019355973  0.018949181            2 
 2791000   0.80465449   -7.9307629    647.59224  0.019335729  0.018943473            2 
 2792000    0.7988827   -7.8927939    649.18174  0.019376246  0.018937727            2 
 2793000   0.79590224   -7.9291125    648.05254  0.019335617  0.018932032            1 
 2794000   0.80091113   -7.9162093     648.9192  0.019354545  0.018926313            3 
 2795000   0.80184798   -7.9159888     648.1638  0.019325098  0.018920584            1 
 2796000    0.8109681   -7.8664193    649.57329  0.019360196   0.01891486            2 
 2797000   0.78608751   -7.9218865    649.20318  0.019342247  0.018909158            2 
 2798000   0.80723934   -7.8998418    648.54942  0.019315863  0.018903427            2 
 2799000   0.81449594   -7.8880316    650.00339  0.019352251  0.018897691            3 
 2800000   0.80026213   -7.9284071    647.59066  0.019273532  0.018891971            4 
 2801000   0.79600538   -7.8987714    648.50662  0.019293902   0.01888624            3 
 2802000   0.80773977   -7.9344588    648.47028  0.019285935   0.01888052            2 
 2803000    0.8045358   -7.9095315    647.93096  0.019263021  0.018874808            2 
 2804000   0.79524943    -7.899029    650.14363   0.01932191  0.018869131            2 
 2805000   0.80295654   -7.8970093     648.9772  0.019280369  0.018863487            2 
 2806000   0.80687301   -7.9045674     650.4096  0.019316037   0.01885784            4 
 2807000   0.81721195   -7.9210718    650.62547  0.019315564  0.018852183            3 
 2808000   0.80357113   -7.9159225    649.13385  0.019264418  0.018846512            2 
 2809000   0.79718642   -7.9362477    649.05213  0.019255136  0.018840822            2 
 2810000   0.81494498    -7.896844    650.09965  0.019279349  0.018835174            2 
 2811000   0.80596582   -7.8800458    650.40429  0.019281522  0.018829523            5 
 2812000   0.77938798   -7.9300232    649.61566  0.019251294  0.018823876            3 
 2813000   0.80075756   -7.8981156    651.00277  0.019285542  0.018818208            1 
 2814000   0.79124324   -7.9195249    650.94845   0.01927708  0.018812555            3 
 2815000   0.80491613     -7.88764    650.98885  0.019271428  0.018806951            2 
 2816000   0.79733386    -7.890453    650.47123  0.019249267  0.018801327            2 
 2817000   0.79657178   -7.9358954    650.49568  0.019243157  0.018795715            1 
 2818000   0.81663207   -7.8647563    651.33275  0.019261082  0.018790099            2 
 2819000   0.80999496   -7.8726192    651.73479  0.019266134  0.018784479            2 
 2820000   0.78685649   -7.9184591    649.75747  0.019200871  0.018778867            3 
 2821000   0.79402681   -7.8831009    651.38633  0.019242182  0.018773264            3 
 2822000    0.8031908   -7.8846038    650.10474  0.019197518  0.018767662            3 
 2823000   0.80798579   -7.8994626    650.34214  0.019197725  0.018762027            4 
 2824000    0.8016441   -7.9450734    649.40853  0.019163377  0.018756381            1 
 2825000    0.7933212   -7.9323981    650.21922  0.019180508  0.018750695            3 
 2826000   0.80976933   -7.9232292    649.09473  0.019140562  0.018745001            2 
 2827000   0.79643524   -7.9228317    648.71296  0.019122538    0.0187393            4 
 2828000   0.80341943   -7.9009232    651.54621  0.019199264  0.018733597            2 
 2829000   0.79520493   -7.9096516    650.77526  0.019169767  0.018727924            2 
 2830000   0.78993116   -7.9020496    650.11139  0.019143445  0.018722258            1 
 2831000   0.80361342   -7.9165712    650.14265  0.019137603  0.018716604            2 
 2832000    0.7761119   -7.8965185    651.78856  0.019179277  0.018710993            1 
 2833000   0.79937864   -7.9095454    651.77739  0.019172179   0.01870533            4 
 2834000   0.77170322   -7.9086123    649.86351  0.019109137  0.018699698            2 
 2835000   0.79913502   -7.9324251    650.54366  0.019122388  0.018694063            2 
 2836000   0.81213805   -7.9017259    652.62478  0.019176798  0.018688445            2 
 2837000   0.80329995   -7.8846236    651.63431  0.019140944   0.01868284            3 
 2838000   0.78819705   -7.9255908    651.01101  0.019115898  0.018677229            5 
 2839000   0.80945577   -7.9286581    649.96096  0.019078342  0.018671583            1 
 2840000   0.81091394   -7.9190443    651.88781  0.019128163  0.018665978            3 
 2841000   0.80603889   -7.9286748      652.214  0.019130998  0.018660361            5 
 2842000   0.79075897   -7.9227143    651.99365  0.019117806  0.018654737            4 
 2843000   0.80203112   -7.9392233    651.48904   0.01909629  0.018649138            1 
 2844000   0.79545032   -7.9316816    652.18087  0.019109847  0.018643542            3 
 2845000   0.81300786   -7.9079228    651.84275  0.019093227  0.018637936            1 
 2846000   0.79576661   -7.8826542    652.11586  0.019094514  0.018632336            4 
 2847000   0.80277467   -7.9039285    652.64385  0.019103262  0.018626736            2 
 2848000   0.79698209   -7.9274241    652.59111  0.019095011  0.018621133            3 
 2849000    0.7969375   -7.8827763    651.87068  0.019067237  0.018615526            2 
 2850000   0.80146951   -7.9181257    651.49704  0.019049621  0.018609935            3 
 2851000   0.79636319   -7.9347395    651.91069   0.01905503  0.018604337            2 
 2852000   0.78846248   -7.8950651    652.25249  0.019058336  0.018598763            2 
 2853000   0.79600939   -7.9224838    652.78856  0.019067314  0.018593184            5 
 2854000   0.78451407   -7.8804931    653.47535  0.019080686  0.018587608            6 
 2855000   0.80901112   -7.9065341    653.34069  0.019070073  0.018582023            4 
 2856000   0.80034712   -7.9459651    651.73105  0.019016429  0.018576427            2 
 2857000   0.79635715   -7.9133188    653.27625  0.019054843  0.018570842            2 
 2858000   0.77692542   -7.9044581    652.08424   0.01901342  0.018565233            5 
 2859000     0.781042   -7.9325832    651.72516  0.018996303  0.018559635            2 
 2860000   0.79107267   -7.9361704    652.41575  0.019009783   0.01855403            4 
 2861000   0.80133876   -7.9178522    652.09618   0.01899383  0.018548437            2 
 2862000   0.81040491   -7.9332848    652.22607  0.018990976  0.018542821            3 
 2863000   0.80577434   -7.9306427    652.13749  0.018981764  0.018537199            3 
 2864000   0.78482301   -7.9190708    652.80792  0.018994644  0.018531604            2 
 2865000   0.78181216   -7.9150994    652.79202  0.018987551  0.018526003            2 
 2866000    0.7839996   -7.9257931    652.90585  0.018984236  0.018520416            2 
 2867000   0.77376249   -7.9188233    654.97653  0.019037802  0.018514855            2 
 2868000   0.79629599   -7.8958583    654.18328  0.019008115  0.018509273            1 
 2869000   0.78585079    -7.886196    654.66846  0.019015582  0.018503726            2 
 2870000   0.78847822   -7.9068068    653.92233  0.018987292  0.018498159            2 
 2871000   0.78619388   -7.9490377    652.45137  0.018937982  0.018492583            5 
 2872000   0.80004766   -7.9141562    653.55432  0.018963391  0.018487012            3 
 2873000   0.79698085    -7.927388    652.01304  0.018912085  0.018481432            3 
 2874000   0.79748211   -7.8907417    653.45512  0.018947318  0.018475876            5 
 2875000   0.78065839   -7.8869839    654.38979   0.01896782  0.018470351            5 
 2876000   0.79291138   -7.8990307    653.83138  0.018945045  0.018464843            1 
 2877000   0.80103283   -7.9328065    653.80243  0.018937621  0.018459312            1 
 2878000   0.78013684   -7.9090432    654.13273  0.018940605  0.018453754            2 
 2879000   0.78627668   -7.9241928    656.36356  0.018998598  0.018448201            1 
 2880000   0.79939264   -7.9371271    653.84708  0.018919186  0.018442667            3 
 2881000   0.79784916   -7.9352556    652.88815  0.018884882    0.0184371            1 
 2882000   0.77431281   -7.9229554    653.21044  0.018887649  0.018431546            1 
 2883000   0.79966301   -7.9067572    653.60254  0.018892431  0.018426004            3 
 2884000   0.76984366   -7.9185879    654.58432  0.018914249  0.018420455            3 
 2885000   0.78635616   -7.9299431    654.04831   0.01889221  0.018414894            2 
 2886000   0.80339707   -7.9705058    654.14786  0.018888538  0.018409315            1 
 2887000   0.78439901   -7.9375785    654.43521   0.01889029  0.018403776            3 
 2888000   0.80239731   -7.9400581    655.25968  0.018907539   0.01839825            3 
 2889000   0.78147006   -7.8995286    654.87847  0.018889998  0.018392739            4 
 2890000   0.79366824   -7.9228305    654.54842  0.018873945  0.018387207            4 
 2891000   0.78402503   -7.9335072    653.17754  0.018827901  0.018381657            3 
 2892000   0.79677487   -7.9375802    656.37974  0.018913662  0.018376117            2 
 2893000   0.79340011    -7.982356    652.50536  0.018795523  0.018370541            2 
 2894000   0.79368886   -7.9498233    655.64312   0.01887938  0.018364951            6 
 2895000   0.77189485   -7.9512774    654.84082  0.018849765  0.018359403            4 
 2896000     0.778208   -7.9264078    655.08418  0.018850258  0.018353867            2 
 2897000   0.79737995   -7.9633831    655.25833  0.018848761  0.018348322            3 
 2898000   0.79357403   -7.9397555    653.62777   0.01879537  0.018342781            2 
 2899000   0.79400499   -7.9492891    654.52161   0.01881458  0.018337216            5 
 2900000   0.78966212   -7.9143871    654.94946  0.018820387  0.018331668            4 
 2901000   0.80664444   -7.9210472    654.35188  0.018796733  0.018326136            3 
 2902000   0.81182182   -7.9258494     655.9647   0.01883657   0.01832061            3 
 2903000   0.77432428   -7.9143536    655.33352  0.018811962  0.018315097            1 
 2904000   0.79568879   -7.9538361     652.5888  0.018726722  0.018309552            9 
 2905000   0.78780183   -7.9302507    656.60379   0.01883545  0.018304006            2 
 2906000   0.79579925   -7.9396759      654.589  0.018771192  0.018298465            4 
 2907000   0.76255245   -7.9155591    654.63823  0.018766146  0.018292917            2 
 2908000   0.78635656   -7.9338286    654.82379   0.01876501  0.018287385            2 
 2909000   0.79638879   -7.9520636    654.36567  0.018745436  0.018281838            2 
 2910000   0.79344126   -7.9412722    655.76443   0.01877905  0.018276305            5 
 2911000    0.7860088   -7.9404166     655.2374  0.018757512  0.018270747            2 
 2912000   0.77332326   -7.9522571     654.6475  0.018734189  0.018265218            2 
 2913000   0.79415919   -7.8978261    656.02035  0.018767031    0.0182597            4 
 2914000   0.79152721   -7.9505902    655.40649  0.018743036  0.018254187            3 
 2915000   0.78066878   -7.9351368     655.4097  0.018736698  0.018248652            1 
 2916000   0.78265385   -7.9508871    657.15984  0.018780288  0.018243116            1 
 2917000   0.79685518   -7.9474575    655.18849  0.018717532   0.01823759            3 
 2918000   0.79635064   -7.9428896    654.77901  0.018699423   0.01823208            2 
 2919000   0.78183833   -7.9448852     655.5994  0.018716438  0.018226557            5 
 2920000    0.7689999   -7.9614934    656.42788  0.018733673   0.01822105            2 
 2921000   0.78352713   -7.9190749    656.40021   0.01872647   0.01821553            2 
 2922000   0.78384094   -7.9442149    655.30063  0.018688701  0.018210031            1 
 2923000   0.76331878    -7.962495    654.10918   0.01864834  0.018204495            5 
 2924000   0.77485037   -7.9649542    654.42131  0.018650858  0.018198944            2 
 2925000   0.80453682   -7.9746391    654.68071  0.018651872  0.018193365            3 
 2926000   0.78311922   -7.9558844    655.91922  0.018680771  0.018187802            3 
 2927000   0.78808663   -7.9657291    656.17102  0.018681557  0.018182277            3 
 2928000   0.76750145   -7.9620853      655.511  0.018656392  0.018176721            2 
 2929000   0.79079155   -7.9868061    655.12596  0.018639068  0.018171178            2 
 2930000   0.77331333   -7.9742858    655.69003  0.018648749  0.018165628            1 
 2931000   0.78686409   -7.9488765    655.60818   0.01864006  0.018160109            1 
 2932000   0.78778905   -7.9377741     656.1126  0.018648039   0.01815459            3 
 2933000   0.78552394   -7.9562595    655.06383  0.018611883   0.01814908            2 
 2934000   0.79166362   -7.9452092    658.53039  0.018703999  0.018143581            1 
 2935000   0.79180644   -7.9122273    657.82312  0.018677544  0.018138116            1 
 2936000   0.78779058   -7.9401779    657.43817  0.018660257  0.018132663            3 
 2937000   0.77648421   -7.9323227    657.47016  0.018654811  0.018127213            4 
 2938000   0.75908491   -7.9627864    656.53628  0.018621973  0.018121746            3 
 2939000   0.78318897    -7.960892    657.55637  0.018644561  0.018116244            2 
 2940000   0.78504049   -7.9603759    657.74371  0.018643529   0.01811074            3 
 2941000   0.78485009   -7.9747914    657.28514  0.018624196  0.018105228            2 
 2942000   0.77713815   -7.9682886    656.23815  0.018588209  0.018099739            2 
 2943000   0.79345351    -7.951008    657.70106  0.018623317  0.018094244            1 
 2944000   0.80185532   -7.9397547    658.01778  0.018625956  0.018088756            2 
 2945000    0.7831472   -7.9360108      658.265  0.018626627  0.018083299            2 
 2946000   0.77986823   -7.9317002    657.05976  0.018586212  0.018077837            3 
 2947000   0.76986106   -7.9370404    655.97873  0.018549336  0.018072365            1 
 2948000   0.78857899   -7.9217038    657.72663  0.018592453  0.018066895            3 
 2949000    0.7838959   -7.9649678    656.97914  0.018565026  0.018061421            5 
 2950000   0.77796394   -7.9427171    657.05336  0.018560829   0.01805595            1 
 2951000   0.79333865    -7.955481    657.17772  0.018558051  0.018050443            1 
 2952000   0.76343583   -7.9616836    655.86994  0.018514847  0.018044941            6 
 2953000   0.80910374   -7.9718665    656.00165  0.018512294  0.018039434            2 
 2954000    0.7690429   -7.9578413    657.00293  0.018534273  0.018033933            2 
 2955000   0.77012068   -7.9656392    655.47714  0.018484973  0.018028429            1 
 2956000   0.76716958   -7.9565472    656.66152  0.018512109  0.018022917            2 
 2957000   0.77985609    -7.979859    656.72759   0.01850771  0.018017434            3 
 2958000   0.76794175   -7.9804156     656.4218  0.018492839  0.018011911            4 
 2959000   0.77927183   -7.9409779    656.07257  0.018476754   0.01800638            3 
 2960000    0.7847343    -7.970542    656.57684  0.018484708  0.018000862            2 
 2961000   0.76979402   -7.9803117    655.37216  0.018444561  0.017995348            2 
 2962000    0.7763665   -7.9901269    656.20302   0.01846171  0.017989804            3 
 2963000   0.77404472   -7.9640242    656.84505  0.018473536  0.017984288            3 
 2964000   0.76818427   -7.9675594    656.39096  0.018454537  0.017978761            2 
 2965000   0.80054107   -7.9944125    656.73428  0.018457962  0.017973244            3 
 2966000   0.75920546   -7.9549554    656.59863  0.018447927   0.01796771            2 
 2967000   0.77420861   -7.9650914     657.9194  0.018478806  0.017962189            4 
 2968000   0.77357504   -7.9627637    656.59228  0.018435318  0.017956675            2 
 2969000   0.77371649   -7.9288506    658.43449  0.018480815  0.017951149            3 
 2970000   0.80092374    -7.991268    657.44285  0.018446769  0.017945616            3 
 2971000   0.78172047   -7.9661705    656.05894  0.018401743  0.017940092            1 
 2972000   0.77400908   -7.9883366    656.98045   0.01842139  0.017934584            4 
 2973000   0.76243542   -7.9538577    658.22836  0.018450173  0.017929059            2 
 2974000   0.77393326   -7.9747813     657.8007  0.018431986  0.017923545            2 
 2975000   0.79151802   -7.9755182    655.90622  0.018372723  0.017918009            2 
 2976000   0.78007557   -7.9781959    657.65246  0.018415447   0.01791248            3 
 2977000   0.78261286   -7.9570063    656.79899  0.018385371  0.017906962            2 
 2978000   0.76822807   -7.9795337    655.82381  0.018351909  0.017901437            1 
 2979000   0.77610084   -7.9945124    657.63599  0.018396441  0.017895937            2 
 2980000   0.78557121     -7.97189    656.91921  0.018370224  0.017890427            3 
 2981000   0.77136948   -7.9757022    657.48828   0.01837997  0.017884956            1 
 2982000   0.78388888   -7.9577162    657.64911  0.018378301  0.017879465            3 
 2983000   0.75988721    -7.977701    657.78401  0.018375908   0.01787399            4 
 2984000   0.78812561   -7.9720436    658.06938  0.018377719  0.017868507            2 
 2985000   0.77507774   -8.0156676    657.45623  0.018354445  0.017863012            3 
 2986000   0.78919329   -7.9778046    659.17862  0.018396367  0.017857518            1 
 2987000   0.77426365   -7.9806056    657.62616  0.018346896  0.017852039            2 
 2988000   0.78045669    -7.973555     657.7468  0.018344121  0.017846569            1 
 2989000   0.77113483   -8.0082847     657.8622  0.018341201  0.017841093            4 
 2990000   0.78125199   -8.0114467    659.84671  0.018390376  0.017835645            4 
 2991000   0.76835125   -7.9634064    659.68138  0.018379622    0.0178302            1 
 2992000   0.77015388   -8.0024207    657.82238  0.018321702  0.017824786            2 
 2993000   0.76653484   -7.9823851    657.74731   0.01831349  0.017819343            1 
 2994000   0.78568386   -7.9843019    658.54357  0.018329536  0.017813894            4 
 2995000   0.77073022   -8.0108703    657.39001  0.018291319  0.017808424            4 
 2996000   0.77130524   -7.9811105    657.56282  0.018290021  0.017802946            3 
 2997000   0.77272631   -7.9992314    657.45053  0.018280795  0.017797474            1 
 2998000   0.76728757   -7.9807276    658.29053  0.018298047  0.017792019            2 
 2999000   0.76827187   -7.9723483    658.48617  0.018297382  0.017786549            2 
 3000000    0.7746942   -8.0142935    657.45544  0.018262651  0.017781081            1 
 3001000   0.77531473   -7.9748318    656.55969  0.018231692  0.017775586            4 
 3002000   0.77106197     -8.00213    657.70986  0.018257547  0.017770122            3 
 3003000   0.76528638   -7.9930821    657.84241  0.018255145  0.017764658            2 
 3004000    0.7647468   -7.9800915    660.05684  0.018310498  0.017759198            5 
 3005000    0.7575739   -7.9725537    659.91502  0.018300472  0.017753778            1 
 3006000   0.75444531   -7.9441362    658.93435  0.018267198  0.017748339            3 
 3007000   0.77108404    -7.987016    658.92666  0.018260909  0.017742921            2 
 3008000   0.78876891   -7.9796885    659.25263  0.018263869  0.017737496            2 
 3009000   0.78186463   -7.9608463    660.44222  0.018290745  0.017732067            1 
 3010000   0.75194344   -7.9603005    659.18739  0.018249928  0.017726639            2 
 3011000   0.78249621   -7.9357653    658.95936  0.018237556  0.017721226            1 
 3012000   0.76145828   -7.9526898    659.53525  0.018247434  0.017715809            2 
 3013000   0.77796711   -7.9721386    659.28574  0.018234477  0.017710403            5 
 3014000   0.75311559   -7.9895861    659.78715   0.01824229  0.017704965            1 
 3015000   0.77931237   -7.9818752    659.51461  0.018228707  0.017699518            1 
 3016000    0.7555392   -7.9652361    659.63315  0.018225938  0.017694098            2 
 3017000   0.78061704   -7.9864125    658.74321  0.018195316  0.017688692            2 
 3018000   0.77392055   -7.9454021    660.66861  0.018242451  0.017683299            2 
 3019000   0.76950838   -7.9826625    658.89306  0.018187398  0.017677913            3 
 3020000    0.7560127   -7.9817032    660.41174  0.018223282   0.01767253            3 
 3021000   0.76160456   -7.9728047    659.60328  0.018194949  0.017667129            3 
 3022000   0.76906351   -7.9946692    659.12662  0.018175784  0.017661743            3 
 3023000   0.77512343   -7.9556309    661.61261  0.018238301  0.017656368            3 
 3024000     0.758649   -7.9829742    660.43049  0.018199694     0.017651            1 
 3025000   0.75730406   -7.9451179    661.01252  0.018209711  0.017645622            3 
 3026000   0.76999357   -7.9491915    659.86306  0.018172038  0.017640255            1 
 3027000   0.76865884   -7.9860182    660.16915  0.018174462  0.017634859            3 
 3028000    0.7682351    -7.988114    659.48069  0.018149513  0.017629472            8 
 3029000    0.7658489   -8.0176929      659.022  0.018130901  0.017624073            1 
 3030000   0.76686589   -7.9976512    659.02741  0.018125066  0.017618659            1 
 3031000   0.76888166   -7.9818756    660.73821  0.018166122  0.017613262            2 
 3032000   0.75586199   -7.9713069    660.07101  0.018141793  0.017607865            2 
 3033000   0.76905385   -8.0165322    659.17477  0.018111187  0.017602455            2 
 3034000   0.75593852   -7.9937309    658.68904  0.018091876  0.017597015            1 
 3035000    0.7732239   -8.0015291    660.32984  0.018130968  0.017591609            1 
 3036000   0.75945931    -8.002171    660.88911  0.018140347  0.017586194            3 
 3037000    0.7544152   -7.9844111    659.93387  0.018108162  0.017580772            1 
 3038000    0.7626313   -8.0133948    659.38472  0.018087138  0.017575367            1 
 3039000   0.76339257   -7.9985824    659.90482  0.018095449  0.017569946            1 
 3040000   0.74836266    -7.993914    659.19036  0.018069911  0.017564507            1 
 3041000   0.76332079   -7.9995709    660.04459  0.018087378  0.017559069            2 
 3042000   0.75928694   -8.0043364    659.69313  0.018071804  0.017553653            2 
 3043000   0.76656837   -7.9979634    660.54046  0.018089069  0.017548248            2 
 3044000   0.76066418   -7.9973015      661.207  0.018101374  0.017542844            1 
 3045000   0.76089487   -8.0038988    660.47371  0.018075362  0.017537458            2 
 3046000   0.76848724   -7.9708908    660.61913  0.018073406  0.017532081            3 
 3047000   0.76620003   -7.9824541    659.52815  0.018037637  0.017526717            2 
 3048000   0.75337093   -7.9796969    661.04699  0.018073244  0.017521326            4 
 3049000   0.78611042   -7.9892758    660.56029  0.018054015  0.017515948            2 
 3050000   0.77263359   -8.0206502    660.54957  0.018047803  0.017510539            1 
 3051000   0.74975434   -8.0071736    660.11824  0.018030106  0.017505137            1 
 3052000   0.77484606   -7.9882639    660.66863  0.018039227  0.017499738            2 
 3053000   0.76741245   -8.0047897    660.69225  0.018033963  0.017494342            3 
 3054000   0.76307238    -7.986003    660.26592  0.018016424  0.017488962            2 
 3055000   0.77003011   -8.0055605    661.13971  0.018034362  0.017483595            3 
 3056000   0.76029104   -8.0111737    660.22432  0.018003499  0.017478197            4 
 3057000   0.76113629   -8.0000659    658.80723   0.01795898    0.0174728            2 
 3058000   0.75698204   -7.9892561    659.63386  0.017975634  0.017467399            2 
 3059000   0.77175983   -7.9992456    660.74633  0.018000063  0.017462001            4 
 3060000   0.74761652   -7.9815524    659.81121  0.017968715  0.017456626            2 
 3061000   0.76819323   -8.0166342    658.96099  0.017939698  0.017451226            1 
 3062000   0.77169824   -8.0054302    661.44781  0.018001519  0.017445836            2 
 3063000   0.76391279   -7.9820901    660.98166   0.01798296   0.01744043            2 
 3064000   0.77584986   -8.0132856    661.41555  0.017988891  0.017435044            1 
 3065000   0.75615266   -8.0098621    660.57932  0.017960286   0.01742966            1 
 3066000   0.76534595   -7.9786193    660.42239  0.017950163  0.017424283            3 
 3067000   0.76227301   -8.0135757    662.45781  0.017999614  0.017418897            1 
 3068000   0.74008818   -8.0182919    659.49633  0.017913307  0.017413507            3 
 3069000   0.75618723   -7.9952686    659.39533  0.017904728  0.017408114            2 
 3070000   0.77864482   -7.9719895    661.30727  0.017950795   0.01740274            1 
 3071000    0.7661719   -8.0151057     660.8851  0.017933493  0.017397392            2 
 3072000   0.75083101   -8.0066751    661.63282  0.017947939  0.017392015            2 
 3073000   0.76070927   -8.0246316    660.46188  0.017910345  0.017386631            2 
 3074000    0.7528819   -8.0062107    660.01023  0.017892275  0.017381226            2 
 3075000   0.75643708   -8.0264589    661.08899  0.017915691  0.017375848            5 
 3076000   0.77024936   -8.0015902     660.7652  0.017901094  0.017370476            3 
 3077000   0.74878275   -8.0029507     660.2785  0.017882096  0.017365119            3 
 3078000   0.74719109   -8.0115169    662.45452  0.017935199  0.017359769            2 
 3079000   0.77029156   -7.9914058    661.13308  0.017893609  0.017354413            3 
 3080000   0.76796844   -8.0515784    659.98263  0.017856673  0.017349043            2 
 3081000   0.75953165   -8.0163867    660.72826  0.017871044  0.017343659            1 
 3082000   0.77563704   -8.0353879    660.27231  0.017852918   0.01733829            3 
 3083000   0.77092648   -8.0048628    660.42904  0.017851363  0.017332924            4 
 3084000   0.76688184    -8.006042    661.98183  0.017887533  0.017327561            2 
 3085000   0.74544595   -7.9824749    661.71702  0.017874582   0.01732218            2 
 3086000   0.75946963   -8.0354795    660.05023   0.01782378  0.017316782            2 
 3087000   0.76397438   -8.0481504     661.0446  0.017844849  0.017311386            1 
 3088000   0.77466234     -8.02901    662.18374  0.017869812  0.017305981            2 
 3089000   0.76353398   -8.0316487    660.15763  0.017809367  0.017300577            2 
 3090000   0.77184713   -8.0434961    660.70699  0.017818419  0.017295194            6 
 3091000   0.76945632   -7.9912036    661.56615  0.017835818  0.017289819            5 
 3092000   0.74295154   -7.9770881    660.05384  0.017789291  0.017284466            3 
 3093000   0.75728158   -7.9970303    662.00559  0.017836124  0.017279095            2 
 3094000   0.74883867   -7.9795382    663.01065   0.01785743  0.017273736            1 
 3095000   0.75486565   -8.0148767    660.43802  0.017782392  0.017268378            1 
 3096000   0.76496176   -7.9971295    662.26023  0.017825695  0.017263031            2 
 3097000   0.75403367   -8.0503901    660.36454  0.017768931  0.017257628            2 
 3098000   0.75205775    -8.024052    660.56551  0.017768601  0.017252202            1 
 3099000   0.74031559   -8.0375225    661.42311  0.017785928  0.017246787            3 
 3100000   0.76347744   -8.0186126    659.81756  0.017737031  0.017241388            2 
 3101000   0.74573407   -8.0364063    660.62665  0.017753054   0.01723598            4 
 3102000   0.76782803   -8.0732009     660.3058  0.017738712  0.017230559            1 
 3103000   0.76575557   -8.0590771    659.82398  0.017720055  0.017225131            3 
 3104000   0.76386592   -8.0596126    660.10061  0.017721773  0.017219699            2 
 3105000   0.76096143   -8.0319322    661.18584  0.017745192  0.017214271            2 
 3106000   0.75504173   -8.0321197     661.3124  0.017742874  0.017208843            2 
 3107000   0.75833995   -8.0567641     660.2889  0.017709712  0.017203415            1 
 3108000   0.75576841   -8.0267407    659.82195  0.017691494  0.017198001            3 
 3109000    0.7397385   -8.0344026    660.82565  0.017712707  0.017192599            2 
 3110000    0.7550853   -8.0430729    659.98886  0.017684589  0.017187177            3 
 3111000   0.74068331   -8.0165312     659.7177  0.017671641  0.017181755            3 
 3112000   0.74220306   -8.0549231     660.8553  0.017696425  0.017176333            3 
 3113000   0.74237178   -8.0196172    661.84162  0.017717144  0.017170911            4 
 3114000   0.74892767   -8.0492354    657.94586    0.0176072  0.017165474            4 
 3115000   0.74486351   -8.0174246    660.50055  0.017669892  0.017160073            2 
 3116000   0.75448681   -8.0213791    663.12612  0.017734438  0.017154694            1 
 3117000   0.74980571   -8.0105281    660.93985  0.017670299   0.01714932            3 
 3118000   0.76099726   -8.0239693    660.75611  0.017659721  0.017143947            1 
 3119000   0.75506668   -8.0386656    662.34615  0.017696541  0.017138541            1 
 3120000   0.74525906   -8.0416546    659.90111  0.017625564   0.01713314            1 
 3121000   0.75866389   -8.0122094     661.5427  0.017663748  0.017127733            2 
 3122000   0.74438684   -8.0339592    661.04073  0.017644692  0.017122339            3 
 3123000   0.75826709   -8.0201633    660.08684  0.017613588  0.017116941            2 
 3124000   0.76490522   -8.0296028    661.65291  0.017649725  0.017111567            1 
 3125000   0.75024148   -7.9878944    662.74064  0.017673084  0.017106211            2 
 3126000   0.77197143   -8.0104845    662.37679  0.017657731  0.017100873            4 
 3127000   0.75706628   -8.0216004    662.27266  0.017649309  0.017095532            3 
 3128000   0.74493492   -8.0327108    661.64423  0.017626924  0.017090168            3 
 3129000   0.73971797   -8.0193921    661.59426   0.01761996  0.017084778            2 
 3130000   0.75269093   -8.0602147    658.58063  0.017534096  0.017079373            4 
 3131000   0.75480582   -8.0481839    661.76123  0.017613149  0.017073978            3 
 3132000    0.7423291   -8.0391344    662.16375  0.017618235  0.017068592            3 
 3133000   0.74343997   -8.0264749    661.59027  0.017597358  0.017063203            2 
 3134000    0.7596666   -8.0247909    661.94492  0.017601173  0.017057822            3 
 3135000    0.7448049   -8.0416514    659.44147  0.017529013  0.017052426            6 
 3136000   0.74673053   -8.0430805    661.11551  0.017567908  0.017047023            2 
 3137000   0.74468195   -8.0292712    660.47953  0.017545413    0.0170416            1 
 3138000   0.73989169   -8.0394263    660.56372  0.017542058  0.017036189            1 
 3139000   0.72512127   -8.0502878    661.27481  0.017555347  0.017030798            2 
 3140000   0.74095114   -8.0410438    661.65137   0.01755975  0.017025393            1 
 3141000    0.7609083   -8.0380146    661.84922  0.017559408  0.017019998            1 
 3142000   0.73985872   -8.0684269    661.49565  0.017544442  0.017014608            1 
 3143000    0.7441761   -8.0245081    661.46318  0.017537999  0.017009202            2 
 3144000   0.74327844   -8.0308821    661.50345  0.017533488  0.017003825            2 
 3145000   0.73140219   -8.0211921    659.33787  0.017470532   0.01699846            2 
 3146000   0.73743327    -8.021354    661.30023  0.017516959  0.016993097            3 
 3147000   0.74833189   -8.0297407     662.8342  0.017552012  0.016987721            3 
 3148000   0.73743615   -8.0467467    662.23781  0.017530649  0.016982358            2 
 3149000   0.74514682   -8.0263043    661.92653  0.017516845  0.016976992            6 
 3150000   0.75182489   -8.0740088    660.68385  0.017478409  0.016971617            4 
 3151000   0.74705929   -8.0450794    659.61443  0.017444579  0.016966213            2 
 3152000   0.73826521   -8.0411725    660.54745  0.017463712  0.016960809            3 
 3153000   0.73471487   -8.0625281    661.44592   0.01748192   0.01695541            1 
 3154000   0.73791645   -8.0350145    660.59342  0.017453853  0.016950005            1 
 3155000   0.74373694   -8.0550283    658.91387  0.017403958  0.016944595            3 
 3156000   0.74190438   -8.0580904    660.33949  0.017436087   0.01693919            2 
 3157000   0.73949629   -8.0404103    660.80487  0.017442848  0.016933796            1 
 3158000   0.76731729   -8.0364618    660.95254  0.017441222  0.016928413            8 
 3159000   0.73581417   -8.0474818    660.51025  0.017424033  0.016923044            1 
 3160000   0.74010274   -8.0812667    660.16657  0.017409456  0.016917643            1 
 3161000   0.73882595    -8.046777    659.90221  0.017396979  0.016912243            1 
 3162000   0.74250503   -8.0480202    661.34477  0.017429495  0.016906859            4 
 3163000   0.74216792    -8.040479    661.09057  0.017417288  0.016901486            5 
 3164000   0.72984676   -8.0578563    659.57242  0.017371798  0.016896078            3 
 3165000   0.74051203    -8.051977    661.14032  0.017407591   0.01689068            1 
 3166000    0.7504586   -8.0472956    661.41425  0.017409303  0.016885261            2 
 3167000   0.74701692   -8.0604581     660.4548   0.01737856  0.016879849            4 
 3168000    0.7634459    -8.055325    659.89193  0.017358268  0.016874426            5 
 3169000   0.74507103   -8.0541176    661.33972  0.017390862  0.016869029            2 
 3170000   0.74720358   -8.0544184    660.39904  0.017360648   0.01686364            1 
 3171000   0.72440508   -8.0460302    660.03136   0.01734551  0.016858239            3 
 3172000   0.74606433   -8.0504434    660.87023   0.01736208  0.016852847            1 
 3173000   0.74587204   -8.0741698    659.14861  0.017311393  0.016847467            2 
 3174000    0.7400051   -8.0534241    661.18214   0.01735933  0.016842101            3 
 3175000    0.7424907   -8.0308949    660.99502  0.017348951  0.016836742            2 
 3176000   0.73015781   -8.0785274    661.10022  0.017346248  0.016831376            1 
 3177000   0.75873129   -8.0519819    662.17727   0.01736904  0.016825991            1 
 3178000   0.73286205   -8.0502647    661.30844  0.017340792  0.016820615            2 
 3179000   0.73634107   -8.0373817    660.76111   0.01732099   0.01681523            3 
 3180000   0.73440506   -8.0411865    661.54355  0.017336047   0.01680983            2 
 3181000   0.73615949   -8.0788639    661.82403  0.017337945   0.01680442            2 
 3182000   0.73318288   -8.0829158    662.57368  0.017352129  0.016799012            2 
 3183000   0.72025297   -8.0566908    660.89318   0.01730268  0.016793615            2 
 3184000   0.73305613   -8.0518627    660.80353    0.0172949  0.016788216            2 
 3185000   0.74179639   -8.0838096     660.9841  0.017294194  0.016782814            2 
 3186000   0.73488427   -8.0695691    660.58312  0.017278278   0.01677741            2 
 3187000   0.74868476   -8.0788712    661.42612  0.017294899  0.016771996            2 
 3188000   0.74513639   -8.0955136    660.94867  0.017276994  0.016766573            3 
 3189000    0.7233783   -8.0689384    661.47898  0.017285434  0.016761135            4 
 3190000   0.74528692   -8.0942229    660.79359   0.01726211  0.016755729            1 
 3191000   0.72324138   -8.0845258     659.9295  0.017234135  0.016750332            2 
 3192000   0.74923833   -8.0481453     662.6287  0.017299204   0.01674494            2 
 3193000   0.76408319   -8.0734149    660.86181  0.017247672  0.016739549            3 
 3194000   0.74968267   -8.0819273    662.18313  0.017276746  0.016734159            3 
 3195000   0.73431866   -8.0716404    661.45407  0.017252323  0.016728766            1 
 3196000   0.73121773   -8.0877337    660.65935  0.017226203  0.016723368            3 
 3197000   0.72836791   -8.0416001    661.61502  0.017245726  0.016717989            3 
 3198000   0.74440547   -8.0683609    662.06373  0.017252025  0.016712616            1 
 3199000   0.73142746   -8.0732731    661.02111  0.017219473  0.016707237            3 
 3200000   0.75515739   -8.0928353    659.91415  0.017185264  0.016701853            2 
 3201000   0.73414547   -8.0518038    662.14589  0.017237996  0.016696485            2 
 3202000   0.73363457   -8.0902422    660.36365  0.017186229  0.016691116            1 
 3203000   0.75656944   -8.0511835    662.06671  0.017225172  0.016685732            1 
 3204000   0.75109869   -8.0581808     662.6821  0.017235801  0.016680354            1 
 3205000   0.73119202   -8.0406015    661.63826  0.017203283   0.01667498            3 
 3206000   0.74496106   -8.0758962    659.96498  0.017154423  0.016669611            2 
 3207000   0.75903483   -8.0754613    660.95125  0.017174702  0.016664229            7 
 3208000   0.74120021   -8.0656659    660.43163  0.017155851   0.01665886            1 
 3209000   0.75095107   -8.1000294    661.02661  0.017165955  0.016653499            3 
 3210000   0.74753021   -8.0640999    661.17636  0.017164495  0.016648152            2 
 3211000   0.74301678   -8.0502667    661.74311  0.017173858  0.016642766            4 
 3212000   0.73034165   -8.0529865    660.85374  0.017145437   0.01663739            1 
 3213000   0.72977193   -8.0525037    661.51868  0.017157347  0.016631996            2 
 3214000   0.75006222   -8.0900487    660.33362  0.017121282  0.016626604            2 
 3215000    0.7421201   -8.0737452    660.67867  0.017124901  0.016621219            2 
 3216000   0.73766603   -8.0734799    660.76147  0.017121721  0.016615866            3 
 3217000   0.73732751   -8.0782793    662.76477  0.017168293  0.016610502            2 
 3218000    0.7407141   -8.0342237    660.81427  0.017112447  0.016605163            2 
 3219000   0.74349671   -8.0762462    661.42975  0.017123065  0.016599805            6 
 3220000   0.74877451   -8.0878358     660.6211  0.017096819  0.016594455            2 
 3221000   0.74050006   -8.0650052    661.37719  0.017111073  0.016589085            3 
 3222000   0.74840214   -8.0802359    660.98859  0.017095711  0.016583713            2 
 3223000   0.74689894   -8.0697045    662.60126  0.017132104  0.016578356            1 
 3224000   0.72579048   -8.0995238    660.71134   0.01707794  0.016572999            1 
 3225000   0.74598744   -8.0575368    661.70006  0.017098193  0.016567644            2 
 3226000   0.74357182   -8.0776765    663.07306   0.01712836  0.016562282            1 
 3227000    0.7302929   -8.0813858    661.96542  0.017094448   0.01655691            3 
 3228000   0.72229315   -8.0701042    661.46512  0.017076237  0.016551562            2 
 3229000   0.72330061   -8.1050304    661.88273  0.017081726  0.016546212            3 
 3230000   0.72952432   -8.1177201    660.89116  0.017050856  0.016540843            3 
 3231000   0.73059252   -8.0661098    661.78338   0.01706859  0.016535481            2 
 3232000   0.72972377   -8.0722914    660.61886  0.017033283  0.016530121            3 
 3233000   0.73216539   -8.0744137    661.48047  0.017050223  0.016524759            4 
 3234000   0.72751508   -8.0599684    660.95233  0.017031342  0.016519391            2 
 3235000   0.73436336   -8.0844088    661.43054  0.017038396  0.016514047            2 
 3236000   0.73422723   -8.0788771    663.94835  0.017097969  0.016508698            2 
 3237000   0.72786856    -8.074235    661.47737  0.017029075  0.016503349            2 
 3238000   0.73135224   -8.0731194    662.01022  0.017037529  0.016498006            2 
 3239000   0.71864184   -8.0848085    660.11814  0.016983589  0.016492656            2 
 3240000   0.74400614    -8.105594    660.71534  0.016993707  0.016487285            3 
 3241000   0.74264446   -8.0977625    661.60013  0.017011214   0.01648194            2 
 3242000   0.73388965    -8.089001     661.3522  0.016999594  0.016476601            1 
 3243000   0.72724156   -8.1034554    659.85004  0.016955752  0.016471265            2 
 3244000   0.74248372   -8.0692821    661.02329  0.016980664  0.016465919            3 
 3245000   0.72064403   -8.0996856     660.8545  0.016971096  0.016460582            2 
 3246000   0.71923019   -8.0708302    661.36821  0.016979056  0.016455237            3 
 3247000   0.72471935   -8.0908259    661.47832  0.016976653  0.016449898            1 
 3248000    0.7301803   -8.1044906    661.95119  0.016983559  0.016444564            2 
 3249000   0.73220077    -8.090028    661.92353  0.016977622  0.016439221            5 
 3250000   0.72539865   -8.0816429    661.85106   0.01697054  0.016433879            1 
 3251000   0.73199367   -8.0920627    661.31867  0.016951673  0.016428537            3 
 3252000   0.73352306   -8.1038269    660.43522  0.016923822  0.016423197            5 
 3253000   0.72922005   -8.0800893    661.79062  0.016953341  0.016417852            2 
 3254000   0.74773925   -8.0874936    661.87902  0.016950395  0.016412528            5 
 3255000   0.73204296   -8.0925354    661.41015  0.016933184  0.016407204            3 
 3256000    0.7299552   -8.0899944    662.44549  0.016954481  0.016401877            2 
 3257000   0.73674107   -8.0917822    662.71468  0.016956163  0.016396563            3 
 3258000    0.7132159   -8.0913735    662.67657  0.016949984  0.016391265            3 
 3259000   0.73710129   -8.0874327    661.64163  0.016918319  0.016385942            3 
 3260000   0.71914795   -8.1184115    661.27699  0.016903809  0.016380597            3 
 3261000   0.71451639    -8.080668    661.58467  0.016906487  0.016375254            2 
 3262000   0.73672739   -8.0990054    662.04021  0.016912942  0.016369922            2 
 3263000   0.72811048   -8.0824434    662.16072  0.016910837  0.016364602            2 
 3264000   0.72510756   -8.0826547    663.56875  0.016941604  0.016359283            2 
 3265000   0.73806845   -8.0540998    663.22196  0.016927564  0.016353979            1 
 3266000   0.72928303   -8.0820589    663.13588  0.016920185  0.016348657            1 
 3267000   0.73729822   -8.0752297    663.06845  0.016913286  0.016343367            2 
 3268000   0.73046873   -8.0759901    662.97672  0.016905771  0.016338083            2 
 3269000   0.73261263   -8.0681786    663.18563  0.016905925  0.016332811            2 
 3270000   0.73463118   -8.0729849    662.78839  0.016890632  0.016327531            2 
 3271000   0.73451144   -8.1002538    663.43227  0.016901872  0.016322259            1 
 3272000    0.7236788   -8.0551303    663.18962  0.016890526  0.016316967            2 
 3273000   0.71631628   -8.1062783    663.75974  0.016899881  0.016311675            1 
 3274000   0.71491736   -8.0736745    662.15893  0.016853974  0.016306395            1 
 3275000   0.74653757   -8.0793558    662.58311  0.016859621  0.016301119            3 
 3276000   0.74926351   -8.0962406    662.50788  0.016852561  0.016295834            2 
 3277000   0.72530342   -8.0775098    661.96324  0.016833568  0.016290548            6 
 3278000   0.72085534   -8.0827131    663.68528  0.016872211  0.016285253            2 
 3279000   0.73696268   -8.0804235    663.47542  0.016861732  0.016279964            2 
 3280000     0.716339   -8.0875474    663.73001  0.016863059    0.0162747            3 
 3281000   0.73087961   -8.0911903    663.13063  0.016842696  0.016269431            2 
 3282000   0.72682475   -8.0881595    661.94589  0.016807482   0.01626415            1 
 3283000   0.73509817    -8.064223    664.10393  0.016857141   0.01625887            1 
 3284000   0.72666699   -8.0813274    663.01547  0.016824388  0.016253603            4 
 3285000   0.72755257   -8.0571413    662.58576  0.016808365  0.016248346            2 
 3286000   0.72551258   -8.0650078    663.22128  0.016819367  0.016243092            2 
 3287000   0.71893877   -8.0757297    662.74434  0.016802159  0.016237838            2 
 3288000    0.7423357   -8.0647508    663.01237  0.016803841  0.016232567            4 
 3289000   0.72400736   -8.1124952    661.09868  0.016750245  0.016227302            2 
 3290000     0.732062   -8.0775536    662.93546  0.016791678  0.016222029            5 
 3291000   0.73065882   -8.0937301    662.97489  0.016787574  0.016216772            2 
 3292000   0.71270219   -8.1117118    662.33615  0.016766306  0.016211511            1 
 3293000   0.74171242   -8.0895794    662.39173  0.016762621   0.01620624            4 
 3294000   0.72343719   -8.0909241    662.13728  0.016751095  0.016200994            4 
 3295000   0.72942479   -8.0955655    662.58504  0.016757335  0.016195735            5 
 3296000   0.73081437   -8.0845646    663.58459  0.016777523  0.016190487            3 
 3297000   0.72036299   -8.0696922    662.32694  0.016740647  0.016185249            3 
 3298000   0.72466803   -8.1172236    662.58966  0.016742209  0.016180009            2 
 3299000   0.73860914   -8.0906638    660.81934  0.016692415  0.016174757            3 
 3300000   0.71416866   -8.0933568    662.84498   0.01673851  0.016169492            1 
 3301000   0.73521605   -8.1201549    663.00128  0.016737385  0.016164234            2 
 3302000   0.72840344   -8.0950212    662.81355  0.016727578  0.016158984            1 
 3303000   0.72317579   -8.1273121    661.94235  0.016700534  0.016153709            2 
 3304000   0.72196284   -8.1243862    661.70928  0.016689601  0.016148431            2 
 3305000   0.72717982   -8.1341749    661.00879  0.016666888  0.016143154            3 
 3306000   0.72818453   -8.1265145    661.75347  0.016680618  0.016137853            4 
 3307000   0.71951627   -8.1324978    661.46445  0.016668291  0.016132554            2 
 3308000   0.71710077   -8.1120516    663.56156  0.016716081  0.016127264            1 
 3309000   0.71710808   -8.1281388    662.70189   0.01668938  0.016121978            1 
 3310000   0.70213877   -8.1358824    662.20894  0.016671927    0.0161167            2 
 3311000    0.7232595   -8.1283613    662.63381  0.016677585   0.01611142            3 
 3312000   0.73369416   -8.1514811    661.65098  0.016647821  0.016106144            2 
 3313000   0.72598278   -8.1319774      662.166   0.01665575  0.016100876            1 
 3314000    0.7348908    -8.142123    661.38003   0.01663096  0.016095611            1 
 3315000   0.70313707   -8.1304424     662.3578  0.016650523  0.016090344            2 
 3316000   0.71906823   -8.1271782    662.30139  0.016644084  0.016085089            1 
 3317000   0.70868847   -8.1421506    662.05835   0.01663296  0.016079833            2 
 3318000   0.73673255   -8.1460959    662.38346  0.016636113  0.016074582            1 
 3319000   0.72443886   -8.1481922    662.19314  0.016626322  0.016069321            2 
 3320000   0.71879662    -8.145978     661.9077  0.016614149  0.016064061            2 
 3321000   0.72101785   -8.1327725    662.90006  0.016634048  0.016058807            3 
 3322000   0.74572848   -8.1319832    661.38488  0.016591032  0.016053565            3 
 3323000   0.71477605   -8.1228773    662.90399  0.016624134  0.016048319            3 
 3324000    0.7294612   -8.1324838    662.54411  0.016610111  0.016043065            2 
 3325000   0.70331077   -8.1230559    662.69568  0.016608914  0.016037803            2 
 3326000   0.71470769   -8.1106508    664.99471  0.016661523  0.016032565            2 
 3327000   0.71585985   -8.1386232    663.21453  0.016611926  0.016027336            1 
 3328000   0.71277758   -8.1188195    663.34284  0.016610147  0.016022105            4 
 3329000   0.72088013   -8.1434877     663.2625  0.016603147   0.01601687            2 
 3330000   0.73345093   -8.1322495    663.33779  0.016600045  0.016011626            3 
 3331000   0.70629104   -8.1082995    664.21291  0.016616955  0.016006404            2 
 3332000   0.70917023   -8.1142813    662.57314  0.016570957  0.016001211            2 
 3333000   0.72836561   -8.0907093    663.53608  0.016590061  0.015996002            2 
 3334000   0.70777066   -8.1166026    662.86338  0.016568271  0.015990802            4 
 3335000    0.7187509   -8.1328358    662.62526  0.016557353   0.01598559            1 
 3336000   0.73646815   -8.1114375    664.17405  0.016591078  0.015980385            3 
 3337000   0.72795165   -8.1272219    662.12485  0.016534933  0.015975179            3 
 3338000   0.70773815    -8.154103      663.547  0.016565483   0.01596997            2 
 3339000   0.71452973    -8.109014    663.31145  0.016554643   0.01596476            1 
 3340000   0.71345273   -8.1260414    663.46432  0.016553501  0.015959557            3 
 3341000   0.69109219   -8.1256341     663.7166  0.016554839  0.015954354            2 
 3342000   0.70366618   -8.1437734    663.79545  0.016551851  0.015949129            2 
 3343000   0.72157654   -8.1435693    663.42452  0.016537654  0.015943895            1 
 3344000   0.70812738   -8.1518168    661.83776  0.016493166  0.015938649            5 
 3345000   0.71997963   -8.1511552    662.52929  0.016505463    0.0159334            4 
 3346000   0.71772099   -8.1381174    663.78291  0.016531752  0.015928162            1 
 3347000   0.72534836   -8.1295128    662.90273  0.016504898  0.015922934            3 
 3348000   0.72087664   -8.1380165    663.18159  0.016506909   0.01591771            3 
 3349000   0.71372997   -8.1544736    662.19047  0.016477318  0.015912496            7 
 3350000   0.72501695   -8.1396131    661.77165  0.016461981  0.015907273            1 
 3351000   0.71199801   -8.1162146    663.29943  0.016495062  0.015902069            4 
 3352000   0.71772855   -8.1398618    663.42438  0.016493247  0.015896868            1 
 3353000   0.71740204   -8.1233854    662.66955  0.016469568  0.015891668            2 
 3354000   0.72618735   -8.1383536    662.21515  0.016453368  0.015886458            1 
 3355000   0.72494712   -8.1316028    662.64886  0.016459237  0.015881248            2 
 3356000   0.73561362   -8.1636531    661.37017  0.016422581   0.01587601            4 
 3357000   0.71373587    -8.138452    661.31577  0.016416338  0.015870763            1 
 3358000   0.68842439   -8.1376592      662.309  0.016436098  0.015865514            3 
 3359000   0.72453008   -8.1580588    662.47216  0.016435252  0.015860264            3 
 3360000   0.71388929   -8.1378431    661.95443   0.01641752  0.015855025            3 
 3361000   0.72685833   -8.1418337    662.51993  0.016426657  0.015849792            2 
 3362000   0.70770287   -8.1503966    663.11347  0.016436483  0.015844573            2 
 3363000   0.71328223   -8.1535769    661.51592  0.016392009  0.015839356            1 
 3364000   0.71344582   -8.1213681    663.26499  0.016430465  0.015834136            3 
 3365000   0.71733308   -8.1340217      663.915  0.016441679  0.015828912            2 
 3366000   0.71728774   -8.1504307    662.16609  0.016393496  0.015823689            2 
 3367000   0.71294413   -8.1256361    663.17691  0.016413645  0.015818457            3 
 3368000   0.71828384   -8.1572181    661.84794  0.016375889  0.015813227            3 
 3369000   0.71627803   -8.1634438    661.78289   0.01636942  0.015807986            2 
 3370000   0.72678776   -8.1409123    662.39129  0.016379607   0.01580275            2 
 3371000    0.7070673   -8.1490682    662.69823  0.016382335  0.015797522            7 
 3372000   0.70452484   -8.1539121      662.445  0.016371219  0.015792302            5 
 3373000   0.70885607   -8.1237678    664.41075  0.016414931  0.015787079            2 
 3374000   0.70529436   -8.1417924    661.69772  0.016343058  0.015781889            2 
 3375000   0.70019194   -8.1526608     662.4507  0.016356808  0.015776673            3 
 3376000   0.71345367   -8.1423264     662.4109   0.01635098  0.015771469            2 
 3377000   0.71294144   -8.1582223    662.93359  0.016359036   0.01576628            1 
 3378000   0.72180348   -8.1677211    662.97219  0.016355146  0.015761061            1 
 3379000   0.72950116   -8.1720066    662.05366  0.016327653  0.015755833            2 
 3380000   0.71854695   -8.1644976    661.74469  0.016315204  0.015750594            2 
 3381000   0.69871712   -8.1432835     663.4545  0.016352521  0.015745358            2 
 3382000   0.70768662   -8.1571598    661.82134  0.016307445  0.015740133            1 
 3383000   0.70532046    -8.153336    663.60694  0.016346609  0.015734908            2 
 3384000   0.71099189   -8.1298246    662.16668  0.016306311  0.015729679            1 
 3385000   0.70000933   -8.1792463    661.48742  0.016284772  0.015724448            2 
 3386000   0.70670613   -8.1454149    660.91136  0.016265785  0.015719227            2 
 3387000   0.69407143    -8.168291    660.25959  0.016244946  0.015714002            1 
 3388000    0.6990022   -8.1435424    660.98429  0.016257976  0.015708753            1 
 3389000   0.71808905   -8.1930784       660.68  0.016245697  0.015703509            2 
 3390000   0.72375933   -8.1754745    660.91638  0.016246715  0.015698266            2 
 3391000   0.71777133   -8.1492496    661.79954  0.016263628  0.015693031            2 
 3392000   0.69561536   -8.1699913    660.82018  0.016234772  0.015687797            3 
 3393000   0.71172679   -8.1523777    660.75255  0.016228327  0.015682539            3 
 3394000   0.70474939   -8.1830075    660.77754  0.016224159  0.015677305            2 
 3395000   0.70856715   -8.1422762    661.60193  0.016239615  0.015672071            1 
 3396000   0.69432024   -8.1693133    661.46756  0.016231536  0.015666849            2 
 3397000   0.72390447   -8.1577984    662.11652  0.016242678  0.015661642            2 
 3398000   0.72302442   -8.1505265    662.74721  0.016253365  0.015656425            3 
 3399000   0.71545585   -8.1721699    660.52251   0.01619404  0.015651214            2 
 3400000   0.69947552   -8.1711072    661.71528  0.016218512  0.015645992            2 
 3401000   0.69516408   -8.1601266    661.95408  0.016219594  0.015640778            5 
 3402000    0.7035465   -8.1634632    662.11289  0.016218717  0.015635566            6 
 3403000   0.72363855   -8.1498165    663.18106  0.016240108  0.015630356            3 
 3404000   0.70558306   -8.1758941    661.57698  0.016196068   0.01562515            4 
 3405000   0.69547004   -8.1682996    661.04092  0.016178192  0.015619945            2 
 3406000   0.69889789   -8.1658915    662.32242  0.016204796  0.015614746            3 
 3407000    0.7145257   -8.1628599    662.28158  0.016199041  0.015609552            3 
 3408000   0.70017684   -8.1532036    662.48079  0.016199159  0.015604362            4 
 3409000   0.69672034   -8.1418922    661.62958  0.016173599  0.015599176            1 
 3410000   0.71790314   -8.1645955    662.01026  0.016178159  0.015593979            2 
 3411000   0.70363883   -8.1830056    661.92376  0.016171303  0.015588768            1 
 3412000   0.69337385   -8.1914572     661.9191  0.016166449  0.015583557            2 
 3413000   0.70772074   -8.1805732    661.97805  0.016163152  0.015578344            2 
 3414000   0.71710772    -8.192086    661.45551  0.016145663  0.015573134            3 
 3415000   0.70727826    -8.178445    662.05141  0.016155476  0.015567921            2 
 3416000    0.7229688   -8.1852626    662.00121  0.016149522  0.015562714            3 
 3417000   0.70094304   -8.1768241    662.10748  0.016147388  0.015557511            5 
 3418000    0.7197528   -8.1725459    662.86388  0.016161105  0.015552302            4 
 3419000   0.70419759   -8.1693737    660.99578  0.016110846  0.015547078            3 
 3420000   0.70239991   -8.2206598    661.19938  0.016111096  0.015541861            3 
 3421000   0.70601929   -8.1778652    661.72803  0.016119264  0.015536642            2 
 3422000   0.69924285   -8.1854216    661.83168  0.016117078   0.01553143            5 
 3423000   0.70271809   -8.1826941    661.37114  0.016101157  0.015526211            4 
 3424000   0.71869757   -8.1946203    661.17564  0.016091697  0.015520987            2 
 3425000   0.69538252   -8.1924843    662.28212   0.01611392  0.015515772            2 
 3426000   0.71491093   -8.2027213    661.90767  0.016100109   0.01551057            2 
 3427000   0.71112037   -8.1816301    661.79761  0.016092734  0.015505363            3 
 3428000   0.69413936   -8.1952801    661.34367  0.016077005  0.015500165            2 
 3429000   0.69935322   -8.1946277    661.30875  0.016071468  0.015494968            1 
 3430000   0.70500526   -8.1857951    662.83816   0.01610394   0.01548977            3 
 3431000   0.70377012    -8.175951      660.917  0.016052584  0.015484567            5 
 3432000   0.69390992   -8.1743003    661.74424  0.016067993  0.015479362            2 
 3433000   0.69144313   -8.2072788    661.08652  0.016047347  0.015474172            2 
 3434000   0.70780886   -8.1816007    662.41659  0.016074951  0.015468996            2 
 3435000   0.70613888   -8.1736993    661.23459  0.016041596  0.015463818            2 
 3436000   0.70947713   -8.1622227    662.82489  0.016075497  0.015458647            2 
 3437000   0.69793787   -8.1826951    661.92895  0.016049097  0.015453486            4 
 3438000   0.70623547   -8.1872177    663.01779  0.016070821  0.015448327            2 
 3439000   0.69603335   -8.1865547    662.88851  0.016063015  0.015443178            1 
 3440000   0.70281868   -8.1666949    662.63691  0.016052251  0.015438037            5 
 3441000   0.72137031   -8.1559755     662.6874  0.016048808  0.015432896            2 
 3442000   0.70079021   -8.1724686    661.97625  0.016026928  0.015427755            3 
 3443000    0.6979193   -8.1612533    663.65801  0.016062978  0.015422627            2 
 3444000   0.72388167   -8.1499423     661.2699   0.01600053  0.015417486            2 
 3445000   0.70581381     -8.13882    664.07462   0.01606373  0.015412352            2 
 3446000   0.69459829   -8.1585294    662.63052  0.016024147  0.015407221            2 
 3447000      0.68904   -8.1531464    662.88552  0.016025663  0.015402085            3 
 3448000   0.70008614   -8.1915054    662.22893  0.016005146  0.015396944            1 
 3449000   0.70691403   -8.1595118    663.56962  0.016032899  0.015391804            3 
 3450000   0.70100773   -8.1862417    662.90543  0.016012208  0.015386675            4 
 3451000    0.7030597   -8.1472738    663.32649  0.016017736  0.015381557            2 
 3452000   0.69230492   -8.1727956    661.81263  0.015976551  0.015376412            3 
 3453000   0.68980689   -8.1665999    661.08763  0.015954427  0.015371277            2 
 3454000   0.69682454   -8.1902162     661.3099   0.01595517  0.015366142            5 
 3455000    0.7039899   -8.1794024    662.46694   0.01597846  0.015361008            4 
 3456000   0.69720177   -8.1801097    662.91242  0.015984578  0.015355876            2 
 3457000   0.70632947    -8.168219    663.27577  0.015988713  0.015350753            5 
 3458000   0.69217845    -8.156435     663.7865  0.015996397  0.015345626            1 
 3459000   0.69559062    -8.160961     663.3992  0.015982442  0.015340512            2 
 3460000   0.69957851   -8.1709312    662.22002  0.015949423  0.015335381            4 
 3461000   0.68858582   -8.1761688    662.66408  0.015955506  0.015330278            5 
 3462000   0.70937793   -8.1755547    663.33662  0.015967086  0.015325173            2 
 3463000   0.69079543   -8.1549486    663.32243  0.015962134  0.015320073            2 
 3464000    0.7081775   -8.1822969     662.0342  0.015926535  0.015314977            2 
 3465000   0.69568553   -8.1636562    661.08996  0.015899229  0.015309882            2 
 3466000   0.70156397   -8.1665886    663.17374  0.015944743  0.015304799            6 
 3467000   0.68851884   -8.1647384    662.55433  0.015925255   0.01529971            3 
 3468000   0.69080957   -8.1753607    661.72872  0.015900825  0.015294622            5 
 3469000   0.69215933   -8.1527789    662.08214  0.015904731   0.01528953            6 
 3470000   0.69192293   -8.1750155    662.03696  0.015899062  0.015284433            4 
 3471000   0.72095307   -8.1663533    662.66661  0.015909599  0.015279346            3 
 3472000   0.69894061   -8.1447176    663.67791  0.015929289  0.015274262            3 
 3473000   0.71039725   -8.1440674     663.5554  0.015921763  0.015269177            1 
 3474000   0.69448515   -8.1757665    662.92389  0.015902031  0.015264094            2 
 3475000   0.69740681    -8.160741    662.52285  0.015887838   0.01525901            2 
 3476000   0.68033105    -8.184903    661.55886  0.015860157  0.015253907            1 
 3477000   0.68811744   -8.1789996    662.29753  0.015873299   0.01524881            3 
 3478000   0.70484969    -8.200538    661.41758  0.015847651  0.015243714            1 
 3479000   0.67817864   -8.2058026    661.85958  0.015853683  0.015238617            3 
 3480000   0.68462484   -8.1986627    662.91835  0.015874482  0.015233524            3 
 3481000   0.70079038   -8.1848939    661.76142  0.015842225  0.015228415            4 
 3482000    0.6976864   -8.1914498    662.70333  0.015860217  0.015223312            5 
 3483000   0.67867144   -8.2174625    662.45618  0.015849751  0.015218214            2 
 3484000   0.70449556   -8.1914507    663.31131  0.015865655  0.015213126            2 
 3485000   0.68462479   -8.1755155    664.40788  0.015887324  0.015208033            2 
 3486000   0.69370836   -8.2215937    662.14434  0.015828656  0.015202944            1 
 3487000   0.70076286   -8.1878345    662.90064  0.015842191  0.015197852            2 
 3488000   0.70360382   -8.1845483    663.03448  0.015840847  0.015192772            2 
 3489000   0.70248535    -8.183645     662.1711  0.015815685  0.015187702            3 
 3490000   0.69410568   -8.1702974    662.90063  0.015828573  0.015182624            2 
 3491000   0.70239986   -8.1654988    663.20939  0.015831409   0.01517756            3 
 3492000   0.68925992   -8.1629232    662.79895  0.015817081  0.015172495            3 
 3493000    0.7085969   -8.1794531    663.23451  0.015822944  0.015167428            5 
 3494000   0.70708079   -8.1882779    662.62941  0.015803983   0.01516237            1 
 3495000   0.70391525   -8.1676346    661.88413  0.015781691  0.015157313            2 
 3496000   0.69992662    -8.163242    664.00102  0.015827637  0.015152266            3 
 3497000   0.69845524   -8.1904902    662.55344  0.015788615  0.015147206            5 
 3498000    0.7039358   -8.1748392    662.81393  0.015790307  0.015142155            3 
 3499000   0.67651759   -8.1866352    663.81338  0.015809598  0.015137097            1 
 3500000   0.70215947   -8.1741529    664.20023  0.015814291  0.015132049            2 
 3501000   0.68985397   -8.1835608    662.79393    0.0157763  0.015126998            3 
 3502000   0.68610324   -8.1785084    662.12014  0.015755762  0.015121942            3 
 3503000   0.69468088   -8.1887203    662.95542  0.015771135  0.015116893            2 
 3504000   0.70361025   -8.1996224    662.18739  0.015748368  0.015111835            2 
 3505000   0.69618904   -8.1842201    663.21252  0.015768248  0.015106802            1 
 3506000   0.68895129   -8.1907692     662.7314  0.015752315  0.015101771            4 
 3507000   0.67893092   -8.1892208    662.35373  0.015738849  0.015096722            2 
 3508000   0.67411219   -8.1852138       663.62  0.015764443   0.01509168            3 
 3509000   0.69627867   -8.1787602    662.90859  0.015743056  0.015086633            1 
 3510000   0.69855568    -8.207883    663.70299  0.015757431  0.015081594            3 
 3511000   0.68922165   -8.2233881    661.35468  0.015697206  0.015076547            6 
 3512000   0.70551862   -8.2047934    661.11354  0.015687014  0.015071495            2 
 3513000   0.69552924   -8.2000934    662.30453  0.015710801  0.015066442            2 
 3514000   0.69768239   -8.2173447    662.44636  0.015709694  0.015061385            2 
 3515000   0.68489479   -8.2218137    662.14002  0.015697962  0.015056326            2 
 3516000   0.71077061   -8.2048254    664.31514   0.01574505   0.01505127            2 
 3517000   0.69078495   -8.2147667    663.30869  0.015716726  0.015046233            3 
 3518000   0.68965619   -8.2043497    663.67185  0.015720861  0.015041186            1 
 3519000   0.68322632   -8.2071764     663.7346  0.015717879  0.015036153            3 
 3520000   0.68563522    -8.207092    663.88385  0.015716947  0.015031125            2 
 3521000   0.68154462   -8.2159714    663.11128  0.015694199  0.015026086            4 
 3522000   0.69755981   -8.2156043    662.83963  0.015683315  0.015021059            1 
 3523000   0.69333367   -8.1971814    663.45486  0.015693416  0.015016023            4 
 3524000   0.68244645   -8.2211085    663.34774   0.01568643  0.015011001            3 
 3525000   0.69250842   -8.1901044    663.84458  0.015693725  0.015005976            2 
 3526000   0.68327472   -8.1973516    662.33016  0.015653483  0.015000958            2 
 3527000   0.69196851   -8.2253429    663.54556  0.015677761  0.014995946            2 
 3528000   0.69577288   -8.2232276    663.64669  0.015675706  0.014990916            1 
 3529000   0.68143712   -8.2041568    663.48756  0.015667506   0.01498589            1 
 3530000   0.67416735   -8.1949431    662.27019  0.015634329  0.014980875            2 
 3531000   0.69073692   -8.2133318    664.12299  0.015673629  0.014975872            3 
 3532000   0.68590479   -8.2007739    662.19002  0.015623585  0.014970872            2 
 3533000   0.68783688   -8.2018509    662.65879   0.01563022  0.014965871            2 
 3534000   0.68604804   -8.2184286     662.2165  0.015615367  0.014960866            1 
 3535000   0.68268093   -8.2245732     662.7912  0.015624498  0.014955869            3 
 3536000   0.66910084   -8.1932411    661.64817  0.015593141  0.014950866            2 
 3537000   0.67538637    -8.197752     662.8052  0.015615993  0.014945862            3 
 3538000   0.68985852   -8.2029418    662.50364  0.015604476  0.014940867            2 
 3539000   0.67221466   -8.1920461    664.70677  0.015651944  0.014935887            2 
 3540000   0.68715775   -8.2057626    662.26533   0.01559005  0.014930913            1 
 3541000   0.69829671   -8.1924348    663.86256  0.015623236   0.01492593            2 
 3542000   0.69264798   -8.1951951    663.56911  0.015611921  0.014920955            1 
 3543000   0.68301649   -8.1844174    663.59616  0.015608151  0.014915994            3 
 3544000   0.67914062   -8.1993411    662.79159  0.015584828  0.014911027            3 
 3545000   0.66916831   -8.2059474    663.61398  0.015599765  0.014906059            3 
 3546000   0.67281043   -8.1890888    663.97134  0.015603763  0.014901105            3 
 3547000   0.68194227    -8.188215      663.678  0.015592472  0.014896139            3 
 3548000   0.69428638   -8.1856996    663.94394  0.015594324  0.014891171            2 
 3549000   0.69428669   -8.1976201    664.18543    0.0155956  0.014886218            1 
 3550000   0.67369115   -8.1908248    663.59642  0.015577381  0.014881249            1 
 3551000   0.67159167   -8.2004076    664.60018   0.01559655  0.014876285            3 
 3552000   0.67663458   -8.2140046    662.38957  0.015540296   0.01487131            1 
 3553000   0.68996635   -8.2068071    664.22368   0.01557894  0.014866338            2 
 3554000   0.68465387   -8.1830403    663.60758   0.01556011  0.014861376            3 
 3555000   0.69519151   -8.2111606    663.68727  0.015557601  0.014856402            1 
 3556000    0.6823753   -8.2138016    664.56688  0.015573839  0.014851428            2 
 3557000    0.6851674   -8.2013857     663.5102  0.015544705  0.014846459            1 
 3558000   0.67729808   -8.2337436    662.93177  0.015526789  0.014841487            3 
 3559000   0.69872241   -8.2307016     662.5725  0.015514014  0.014836516            2 
 3560000   0.68180843   -8.2222319    663.60656  0.015533861   0.01483154            3 
 3561000   0.69098927   -8.2322953    663.36435  0.015523831  0.014826562            3 
 3562000    0.6771809    -8.210452    662.79775  0.015506217   0.01482159            3 
 3563000   0.67209674   -8.2114006     663.1894  0.015511025  0.014816612            3 
 3564000   0.66595974   -8.2187695    662.46322  0.015489694  0.014811648            2 
 3565000   0.68163363   -8.2189616    662.69195  0.015490695  0.014806682            3 
 3566000   0.68781517    -8.219577     663.8274  0.015512886  0.014801718            1 
 3567000   0.68369883   -8.2300533    663.73683  0.015506421  0.014796759            3 
 3568000   0.69208981   -8.1925314    662.94577  0.015483599  0.014791811            2 
 3569000   0.67772207   -8.2163079    664.12996   0.01550691  0.014786859            1 
 3570000   0.67982829   -8.2235782    663.88382  0.015496821  0.014781897            4 
 3571000    0.6612255   -8.2268012    661.95499   0.01544747  0.014776931            2 
 3572000   0.67594088   -8.2300374    663.53719  0.015480058  0.014771967            3 
 3573000   0.67394667   -8.2413203    662.46379   0.01545069  0.014766996            2 
 3574000   0.67831931   -8.2102915    663.09085  0.015460988  0.014762026            2 
 3575000    0.6860462   -8.2097479    662.51957  0.015443347  0.014757065            2 
 3576000   0.67700571   -8.2235656    662.33716  0.015434777  0.014752104            5 
 3577000   0.66972854   -8.2334727    664.05481  0.015470478  0.014747155            5 
 3578000   0.66963644   -8.2270098    662.35727  0.015426618  0.014742203            2 
 3579000   0.67104269   -8.2306766    663.22034  0.015442403  0.014737247            2 
 3580000   0.67947455   -8.2518468    663.03081  0.015433678  0.014732287            2 
 3581000   0.68359795   -8.1981531    662.28222  0.015411948  0.014727332            3 
 3582000   0.69804838   -8.2304507     662.6115  0.015415306  0.014722377            1 
 3583000   0.66543366   -8.2257694    663.08311  0.015421972   0.01471742            2 
 3584000   0.66053748   -8.2251149    661.96298  0.015391624  0.014712459            1 
 3585000   0.67150233   -8.2574924    662.25716  0.015394169    0.0147075            1 
 3586000   0.67430815   -8.2414951    663.26941    0.0154134  0.014702538            1 
 3587000   0.68845314   -8.1977568    662.71833    0.0153963  0.014697593            2 
 3588000   0.67366858   -8.2106672    662.36851  0.015383884  0.014692643            1 
 3589000   0.68170415   -8.2382489    661.82106  0.015366886    0.0146877            3 
 3590000   0.66147934     -8.21453    664.88829  0.015433804  0.014682764            1 
 3591000   0.66657296   -8.2053772    664.28602   0.01541553  0.014677829            2 
 3592000   0.67772207   -8.2026558    663.56148  0.015394429  0.014672899            1 
 3593000   0.68012069   -8.2100686    663.96483    0.0153995  0.014667982            2 
 3594000   0.67257153   -8.2151079    663.00058  0.015372857  0.014663066            2 
 3595000   0.68526366   -8.2118573    662.11518  0.015348057  0.014658158            1 
 3596000   0.67421916   -8.2228987    663.22301  0.015369462   0.01465326            2 
 3597000   0.68144917   -8.2185314    663.75699   0.01537756  0.014648348            1 
 3598000   0.66825902   -8.2263974          665  0.015402075  0.014643454            3 
 3599000   0.67601114   -8.2204416     663.9214  0.015372821  0.014638563            2 
 3600000    0.6648172   -8.2326711    663.22435  0.015352416  0.014633652            3 
 3601000    0.6737279    -8.227371    663.28261    0.0153495  0.014628742            1 
 3602000   0.67640755   -8.2327776    664.73026  0.015378731  0.014623858            3 
 3603000   0.68770478   -8.2229317    663.83837  0.015353834  0.014618972            1 
 3604000   0.67788671   -8.2313411    663.76437  0.015347863  0.014614083            2 
 3605000    0.6766433   -8.2260305    664.31419  0.015356315  0.014609197            3 
 3606000   0.65887395   -8.2191243    663.20677  0.015326465  0.014604326            1 
 3607000   0.67950378   -8.2160149    664.35216  0.015348678  0.014599448            1 
 3608000    0.6845203   -8.2283737      664.188  0.015340632  0.014594575            2 
 3609000   0.67272823   -8.2029997    665.29815  0.015362015  0.014589704            1 
 3610000   0.66639418   -8.2333642    663.18789  0.015309046  0.014584838            3 
 3611000   0.67636609   -8.2151494    662.39444  0.015286496  0.014579963            1 
 3612000   0.67739552    -8.226749    663.30945  0.015303374  0.014575078            2 
 3613000   0.67780917   -8.2470266    664.20752  0.015319852   0.01457019            4 
 3614000   0.67836484   -8.2496988    662.61641  0.015278925  0.014565301            2 
 3615000   0.67565923   -8.2238353    662.94979  0.015282383  0.014560401            1 
 3616000   0.66619821   -8.2330664    662.65983  0.015271475  0.014555502            2 
 3617000   0.65942032   -8.2323038    662.88275  0.015272388  0.014550616            3 
 3618000   0.67149229   -8.2368629    663.82109   0.01528978  0.014545732            2 
 3619000   0.67388185   -8.2215947    663.76359  0.015284231  0.014540851            2 
 3620000    0.6824107   -8.2283022    664.15012  0.015288907  0.014535958            2 
 3621000   0.68235791   -8.2376679    662.65366  0.015250245  0.014531069            2 
 3622000   0.66295852   -8.2283771    664.61129  0.015291075  0.014526189            1 
 3623000   0.66624912    -8.254097    663.28581  0.015256367  0.014521304            3 
 3624000    0.6742845   -8.2309498    663.59849  0.015259347  0.014516423            2 
 3625000    0.6729674   -8.2364899    663.65665  0.015256475  0.014511547            2 
 3626000    0.6734795   -8.2221862    663.69483  0.015253145  0.014506668            2 
 3627000   0.65939619   -8.2171957    663.04974  0.015234118  0.014501803            3 
 3628000   0.67320636   -8.2368316    662.06523  0.015207305  0.014496914            1 
 3629000   0.67031053   -8.2431551    662.43235  0.015211545  0.014492036            2 
 3630000   0.66564202   -8.2348125    662.75187  0.015214689  0.014487165            1 
 3631000   0.66337395   -8.2551228    662.73976  0.015210221  0.014482286            1 
 3632000   0.67033014   -8.2386794    663.77626  0.015229815  0.014477418            2 
 3633000   0.66718783   -8.2390535    663.84933  0.015227299  0.014472543            3 
 3634000   0.65724009   -8.2510567    664.14914  0.015229984  0.014467662            3 
 3635000   0.66788048   -8.2397452    663.27225  0.015205691  0.014462795            2 
 3636000   0.66908471   -8.2668648    661.91078  0.015170306  0.014457928            2 
 3637000   0.65809255   -8.2549115    661.66533  0.015160511  0.014453054            2 
 3638000   0.66550692   -8.2599352    662.33121  0.015171596  0.014448191            3 
 3639000   0.67779088   -8.2475106    662.39728   0.01516894  0.014443329            3 
 3640000   0.67900291   -8.2532138    661.04212  0.015133748  0.014438463            1 
 3641000   0.66582736   -8.2668695    661.86937  0.015148525  0.014433589            2 
 3642000   0.69088083   -8.2681662    662.84464  0.015166681  0.014428711            3 
 3643000     0.657916   -8.2473573    661.93309  0.015141666   0.01442384            3 
 3644000    0.6819935   -8.2736296     662.6704  0.015154373  0.014418977            2 
 3645000   0.66045772   -8.2600737    662.85248  0.015154378  0.014414117            3 
 3646000   0.67107789   -8.2485296    664.04256  0.015177422  0.014409247            3 
 3647000   0.65895295    -8.261162    662.03074   0.01512729   0.01440438            1 
 3648000   0.66004571   -8.2478485    661.93043  0.015120852  0.014399519            3 
 3649000   0.66380926   -8.2437339    663.42902  0.015150932   0.01439466            5 
 3650000   0.66372035    -8.243098    662.36183  0.015122416  0.014389803            1 
 3651000   0.66599382   -8.2636106    662.07647  0.015111761  0.014384946            3 
 3652000   0.66208883   -8.2612065    662.84053  0.015125058  0.014380086            2 
 3653000   0.66674771   -8.2529398    662.14128  0.015104966  0.014375239            3 
 3654000    0.6751865   -8.2694275     662.9914   0.01512022  0.014370392            2 
 3655000   0.66996046    -8.241729    662.95722  0.015115304  0.014365538            1 
 3656000   0.66112505    -8.247631    662.88135   0.01510944  0.014360696            2 
 3657000   0.66561031   -8.2709043    662.05166  0.015086402  0.014355846            3 
 3658000    0.6634687   -8.2389641    661.81438  0.015076872  0.014351001            4 
 3659000   0.67283079   -8.2581953    663.40419   0.01510896  0.014346167            2 
 3660000   0.65895878   -8.2461795    663.99686  0.015118326  0.014341328            2 
 3661000   0.66638601   -8.2570147    662.90933  0.015089441  0.014336496            2 
 3662000    0.6732359   -8.2389937    662.82044  0.015083298   0.01433167            1 
 3663000   0.66277202   -8.2548826    663.91414  0.015104062  0.014326855            3 
 3664000   0.65621018   -8.2636427     662.3659  0.015064727  0.014322048            1 
 3665000   0.66498172   -8.2253481    662.62788  0.015066573  0.014317229            3 
 3666000   0.65794729   -8.2559446    663.64759  0.015085643   0.01431241            1 
 3667000   0.66256141   -8.2432676    663.92119  0.015087746  0.014307601            3 
 3668000   0.66138669   -8.2432268    662.50674  0.015051498  0.014302801            3 
 3669000    0.6776906   -8.2580332    662.74639  0.015052839  0.014297985            3 
 3670000   0.66210876   -8.2499686    663.49897  0.015065826  0.014293172            3 
 3671000   0.65766159   -8.2300446    663.70103  0.015066309  0.014288367            3 
 3672000   0.66161639    -8.242568    662.45729   0.01503398  0.014283556            2 
 3673000   0.66207467   -8.2300176     662.4768   0.01503033  0.014278742            2 
 3674000   0.66235015   -8.2236291    663.37744  0.015046667  0.014273933            2 
 3675000   0.66734742   -8.2498687    662.80705  0.015029638  0.014269123            2 
 3676000   0.67244422   -8.2487961    662.90605  0.015027794   0.01426431            2 
 3677000   0.64917201   -8.2727155    662.32946  0.015010639  0.014259498            3 
 3678000   0.64312361   -8.2417495    663.39217  0.015030636  0.014254686            2 
 3679000   0.66697085   -8.2720354     664.0032  0.015040391  0.014249869            4 
 3680000   0.65886257   -8.2589946    662.29625  0.014997651  0.014245051            2 
 3681000   0.67649004   -8.2650619    663.22904  0.015014693  0.014240231            3 
 3682000   0.67218263    -8.259265     663.4266  0.015015087   0.01423541            1 
 3683000   0.66303998   -8.2543643    662.29776  0.014985468  0.014230598            1 
 3684000   0.66157196   -8.2608849    663.69896  0.015013096  0.014225781            2 
 3685000   0.65463983   -8.2704839     663.0467  0.014994272   0.01422097            3 
 3686000   0.64844278   -8.2839161    663.38013  0.014997742  0.014216146            1 
 3687000    0.6647432   -8.2556764    664.27608  0.015013925  0.014211332            2 
 3688000   0.66629396    -8.260466    663.18012   0.01498509  0.014206518            1 
 3689000   0.65891995   -8.2548238    662.29882  0.014961119  0.014201706            2 
 3690000    0.6497294   -8.2563696    664.73152  0.015012004  0.014196908            2 
 3691000   0.67150588   -8.2474441    662.51862  0.014957975  0.014192102            5 
 3692000   0.65326313   -8.2798132    661.65155  0.014934352  0.014187299            1 
 3693000   0.65474232   -8.2912293     661.8752  0.014935355  0.014182494            2 
 3694000   0.66531991   -8.2570276    662.49482   0.01494529  0.014177697            1 
 3695000   0.66524435    -8.294232    662.16269  0.014933755  0.014172908            2 
 3696000   0.66869273   -8.2765308    662.68282  0.014941442  0.014168115            3 
 3697000   0.66715154   -8.2668355    663.19961  0.014949049  0.014163323            2 
 3698000   0.66305445   -8.2744678    662.96855    0.0149398  0.014158535            2 
 3699000   0.66828883   -8.2714594    662.33917  0.014921582  0.014153751            1 
 3700000   0.65451304   -8.2884475    662.24006  0.014915317   0.01414896            8 
 3701000   0.65026282   -8.2585946    662.87718  0.014925632  0.014144181            2 
 3702000   0.65399866   -8.3012963     662.6889  0.014917362    0.0141394            3 
 3703000   0.66155109   -8.2835747    663.22166  0.014925323  0.014134628            2 
 3704000   0.66651295   -8.2760774    663.32042  0.014923516  0.014129849            2 
 3705000   0.66666403   -8.2578713    662.88168  0.014909619   0.01412508            1 
 3706000   0.67066695   -8.2754419    664.53946  0.014942873  0.014120304            1 
 3707000   0.65064162   -8.2860053    662.33238  0.014889227  0.014115535            2 
 3708000   0.65168174   -8.2878895    661.02375  0.014855802  0.014110754            2 
 3709000   0.65747875   -8.2808658    662.73135  0.014890162   0.01410598            2 
 3710000   0.64860204   -8.2986769    660.89009  0.014844791  0.014101207            1 
 3711000   0.65101953   -8.2862676    662.81828   0.01488409  0.014096429            3 
 3712000   0.66393728   -8.2801774    662.58772  0.014874904  0.014091663            3 
 3713000   0.66280912   -8.2716383     663.4102  0.014889357  0.014086896            1 
 3714000    0.6479794   -8.2939773    662.50251  0.014864982  0.014082136            3 
 3715000   0.65187984   -8.2871397    663.11956  0.014874822  0.014077385            1 
 3716000   0.66903313   -8.2847383    663.07147  0.014869741  0.014072636            1 
 3717000   0.65047033   -8.2763131    662.32135  0.014848923  0.014067889            2 
 3718000   0.65267313   -8.2776177     662.3789  0.014846219  0.014063143            1 
 3719000   0.67107224   -8.2754486    663.78064  0.014873636  0.014058397            5 
 3720000   0.65641405   -8.2868689    662.89569  0.014849814   0.01405366            2 
 3721000   0.67293656   -8.2802404    663.49054  0.014859145  0.014048918            3 
 3722000   0.66419083   -8.2802004    662.93982  0.014842822  0.014044171            3 
 3723000   0.63891752   -8.2918193    662.49127  0.014828795  0.014039427            2 
 3724000   0.65469495   -8.2625627    662.42001  0.014823219   0.01403468            2 
 3725000    0.6588121   -8.2975327     663.0307  0.014832902  0.014029934            2 
 3726000   0.65095588   -8.2777411    662.12763  0.014808723  0.014025199            3 
 3727000   0.66044761   -8.2838286    662.37673  0.014810319  0.014020465            3 
 3728000   0.65017083    -8.283952    662.35637  0.014805892  0.014015736            1 
 3729000   0.64930874   -8.2822092    663.27502  0.014822451  0.014011007            2 
 3730000   0.66496538   -8.2733656      663.249  0.014817896  0.014006284            2 
 3731000   0.65686586   -8.2739618    663.08868  0.014810343   0.01400156            4 
 3732000   0.66207863   -8.2908874    662.58041  0.014795025  0.013996829            4 
 3733000   0.65166147   -8.2750729     662.0275  0.014778719  0.013992102            4 
 3734000   0.64521592   -8.2746848     662.4444  0.014784065   0.01398738            5 
 3735000   0.65428982   -8.2934031    661.82759  0.014766345  0.013982646            3 
 3736000   0.65860629   -8.2780434    661.43368  0.014753606  0.013977918            4 
 3737000   0.66796239   -8.2746529    663.44482  0.014794506  0.013973175            6 
 3738000   0.65150641   -8.2551936    663.31574   0.01478767  0.013968443            2 
 3739000   0.64803175   -8.2840977    664.28446  0.014805306  0.013963704            1 
 3740000   0.65903089   -8.3045384    662.27373  0.014756545  0.013958971            5 
 3741000   0.64946652   -8.2984479    662.76912  0.014763635  0.013954237            4 
 3742000   0.65394202   -8.2786832     662.5868   0.01475563  0.013949514            3 
 3743000    0.6487333   -8.2864987    661.89159   0.01473621  0.013944791            2 
 3744000   0.65023299   -8.2807657    662.58124  0.014747624  0.013940074            4 
 3745000   0.64114529   -8.2763036     662.6967  0.014746255  0.013935358            2 
 3746000    0.6568061   -8.2834583     663.5071  0.014760347  0.013930641            2 
 3747000   0.65221102   -8.2806333    662.86055  0.014742028  0.013925925            3 
 3748000   0.63658597   -8.2827572    663.49119  0.014752116  0.013921214            4 
 3749000   0.65067304   -8.2795601    662.58079  0.014727945  0.013916489            3 
 3750000   0.65170893   -8.2990582    663.84221  0.014752049  0.013911771            1 
 3751000   0.63881284   -8.2875641    662.34031   0.01471475  0.013907055            3 
 3752000   0.64824748   -8.2993867    662.15386  0.014706687  0.013902338            3 
 3753000   0.65026987      -8.2566    663.15242   0.01472494  0.013897631            4 
 3754000   0.65033184   -8.2860074    661.86044  0.014692338  0.013892922            5 
 3755000   0.64028463   -8.3010603    661.66641  0.014684119  0.013888204            2 
 3756000   0.65614431   -8.3108185    662.01258   0.01468789  0.013883483            2 
 3757000   0.63211799   -8.3068637    662.11713  0.014686299  0.013878765            1 
 3758000   0.65099387   -8.2882308    661.65176  0.014672072  0.013874052            2 
 3759000   0.65279754    -8.288086    662.12332  0.014678623  0.013869347            2 
 3760000   0.65544709   -8.3030126    662.91486  0.014692262  0.013864645            3 
 3761000   0.66111239   -8.2774331    662.32307  0.014675243  0.013859937            2 
 3762000   0.64024823   -8.2721854    662.69506  0.014679582  0.013855232            2 
 3763000   0.64270546   -8.3092743    662.69199  0.014675613  0.013850524            2 
 3764000   0.64928973   -8.2888643    662.34915  0.014664124  0.013845823            3 
 3765000   0.66665509   -8.2972402    662.16322  0.014656114   0.01384113            3 
 3766000   0.65241141   -8.2837847    663.25335  0.014676344  0.013836437            4 
 3767000   0.64899892   -8.2924231    662.73389  0.014660957  0.013831744            2 
 3768000   0.64836518   -8.2744859    662.22788  0.014645875  0.013827052            3 
 3769000   0.65365189   -8.2918945    662.53245  0.014648723  0.013822352            1 
 3770000   0.64025026   -8.3117837    661.39423  0.014619678  0.013817653            3 
 3771000   0.64336759   -8.2985014    661.24797  0.014612569  0.013812951            3 
 3772000   0.65123386    -8.314817    661.92587  0.014623672  0.013808242            1 
 3773000   0.64809925   -8.3148559    662.29456  0.014627939   0.01380355            2 
 3774000    0.6486268   -8.2962704    661.04633  0.014596501  0.013798857            2 
 3775000   0.63061525   -8.2958513    660.87403  0.014588831  0.013794155            2 
 3776000   0.63762362    -8.314965    661.29353  0.014594225  0.013789463            3 
 3777000   0.65334679    -8.305231    661.72347  0.014599847  0.013784777            1 
 3778000   0.64954877    -8.323475    661.73645  0.014596269  0.013780093            2 
 3779000   0.65288134   -8.3206605    662.57684  0.014610938  0.013775413            2 
 3780000   0.64855009   -8.2877004    661.90442  0.014592249  0.013770727            2 
 3781000   0.66072036   -8.3124631    661.73937  0.014584752   0.01376604            3 
 3782000   0.64634704   -8.3129108    662.59305  0.014599706  0.013761353            3 
 3783000   0.66386072   -8.3185071    662.08361  0.014584624  0.013756675            3 
 3784000   0.63380958   -8.3160367    661.01077  0.014557143  0.013751999            2 
 3785000   0.65050531   -8.2880928     661.6661  0.014567726  0.013747324            2 
 3786000   0.63664026   -8.3048355    661.76423  0.014566038  0.013742658            2 
 3787000   0.63857961   -8.2942644    661.08345  0.014547211   0.01373799            3 
 3788000   0.64649333   -8.3152999    662.63571  0.014577519  0.013733318            3 
 3789000   0.64758067   -8.3098423    661.15114  0.014541021  0.013728641            2 
 3790000   0.64327565   -8.3050451    660.27043   0.01451782   0.01372396            3 
 3791000   0.64474329   -8.3213154    661.57035  0.014542565  0.013719289            3 
 3792000   0.66085388   -8.3041344    663.78944  0.014587497  0.013714625            2 
 3793000   0.63127012     -8.31578     662.3567  0.014552173  0.013709969            2 
 3794000   0.65302618    -8.292819     662.4594  0.014550593  0.013705312            1 
 3795000   0.63818966    -8.341439    663.08771  0.014560556   0.01370065            1 
 3796000   0.64388366   -8.3339461    661.86254  0.014529824  0.013695987            1 
 3797000   0.65149151   -8.3191953    660.96878  0.014506382  0.013691327            3 
 3798000   0.63909686    -8.307281    662.29578  0.014531679  0.013686674            1 
 3799000   0.63041031   -8.3144485    661.95896  0.014520465  0.013682021            3 
 3800000   0.65055646   -8.3056199    661.30713  0.014502349  0.013677357            2 
 3801000    0.6387511   -8.3146072    662.10142  0.014515948  0.013672694            3 
 3802000   0.64008265   -8.2931142    662.81498   0.01452777  0.013668028            2 
 3803000     0.646189   -8.3114874    661.25702  0.014489811  0.013663372            2 
 3804000   0.65006467   -8.3127026    661.41752  0.014489518  0.013658714            3 
 3805000   0.64808722   -8.3232552    662.75596  0.014515023  0.013654061            2 
 3806000   0.63700735   -8.3138151    661.41776  0.014481909  0.013649406            1 
 3807000    0.6383498   -8.2929664    663.31558  0.014519648  0.013644765            2 
 3808000   0.63823561   -8.3372833    661.72455  0.014481017  0.013640114            2 
 3809000   0.63640681   -8.3168637    661.44814  0.014471168  0.013635474            1 
 3810000   0.62665169   -8.2930186     660.7265  0.014451586  0.013630825            2 
 3811000   0.64456913   -8.2886363    662.50279  0.014486635  0.013626185            2 
 3812000   0.65411079   -8.3233766    661.78872  0.014467225  0.013621544            2 
 3813000   0.63115554   -8.3165242    662.21586  0.014472766  0.013616909            2 
 3814000   0.64666306   -8.3194373     662.2568  0.014469865  0.013612269            2 
 3815000   0.65057205   -8.3491015    661.60883  0.014451918  0.013607632            2 
 3816000   0.62925908   -8.3189164    662.31505  0.014463554  0.013603001            2 
 3817000   0.63506948   -8.3422238    662.16259  0.014456436  0.013598369            4 
 3818000   0.63889179   -8.3324785     660.9825  0.014426892  0.013593745            2 
 3819000    0.6536877   -8.3347886    661.59506  0.014436481  0.013589119            4 
 3820000   0.66009802   -8.2895978    661.40865  0.014428635  0.013584494            3 
 3821000   0.66157172   -8.3234496    660.86105  0.014412917  0.013579883            4 
 3822000   0.64411308   -8.3343734    660.42746  0.014399692  0.013575262            2 
 3823000   0.63231071   -8.3415953      661.811  0.014426083  0.013570633            1 
 3824000   0.64766334   -8.3333031     662.3711  0.014434517  0.013566022            1 
 3825000   0.63124159   -8.3278201    661.09433  0.014402927  0.013561408            3 
 3826000   0.63736342   -8.3389607    662.21121  0.014423489  0.013556797            2 
 3827000   0.63628853   -8.3266874    661.57563   0.01440588  0.013552185            1 
 3828000   0.64455363   -8.3341196    661.81181  0.014407258   0.01354758            2 
 3829000    0.6396224   -8.3557193    660.52295  0.014375445  0.013542969            2 
 3830000   0.62626908   -8.3274502     661.2609  0.014387748   0.01353837            3 
 3831000   0.64511317    -8.358434    662.47649  0.014410434  0.013533769            2 
 3832000   0.62685635   -8.3313103    662.18748  0.014400389  0.013529171            4 
 3833000   0.63814309   -8.3214331    662.17831  0.014396432  0.013524583            2 
 3834000   0.61753022   -8.3132641     661.7216  0.014382751  0.013519996            2 
 3835000   0.62976053   -8.3156083    662.65369  0.014399254  0.013515402            1 
 3836000   0.63907713   -8.3078869    662.39446  0.014389869  0.013510815            2 
 3837000   0.62330612   -8.3232332    662.36242  0.014385423  0.013506215            2 
 3838000   0.64584482   -8.3269308    663.47534  0.014405839  0.013501616            2 
 3839000   0.63480051   -8.3193484    662.71895  0.014385668  0.013497024            2 
 3840000   0.64204385   -8.3141322    661.81212  0.014362242  0.013492437            2 
 3841000    0.6289983   -8.3434678    662.45476  0.014372445  0.013487858            4 
 3842000   0.64518456   -8.3345597    663.36946  0.014388545  0.013483275            2 
 3843000   0.62387407   -8.3355665    662.63929  0.014368967  0.013478699            1 
 3844000   0.65525868   -8.3160582    663.73473  0.014388977  0.013474133            2 
 3845000    0.6386651   -8.3410161    661.84966  0.014344379  0.013469561            2 
 3846000   0.63332929   -8.3070884    660.54188  0.014312313  0.013464982            2 
 3847000   0.64483912   -8.3207167    661.95835  0.014339276  0.013460404            3 
 3848000   0.62988736   -8.3151079    662.52931  0.014347915  0.013455832            2 
 3849000   0.63858294   -8.3240184    662.95661  0.014353438  0.013451257            3 
 3850000   0.63909009   -8.3186844    662.42006  0.014338097  0.013446686            2 
 3851000   0.63980862   -8.3398335    662.09262  0.014327288  0.013442116            2 
 3852000   0.62806904   -8.3218801    663.42359  0.014352362  0.013437551            2 
 3853000   0.63671442   -8.3398781     661.4165  0.014305227  0.013432982            2 
 3854000   0.63621334   -8.3221763    662.78255  0.014331053  0.013428413            1 
 3855000   0.63847775   -8.3263626    662.61118  0.014323631  0.013423851            2 
 3856000   0.63779374   -8.3343775     661.7703  0.014301744  0.013419288            2 
 3857000   0.62575941   -8.3293423     660.8322  0.014277768  0.013414722            3 
 3858000   0.63574767    -8.358235    662.14887  0.014302507   0.01341016            2 
 3859000   0.63846758   -8.3165227    661.56731  0.014286242  0.013405611            2 
 3860000   0.64352357   -8.3348666    662.11136  0.014294287  0.013401047            2 
 3861000   0.62892195   -8.3425653     661.3021  0.014273118   0.01339649            1 
 3862000   0.63982182   -8.3161141    661.52925  0.014274324   0.01339194            1 
 3863000   0.62889312   -8.3621381    662.48937   0.01429134  0.013387378            2 
 3864000   0.63138047   -8.3356788    662.10919  0.014279442  0.013382817            2 
 3865000   0.64141372   -8.3417002    662.15905  0.014276823  0.013378267            2 
 3866000   0.65317362    -8.343411    661.36717  0.014256061  0.013373711            2 
 3867000     0.627017   -8.3396086    662.11553  0.014268501  0.013369158            3 
 3868000    0.6273906   -8.3438345    663.23594  0.014288951  0.013364608            1 
 3869000   0.63229089   -8.3560262     662.7404  0.014274584  0.013360063            1 
 3870000   0.63669597   -8.2953786    662.61343  0.014268162   0.01335552            2 
 3871000   0.63807165   -8.3295934    661.67827  0.014244344  0.013350974            2 
 3872000   0.64055501   -8.3704384    661.83717  0.014244085  0.013346432            2 
 3873000   0.64097145   -8.3273014     662.6635  0.014258187  0.013341894            2 
 3874000   0.63821044   -8.3522485    661.59003  0.014231415   0.01333736            2 
 3875000   0.63006769   -8.3605133    662.31702  0.014243377  0.013332824            2 
 3876000   0.63190126   -8.3511431    661.34946    0.0142189  0.013328291            1 
 3877000   0.64532152   -8.3368834    661.66766  0.014222072  0.013323755            4 
 3878000    0.6220598   -8.3376174    662.71838  0.014240983  0.013319229            3 
 3879000   0.62627261   -8.3302221    662.22877  0.014226793  0.013314688            4 
 3880000   0.62457087   -8.3439642    662.25797  0.014223754  0.013310159            5 
 3881000   0.63304774   -8.3241531    662.60221   0.01422748  0.013305625            3 
 3882000   0.62139063   -8.3465121    660.53379  0.014179413  0.013301097            5 
 3883000   0.62441787   -8.3335279    661.83135  0.014203609  0.013296578            3 
 3884000   0.62501735   -8.3276409    662.81456  0.014221047  0.013292056            1 
 3885000   0.62185676    -8.340707    661.62282  0.014191824  0.013287529            2 
 3886000   0.62835067   -8.3269659    662.16201  0.014199734  0.013283018            2 
 3887000   0.63374523   -8.3367878    661.51502   0.01418221  0.013278504            2 
 3888000   0.62333156    -8.334508    661.21323  0.014172094  0.013273987            2 
 3889000   0.63121864   -8.3517476    660.37032  0.014150388   0.01326947            1 
 3890000   0.63864534   -8.3358991    660.85233  0.014157076  0.013264952            4 
 3891000   0.62363282   -8.3374455    660.51488  0.014146211  0.013260434            2 
 3892000   0.63530568   -8.3481519     661.1765  0.014156742  0.013255922            2 
 3893000   0.61702913   -8.3444267    660.88832  0.014146937  0.013251419            2 
 3894000   0.62271068   -8.3349641    661.65553  0.014159723  0.013246913            4 
 3895000   0.63125729   -8.3388904    661.32055  0.014148921  0.013242403            2 
 3896000   0.62584177   -8.3731798    661.31343  0.014145137  0.013237896            2 
 3897000   0.64069038   -8.3515225    661.20912  0.014139276  0.013233386            3 
 3898000   0.63814365   -8.3478467    661.66054    0.0141453  0.013228876            4 
 3899000   0.61094244   -8.3453833    661.21843  0.014132222  0.013224367            3 
 3900000   0.63733331   -8.3567888    661.27424  0.014129791  0.013219876            2 
 3901000   0.64119307   -8.3448512    660.83273  0.014116738   0.01321539            2 
 3902000   0.62245153   -8.3437909    661.92917  0.014136536    0.0132109            2 
 3903000   0.60764592    -8.361558    661.70955  0.014128225  0.013206407            1 
 3904000   0.62526214    -8.360287    662.07221  0.014132347  0.013201909            2 
 3905000   0.61167715   -8.3431109    662.29397  0.014133461   0.01319741            1 
 3906000      0.62605   -8.3609923    662.30332  0.014130042  0.013192919            1 
 3907000   0.62535243   -8.3297869     661.4613  0.014108466  0.013188425            2 
 3908000   0.62274452   -8.3596048    660.51991  0.014084781  0.013183933            3 
 3909000   0.63385742   -8.3694922    661.08222  0.014093166  0.013179436            1 
 3910000   0.62724277   -8.3580803    660.61688  0.014079644  0.013174934            1 
 3911000   0.62739015   -8.3764238    661.42734  0.014093313   0.01317044            2 
 3912000   0.62620646   -8.3803502    661.67353  0.014094954  0.013165947            2 
 3913000   0.62429993   -8.3738775    661.23292  0.014081969  0.013161446            4 
 3914000   0.63709429   -8.3604753     661.3563  0.014080998  0.013156956            2 
 3915000   0.62637846   -8.3837272     660.6083  0.014061479   0.01315247            2 
 3916000   0.62506214   -8.3751531    661.59804  0.014078951  0.013147991            2 
 3917000    0.6369706   -8.3602746    661.32039  0.014069449   0.01314351            3 
 3918000   0.63035375   -8.3715076    660.14663  0.014040893   0.01313903            2 
 3919000    0.6287446   -8.3602918    660.72104  0.014049524   0.01313456            2 
 3920000   0.63105049   -8.3702292    660.97195  0.014051274   0.01313009            2 
 3921000   0.63430757   -8.3482669    661.05119  0.014049375  0.013125628            2 
 3922000   0.62555924   -8.3593778    661.88406  0.014063489  0.013121171            1 
 3923000    0.6236457   -8.3541294    661.82887  0.014058732  0.013116705            1 
 3924000   0.60951337   -8.3420577    661.59139  0.014050106  0.013112242            2 
 3925000   0.63090904   -8.3651352    661.22542  0.014038756  0.013107787            2 
 3926000   0.63709914   -8.3575931    661.72468  0.014045778  0.013103327            1 
 3927000   0.62943585   -8.3540737    661.25004  0.014032129  0.013098872            3 
 3928000   0.63008037   -8.3695794    661.16259  0.014026701  0.013094417            2 
 3929000   0.61336376   -8.3408732    661.52212  0.014030757  0.013089962            2 
 3930000   0.62572841   -8.3399782    661.88731   0.01403493  0.013085505            2 
 3931000   0.61804458   -8.3537232    661.90375  0.014031709  0.013081048            2 
 3932000   0.61562591    -8.374591    661.71186  0.014024073  0.013076588            2 
 3933000   0.61926547    -8.365174    662.42045  0.014035521  0.013072143            3 
 3934000   0.63003291   -8.3558075    662.42375  0.014032023  0.013067701            1 
 3935000   0.63226418   -8.3502691    660.95109   0.01399727  0.013063258            2 
 3936000   0.62133346   -8.3549825    660.93948  0.013993468  0.013058808            1 
 3937000   0.62128804   -8.3619328     661.1225  0.013993788  0.013054362            1 
 3938000   0.62933477   -8.3842471    662.33208   0.01401583   0.01304992            1 
 3939000   0.62438073   -8.3424909    661.61221  0.013997043   0.01304549            3 
 3940000    0.6239591   -8.3794117    661.70479  0.013995448  0.013041059            3 
 3941000   0.61323134   -8.3431935    662.52148  0.014009166   0.01303663            1 
 3942000   0.61593753   -8.3678549    660.88727  0.013971065  0.013032204            2 
 3943000   0.61041807   -8.3515086    661.87605  0.013988419  0.013027774            4 
 3944000   0.62845223   -8.3375007    660.82581  0.013962682   0.01302335            2 
 3945000     0.604971   -8.3549531    661.75287  0.013978726  0.013018927            2 
 3946000   0.62462962    -8.345375    662.81259  0.013997563  0.013014508            1 
 3947000   0.59973171   -8.3618899    661.38161  0.013963804  0.013010092            2 
 3948000    0.6141019    -8.351059    661.07638  0.013953824  0.013005674            3 
 3949000   0.62374766   -8.3653054    661.16529  0.013952167  0.013001256            4 
 3950000   0.62158289   -8.3603071    661.63893  0.013958627  0.012996837            3 
 3951000   0.60906295   -8.3569786    663.69569  0.013998475   0.01299242            2 
 3952000    0.6159159   -8.3505418    661.27072  0.013943799  0.012988008            4 
 3953000   0.61887822   -8.3914756    662.08731  0.013957486  0.012983592            1 
 3954000   0.63129977    -8.372508    661.07387  0.013932597  0.012979178            1 
 3955000   0.60569928   -8.3539328    662.07063  0.013950077  0.012974768            1 
 3956000   0.62678496   -8.3605482    661.07906  0.013925663  0.012970356            2 
 3957000   0.61311566   -8.3634911    661.02062  0.013920913  0.012965954            4 
 3958000   0.62857377   -8.3614689    660.96527   0.01391623  0.012961555            3 
 3959000   0.60445471   -8.3703702    661.34875  0.013920787  0.012957151            3 
 3960000   0.63109637    -8.364293    661.03279  0.013910623  0.012952745            2 
 3961000   0.62215263   -8.3667646    661.60869  0.013919227  0.012948341            3 
 3962000   0.61068438   -8.3572671    660.46288  0.013891614  0.012943948            2 
 3963000   0.62720912   -8.3739594    661.91553  0.013918654  0.012939561            1 
 3964000   0.61666508   -8.3570234    662.06146  0.013918211  0.012935171            2 
 3965000   0.62291297   -8.3543286    660.72014   0.01388651  0.012930782            3 
 3966000   0.63214361   -8.3591006    660.81326  0.013884965  0.012926393            5 
 3967000   0.60884587   -8.3499537    661.36999   0.01389316   0.01292201            2 
 3968000   0.60943459   -8.3606003    661.74274  0.013897487  0.012917613            2 
 3969000   0.61004098   -8.3776837    660.60517  0.013870101  0.012913227            3 
 3970000    0.6153113   -8.3744798     661.9389  0.013894603  0.012908841            4 
 3971000   0.60749168   -8.3602887    662.47078  0.013902266  0.012904462            2 
 3972000   0.62961847   -8.3596199    661.66056  0.013881767   0.01290008            4 
 3973000   0.60426314   -8.3689726    662.38637  0.013893497  0.012895701            2 
 3974000   0.62243124   -8.3886371    662.09978  0.013883991  0.012891316            1 
 3975000   0.61521005   -8.3481162    663.93318  0.013918935  0.012886951            3 
 3976000   0.62073769    -8.386329    661.38439  0.013862013  0.012882577            1 
 3977000   0.60309713   -8.3658755    662.95275  0.013891391  0.012878199            2 
 3978000   0.60209579   -8.3688147    661.32886  0.013853881  0.012873824            2 
 3979000   0.61135075   -8.3788098    660.92197  0.013841877  0.012869448            2 
 3980000   0.61982535      -8.3952    661.25301  0.013845331  0.012865064            1 
 3981000   0.62054661   -8.3850353    661.60663  0.013849255  0.012860688            2 
 3982000   0.60603747   -8.3823471    662.02913  0.013854619  0.012856314            3 
 3983000   0.61058097   -8.3735574    662.42678  0.013859461  0.012851942            1 
 3984000   0.61845209   -8.3882124    660.59962  0.013817763  0.012847569            1 
 3985000   0.61004069   -8.4069034    660.64631  0.013815272  0.012843197            3 
 3986000   0.61079999    -8.392172    661.51536  0.013829975   0.01283882            2 
 3987000   0.61600839   -8.3961101      660.966  0.013815024  0.012834458            2 
 3988000   0.63216805   -8.3806904    662.14789  0.013836256  0.012830084            5 
 3989000   0.61829449   -8.4006236    661.34247  0.013815962  0.012825715            2 
 3990000   0.61652437   -8.4013153    659.89903  0.013782352  0.012821341            3 
 3991000   0.60768485   -8.3924932    660.79552  0.013797618  0.012816969            1 
 3992000   0.61409648   -8.4136147    660.13918  0.013780461  0.012812598            3 
 3993000   0.62063443   -8.3892214    660.81903  0.013791198  0.012808234            3 
 3994000   0.61519956    -8.375778    660.79457  0.013787234  0.012803876            2 
 3995000   0.62888679   -8.4007296    660.89485  0.013785875  0.012799517            2 
 3996000   0.61386844   -8.3926601     660.5379  0.013774981  0.012795164            3 
 3997000   0.62949925   -8.4075951    661.30728  0.013787576  0.012790808            4 
 3998000   0.62168937   -8.4150049     660.4489  0.013766235  0.012786461            1 
 3999000   0.61132267   -8.3990798    660.38713  0.013761506  0.012782116            3 
 4000000   0.61961258   -8.3972736    660.49313  0.013760274  0.012777768            2 
 4001000   0.61496325   -8.3900943    661.17801  0.013771099  0.012773435            3 
 4002000   0.61084756   -8.3849937    660.63404  0.013756331  0.012769097            1 
 4003000   0.61580614   -8.3761336    661.61633  0.013773343  0.012764762            2 
 4004000   0.59995807   -8.3721173    661.19054  0.013761042  0.012760435            1 
 4005000   0.60813822   -8.4076342    661.74704  0.013769185  0.012756101            2 
 4006000   0.59128128   -8.3874657    661.96061  0.013770191  0.012751767            4 
 4007000   0.60929556   -8.3912602    660.31179  0.013732464  0.012747435            2 
 4008000   0.61594848   -8.3942462    659.92423  0.013720979  0.012743098            1 
 4009000   0.62326667   -8.3819151    662.27256  0.013766371  0.012738765            1 
 4010000   0.60704934   -8.4024396    659.89773  0.013713585  0.012734432            2 
 4011000   0.61484214   -8.3848128    660.79954  0.013728902  0.012730097            1 
 4012000   0.60467691   -8.4060667    662.02403  0.013750915  0.012725764            3 
 4013000   0.61112775   -8.4051496    659.90354  0.013703454  0.012721445            2 
 4014000   0.58848448   -8.4080555     661.2744    0.0137285  0.012717115            2 
 4015000   0.60750906   -8.4079083    661.42834  0.013728276  0.012712793            1 
 4016000   0.62278134   -8.3933706    661.13933  0.013718861  0.012708474            2 
 4017000   0.62879158   -8.3935277    660.55193   0.01370326  0.012704151            3 
 4018000   0.61726188   -8.4049456    659.85419  0.013685378  0.012699826            2 
 4019000    0.6072339   -8.3870258    660.89845  0.013703625  0.012695505            2 
 4020000    0.6176271   -8.3972807    660.63983  0.013694856  0.012691183            2 
 4021000   0.61719912   -8.4196318    660.33791  0.013685193  0.012686865            1 
 4022000   0.62244412   -8.3870547    661.81601  0.013712415   0.01268255            2 
 4023000   0.61423641   -8.4088775    660.60906  0.013684006   0.01267824            1 
 4024000   0.59945818   -8.4074412    660.25509  0.013673275  0.012673924            2 
 4025000   0.61644888   -8.4122137    660.86026  0.013682407  0.012669615            1 
 4026000   0.60315253   -8.4319077    660.04598  0.013662154  0.012665301            1 
 4027000   0.60815652   -8.4127272    660.95305  0.013677532  0.012660986            2 
 4028000   0.59911318   -8.4195957    661.58741   0.01368726  0.012656681            1 
 4029000   0.61574835   -8.3979912    660.71689  0.013665858  0.012652378            1 
 4030000   0.59366966     -8.40912    661.20027  0.013672462  0.012648075            1 
 4031000   0.60358069   -8.4375336     660.7987  0.013660769  0.012643769            1 
 4032000    0.6131491   -8.3990368    660.83474  0.013658125  0.012639465            2 
 4033000    0.6049341    -8.414872    660.05033  0.013638531  0.012635161            2 
 4034000   0.59883838   -8.4213818    661.46639  0.013664402  0.012630863            1 
 4035000   0.60287592    -8.418342    660.30893  0.013637111   0.01262656            1 
 4036000   0.59747459   -8.4064829    661.58912  0.013660165  0.012622266            2 
 4037000   0.61230481    -8.399579    661.27491  0.013650295  0.012617972            5 
 4038000   0.60150893   -8.4340995    660.99156  0.013641067  0.012613678            3 
 4039000   0.60781883   -8.4149431    660.22309  0.013621835  0.012609389            4 
 4040000   0.60241016   -8.4128774     659.8079  0.013609899    0.0126051            1 
 4041000   0.62335429   -8.4045197    660.65742   0.01362405  0.012600803            3 
 4042000   0.59861178   -8.4147018    661.97541  0.013647852   0.01259652            3 
 4043000   0.59963953   -8.4179213    660.96293  0.013623607   0.01259223            2 
 4044000    0.6079806   -8.4086495    660.90291  0.013619002  0.012587951            2 
 4045000   0.59719713   -8.4062037    660.28118  0.013602826   0.01258367            1 
 4046000   0.61737048   -8.4254405    660.61414  0.013606322  0.012579389            2 
 4047000   0.58944722   -8.4236417    660.07038  0.013591763   0.01257511            2 
 4048000   0.59720464   -8.4219753    660.35251  0.013594213  0.012570831            3 
 4049000    0.6018547    -8.395179    660.18052  0.013587316  0.012566553            1 
 4050000   0.60820726   -8.4158303    660.41201  0.013588725  0.012562274            2 
 4051000   0.61332038   -8.4169912    659.67797   0.01357027  0.012557995            1 
 4052000   0.60685447   -8.4238903    660.87376  0.013591514  0.012553714            2 
 4053000   0.59125131   -8.4159759    661.31912  0.013597317  0.012549442            1 
 4054000    0.5984427   -8.4236731    661.32044   0.01359399  0.012545172            2 
 4055000   0.61816666   -8.4090959     661.1767  0.013587684  0.012540898            2 
 4056000   0.61651459   -8.4213924    660.67673  0.013574062  0.012536631            2 
 4057000   0.61085318    -8.446684    660.08713  0.013558605  0.012532372            1 
 4058000   0.60099001   -8.4273428    659.39185  0.013540986   0.01252811            3 
 4059000   0.59514337   -8.4211746    660.08107    0.0135518  0.012523843            1 
 4060000    0.5963429   -8.4046168    660.23086  0.013551537  0.012519576            1 
 4061000   0.61079028   -8.4062664    660.99283  0.013563835  0.012515311            4 
 4062000    0.6033118   -8.4157384    659.15826  0.013522859  0.012511044            2 
 4063000   0.59425242   -8.4256944    660.16748  0.013540231  0.012506784            2 
 4064000   0.59229373    -8.419916    659.07423  0.013514481  0.012502521            3 
 4065000   0.58670913   -8.4105956    661.19135  0.013554558  0.012498259            2 
 4066000    0.5997461   -8.4154611    660.44315   0.01353589  0.012494002            2 
 4067000   0.59531039    -8.427857    659.20007  0.013507091  0.012489748            2 
 4068000   0.60552299    -8.434236    659.75137  0.013515064  0.012485496            3 
 4069000   0.60317538   -8.4184347    660.15619  0.013520033  0.012481244            2 
 4070000   0.59996632   -8.4084352    659.94347  0.013512356  0.012476992            2 
 4071000   0.59916784   -8.4203101    660.32603  0.013516868  0.012472736            2 
 4072000   0.59768236   -8.4145091    660.33861  0.013513806  0.012468489            1 
 4073000   0.58730211   -8.4439066    660.51514    0.0135141  0.012464248            2 
 4074000   0.59981187   -8.4407753    660.70036  0.013514571  0.012460004            3 
 4075000   0.61033726   -8.4115161    660.03253  0.013497598  0.012455761            1 
 4076000   0.59261308   -8.4258762     659.9565  0.013492732  0.012451522            3 
 4077000    0.6063948   -8.4394622    659.57857  0.013481698  0.012447285            3 
 4078000   0.60182151   -8.4115463     661.4632  0.013516904  0.012443055            3 
 4079000   0.60281427   -8.4321655    661.00243  0.013504176  0.012438825            2 
 4080000   0.59893649    -8.418757    660.62757   0.01349321   0.01243459            2 
 4081000   0.59500188   -8.4095104    659.49898  0.013466858  0.012430356            2 
 4082000   0.60668456   -8.4303569    660.39367  0.013481824  0.012426129            4 
 4083000    0.6082047   -8.4078171    659.76623  0.013465716  0.012421902            2 
 4084000   0.59133991   -8.4217088    660.64089  0.013480266  0.012417678            6 
 4085000   0.60590134    -8.441733     659.8061  0.013459937  0.012413453            3 
 4086000     0.592832   -8.4247174    660.09333  0.013462501  0.012409232            2 
 4087000    0.5941691   -8.4384008    661.36365  0.013485108  0.012405017            3 
 4088000   0.57717136   -8.4244625    658.76665   0.01342887    0.0124008            1 
 4089000    0.5896901   -8.4263538    658.92173  0.013428746  0.012396579            2 
 4090000   0.59896646   -8.4377723    660.95246  0.013466839  0.012392356            2 
 4091000   0.59487047   -8.4221131    660.90629  0.013462607   0.01238814            1 
 4092000   0.60138517   -8.4357744      660.086  0.013442612  0.012383927            4 
 4093000   0.59257938   -8.4247462    660.76728  0.013453198  0.012379719            3 
 4094000   0.60955151   -8.4287785    659.51087  0.013424338  0.012375514            1 
 4095000    0.6108235    -8.420917     660.7387  0.013446046  0.012371312            2 
 4096000   0.58556548   -8.4312959    659.81921  0.013424056  0.012367106            3 
 4097000   0.58514694   -8.4175164    661.65853  0.013458192  0.012362901            2 
 4098000   0.59418122   -8.4312032    660.29711  0.013427223  0.012358696            1 
 4099000    0.5877471   -8.4253946    660.53627  0.013428809    0.0123545            3 
 4100000   0.59352318   -8.4152401    660.68216  0.013428499  0.012350299            3 
 4101000   0.59867904   -8.4456413    659.73042  0.013405885   0.01234611            3 
 4102000   0.60508412   -8.4362718    659.84407  0.013404926  0.012341917            3 
 4103000   0.59503694   -8.4316592    660.69353  0.013418911  0.012337719            3 
 4104000   0.59464752   -8.4393048    659.45652  0.013390524   0.01233352            3 
 4105000    0.5815437    -8.426308    660.18181  0.013401986  0.012329325            2 
 4106000   0.59147128   -8.4479854    659.28054   0.01338043  0.012325129            3 
 4107000   0.58248669   -8.4418819    660.85248  0.013409067  0.012320938            3 
 4108000   0.60229493   -8.4280492    660.35207  0.013395652  0.012316757            3 
 4109000   0.59926513    -8.438698    660.77211  0.013400911  0.012312572            2 
 4110000   0.59111247   -8.4308698    659.52754  0.013372416  0.012308385            1 
 4111000    0.5896857    -8.462525    660.00014  0.013378743  0.012304199            2 
 4112000   0.58571163   -8.4250629    659.47382  0.013364823  0.012300016            3 
 4113000   0.58670814   -8.4172964    661.96889  0.013412126  0.012295838            3 
 4114000   0.57801043   -8.4423653    660.58458  0.013380825   0.01229166            1 
 4115000   0.59598985   -8.4072178    660.73344  0.013380588  0.012287484            2 
 4116000   0.59029204   -8.4424932    660.14685  0.013365461  0.012283312            1 
 4117000   0.57625052   -8.4261682    659.86467  0.013356503  0.012279139            1 
 4118000   0.59521285   -8.4252914    659.85819  0.013353128  0.012274964            2 
 4119000   0.58772632   -8.4297832    658.44445  0.013321284  0.012270792            2 
 4120000   0.59694445   -8.4519584    659.67398   0.01334292  0.012266616            2 
 4121000   0.58895636   -8.4321993    659.05842  0.013327235  0.012262443            2 
 4122000   0.59555989   -8.4517621    659.21488  0.013327165   0.01225827            2 
 4123000   0.58877242   -8.4515247     659.6804  0.013333341  0.012254102            1 
 4124000   0.57584304   -8.4271563    659.03385  0.013317043  0.012249931            3 
 4125000   0.58701775   -8.4367477    659.91696  0.013331656  0.012245762            2 
 4126000   0.58631098   -8.4526898    660.63069   0.01334284  0.012241594            1 
 4127000   0.59951118   -8.4427456    659.67668  0.013320343  0.012237426            2 
 4128000   0.60276639   -8.4694971    659.48478  0.013313243  0.012233262            2 
 4129000   0.59149335   -8.4517334    659.67408  0.013313839  0.012229105            1 
 4130000   0.58335312   -8.4521928    660.55241  0.013328337  0.012224949            3 
 4131000   0.58864922    -8.443303    660.80308  0.013330168   0.01222079            1 
 4132000   0.59831038   -8.4420994    658.78606  0.013286263  0.012216635            2 
 4133000   0.59222658   -8.4469681    660.14392  0.013310427  0.012212479            2 
 4134000   0.57783051   -8.4493065    659.64795  0.013297209  0.012208326            2 
 4135000   0.59257652    -8.441635    659.26682  0.013286312  0.012204167            4 
 4136000   0.59131583   -8.4358393    660.05051   0.01329889  0.012200018            3 
 4137000    0.5788157   -8.4660208    659.14515  0.013277438   0.01219587            2 
 4138000   0.57848141   -8.4429285    660.37714   0.01329904  0.012191722            1 
 4139000    0.5784933    -8.418523    660.18956   0.01329205  0.012187574            2 
 4140000   0.59636346   -8.4522038    660.20653  0.013289181  0.012183427            1 
 4141000   0.58643032   -8.4489513    659.89588  0.013279721  0.012179285            1 
 4142000   0.58675263     -8.45497    659.72616    0.0132731  0.012175136            6 
 4143000   0.58750421   -8.4498864    659.80143   0.01327141  0.012170994            2 
 4144000   0.58939087   -8.4731756    658.80243  0.013248118  0.012166854            1 
 4145000   0.59450582    -8.454186    660.22697  0.013273562   0.01216271            2 
 4146000   0.59123092   -8.4447364    659.77587  0.013261293  0.012158572            3 
 4147000   0.58759423   -8.4567952    661.40041   0.01329074  0.012154439            2 
 4148000   0.59359813   -8.4489353    660.22375  0.013263897  0.012150309            3 
 4149000   0.58685596   -8.4515918    660.03836  0.013256977  0.012146182            2 
 4150000   0.58736934   -8.4368023    661.05284  0.013274153  0.012142054            3 
 4151000   0.57482035   -8.4359145    659.86809  0.013247171  0.012137926            2 
 4152000   0.58622039   -8.4664668    658.90287  0.013224608  0.012133798            2 
 4153000   0.58946588   -8.4371401    659.43825  0.013232167  0.012129676            3 
 4154000   0.58382919   -8.4409449    659.11443  0.013222485  0.012125561            2 
 4155000   0.59424315   -8.4428958    660.39598  0.013245006  0.012121441            3 
 4156000   0.58881699   -8.4351871    659.60043  0.013225867  0.012117325            5 
 4157000   0.59889638   -8.4548149     659.8728  0.013228145  0.012113208            2 
 4158000   0.59553222   -8.4475025    659.62206  0.013219939  0.012109089            1 
 4159000   0.58934441   -8.4494879    659.13376  0.013206976  0.012104976            2 
 4160000   0.58175343   -8.4607953    660.13213  0.013223801  0.012100865            2 
 4161000   0.59225711   -8.4435525    660.05566  0.013219091  0.012096749            2 
 4162000   0.57827066   -8.4486154    657.91532   0.01317306  0.012092635            4 
 4163000    0.5981722    -8.463034    658.99956    0.0131916  0.012088526            4 
 4164000   0.59449528   -8.4462213    658.92661  0.013186972  0.012084423            3 
 4165000    0.5644501   -8.4772566     658.3296  0.013171861  0.012080314            1 
 4166000    0.5821477   -8.4442231    658.56924  0.013173493  0.012076203            2 
 4167000   0.57339612   -8.4631044    659.66914  0.013192327  0.012072094            3 
 4168000    0.5874298   -8.4799758    658.67353  0.013169256  0.012067986            2 
 4169000   0.56976161   -8.4577975    658.91077   0.01317084  0.012063882            1 
 4170000   0.58869572   -8.4413202    659.05801  0.013170624  0.012059779            2 
 4171000   0.58139069   -8.4733995    659.76745   0.01318164  0.012055679            2 
 4172000   0.59109316   -8.4551726    659.59851  0.013175106  0.012051577            2 
 4173000   0.57790999   -8.4639328    660.02078  0.013180381  0.012047477            3 
 4174000   0.57996499   -8.4504457    659.77856  0.013172388  0.012043379            2 
 4175000   0.57077912   -8.4613082    659.35761  0.013160831  0.012039283            2 
 4176000    0.5896675   -8.4520355    660.28865  0.013176258  0.012035187            2 
 4177000   0.58233547   -8.4573561    657.52321  0.013117932  0.012031097            3 
 4178000   0.59448145   -8.4279788    659.23888  0.013149012   0.01202701            5 
 4179000   0.58940167   -8.4458557    659.14322  0.013143958  0.012022921            1 
 4180000   0.58540021   -8.4748025    659.64143  0.013150746  0.012018832            3 
 4181000   0.59305597   -8.4598818    660.06313  0.013156006   0.01201474            2 
 4182000   0.57857648   -8.4652701    660.39859  0.013159545  0.012010657            2 
 4183000   0.59112913   -8.4776626    659.08416  0.013130213  0.012006575            2 
 4184000   0.58346696   -8.4518595    658.56756  0.013116785  0.012002488            3 
 4185000   0.59301078   -8.4509901    658.78563  0.013117993  0.011998404            2 
 4186000    0.5638421   -8.4581323    659.06412  0.013120404   0.01199432            2 
 4187000   0.57781814   -8.4652068    659.07825  0.013117551   0.01199024            2 
 4188000   0.56589739   -8.4508084    659.73154  0.013127418   0.01198616            1 
 4189000   0.56914411   -8.4516679    659.70858  0.013123828   0.01198208            2 
 4190000   0.57367169   -8.4561003    659.02438  0.013107088  0.011978011            3 
 4191000   0.57587029   -8.4800795    659.55676  0.013114546  0.011973938            2 
 4192000    0.5816996   -8.4816312    658.91781  0.013098716  0.011969865            2 
 4193000   0.60095236   -8.4499908    658.07366  0.013078815  0.011965792            3 
 4194000    0.5783072   -8.4481898    659.40135  0.013102077  0.011961724            2 
 4195000   0.58478603   -8.4659302    659.34071   0.01309775  0.011957655            1 
 4196000   0.57704166   -8.4727261    658.82588  0.013084403  0.011953589            4 
 4197000   0.58936716   -8.4664204    659.39713  0.013092628  0.011949528            6 
 4198000   0.58820306   -8.4668627    658.72391  0.013076146  0.011945465            2 
 4199000   0.58322853   -8.4858116    658.65893  0.013071742  0.011941403            2 
 4200000   0.58167448   -8.4710218    657.87019   0.01305298  0.011937345            3 
 4201000   0.59031277   -8.4772094    659.01774  0.013072636  0.011933289            2 
 4202000    0.5693355   -8.4568525    658.67289  0.013062686  0.011929232            1 
 4203000   0.57923912    -8.439989    659.38135  0.013073625  0.011925183            6 
 4204000   0.56320887   -8.4504459    659.04594  0.013063866  0.011921126            2 
 4205000   0.56436237   -8.4765697    659.46556  0.013069076  0.011917064            3 
 4206000   0.59051118   -8.4597776    659.40161  0.013064701  0.011913009            4 
 4207000   0.58790145   -8.4689531    658.73065  0.013048305  0.011908957            4 
 4208000   0.56892356   -8.4710019    658.73244   0.01304524  0.011904904            4 
 4209000   0.58502608   -8.4847537    657.98295  0.013027302  0.011900855            6 
 4210000    0.5956057   -8.4636484    658.88615  0.013042085  0.011896808            2 
 4211000   0.57276361   -8.4700438    659.12812  0.013043777  0.011892763            4 
 4212000   0.58123301   -8.4659775    658.31104  0.013024514   0.01188872            5 
 4213000   0.57364205   -8.4675871     658.0132  0.013015531  0.011884678            3 
 4214000   0.58926189   -8.4831649    659.86785  0.013049119  0.011880636            1 
 4215000   0.57465301   -8.4624091    659.66966  0.013042105  0.011876598            2 
 4216000   0.56640796   -8.4738199    659.27524  0.013031215  0.011872565            2 
 4217000   0.58343446   -8.4740994    659.11637  0.013024985  0.011868533            1 
 4218000   0.56859177   -8.4736062    658.79009  0.013015451    0.0118645            1 
 4219000   0.58089893   -8.4551515    659.17963  0.013020061  0.011860465            2 
 4220000   0.58291998   -8.4646026    658.80929  0.013009662  0.011856438            3 
 4221000   0.57616373   -8.4602307    659.00115  0.013010368  0.011852403            4 
 4222000    0.5657736    -8.468827    658.15996  0.012990683  0.011848372            7 
 4223000   0.56891234   -8.4548648    659.44532  0.013012971  0.011844345            2 
 4224000   0.57182458   -8.4756219    658.87358  0.012998611  0.011840319            3 
 4225000   0.55758688   -8.4669589    659.55335  0.013008942  0.011836296            1 
 4226000   0.57133412   -8.4590533    658.35107  0.012982156  0.011832275            2 
 4227000   0.55106192   -8.4596608    657.88102  0.012969818  0.011828258            6 
 4228000   0.58388392   -8.4624009    659.58703  0.013000375  0.011824241            4 
 4229000   0.57932596   -8.4507555    659.82763  0.013002042  0.011820224            3 
 4230000   0.56735211   -8.4747894    658.22274  0.012967351   0.01181621            2 
 4231000   0.57104752    -8.468099    657.92377  0.012958398  0.011812192            4 
 4232000   0.56700705   -8.4736489    658.61606  0.012968968  0.011808178            1 
 4233000   0.57584538   -8.4864441    659.30833  0.012979532  0.011804167            1 
 4234000   0.57113267   -8.4813054    658.06865  0.012952068  0.011800158            6 
 4235000   0.57604813   -8.4862852     658.0179  0.012948011  0.011796145            7 
 4236000   0.56067783   -8.4740469    657.33015  0.012931424  0.011792134            2 
 4237000   0.58314014   -8.4810723    658.26164  0.012946693  0.011788129            3 
 4238000   0.56864534   -8.4878054    658.52807  0.012948877  0.011784125            3 
 4239000    0.5762935   -8.4655684    659.17596  0.012958559  0.011780126            3 
 4240000   0.56760215   -8.4641203    658.38215  0.012939901  0.011776129            2 
 4241000   0.56260856   -8.4801201     659.1594  0.012952122  0.011772131            1 
 4242000   0.57245089   -8.4781209    658.37304  0.012933621  0.011768138            2 
 4243000   0.56624212   -8.4628226     659.0816  0.012944489  0.011764147            3 
 4244000   0.55821538   -8.4695108    658.78586  0.012935632  0.011760154            5 
 4245000   0.56786009   -8.4860114    658.42478  0.012925496  0.011756166            1 
 4246000   0.57574603   -8.4728934    657.70944  0.012908413  0.011752176            4 
 4247000   0.58293661   -8.4711155    658.39533  0.012918832  0.011748182            2 
 4248000   0.57551236   -8.4825914    658.54085  0.012918645  0.011744194            5 
 4249000   0.57284525   -8.4714922    659.09452  0.012926464  0.011740205            2 
 4250000   0.56504101   -8.4738658    658.36568  0.012909131  0.011736221            2 
 4251000   0.56704894   -8.4849857    658.89528  0.012916476  0.011732237            2 
 4252000   0.56934063    -8.469685    658.69467  0.012909507  0.011728262            6 
 4253000   0.57801189   -8.4874764    658.39297   0.01290056  0.011724286            3 
 4254000   0.56638903   -8.4959696    659.14164  0.012912193   0.01172031            3 
 4255000   0.56051196   -8.4796636    658.38295    0.0128943  0.011716333            4 
 4256000   0.57000448   -8.4705579    658.50405  0.012893641  0.011712357            2 
 4257000   0.57013565   -8.4738813    658.82842  0.012896962  0.011708388            4 
 4258000   0.57483959   -8.4700362    658.22936  0.012882209  0.011704416            2 
 4259000   0.58064206   -8.4827209    660.16453  0.012917049  0.011700444            4 
 4260000   0.57778629   -8.4910359    657.69706  0.012865748  0.011696475            4 
 4261000   0.57613231   -8.4705032     658.1602  0.012871787  0.011692506            2 
 4262000   0.56972408   -8.4742851    658.86282  0.012882505  0.011688538            1 
 4263000   0.55979996   -8.4710497    658.12335  0.012865027   0.01168457            3 
 4264000   0.57510564   -8.4847083    658.03103  0.012860206  0.011680607            2 
 4265000   0.57710982   -8.4854591    658.08112   0.01285817  0.011676652            3 
 4266000   0.57908217   -8.4681257    658.20084  0.012857494  0.011672702            5 
 4267000    0.5796701    -8.495694    658.52301  0.012860773  0.011668749            3 
 4268000   0.57016624   -8.4694415     658.2216  0.012851874  0.011664789            4 
 4269000   0.57937762   -8.4728282    658.04522  0.012845421  0.011660834            2 
 4270000   0.57179143   -8.4861785    657.76572  0.012836958  0.011656875            3 
 4271000    0.5767563   -8.5026335    658.48711  0.012848028  0.011652923            6 
 4272000   0.56274675   -8.4991479    657.22336  0.012820368  0.011648971            2 
 4273000   0.56798413   -8.4803981    658.74167  0.012846978  0.011645025            2 
 4274000   0.56117753   -8.4833385     658.6622  0.012842423   0.01164108            4 
 4275000   0.56206442   -8.4705458    658.11401  0.012828733  0.011637141            5 
 4276000   0.56530211   -8.4787612    658.46385  0.012832551  0.011633195            3 
 4277000   0.56414476   -8.4877595    658.40531   0.01282841  0.011629253            2 
 4278000   0.56588052   -8.4881955    658.65197  0.012830216  0.011625316            2 
 4279000   0.57044258   -8.4769259    659.05702  0.012835106  0.011621381            2 
 4280000   0.57216712   -8.4883698    657.87502  0.012809093  0.011617446            3 
 4281000   0.56666715   -8.4887672    657.81766  0.012804984   0.01161351            3 
 4282000    0.5711388   -8.4687957    659.94569  0.012843408  0.011609577            2 
 4283000   0.57359186   -8.4941707    658.05733  0.012803668  0.011605644            1 
 4284000    0.5579772   -8.4728008    656.98789  0.012779877  0.011601714            2 
 4285000   0.57464586   -8.4971792    657.29799  0.012782925  0.011597783            2 
 4286000    0.5665265   -8.4676278    659.27976  0.012818474  0.011593852            2 
 4287000   0.57327022   -8.4950599    657.80879   0.01278689  0.011589925            3 
 4288000   0.56313588   -8.4730281    657.30405  0.012774099  0.011586001            3 
 4289000   0.56850037   -8.4840694    657.81124  0.012780975  0.011582076            2 
 4290000   0.56908368   -8.5047708    658.46378  0.012790672  0.011578149            2 
 4291000   0.55326268   -8.4969453    657.68411  0.012772549  0.011574221            2 
 4292000   0.55539917   -8.4791726    658.55623  0.012786506  0.011570297            2 
 4293000   0.56718347   -8.4906268    657.73642  0.012767614  0.011566377            3 
 4294000   0.56911137   -8.4919944     658.4178  0.012777864  0.011562461            2 
 4295000   0.55611903    -8.482074    657.62355  0.012759479  0.011558544            1 
 4296000   0.55586126   -8.4864535    658.33868  0.012770381  0.011554629            2 
 4297000   0.55694744   -8.4743658    658.68409  0.012774108  0.011550715            2 
 4298000   0.57967361   -8.4827865    657.66162  0.012751311  0.011546801            2 
 4299000   0.55340049   -8.4826093    657.14385  0.012738308  0.011542888            1 
 4300000   0.57627088   -8.4720824    657.56602  0.012743528  0.011538974            2 
 4301000   0.57860672   -8.4853456    657.96977  0.012748387  0.011535062            1 
 4302000   0.55509168   -8.4797519    657.89715  0.012744017  0.011531149            3 
 4303000   0.55981894   -8.5024688    658.02637  0.012743558  0.011527239            2 
 4304000   0.56729851   -8.4861558    659.13409  0.012762045  0.011523332            4 
 4305000   0.56085353   -8.4828758    658.68951  0.012750474  0.011519434            3 
 4306000   0.56175526   -8.5056562    657.86351  0.012731528  0.011515535            2 
 4307000   0.57390093   -8.4828581    657.30795  0.012717823  0.011511638            2 
 4308000   0.55865584   -8.4940535    657.44954  0.012717609  0.011507741            2 
 4309000   0.55795871   -8.4857603    659.41169  0.012752605  0.011503844            3 
 4310000    0.5647842   -8.4870053    658.46158  0.012731276  0.011499957            3 
 4311000   0.56126689   -8.4665475     659.9322   0.01275675  0.011496066            2 
 4312000   0.55201376   -8.5011689    658.88144  0.012733485  0.011492175            3 
 4313000   0.56917901   -8.4828505    658.36517  0.012720557  0.011488288            2 
 4314000   0.56690587   -8.4996083    657.61139  0.012703048  0.011484397            4 
 4315000   0.58021172   -8.4697596    658.07827  0.012709121  0.011480514            2 
 4316000   0.55244042    -8.506873    658.12373  0.012707054  0.011476632            4 
 4317000   0.56411337   -8.4946459    659.20072    0.0127249  0.011472749            2 
 4318000   0.56092872   -8.5038546     659.5098  0.012727918  0.011468869            1 
 4319000   0.55846331    -8.478472    658.31816  0.012701979  0.011464989            3 
 4320000   0.55498261   -8.4831235    657.39161  0.012681165  0.011461109            2 
 4321000   0.56425039   -8.5035454    657.82674  0.012686622  0.011457233            2 
 4322000   0.56329531   -8.4849911    658.30475  0.012692904  0.011453361            2 
 4323000   0.55535334   -8.4989832    658.53723  0.012694449  0.011449486            2 
 4324000    0.5670842   -8.5072972    657.57416  0.012672952  0.011445616            3 
 4325000   0.56585376   -8.4903067    659.29295   0.01270314  0.011441743            1 
 4326000   0.55905668    -8.510963    658.20868  0.012679317  0.011437873            1 
 4327000   0.55774761   -8.5057052    657.58426  0.012664361  0.011434005            4 
 4328000    0.5518872   -8.4815236    657.46724  0.012659181  0.011430132            2 
 4329000   0.55049941   -8.4855335    657.38006  0.012654579  0.011426263            2 
 4330000   0.55074045   -8.4907125    657.29539  0.012650027  0.011422403            2 
 4331000    0.5491905   -8.4873493    657.89797    0.0126587  0.011418542            2 
 4332000   0.56896038   -8.5047429    658.07614  0.012659206  0.011414678            3 
 4333000    0.5600971   -8.5081587    658.56663  0.012665717  0.011410819            3 
 4334000    0.5517321   -8.5113454    658.32183  0.012658088  0.011406963            3 
 4335000   0.55823805   -8.5086125    657.19581  0.012633522  0.011403111            2 
 4336000    0.5655169   -8.5173074    657.88894  0.012643929  0.011399252            2 
 4337000   0.55181463   -8.5027106    658.35368  0.012649944  0.011395394            3 
 4338000   0.55494858    -8.518097    657.59236  0.012632403  0.011391536            1 
 4339000   0.54338364    -8.531594    659.04003  0.012657295  0.011387681            1 
 4340000   0.54852594   -8.5299979    657.62106  0.012627133  0.011383822            4 
 4341000   0.56624237     -8.51024     658.6856  0.012644659  0.011379967            2 
 4342000   0.54651984   -8.4928244    657.84039  0.012625526  0.011376116            3 
 4343000   0.55481694   -8.4994656    656.69266  0.012600596  0.011372263            1 
 4344000    0.5501525   -8.5245364    658.20151   0.01262664  0.011368415            1 
 4345000   0.56132751   -8.5254835    658.43141  0.012628144  0.011364566            2 
 4346000   0.54854817   -8.5303271    657.48526  0.012607096  0.011360717            3 
 4347000   0.56139576   -8.4974466    658.80985  0.012629588  0.011356875            2 
 4348000   0.55262896   -8.4911269    657.34803  0.012598667  0.011353032            1 
 4349000   0.55131123   -8.5119141    657.77314  0.012603915  0.011349189            2 
 4350000   0.55810225   -8.5130922    657.88629  0.012603186  0.011345347            3 
 4351000   0.56615834   -8.4980535    659.23215  0.012626066  0.011341512            9 
 4352000   0.54457085   -8.5324739    657.27527  0.012585694  0.011337671            3 
 4353000   0.55007139   -8.5163763    657.45989  0.012586337  0.011333837            2 
 4354000   0.56309959   -8.5096947    658.97457  0.012612436  0.011330008            3 
 4355000   0.55438615   -8.5306191    657.33558  0.012578178  0.011326179            4 
 4356000   0.55023239   -8.5083478    656.74488   0.01256399  0.011322351            2 
 4357000   0.54989862   -8.5150862    656.74179  0.012561047  0.011318523            2 
 4358000    0.5565586   -8.5195361    657.63913  0.012575324  0.011314699            3 
 4359000   0.54692959   -8.5176842    657.22576  0.012564536  0.011310875            1 
 4360000   0.55152345    -8.506645    657.46135  0.012566157  0.011307047            2 
 4361000    0.5490377   -8.5116644    657.42857  0.012562649  0.011303226            1 
 4362000   0.56445859   -8.4997592    658.50779  0.012580387  0.011299413            3 
 4363000    0.5580716   -8.5070033    657.45312   0.01255736  0.011295593            3 
 4364000   0.55408096   -8.5026319    656.74518  0.012540964  0.011291775            1 
 4365000   0.56053063   -8.5161474    657.78579  0.012557957  0.011287956            1 
 4366000   0.54723293   -8.5232789    658.57598  0.012570163  0.011284141            2 
 4367000   0.55972059   -8.5308662    657.00161  0.012537242  0.011280329            2 
 4368000   0.55558363   -8.5096375     657.6546  0.012546829  0.011276518            2 
 4369000   0.55810357   -8.4975473    657.56801  0.012542306  0.011272706            2 
 4370000   0.55318991   -8.5017193    656.37144  0.012516618  0.011268896            1 
 4371000   0.55481029   -8.5202061     657.3959  0.012533286  0.011265088            4 
 4372000   0.55808282   -8.5217492    657.71194  0.012536443  0.011261283            3 
 4373000   0.55423217   -8.5192427    656.41351  0.012508833  0.011257477            6 
 4374000   0.55592067   -8.5173943    657.16377  0.012520267  0.011253673            4 
 4375000   0.55577048   -8.5297882    657.53057  0.012524392  0.011249871            3 
 4376000   0.55328051   -8.5245959    657.55666  0.012522027  0.011246073            3 
 4377000   0.55079685   -8.5239745    657.53701  0.012518792  0.011242276            2 
 4378000   0.55211668   -8.5114266    656.89476  0.012503707  0.011238484            2 
 4379000   0.56041247   -8.5147053    656.51145  0.012493557   0.01123469            2 
 4380000   0.54768915   -8.5146853    656.95251  0.012499096  0.011230904            2 
 4381000   0.55588306   -8.5285387    656.78098  0.012492981  0.011227116            4 
 4382000   0.54593429   -8.5145975     657.3108  0.012500205  0.011223333            4 
 4383000   0.55192574   -8.5074765    657.26721  0.012496525  0.011219549            3 
 4384000   0.56181976   -8.5227191    658.74759  0.012521814  0.011215765            2 
 4385000   0.54335469   -8.5353678    658.30148   0.01251048  0.011211982            9 
 4386000   0.55146985   -8.5165588    657.00102  0.012482919  0.011208201            1 
 4387000   0.55399054   -8.5128751    657.33349   0.01248639  0.011204416            3 
 4388000   0.55934872   -8.5440508    659.77043  0.012529824  0.011200637            8 
 4389000   0.54944686   -8.5057501    657.53336  0.012484495  0.011196864            2 
 4390000   0.54990841   -8.4979716    656.86061   0.01246888  0.011193089            4 
 4391000   0.54528094   -8.5026207    658.99219  0.012506494  0.011189317            2 
 4392000   0.54945306   -8.5134285    657.37905  0.012473039  0.011185544            5 
 4393000   0.53773153   -8.5206742    656.09231  0.012445791  0.011181772            3 
 4394000   0.54510688   -8.5199926    657.44799  0.012468669     0.011178            1 
 4395000   0.54988254   -8.5253897    656.94837  0.012456359  0.011174235            3 
 4396000   0.56238055   -8.5137369    657.72212  0.012468193  0.011170468            2 
 4397000   0.54291481    -8.509266    656.72042  0.012446373  0.011166708            3 
 4398000   0.54497877   -8.5288567    658.45612  0.012476431  0.011162946            2 
 4399000   0.54930325   -8.5161872    657.20684  0.012449929  0.011159182            1 
 4400000   0.53787745   -8.5132542    657.32202  0.012449281  0.011155429            2 
 4401000   0.54696188   -8.5266079    657.16231  0.012443428  0.011151671            2 
 4402000   0.53897368   -8.5381524    657.13794   0.01244014  0.011147914            4 
 4403000    0.5312165   -8.5233573    656.70193  0.012429062  0.011144154            4 
 4404000    0.5410201   -8.5182862     656.9935  0.012431757  0.011140402            5 
 4405000   0.55760728   -8.5067356    657.81467   0.01244447  0.011136647            2 
 4406000   0.55283332   -8.5173142     657.6784  0.012439068  0.011132897            3 
 4407000    0.5519998   -8.5145711    657.74672  0.012437537   0.01112915            1 
 4408000    0.5516299   -8.5122461    656.59675  0.012412975  0.011125404            4 
 4409000    0.5616264    -8.520211    657.04907  0.012418709  0.011121658            1 
 4410000   0.53713449   -8.5218299    657.23798  0.012419463  0.011117912            2 
 4411000    0.5366418    -8.518974    657.83775  0.012427978  0.011114171            1 
 4412000   0.53399939   -8.5283017    656.11119   0.01239255  0.011110432            2 
 4413000    0.5536283   -8.5312446     658.0186  0.012425761  0.011106694            3 
 4414000   0.55787871   -8.5212709    657.73512  0.012417594  0.011102954            3 
 4415000   0.54078366   -8.5225123    657.86755  0.012417281  0.011099217            7 
 4416000   0.54914266   -8.5049089    657.25891  0.012402984  0.011095479            2 
 4417000   0.55174659   -8.5161538    657.92418  0.012412727  0.011091744            3 
 4418000   0.54875147   -8.5262311    657.41502  0.012400313   0.01108801            4 
 4419000   0.54905602   -8.5057826    656.84675  0.012386791   0.01108428            3 
 4420000     0.549048   -8.5211189    656.73072  0.012381801  0.011080546            1 
 4421000   0.55188264   -8.5228514    657.42496  0.012392086  0.011076816            3 
 4422000   0.53035301   -8.5210547     656.9635  0.012380588  0.011073085            3 
 4423000   0.53714017   -8.5360031    657.80552  0.012393653  0.011069352            2 
 4424000    0.5392604    -8.525823    657.62814   0.01238751  0.011065624            5 
 4425000    0.5372563   -8.5443612    657.90262   0.01238988    0.0110619            4 
 4426000   0.54752789   -8.5407468    656.71514  0.012364722  0.011058174            2 
 4427000   0.54163595   -8.5108028     656.4823  0.012357547  0.011054451            2 
 4428000    0.5432823   -8.5239417    656.33206  0.012351928   0.01105073            4 
 4429000   0.54313486   -8.5541675    657.53547  0.012371782  0.011047012            6 
 4430000   0.53136566   -8.5131544    658.07215  0.012379085  0.011043292            4 
 4431000   0.53996111   -8.5214722    657.36095  0.012362916  0.011039577            4 
 4432000   0.53280931   -8.5272638    657.19775  0.012357057  0.011035863            3 
 4433000   0.54117133   -8.5360213    657.22431  0.012354769  0.011032148            1 
 4434000   0.54313181   -8.5387199     656.6778  0.012341712  0.011028436            2 
 4435000   0.52952739   -8.5397798    657.78813  0.012359792  0.011024726            3 
 4436000    0.5405293   -8.5283698    657.20385   0.01234603  0.011021018            3 
 4437000   0.54263072   -8.5304187    657.44924  0.012347856  0.011017309            2 
 4438000   0.54563498   -8.5270278    657.40006   0.01234415  0.011013606            3 
 4439000   0.54029149     -8.51986    657.15162  0.012336705  0.011009901            4 
 4440000   0.53560303   -8.5341402    658.25893   0.01235471  0.011006198            2 
 4441000    0.5453722   -8.5418627    656.91128   0.01232664  0.011002497            2 
 4442000   0.54228254    -8.524298    656.82097   0.01232217  0.010998792            4 
 4443000   0.52667836   -8.5314139    656.47555  0.012312918  0.010995091            4 
 4444000   0.55259657   -8.5490023     657.2328  0.012324347  0.010991397            2 
 4445000   0.54057351   -8.5488973     656.7481  0.012312488    0.0109877            5 
 4446000   0.52948716   -8.5368404     657.5057  0.012323919  0.010984003            3 
 4447000   0.52142999   -8.5310426    656.78473  0.012307637  0.010980306            5 
 4448000   0.54491057   -8.5361675    656.72291  0.012303712  0.010976611            7 
 4449000   0.54570298   -8.5410376    657.59109  0.012317208  0.010972915            3 
 4450000   0.53427598   -8.5511231    655.99757  0.012284599   0.01096922            3 
 4451000   0.55281446   -8.5387647    656.63965   0.01229386  0.010965529            2 
 4452000   0.53850679   -8.5210039    656.54729   0.01228937  0.010961841            5 
 4453000   0.53387687   -8.5543807    656.81886  0.012291692  0.010958152            4 
 4454000   0.54518805   -8.5353385    657.43906  0.012300536  0.010954467            4 
 4455000   0.54083287   -8.5497228     656.4845   0.01227992  0.010950782            5 
 4456000   0.53363456    -8.551254    657.22878  0.012291083  0.010947092            4 
 4457000   0.55331552   -8.5316483    656.87709  0.012281749  0.010943408            3 
 4458000   0.52592691   -8.5321307    656.23738  0.012267036  0.010939725            1 
 4459000   0.53964885    -8.537623    656.98129  0.012278188  0.010936043            3 
 4460000   0.54382356   -8.5378888    657.66842  0.012288274  0.010932362            3 
 4461000   0.54054692   -8.5790071    657.36023  0.012279762  0.010928685            2 
 4462000   0.54304586   -8.5267561    657.07941  0.012271765  0.010925007            3 
 4463000   0.52701678   -8.5535912    656.63496  0.012260717  0.010921332            5 
 4464000   0.53506765   -8.5389256    656.87699  0.012262489  0.010917657            2 
 4465000   0.54355643   -8.5440368    656.79663  0.012258243  0.010913984            2 
 4466000   0.54644265   -8.5257001    656.90707  0.012257558  0.010910313            7 
 4467000   0.53813767   -8.5439354    655.89507  0.012235935  0.010906646            5 
 4468000   0.54163378   -8.5635251     656.7634  0.012249392  0.010902979            4 
 4469000   0.52963336   -8.5526699    657.27005  0.012256099  0.010899312            2 
 4470000   0.55192722   -8.5433966    656.42534  0.012237609  0.010895645            1 
 4471000   0.53323578   -8.5471502    655.07574  0.012209717  0.010891979            3 
 4472000   0.52916185   -8.5476497    656.46309  0.012232839  0.010888319            2 
 4473000   0.52695924   -8.5363501    657.34913  0.012246612   0.01088466            6 
 4474000   0.53600607   -8.5522888    657.15976  0.012240347     0.010881            6 
 4475000   0.54150828   -8.5425552    656.64566  0.012228038  0.010877344            7 
 4476000   0.51967121   -8.5468835    657.25274  0.012236609   0.01087369            5 
 4477000   0.53184746   -8.5567289     657.1121  0.012231258  0.010870031            5 
 4478000   0.54238588   -8.5560035     656.7622  0.012222015  0.010866375            5 
 4479000   0.55166143   -8.5494678    656.26502  0.012210036  0.010862725            3 
 4480000    0.5379981     -8.56302    656.94121  0.012219889  0.010859072            3 
 4481000   0.54255455   -8.5302551    656.97483  0.012217787  0.010855418            3 
 4482000   0.53142488    -8.563417    656.67006  0.012209394  0.010851767            3 
 4483000   0.53691852   -8.5573313    656.85206  0.012210054  0.010848121            4 
 4484000   0.52127124   -8.5346759    655.86997  0.012189079  0.010844475            5 
 4485000   0.54625972   -8.5464269    655.94174  0.012187695  0.010840829            8 
 4486000   0.53360021   -8.5418352    656.46644  0.012194725  0.010837188            6 
 4487000   0.53107161   -8.5674915    656.39225  0.012190629   0.01083355            4 
 4488000   0.52439763   -8.5421207    656.64646  0.012192633  0.010829907            8 
 4489000   0.53444089   -8.5583117    655.02152  0.012159752  0.010826265            6 
 4490000   0.53697724   -8.5447576    656.22695  0.012179416  0.010822624            7 
 4491000   0.53119803   -8.5475313    655.81431  0.012169048  0.010818986            4 
 4492000   0.52836752   -8.5409789    657.01099  0.012188539  0.010815347            5 
 4493000   0.52451101   -8.5449758    655.69522  0.012161422  0.010811713            4 
 4494000    0.5295484   -8.5465257    655.96086  0.012163642  0.010808083            4 
 4495000   0.53445536   -8.5518182    656.52398  0.012171375  0.010804451            6 
 4496000   0.52633163   -8.5607414    655.78155  0.012154907  0.010800823            4 
 4497000   0.54255017   -8.5303756    657.26172  0.012179633  0.010797197            3 
 4498000   0.52478486   -8.5466359    656.49655  0.012162749  0.010793571            4 
 4499000   0.52713782   -8.5521605    656.63075  0.012162532  0.010789948            7 
 4500000   0.52465881   -8.5342344    656.31012  0.012153891  0.010786325            7 
 4501000   0.53449032   -8.5463632    656.44364  0.012153663  0.010782703            3 
 4502000   0.53581319   -8.5570531    655.62319  0.012135777  0.010779086            3 
 4503000   0.53421762   -8.5446504    655.71196  0.012134724  0.010775465            5 
 4504000   0.54649502   -8.5586565    656.60386  0.012148532  0.010771848            3 
 4505000   0.52751352   -8.5458565    656.03507  0.012135314  0.010768235            8 
 4506000   0.52102224   -8.5501611    655.86856  0.012129541  0.010764622            5 
 4507000   0.52414124   -8.5643214    656.96521  0.012147127  0.010761007            3 
 4508000   0.52194808   -8.5470663    656.13257   0.01212904  0.010757393            5 
 4509000   0.52694926   -8.5455338    656.78676  0.012138441  0.010753782            3 
 4510000   0.53130106   -8.5375411    656.98039  0.012139327  0.010750174            6 
 4511000   0.53586176   -8.5494198    656.16976  0.012121661  0.010746565            4 
 4512000   0.53821781   -8.5515248    657.21896  0.012138352  0.010742962            7 
 4513000   0.53627423   -8.5429201    656.89778  0.012129732  0.010739362            2 
 4514000    0.5376387   -8.5574358    656.33273  0.012116614  0.010735759            4 
 4515000   0.52024802   -8.5675057    656.46344  0.012116342   0.01073216            4 
 4516000   0.52654647    -8.552842    655.98349  0.012104803   0.01072856            5 
 4517000   0.51970567   -8.5515476    655.99579   0.01210235  0.010724962            3 
 4518000   0.52235263   -8.5525828    657.14856  0.012120934  0.010721363            3 
 4519000   0.53655392   -8.5831849    655.66677  0.012090927  0.010717766            4 
 4520000   0.51617332   -8.5580533    655.73769  0.012089559  0.010714168            3 
 4521000   0.52439348   -8.5588808    655.87176  0.012089356  0.010710575            6 
 4522000   0.54052233   -8.5707409    656.44601  0.012097265  0.010706979            3 
 4523000    0.5272249   -8.5468653    656.23084  0.012090626  0.010703389            3 
 4524000    0.5306612   -8.5625806    656.70249  0.012096642  0.010699797            2 
 4525000   0.52615338   -8.5559313    656.25934  0.012085807  0.010696211            1 
 4526000   0.52218402   -8.5621896    656.63508  0.012090055  0.010692626            8 
 4527000   0.52816038   -8.5658364    655.93669  0.012074529  0.010689043            6 
 4528000   0.53402562   -8.5598202    656.60619  0.012084183  0.010685458            2 
 4529000   0.52593023    -8.561715    656.72399  0.012083683  0.010681874            3 
 4530000   0.53029328    -8.551293    656.47298  0.012076398  0.010678293            3 
 4531000   0.53031922   -8.5736216    655.17557  0.012049871  0.010674712            6 
 4532000    0.5459289   -8.5768823    655.05968  0.012045081  0.010671131            5 
 4533000   0.51954865   -8.5713967    655.95525  0.012058888  0.010667553            5 
 4534000   0.52187155   -8.5620143    657.20843  0.012079261  0.010663976            3 
 4535000    0.5270345   -8.5622633    656.54409   0.01206439  0.010660398            4 
 4536000   0.53211753    -8.559081    655.92496  0.012050356  0.010656825            4 
 4537000   0.52415467   -8.5613812    656.16945   0.01205219  0.010653254            3 
 4538000   0.51868226   -8.5659255    655.26623  0.012032948  0.010649686            3 
 4539000   0.53454615   -8.5643836    655.95207  0.012042889  0.010646122            5 
 4540000   0.52631817   -8.5578899     656.4876  0.012050066  0.010642556            4 
 4541000   0.52945166   -8.5749747    655.40236  0.012027497  0.010638995            1 
 4542000   0.52421054    -8.554357    655.44071  0.012025552  0.010635432            4 
 4543000   0.53728604   -8.5673855    656.22775  0.012037342  0.010631871            6 
 4544000   0.52319653    -8.574213     656.5875  0.012041291  0.010628309            4 
 4545000   0.52338533   -8.5539836    656.14605  0.012030547  0.010624749            2 
 4546000   0.51401474   -8.5531264    655.77337  0.012021069  0.010621189            4 
 4547000   0.52955795   -8.5574938    655.73093  0.012017648   0.01061763            4 
 4548000   0.53125338   -8.5591326     655.6281  0.012013121  0.010614074            2 
 4549000   0.52676338    -8.556451    656.67808  0.012029715   0.01061052            2 
 4550000   0.53342659   -8.5625934    656.60172  0.012025672  0.010606966            1 
 4551000    0.5229636   -8.5482345    655.64423  0.012005498  0.010603417            4 
 4552000   0.52873468    -8.574152    657.21094  0.012031542  0.010599865            5 
 4553000    0.5144691   -8.5819776    655.83578   0.01200373  0.010596316            5 
 4554000   0.51350552   -8.5575099     655.4619  0.011994252  0.010592772            3 
 4555000   0.52281794   -8.5865257    655.66792  0.011995388  0.010589228            5 
 4556000   0.52316978   -8.5716979    657.17143  0.012020256  0.010585685            4 
 4557000    0.5134869   -8.5553377    655.87704  0.011993948  0.010582145            5 
 4558000   0.52578534   -8.5748494     656.7059   0.01200647  0.010578607            2 
 4559000   0.52379499   -8.5578904    656.90321  0.012007443  0.010575069            4 
 4560000   0.51609277   -8.5651346    656.23848  0.011992662  0.010571529            3 
 4561000   0.53021104   -8.5824332    655.96724  0.011985077  0.010567989            7 
 4562000   0.51630767   -8.5888395    656.68785  0.011995613   0.01056445            4 
 4563000   0.50812712    -8.562555    655.41822  0.011969797  0.010560914            4 
 4564000   0.51712887   -8.5522752    655.30214  0.011965055  0.010557381            5 
 4565000   0.52115379   -8.5800978    656.66495  0.011987312   0.01055385            2 
 4566000   0.52455053   -8.5683984    656.64951  0.011984405  0.010550321            5 
 4567000   0.52050871   -8.5854712    655.61651  0.011962932  0.010546794            4 
 4568000   0.52727284    -8.574009    655.80038  0.011963667  0.010543268            3 
 4569000   0.52729383    -8.574004    654.40931  0.011935677  0.010539743            4 
 4570000   0.52708113   -8.5579075    655.89018  0.011960069  0.010536218            3 
 4571000   0.52711384    -8.570983    656.93951  0.011976583  0.010532697            4 
 4572000   0.52096432   -8.5641945    656.06559  0.011958034  0.010529176            2 
 4573000   0.52389563   -8.5654076     656.5958  0.011965081  0.010525657            4 
 4574000   0.51218607   -8.5524393    656.53254  0.011961313  0.010522141            1 
 4575000   0.52730587   -8.5520657    655.54312  0.011940676  0.010518627            4 
 4576000   0.53058315   -8.5581271    656.63778  0.011958002  0.010515112            2 
 4577000   0.52219849   -8.5643698    655.08506  0.011927119  0.010511601            4 
 4578000   0.52062392   -8.5857044    656.21556  0.011945092  0.010508087            3 
 4579000   0.52317826   -8.5671132    655.61605  0.011931573  0.010504578            4 
 4580000   0.52748849    -8.568958    656.27421  0.011940943   0.01050107            3 
 4581000   0.52082824   -8.5732681    654.80977  0.011911696  0.010497566            5 
 4582000   0.51749717   -8.5812669    656.12877  0.011933085  0.010494059            1 
 4583000   0.52949784   -8.5753519    656.86195  0.011943813  0.010490556            3 
 4584000   0.52119058   -8.5723342    656.09089   0.01192719  0.010487054            4 
 4585000    0.5210336   -8.5714999    656.06439  0.011924107  0.010483553            4 
 4586000   0.52566111    -8.569786     656.0892  0.011921958  0.010480055            5 
 4587000   0.51283406   -8.5776531    655.02201  0.011899971  0.010476552            6 
 4588000   0.52200624   -8.5581226    656.12667  0.011917442  0.010473053            4 
 4589000   0.52096504   -8.5695933    655.36091  0.011900939  0.010469557            3 
 4590000   0.51850854    -8.575652    655.23654  0.011896088  0.010466063            2 
 4591000   0.52350422     -8.56224    655.52395  0.011898714  0.010462569            2 
 4592000   0.51147279    -8.565631    656.15462  0.011907568  0.010459075            3 
 4593000   0.52179328   -8.5851962    655.44464  0.011892094  0.010455583            6 
 4594000   0.51844573   -8.5715384    655.80847  0.011896105   0.01045209            2 
 4595000   0.53046588   -8.5697745    655.47869  0.011887535    0.0104486            6 
 4596000   0.50647111   -8.5827728    655.71716  0.011889273  0.010445112            4 
 4597000   0.52867212   -8.5638892    655.40967  0.011881112  0.010441627            4 
 4598000   0.52253117   -8.5619083    655.32397  0.011876975  0.010438142            1 
 4599000    0.5097997   -8.5847386    654.79941  0.011864888  0.010434661            2 
 4600000   0.52313907   -8.5830647    656.07995  0.011885506  0.010431177            1 
 4601000   0.51557594   -8.5844572     655.1381  0.011865864  0.010427697            5 
 4602000   0.51961746   -8.5695593     656.5233  0.011888369   0.01042422            2 
 4603000   0.50868438   -8.5892271    655.85752  0.011873733  0.010420742            4 
 4604000   0.52023252   -8.5847348    655.66671    0.0118677  0.010417262            6 
 4605000    0.5156898   -8.5595945     655.5369  0.011862774  0.010413789            5 
 4606000   0.52378021   -8.5847305    655.30902  0.011856076  0.010410318            3 
 4607000   0.51104748   -8.5797371     654.7341  0.011843103  0.010406844            5 
 4608000   0.51481437   -8.5786161    655.56124  0.011855491  0.010403371            2 
 4609000     0.521305   -8.5916616    655.24201  0.011847147    0.0103999            4 
 4610000   0.50724484   -8.5919215     656.7182  0.011871262  0.010396434            2 
 4611000   0.51895816   -8.5698081    655.08138  0.011839105  0.010392967            4 
 4612000   0.51106069   -8.5835532    654.78154  0.011831121  0.010389504            1 
 4613000   0.52425662   -8.5796896    655.33727  0.011838595   0.01038604            3 
 4614000    0.5149171    -8.579364    654.95347  0.011829097  0.010382581            2 
 4615000   0.49757797   -8.5765415    654.70299  0.011822011  0.010379119            2 
 4616000   0.51924138   -8.5918808    655.31148  0.011830436  0.010375663            2 
 4617000   0.50545305   -8.5848291    655.69852  0.011834859  0.010372206            1 
 4618000   0.51796418   -8.5918496    656.35523  0.011844147   0.01036875            5 
 4619000   0.50435269   -8.5726672    655.78052  0.011831214  0.010365294            6 
 4620000   0.50257243     -8.60049    655.47797  0.011823196  0.010361843            3 
 4621000   0.50769628   -8.5846307    655.30305  0.011817483  0.010358389            2 
 4622000   0.50299035   -8.5853329    655.96849  0.011826924  0.010354938            5 
 4623000   0.51405212   -8.5918531     655.6441  0.011818518  0.010351488            3 
 4624000   0.50964013   -8.5785685    656.02923  0.011822903  0.010348037            2 
 4625000   0.50606836   -8.5779998    655.12952  0.011804136  0.010344588            3 
 4626000   0.50808544   -8.5971598    654.48332  0.011789943   0.01034114            3 
 4627000   0.51211123   -8.5943242    655.71834  0.011809638  0.010337696            3 
 4628000   0.51566934   -8.5960452    654.92524  0.011792805  0.010334256            2 
 4629000   0.52328335   -8.5782206    655.46008  0.011799886  0.010330818            2 
 4630000   0.50250756   -8.6008447    655.47187   0.01179755  0.010327379            6 
 4631000   0.50873943   -8.5898955    655.92467   0.01180315  0.010323942            1 
 4632000   0.51734113   -8.5903124    655.43612  0.011791813  0.010320506            2 
 4633000   0.50800996   -8.5939654    654.77905  0.011777449  0.010317073            3 
 4634000   0.51028165   -8.5918536    655.93761  0.011795742  0.010313639            3 
 4635000   0.51439275   -8.5926636    655.67811  0.011788531  0.010310205            2 
 4636000    0.5106872   -8.5900937    655.74378  0.011787169  0.010306773            5 
 4637000   0.50284431   -8.5852618    655.35251  0.011777595  0.010303344            3 
 4638000   0.51352464   -8.6041915    655.01512  0.011768994  0.010299914            4 
 4639000   0.50559045   -8.5900939    656.01854  0.011784482  0.010296488            4 
 4640000   0.50627404   -8.5892984    655.30687  0.011769161  0.010293064            5 
 4641000   0.51240435   -8.5965001    655.45531   0.01176929  0.010289637            3 
 4642000   0.50810623   -8.5883681    655.77589   0.01177251  0.010286214            4 
 4643000   0.51035386   -8.5939311    655.75997  0.011769689  0.010282797            5 
 4644000   0.49352989    -8.596432    655.96287  0.011770795  0.010279379            3 
 4645000    0.5234011    -8.575792     655.5519  0.011760888  0.010275959            4 
 4646000   0.51196097   -8.5645887    655.61023  0.011759403   0.01027254            3 
 4647000    0.5041681    -8.586573    655.98014  0.011763506  0.010269127            3 
 4648000   0.50590494   -8.5959386    654.14731  0.011728114  0.010265713            5 
 4649000   0.50903171    -8.588413    654.59734  0.011733658    0.0102623            2 
 4650000   0.49256398   -8.5844523    655.59094  0.011748942  0.010258892            1 
 4651000   0.49785252   -8.5824805    655.98464  0.011753469  0.010255481            3 
 4652000   0.50866774   -8.5902401    656.25752  0.011755831  0.010252073            2 
 4653000   0.49578128   -8.5842918      654.511  0.011722025  0.010248665            3 
 4654000   0.51695795   -8.5820983    655.90509  0.011744469  0.010245259            3 
 4655000   0.51146461   -8.5829877    655.24804  0.011730183  0.010241857            2 
 4656000   0.50314745   -8.5958342    655.02014  0.011723585  0.010238455            2 
 4657000   0.50822978   -8.5982946    655.10868  0.011722652  0.010235054            4 
 4658000   0.50738635   -8.6052343     655.2716   0.01172305  0.010231651            2 
 4659000   0.51196985   -8.5846363     655.7151  0.011728466  0.010228255            4 
 4660000   0.50388667   -8.5777299    654.05261   0.01169622  0.010224856            3 
 4661000   0.51590245   -8.5853369      654.872   0.01170836  0.010221462            6 
 4662000   0.50755886   -8.6049169    654.48763  0.011698978  0.010218066            3 
 4663000   0.50842891   -8.5997771    655.19601  0.011709129  0.010214672            2 
 4664000   0.52063213   -8.5871198    655.60674  0.011713957  0.010211283            2 
 4665000   0.49863011   -8.6090998    654.13974   0.01168524  0.010207893            5 
 4666000   0.51960135   -8.5984666    654.92164    0.0116967  0.010204503            2 
 4667000   0.51076177   -8.5903549    655.97638  0.011713027  0.010201114            2 
 4668000   0.49603761   -8.5912909    655.44783  0.011701082  0.010197727            3 
 4669000   0.50550833   -8.5861025    655.58564  0.011701036  0.010194343            2 
 4670000   0.50859869   -8.5916775    655.07908  0.011689491  0.010190961            2 
 4671000   0.50215106   -8.5874285    656.42256  0.011710957  0.010187579            2 
 4672000   0.49514696   -8.5965251    656.16578   0.01170387  0.010184198            3 
 4673000   0.51607249   -8.5817311     655.9252  0.011697075  0.010180819            2 
 4674000   0.51116836   -8.5917686    655.14617  0.011680683  0.010177438            2 
 4675000   0.49068316   -8.5889889    655.00112  0.011675599  0.010174057            2 
 4676000   0.51183754   -8.5950052    655.42869  0.011680722   0.01017068            4 
 4677000   0.50846176   -8.5809888    654.41904  0.011660235  0.010167304            2 
 4678000   0.50390315   -8.5908556    654.49196  0.011659042  0.010163931            3 
 4679000   0.48902541   -8.5989943    655.04946  0.011666479   0.01016056            2 
 4680000    0.5003622   -8.5960883    655.53213  0.011672581  0.010157188            4 
 4681000   0.50786069   -8.5965009    654.69828  0.011655242  0.010153821            4 
 4682000   0.50082189   -8.5938768    655.14371  0.011660681  0.010150456            3 
 4683000   0.51019496   -8.5966652    654.57311  0.011648037  0.010147087            4 
 4684000   0.49698764    -8.593182    654.62514  0.011646476  0.010143723            3 
 4685000    0.4960685   -8.5901496     654.9603  0.011649952  0.010140361            3 
 4686000   0.49335555   -8.6063393    654.55095  0.011640186  0.010137001            4 
 4687000   0.50982782   -8.5953711    654.65606  0.011639572   0.01013364            5 
 4688000   0.50291108   -8.5946815    655.96354   0.01166033  0.010130281            3 
 4689000   0.49797939   -8.5958128    655.16378   0.01164363  0.010126922            2 
 4690000   0.49861091   -8.6108436     655.1949    0.0116417  0.010123564            2 
 4691000   0.49991991   -8.5934868    654.40222  0.011625137  0.010120204            2 
 4692000   0.49878465   -8.6091507    655.13658  0.011635702  0.010116847            3 
 4693000   0.49679747   -8.6097536    654.71435  0.011625725  0.010113493            2 
 4694000    0.4974783   -8.6126647    654.87381   0.01162608  0.010110143            5 
 4695000   0.50447981   -8.6016715    655.38803   0.01163273  0.010106792            7 
 4696000   0.50575834   -8.5947028    655.31866  0.011629022  0.010103444            5 
 4697000   0.49752865   -8.6177877     654.3367  0.011609125  0.010100094            4 
 4698000   0.50139769   -8.6003654    653.73327   0.01159595  0.010096743            5 
 4699000   0.49443612   -8.6075197     654.9344  0.011614783  0.010093394            2 
 4700000   0.50004967   -8.6117669    655.19114  0.011616864  0.010090048            4 
 4701000   0.49846185   -8.6011852    654.80039  0.011607466  0.010086702            1 
 4702000   0.50042539   -8.6002995    656.01193   0.01162647   0.01008336            3 
 4703000   0.49464271   -8.6019265    654.55592  0.011598198  0.010080019            4 
 4704000   0.50113284   -8.6071539    654.95179  0.011602746   0.01007668            2 
 4705000   0.49511179   -8.6067552    653.91697  0.011581951  0.010073339            3 
 4706000   0.50303293   -8.6082311    654.16134  0.011583818  0.010070002            3 
 4707000   0.50097759   -8.6039851    654.68198  0.011590574  0.010066661            2 
 4708000   0.49344167   -8.6091095    654.52937  0.011585411  0.010063326            4 
 4709000   0.49723193   -8.6153792    654.57571  0.011583771  0.010059992            4 
 4710000   0.49177906   -8.6182076    654.40686  0.011578324  0.010056657            4 
 4711000   0.50912855   -8.6080889    654.51809  0.011577834  0.010053327            1 
 4712000   0.50300384   -8.6253043     654.4337  0.011573884  0.010049997            3 
 4713000   0.49960326   -8.6121454    655.46336  0.011589634   0.01004667            5 
 4714000   0.49521813   -8.6047547    654.62716  0.011572394  0.010043342            2 
 4715000   0.49482655   -8.6073074    654.39005  0.011565748   0.01004002            4 
 4716000   0.48809598   -8.6096942    655.32183  0.011579761  0.010036696            2 
 4717000   0.49335775   -8.5995298    654.56327  0.011563905  0.010033372            7 
 4718000   0.49545048   -8.5984679    654.47747  0.011559938  0.010030049            4 
 4719000   0.49811085   -8.6098928    655.09085   0.01156832  0.010026729            3 
 4720000   0.49153706   -8.6043334    654.65216  0.011558124  0.010023406            6 
 4721000   0.50277618   -8.6174345    653.97465  0.011543717  0.010020083            5 
 4722000   0.49360393   -8.6059748    653.56121  0.011533976  0.010016766            1 
 4723000   0.50156231   -8.6187353    655.81068  0.011571224  0.010013452            3 
 4724000   0.49969015   -8.5969352    654.25304  0.011541297  0.010010136            3 
 4725000   0.48792461   -8.6009331    654.29752  0.011539639  0.010006823            5 
 4726000   0.50002876    -8.625907    654.09394  0.011533607  0.010003513            4 
 4727000   0.50224141   -8.5995498    654.34416  0.011535579  0.010000201            3 
 4728000   0.51260073   -8.6164157    655.22737  0.011548706 0.0099968907            3 
 4729000   0.49710312   -8.6066095    654.42925  0.011532199 0.0099935815            5 
 4730000   0.49739775   -8.6219809    654.24036  0.011526433 0.0099902732            2 
 4731000   0.48662782   -8.6294654    654.91053  0.011535802 0.0099869665            1 
 4732000   0.49416728   -8.6226227    654.65522  0.011528868  0.009983662            3 
 4733000    0.4995967   -8.6081164     654.3223   0.01152057 0.0099803582            2 
 4734000   0.49334252   -8.6220154    655.48954  0.011538684 0.0099770557            4 
 4735000   0.49068217   -8.6209638    654.22438  0.011513981 0.0099737532            4 
 4736000   0.49990324   -8.6119285    654.44847  0.011515493 0.0099704541            1 
 4737000    0.4994993   -8.6158277    654.71087  0.011517678 0.0099671551            2 
 4738000   0.48791022   -8.6137446    655.75408  0.011533595 0.0099638535            4 
 4739000   0.49994113   -8.6079961    655.61143  0.011528653 0.0099605593            3 
 4740000   0.48996578   -8.6065215    652.84679  0.011477616 0.0099572648            4 
 4741000    0.4908007   -8.5999593    653.72913  0.011490704 0.0099539727            3 
 4742000    0.5026739   -8.6206312    653.90242  0.011491326 0.0099506777            4 
 4743000    0.4900644   -8.6196054    654.71567  0.011503192 0.0099473862            3 
 4744000   0.48673714   -8.6218873    653.55644  0.011480404 0.0099440958            4 
 4745000   0.47783754   -8.6236362    653.91065  0.011484205  0.009940809            2 
 4746000   0.48765472   -8.6168714    654.47065  0.011491618  0.009937523            4 
 4747000   0.48566513    -8.620707    654.34088   0.01148692 0.0099342383            2 
 4748000   0.48827676   -8.6310817    654.28957    0.0114836 0.0099309554            2 
 4749000   0.49396022   -8.6088537    653.65423  0.011470033 0.0099276712            3 
 4750000   0.50368764   -8.6234092    655.08401  0.011492702 0.0099243903            7 
 4751000   0.48998771   -8.6242269    653.71284  0.011466232 0.0099211128            5 
 4752000   0.49067158    -8.631858    654.15866  0.011471637 0.0099178359            3 
 4753000   0.49683966   -8.6170192    653.86272  0.011464035 0.0099145575            4 
 4754000   0.48259385   -8.6284312    653.91714  0.011462578 0.0099112828            5 
 4755000   0.49508274   -8.6202437    654.16844  0.011464571 0.0099080089            2 
 4756000   0.48619102   -8.6158941    654.50598  0.011468075 0.0099047352            4 
 4757000   0.49103456   -8.6217689    654.20794  0.011460443 0.0099014659            4 
 4758000   0.48227456   -8.6206659    654.43328  0.011461981 0.0098981941            5 
 4759000     0.485582   -8.5964178    654.01361  0.011452224 0.0098949276            3 
 4760000   0.48709541   -8.6261004    654.74697  0.011462657  0.009891661            6 
 4761000   0.49464596   -8.6102073     654.0707  0.011448413 0.0098883951            4 
 4762000   0.49276955   -8.6206019    654.86049  0.011459829 0.0098851318            2 
 4763000   0.49155441   -8.5962997    654.32153  0.011447994  0.009881868            3 
 4764000   0.48621939   -8.6085339    654.65896  0.011451493 0.0098786077            4 
 4765000   0.49478394   -8.6338951    654.38954  0.011444378  0.009875346            3 
 4766000   0.49632734    -8.630442    655.50051  0.011461402 0.0098720848            3 
 4767000   0.49169549   -8.6107946    654.31578  0.011438287 0.0098688269            5 
 4768000   0.48332001   -8.6087808    654.31812  0.011435929 0.0098655679            3 
 4769000   0.48081141   -8.6313672    654.68151  0.011439881 0.0098623099            6 
 4770000    0.4880595   -8.6395943    654.29215   0.01143068 0.0098590546            3 
 4771000   0.48478682   -8.6201043    654.60668  0.011433778 0.0098558018            5 
 4772000   0.48119467   -8.6294534    654.07428  0.011422085 0.0098525474            3 
 4773000   0.49346036   -8.6370397    654.49728  0.011427077 0.0098492951            3 
 4774000   0.49205072   -8.6361769    654.15563   0.01141872  0.009846047            4 
 4775000   0.49343441   -8.5944062    653.99147  0.011413464 0.0098427981            3 
 4776000   0.47951951   -8.6198588    654.21905  0.011415045 0.0098395516            4 
 4777000   0.48907446   -8.6192075    654.03157  0.011409385 0.0098363079            4 
 4778000   0.48817224   -8.6033185     653.6188  0.011399798 0.0098330637            3 
 4779000   0.47602767   -8.6248474    654.12346  0.011406212 0.0098298234            2 
 4780000   0.48485531     -8.63655    654.02084  0.011402037  0.009826582            3 
 4781000   0.49051444   -8.6320464    655.03596  0.011417346 0.0098233442            4 
 4782000   0.48932053   -8.6228221    653.84698  0.011394239 0.0098201062            4 
 4783000   0.48766891   -8.6282828    654.27939   0.01139939 0.0098168676            3 
 4784000   0.49234921   -8.6137805    654.67402  0.011403881 0.0098136354            2 
 4785000   0.48384979    -8.615861    653.37024  0.011378792 0.0098104023            6 
 4786000   0.49163199   -8.6217402    653.88224  0.011385329  0.009807172            2 
 4787000   0.49286276   -8.6272024    654.50356  0.011393767  0.009803938            2 
 4788000   0.48894853   -8.6217858    654.54998  0.011392195 0.0098007074            3 
 4789000   0.48748156   -8.6392684     653.8875  0.011378289 0.0097974806            3 
 4790000   0.48942721   -8.6289066    654.25073  0.011382233 0.0097942532            5 
 4791000   0.48109487   -8.6240597    653.82325  0.011372421 0.0097910246            2 
 4792000   0.47692142   -8.6349709    655.24634  0.011394796 0.0097877974            2 
 4793000   0.48783131    -8.651036    653.66425  0.011364912 0.0097845755            1 
 4794000   0.47747029   -8.6297563    653.75107   0.01136405 0.0097813505            3 
 4795000   0.48204202   -8.6072067    654.45833  0.011373972 0.0097781284            6 
 4796000   0.49581568   -8.6355148    655.16418  0.011383865 0.0097749104            4 
 4797000   0.48163188   -8.6362092    653.68155  0.011355735 0.0097716919            3 
 4798000   0.48830479   -8.6370224    653.21902  0.011345335 0.0097684734            4 
 4799000   0.48356839   -8.6259953    653.81876  0.011353385 0.0097652564            4 
 4800000   0.48330077   -8.6373923    653.69045  0.011348793 0.0097620414            3 
 4801000   0.48327176    -8.636047    654.56697  0.011361643 0.0097588263            4 
 4802000   0.48835843   -8.6343662    654.34916  0.011355497 0.0097556143            3 
 4803000   0.47883904   -8.6136779    654.35677  0.011353265 0.0097524056            5 
 4804000   0.47832787   -8.6170807    653.21479  0.011331092 0.0097491956            4 
 4805000   0.48733216   -8.6263334    653.67671  0.011336745 0.0097459871            3 
 4806000   0.49084247   -8.6387305    653.34378  0.011328613 0.0097427805            2 
 4807000   0.47686688   -8.6185822    653.11112  0.011322223 0.0097395743            4 
 4808000   0.48157381   -8.6302806     653.9504  0.011334415 0.0097363726           11 
 4809000   0.47852354   -8.6282816    654.37017  0.011339332 0.0097331733            6 
 4810000   0.48618502   -8.6278745    653.87704  0.011328431 0.0097299704            3 
 4811000   0.47791949   -8.6409255    655.03144  0.011346072 0.0097267675            3 
 4812000   0.48067199   -8.6472154    653.09331   0.01131015 0.0097235662            5 
 4813000   0.49319785   -8.6278651    654.50782  0.011332291 0.0097203676            5 
 4814000   0.47604505   -8.6195812    653.79967  0.011317679 0.0097171712            6 
 4815000   0.49061812   -8.6386756    653.78848  0.011315135 0.0097139732            4 
 4816000   0.47483107   -8.6299934    653.92659  0.011315175 0.0097107793            3 
 4817000   0.48024357    -8.624974     654.1369  0.011316464 0.0097075836            2 
 4818000   0.47661088   -8.6378764    653.31854  0.011299961 0.0097043883            2 
 4819000   0.49149214   -8.6358879    653.80187  0.011305974 0.0097011923            5 
 4820000   0.48054923   -8.6351739    653.35597  0.011295919 0.0096979993            4 
 4821000   0.48346802   -8.6455123    654.29156  0.011309748 0.0096948092            2 
 4822000   0.47734288    -8.638643     653.5787  0.011295083 0.0096916218            1 
 4823000   0.48483958   -8.6227831     652.8765  0.011280609 0.0096884349            2 
 4824000   0.48366793   -8.6462899    654.70745  0.011309899 0.0096852505            5 
 4825000   0.48008573   -8.6482655    654.47192  0.011303487 0.0096820672            2 
 4826000   0.48003351   -8.6287521    653.30641   0.01128102 0.0096788867            2 
 4827000    0.4856092   -8.6388697    653.92295  0.011289326 0.0096757087            1 
 4828000    0.4804679   -8.6389028    653.23651   0.01127514 0.0096725265            4 
 4829000   0.47651024   -8.6281603    654.40795   0.01129302 0.0096693464            4 
 4830000   0.47296639   -8.6292161    653.58064  0.011276409 0.0096661716            3 
 4831000   0.49148603   -8.6325887    652.94665  0.011263138  0.009662996            5 
 4832000   0.47303946   -8.6495986    653.34411  0.011267662  0.009659824            4 
 4833000   0.47307968   -8.6327277    654.35291  0.011282725 0.0096566502            6 
 4834000   0.48135855   -8.6519074    653.05938  0.011258092 0.0096534789            5 
 4835000   0.47542274   -8.6476845    653.73705  0.011267443 0.0096503089            5 
 4836000   0.47576951   -8.6490128    653.85982  0.011267229 0.0096471368            7 
 4837000   0.47243898   -8.6360682    653.04752  0.011250905 0.0096439675            7 
 4838000   0.47616968   -8.6480252      654.333  0.011270721  0.009640799            5 
 4839000   0.47065274    -8.653918    653.87596  0.011260521 0.0096376321            4 
 4840000   0.47396875   -8.6471257    653.10114  0.011244854 0.0096344668            2 
 4841000   0.47185609   -8.6332358    652.75439  0.011236563 0.0096313017            5 
 4842000   0.48771116   -8.6389375    653.89378  0.011253851 0.0096281387            4 
 4843000   0.47931771   -8.6377452    654.21396  0.011257037 0.0096249763            6 
 4844000   0.47323295   -8.6616164    653.73027  0.011246392 0.0096218149            5 
 4845000   0.46882138   -8.6323094    653.33829  0.011237329 0.0096186553            4 
 4846000   0.47173848   -8.6336479    652.76604  0.011225169 0.0096154943            6 
 4847000   0.46861041   -8.6398237    653.79048  0.011240466 0.0096123402            3 
 4848000    0.4796954   -8.6341348    653.63028  0.011235394 0.0096091855            3 
 4849000    0.4843129   -8.6411901    652.77475  0.011218374  0.009606031            3 
 4850000   0.48099365   -8.6412723    653.34541  0.011225866 0.0096028749            3 
 4851000   0.49433275   -8.6400591    653.29279  0.011222648 0.0095997222            2 
 4852000   0.47296658   -8.6324092    652.96917  0.011214777 0.0095965718            5 
 4853000   0.47708947   -8.6563154    653.65454  0.011224235  0.009593421            4 
 4854000   0.46958244   -8.6409391    652.98126  0.011210364   0.00959027            5 
 4855000   0.46944099   -8.6495622    653.18778  0.011211599 0.0095871227            1 
 4856000   0.47576232   -8.6394513    653.36905  0.011212401 0.0095839779            3 
 4857000   0.48441323   -8.6552272    653.99782  0.011220881 0.0095808313            5 
 4858000   0.47129583   -8.6479667    653.09512  0.011203086 0.0095776916            3 
 4859000   0.48083304   -8.6418425    653.19748  0.011202536 0.0095745522            2 
 4860000   0.48087348   -8.6405179    653.62461  0.011207555 0.0095714148            2 
 4861000   0.47731098   -8.6477768    653.67959  0.011206192 0.0095682748            4 
 4862000   0.47770421   -8.6498085    654.56791  0.011219113 0.0095651378            2 
 4863000   0.47774694   -8.6581053    653.29373  0.011194971 0.0095620016            4 
 4864000   0.46837376   -8.6566828    653.85695  0.011202319 0.0095588673            4 
 4865000   0.46389195   -8.6460306    652.87722  0.011183234 0.0095557341            3 
 4866000   0.47996215   -8.6515627    653.32428  0.011188592  0.009552603            5 
 4867000    0.4715003   -8.6463139    653.75598  0.011193685 0.0095494742            4 
 4868000   0.47465526   -8.6405694    652.90915  0.011176889 0.0095463453            2 
 4869000   0.46223391   -8.6468598    653.40166  0.011183023 0.0095432145            6 
 4870000    0.4645373   -8.6479389    652.75019  0.011169579 0.0095400882            5 
 4871000   0.48168413   -8.6551091    653.63117  0.011182358 0.0095369626            4 
 4872000    0.4684413   -8.6357491    652.74768  0.011164951 0.0095338376            7 
 4873000   0.47628318   -8.6479724    653.46725  0.011174965 0.0095307143            9 
 4874000   0.47218698   -8.6552419    653.55377  0.011174151 0.0095275912            4 
 4875000    0.4766181   -8.6580688    653.14205  0.011164821 0.0095244709            2 
 4876000    0.4777053   -8.6497136    653.42747   0.01116741 0.0095213496            3 
 4877000    0.4772971   -8.6485236    653.49092  0.011166204 0.0095182304            1 
 4878000   0.46426271   -8.6371081    653.00598   0.01115563 0.0095151148            6 
 4879000   0.46864926   -8.6539458    652.89005  0.011151364 0.0095120007            5 
 4880000     0.475486   -8.6784926    652.86414  0.011148636 0.0095088875            5 
 4881000    0.4761268   -8.6504827    653.47673  0.011156811 0.0095057755            5 
 4882000    0.4742536   -8.6539887      652.445  0.011136915  0.009502663            3 
 4883000   0.46863396   -8.6661863     653.6212  0.011154707 0.0094995524            3 
 4884000   0.47132584   -8.6496439    654.26293  0.011163372 0.0094964454            3 
 4885000   0.47523604   -8.6482786    652.37704  0.011128916 0.0094933401            2 
 4886000   0.47951937   -8.6624093    652.59912  0.011130426 0.0094902343            2 
 4887000   0.46618865   -8.6471358    653.80881  0.011148776 0.0094871282            3 
 4888000   0.46618031   -8.6543919     653.2267  0.011136571 0.0094840245            3 
 4889000   0.47067274   -8.6519878    652.95664   0.01112969 0.0094809203            5 
 4890000   0.46929801   -8.6697732    652.47808  0.011119258 0.0094778193            6 
 4891000   0.46780062   -8.6623128    653.78359  0.011139228 0.0094747148            2 
 4892000   0.47115778   -8.6536188    653.02303  0.011123995 0.0094716145            3 
 4893000   0.47243798   -8.6633391    653.16457  0.011124133 0.0094685148            7 
 4894000   0.47123065   -8.6559268    652.85263  0.011116548 0.0094654198            5 
 4895000   0.46979686   -8.6490916    653.05409  0.011117707 0.0094623258            2 
 4896000   0.47436681   -8.6630605    653.23087  0.011118445  0.009459232            3 
 4897000   0.47847687   -8.6666869    653.84918  0.011126696 0.0094561388            6 
 4898000   0.47544615   -8.6577345    652.78256  0.011106277 0.0094530468            3 
 4899000   0.46639069    -8.657066    653.11461  0.011109659 0.0094499569            3 
 4900000    0.4735771   -8.6553379    653.14409  0.011107893 0.0094468672            4 
 4901000    0.4772119   -8.6433738    651.85505  0.011083708  0.009443778            5 
 4902000   0.47466576   -8.6523148    653.69532  0.011112731 0.0094406913            4 
 4903000   0.46534536   -8.6607114    654.17917  0.011118689 0.0094376091            3 
 4904000    0.4525277   -8.6666133    652.30805  0.011084626 0.0094345241            7 
 4905000   0.46764267   -8.6654906    653.40811  0.011101055 0.0094314393            6 
 4906000   0.46806042   -8.6828291    652.71025  0.011086939 0.0094283569            4 
 4907000   0.46963062    -8.671626    652.94706  0.011088701 0.0094252745            4 
 4908000    0.4650683   -8.6690042    652.44663  0.011077945 0.0094221958            5 
 4909000   0.46124244   -8.6536655    652.35767  0.011074178 0.0094191179            5 
 4910000   0.46361545   -8.6702823    651.69776  0.011060722 0.0094160403            5 
 4911000   0.46495359   -8.6557442    653.54186  0.011089762 0.0094129627            3 
 4912000   0.45677888   -8.6697883    653.37034  0.011084594 0.0094098886            3 
 4913000   0.47084755   -8.6542616    653.07599  0.011077346 0.0094068166            3 
 4914000   0.47173182    -8.661243    652.98179  0.011073494 0.0094037438            4 
 4915000   0.46367233     -8.67696    653.08332  0.011072962 0.0094006719            4 
 4916000   0.46145712   -8.6680495    653.55918  0.011078776 0.0093976033            5 
 4917000   0.46287639   -8.6652831     653.3313  0.011072661 0.0093945354            3 
 4918000   0.45641165   -8.6753006    652.52871   0.01105681 0.0093914709            6 
 4919000   0.45802697   -8.6529174    653.05807   0.01106353 0.0093884044            4 
 4920000     0.473865   -8.6650563    653.16979  0.011063174 0.0093853417            7 
 4921000   0.45968111   -8.6584732    653.17492  0.011061013 0.0093822794            3 
 4922000   0.45729362   -8.6557088    652.83781  0.011053058 0.0093792185            3 
 4923000   0.45941352   -8.6607262    653.00836    0.0110537  0.009376161            4 
 4924000   0.46903074   -8.6727869    653.41404   0.01105832 0.0093731054            3 
 4925000   0.45983841   -8.6723364    652.12332  0.011034236 0.0093700474            3 
 4926000   0.46787538   -8.6621777    653.16785  0.011049666 0.0093669891            4 
 4927000    0.4659929   -8.6604344    653.54995  0.011053886 0.0093639343            3 
 4928000   0.48054062   -8.6581652    652.95967  0.011041661  0.009360882            1 
 4929000   0.46006578   -8.6771062    652.35417  0.011029184 0.0093578289            4 
 4930000   0.46092615   -8.6601777    653.07734  0.011039171 0.0093547786            3 
 4931000   0.47371691   -8.6624666    652.72273  0.011030939  0.009351728            3 
 4932000   0.46127347   -8.6763394    653.63425  0.011044104 0.0093486815            4 
 4933000   0.45945562   -8.6571209    652.31389   0.01101956 0.0093456338            6 
 4934000    0.4735692    -8.668565    653.52741  0.011037823 0.0093425888            6 
 4935000   0.46072026   -8.6471732    652.52908  0.011018728  0.009339545            3 
 4936000   0.47073918   -8.6783806    652.87278  0.011022298 0.0093365004            4 
 4937000   0.47361703   -8.6661731    652.32665  0.011010848 0.0093334571            5 
 4938000   0.46461407   -8.6703342    653.56437  0.011029505  0.009330415            3 
 4939000   0.46371211   -8.6884536    652.21154  0.011004447 0.0093273745            5 
 4940000   0.46643891   -8.6591901    651.97289  0.010998193 0.0093243343            4 
 4941000   0.46864273   -8.6731922    653.02568  0.011013723  0.009321296            3 
 4942000   0.47023386   -8.6689266    653.33732   0.01101675 0.0093182564            2 
 4943000   0.47430207   -8.6618839    652.30591  0.010997132 0.0093152214            4 
 4944000   0.45771476   -8.6673385    652.53364  0.010998747 0.0093121857            4 
 4945000   0.45677816   -8.6730009    652.44214   0.01099498 0.0093091517            5 
 4946000   0.45975935   -8.6889565    653.28724  0.011006996 0.0093061186            4 
 4947000   0.46115206   -8.6634003    653.11247  0.011001827 0.0093030857            5 
 4948000   0.46090098   -8.6721937    653.13213  0.010999935 0.0093000549            6 
 4949000    0.4631108      -8.6661    652.64118  0.010989445 0.0092970243            3 
 4950000   0.47238198   -8.6709528    653.36422  0.010999398 0.0092939965            4 
 4951000   0.45321227   -8.6811766     652.6587  0.010985301 0.0092909697            7 
 4952000   0.46709669     -8.67706      652.991  0.010988675 0.0092879453            5 
 4953000   0.45590743   -8.6819233    651.89369  0.010967994 0.0092849199            3 
 4954000   0.46219733   -8.6866245     652.1649  0.010970342 0.0092818972            6 
 4955000   0.45515339    -8.685972    651.67826  0.010959944 0.0092788758            4 
 4956000   0.45810825    -8.680847    653.47872  0.010988006 0.0092758575            3 
 4957000   0.46034217   -8.6708364    652.40286  0.010967703 0.0092728391            3 
 4958000    0.4630041   -8.6727954      652.053  0.010959611 0.0092698185            6 
 4959000   0.46099021   -8.6782651    653.23232  0.010977218 0.0092668023            3 
 4960000   0.45934152   -8.6825374    652.97245  0.010970639  0.009263788            2 
 4961000   0.46138931   -8.6598348    651.86463  0.010949819 0.0092607753            3 
 4962000   0.45376352   -8.6683253    652.38154  0.010956294 0.0092577604            6 
 4963000   0.46048041   -8.6924862    652.45675  0.010955349 0.0092547468            4 
 4964000   0.45947959   -8.6770197    652.01113  0.010945661 0.0092517364            3 
 4965000   0.46621597   -8.6733454      653.547  0.010969235  0.009248727            3 
 4966000   0.45574515   -8.6834857    651.66248  0.010935402   0.00924572            2 
 4967000   0.46367173    -8.677095    652.51508  0.010947505 0.0092427112            5 
 4968000   0.45304881   -8.6847385    652.54512  0.010945805 0.0092397049            4 
 4969000   0.45664257   -8.6802806    651.98226  0.010934163 0.0092366981            6 
 4970000   0.45954957   -8.6732078    653.52964  0.010957908 0.0092336961            2 
 4971000   0.44806621   -8.6603263    652.86359  0.010944538 0.0092306949            2 
 4972000   0.45625817   -8.6918059    651.36827  0.010917275  0.009227694            3 
 4973000   0.45624082   -8.6729959    652.75027  0.010938238 0.0092246946            5 
 4974000   0.46735416   -8.6731799    652.44461  0.010930918 0.0092216975            6 
 4975000   0.45334253   -8.6687292      652.719  0.010933317 0.0092187024            4 
 4976000   0.45818244   -8.6789445    652.67715  0.010930418  0.009215707            6 
 4977000   0.45201173    -8.669127    652.57836  0.010926568  0.009212713            3 
 4978000   0.45742221     -8.67774    651.73552  0.010910264 0.0092097156            2 
 4979000   0.44929322   -8.6765814     652.5001  0.010920869 0.0092067247            3 
 4980000   0.45190191   -8.6870376    651.46138  0.010901295 0.0092037338            5 
 4981000   0.45729668   -8.6959205    653.47025  0.010932715 0.0092007417            3 
 4982000   0.44841825   -8.6792918     652.3538  0.010911846 0.0091977537            5 
 4983000   0.44988781   -8.6732898    652.19597  0.010907017 0.0091947678            4 
 4984000   0.45153838   -8.6804875    652.33033  0.010907075 0.0091917822            3 
 4985000   0.45699103   -8.6782031    651.90086  0.010897707 0.0091887965            5 
 4986000   0.45092552   -8.6748868    651.07231  0.010881674 0.0091858132            3 
 4987000   0.46048616   -8.6808544    652.24612  0.010899106 0.0091828316            1 
 4988000   0.45382971   -8.7054162    653.02199  0.010909884 0.0091798514            6 
 4989000   0.45562539   -8.6842263    652.64123  0.010901337 0.0091768727            3 
 4990000   0.45329161   -8.7037248    652.23913  0.010892437 0.0091738934            5 
 4991000     0.443103   -8.6985569    652.48084   0.01089429  0.009170917            4 
 4992000   0.44849447   -8.6757766    652.83801   0.01089807 0.0091679411            5 
 4993000    0.4556966   -8.6951531    652.68373  0.010893313 0.0091649649            4 
 4994000   0.45332958   -8.6960718    651.36602  0.010869143 0.0091619914            5 
 4995000   0.45050249   -8.6887827    653.15475  0.010896809 0.0091590188            4 
 4996000   0.46011555   -8.6930616    651.63734  0.010869318 0.0091560469            2 
 4997000   0.44593559   -8.6932661    652.27293  0.010877742 0.0091530769            6 
 4998000   0.44183643   -8.6847689    651.81666  0.010867958 0.0091501071            4 
 4999000   0.45364063   -8.6738825     652.2739  0.010873406 0.0091471403            4 
 5000000   0.45094449   -8.6832917    652.44087  0.010874014 0.0091441747            4 
 5001000   0.47325808   -8.6718263    652.76353  0.010877217 0.0091412099            3 
 5002000   0.45526117   -8.6763509    652.57444  0.010871892  0.009138247            1 
 5003000   0.45367303   -8.6999008    652.19458  0.010863392 0.0091352855            4 
 5004000   0.45031816   -8.6805945    650.99331  0.010841215 0.0091323226            4 
 5005000    0.4512962   -8.6821828    651.80722  0.010852601 0.0091293637            3 
 5006000    0.4487894   -8.6795717     652.0537  0.010854536 0.0091264056            5 
 5007000    0.4558832     -8.67123    652.30563  0.010856561 0.0091234477            4 
 5008000   0.43997459   -8.7024529    652.39998  0.010855963 0.0091204925            2 
 5009000   0.44767269   -8.6815295    652.94628  0.010862885 0.0091175358            4 
 5010000   0.44269035   -8.6941737    652.22007  0.010848637 0.0091145795            5 
 5011000   0.44473604   -8.6986849     652.0734  0.010844033 0.0091116239            4 
 5012000   0.44370821   -8.6850974    651.51738  0.010832625 0.0091086712            2 
Loop time of 11926.9 on 48 procs for 5000000 steps with 4000 atoms

Performance: 72441.564 tau/day, 419.222 timesteps/s
99.4% CPU use with 48 MPI tasks x no OpenMP threads

MPI task timing breakdown:
Section |  min time  |  avg time  |  max time  |%varavg| %total
---------------------------------------------------------------
Pair    | 768.02     | 833.75     | 890.96     |  98.9 |  6.99
Neigh   | 77.423     | 81.46      | 84.207     |  18.8 |  0.68
Comm    | 751.63     | 808.09     | 889.2      | 113.8 |  6.78
Output  | 14.079     | 14.085     | 14.183     |   0.4 |  0.12
Modify  | 10065      | 10084      | 10107      |   9.6 | 84.55
Other   |            | 105        |            |       |  0.88

Nlocal:        83.3333 ave          92 max          73 min
Histogram: 1 2 0 6 8 13 11 5 1 1
Nghost:        2065.38 ave        2083 max        2036 min
Histogram: 1 2 0 4 7 10 5 4 10 5
Neighs:        13422.2 ave       14546 max       10838 min
Histogram: 1 0 1 3 3 4 11 7 11 7
FullNghs:      26845.4 ave       29798 max       23080 min
Histogram: 1 2 0 5 9 10 11 7 2 1

Total # of neighbors = 1288581
Ave neighs/atom = 322.14525
Neighbor list builds = 267747
Dangerous builds = 0

#clear
#
#next RN
#
#jump SELF
Total wall time: 3:18:50
