
units lj                  # Use reduced LJ style units
atom_style atomic         # Uncharged point particles
atom_modify map hash      # Needed for indexing of clusters etc
                          # Used to be able to find where atoms are in relation to each other.

lattice fcc 1.0 spacing 1 1 1
Lattice spacing in x,y,z = 1.5874011 1.5874011 1.5874011
region box block 0 10 0 10 0 10 units lattice
create_box 2 box
Created orthogonal box = (0.0000000 0.0000000 0.0000000) to (15.874011 15.874011 15.874011)
  3 by 4 by 4 MPI processor grid
create_atoms 1 box
Created 4000 atoms
  using lattice units in orthogonal box = (0.0000000 0.0000000 0.0000000) to (15.874011 15.874011 15.874011)
  create_atoms CPU = 0.027 seconds
set type 1 type/fraction 2 0.14 78393
Setting atom values ...
  590 settings made for type/fraction
mass 1 1.0
mass 2 1.0
pair_style lj/cut  3.5
pair_modify tail  yes
pair_coeff 1  1  1.0  1.0   # Intearaction between 1 and 1 set with epsilon = 1 and sigma = 1
pair_coeff 1  2  1.5  0.8
pair_coeff 2  2  0.5  0.88

write_data data.0
System init for write_data ...
Neighbor list info ...
  update every 1 steps, delay 10 steps, check yes
  max neighbors/atom: 2000, page size: 100000
  master list distance cutoff = 3.8
  ghost atom cutoff = 3.8
  binsize = 1.9, bins = 9 9 9
  1 neighbor lists, perpetual/occasional/extra = 1 0 0
  (1) pair lj/cut, perpetual
      attributes: half, newton on
      pair build: half/bin/atomonly/newton
      stencil: half/bin/3d
      bin: standard
WARNING: Not all mixed pair coeffs generated from mixing. Use write_data with 'pair ij' option to store all pair coeffs. (../write_data.cpp:312)


#############################
#   M E L T   S Y S T E M   #
#############################

velocity all create 2.4 9622624 mom yes dist gaussian # Assign velocities
                                                    # Temperature 2.4, random number seed, zero linear momentum
                                                                                # Gaussian distribution

timestep 0.002   # simulation timestep
thermo 1000       # output thermodynamic data every 1000 steps bf 100

# Define a fix  in this case with index 1 applied to all
# particles in the simulation. This fix is for simulations
# in the anisotropic NPT ensemble. Note that we use the MTK
# correction.
fix 1 all npt temp 2.4 2.4 0.1 iso 5.68 5.68 0.5 mtk yes tchain 5 pchain 5 # Use NPT ensemble
                                                                         # Set temperature and pressure and damping
                                                                         # Numbers of thermostats in chain and in barostat
run 10000          # run for 10000 steps
Per MPI rank memory allocation (min/avg/max) = 3.642 | 3.644 | 3.648 Mbytes
Step Temp E_pair E_mol TotEng Press Volume 
       0          2.4   -7.4253508            0   -3.8262508   -3.2887046         4000 
    1000    2.4478483   -4.7187728            0   -1.0479183    5.6719911    4681.9315 
    2000    2.4229758   -4.6658167            0   -1.0322616    5.4515112    4740.3852 
    3000    2.4284585   -4.7382593            0   -1.0964822     5.483893    4696.9698 
    4000    2.3936527   -4.7332153            0   -1.1436338     5.492533    4696.1996 
    5000    2.4130568   -4.6182752            0  -0.99959491     5.752749    4719.3532 
    6000    2.3890483   -4.7275792            0   -1.1449027    5.8810268    4646.5772 
    7000    2.3923669   -4.6916855            0   -1.1040323    5.9276125    4666.6578 
    8000    2.4390388   -4.7374435            0      -1.0798    5.6946921    4671.3149 
    9000      2.33482   -4.7084598            0   -1.2071054    5.9068558    4652.0739 
   10000    2.4037847   -4.7197452            0   -1.1149696    5.3603744    4709.0627 
Loop time of 2.21559 on 48 procs for 10000 steps with 4000 atoms

Performance: 779926.205 tau/day, 4513.462 timesteps/s
99.7% CPU use with 48 MPI tasks x no OpenMP threads

MPI task timing breakdown:
Section |  min time  |  avg time  |  max time  |%varavg| %total
---------------------------------------------------------------
Pair    | 0.94273    | 0.99332    | 1.1161     |   3.2 | 44.83
Neigh   | 0.19143    | 0.19989    | 0.2184     |   1.2 |  9.02
Comm    | 0.66529    | 0.77297    | 0.85256    |   4.1 | 34.89
Output  | 0.0002348  | 0.00024224 | 0.00030375 |   0.0 |  0.01
Modify  | 0.19452    | 0.23459    | 0.27376    |   4.4 | 10.59
Other   |            | 0.01458    |            |       |  0.66

Nlocal:        83.3333 ave          92 max          73 min
Histogram: 2 1 4 6 7 8 8 7 2 3
Nghost:        1472.83 ave        1498 max        1433 min
Histogram: 1 0 3 1 7 9 13 6 4 4
Neighs:        8098.85 ave        9011 max        6664 min
Histogram: 1 0 2 6 9 5 4 9 8 4

Total # of neighbors = 388745
Ave neighs/atom = 97.186250
Neighbor list builds = 904
Dangerous builds = 188

# Equilibrate just above the melting temperature to avoid step fn in T

fix 1 all npt temp 1.25 1.25 0.1 iso 5.68 5.68 0.5 mtk yes tchain 5 pchain 5
run 2000
Per MPI rank memory allocation (min/avg/max) = 3.642 | 3.644 | 3.648 Mbytes
Step Temp E_pair E_mol TotEng Press Volume 
   10000    2.4037847   -4.7197452            0   -1.1149696    5.3603744    4709.0627 
   11000    1.2472964   -6.3515496            0   -4.4810726    5.5346634    3850.9975 
   12000    1.2499394   -6.3564717            0   -4.4820313    5.9260012    3828.0235 
Loop time of 0.481538 on 48 procs for 2000 steps with 4000 atoms

Performance: 717700.375 tau/day, 4153.359 timesteps/s
99.7% CPU use with 48 MPI tasks x no OpenMP threads

MPI task timing breakdown:
Section |  min time  |  avg time  |  max time  |%varavg| %total
---------------------------------------------------------------
Pair    | 0.21716    | 0.23243    | 0.25557    |   1.9 | 48.27
Neigh   | 0.031772   | 0.033315   | 0.03542    |   0.5 |  6.92
Comm    | 0.141      | 0.16356    | 0.18257    |   2.5 | 33.97
Output  | 5.0443e-05 | 5.1664e-05 | 6.3584e-05 |   0.0 |  0.01
Modify  | 0.039668   | 0.047689   | 0.055147   |   2.1 |  9.90
Other   |            | 0.004487   |            |       |  0.93

Nlocal:        83.3333 ave          91 max          73 min
Histogram: 2 1 5 2 6 6 11 6 7 2
Nghost:        1685.88 ave        1716 max        1657 min
Histogram: 2 2 3 9 13 4 5 7 1 2
Neighs:        9970.94 ave       11408 max        8562 min
Histogram: 2 0 6 8 10 9 4 6 2 1

Total # of neighbors = 478605
Ave neighs/atom = 119.65125
Neighbor list builds = 142
Dangerous builds = 11

#############################
# L I N E A R  Q U E N C H  #
#############################

# Define solid atoms. This closely follows ten Wolde  Ruiz-Montero and Frenkel  Faraday Discuss  1996  104  93-110
# Compute components of the per-atom q6 vector
compute q6 all orientorder/atom degrees 1 6 components 6 nnn NULL cutoff 1.3 # compute the Q6 parameter.
                                                                             # Use all neighbours within 1.3 unit cell.

# get number of connections
compute coord_number all coord/atom orientorder q6 0.5

# An atom is solid if it has 8 or more connections (of a possible 14)
variable is_solid atom c_coord_number>=8
group solid dynamic all var is_solid    # Must be dynamic to update
dynamic group solid defined

# do clustering
compute cluster solid cluster/atom 1.3 # Create a cluster where all atoms within are solid and max 1.3 units from another member

# define chunks one chunk per cluster
compute clus_chunks solid chunk/atom c_cluster nchunk every compress yes  # Says which atoms are in which chunk

# count the size of each chunk
compute size_chunks solid property/chunk clus_chunks count


# Find the maximum entry in the vector of chunk sizes
variable max_n equal max(c_size_chunks)


# Thermo style which includes this variable
# thermo_style custom step temp pe vol v_max_n

thermo ${N}  # Print the thermo information every 100 steps
thermo 1000  

# Reset the npt fix at a lower temperature (below freezing)
fix 1  all npt temp  ${temp} ${temp}  0.1  iso  5.68  5.68  0.5  mtk yes tchain  5  pchain  5
fix 1  all npt temp  0.45 ${temp}  0.1  iso  5.68  5.68  0.5  mtk yes tchain  5  pchain  5
fix 1  all npt temp  0.45 0.45  0.1  iso  5.68  5.68  0.5  mtk yes tchain  5  pchain  5

dump dmp2 all dcd ${N} traj.dcd
dump dmp2 all dcd 1000 traj.dcd


compute msd all msd com yes
variable twopoint equal c_msd[4]/6/(step*dt+1.0e-6)
fix 9 all vector 10 c_msd[4]
variable fit equal slope(f_9)/6/(10*dt)
thermo_style custom step temp pe c_msd[4] v_twopoint v_fit v_max_n

fix 1 all npt temp 1.25 ${temp} 0.1 iso 5.68 5.68 0.5 mtk yes tchain 5 pchain 5
fix 1 all npt temp 1.25 0.45 0.1 iso 5.68 5.68 0.5 mtk yes tchain 5 pchain 5
run 2000000 # 5000000  # Run for this many steps
Neighbor list info ...
  update every 1 steps, delay 10 steps, check yes
  max neighbors/atom: 2000, page size: 100000
  master list distance cutoff = 3.8
  ghost atom cutoff = 3.8
  binsize = 1.9, bins = 9 9 9
  4 neighbor lists, perpetual/occasional/extra = 1 3 0
  (1) pair lj/cut, perpetual
      attributes: half, newton on
      pair build: half/bin/atomonly/newton
      stencil: half/bin/3d
      bin: standard
  (2) compute orientorder/atom, occasional
      attributes: full, newton on
      pair build: full/bin/atomonly
      stencil: full/bin/3d
      bin: standard
  (3) compute coord/atom, occasional
      attributes: full, newton on
      pair build: full/bin/atomonly
      stencil: full/bin/3d
      bin: standard
  (4) compute cluster/atom, occasional
      attributes: full, newton on
      pair build: full/bin/atomonly
      stencil: full/bin/3d
      bin: standard
Per MPI rank memory allocation (min/avg/max) = 9.758 | 9.765 | 9.772 Mbytes
Step Temp PotEng c_msd[4] v_twopoint v_fit v_max_n 
   12000    1.2499394   -6.3564717            0            0 8.3333333e+20            2 
   13000    1.2296644   -6.3511662   0.55767134 0.0035748161  0.046197615            3 
   14000    1.2289065   -6.3842057    1.1324435  0.006740735  0.046386586            1 
   15000     1.241599   -6.3111916    1.7293477 0.0096074871  0.047403135            3 
   16000    1.2180643   -6.3289409    2.2743968  0.011845816  0.047717328            2 
   17000    1.2513846   -6.3636184     2.869999  0.014068622  0.047867974            2 
   18000     1.255596   -6.3845939    3.4241207   0.01585241  0.047900885            3 
   19000    1.2474654   -6.3630645    3.9293441  0.017233965  0.047426641            3 
   20000    1.2692182    -6.365584    4.4160524  0.018400218  0.046689708            3 
   21000    1.2221002   -6.3702382    4.9727746  0.019733232   0.04616187            3 
   22000    1.2365047   -6.3971266    5.4427759  0.020616575  0.045650432            3 
   23000    1.2572511   -6.3627319    6.0331326  0.021859176   0.04540724            5 
   24000    1.2459995    -6.372318      6.60601  0.022937534  0.045365533            1 
   25000    1.2669996   -6.3677117    7.1494988  0.023831662   0.04532661            3 
   26000    1.2773874   -6.3446679    7.5715397  0.024267755  0.045186046            2 
   27000    1.2531903   -6.3605533    8.0298594  0.024783516  0.044880325            2 
   28000    1.2553382   -6.3653189    8.5825534  0.025543313  0.044621464            1 
   29000    1.2478747   -6.4085782    9.1739207  0.026361841  0.044544671            2 
   30000    1.2388632   -6.3357103    9.7557552   0.02709932  0.044499736            3 
   31000    1.2284149   -6.2987042    10.320482  0.027743232  0.044566218            2 
   32000    1.2135996   -6.3744259    10.784658  0.028085047  0.044581486            2 
   33000    1.2052323   -6.3506282    11.313554   0.02856958  0.044531432            3 
   34000     1.228381   -6.3570568    11.681413  0.028630914  0.044438202            2 
   35000    1.2191375   -6.3371638    12.299165  0.029283726  0.044300495            2 
   36000    1.2544911   -6.3689386    12.654542   0.02929292  0.044179794            5 
   37000    1.2512252   -6.4013784    13.196726  0.029722356  0.044014959            1 
   38000    1.2512575   -6.3366487    13.710375  0.030066612  0.043883591            5 
   39000    1.2363599   -6.3522892    14.148674   0.03023221   0.04376482            4 
   40000    1.2303852     -6.38156    14.687905  0.030599801  0.043609526            1 
   41000    1.2458408   -6.3637301       15.165   0.03082317  0.043513888            2 
   42000     1.239627   -6.4220082    15.598541  0.030949485  0.043399385            3 
   43000    1.2142475   -6.3790166    16.126607  0.031253115  0.043285961            3 
   44000    1.2154934   -6.3625816     16.76241  0.031746988  0.043209237            2 
   45000    1.2232965   -6.3582178    17.443418  0.032302626  0.043182697            1 
   46000    1.2536565   -6.3938904    17.818604   0.03228008  0.043170509            1 
   47000    1.2150786   -6.3761323     18.26318  0.032381524  0.043133756            3 
   48000    1.2575745   -6.3466308    18.809149  0.032654773  0.043087729            5 
   49000    1.2455435   -6.3706433    19.479451  0.033128318  0.043077136            1 
   50000    1.2260166   -6.3684258    20.095581  0.033492635  0.043112249            2 
   51000    1.2313696    -6.363539     20.48343  0.033469657  0.043151731            3 
   52000    1.2303759   -6.3615294    21.074597  0.033773392  0.043156694            2 
   53000    1.2452069   -6.4175944    21.643482  0.034030632  0.043183485            1 
   54000    1.2285755    -6.361108    22.362225  0.034509606  0.043229471            2 
   55000    1.2349268    -6.403044    22.793674  0.034535869  0.043298338            4 
   56000    1.2416177   -6.3515933    23.619622  0.035148246  0.043394548            2 
   57000    1.2442347    -6.396759      24.0994  0.035233041  0.043498278            1 
   58000    1.2057398   -6.4045078    24.618998  0.035372123  0.043580893            2 
   59000    1.2480106   -6.3718459    25.243436   0.03565457  0.043669424            2 
   60000    1.2456358   -6.3815379    25.957767  0.036052454   0.04378479            1 
   61000    1.2436664   -6.3489362    26.438188  0.036117743  0.043910435            1 
   62000    1.2265306   -6.3627913    26.971943  0.036252611  0.043996202            2 
   63000    1.2553993   -6.3723656    27.207268  0.035988449  0.044050238            3 
   64000    1.2200539   -6.3923059     27.78435  0.036177539  0.044087985            2 
   65000    1.2244062   -6.3948517    28.067864  0.035984441  0.044107784            3 
   66000    1.2097404   -6.4056005    28.739272   0.03628696  0.044118407            2 
   67000    1.2095009   -6.4218021    29.201914  0.036320789  0.044124449            3 
   68000    1.2339168   -6.3939769    29.924067   0.03667165  0.044139674            2 
   69000    1.2374199   -6.4090505    30.412725  0.036730344  0.044164429            2 
   70000    1.2622505   -6.3976385    31.073024  0.036991695  0.044196082            2 
   71000     1.209296   -6.3755175    31.611172  0.037102314  0.044228676            4 
   72000    1.2469342   -6.4011608    32.027707  0.037069105  0.044256031            1 
   73000    1.2481483     -6.38893    32.739569  0.037373937  0.044287033            3 
   74000    1.2053941   -6.3893711    32.967471   0.03712553  0.044305562            1 
   75000    1.1994249   -6.4075227    33.506465  0.037229405   0.04430896            2 
   76000    1.2474635   -6.3816401    34.044895  0.037329928  0.044294339            2 
   77000    1.2204789   -6.4355485    34.398262  0.037227556  0.044272813            1 
   78000    1.2411835   -6.3773636    34.972874  0.037364181  0.044257364            3 
   79000    1.2341794   -6.3597916    35.398876  0.037340586  0.044235269            2 
   80000    1.2006454   -6.3759186    35.760813  0.037250847  0.044201074            1 
   81000    1.2180905   -6.4027821    36.191948  0.037234515  0.044147034            2 
   82000    1.2143193   -6.3991686     36.64411  0.037239949  0.044094057            3 
   83000    1.2221956   -6.4416667    37.054003  0.037202814  0.044038797            1 
   84000    1.2282493   -6.3810659    37.629195  0.037330551  0.043982006            5 
   85000    1.2143545   -6.4028641    38.030409  0.037284715  0.043930085            3 
   86000    1.2170082   -6.4444264    38.498506  0.037304754  0.043871641            2 
   87000    1.2550597   -6.4167376    38.971357  0.037328886  0.043817594            2 
   88000    1.2132572   -6.4126969    39.598284  0.037498375  0.043763712            2 
   89000    1.2174177   -6.3870134    40.047147  0.037497329  0.043719312            1 
   90000    1.2155323   -6.4039263    40.732061  0.037714871  0.043678948            2 
   91000    1.2346808   -6.4247424    41.258583  0.037782585  0.043644497            3 
   92000    1.1993229    -6.413631    41.627038   0.03770565  0.043608906            3 
   93000    1.2160534    -6.445387    42.057276  0.037685731  0.043571935            2 
   94000     1.227164   -6.4073618     42.53634  0.037709521  0.043541095            2 
   95000    1.2247395   -6.3930795    43.113137  0.037818541  0.043507086            2 
   96000    1.2194185   -6.3972069    43.619311  0.037863985    0.0434691            3 
   97000    1.2109947   -6.4071146    44.140568   0.03792145  0.043440737            2 
   98000    1.2230602   -6.4172297    44.318482  0.037685784  0.043400216            5 
   99000    1.2118135   -6.4201182    44.703314  0.037629052  0.043346357            1 
  100000    1.1916732   -6.4049169    45.167232   0.03763936    0.0432881            2 
  101000    1.2133174   -6.4416064    45.523479  0.037560626   0.04323358            1 
  102000    1.2017536   -6.4158922    46.434997  0.037937089  0.043184978            2 
  103000    1.2003195   -6.4500057    46.961243  0.037994533  0.043144088            5 
  104000    1.2117918   -6.4136993    47.403537  0.037983603  0.043117569            2 
  105000    1.2249875    -6.446646    47.822903  0.037954685  0.043084784            2 
  106000    1.2051501   -6.4594925    48.359438  0.038018426  0.043055116            3 
  107000    1.2016997   -6.3790072    48.942864  0.038117495  0.043024221            2 
  108000     1.205017   -6.4386146    49.201592  0.037964191  0.042992549            3 
  109000    1.2064261   -6.4261623    49.839061  0.038103258   0.04294987            1 
  110000    1.1957657   -6.4158281    50.084322  0.037942668  0.042915075            3 
  111000    1.1884825   -6.4363086    50.590404  0.037980783  0.042876035            2 
  112000    1.2198678   -6.4441044    51.166227  0.038070109  0.042835625            2 
  113000    1.2232287   -6.4680222    51.569551  0.038030642  0.042796266            2 
  114000    1.2045281    -6.411098    52.055247  0.038052081  0.042757745            2 
  115000    1.2064167   -6.3951778     52.51815   0.03805663    0.0427168            3 
  116000    1.1993583   -6.4264311    52.810584  0.037938638  0.042678562            4 
  117000    1.2004442   -6.4169056    53.453723  0.038072452  0.042637891            2 
  118000    1.1876357   -6.4195002    54.017855  0.038148203  0.042600452            2 
  119000    1.1909099   -6.4328596    54.530355  0.038186523  0.042567883            3 
  120000    1.2327396   -6.4620469    54.904532  0.038128147  0.042530807            4 
  121000    1.1746144   -6.4414877    55.414293  0.038164113   0.04249576            2 
  122000    1.2021669   -6.4329145    56.010659  0.038258647  0.042460671            4 
  123000    1.2126539   -6.4244644    56.886239  0.038540812  0.042431949            2 
  124000    1.2240321   -6.4247296    57.235748  0.038464884  0.042407984            1 
  125000      1.17744   -6.4669524    57.570979  0.038380653  0.042389441            3 
  126000    1.2039969   -6.4406335    58.434247  0.038646989  0.042375668            4 
  127000    1.1840859    -6.463923    58.837448  0.038607249  0.042361161            3 
  128000    1.2244548   -6.4366419     59.41061  0.038678782  0.042346396            2 
  129000    1.2416883   -6.4661457    59.861754  0.038670384  0.042331907            3 
  130000    1.2055699     -6.44072    60.405497  0.038721472  0.042321727            2 
  131000    1.2067362   -6.4619995    60.718703  0.038625129  0.042308592            2 
  132000    1.1779363   -6.4825647      60.9919  0.038504987  0.042290388            5 
  133000    1.2164251   -6.4660505    61.444532   0.03849908  0.042273414            3 
  134000    1.1846924   -6.3839076    62.028705  0.038575065  0.042254901            2 
  135000    1.1667351   -6.4342849    62.346646  0.038485584   0.04223422            3 
  136000    1.2231463   -6.3992368    63.134995  0.038685658  0.042212331            2 
  137000    1.2401786   -6.4214806    63.535087  0.038646646  0.042194243            3 
  138000    1.1889151   -6.4228026    63.973442  0.038631306   0.04217512            3 
  139000    1.1700169   -6.4220864    64.784733  0.038839768  0.042162834            2 
  140000    1.1788496   -6.4315364    65.103883  0.038752311  0.042149553            1 
  141000    1.1880723   -6.4634633    65.655785  0.038803656  0.042138401            2 
  142000    1.1908856   -6.4430542    66.450848  0.038996977  0.042128621            3 
  143000    1.1842406   -6.4287467    67.272758  0.039203239   0.04212412            2 
  144000    1.2241568   -6.4568557    67.662385  0.039156473  0.042121575            2 
  145000    1.2124795   -6.4569243    67.940959  0.039046528  0.042121628            2 
  146000    1.2039897   -6.5224379    68.006605  0.038816555  0.042118119            3 
  147000    1.1850906   -6.4657294    69.070115  0.039155394  0.042116891            4 
  148000    1.1857578   -6.4608804    70.135782  0.039490868  0.042124096            1 
  149000    1.1893803   -6.4424762    70.618376  0.039495736  0.042136011            1 
  150000    1.2247316   -6.4566274     70.97067   0.03942815  0.042145854            3 
  151000    1.2175099   -6.4547954    71.374073  0.039389665  0.042155163            2 
  152000    1.2143267   -6.4591084     71.86665  0.039400576  0.042162345            3 
  153000    1.1757764   -6.4857469    72.321338  0.039390707  0.042163954            3 
  154000    1.1635782   -6.4459161    72.546842  0.039256949  0.042161661            4 
  155000    1.1972541   -6.4585658    72.875303   0.03918027  0.042157383            2 
  156000    1.2152294    -6.466734    73.539169  0.039283744  0.042151355            4 
  157000    1.2071876      -6.4979    73.505358  0.039015583  0.042144034            1 
  158000    1.2050404   -6.4498721    74.447118  0.039265357  0.042138196           11 
  159000    1.1917016   -6.4739644     74.91648  0.039264402  0.042129811            4 
  160000     1.163854   -6.4305493    75.583751  0.039366537  0.042125333            3 
  161000    1.1994203   -6.4887732    75.711751  0.039188277  0.042119491            2 
  162000    1.2090772   -6.4897663    76.235924   0.03921601  0.042111166            5 
  163000     1.197484   -6.4630643    76.936809  0.039333747  0.042105884            3 
  164000    1.2062321   -6.4548774    77.166712  0.039210727  0.042098048            2 
  165000     1.190809   -6.4426392    77.745764  0.039265537  0.042086858            3 
  166000    1.2074606   -6.4662677    77.964118  0.039138613  0.042076001            3 
  167000     1.204157   -6.4475906    78.289913  0.039066823   0.04205923            3 
  168000    1.2004691   -6.4415575    78.673309  0.039024459  0.042040937            1 
  169000    1.2063897    -6.469725    79.149552  0.039028378   0.04202324            3 
  170000    1.1936886   -6.4713861    80.002781  0.039217049  0.042007441            3 
  171000    1.1582181   -6.4830911     79.70823  0.038844167  0.041989263            2 
  172000    1.1616657   -6.4883589    80.566553  0.039034183  0.041969466            7 
  173000    1.1733411   -6.4664641    81.027469  0.039030573  0.041951055            2 
  174000    1.2001575   -6.4776759     81.44642  0.039006906  0.041928576            3 
  175000    1.1889996   -6.4367145    81.944026  0.039020965  0.041904636            1 
  176000    1.1601948   -6.4761575    81.962605  0.038808052  0.041880046            2 
  177000    1.2117018    -6.415704    82.202404  0.038701697  0.041849862            4 
  178000    1.1931836   -6.4795284    82.480976  0.038614689   0.04181738            4 
  179000    1.1637462   -6.4911126    82.694418  0.038498332  0.041783052            7 
  180000    1.1860102   -6.4929168    83.040036  0.038444461   0.04174576            1 
  181000    1.1846691   -6.4853764    83.294401  0.038349172  0.041705908            1 
  182000    1.1787063   -6.4791381     83.87953  0.038406378  0.041667586            3 
  183000    1.1908348   -6.4325574    84.628277  0.038537467  0.041632293            3 
  184000     1.199637   -6.4794772    85.232288   0.03860158   0.04159883            2 
  185000    1.1977857   -6.4922797    85.199217  0.038378025  0.041562919            2 
  186000    1.1763462   -6.4670132    85.737288  0.038412763  0.041525481            2 
  187000    1.1786244   -6.4519297    86.185691  0.038407171  0.041487987            3 
  188000    1.1799725   -6.4983113    86.686516  0.038424874  0.041450983            2 
  189000     1.188265   -6.5122261    87.139633  0.038421355  0.041415198            2 
  190000    1.1740321   -6.4727962    87.809354  0.038512875  0.041382432            4 
  191000    1.2067451   -6.4872884    88.101406  0.038438659  0.041349274            3 
  192000    1.1741902   -6.4811533     88.48634  0.038405529  0.041319239            2 
  193000    1.1700623   -6.4786613    89.071333  0.038459125  0.041288011            1 
  194000    1.1704426   -6.4803564    89.744539   0.03855006  0.041260376            2 
  195000    1.1640033   -6.4774312    90.608153  0.038721433  0.041236501            1 
  196000    1.1806711   -6.4779637    90.548256  0.038498408  0.041210075            2 
  197000    1.1745121   -6.5109368    90.918871  0.038459759  0.041182705            4 
  198000    1.2013067   -6.4929662       91.283  0.038418771  0.041155433            4 
  199000    1.1693549   -6.4954755    92.017583  0.038533326  0.041129699            1 
  200000     1.192116   -6.4753252    92.642287  0.038600953  0.041103093            2 
  201000    1.1706717   -6.5108641    92.519667  0.038358071  0.041076724            3 
  202000    1.1471102   -6.4925893    93.051395  0.038387539  0.041049333            3 
  203000    1.1646654    -6.459134    93.679029  0.038456088  0.041021541            3 
  204000    1.1575831   -6.4264356     93.98668  0.038393252  0.040994035            2 
  205000    1.1791789   -6.5051114    94.496294  0.038413128  0.040965682            2 
  206000    1.1862968   -6.5268394    94.835916  0.038364043  0.040937968            4 
  207000    1.1879214   -6.4846175    95.595797   0.03848462  0.040908692            4 
  208000    1.1860411    -6.458337    95.803461  0.038382797  0.040880308            3 
  209000    1.1688569   -6.5108153    96.507164   0.03847973  0.040856384            2 
  210000     1.191732   -6.5250096    96.848489   0.03843194  0.040832906            3 
  211000    1.1605996    -6.499819    97.019609  0.038317381  0.040808412            2 
  212000    1.1646952   -6.4812684    98.114807  0.038567141   0.04078418            2 
  213000    1.1889415    -6.452384     98.17703  0.038410419  0.040760793            2 
  214000    1.1652399   -6.5319359    98.882952  0.038505822  0.040736949            5 
  215000    1.1727255   -6.4794773    99.033333  0.038385013  0.040712606            3 
  216000     1.163426   -6.4870174    99.687641  0.038459738  0.040690349            2 
  217000    1.1535171   -6.4960218    100.43969  0.038571309  0.040669691            2 
  218000    1.1540198   -6.4990218    100.85794   0.03855426  0.040651713            3 
  219000    1.1398353   -6.5210849    101.18898  0.038504176  0.040634927            3 
  220000    1.1753248   -6.5117115    101.41773  0.038415808  0.040616146            1 
  221000    1.1729265   -6.4998889    101.87504  0.038414418  0.040595602            2 
  222000    1.1637707   -6.5173651    102.65497  0.038534147  0.040576473            2 
  223000    1.1677216   -6.5113408    103.06706  0.038515344  0.040557745            7 
  224000    1.1808998   -6.5193599    103.59159  0.038538536   0.04053911            2 
  225000    1.1793447   -6.4710071    103.82223  0.038452677  0.040519281            1 
  226000    1.1425246   -6.5012325    103.93886   0.03832554  0.040497738            2 
  227000    1.1631758   -6.5071202    104.21213  0.038257022  0.040475857            6 
  228000    1.1567617   -6.4821373    104.63794  0.038244861  0.040453049            2 
  229000    1.1823272   -6.5135043    104.81456  0.038142127  0.040429032            2 
  230000    1.1348758   -6.5051244    105.11097  0.038083684  0.040402112            2 
  231000    1.1648067   -6.5305035    105.52543  0.038068338  0.040374539            3 
  232000    1.1621803   -6.4611351     106.4298  0.038229096  0.040347276            2 
  233000    1.1638154   -6.5656355    106.06877  0.037935898  0.040319285            6 
  234000    1.1684269   -6.5620285    106.83644  0.038047164  0.040289672            2 
  235000    1.1660453   -6.5183611    107.16285  0.038001011  0.040260948            2 
  236000    1.1586152   -6.5273575    107.63086  0.038005246  0.040231914            1 
  237000    1.1722325   -6.5230925     107.9824  0.037968495  0.040202681            3 
  238000    1.1558892   -6.4779023    108.34463  0.037935796  0.040173576            6 
  239000    1.1515782   -6.4980955    108.63236  0.037877392  0.040142633            2 
  240000    1.1515957   -6.5616036    108.34307  0.037619121   0.04010936            2 
  241000    1.1470467   -6.5223479    109.08128  0.037718285  0.040076336            5 
  242000    1.1425708   -6.5045722    109.43987  0.037685904  0.040045133            1 
  243000    1.1624047   -6.5407617    109.91833    0.0376949  0.040012608            1 
  244000    1.1852676   -6.5116984    110.00933  0.037571493  0.039979355            2 
  245000    1.1561764     -6.50507    110.29792  0.037516299  0.039947057            4 
  246000    1.1738513   -6.5285452    111.15523  0.037654211    0.0399151            3 
  247000    1.1555181     -6.51849    111.41796  0.037590404  0.039882545            4 
  248000    1.1716828   -6.4824355    112.28475  0.037730092   0.03985015            4 
  249000    1.1507595   -6.5539876    112.06485  0.037504968  0.039816354            1 
  250000    1.1564155   -6.5561379    112.34243  0.037447476  0.039783851            6 
  251000     1.143903    -6.546136    113.06759   0.03753904  0.039751765            2 
  252000     1.149884   -6.5414428    113.60235  0.037566915  0.039719244            1 
  253000    1.1600233   -6.5488225    113.36144  0.037339079  0.039685453            2 
  254000    1.1670168   -6.5389273      113.997  0.037400591  0.039652125            2 
  255000    1.1489997   -6.5608083    114.15604  0.037305895  0.039619403            3 
  256000     1.165149   -6.5622429    114.58503  0.037299815  0.039584185            4 
  257000    1.1384984   -6.5450607     114.6392  0.037172245  0.039548522            2 
  258000    1.1686525   -6.5453401    115.09297  0.037174732  0.039513736            1 
  259000    1.1417615   -6.5434189    115.39814  0.037129389  0.039477056            3 
  260000    1.1341984   -6.5516947    116.53579  0.037351216   0.03944158            2 
  261000    1.1346967   -6.4987698    116.38904  0.037161251  0.039406583            1 
  262000    1.1576808   -6.5214496    117.18438  0.037272385  0.039372617            4 
  263000    1.1721923   -6.5286858    117.04695  0.037087118  0.039337706            1 
  264000       1.1496   -6.5439947    117.29854  0.037026054  0.039302753            3 
  265000    1.1241106   -6.5270032    117.66621  0.037001953  0.039267917            3 
  266000    1.1263086   -6.5264759    118.49275   0.03712179  0.039230603            2 
  267000    1.1490882   -6.5439924    118.42096  0.036960348  0.039193475            3 
  268000    1.1698796   -6.5279745    119.14302  0.037046958  0.039157351            1 
  269000    1.1542629    -6.524466     119.6365  0.037062113  0.039122507            2 
  270000    1.1605003   -6.5274655    119.85836   0.03699332  0.039088276            1 
  271000    1.1485395   -6.5399942    120.17117  0.036953005  0.039053678            3 
  272000    1.1424599   -6.4938423    120.72887  0.036988012  0.039019303            3 
  273000    1.1332227   -6.5470873    121.11004  0.036968877  0.038986623            2 
  274000    1.1510456   -6.5589171    121.35167  0.036907441  0.038953412            3 
  275000     1.145792   -6.5461828    121.32318  0.036764599  0.038919507            2 
  276000    1.1458814   -6.5135025    122.33827  0.036937883  0.038884899            5 
  277000    1.1460684   -6.5535316    122.13259  0.036742656  0.038848778            3 
  278000    1.1777427   -6.5827407    122.35274   0.03667648  0.038813164            2 
  279000    1.1463547   -6.5591319    123.01969  0.036744233  0.038778094            4 
  280000    1.1483698   -6.5837102    123.15936  0.036654572  0.038743594            2 
  281000    1.1402407   -6.5871229    123.37833  0.036589065  0.038709429            4 
  282000    1.1568215   -6.5321397    123.88714  0.036609675  0.038675501            3 
  283000    1.1455357   -6.5569163    124.56598  0.036680205  0.038642001            2 
  284000      1.13345    -6.582819    124.91419  0.036653226  0.038608929            5 
  285000    1.1592481   -6.5977013    124.85201  0.036506436  0.038575009            5 
  286000    1.1298138   -6.5596356    125.55202  0.036582757  0.038539878            2 
  287000    1.1487774    -6.553386    126.11826  0.036619703  0.038505477            5 
  288000    1.1379935    -6.563781    126.04149  0.036470339  0.038472149            1 
  289000    1.1259796   -6.6204457    126.58813  0.036501767   0.03843969            2 
  290000    1.1390936   -6.5342016    127.15709  0.036539395  0.038405704            5 
  291000    1.1493415   -6.5055117    128.31303  0.036744854  0.038373541            3 
  292000    1.1407587   -6.5661916    127.97147  0.036521537  0.038341472            3 
  293000    1.1754807   -6.5738297    128.00819  0.036407334  0.038310112            2 
  294000     1.120236   -6.5745176    128.59985  0.036451205  0.038277449            2 
  295000    1.1559878   -6.5375513    129.09065  0.036466284  0.038244269            3 
  296000    1.1214701   -6.5700179     129.3824  0.036425224  0.038212279            3 
  297000    1.1304864   -6.5527718    129.67626  0.036385034  0.038180199            3 
  298000    1.1153116   -6.5167672    130.88912  0.036602102   0.03814901            6 
  299000    1.1307617   -6.5967998    130.98557  0.036506569  0.038118437            5 
  300000     1.138258   -6.5833976    130.89655  0.036360153  0.038089418            3 
  301000    1.1474116   -6.5733863    131.39334  0.036376892  0.038060737            2 
  302000    1.1393958   -6.5749552    132.16047   0.03646812  0.038032361            4 
  303000    1.1133964   -6.5514294    132.88554  0.036547178  0.038005757            4 
  304000    1.1436404   -6.6066138    132.92197  0.036436942  0.037977679            3 
  305000    1.1136178   -6.5691655    133.89343  0.036582903  0.037950928            1 
  306000    1.1290558   -6.5628806    133.76246  0.036427684  0.037925841            2 
  307000     1.129678    -6.573702    134.46607  0.036500018  0.037900413            8 
  308000     1.140184   -6.5869885    134.69397  0.036443173   0.03787421            2 
  309000    1.1352971   -6.5731234    134.95409  0.036395385  0.037848537            3 
  310000    1.1356485   -6.5984719    135.71459  0.036482416  0.037824228            2 
  311000    1.1625727   -6.5725179    136.07046  0.036460467  0.037799501            3 
  312000    1.1086901   -6.6034016    135.82469  0.036277962  0.037773143            4 
  313000    1.1310414   -6.5681547    136.21144  0.036265027  0.037745556            1 
  314000     1.143218   -6.5689868    136.56967  0.036244604  0.037717391            7 
  315000    1.1306913   -6.5982455    136.79731  0.036189765  0.037690116            6 
  316000    1.1409106   -6.6027095    137.29982  0.036207759  0.037663594            4 
  317000    1.1088256   -6.5846928    137.86806  0.036242919  0.037637547            3 
  318000    1.1119531   -6.6039797    137.93854  0.036147417  0.037611064            2 
  319000    1.0975731   -6.5645043    138.52939   0.03618845  0.037584974            3 
  320000    1.1493625   -6.5329199    139.20716  0.036251865  0.037560111            3 
  321000    1.1215401   -6.5775361    139.45581  0.036203481    0.0375337            2 
  322000    1.1256723   -6.5833872    139.72901  0.036161751  0.037506389            3 
  323000    1.1128161   -6.6398966    139.69668  0.036041456  0.037479677            2 
  324000    1.1281725   -6.5972636    140.00161  0.036008646  0.037453108            4 
  325000    1.1235896   -6.5584178    141.06624  0.036170831  0.037427491            4 
  326000    1.1261044   -6.5851324    141.02819  0.036050151  0.037402179            7 
  327000    1.0964654   -6.5938695    140.73788  0.035865921  0.037376456            4 
  328000    1.1190144   -6.5792111    141.37319  0.035917986  0.037350994            4 
  329000    1.1373223   -6.5707774    142.23276  0.036026534  0.037325295            7 
  330000    1.1261638   -6.5862668    142.75907  0.036050271  0.037300559            5 
  331000    1.0940411   -6.6312712     142.7184  0.035931118  0.037274626            5 
  332000    1.1191101   -6.6190435    142.96713  0.035885325  0.037248383            2 
  333000    1.1362768   -6.6086486    143.35736  0.035875216  0.037221648            3 
  334000    1.1574245   -6.6044027    143.40742  0.035780296  0.037195278            1 
  335000    1.1278564   -6.5778983      144.306  0.035897015  0.037168523            2 
  336000    1.1533207   -6.5943296       144.17  0.035756447  0.037141961            3 
  337000    1.1154629   -6.5652188    144.73031  0.035788899  0.037114134            2 
  338000    1.1022302     -6.59956     144.9025  0.035725468  0.037087172            2 
  339000    1.1238873   -6.6064727    145.21493  0.035696885  0.037059965            3 
  340000    1.1010117   -6.5844465    145.37715  0.035631654  0.037030741            3 
  341000    1.1376613   -6.6169575    145.62335  0.035587329  0.037000957            4 
  342000    1.1329255   -6.5877201    146.02796  0.035581861  0.036971612            4 
  343000    1.1040463   -6.6009522    146.35087  0.035556576  0.036941989            2 
  344000     1.114566    -6.599118    146.57942  0.035508581  0.036912855            4 
  345000    1.1139656    -6.623781    146.78627  0.035455621  0.036884247            3 
  346000    1.1182055   -6.5890928    147.16033   0.03544324  0.036856419            3 
  347000    1.1228677   -6.6455732    147.27228  0.035367982  0.036827446            2 
  348000    1.1020026   -6.6011374    148.18588  0.035485123  0.036797765            3 
  349000    1.0952897   -6.6100682    148.89281  0.035552248  0.036769388            3 
  350000     1.127912   -6.5567307    148.90005  0.035452393  0.036741648            4 
  351000    1.1109301   -6.6471124    149.13385  0.035406897  0.036714312            2 
  352000    1.0776505   -6.6608964     149.3192   0.03535019  0.036686907            3 
  353000    1.1229114   -6.6455222    149.90562  0.035388484  0.036659885            2 
  354000    1.1348487   -6.6278234     151.0753  0.035563864  0.036633698            2 
  355000    1.1103351   -6.5867652    151.53979  0.035572721  0.036609177            1 
  356000    1.1204348   -6.6551876    151.57223  0.035480392  0.036584002            5 
  357000    1.0979156   -6.6181009    152.04896  0.035492289   0.03655961            3 
  358000    1.0934377    -6.595669    152.38599    0.0354716  0.036535732            2 
  359000     1.128555   -6.6297592    152.57414  0.035416466  0.036512837            1 
  360000    1.1110495     -6.61109    152.94255  0.035403368  0.036489259            4 
  361000    1.1005423   -6.6316511    153.31659   0.03539164  0.036466213            3 
  362000    1.1142746   -6.6344225    154.17964   0.03549255  0.036443743            2 
  363000    1.0940087   -6.5984682    154.37074  0.035438644  0.036421609            2 
  364000     1.113896   -6.6122425    155.28465  0.035550516  0.036400088            3 
  365000    1.0988879   -6.6126772    155.30971  0.035458838  0.036379387            2 
  366000    1.1165785    -6.612318     156.6243   0.03566127  0.036358601            5 
  367000     1.123419    -6.610636    157.03306  0.035656917  0.036338425            2 
  368000     1.108058   -6.6164747    156.63458  0.035469787  0.036317911            2 
  369000    1.1248458   -6.6067201    156.83114  0.035418054  0.036297193            4 
  370000    1.1156295   -6.6168512    157.42628  0.035456369  0.036278166            2 
  371000    1.0881439   -6.5896902    158.36286  0.035571172  0.036259979            3 
  372000    1.1262748   -6.6515732    158.92218  0.035600847  0.036242618            3 
  373000    1.0859126   -6.6431791    159.72803  0.035685441   0.03622481            2 
  374000    1.0945706   -6.6250499    159.84793  0.035616741  0.036208103            3 
  375000    1.1060503   -6.6212628    159.81012   0.03551336  0.036191479            2 
  376000    1.1151025   -6.6245487    160.54101  0.035580898  0.036175074            3 
  377000    1.0958727   -6.6130371    160.88832  0.035563288  0.036158835            3 
  378000    1.1116317   -6.6064754     161.3187  0.035564087  0.036143323            2 
  379000    1.0975133   -6.5926787    162.15299  0.035653692  0.036127347            1 
  380000    1.1003846   -6.6069191    162.08792  0.035545597  0.036111373            4 
  381000     1.114003   -6.6530862    162.26725  0.035491525  0.036094532            3 
  382000    1.0850053   -6.6207235    163.27085  0.035617551  0.036077601            2 
  383000    1.1018831   -6.6138982    163.09861  0.035487078  0.036060928            2 
  384000    1.1073416   -6.5987043    163.68668  0.035522284  0.036044238            3 
  385000    1.1058886   -6.6445792    164.34725  0.035572997  0.036028023            3 
  386000    1.1028557   -6.6207258    164.72846  0.035563138   0.03601213            3 
  387000    1.1030616   -6.6212539    164.77007  0.035480205  0.035996051            2 
  388000    1.0939041   -6.6165263    165.04013  0.035446762  0.035979866            2 
  389000    1.1033833   -6.6375444    165.75956   0.03550976  0.035964166            1 
  390000    1.0680026   -6.5996399    166.18938  0.035510551  0.035948345            2 
  391000    1.0945957   -6.6191831      165.294  0.035228901  0.035932048            2 
  392000    1.1052459   -6.6055568     165.3399  0.035148788   0.03591431            2 
  393000     1.102348   -6.6586174    166.06873  0.035213896  0.035895892            3 
  394000    1.1115652   -6.6214632    166.30003  0.035173441  0.035877828            2 
  395000    1.0991074   -6.6411242    167.05703  0.035244098  0.035859103            2 
  396000    1.1144112   -6.6480434    166.81336  0.035103821  0.035840452            4 
  397000    1.1096735   -6.6094772    167.98892  0.035262158  0.035822022            2 
  398000    1.0906649   -6.6424663    167.34435  0.035038599  0.035802666            4 
  399000    1.0842694    -6.685663    167.94441   0.03507611  0.035783684            3 
  400000    1.1026681   -6.6042715    168.52727  0.035109848  0.035765027            1 
  401000    1.1082311     -6.60635    168.74005   0.03506651  0.035746787            2 
  402000    1.0945504   -6.6461811    169.24207  0.035083348  0.035728466            6 
  403000    1.0829571    -6.640275    169.83462  0.035118821  0.035709723            4 
  404000     1.102361   -6.6486604    169.97519  0.035060888  0.035690996            3 
  405000    1.0923029   -6.6438793    170.37983  0.035057578  0.035673239            4 
  406000    1.0731328   -6.6567134    170.76503  0.035050294  0.035655519            2 
  407000    1.1164192   -6.6481995    170.93158  0.034998277  0.035637819            2 
  408000     1.069744   -6.6528479    171.10217  0.034947338  0.035620129            2 
  409000    1.1040718   -6.6149864    172.50539  0.035147797   0.03560295            3 
  410000    1.0962981   -6.6621283    172.20715  0.035001453  0.035586159            4 
  411000    1.0764459   -6.6085238     173.0005   0.03507715  0.035568774            4 
  412000    1.0907437   -6.6930697    173.17928  0.035028171  0.035551149            2 
  413000    1.1079293   -6.6273067    173.66798  0.035041966  0.035533467            2 
  414000    1.0805903   -6.6683165    174.17142  0.035058659  0.035516441            1 
  415000    1.0746864   -6.6410975      174.147  0.034969277   0.03549918            6 
  416000    1.1002284   -6.6352597    174.61443  0.034978852  0.035482268            2 
  417000    1.1265673   -6.6568527    174.68656  0.034909385  0.035465814            3 
  418000     1.072497   -6.6356973    174.95402   0.03487919  0.035449159            1 
  419000     1.068668    -6.704056    175.35403  0.034875503  0.035432062            1 
  420000    1.0938895   -6.6914096    175.43342  0.034808218  0.035414522            3 
  421000    1.0900834   -6.6532237    175.74042  0.034786305  0.035396868            3 
  422000    1.0726299   -6.6363314    176.44018  0.034842057  0.035380049            2 
  423000    1.0745533   -6.6788086    177.10932  0.034891512  0.035363468            3 
  424000    1.0856311   -6.6464084    177.87247  0.034959213  0.035347385            3 
  425000    1.0966368   -6.6576686    177.64299   0.03483196  0.035332142            2 
  426000    1.0861068    -6.645476    178.51318  0.034920419  0.035315908            4 
  427000     1.086408   -6.6653713    178.62458  0.034860378  0.035299817            2 
  428000     1.102292   -6.6437733    178.75446  0.034804217  0.035283551            3 
  429000    1.1009505   -6.7030959    179.12552  0.034795167  0.035267348            2 
  430000    1.0575656   -6.6630699    179.88268  0.034860985  0.035251354            4 
  431000    1.0751623   -6.6551677    180.24074  0.034849332  0.035235831            4 
  432000     1.076075   -6.6540283     180.7861  0.034873862  0.035220672            2 
  433000    1.0721484   -6.6945838     180.3842  0.034715974  0.035204769            2 
  434000    1.0449258   -6.6729626    180.99388   0.03475305   0.03518836            2 
  435000    1.0930233   -6.6991193    181.63444   0.03479587  0.035171369            3 
  436000    1.0776104   -6.6661541    181.44116   0.03467912  0.035154239           13 
  437000    1.1143593   -6.6888236    181.32429  0.034577477   0.03513679            2 
  438000    1.0677725   -6.6602824    181.87134  0.034602614  0.035119162            7 
  439000    1.0596265   -6.6439724    182.28139  0.034601631  0.035101421            3 
  440000    1.0831504   -6.7181353    182.49225  0.034562926  0.035083245            4 
  441000    1.0819383   -6.6465277    182.47932   0.03448211  0.035064825            3 
  442000     1.101388   -6.6630849    183.18039  0.034536272  0.035046211            5 
  443000     1.087323    -6.675423    182.78792  0.034384485  0.035027369            2 
  444000    1.0792467    -6.692899    182.73502  0.034297114  0.035007593            3 
  445000    1.0620027   -6.6394519    184.22266  0.034498625  0.034988512            4 
  446000    1.0802583   -6.6556309    184.38731  0.034452039  0.034970536            3 
  447000     1.044956    -6.666406    184.93944  0.034477898  0.034952941            2 
  448000    1.0822918   -6.6865374    184.88597  0.034390992  0.034935038            2 
  449000    1.0834193   -6.6859754    184.23835    0.0341942  0.034916384            3 
  450000    1.1019174   -6.6725739    186.01656  0.034447511  0.034897535            4 
  451000    1.0820764   -6.6706341    185.86305  0.034342766  0.034879155            3 
  452000    1.0543108   -6.7040504    185.49521  0.034198969  0.034860344            2 
  453000     1.084787   -6.7197371    186.11549  0.034237582  0.034841111            4 
  454000     1.046793   -6.6872397     186.7356  0.034275991  0.034822378            3 
  455000    1.0680207   -6.7088188    186.84238  0.034220217  0.034803349            3 
  456000    1.0634396   -6.7043476    186.84618  0.034145866  0.034784108            3 
  457000    1.0901772    -6.698957    187.61299  0.034210976  0.034765105            4 
  458000    1.0598634   -6.7080764    187.79659  0.034169685  0.034746752            2 
  459000    1.0679724   -6.6860922    188.42108   0.03420862  0.034728163            4 
  460000    1.0680476   -6.7374349    187.64706  0.033994033  0.034709251            3 
  461000    1.0631885   -6.6457772    188.69591   0.03410989  0.034689996            2 
  462000    1.0826251     -6.67237    189.26162  0.034138099  0.034671176            8 
  463000    1.0659805   -6.7126636    189.23351  0.034059307  0.034652054            5 
  464000    1.0864788   -6.6417753    189.89478  0.034104666  0.034633959            8 
  465000    1.0927073   -6.6982398    189.89629  0.034031594  0.034615811            2 
  466000    1.0768993   -6.7305045    190.56335  0.034077851  0.034596567            2 
  467000    1.0775095   -6.6799726    190.21983  0.033943581  0.034577878            5 
  468000    1.0849302   -6.6933221    190.77043  0.033969093  0.034558966            2 
  469000    1.0416454   -6.6865608    191.11715  0.033958272  0.034540366            2 
  470000    1.0587059   -6.6985877    191.34467   0.03392636  0.034521994            2 
  471000    1.0506775   -6.6818448    192.54917  0.034067441  0.034504215            3 
  472000    1.0576239   -6.7124458    192.26229  0.033944614  0.034486081            3 
  473000    1.0626468   -6.6887285    192.30701  0.033880728   0.03446764            3 
  474000     1.053132   -6.6616473    193.09017  0.033946936  0.034449205            2 
  475000     1.057458   -6.6786159    193.54661  0.033955545  0.034431498            3 
  476000    1.0435279   -6.6900849    193.22609  0.033828097  0.034413397            3 
  477000    1.0673678   -6.6830169    193.52581  0.033809541  0.034394924            3 
  478000    1.0453568   -6.6834843    193.78936  0.033784755  0.034376147            4 
  479000    1.0650741    -6.691834    193.86501  0.033727385  0.034356927            4 
  480000     1.046863   -6.7180175    194.06861  0.033692467  0.034337253            2 
  481000    1.0729495   -6.7341811     194.4171  0.033682795  0.034317659            4 
  482000    1.0573364   -6.6954835    194.78635  0.033676755  0.034298356            3 
  483000    1.0518405   -6.6725552    195.66937   0.03375938  0.034280085            3 
  484000    1.0718892   -6.7008992    196.38837  0.033813424  0.034261918            1 
  485000     1.039149   -6.7073676    197.13104  0.033871312  0.034243896            2 
  486000    1.0538798   -6.6970171    196.96169  0.033772581  0.034226721            2 
  487000     1.073773   -6.7152268    197.47795  0.033791573  0.034209516            3 
  488000    1.0833918   -6.6960223    197.55037  0.033734695  0.034192099            2 
  489000    1.0454124   -6.7032068    197.34176  0.033630156  0.034174421            4 
  490000    1.0573545   -6.7279872    197.48297  0.033585539  0.034156236            3 
  491000    1.0428935    -6.747955    197.44962  0.033511477  0.034137627            4 
  492000     1.058127   -6.6853515    198.19281  0.033569243  0.034118595            5 
  493000    1.0638484   -6.7047305    198.84131  0.033610769   0.03409996            3 
  494000    1.0575213   -6.6879924    199.13643  0.033592515  0.034081226            2 
  495000     1.041944     -6.69535    199.36654   0.03356339  0.034063018            2 
  496000    1.0657759   -6.6946408    199.38505  0.033498833  0.034044505            3 
  497000    1.0403499   -6.7564643    199.52457  0.033454823  0.034025848            4 
  498000    1.0409185   -6.7060974    199.42893  0.033371642  0.034006495            2 
  499000      1.04734   -6.7541603     199.1159  0.033252488  0.033986637            4 
  500000    1.0573671   -6.7324837    200.41751  0.033402918  0.033967029            5 
  501000    1.0614571   -6.7217831    200.35135  0.033325241   0.03394726            5 
  502000    1.0489865   -6.7131483    200.77491  0.033329169  0.033927533            4 
  503000    1.0592608   -6.7002036    201.38491  0.033363968  0.033908406            3 
  504000    1.0596967   -6.7253567    201.66145  0.033343494  0.033889526            3 
  505000    1.0534721    -6.745038    202.01527  0.033335853  0.033870237            8 
  506000    1.0283395   -6.7213991     202.4371  0.033339443   0.03385138            5 
  507000    1.0484886   -6.7212651    202.95019  0.033358019  0.033832919            2 
  508000    1.0501763   -6.7075202    203.18136  0.033330275  0.033814816            2 
  509000    1.0500068   -6.7550301    203.16244  0.033261697  0.033796309            3 
  510000    1.0619011   -6.7323393    203.34378  0.033226108  0.033777472            1 
  511000    1.0493619   -6.7069912    204.54226  0.033356533  0.033758929            2 
  512000    1.0348744   -6.7282518    204.10692  0.033220527  0.033740283            3 
  513000    1.0306869   -6.7669146    203.70642  0.033090712   0.03372176            3 
  514000    1.0623059   -6.7514815    205.66363  0.033343649   0.03370329            6 
  515000     1.054991   -6.7585228    205.48823  0.033250523  0.033684932            4 
  516000    1.0655366   -6.7686779    204.90778  0.033092342  0.033666673            3 
  517000    1.0589929    -6.730343    205.75477  0.033164857  0.033647854            2 
  518000    1.0641662   -6.7616037    206.28831  0.033186666  0.033629073            2 
  519000    1.0352979   -6.7495184    206.49252  0.033155511  0.033610555            1 
  520000    1.0399113   -6.7083886    206.88223  0.033154204  0.033591943            4 
  521000    1.0567521   -6.7555287    206.53786  0.033035486  0.033573163            2 
  522000    1.0473171   -6.7320599    206.92361  0.033033782  0.033554051            3 
  523000    1.0240493   -6.7462197    207.96546  0.033136626  0.033535505            4 
  524000    1.0312694   -6.7271339    207.50964  0.033000897  0.033516874            4 
  525000    1.0360241    -6.739003    208.33908  0.033069696  0.033498187            1 
  526000    1.0431052   -6.7397068    208.72184  0.033067465  0.033479388            3 
  527000    1.0439312   -6.7864782     208.2161  0.032924746  0.033460729            1 
  528000    1.0448015   -6.7220515    209.38524  0.033046913  0.033442232            4 
  529000    1.0152787   -6.7233981    209.48393  0.032999988  0.033424111            4 
  530000    1.0546715   -6.7245103    208.75179  0.032822608  0.033405788            3 
  531000       1.0441   -6.7510165    209.75373  0.032918036  0.033387225            3 
  532000     1.046708   -6.7603205     209.9556  0.032887781  0.033369472            2 
  533000    1.0548722   -6.7305412     210.7343  0.032947826  0.033351202            2 
  534000    1.0536385   -6.7646115    210.35235  0.032826522  0.033332436            6 
  535000    1.0384785   -6.7449321    210.63607  0.032809357  0.033313068            3 
  536000    1.0206393   -6.7568221    211.28339  0.032848786  0.033293653            4 
  537000    1.0471028   -6.7088413    211.17493  0.032770784  0.033274387            1 
  538000    1.0338761   -6.7362893    211.29404  0.032728321  0.033254903            5 
  539000   0.99948762   -6.7550129    211.56505    0.0327095  0.033235758            4 
  540000    1.0125823   -6.7338642    212.53122  0.032798028  0.033215539            3 
  541000    1.0318011   -6.7516495    212.10071  0.032671089  0.033195796            5 
  542000    1.0393011   -6.7783779    212.22538  0.032629979  0.033176073            4 
  543000    1.0330163   -6.7736395    211.95605  0.032528553  0.033156278            3 
  544000     1.044924    -6.763204    212.91125  0.032615082   0.03313727            4 
  545000    1.0258462   -6.7661199    213.08304  0.032581505  0.033117734            2 
  546000    1.0523595   -6.7615826    213.62284  0.032604218  0.033098441            2 
  547000    1.0332267   -6.7473118    213.93865  0.032592725  0.033079484            2 
  548000    1.0135016    -6.759497    214.35936  0.032597226   0.03306043            2 
  549000    1.0264976   -6.7530155     214.6986  0.032589345  0.033041383            6 
  550000    1.0589313   -6.7573345     214.5385  0.032505833  0.033022236            2 
  551000    1.0283077   -6.7664333    215.27681  0.032558502  0.033003434            3 
  552000    1.0512972   -6.7546457    215.53401  0.032538347   0.03298459            3 
  553000     1.028622   -6.7681107    215.28696  0.032442279  0.032965082            4 
  554000     1.044676   -6.7326005    215.82937  0.032465309  0.032945887            2 
  555000    1.0480066    -6.757628    215.84218  0.032408736  0.032926596            6 
  556000    1.0503073   -6.7211809    216.77824  0.032490744  0.032907099            3 
  557000    1.0462214    -6.775965    215.74715   0.03227815  0.032887286            2 
  558000    1.0562503   -6.7418001    216.87772  0.032389146  0.032867385            2 
  559000    1.0241636    -6.777056    216.41559  0.032262311  0.032847556            2 
  560000    1.0230942   -6.7836961    217.01352  0.032293679  0.032827173            5 
  561000    1.0169704   -6.7977802    216.32051  0.032133171  0.032807254            4 
  562000    1.0245882   -6.7808026    217.16348   0.03220099  0.032787269            4 
  563000    1.0481627   -6.7748343    218.17007  0.032292786  0.032767489            4 
  564000    1.0294101   -6.8178593    217.17296  0.032088203  0.032747159            2 
  565000    1.0285819   -6.7446934    218.51703  0.032229651  0.032727103            3 
  566000      1.00905   -6.8386529    217.75918  0.032061128  0.032706729            2 
  567000     1.041163   -6.7774244    218.32093  0.032087144  0.032685881            3 
  568000    1.0481496   -6.7724876    218.74714  0.032093184  0.032665265            3 
  569000    1.0259681   -6.7569859    219.25612  0.032111323  0.032644698            5 
  570000     1.017761   -6.8036981    219.02463  0.032021145  0.032624293            3 
  571000    1.0282815   -6.7750002    220.00617  0.032108314  0.032604279            2 
  572000    1.0214039   -6.7606232    219.98545  0.032049162  0.032583769            2 
  573000    1.0152373   -6.8140896    219.38457  0.031905842  0.032563109            4 
  574000    1.0159028   -6.7641765    220.01026  0.031941095  0.032542365            4 
  575000    1.0084738   -6.8176781    220.58335  0.031968601  0.032522124            3 
  576000    1.0382242   -6.7719509    220.93982  0.031964673  0.032501969            3 
  577000    1.0061873   -6.7572678    221.27331  0.031957439   0.03248208            2 
  578000    1.0479449   -6.7796124    221.53647  0.031940091  0.032461665            4 
  579000    1.0174488   -6.7967234    221.46488  0.031874623  0.032441456            6 
  580000    1.0165657   -6.7788722    221.67091  0.031849268   0.03242117            1 
  581000    1.0327186   -6.7691921    222.22248  0.031873563  0.032400471            5 
  582000    1.0326206   -6.8142433    221.68407  0.031741705  0.032379699            2 
  583000    1.0483734     -6.79105    222.04753  0.031739212  0.032358722            5 
  584000    1.0383256   -6.7592417    222.38272  0.031732694  0.032337836            4 
  585000    1.0325719   -6.8032998    222.34671  0.031673321  0.032317077            4 
  586000    1.0096912   -6.7604445    223.77263  0.031822047  0.032296346            2 
  587000    1.0287027   -6.8023138    223.50118  0.031729299  0.032275897            4 
  588000    1.0143123   -6.7636187    223.51882  0.031677837   0.03225522            4 
  589000     1.006917   -6.7875163    223.62391  0.031638923  0.032234478            4 
  590000   0.99331828   -6.7906042    224.31451   0.03168284  0.032214049            4 
  591000    1.0145783   -6.8063342    224.63344  0.031674201  0.032193661            5 
  592000   0.99383294   -6.7799663    224.70116  0.031630231  0.032172949            3 
  593000     1.002302   -6.7791195    224.58807     0.031561  0.032152433            4 
  594000    1.0414362   -6.7780056    224.66164  0.031518188  0.032131639            3 
  595000    1.0020947   -6.8188685    225.26302  0.031549443  0.032111102            3 
  596000    1.0189215   -6.7992186    225.51841  0.031532216  0.032090667            5 
  597000    1.0306891   -6.7988222    226.31586  0.031590712  0.032070462            3 
  598000    1.0268592   -6.8191209    226.76275   0.03160016  0.032050424            7 
  599000   0.99129046   -6.8164568    226.09548  0.031454575  0.032030166            3 
  600000    1.0245265   -6.8104843    226.86787  0.031509426  0.032010417            4 
  601000   0.99480795   -6.8129553     226.4809  0.031403342  0.031990693            7 
  602000    1.0135187   -6.8083846    227.74128  0.031525647  0.031971232            5 
  603000    1.0330707   -6.7878361     228.0672  0.031518408  0.031951233            2 
  604000    1.0165567   -6.7998469     228.0934   0.03146984   0.03193158            5 
  605000   0.99756018   -6.8369372    227.86489  0.031386349  0.031911693            6 
  606000    1.0052092   -6.8143232    228.47731  0.031418772  0.031891758            4 
  607000    1.0070826   -6.8232802    228.92699  0.031428747  0.031871872            7 
  608000   0.97930133   -6.7615023    229.38287  0.031439538  0.031852163            4 
  609000    1.0277043   -6.8231652    229.31791  0.031379025    0.0318323            2 
  610000    1.0063669    -6.841384     228.9737   0.03128056  0.031811751            7 
  611000    1.0145221    -6.839071    229.15057  0.031253487  0.031790911            3 
  612000    1.0027784   -6.7853355    229.58279  0.031261273  0.031770542            3 
  613000    1.0197821   -6.8192377    229.49944  0.031198944  0.031750321            4 
  614000    0.9946252   -6.7832758    230.06309  0.031224632   0.03172982            3 
  615000    1.0262884   -6.8478894    229.45106  0.031090929  0.031709094            5 
  616000    1.0264966   -6.7935585    230.81177  0.031224536  0.031688267            6 
  617000   0.99709401   -6.8100083    230.60448  0.031145931  0.031667678            3 
  618000    1.0152985    -6.793695    231.27577  0.031186053  0.031647228            2 
  619000   0.99842389   -6.8086888     230.9277  0.031088812  0.031626817            5 
  620000    1.0105247   -6.7860557    231.60792  0.031130097   0.03160687            7 
  621000     1.014007    -6.820385    231.46019  0.031060143  0.031586763            3 
  622000    1.0071147   -6.8249891    231.56693  0.031024509   0.03156695            4 
  623000    1.0218061   -6.8115821    232.92847  0.031156831  0.031547152            4 
  624000   0.99068587   -6.8106269    232.70221  0.031076684  0.031526963            4 
  625000    1.0257654   -6.8151288    233.57665  0.031143553  0.031507465            3 
  626000    1.0213548   -6.7992466     233.8266  0.031127077  0.031487676            3 
  627000    1.0237152   -6.8305651    233.65518  0.031054649  0.031468092            8 
  628000   0.98217583   -6.8464685    233.55394  0.030991765   0.03144839            2 
  629000    0.9957639   -6.8289394    234.57224  0.031077403  0.031428499            6 
  630000   0.98730082   -6.8119825    234.71099  0.031046427  0.031409211            2 
  631000    1.0088407   -6.7960203    234.93779  0.031027178  0.031390228            4 
  632000    1.0185842   -6.8111224    235.35931  0.031033664  0.031371159            5 
  633000   0.99177117   -6.8644796    235.24055  0.030969003  0.031351654            4 
  634000    1.0070559   -6.8205057    235.58911  0.030965971  0.031331911            4 
  635000   0.98742481   -6.8312711    235.37743  0.030889427    0.0313122            8 
  636000    1.0239102   -6.8104685    235.23823  0.030822619  0.031292399            3 
  637000    1.0229205   -6.8379831    235.76724  0.030843437  0.031272755            3 
  638000   0.99063643   -6.8119174     236.4975  0.030890479  0.031252984            4 
  639000   0.99883229   -6.8211423    236.07399  0.030786906  0.031233182            3 
  640000    1.0041311   -6.8176911    236.42719  0.030784791  0.031213455            3 
  641000   0.98627363   -6.8190862    236.49633  0.030745753  0.031194024            4 
  642000   0.99211197    -6.813975    236.71012  0.030725612  0.031174741            5 
  643000   0.98187815   -6.8286331    237.90925  0.030833236  0.031155173            4 
  644000   0.99012302   -6.8070719    237.69438  0.030757554  0.031135854            4 
  645000    1.0059139   -6.8524298    237.86198  0.030731521  0.031116363            5 
  646000   0.99613507   -6.8314784    238.12652  0.030718075   0.03109673            3 
  647000   0.98972351   -6.8505967    238.79609  0.030756838  0.031077772            4 
  648000     1.004987   -6.8151103    239.24297  0.030766843  0.031058807            1 
  649000    1.0039548   -6.7968504    239.20246  0.030714234  0.031040029            4 
  650000   0.99318585   -6.8215409    239.43854  0.030697249  0.031021122            3 
  651000   0.99070331   -6.8357978    240.21951  0.030750065  0.031002324            5 
  652000   0.99866896   -6.8369362    239.84764  0.030655374  0.030983308            5 
  653000   0.98513529   -6.8540489    240.37374  0.030675567  0.030964246            3 
  654000    1.0171216   -6.8218596    240.87066   0.03069198  0.030945152            3 
  655000    1.0027381   -6.8631281    241.08263   0.03067209  0.030926398            2 
  656000    1.0195813   -6.8332683    240.93147  0.030606132  0.030907573            1 
  657000    1.0187917   -6.7961726    242.08088  0.030705338   0.03088882            5 
  658000   0.98200292   -6.8475402    240.95518  0.030516107  0.030870393            2 
  659000   0.98382528   -6.8305853     242.0371  0.030606614  0.030852259            3 
  660000    0.9761546    -6.828812    242.63535  0.030635776  0.030834098            3 
  661000   0.98315234   -6.8646974    242.60305  0.030585357  0.030815885            2 
  662000   0.96735958   -6.8250766     242.6803  0.030548879   0.03079783            6 
  663000   0.98096839   -6.8679987    243.31479  0.030582553  0.030779836            3 
  664000   0.98892634   -6.8525197    244.00782  0.030623472  0.030761989            7 
  665000   0.98907543   -6.8520484    243.93411  0.030568184  0.030744187            3 
  666000   0.97159872   -6.8446223    244.19805  0.030555311  0.030726654            4 
  667000    1.0093457   -6.8445071    244.32017  0.030524759  0.030708869            2 
  668000   0.95054499   -6.8410348     244.0371   0.03044375  0.030690971            3 
  669000   0.99481717   -6.8462388    245.35075  0.030561878  0.030673039            5 
  670000   0.97727628   -6.8729327    245.81138  0.030573554  0.030655748            3 
  671000   0.98919128   -6.8711301    246.27731  0.030585856  0.030638632            3 
  672000   0.99921581   -6.8442825    245.90471  0.030494136  0.030621233            3 
  673000   0.99097222   -6.8360676    245.01437  0.030338579  0.030603503            2 
  674000   0.99583779   -6.8781179    244.97985  0.030289299  0.030585483            6 
  675000   0.99533434    -6.856936    245.66036  0.030328439  0.030566914            3 
  676000    0.9791433   -6.8738425    245.36062  0.030246625  0.030548279            3 
  677000   0.96073521   -6.8184178    246.20608  0.030306017  0.030529404            3 
  678000   0.97645863   -6.8394208    245.94045  0.030228669  0.030510826            2 
  679000   0.96475537   -6.8733463    245.30839  0.030106577  0.030492146            2 
  680000   0.98159039   -6.8375967    246.53779  0.030212964  0.030473313            4 
  681000   0.99986259   -6.8542121    247.36594  0.030269938  0.030455006            2 
  682000   0.98388343   -6.8852197    247.60642  0.030254939  0.030436459            4 
  683000   0.97257496   -6.8388339    247.59484  0.030209228  0.030418309            2 
  684000   0.98540138   -6.8878503    247.95565  0.030209022   0.03040009            3 
  685000   0.98859428   -6.8565864    248.38222  0.030216816  0.030381709            3 
  686000   0.96270353   -6.8532177    248.21359  0.030152283  0.030363757            2 
  687000   0.98018037   -6.8580867    248.86266  0.030187125  0.030345893            3 
  688000    0.9683362   -6.8324163    249.09005   0.03017079  0.030328028            3 
  689000   0.99087961     -6.87196    248.41284  0.030045094  0.030310018            3 
  690000   0.98657704   -6.8826376    249.08112  0.030082261  0.030292209            4 
  691000   0.98300151   -6.8995582    248.98429  0.030027049    0.0302741            3 
  692000   0.97113359   -6.8755976    249.81717  0.030083956   0.03025631            4 
  693000   0.97396564    -6.870243    249.32197  0.029980996  0.030238337            4 
  694000   0.96044226   -6.8167862    250.23066   0.03004691  0.030220437            3 
  695000   0.97720051   -6.9372375    249.86359  0.029959664  0.030202281            6 
  696000   0.97415247   -6.8716966    250.20897  0.029957971   0.03018423            2 
  697000   0.96104891   -6.8567345    251.35114  0.030051547   0.03016715            4 
  698000   0.94800456   -6.8791074    251.24252  0.029995525  0.030149672            2 
  699000   0.99338931   -6.8638412    251.72475  0.030010104  0.030132464            2 
  700000    1.0043683   -6.8648976     252.6954  0.030082786  0.030115391            6 
  701000    0.9841708    -6.893221    252.18436   0.02997912   0.03009811            3 
  702000   0.97730865   -6.8763746    252.88294  0.030019343  0.030080776            5 
  703000   0.95660391   -6.8745581    252.75847  0.029961885  0.030063844            6 
  704000   0.97945241   -6.8922122    253.91082  0.030055731  0.030047266            3 
  705000    0.9801855   -6.8611036    254.06795  0.030031673   0.03003052            5 
  706000   0.97116038      -6.8624    254.10551  0.029993568  0.030014173            3 
  707000    0.9675522   -6.8957374    254.42935  0.029989315  0.029997845            3 
  708000   0.98189903   -6.8693329    254.38557  0.029941805   0.02998138            3 
  709000   0.96722579   -6.8792695    254.32013  0.029891882  0.029964782            4 
  710000   0.94557231   -6.8785888    254.97049  0.029926114  0.029948102            6 
  711000   0.97848007   -6.9141087    254.46692  0.029825002  0.029931164            3 
  712000   0.98123736   -6.8977608    255.04117  0.029850324  0.029914355            3 
  713000   0.95405503   -6.8892849    254.90143  0.029792126  0.029897282            9 
  714000    0.9701632    -6.874496    255.69371   0.02984287  0.029880134            2 
  715000   0.97604685   -6.8648098    255.28055  0.029752978  0.029863138            6 
  716000    0.9843747   -6.8939989    256.17249  0.029815234  0.029846244            4 
  717000   0.95808324   -6.9040021    255.87212   0.02973874  0.029829045            5 
  718000   0.95930619    -6.932224    255.71243  0.029678787  0.029811855            4 
  719000   0.96813492   -6.9095284    256.02462  0.029673693  0.029794597           15 
  720000   0.97354061   -6.8967849    256.68817  0.029709279  0.029777257            4 
  721000   0.96910654   -6.9089744    256.67844  0.029666949  0.029759826            3 
  722000   0.97881682   -6.9099298    256.97811  0.029660447  0.029742683            5 
  723000   0.99507227   -6.8747623    257.91311  0.029727191  0.029725644            5 
  724000   0.96627775   -6.9114404    257.97425  0.029693169  0.029708754            3 
  725000   0.95862312   -6.8560426    258.31259  0.029691102  0.029691753            6 
  726000   0.94526227   -6.8782623    258.22065  0.029639653  0.029674764            2 
  727000    0.9668591   -6.8942799    258.64111  0.029647079  0.029658138            2 
  728000   0.97021331   -6.8944424    258.87744  0.029633407  0.029641652            4 
  729000   0.95855571   -6.9122643    259.47626  0.029661209  0.029625374            7 
  730000   0.95075113   -6.8840578     259.8609  0.029664487  0.029608918            4 
  731000   0.94667155   -6.8922468    259.67941  0.029603216  0.029592765            3 
  732000   0.98141302    -6.908513     260.4607  0.029651719   0.02957637            4 
  733000   0.95922006   -6.9254995    260.11702  0.029572194  0.029560058            7 
  734000   0.96786383   -6.8962257    260.90193  0.029621019  0.029543525            5 
  735000    0.9497944   -6.9206994    260.09912  0.029489696  0.029527101            2 
  736000   0.95118961   -6.8956117    260.81437  0.029530613  0.029510447            4 
  737000   0.93586636   -6.9193904    261.26136  0.029541085  0.029494285            3 
  738000   0.96398917   -6.9104101    261.40317   0.02951707   0.02947805           10 
  739000   0.96017023   -6.9052329    261.94817  0.029538585  0.029461863            4 
  740000   0.95868082   -6.9203459    261.71448  0.029472352  0.029445769            6 
  741000    0.9486422    -6.911554    261.96517   0.02946077  0.029429147            3 
  742000   0.95898622   -6.9179234    261.76659  0.029398763  0.029412757            3 
  743000   0.96584858   -6.9213963    262.95578  0.029492572  0.029396506            3 
  744000    0.9656779    -6.911476    262.09774  0.029356826  0.029379999            3 
  745000   0.95874624   -6.9043487    262.61951  0.029375784  0.029363464            4 
  746000   0.93370949   -6.9122953    263.19767  0.029400991  0.029346972            3 
  747000   0.94978538   -6.9267989     262.9769  0.029337004  0.029330408            3 
  748000   0.95412155   -6.8950589    263.59143  0.029366247  0.029314066            5 
  749000   0.94705779   -6.9340591    263.09506  0.029271814  0.029297335            2 
  750000   0.94835347   -6.9239594    263.02671   0.02922519  0.029280728            5 
  751000   0.95274914   -6.8934951    263.95584  0.029289375   0.02926404            2 
  752000   0.96058497   -6.8959816    263.31998  0.029179962  0.029247413            3 
  753000   0.95569731   -6.8869095    263.26853  0.029135517   0.02923063            4 
  754000   0.94132545   -6.9379326    264.29057  0.029209833  0.029213878            3 
  755000   0.96249245   -6.9334593    264.48114  0.029192179  0.029196747            3 
  756000   0.94722074    -6.929463    264.72131  0.029180039  0.029179802            3 
  757000   0.95101995   -6.9404469    263.96925  0.029058702  0.029162415            3 
  758000   0.93662679   -6.9259244    264.17258  0.029042719  0.029145125            3 
  759000   0.96310972   -6.9248229    264.27288  0.029015467  0.029128313            3 
  760000   0.92711232   -6.9566245    264.80106  0.029035204  0.029111381            3 
  761000   0.97641826   -6.9101594    265.14673  0.029034903   0.02909438            3 
  762000   0.94993292   -6.9118163    265.31776  0.029015503  0.029077579            8 
  763000   0.92975636   -6.9331815    265.94505  0.029045986  0.029060697            5 
  764000   0.95435678   -6.9148241    265.99794  0.029013737  0.029043948            6 
  765000   0.93798916   -6.9075333    266.17279  0.028994858   0.02902727            3 
  766000   0.93133002   -6.9197018    266.24449  0.028964806  0.029010411            3 
  767000    0.9541473   -6.8972795    267.14358  0.029024726  0.028993849            7 
  768000   0.98229782    -6.920653    267.32471  0.029006587  0.028977187            3 
  769000   0.95587987   -6.9146826    266.56834  0.028886903  0.028960215            8 
  770000    0.9518114    -6.948177    266.48437  0.028840299  0.028943071            4 
  771000   0.96018977   -6.8981128    267.06149  0.028865271  0.028926077            5 
  772000   0.94907247   -6.9483741    267.62522  0.028888733    0.0289089            3 
  773000   0.94335609   -6.9429786    267.16315  0.028801547  0.028891744            4 
  774000   0.96930468   -6.9583262    266.90304  0.028736331  0.028874578            5 
  775000   0.94180325   -6.9656762    267.09386   0.02871977   0.02885726            4 
  776000   0.93423262   -6.9682389    267.37638  0.028713099  0.028839628            3 
  777000   0.94106795   -6.9078716    268.19258  0.028763683  0.028822446            3 
  778000   0.96034851   -6.9334332    268.63107  0.028773679    0.0288053            2 
  779000   0.94532736   -6.9444178    268.40453  0.028712508  0.028788035            2 
  780000   0.92941095   -6.9481755     269.0319  0.028742724   0.02877069            6 
  781000   0.91381917    -6.939094    268.91276   0.02869321  0.028753634            3 
  782000   0.94026323   -6.9181689    268.95177  0.028660675  0.028736742            4 
  783000     0.929971   -6.9540736    269.51525  0.028684041  0.028719628            2 
  784000   0.94513398    -6.968967     268.6398  0.028554401  0.028702504            9 
  785000     0.953905   -6.9197746    270.55784  0.028721639  0.028685695            5 
  786000   0.93715633   -6.9731451     270.1234  0.028639037  0.028668995            7 
  787000   0.94823993   -6.9480253    269.77714  0.028565982  0.028652163            6 
  788000   0.94090413   -6.9630265    270.16081  0.028570305  0.028635521            5 
  789000   0.93627683   -6.9461319    271.27175  0.028651431  0.028618979            4 
  790000   0.91198917   -6.9645286    272.13595  0.028706323   0.02860243            4 
  791000   0.94063627   -6.9592341    271.00104  0.028550467  0.028586116            5 
  792000   0.95134233   -6.9149594    272.41041  0.028662712   0.02856968            3 
  793000    0.9429594   -6.9377487    272.06772  0.028590555  0.028553313            5 
  794000   0.92985761   -6.9767882     272.6993  0.028620834  0.028536968            4 
  795000   0.93181772   -6.9511501    272.17094  0.028529448  0.028520767            5 
  796000   0.94301235   -7.0017045    272.87698  0.028567523  0.028504229            4 
  797000   0.93752066   -6.9637199    272.03485  0.028443627  0.028487657            3 
  798000   0.93111652   -6.9381663    272.52775  0.028459456  0.028470976            4 
  799000    0.9337669   -6.9096432    273.72412  0.028548615  0.028454513            3 
  800000   0.94560799   -6.9325757    272.38423  0.028373357  0.028437825            3 
  801000   0.93870005       -6.971     272.5726  0.028357532  0.028420838            4 
  802000   0.93760102   -6.9547709    272.57393  0.028322312  0.028403719            6 
  803000   0.95233558   -6.9506076    273.11564  0.028343259  0.028386778            4 
  804000   0.91680687   -6.9639147    272.94194  0.028290002  0.028369704            4 
  805000   0.94252091   -6.9485951    273.44151  0.028306575  0.028352695            3 
  806000   0.94300874   -6.9270974    273.92648  0.028321597  0.028335765            2 
  807000   0.91719733   -6.9539518    273.38809  0.028230906  0.028318811            4 
  808000    0.9523419   -6.9598959     273.8745  0.028246132  0.028301587            2 
  809000   0.92841103   -6.9425788    274.48047  0.028273637  0.028284591            2 
  810000   0.91574048   -6.9846159    273.64415   0.02815269   0.02826767            7 
  811000   0.92663387   -6.9815967    273.75722  0.028129595  0.028250623            8 
  812000   0.93384521   -6.9726054    274.23359  0.028143841  0.028233506            7 
  813000   0.92845116   -6.9562035    274.79116  0.028166376  0.028216372            4 
  814000   0.93572838   -6.9774286      274.655  0.028117834   0.02819907            8 
  815000   0.93878008   -6.9913125    274.69636  0.028087563  0.028181809           12 
  816000   0.93960244   -6.9819375     275.3176  0.028116585  0.028164351            6 
  817000   0.94364008   -6.9361723    275.68974  0.028120128  0.028147221            2 
  818000   0.93929355   -6.9844269    274.36981  0.027951284  0.028129972            3 
  819000   0.93974521   -6.9869202    275.98966  0.028081975  0.028112816            5 
  820000   0.92006507   -6.9824065    275.51107  0.027999092  0.028095684            7 
  821000   0.90996581   -7.0030952    276.00263  0.028014883  0.028078564            4 
  822000   0.92619013   -7.0050344    275.21544  0.027900998  0.028061436            7 
  823000   0.95226049   -6.9811983    277.06103  0.028053973   0.02804425            2 
  824000   0.93017726   -6.9895817    276.25128  0.027938034  0.028026858            8 
  825000   0.92515217    -6.968954    276.07639  0.027886504  0.028009434           10 
  826000   0.91199812   -6.9728665    276.16031   0.02786121   0.02799211            2 
  827000   0.92521231   -7.0036455    276.95517  0.027907615  0.027974695            7 
  828000   0.94585164   -6.9936832    276.38711  0.027816738  0.027957267            3 
  829000   0.91579973   -6.9955129    277.01937   0.02784674  0.027939745            6 
  830000   0.92045365   -6.9938712    276.85818  0.027797006  0.027922273            4 
  831000    0.9352076   -6.9783048    277.84018  0.027862031  0.027905026            2 
  832000   0.92761208   -6.9873805    278.16825  0.027861403  0.027887724            2 
  833000   0.93108254   -6.9725126    278.21313  0.027832446  0.027870599            4 
  834000   0.91999553   -6.9897846    277.84297  0.027762087  0.027853531            4 
  835000   0.90688921   -6.9705538    278.13733  0.027758216  0.027836379            3 
  836000   0.89195674   -6.9791994    279.10254  0.027821226  0.027819433            5 
  837000   0.92439052   -6.9716142    279.08218  0.027785959  0.027802753            4 
  838000   0.92969891   -6.9759834    278.66352  0.027711169  0.027786177            4 
  839000   0.90289877   -6.9961342     279.6632  0.027777433  0.027769415            4 
  840000   0.90054473   -6.9788657    280.10006  0.027787704  0.027752592            8 
  841000   0.92070652   -7.0146777    279.13002  0.027658543  0.027735836            4 
  842000   0.89682728    -6.985376    281.08373  0.027819055  0.027719175            4 
  843000   0.90418711   -6.9989271     280.0791  0.027686744  0.027702528            4 
  844000   0.91352695   -6.9865704    280.94795  0.027739727  0.027685892            8 
  845000   0.88919198   -7.0145139    280.77944   0.02769028  0.027669259            3 
  846000   0.92711312   -7.0127286    280.03424  0.027584145  0.027652547            4 
  847000   0.89642104   -6.9984261    280.24862   0.02757267  0.027635664            2 
  848000   0.92240852    -7.006049     280.9252  0.027606643  0.027618737            7 
  849000   0.90273613   -7.0097895    280.67118  0.027549193  0.027601567            3 
  850000   0.91310391   -7.0037963    280.92225  0.027541397  0.027584581            7 
  851000   0.91593562   -7.0086255    280.82687  0.027499694  0.027567653            2 
  852000   0.90359537   -6.9919299    280.87371  0.027471998  0.027550551            3 
  853000   0.90823448   -6.9904895    281.23502   0.02747509  0.027533451            5 
  854000   0.92890806   -6.9861278    281.13636   0.02743329  0.027516313            2 
  855000   0.90667329    -6.987472    281.14403  0.027401952  0.027499054            2 
  856000   0.91961142   -7.0034893    281.78665  0.027432501  0.027481925            5 
  857000   0.90774758   -6.9978558    282.45904  0.027465873  0.027464882            4 
  858000   0.91487619   -7.0060077    281.51696  0.027342362  0.027447637            3 
  859000   0.92702185   -7.0254237    282.17748   0.02737461  0.027430407            4 
  860000   0.92354886   -7.0114426    281.73835  0.027300228  0.027413367            6 
  861000   0.90739182   -7.0029513    282.69177  0.027360798   0.02739634            5 
  862000   0.88963669   -7.0295948    282.55212  0.027315557  0.027379285            7 
  863000   0.89444367   -6.9930325    282.77376  0.027305307   0.02736233            4 
  864000   0.89712466   -7.0167457    282.99065  0.027294623  0.027345283            6 
  865000   0.91090978   -6.9957326    283.01873  0.027265774  0.027328263            3 
  866000   0.90895261   -6.9799079    284.12539  0.027340781  0.027311474            4 
  867000   0.91187847   -7.0286195    283.04732  0.027205624  0.027294581            5 
  868000   0.92413468   -6.9944845    283.70036  0.027236978  0.027277725            2 
  869000   0.91649076   -7.0282269    284.69222   0.02730075  0.027260834            6 
  870000   0.89750265   -6.9894524    284.52409  0.027253266  0.027243919            3 
  871000   0.90280894   -7.0316998    284.43767  0.027213707  0.027227275            3 
  872000   0.90563645   -7.0306536    284.94482  0.027230965  0.027210411            4 
  873000   0.90002001   -6.9903621    284.51932  0.027159156    0.0271934            4 
  874000   0.90261891   -7.0520611    284.19654  0.027097305  0.027176293            5 
  875000   0.90575327   -7.0184176    285.35259  0.027176437  0.027159405            2 
  876000   0.90556031   -7.0419873    284.60634  0.027074424  0.027142511            3 
  877000   0.91465458   -7.0140652    285.89105  0.027165626  0.027125612            4 
  878000   0.88784797   -7.0363299    285.18703  0.027067865  0.027108762           10 
  879000   0.91372766   -7.0359865    285.84832  0.027099765  0.027091776            2 
  880000   0.91276757   -7.0343601     285.3091  0.027017907  0.027074824            4 
  881000   0.90808899   -7.0232193    285.64081  0.027018616   0.02705767           11 
  882000   0.90560928   -7.0287356    286.12042  0.027033297  0.027040645            4 
  883000   0.91591962   -7.0352224    285.94534  0.026986159  0.027023754           12 
  884000   0.90446541   -7.0021778    286.23763  0.026983185  0.027006988            2 
  885000   0.89470107    -7.003084    286.81361  0.027006931  0.026990233            3 
  886000   0.91903424   -7.0224247    287.43481  0.027034877  0.026973538            7 
  887000   0.91027183   -7.0448729     287.0026  0.026963792   0.02695682            3 
  888000   0.89094702    -6.973066    287.29664  0.026961021  0.026940226            6 
  889000   0.90264247   -7.0308672     287.2019  0.026921813  0.026923451            3 
  890000    0.9042777   -7.0243374    287.64714  0.026933252  0.026906698            4 
  891000    0.9061523   -7.0272118    287.22445  0.026863491  0.026890086            3 
  892000   0.90078527   -7.0311547    288.56513  0.026958626  0.026873468            4 
  893000   0.89255209   -7.0842102    287.90126  0.026866486  0.026856726            3 
  894000    0.9194737   -7.0392682    287.89694   0.02683603  0.026840064            7 
  895000   0.89062389   -7.0284507    288.46862  0.026859276  0.026823338            5 
  896000   0.89736273   -7.0569885    289.22087  0.026899262  0.026806702            4 
  897000   0.89367542   -7.0544971    288.74226   0.02682481  0.026790115            7 
  898000   0.89477717   -7.0422588    288.89121  0.026808761  0.026773574            5 
  899000   0.90768616   -7.0536603    288.87149  0.026777112  0.026757044            8 
  900000   0.89391279   -7.0261899    288.08869  0.026674878  0.026740409            7 
  901000   0.89247608   -7.0412695    289.63765  0.026788536  0.026723579            3 
  902000   0.90400888   -7.0810127    289.61504  0.026756748  0.026706935            4 
  903000   0.90707812   -7.0207168    288.77379  0.026649482  0.026690036            3 
  904000   0.88168808   -7.0408171    288.94147   0.02663546  0.026673007            6 
  905000   0.90342596   -7.0436409    288.69394  0.026583236  0.026656034            4 
  906000   0.88499355   -7.0532995    289.38082  0.026617073    0.0266389            5 
  907000   0.87107127   -7.0278127    289.93983  0.026639088  0.026621739            3 
  908000   0.89769399    -7.041708    289.48005  0.026567552  0.026604626            7 
  909000   0.89349237   -7.0184304    289.34146  0.026525619  0.026587322            3 
  910000   0.91311405   -7.0424997    289.08338  0.026472837  0.026570044            5 
  911000   0.88612485   -7.0354054    289.63489  0.026494227  0.026552504            4 
  912000   0.87301321    -7.020545    289.92056  0.026491279   0.02653507            3 
  913000   0.89510454   -7.0712915    289.59813  0.026432834  0.026517712            4 
  914000   0.89766838   -7.0378638    290.59619  0.026494911  0.026500522            2 
  915000   0.88337597   -7.0255361    290.00887  0.026412465  0.026483385            3 
  916000    0.9207132   -7.0610469    289.46824  0.026334446  0.026466083            5 
  917000   0.87739351    -7.027045     290.0667  0.026360114  0.026448682            5 
  918000   0.89097643   -7.0376108     291.1053  0.026425681  0.026431464            3 
  919000   0.88686513   -7.0220582    292.07693  0.026485032  0.026414467            4 
  920000   0.89711187   -7.0440644    291.41223  0.026396035  0.026397439           16 
  921000    0.8507917   -7.0483571    291.60517  0.026384833  0.026380314            2 
  922000   0.88967495   -7.0645985    290.99498  0.026301064  0.026363007            4 
  923000   0.88406204   -7.0796587      291.352  0.026304803  0.026345566            6 
  924000   0.88216038   -7.0529401    291.19869  0.026262508  0.026328146           11 
  925000   0.88522292   -7.0542299    292.47155  0.026348788  0.026310779           10 
  926000   0.89193494    -7.060247    291.16738  0.026202968  0.026293513            3 
  927000   0.88114336   -7.0562035    292.18436  0.026266124  0.026276236            3 
  928000   0.87376389   -7.0944659    291.75936  0.026199656   0.02625889            7 
  929000   0.88554954   -7.0563789     292.2669  0.026216981  0.026241625            3 
  930000   0.87947943   -7.0836619     291.5227  0.026122106  0.026224296            5 
  931000   0.85908899   -7.0951862    291.79807  0.026118696  0.026206798            2 
  932000   0.87382318   -7.0674878    292.46692  0.026150476  0.026189605            5 
  933000   0.87208799   -7.0455132    293.47226  0.026212241  0.026172513            5 
  934000   0.87572772   -7.0672996    292.99641  0.026141721  0.026155676            7 
  935000   0.88268084   -7.0596742     292.3417   0.02605541  0.026138532            5 
  936000   0.86120628   -7.0602755    293.26537  0.026109809  0.026121567            5 
  937000   0.88801013   -7.0807124    293.04377  0.026062235  0.026104573            2 
  938000   0.87801686   -7.0932752    293.67955  0.026090934  0.026087555            3 
  939000   0.88747381   -7.0800266    293.18067  0.026018874  0.026070679            4 
  940000   0.88544737   -7.0804406    293.71813  0.026038841  0.026053763            6 
  941000   0.86077765   -7.0839895    294.19569  0.026053462  0.026036968            9 
  942000   0.87647923   -7.0805125    294.58286  0.026060055  0.026020172            7 
  943000    0.8609096   -7.0940487    293.99276  0.025980272  0.026003219            4 
  944000   0.88631827   -7.0679821    294.67517  0.026012992  0.025986333            4 
  945000   0.88391856   -7.0607358    293.99634  0.025925603  0.025969487            3 
  946000   0.87615585   -7.0869398    294.84845   0.02597326   0.02595268            2 
  947000   0.89194037   -7.0768526    294.69037  0.025931923  0.025935794            4 
  948000   0.87698841    -7.095729    295.32856  0.025960668  0.025918734            5 
  949000   0.86437621   -7.0534602    295.39624  0.025939255  0.025901783            3 
  950000    0.8732132   -7.0700506    294.77888  0.025857796  0.025884723            4 
  951000   0.88023065   -7.0798535    295.48304   0.02589231  0.025867862            9 
  952000   0.86426616   -7.1116569    295.18737   0.02583923  0.025851139            4 
  953000   0.88391409   -7.0750207    295.12604  0.025806754  0.025834416            7 
  954000   0.89099649   -7.0975444    295.45182   0.02580816  0.025817708            3 
  955000    0.8734993   -7.0837455    296.02121  0.025830821   0.02580087            6 
  956000   0.86961309   -7.0674169    295.82664  0.025786841  0.025784003            4 
  957000   0.86537862    -7.093468    296.23872  0.025795779  0.025767267            5 
  958000   0.85303097   -7.0882015    296.02888  0.025750599  0.025750455            7 
  959000   0.86909513   -7.0807246    296.09435  0.025729436  0.025733601            4 
  960000   0.85477081   -7.1024588    296.02706  0.025696794  0.025716765            4 
  961000   0.87277364   -7.0898597    296.95148  0.025750215  0.025699913            3 
  962000   0.85612774   -7.0761061    297.28985  0.025752759  0.025683072            5 
  963000   0.88587905   -7.1209128    296.03939  0.025617808  0.025666282           12 
  964000   0.86874588   -7.0726925    296.50532  0.025631511  0.025649417            6 
  965000   0.85583247   -7.0950155    297.29712  0.025673326  0.025632549            6 
  966000   0.86915452   -7.0746192    296.33045  0.025563359  0.025615654            9 
  967000   0.86859195   -7.1146947    296.83317  0.025580245  0.025598777            2 
  968000   0.87251105   -7.0945928    297.99515  0.025653852  0.025581848            4 
  969000   0.87773903   -7.1345202     297.1349  0.025553397  0.025564868            7 
  970000     0.870504    -7.114849    298.21279  0.025619655  0.025548033            9 
  971000   0.86190326   -7.1245599    297.89091  0.025565646   0.02553121            4 
  972000   0.87211275   -7.1031821    297.94251  0.025543768  0.025514546            5 
  973000   0.85703524   -7.1179329    296.84468  0.025423491  0.025497701            4 
  974000   0.84975071   -7.0891931    298.48558  0.025537781  0.025480773            4 
  975000   0.86235433   -7.1047769     298.0407  0.025473564  0.025464012            9 
  976000   0.87087901   -7.1121509     298.5509  0.025491027  0.025447218            4 
  977000   0.86370668   -7.0888471    298.41053  0.025452962  0.025430339            4 
  978000   0.86338763   -7.1238433    297.64787  0.025361952  0.025413566            5 
  979000   0.86241366   -7.1034732     299.1413  0.025463169  0.025396736            3 
  980000   0.85182731    -7.093051    298.67753  0.025397749  0.025380088           10 
  981000   0.85716715   -7.0700719    299.49246  0.025441086   0.02536345            5 
  982000   0.85828928    -7.112503    298.91151  0.025365878  0.025346683            7 
  983000   0.86454008   -7.0856234    299.06743  0.025353292  0.025329899            8 
  984000   0.86609524   -7.1004808    299.51587  0.025365504  0.025313202            9 
  985000   0.87693103    -7.093068    299.37666  0.025327974  0.025296537           10 
  986000   0.84821199   -7.1128172    299.42803  0.025306628  0.025279879            7 
  987000   0.87056721   -7.0847506    299.43968  0.025281972  0.025263284            4 
  988000   0.87282268   -7.1047708    300.42965  0.025339883  0.025246707           19 
  989000   0.85018037   -7.1309637    300.46674  0.025317387  0.025230032           11 
  990000   0.85926842   -7.1408204    300.55925    0.0252996  0.025213442            3 
  991000   0.87587224   -7.1184469    301.24621  0.025331837  0.025196961            3 
  992000   0.84768331   -7.1092348    301.03679  0.025288709  0.025180565            5 
  993000   0.85690825   -7.1083556    300.63492  0.025229516   0.02516423            8 
  994000    0.8731639   -7.1268104    301.25501  0.025256121  0.025148021            8 
  995000   0.85650784   -7.1140843    302.20259  0.025310099  0.025131835            6 
  996000   0.83192847   -7.1094276    301.91834  0.025260905  0.025115698            6 
  997000    0.8616517   -7.1125134    302.17178  0.025256752  0.025099552            5 
  998000   0.83786535   -7.1052494    301.83403  0.025203242  0.025083353            3 
  999000   0.83228879   -7.0850522    301.58613  0.025157335  0.025067195            9 
 1000000   0.84105316   -7.0823751    301.34191  0.025111826  0.025050697            4 
 1001000   0.84614721   -7.1235857    301.99796  0.025141355  0.025034316            7 
 1002000   0.86270378   -7.1106502    301.74672   0.02509537   0.02501784            6 
 1003000   0.83865225   -7.1731436    302.05839  0.025096244  0.025001328            3 
 1004000   0.85273073    -7.125396     302.3039  0.025091625  0.024984799            3 
 1005000   0.85632173   -7.1276844    301.27248  0.024981135  0.024968124            5 
 1006000   0.87382947   -7.1424637    301.86328  0.025005242  0.024951498            5 
 1007000   0.85886418   -7.1610784    301.82427  0.024977182  0.024934829            3 
 1008000   0.84927067   -7.1408056    302.25877  0.024988324  0.024918214            6 
 1009000   0.85453103   -7.1016158    302.87777  0.025014682  0.024901702            5 
 1010000   0.83975924   -7.1238806    302.95702  0.024996454  0.024885234            4 
 1011000   0.85806764    -7.156447    302.44344  0.024929396   0.02486889            5 
 1012000   0.85745489   -7.1239205    302.34675  0.024896801   0.02485236            5 
 1013000   0.85017359   -7.1624272    303.40826  0.024959547  0.024835911            6 
 1014000   0.86471338   -7.1290949    303.11938  0.024911192   0.02481961            5 
 1015000   0.86695237   -7.1153107    303.41836  0.024911195  0.024803417            6 
 1016000   0.83964555   -7.1337778    303.69504   0.02490937  0.024787307            4 
 1017000   0.85485191    -7.138757    303.84201   0.02489692  0.024771048            5 
 1018000   0.84150224   -7.1288076    303.76716  0.024866336  0.024754763            4 
 1019000    0.8581246   -7.1305031    304.21241  0.024878346  0.024738601            6 
 1020000   0.86412777   -7.1302173    304.14258   0.02484825  0.024722354            3 
 1021000   0.83498718   -7.1550247    304.30014  0.024836773  0.024706111            8 
 1022000   0.86000443   -7.1367345    304.58215  0.024835466  0.024689892            4 
 1023000   0.84612902   -7.1453668     304.7554  0.024825301  0.024673822            6 
 1024000   0.82723955   -7.1992693    304.59193  0.024787755  0.024657644            5 
 1025000   0.85062716   -7.1361105    305.36796  0.024826664    0.0246414            4 
 1026000   0.84284011    -7.126098    304.83354   0.02475906  0.024625172            5 
 1027000   0.84320791   -7.1205349    305.94595  0.024825215  0.024609187            4 
 1028000    0.8461295   -7.1427927    305.55188  0.024769121  0.024593049            2 
 1029000   0.84562701    -7.161637    305.39032  0.024731966  0.024577023            7 
 1030000   0.84345433   -7.1182904    305.89372  0.024748682  0.024560927            4 
 1031000   0.84759247   -7.1437493    305.59255  0.024700336  0.024544838            3 
 1032000   0.84654201   -7.1582919    305.64606  0.024680722  0.024528795            7 
 1033000    0.8308734    -7.152157    305.66494  0.024658353  0.024512641            6 
 1034000   0.83208462   -7.1370993    305.60513  0.024629685  0.024496495            7 
 1035000   0.81940783   -7.1530939    306.02552  0.024639736  0.024480383           14 
 1036000   0.84530717   -7.1442977    305.58716  0.024580691  0.024464205            6 
 1037000   0.81907941   -7.1583678    305.97736  0.024588344  0.024448009            5 
 1038000   0.83324259   -7.1875035    306.29448  0.024590116  0.024431694           10 
 1039000   0.82445008     -7.13773    306.82738   0.02460919  0.024415499            3 
 1040000   0.83032854   -7.1692777    306.56311  0.024564352  0.024399429            5 
 1041000   0.82979966   -7.1679279    306.49305  0.024535147  0.024383305            4 
 1042000    0.8447698   -7.1520427     306.1347  0.024482942  0.024367253            7 
 1043000   0.84837739   -7.1180213    306.47456  0.024486622  0.024351086            6 
 1044000    0.8426494   -7.1753421    305.79207   0.02440869  0.024334835            4 
 1045000   0.84133379   -7.1839626     305.2306  0.024340558  0.024318469            4 
 1046000   0.82721887   -7.1627842    306.57743  0.024424588  0.024301963            5 
 1047000   0.83598852   -7.1969235    306.87259  0.024424753  0.024285576            6 
 1048000   0.83792965   -7.1655944    306.50311  0.024372067  0.024269218            8 
 1049000    0.8496904   -7.1770819    306.42066  0.024342283  0.024252828            6 
 1050000   0.82668341   -7.1601914    307.07693  0.024371185  0.024236517            5 
 1051000   0.85564092   -7.1845925     306.9443   0.02433748  0.024220161            3 
 1052000   0.82391826    -7.190902    306.29071  0.024262572  0.024203716            6 
 1053000   0.84472246   -7.1787171    307.29005  0.024318617  0.024187289            5 
 1054000    0.8403155   -7.1743482     306.3063  0.024217765   0.02417091            5 
 1055000   0.83389447   -7.1868367    306.69982  0.024225894  0.024154465            9 
 1056000   0.82680702   -7.1723873    307.35991  0.024255044  0.024138021            7 
 1057000   0.83987267   -7.1479955     307.5889   0.02425015   0.02412158            6 
 1058000   0.84306753   -7.1976847    306.90665  0.024173491  0.024105135            7 
 1059000   0.85371628   -7.1882889    307.64878  0.024209063  0.024088672            6 
 1060000   0.83224022   -7.1940757    306.89965  0.024127331   0.02407213            5 
 1061000   0.82686573   -7.1944378    307.03343  0.024115098  0.024055667            4 
 1062000   0.81609985   -7.1849713    306.79094  0.024073363  0.024039204            3 
 1063000   0.81501358   -7.1859559    307.57878  0.024112479  0.024022627            9 
 1064000   0.82328184    -7.194952    307.48022  0.024082097  0.024006089            3 
 1065000   0.84522783   -7.1765767    307.73932  0.024079759  0.023989753            6 
 1066000   0.80787792   -7.1712066    307.94417  0.024073184  0.023973421           11 
 1067000   0.83101101   -7.1672584    307.74425  0.024035008  0.023956904            4 
 1068000   0.83766645   -7.1747588    308.49013  0.024070703  0.023940474            3 
 1069000   0.83642477   -7.1817847    308.13693  0.024020652  0.023924131            5 
 1070000   0.82599165   -7.1849715    307.23342  0.023927836  0.023907604            5 
 1071000   0.84997804    -7.201876    308.42142  0.023997932  0.023891072            5 
 1072000   0.81495634   -7.1804382    309.44629  0.024055215  0.023874608            5 
 1073000   0.81629817   -7.1815954    308.35759  0.023948244  0.023858162            4 
 1074000   0.81763908   -7.1896503    308.30704  0.023922023  0.023841723            3 
 1075000   0.81928065    -7.196462    308.44152  0.023910195  0.023825299            6 
 1076000   0.82120103   -7.1737849    308.58932  0.023899421  0.023808795            5 
 1077000   0.84537665   -7.1959395    308.96516  0.023906311  0.023792289            5 
 1078000   0.80314722   -7.1945113    307.60784  0.023779208  0.023775799            9 
 1079000   0.81782783   -7.1963481    308.38196  0.023816957  0.023759304            4 
 1080000   0.82886419   -7.2067827    308.12351  0.023774962  0.023742802           11 
 1081000   0.82107339   -7.1739053     307.7976  0.023727845  0.023726105            4 
 1082000   0.82610438   -7.1885354     309.2174  0.023815265  0.023709374            6 
 1083000    0.8158227   -7.1907488    308.90113  0.023768939  0.023692758            5 
 1084000   0.83846733   -7.1834602    307.79537  0.023662005  0.023676132            4 
 1085000   0.81641884   -7.1953725    309.10142  0.023740508  0.023659554            4 
 1086000   0.81551899    -7.185716    309.00579   0.02371131  0.023643088            6 
 1087000   0.80334766   -7.2077656    309.08269  0.023695392  0.023626602            4 
 1088000    0.8129634   -7.1901141    309.63961  0.023716269  0.023610043            4 
 1089000   0.82499447   -7.2109633    309.19669  0.023660598  0.023593539            9 
 1090000   0.81525081   -7.1947194    309.72083  0.023678962  0.023576975            6 
 1091000   0.83150301   -7.1994662    310.27516    0.0236996  0.023560531            9 
 1092000   0.81084664   -7.2036567    309.88858  0.023648396  0.023544194            6 
 1093000   0.80927175   -7.2112017    310.60754  0.023681575  0.023527851            7 
 1094000    0.8068079   -7.1980687    309.59631    0.0235829  0.023511451            4 
 1095000   0.82528949   -7.2049916    309.56869  0.023559261  0.023495071            7 
 1096000   0.81821497   -7.2072918    309.98404  0.023569346  0.023478639            5 
 1097000    0.8058002   -7.2037999    309.98215  0.023547717  0.023462178            3 
 1098000   0.78570392   -7.2135771    309.99686  0.023527387  0.023445737            4 
 1099000   0.82839135   -7.1856158     309.9792  0.023504641  0.023429136           11 
 1100000   0.80577657   -7.2228154    309.28702  0.023430835  0.023412638            7 
 1101000   0.81382175   -7.1833175    310.39109  0.023493119  0.023396221            9 
 1102000   0.80673708   -7.2263076    310.07155  0.023447637  0.023379839            6 
 1103000    0.8258654   -7.1799076    310.30378  0.023443924  0.023363315            3 
 1104000   0.81988432   -7.2174588    309.22827  0.023341506  0.023346792            6 
 1105000   0.80122127   -7.2180537    310.28095   0.02339977  0.023330226            6 
 1106000   0.81773121   -7.2366975    309.76817  0.023339977  0.023313658            5 
 1107000   0.82105532   -7.2216122    310.72314  0.023390781  0.023296993            7 
 1108000   0.81621694   -7.2271133    310.51291  0.023353859  0.023280498            8 
 1109000   0.80754922   -7.2123083    311.05017  0.023373172  0.023264005            4 
 1110000   0.80608701   -7.2404885    310.67738  0.023324128  0.023247463            9 
 1111000   0.80412617   -7.2365961      310.488  0.023288929  0.023230919            3 
 1112000   0.79638934     -7.21358    311.38322  0.023335073  0.023214421            7 
 1113000   0.80493192   -7.2340559    310.21846  0.023226899  0.023197957           10 
 1114000   0.81193325   -7.2187432     311.2378  0.023282301  0.023181585            4 
 1115000    0.7927196   -7.2351186    311.41906  0.023274967  0.023165253            3 
 1116000   0.81529789   -7.2296018    312.11703  0.023306229  0.023148903            5 
 1117000   0.80963235   -7.2466346    310.85757  0.023191403  0.023132506            9 
 1118000   0.81662781   -7.1944249    312.28075   0.02327674  0.023116179            6 
 1119000   0.81357105   -7.2281532    312.03224  0.023237432   0.02309992            7 
 1120000   0.80043068   -7.2035883    312.55974  0.023255933  0.023083698            8 
 1121000   0.79776465   -7.2000218    312.36707  0.023220865  0.023067505           13 
 1122000   0.80056921   -7.2389034    312.86149  0.023236891  0.023051356           11 
 1123000    0.7914315   -7.2233324    312.45148  0.023185773  0.023035095           10 
 1124000   0.79967856   -7.2129623    313.19732  0.023220442  0.023019011            6 
 1125000   0.80396774    -7.231373    313.05084  0.023188951  0.023002944            6 
 1126000   0.80624521   -7.2211616    312.70143  0.023142498  0.022986808            3 
 1127000   0.81951085   -7.2138838    312.97845  0.023142447  0.022970591           15 
 1128000   0.78817702   -7.2341843    312.64316   0.02309716  0.022954427            5 
 1129000   0.82196051   -7.2065585    312.58799   0.02307263   0.02293828            6 
 1130000   0.80743171    -7.210016    313.52795   0.02312153  0.022922327            5 
 1131000    0.8009924   -7.2054113    313.74189   0.02311685  0.022906424            4 
 1132000   0.80086129   -7.2147293    312.56258  0.023009613  0.022890349            7 
 1133000   0.78141864   -7.2352821    312.72828  0.023001491  0.022874284            4 
 1134000    0.7867294   -7.2196465    312.78292  0.022985224  0.022858184            7 
 1135000   0.79071843   -7.2397765     313.2989  0.023002856  0.022842068            6 
 1136000   0.81767083   -7.2391121    313.49481  0.022996978  0.022825997            4 
 1137000   0.78302771   -7.2371077    313.33594  0.022965109  0.022810002            5 
 1138000   0.82904521   -7.2221331    313.41402  0.022950646  0.022794008            8 
 1139000     0.799975   -7.2357894    313.55794  0.022941025  0.022777938            5 
 1140000   0.80073816   -7.2490135    312.93024  0.022875018   0.02276181            5 
 1141000   0.80157625   -7.2323177    313.51382  0.022897591  0.022745704            2 
 1142000   0.80303049   -7.2364655    313.07765  0.022845713  0.022729595            5 
 1143000   0.80093869   -7.2460837    313.23985  0.022837551  0.022713503            5 
 1144000   0.79214139   -7.2782663    313.78414  0.022857237  0.022697375            4 
 1145000   0.79103098   -7.2692201    313.57194   0.02282183  0.022681167            7 
 1146000    0.8118016   -7.2552326    313.74803   0.02281472  0.022665059           10 
 1147000   0.79700614   -7.2606702    313.49852  0.022776701  0.022648974            8 
 1148000   0.78873924   -7.2331256    314.17531  0.022805989  0.022632856           12 
 1149000   0.78277597   -7.2583483    314.83405  0.022833917  0.022616874            7 
 1150000   0.79580439   -7.2470733    314.06861  0.022758595  0.022600753           16 
 1151000   0.80002581   -7.2431198    313.64149  0.022707898  0.022584686           15 
 1152000   0.80347808   -7.2655624    313.84374  0.022702817  0.022568556            7 
 1153000   0.79220493   -7.2891265    313.48308  0.022657059  0.022552445            9 
 1154000   0.78738007    -7.236524     314.5047    0.0227112  0.022536253           10 
 1155000   0.78758106   -7.2531525    314.95937  0.022724342  0.022520124           21 
 1156000     0.787739   -7.2521133     313.9661  0.022633081  0.022503972           10 
 1157000   0.78427894   -7.2547186    314.66307  0.022663718  0.022487759            8 
 1158000   0.80104042   -7.2815437    314.88164  0.022659876    0.0224716            4 
 1159000   0.76960764   -7.2638966    314.83784  0.022637176  0.022455426            6 
 1160000   0.78728013   -7.2468349    315.01263  0.022630218  0.022439341           10 
 1161000   0.77576596   -7.2620515    315.31574  0.022632482  0.022423175            9 
 1162000   0.78699688   -7.2602781    315.00575  0.022590774  0.022407115           10 
 1163000   0.79121431   -7.2631903    314.72065   0.02255092  0.022391122            6 
 1164000   0.77778654   -7.2861147    315.75334  0.022605479  0.022375114            4 
 1165000   0.79376122   -7.2487405    315.86482   0.02259405  0.022359152           10 
 1166000   0.78920789   -7.2523035    315.65615  0.022559759  0.022343334           13 
 1167000   0.79808188   -7.2756735    315.59197  0.022535845  0.022327418            8 
 1168000   0.78028195   -7.2504527    316.04506  0.022548877  0.022311612            7 
 1169000   0.78588174    -7.271756    315.41494  0.022484669  0.022295728            5 
 1170000   0.76731204   -7.2668092    315.31191  0.022458114  0.022279842            4 
 1171000    0.7848392   -7.2482336    315.75245  0.022470286  0.022264028            4 
 1172000   0.78618419   -7.2579616    315.18712  0.022410916  0.022248079            4 
 1173000   0.78139349   -7.2985636    315.32938  0.022401917  0.022232076            3 
 1174000   0.78769409   -7.2530096    315.47168  0.022392936  0.022216073            8 
 1175000   0.79695361   -7.2839353    315.21263  0.022355506  0.022200044            5 
 1176000   0.79981395   -7.2695683    315.54831  0.022360283  0.022183978            7 
 1177000   0.79823393   -7.2689703    314.47312   0.02226516  0.022167892            6 
 1178000   0.78413011   -7.2965509    315.87403  0.022345362  0.022151865            5 
 1179000   0.77197226   -7.2669381     315.7958   0.02232088  0.022135931            3 
 1180000   0.79336334   -7.2675059    316.69935  0.022365773  0.022119975            6 
 1181000   0.77707226   -7.2760802     316.0757  0.022302829  0.022104017            8 
 1182000   0.76291206    -7.225824    316.07482  0.022283899  0.022088091            4 
 1183000    0.7995281   -7.2792186    316.42265  0.022289564  0.022072095            5 
 1184000   0.78097474   -7.2742028    315.32008  0.022193136   0.02205611            6 
 1185000   0.77744797   -7.3192798     315.2086  0.022166568  0.022039959            6 
 1186000   0.76772037   -7.2592442    315.44711  0.022164637  0.022023763            9 
 1187000   0.77945167   -7.3026287    315.21143  0.022129418  0.022007613           12 
 1188000   0.77661958    -7.308818    315.35266  0.022120698  0.021991438           13 
 1189000   0.77815516   -7.2899092    315.85605  0.022137374  0.021975253            8 
 1190000   0.76599684   -7.2891898    316.42664  0.022158729  0.021959073           11 
 1191000   0.75588835   -7.2989178    314.74793  0.022022665   0.02194295            6 
 1192000   0.77661429   -7.3001281    315.23205  0.022038035  0.021926727           14 
 1193000   0.79508502   -7.2967447    315.64666  0.022048524  0.021910616            5 
 1194000   0.78405269   -7.2805426    315.91936   0.02204909  0.021894445            5 
 1195000   0.78211837   -7.2777139    316.20637  0.022050654  0.021878367            6 
 1196000   0.77646494   -7.2850038     316.1557  0.022028686  0.021862265            5 
 1197000   0.77374173   -7.3283024    316.10778  0.022006946  0.021846206            5 
 1198000   0.76337079   -7.3199894    315.36631     0.021937  0.021830116            5 
 1199000   0.78215428   -7.2924668     316.5362  0.022000014  0.021814037            5 
 1200000   0.77659181   -7.3066549    316.48073  0.021977829  0.021797967            8 
 1201000   0.77306383   -7.3191996    315.69482  0.021904997   0.02178189            7 
 1202000   0.79079776   -7.3039397    316.63277    0.0219518  0.021765781            7 
 1203000   0.76235432     -7.30056    316.00629  0.021890156  0.021749748            6 
 1204000    0.7865728   -7.2808676    316.37126  0.021897235  0.021733693           10 
 1205000   0.76149127   -7.2905277    316.65921  0.021898977  0.021717613            6 
 1206000   0.76945447   -7.3159915     315.8391   0.02182415  0.021701576           10 
 1207000   0.77792589   -7.2835409    316.77784  0.021870881  0.021685563           13 
 1208000   0.75380708   -7.3150211    315.91707  0.021793396  0.021669457           11 
 1209000   0.78517608   -7.2950509    316.46551  0.021813173  0.021653384           13 
 1210000   0.77336617   -7.3083494    317.23716  0.021848289  0.021637365            4 
 1211000   0.78013902   -7.2937677     316.9348  0.021809441  0.021621343            5 
 1212000   0.77775907   -7.3205586    315.70491  0.021706883  0.021605333            6 
 1213000   0.78394324   -7.3229316    316.47275  0.021741739  0.021589332            5 
 1214000   0.78261922   -7.3285978    316.63201  0.021734762  0.021573337           10 
 1215000   0.77033131   -7.3227013     316.4112  0.021701728  0.021557301            4 
 1216000   0.77862249   -7.3006715    316.95947  0.021721455   0.02154126            5 
 1217000   0.75155869   -7.3019409    317.34186   0.02172979  0.021525321            8 
 1218000   0.75918146   -7.3217219     317.1542  0.021699111  0.021509358            9 
 1219000   0.76322524   -7.3029428    317.13167   0.02167977  0.021493406            6 
 1220000   0.77267452   -7.3211661    317.71472  0.021701825  0.021477435            7 
 1221000   0.75889146   -7.3082604    318.28192  0.021722763  0.021461514            4 
 1222000   0.75222724   -7.3107398    317.19711  0.021631009  0.021445715            6 
 1223000   0.76818191   -7.2997853    317.97339  0.021666216  0.021429871            7 
 1224000   0.77700336     -7.31334    317.35283  0.021606265  0.021414062            7 
 1225000   0.76609829   -7.3261512    317.17137  0.021576283  0.021398285            5 
 1226000   0.76463163   -7.3119814    317.41708  0.021575386  0.021382404            6 
 1227000   0.75656664   -7.3496569    317.19167  0.021542493  0.021366536            4 
 1228000   0.76854865   -7.3170717    317.88343  0.021571894  0.021350592            5 
 1229000   0.78847783   -7.3699713    317.02657  0.021496241  0.021334679            6 
 1230000   0.75798801   -7.3652119    317.08337  0.021482613  0.021318792            7 
 1231000   0.72974586   -7.3506723    317.67458  0.021505184  0.021302893            9 
 1232000   0.74366205   -7.3402787    317.86718  0.021500756  0.021287098            5 
 1233000   0.75280969   -7.3428615    318.53296  0.021528316  0.021271328            3 
 1234000   0.75895494   -7.3322794    318.91152  0.021536435  0.021255591            7 
 1235000   0.74922857   -7.3450526    318.58902  0.021497235  0.021239897           14 
 1236000   0.75585492   -7.3206698    318.74072   0.02149007   0.02122418           17 
 1237000   0.76672098   -7.3148453    318.46049  0.021453819  0.021208564            5 
 1238000   0.75151637   -7.3140201    318.55819  0.021443066  0.021192926            7 
 1239000   0.74662932   -7.3248799    318.86884  0.021446653    0.0211773            6 
 1240000   0.75344245   -7.3192904    318.29094   0.02139052  0.021161688            4 
 1241000   0.73875898   -7.3306977    318.76057  0.021404819  0.021146102            6 
 1242000    0.7560775   -7.3366093    319.10476  0.021410679  0.021130542            6 
 1243000    0.7508419   -7.3552534    318.70338  0.021366545  0.021114954            6 
 1244000   0.74556269   -7.3015204    318.51096  0.021336479  0.021099336            5 
 1245000   0.74010414   -7.3088685    318.93962  0.021348033  0.021083748           10 
 1246000   0.75868529     -7.32354    318.73281  0.021317069   0.02106814            3 
 1247000   0.76029057   -7.3036787    318.42813  0.021279613  0.021052545            7 
 1248000   0.75506475   -7.3315499    319.13971  0.021310077  0.021036917           18 
 1249000   0.76784677   -7.3296467    318.58911  0.021256279   0.02102131            9 
 1250000   0.76571934   -7.3363827    319.02968  0.021268646  0.021005644            5 
 1251000   0.75722732   -7.3293577    318.50526   0.02121671  0.020989985            6 
 1252000   0.74689856   -7.3576631    318.80691  0.021219842  0.020974336            6 
 1253000    0.7581661   -7.3595957    318.72414  0.021197402  0.020958767            7 
 1254000   0.74189712   -7.3293446    320.27969  0.021283871  0.020943233            3 
 1255000   0.75359733   -7.3410276    319.49555  0.021214844   0.02092777            8 
 1256000   0.75828077   -7.3836121    319.71181  0.021212301  0.020912242            4 
 1257000   0.74820176   -7.3681574     319.8876  0.021207081  0.020896705           14 
 1258000   0.74375285    -7.349879    318.94755  0.021127951  0.020881204            6 
 1259000   0.73893181   -7.3194869    319.96154  0.021178285  0.020865745            7 
 1260000   0.75727575   -7.3601318    319.11096  0.021105222  0.020850278            7 
 1261000   0.76408967   -7.3503118    319.62779   0.02112264  0.020834827            7 
 1262000   0.74377009     -7.35584    319.45695  0.021094621  0.020819448            6 
 1263000   0.73655459   -7.3593169    320.12282  0.021121854  0.020803994            6 
 1264000   0.74305989   -7.3676706    319.76405  0.021081491  0.020788618           13 
 1265000   0.76043229   -7.3619507    320.01209  0.021081165  0.020773182            4 
 1266000   0.75829978   -7.3458174    320.35548  0.021087117  0.020757773            3 
 1267000   0.75661327   -7.3694484    320.52433  0.021081579  0.020742435           12 
 1268000   0.74290259   -7.3771081    319.51832  0.020998838  0.020727044            7 
 1269000    0.7597669   -7.3397728    320.04838  0.021017099  0.020711754           15 
 1270000   0.74297856   -7.3597223    319.54426  0.020967471  0.020696501            7 
 1271000   0.72997606    -7.357597    320.83322  0.021035485  0.020681297            9 
 1272000   0.74305804   -7.3750424    319.85269   0.02095471  0.020666035           13 
 1273000   0.75503512   -7.3632809    320.06091  0.020951879   0.02065076            6 
 1274000   0.75941603   -7.3661596    320.23877  0.020947068    0.0206355            4 
 1275000   0.75053354    -7.366305    320.60471  0.020954556  0.020620213           11 
 1276000   0.73616951   -7.3659072    320.71718  0.020945479  0.020604988           13 
 1277000   0.74230728   -7.3619592     320.4069  0.020908829   0.02058984            4 
 1278000   0.75254567   -7.3361826    321.11116   0.02093839  0.020574696            6 
 1279000   0.74549085   -7.3623395    321.05256  0.020918202  0.020559589            4 
 1280000   0.77278747   -7.3501464    320.79582  0.020885145  0.020544509           26 
 1281000   0.74376289   -7.3632437    321.34653  0.020904666  0.020529558            7 
 1282000   0.72289716   -7.3670143    321.20512  0.020879168  0.020514605           11 
 1283000    0.7456715   -7.3644094     321.6968   0.02089483  0.020499689            6 
 1284000   0.74307818   -7.3768368    321.81982  0.020886541  0.020484721            4 
 1285000    0.7397323   -7.3757134    321.60755  0.020856521  0.020469696           12 
 1286000    0.7290943   -7.3909368    321.47065  0.020831431  0.020454695            9 
 1287000   0.73455995   -7.3946777    321.18815  0.020796953  0.020439614            5 
 1288000   0.73334647   -7.3820962    321.39824    0.0207944   0.02042458            8 
 1289000   0.73711257   -7.3829958    321.53242  0.020786942  0.020409611            7 
 1290000   0.75363436   -7.3924736      321.124  0.020744445  0.020394578            5 
 1291000   0.73898741   -7.3839442    321.70028  0.020765574  0.020379518           14 
 1292000   0.73334457   -7.3730791    321.65702  0.020746712  0.020364527            5 
 1293000   0.71699156   -7.3761951    322.36109  0.020776043  0.020349546            6 
 1294000   0.72900423   -7.3812171    321.16151  0.020682735  0.020334593            6 
 1295000   0.72926751   -7.4064555    321.73659   0.02070377  0.020319649           10 
 1296000   0.74069952   -7.4126002    321.74075  0.020688063  0.020304699            6 
 1297000    0.7373654   -7.3625685    322.40725  0.020714935  0.020289911            4 
 1298000   0.71964721   -7.3734376    322.59219  0.020710849  0.020275175            3 
 1299000   0.72832287   -7.3756174    322.79749  0.020708076  0.020260412            4 
 1300000    0.7320316   -7.3796776    322.92409  0.020700262  0.020245727            9 
 1301000   0.74138974   -7.3857444    322.61661  0.020664656  0.020231068            9 
 1302000   0.73130925   -7.3879141    322.40196  0.020635046  0.020216343            7 
 1303000    0.7407747   -7.3848939    321.76452  0.020578442  0.020201609            7 
 1304000   0.73002394   -7.3540571    322.76484  0.020626588  0.020186878            6 
 1305000   0.73880014   -7.3946839    322.86533  0.020617199  0.020172176            7 
 1306000   0.71849646   -7.3996578     322.0472  0.020549209  0.020157428            8 
 1307000   0.72405342   -7.3953059    322.64541  0.020571628  0.020142757           17 
 1308000    0.7513923   -7.3741094    323.55792  0.020614037  0.020128119            7 
 1309000   0.73681676   -7.3743175    322.55987  0.020534751   0.02011346            6 
 1310000   0.73654123   -7.4137705    323.14587  0.020556353  0.020098867            7 
 1311000   0.74257365   -7.4177854    323.51383  0.020564062  0.020084245            5 
 1312000    0.7304464    -7.394684    322.85538  0.020506566  0.020069592            8 
 1313000   0.72371113   -7.3862393    323.58044  0.020536966  0.020054979           10 
 1314000   0.71937346   -7.4031739     323.3604  0.020507382  0.020040359            8 
 1315000   0.72285708   -7.3992578    322.52165  0.020438634  0.020025736            8 
 1316000   0.71458149   -7.4075574    323.23426  0.020468228  0.020011119            6 
 1317000   0.73750445   -7.4053027     323.5265  0.020471178    0.0199965            3 
 1318000     0.724263   -7.3892124    323.43411  0.020449805  0.019981968            8 
 1319000   0.71150302   -7.3791301    323.31077  0.020426508  0.019967457           11 
 1320000   0.72705538   -7.4123243    323.50089  0.020423036  0.019952921           11 
 1321000   0.73861455   -7.4058047    323.44416  0.020403997  0.019938355            6 
 1322000   0.72572234   -7.3972097     322.7627  0.020345607  0.019923766            9 
 1323000   0.72003575   -7.3866635    323.33126  0.020366041  0.019909249           21 
 1324000   0.72937125     -7.38686    323.26126  0.020346252  0.019894752            7 
 1325000   0.72918391   -7.4324172    323.55905  0.020349626  0.019880282           15 
 1326000    0.7397941   -7.4041021     323.7654  0.020347247   0.01986577           19 
 1327000   0.71458928   -7.4099735    324.31718  0.020366565  0.019851332           10 
 1328000   0.72544991   -7.4022903    324.81553  0.020382501  0.019836939            7 
 1329000   0.70746502   -7.4278135    324.06947  0.020320383  0.019822545            5 
 1330000   0.71248145    -7.400121    324.21416  0.020314171  0.019808172            5 
 1331000   0.72191854   -7.3883076    324.43657  0.020312833  0.019793772            6 
 1332000   0.72158158   -7.3937943    324.34456  0.020291827   0.01977938            7 
 1333000   0.70516735   -7.4428998    324.44444  0.020282848  0.019764968            6 
 1334000   0.73231627   -7.4057731    324.07278  0.020244426  0.019750542            8 
 1335000   0.73506985   -7.4371664    323.83795  0.020214603  0.019736049           13 
 1336000   0.72031151   -7.4141679     324.2149  0.020222985  0.019721635            6 
 1337000   0.72424893   -7.4039882    323.50971  0.020163906   0.01970718            5 
 1338000   0.71531495    -7.413106    323.68414    0.0201597  0.019692698            7 
 1339000   0.72875837   -7.4050955      323.894  0.020157705   0.01967826            5 
 1340000   0.72790858   -7.4327899    323.52753  0.020119871  0.019663772           19 
 1341000   0.71651311   -7.4169551    323.42096  0.020098245   0.01964931            7 
 1342000    0.7071773   -7.4314212    324.06156  0.020123048   0.01963483            9 
 1343000   0.71961142   -7.4071326    325.04894  0.020169331  0.019620367           22 
 1344000   0.72388273   -7.4449059    323.54937  0.020061345  0.019605942           10 
 1345000   0.71604153   -7.4336297     323.4842  0.020042391  0.019591352            7 
 1346000   0.70659699   -7.4469204     323.3423  0.020018716  0.019576791            9 
 1347000   0.71399102   -7.4214558    323.69368  0.020025593  0.019562229           11 
 1348000   0.72644654   -7.4326048    324.25103  0.020045192  0.019547728            4 
 1349000   0.70934867   -7.4518737     323.4034  0.019977971  0.019533193            7 
 1350000   0.69657572   -7.4378218    323.88578  0.019992949  0.019518611           11 
 1351000   0.70760544   -7.4397279     323.9649  0.019983031  0.019504042           13 
 1352000   0.70503006   -7.4042792    323.85437  0.019961438   0.01948954           11 
 1353000   0.71321598   -7.4305533    323.88304   0.01994845  0.019475061            6 
 1354000   0.70638062   -7.4269002     323.6723  0.019920747  0.019460563            6 
 1355000   0.71558659   -7.4127221    323.82379  0.019915362  0.019446059           10 
 1356000   0.70893107   -7.4415307    323.81834  0.019900341  0.019431613           13 
 1357000   0.70827594     -7.46532    324.38907  0.019920724  0.019417151           16 
 1358000   0.70716977   -7.4480066    324.56453  0.019916822   0.01940274            7 
 1359000   0.71336212   -7.4196211    325.03557   0.01993105  0.019388336           18 
 1360000   0.71840835   -7.4534581    323.08645  0.019796964  0.019373959            6 
 1361000    0.7047922   -7.4604273    324.18233  0.019849518  0.019359536            6 
 1362000   0.70100203   -7.4260332    323.96492  0.019821642   0.01934517           21 
 1363000   0.71186941   -7.4457656     324.1534  0.019818623  0.019330777            8 
 1364000   0.72037514   -7.4444233    324.26868  0.019811137  0.019316352           14 
 1365000   0.69893326   -7.4485047    324.13082  0.019788206  0.019301905            5 
 1366000   0.69862362   -7.4689456    324.30585  0.019784398  0.019287407           14 
 1367000   0.70370248   -7.4554628     324.3179   0.01977066  0.019272944            7 
 1368000   0.71949238   -7.4458165      323.724  0.019720029   0.01925845            7 
 1369000   0.70834686   -7.4505815    324.21834  0.019735716  0.019243973            7 
 1370000   0.71013525   -7.4611066    323.76224  0.019693567   0.01922952            9 
 1371000   0.71640559   -7.4482856     324.0471  0.019696517  0.019215139           18 
 1372000   0.68805318   -7.4235392    324.58259  0.019714686  0.019200808           10 
 1373000   0.70046389    -7.426616    323.79974  0.019652812  0.019186465           13 
 1374000   0.69719306   -7.4365059    323.70146  0.019632549  0.019172072           20 
 1375000   0.69211324   -7.4651392    324.35962  0.019658159  0.019157665           11 
 1376000   0.71203839   -7.4503064     324.0122  0.019622832  0.019143267           15 
 1377000   0.71025706   -7.4479434    323.96341  0.019605629  0.019128826           15 
 1378000   0.70010206   -7.4265992    324.29643   0.01961154   0.01911445           13 
 1379000   0.71384055   -7.4380841    324.87677  0.019632389  0.019100098           24 
 1380000   0.70569824   -7.4407761    323.74133  0.019549597  0.019085789            4 
 1381000   0.68910233   -7.4331736    323.74382  0.019535591  0.019071379           18 
 1382000   0.70258554   -7.4605158    324.24172  0.019551479  0.019057001            7 
 1383000   0.71658324   -7.4779027    324.17395  0.019533258  0.019042637            4 
 1384000   0.71874301    -7.468281    324.18487  0.019519802  0.019028253            9 
 1385000   0.69795088   -7.4645167    324.48102  0.019523527  0.019013891           11 
 1386000   0.69531389   -7.4692623    324.28078  0.019497401  0.018999528           18 
 1387000   0.69353787   -7.4613772    324.80826  0.019515036  0.018985217            5 
 1388000   0.68741286   -7.4446683    325.34567  0.019533241  0.018971002           12 
 1389000   0.70527134   -7.4529452    324.23393   0.01945248  0.018956814           10 
 1390000   0.71143977   -7.4904702    324.34332  0.019445043  0.018942541           23 
 1391000   0.68910977   -7.4500649    324.68727   0.01945167  0.018928273            3 
 1392000   0.70075688   -7.4636776    324.41809  0.019421581  0.018914009            8 
 1393000   0.69488695   -7.4761255    324.78151   0.01942938  0.018899749           14 
 1394000   0.70207915   -7.4589104    324.26028  0.019384283  0.018885513           15 
 1395000   0.69214101   -7.4882892    325.23521  0.019428626  0.018871329           16 
 1396000   0.68810152   -7.4747382    324.44309  0.019367424  0.018857132            7 
 1397000   0.69608614   -7.4822551     324.5528  0.019360105  0.018842934            6 
 1398000   0.68842443   -7.4889254    324.67308  0.019353426  0.018828737            7 
 1399000   0.70517053   -7.4806074    324.11301  0.019306231  0.018814519            3 
 1400000   0.70383069   -7.4542602    324.97433   0.01934371  0.018800299            7 
 1401000   0.69316247   -7.4791231      324.482  0.019300619  0.018786056            8 
 1402000   0.68963171   -7.4718702    324.72993  0.019301589  0.018771833           10 
 1403000   0.68468288   -7.4660818    325.33596  0.019323827  0.018757611           17 
 1404000   0.71804364   -7.4562788    324.50219  0.019260577  0.018743448           13 
 1405000    0.6841317   -7.4480096    324.26477  0.019232786  0.018729277           12 
 1406000   0.69651242   -7.4729534     324.4617  0.019230779  0.018715069           11 
 1407000   0.68451613   -7.4899373    324.59627  0.019225081   0.01870083            8 
 1408000    0.6889305   -7.4754658    324.79986  0.019223477  0.018686628           11 
 1409000    0.6936239   -7.4730912    324.85395  0.019213032  0.018672443            7 
 1410000   0.68607022   -7.4984491    323.85507   0.01914037  0.018658257            9 
 1411000   0.69965403   -7.4872378    324.60033   0.01917082   0.01864401           10 
 1412000   0.68895763   -7.4993907    324.00749  0.019122255  0.018629774           15 
 1413000   0.70820299   -7.4982556       324.04  0.019110639  0.018615548            9 
 1414000   0.68453472    -7.516754    324.95815  0.019151235  0.018601282           22 
 1415000   0.66534977   -7.5020438    324.13562  0.019089259  0.018587092           13 
 1416000   0.69450201   -7.5007016    323.84129  0.019058456  0.018572924            7 
 1417000   0.69668489   -7.4891125     324.7553  0.019098759  0.018558819            8 
 1418000    0.6955607   -7.4891733    324.47793   0.01906899  0.018544645            6 
 1419000   0.68028496   -7.5140422     324.6786  0.019067336  0.018530455           15 
 1420000   0.66918451   -7.4811122    324.84785  0.019063841  0.018516275           13 
 1421000   0.67932458    -7.506055    324.42559  0.019025662  0.018502077           18 
 1422000   0.68238995   -7.5157479    324.14055  0.018995578  0.018487864           13 
 1423000   0.68952493   -7.4899235    323.93932  0.018970445  0.018473663           11 
 1424000   0.69245547   -7.5051068    324.12691  0.018968101  0.018459469           16 
 1425000   0.69109445    -7.498974    323.63501  0.018926024  0.018445259           14 
 1426000   0.68490788   -7.4912733    324.15548  0.018943167  0.018431081           15 
 1427000   0.68751846   -7.5006532    324.68193  0.018960636  0.018416894           11 
 1428000   0.68336728   -7.5078068    324.18995  0.018918648  0.018402744            7 
 1429000    0.6698888   -7.5241569    325.18733  0.018963572  0.018388553           22 
 1430000   0.68375068   -7.5048686    324.09126  0.018886437   0.01837431           26 
 1431000   0.67518204   -7.5237613    323.55258   0.01884187  0.018360076           17 
 1432000   0.67841591   -7.5142721    324.19171  0.018865905  0.018345852           10 
 1433000   0.67911584   -7.5087285    324.44179  0.018867283  0.018331606           10 
 1434000   0.67510597   -7.5142678    324.01084  0.018829082  0.018317354            8 
 1435000   0.69365643   -7.5089854    323.84223  0.018806169  0.018303098           11 
 1436000   0.68459194   -7.5299107    323.87315  0.018794867  0.018288828            7 
 1437000   0.69151201    -7.526485    323.57847  0.018764699  0.018274547           12 
 1438000   0.67562064   -7.5109493    323.87593  0.018768888  0.018260289           12 
 1439000   0.66230429   -7.5054872    324.83369  0.018811309  0.018246083            9 
 1440000    0.6615077   -7.5269781    324.05568  0.018753222  0.018231876           13 
 1441000   0.68690957   -7.5425929    324.55273  0.018768953  0.018217663           16 
 1442000      0.66935   -7.5653851    323.29231  0.018683097  0.018203482           10 
 1443000   0.68098523   -7.5174002    324.16149  0.018720345  0.018189315            9 
 1444000   0.67149238   -7.5409997    324.80106   0.01874429  0.018175141           23 
 1445000   0.67022305   -7.5281936    324.57753  0.018718427  0.018160979            9 
 1446000   0.67912971   -7.5329597    324.12496    0.0186794  0.018146876           13 
 1447000   0.67987957   -7.5316374    323.78546   0.01864694  0.018132802            9 
 1448000   0.66799643   -7.5166694      324.621  0.018682148   0.01811878           18 
 1449000   0.67397748   -7.5139629    324.22873  0.018646695  0.018104766            5 
 1450000   0.66689122   -7.5422119    324.40409  0.018643913  0.018090772            7 
 1451000   0.67798588   -7.5320509    324.77107  0.018652141  0.018076745            4 
 1452000   0.67548895   -7.5427382    324.91577  0.018647599  0.018062749           20 
 1453000   0.68489141   -7.5200047    324.84806  0.018630882  0.018048788           22 
 1454000   0.66273347   -7.5536714    324.61077  0.018604469  0.018034791           13 
 1455000   0.67556164    -7.522204    323.70791  0.018539972  0.018020803           17 
 1456000   0.68918289   -7.5403684    324.67964  0.018582855   0.01800681            7 
 1457000   0.67603754   -7.5273361    324.12736  0.018538513  0.017992861           26 
 1458000   0.68693123   -7.5425622    324.58827  0.018552142  0.017978918           25 
 1459000   0.67719706   -7.5445874    324.19523  0.018516977  0.017964961           11 
 1460000   0.68873372   -7.5390683    324.19254  0.018504141  0.017951009           13 
 1461000    0.6636162   -7.5259075     324.9096  0.018532375  0.017937092           13 
 1462000   0.67484914   -7.5371339    324.58534  0.018501216  0.017923175            8 
 1463000   0.66076468   -7.5500653    324.36672  0.018476117   0.01790927           14 
 1464000   0.67770166   -7.5499348    324.69852  0.018482384  0.017895427            9 
 1465000   0.67331201   -7.5435035    325.13876   0.01849481  0.017881566           13 
 1466000   0.65649227    -7.546396     324.6381  0.018453735  0.017867698           10 
 1467000   0.65304089   -7.5308044    325.07491  0.018465969  0.017853827           11 
 1468000   0.65928881   -7.5465717    324.79045  0.018437242  0.017839978           10 
 1469000   0.67032387   -7.5215126    324.81478  0.018426071  0.017826146            8 
 1470000   0.66485065   -7.5619528     324.0285  0.018368962  0.017812308           16 
 1471000   0.67837969   -7.5701363    325.00953  0.018412051   0.01779842           13 
 1472000   0.66679212   -7.5260107    324.43011  0.018366741  0.017784547            5 
 1473000   0.65452426   -7.5253763    325.06181  0.018390009  0.017770756            8 
 1474000   0.65652041   -7.5287467    324.59522  0.018351155   0.01775698            7 
 1475000   0.66799852   -7.5321926    324.95315  0.018358935   0.01774317           14 
 1476000   0.66449635   -7.5544481     324.5955  0.018326304  0.017729376           13 
 1477000   0.66562126   -7.5471045    324.80729  0.018325846  0.017715626           20 
 1478000   0.65599553   -7.5507399    325.30689  0.018341615  0.017701878           10 
 1479000   0.66765701   -7.5560199    325.11067  0.018318158  0.017688122           20 
 1480000   0.65990134   -7.5253041    324.92855  0.018295526  0.017674451            8 
 1481000   0.67513803   -7.5207807    324.99368  0.018286838  0.017660748           14 
 1482000   0.65691529    -7.536171    325.31323  0.018292467  0.017647126           14 
 1483000   0.67217635   -7.5698595     324.9831  0.018261581  0.017633471            8 
 1484000   0.66459084   -7.5321889    325.32361  0.018268397   0.01761985            9 
 1485000   0.67638905   -7.5425832    325.08486  0.018242697  0.017606249           16 
 1486000   0.64979236   -7.5519284     325.2224  0.018238134  0.017592645           10 
 1487000   0.66130788   -7.5692346    324.88177  0.018206779  0.017579065            8 
 1488000   0.65075521   -7.5658458    324.85003  0.018192766   0.01756546            6 
 1489000   0.66847776   -7.5415893    325.48131  0.018215878  0.017551918            8 
 1490000   0.65689835   -7.5509161    326.11144  0.018238895  0.017538385            9 
 1491000   0.65796072    -7.530352    325.38773  0.018186213  0.017524873           10 
 1492000   0.65836948   -7.5496293    325.09622  0.018157742  0.017511333            7 
 1493000   0.65719849     -7.54555    325.48705  0.018167395  0.017497808            8 
 1494000   0.67061582   -7.5434599    325.20587  0.018139551  0.017484298           16 
 1495000   0.65997319   -7.5507068    325.66612  0.018153073  0.017470784            6 
 1496000   0.65075143   -7.5486259     325.4886   0.01813105  0.017457308           11 
 1497000   0.64870567   -7.5594298    325.58119  0.018124092  0.017443811           17 
 1498000   0.63693269   -7.5681284    325.78637  0.018123408  0.017430338            7 
 1499000   0.67251648   -7.5657946    325.40265  0.018089985  0.017416875           12 
 1500000   0.65117476   -7.5783284    325.27341  0.018070745   0.01740339           16 
 1501000   0.67850896   -7.5668262    325.28514  0.018059357  0.017389923           15 
 1502000   0.64446381   -7.5808018    325.03517  0.018033465  0.017376454            9 
 1503000   0.64612281   -7.5597975    324.53212  0.017993575  0.017362968           10 
 1504000   0.66433658   -7.5692546    325.59086  0.018040274  0.017349521           10 
 1505000   0.64946396   -7.5627928    324.56473  0.017971469  0.017336045            5 
 1506000   0.65445473   -7.5785291    324.63075  0.017963189  0.017322588           12 
 1507000   0.64793804    -7.574301    325.88884  0.018020838  0.017309187            9 
 1508000   0.64157362   -7.5826156    324.88353  0.017953334  0.017295798           12 
 1509000   0.64695207   -7.5715032    325.06325  0.017951361  0.017282374           18 
 1510000   0.65269309   -7.5782029    325.58285  0.017968149  0.017268977           12 
 1511000   0.63898732   -7.5827826    325.18122  0.017934106  0.017255574           10 
 1512000   0.64754666   -7.5623743    325.12841  0.017919335  0.017242183           15 
 1513000   0.65083996   -7.6059048    325.40226  0.017922574  0.017228783           19 
 1514000    0.6623532    -7.584409    325.94325  0.017940514  0.017215394            8 
 1515000   0.65414915   -7.5734153    325.39737  0.017898645  0.017202019           14 
 1516000   0.65184126   -7.5780626    324.99147  0.017864527  0.017188613           19 
 1517000    0.6642244   -7.5914181    325.42737  0.017876696  0.017175184           32 
 1518000   0.63916326   -7.5943821    325.54804  0.017871544  0.017161811           11 
 1519000    0.6551027    -7.617784    325.90947  0.017879606   0.01714845           11 
 1520000   0.65456952   -7.5884001    325.24894   0.01783163  0.017135105           12 
 1521000   0.63845229   -7.5776186    324.97774  0.017805048  0.017121752           15 
 1522000   0.65295839   -7.5804119    324.85469  0.017786612  0.017108404           13 
 1523000   0.62600014    -7.574121    325.31314  0.017800019  0.017095072           20 
 1524000   0.66065232   -7.6110622    325.28369  0.017786729  0.017081746           44 
 1525000   0.63879917   -7.6089628    325.26481  0.017774034  0.017068419           43 
 1526000   0.62773169   -7.5954028     325.4965  0.017775038  0.017055094           37 
 1527000   0.64080381   -7.6048307    324.46519  0.017707116  0.017041748           24 
 1528000   0.63613667   -7.5824533    325.26585  0.017739193  0.017028417           11 
 1529000   0.64348933   -7.6000522     324.5304  0.017687508  0.017015097           14 
 1530000   0.64169633   -7.6211576    324.99051  0.017701008  0.017001777           11 
 1531000   0.64381863   -7.6183068     324.8178  0.017680046  0.016988476           25 
 1532000   0.64708683   -7.6012997    324.87256  0.017671484   0.01697519           24 
 1533000   0.64689367   -7.6051388    325.36204  0.017686564  0.016961916           13 
 1534000   0.63353049   -7.6038469    326.09257   0.01771472  0.016948662           26 
 1535000   0.64297024   -7.6152649    325.37579  0.017664266  0.016935445            9 
 1536000   0.64017233   -7.5771637    326.06764  0.017690301  0.016922254            7 
 1537000   0.65158116   -7.5922241     324.9923  0.017620489   0.01690908           16 
 1538000   0.65071571   -7.5905647    325.99052  0.017663119  0.016895944            9 
 1539000   0.63686651   -7.5783103    325.94535  0.017649196  0.016882814           15 
 1540000   0.64114367   -7.5681988    326.16925  0.017649851  0.016869718           15 
 1541000   0.62400599   -7.5879408    325.58367  0.017606731   0.01685662           12 
 1542000   0.63481661   -7.5789395    325.96204  0.017615761  0.016843528           10 
 1543000   0.63872486   -7.5965158    325.66734  0.017588429  0.016830444           19 
 1544000   0.64277123    -7.606754    325.46223  0.017565967  0.016817374           20 
 1545000   0.63536976   -7.5573358    325.21254  0.017541129  0.016804284           17 
 1546000   0.64395578   -7.6139821    326.06133  0.017575535  0.016791226           13 
 1547000   0.63905994   -7.6212497    326.11213  0.017566911  0.016778123           10 
 1548000   0.63771181   -7.6196156    325.77621  0.017537479  0.016765053            8 
 1549000    0.6383724   -7.6003442    324.78419  0.017472788  0.016751984           12 
 1550000   0.63535205   -7.5819396    325.48194  0.017499029  0.016738955            8 
 1551000   0.63800273   -7.6133438    325.97104  0.017514025  0.016725892           16 
 1552000   0.62775776   -7.6051672    325.20541  0.017461631  0.016712824           15 
 1553000   0.64209889   -7.6081927    325.10859  0.017445191  0.016699797           18 
 1554000   0.63342959   -7.6097056    326.27617  0.017496577  0.016686788           13 
 1555000   0.63006071   -7.6301056    325.47923  0.017442617  0.016673799           19 
 1556000   0.62635587   -7.6113813    325.89563  0.017453708  0.016660817            9 
 1557000   0.64545097   -7.5943404    326.02759  0.017449561  0.016647849            5 
 1558000   0.63210556     -7.61028    325.86041  0.017429419  0.016634877           12 
 1559000   0.63339493   -7.6045909    325.60845   0.01740477  0.016621904            8 
 1560000   0.62425438   -7.6091295    325.78295  0.017402935  0.016608961           21 
 1561000   0.62596609   -7.6429984    325.26654  0.017364218  0.016596039           10 
 1562000   0.62084481   -7.6026802    325.56534  0.017369043  0.016583099           18 
 1563000   0.63327369   -7.6316368    325.25521  0.017341395  0.016570197           16 
 1564000   0.62918725   -7.6077272    325.91033  0.017365214  0.016557331           10 
 1565000   0.62897035   -7.6070137    325.77178   0.01734674  0.016544499           11 
 1566000   0.61583374   -7.6355312    325.27164  0.017309048   0.01653164           28 
 1567000   0.62982143   -7.6108468    326.51235  0.017363984  0.016518791           10 
 1568000   0.61771162     -7.63229    325.57911  0.017303312  0.016505966           15 
 1569000     0.624991   -7.6180934    325.57779  0.017292213  0.016493142           11 
 1570000   0.62572132   -7.6104637    325.00472  0.017250781  0.016480323           11 
 1571000   0.63396598   -7.6226505    326.13657  0.017299839  0.016467555           11 
 1572000    0.6294629   -7.6117708    326.65114  0.017316112  0.016454782           15 
 1573000   0.63226935   -7.6479987    325.98355  0.017269737  0.016442017           17 
 1574000   0.61824116   -7.6141301    325.97064  0.017258081   0.01642924           19 
 1575000   0.61685408   -7.6226901    326.34596  0.017266982  0.016416474           14 
 1576000   0.63065357   -7.6272919    325.51439  0.017212055   0.01640371           15 
 1577000   0.61685095   -7.6171142    325.41342  0.017195805  0.016390966           17 
 1578000   0.62685462   -7.6324983    325.57958  0.017193683  0.016378219           17 
 1579000    0.6231015    -7.631146    326.28437   0.01721999  0.016365473           32 
 1580000   0.62365838   -7.6233773    326.42219   0.01721636  0.016352792           20 
 1581000   0.61632828   -7.6242698    326.53834  0.017211593  0.016340146           23 
 1582000   0.62323557   -7.6271204    326.21595  0.017183731  0.016327512           24 
 1583000    0.6241835   -7.6427667    326.34111  0.017179465  0.016314901           18 
 1584000   0.61320946   -7.6255007    325.83406  0.017141943  0.016302291           20 
 1585000   0.61770252    -7.627003    325.93874  0.017136632  0.016289682            9 
 1586000   0.61492725   -7.6511277    326.50953  0.017155818  0.016277072           12 
 1587000   0.61735401   -7.6346078    326.34432  0.017136333  0.016264493           15 
 1588000   0.61619504   -7.6366978    326.16805  0.017116291  0.016251911           22 
 1589000   0.62145457   -7.6151931    326.26135  0.017110413  0.016239357           18 
 1590000    0.6124351   -7.6430067    327.30965  0.017154594  0.016226794           15 
 1591000    0.6121546   -7.6250199    326.51461  0.017102169  0.016214254           18 
 1592000   0.61525975   -7.6560419    326.02034  0.017065554  0.016201707           13 
 1593000   0.59953792   -7.6490805    326.22457  0.017065525  0.016189154           34 
 1594000   0.62262481   -7.6343845    326.65681  0.017077416  0.016176644           10 
 1595000   0.61144367   -7.6257101    326.50281  0.017058663   0.01616414           32 
 1596000   0.61383021   -7.6269389    326.33119  0.017039014  0.016151643           44 
 1597000   0.62105227   -7.6140782    326.47939  0.017036078  0.016139163           27 
 1598000   0.62418971    -7.645691    326.72848  0.017038407  0.016126686           62 
 1599000   0.61443433   -7.6461373    326.37831  0.017009501  0.016114216           51 
 1600000   0.63119258   -7.6367688    325.66833  0.016961892  0.016101736           36 
 1601000   0.63045914   -7.6502536    326.41006  0.016989905  0.016089239           61 
 1602000   0.61409604   -7.6505343     326.1218  0.016964305  0.016076768           36 
 1603000   0.62256719   -7.6340441    326.33009   0.01696455   0.01606431           15 
 1604000   0.61768624   -7.6193147    326.48006  0.016961765  0.016051849           17 
 1605000   0.61669018   -7.6453141    325.82291  0.016917077  0.016039392           25 
 1606000   0.60653645   -7.6367686    325.50224  0.016889904  0.016026932           27 
 1607000   0.61497284   -7.6447991    325.68274  0.016888754  0.016014482           21 
 1608000   0.61513582    -7.643777    325.99266  0.016894313  0.016002041           13 
 1609000   0.61266598    -7.637066    326.60033  0.016915285  0.015989615           14 
 1610000   0.59802973   -7.6356008    325.96619  0.016871956  0.015977189           16 
 1611000   0.60946454   -7.6545621    325.42777  0.016833632  0.015964771           24 
 1612000   0.60376402   -7.6730806    325.83971  0.016844484  0.015952334           16 
 1613000   0.59206787    -7.658595    325.29413  0.016805855  0.015939911           13 
 1614000    0.6111318   -7.6701161    325.29904  0.016795696  0.015927502           15 
 1615000   0.61015643   -7.6443811    325.99468  0.016821191  0.015915105           21 
 1616000   0.60758771   -7.6705273    325.23751  0.016771736    0.0159027           14 
 1617000   0.60686705    -7.660592    325.65163  0.016782706   0.01589031           15 
 1618000   0.60921116   -7.6527103    326.33624  0.016807594  0.015877928            9 
 1619000   0.60585898    -7.683647    325.45456   0.01675183  0.015865562            9 
 1620000   0.61223227   -7.6912826     325.9721  0.016768112  0.015853216            6 
 1621000    0.6116796   -7.6508992     325.9953   0.01675896   0.01584086           26 
 1622000   0.61286807   -7.6538179    325.80989  0.016739102  0.015828507           20 
 1623000   0.60363488   -7.6621784    325.96279  0.016736639  0.015816149           15 
 1624000   0.61141582   -7.7016599    326.20331  0.016738676  0.015803811           11 
 1625000   0.59885822   -7.6663759    326.11612  0.016723904  0.015791509           13 
 1626000   0.60932701   -7.6732894     326.5979   0.01673831  0.015779209           13 
 1627000   0.60822976   -7.6991136    325.65167  0.016679557  0.015766919           11 
 1628000   0.61035375    -7.640224    326.02669  0.016688508  0.015754632           21 
 1629000   0.61175637   -7.6791374    326.07798  0.016680887  0.015742369           22 
 1630000   0.59792183   -7.6701405    325.91645  0.016662395  0.015730102           11 
 1631000   0.60549513   -7.6869537    326.07451  0.016660255  0.015717826           21 
 1632000   0.60477761   -7.6857645    325.81284  0.016636685  0.015705574           18 
 1633000   0.61310453   -7.7114557    325.38522  0.016604675  0.015693343           17 
 1634000   0.59337366   -7.6882057    325.87291  0.016619385  0.015681098           14 
 1635000   0.60563295   -7.6742579    326.64531  0.016648588  0.015668884           37 
 1636000   0.60276251   -7.6904758    325.40353  0.016575159  0.015656665           14 
 1637000   0.59361907   -7.6749159    325.39208  0.016564451  0.015644461           19 
 1638000   0.58903226   -7.6779209    326.41129  0.016606191  0.015632257           21 
 1639000   0.60095179   -7.6899435    324.96399  0.016522472   0.01562007            8 
 1640000   0.59969561   -7.6839984    326.02161  0.016566139  0.015607876           11 
 1641000   0.58829194    -7.680631    325.75969  0.016542743  0.015595699           23 
 1642000   0.59893482   -7.6946093    325.61079  0.016525111   0.01558353           18 
 1643000   0.58867987   -7.7007261    326.13965  0.016541877  0.015571381           12 
 1644000   0.59110982   -7.6830943    325.39371  0.016494004  0.015559246           18 
 1645000   0.58531478    -7.699321    326.04722  0.016517083  0.015547115           22 
 1646000   0.59574234   -7.6817508    325.40072  0.016474317  0.015534982           14 
 1647000   0.59515366   -7.7079201    325.58977   0.01647388  0.015522883           15 
 1648000   0.59021461   -7.7038719    325.18563  0.016443448  0.015510771           12 
 1649000   0.61478185   -7.7140326    326.10494  0.016479934  0.015498666           17 
 1650000   0.60645999   -7.7074672    325.90316  0.016459756  0.015486568           24 
 1651000   0.58783447   -7.7054622    326.04713  0.016457053   0.01547449           26 
 1652000   0.60835813   -7.6996319    326.00941  0.016445188  0.015462385           22 
 1653000   0.59188345   -7.7113653    325.73575  0.016421443  0.015450293           26 
 1654000   0.58173182   -7.7043769    326.02441  0.016426059  0.015438236           21 
 1655000   0.58439525   -7.6915176    325.38104  0.016383738  0.015426178            9 
 1656000    0.5899209    -7.709759    325.40901  0.016375252  0.015414108           11 
 1657000   0.58330698   -7.6998156    326.00169  0.016395176  0.015402059           12 
 1658000    0.5938767   -7.7032332    325.59135  0.016364664  0.015390022           12 
 1659000   0.58196314   -7.7133609    325.82007  0.016366288  0.015378013           12 
 1660000   0.59370685   -7.6865347    325.65899  0.016348343  0.015366022           25 
 1661000   0.58640473   -7.7142309    325.78022  0.016344582  0.015354028           16 
 1662000   0.59438851   -7.7137263    325.68463  0.016329956   0.01534204           13 
 1663000   0.59022323   -7.6874539    325.59217  0.016315503  0.015330071            9 
 1664000   0.58504508   -7.6930716    326.55177  0.016353754  0.015318133           13 
 1665000    0.5935341   -7.7076596    326.26238  0.016329448  0.015306204           11 
 1666000   0.59591047   -7.7092424    326.47656   0.01633036  0.015294305            6 
 1667000   0.59793444   -7.7071249    326.27525    0.0163105  0.015282377            7 
 1668000    0.5832752   -7.6997533    326.27672  0.016300795  0.015270486            9 
 1669000   0.59420371   -7.7116706    326.26995   0.01629069  0.015258614            9 
 1670000   0.58120916   -7.6982837    325.90813  0.016262881   0.01524674           17 
 1671000   0.59880912   -7.7071231    325.52953  0.016234267  0.015234883           23 
 1672000   0.58347853   -7.7003869    326.29933  0.016262925  0.015223044           15 
 1673000   0.59543808   -7.7070786    325.84435  0.016230541  0.015211196           16 
 1674000   0.59594722   -7.7061713     325.6982   0.01621357  0.015199339           13 
 1675000    0.5790464   -7.6910695    325.65594  0.016201788  0.015187481           12 
 1676000   0.58720769   -7.7184624    325.61806  0.016190238   0.01517567           21 
 1677000   0.57391715   -7.7071693    325.83027  0.016191128  0.015163833            9 
 1678000   0.58672888   -7.7217588    325.94397  0.016187126  0.015152003           12 
 1679000   0.56949097   -7.7173519    325.30642  0.016145842  0.015140199            9 
 1680000    0.5864303   -7.7304281    325.76488  0.016158972  0.015128413           11 
 1681000   0.57322357   -7.7033433     326.2931  0.016175546  0.015116632           14 
 1682000   0.56855801   -7.7176776     325.3173  0.016117583   0.01510488           19 
 1683000   0.57974687   -7.7185582     325.5708  0.016120559  0.015093109           13 
 1684000   0.57033827     -7.71615    326.12097  0.016138211  0.015081359           15 
 1685000   0.58222975   -7.7198703    326.13745  0.016129448  0.015069603           13 
 1686000     0.585325   -7.7170758    325.11101  0.016069149  0.015057839            6 
 1687000   0.57785845   -7.7270576    325.70463  0.016088946  0.015046086           10 
 1688000   0.58232152   -7.7163066     325.8561  0.016086893  0.015034348           11 
 1689000   0.57920523   -7.7395537    325.56235  0.016062875  0.015022617            9 
 1690000   0.56845104   -7.7369599    325.64023   0.01605721  0.015010894           19 
 1691000   0.57263405   -7.7096952    325.94281  0.016062626  0.014999188            6 
 1692000   0.58216631   -7.7190556    325.51828  0.016032224  0.014987491           30 
 1693000   0.57028042   -7.7059966    325.51429  0.016022558  0.014975774           20 
 1694000   0.58386117   -7.7273857    325.45792  0.016010327  0.014964072           24 
 1695000   0.57173252   -7.7260275    325.70055   0.01601281  0.014952365           18 
 1696000   0.57069369   -7.7343839     325.6501  0.016000889  0.014940688           23 
 1697000     0.568332   -7.7326066    325.15898  0.015967343  0.014929008           14 
 1698000   0.57093585   -7.7264789    326.94966  0.016045822  0.014917364            9 
 1699000   0.57444225   -7.7380275    325.28527  0.015954742  0.014905717           17 
 1700000   0.57641513   -7.7465303    325.62242  0.015961883  0.014894069           18 
 1701000   0.57486966   -7.7363461    325.91163  0.015966668  0.014882442           12 
 1702000   0.57105653   -7.6997492    325.64206  0.015944088  0.014870841           11 
 1703000   0.57111542   -7.7280574    325.75022  0.015940019  0.014859252           10 
 1704000   0.56959098   -7.7265452    325.78815  0.015932519  0.014847671            8 
 1705000   0.56747279   -7.7076459    325.45048  0.015906671  0.014836083           18 
 1706000   0.56779299    -7.714078    325.57785  0.015903568  0.014824518           18 
 1707000   0.57748632   -7.7230319    324.98229  0.015865177  0.014812954           14 
 1708000   0.57209588   -7.7253363    325.32449  0.015872584  0.014801383           15 
 1709000   0.56483872   -7.7378496    325.14228  0.015854412  0.014789846           14 
 1710000   0.57185449   -7.7565291    325.14305  0.015845178  0.014778285           27 
 1711000   0.57906946   -7.7559916    325.84603  0.015870156   0.01476675           22 
 1712000   0.56629022   -7.7448453    325.63868  0.015850793  0.014755223           13 
 1713000    0.5704847   -7.7380504    325.44237  0.015831989  0.014743695           11 
 1714000    0.5724002   -7.7496884    325.47851   0.01582451  0.014732176           10 
 1715000   0.56999431    -7.737999    325.08044   0.01579594  0.014720692           14 
 1716000   0.57260581   -7.7352072    325.54672  0.015809378  0.014709204           14 
 1717000   0.56088694   -7.7610237    325.76463  0.015810747  0.014697734           17 
 1718000   0.56911017   -7.7463309    325.16545   0.01577248  0.014686257           18 
 1719000   0.56858164    -7.750607    325.69427  0.015788941  0.014674798           14 
 1720000   0.56422314   -7.7475429    325.60841  0.015775601  0.014663318           20 
 1721000    0.5714447   -7.7480574    325.89727  0.015780422  0.014651864           18 
 1722000    0.5522851   -7.7378454     325.4661  0.015750392  0.014640411           31 
 1723000   0.56364162   -7.7608654    325.43396  0.015739696  0.014628956           21 
 1724000   0.56312186   -7.7540446    325.57598  0.015737431   0.01461751           20 
 1725000    0.5689576   -7.7574236    325.14247  0.015707366  0.014606056           16 
 1726000   0.56625975   -7.7635772    324.91505  0.015687285  0.014594609           22 
 1727000    0.5745323   -7.7533462    325.23986  0.015693875   0.01458319           12 
 1728000   0.56489163   -7.7477766    325.30016    0.0156877  0.014571771           13 
 1729000   0.56471077   -7.7679005    324.99378   0.01566386  0.014560363           13 
 1730000   0.57723655   -7.7748272    325.12396  0.015661077  0.014548976           10 
 1731000    0.5700508   -7.7621193    324.93389  0.015642879  0.014537602           10 
 1732000   0.56757558   -7.7629018    325.77643  0.015674385  0.014526238            9 
 1733000     0.564871   -7.7573258     324.9874  0.015627399  0.014514905           28 
 1734000   0.55648499   -7.7421185    325.47104   0.01564163  0.014503568           11 
 1735000   0.56212097   -7.7508063    325.82085  0.015649416  0.014492252           13 
 1736000   0.56506006   -7.7562672    324.74818   0.01558891  0.014480932           15 
 1737000   0.55491659    -7.752529    325.49638  0.015615831  0.014469607           22 
 1738000   0.55129418   -7.7609646    325.43304  0.015603809  0.014458287           24 
 1739000   0.55622169   -7.7491233    325.56556  0.015601186  0.014446979           14 
 1740000   0.57112875   -7.7585319    325.48788    0.0155885   0.01443568            9 
 1741000   0.54929521   -7.7789395    325.46839  0.015578613  0.014424394           15 
 1742000   0.55740019   -7.7693222    325.01475  0.015547969  0.014413104           12 
 1743000   0.56719668   -7.7941564    325.00836  0.015538743  0.014401825           10 
 1744000   0.56282372   -7.7553764    325.43278  0.015550114  0.014390559           23 
 1745000   0.56295195   -7.7718498    325.02821  0.015521882  0.014379291           18 
 1746000   0.55980471   -7.7638325    325.46418    0.0155338  0.014368048           15 
 1747000   0.56370597   -7.7743688     325.4259  0.015523082  0.014356826            9 
 1748000   0.55332413   -7.7727166    325.45361  0.015515523  0.014345611            7 
 1749000   0.55704584   -7.7739611    324.77238  0.015474194  0.014334402           23 
 1750000   0.55233988   -7.7578477    325.40618  0.015495532  0.014323205           19 
 1751000   0.55085716   -7.7581955    325.03076  0.015468816  0.014312011           22 
 1752000   0.55857528   -7.7619251     324.9073  0.015454114  0.014300833           25 
 1753000   0.56442225   -7.7746088    325.12224  0.015455516  0.014289648           18 
 1754000   0.55051642    -7.774483    325.19337  0.015450084  0.014278497           20 
 1755000   0.54612295   -7.7631295    324.79449   0.01542234  0.014267323           17 
 1756000   0.55023554   -7.7677922    324.99322  0.015422989  0.014256165           32 
 1757000   0.55415226   -7.7540792    325.01764  0.015415369  0.014245022           14 
 1758000   0.55750702    -7.777561    325.42545  0.015425931  0.014233885           11 
 1759000   0.53039728   -7.7749341    325.20022  0.015406492  0.014222748           12 
 1760000    0.5397815   -7.7928243    325.12444   0.01539415  0.014211631           25 
 1761000   0.54437554   -7.7999065    325.05199   0.01538198  0.014200527           18 
 1762000   0.54897013   -7.7946155    324.92013  0.015367013  0.014189415           24 
 1763000   0.54843393   -7.7832354    325.07101  0.015365428  0.014178315           25 
 1764000   0.53303694   -7.7779082     324.8621  0.015346849  0.014167218           29 
 1765000   0.55070001   -7.7924611    325.30191  0.015358919  0.014156128           15 
 1766000   0.55428782   -7.7869121     325.1091  0.015341124  0.014145053           14 
 1767000   0.54983057    -7.781885    324.69004  0.015312679  0.014133983           16 
 1768000   0.55304215   -7.7905055    325.52431   0.01534334  0.014122929           20 
 1769000   0.54700777   -7.7893539    325.12869   0.01531603  0.014111882           18 
 1770000   0.55559087   -7.7972457    325.23601   0.01531243  0.014100855           17 
 1771000   0.54781487   -7.7924168     324.8327  0.015284806  0.014089827           21 
 1772000     0.534128   -7.8005357     325.3992  0.015302822  0.014078811           21 
 1773000   0.53841891   -7.7864164     324.9232  0.015271818  0.014067814           12 
 1774000   0.56298547   -7.7910181    324.99978  0.015266807  0.014056821           22 
 1775000   0.54563096   -7.8031344    325.77649  0.015294671  0.014045831           11 
 1776000   0.53581393   -7.8040747    325.02198  0.015250656  0.014034863           15 
 1777000   0.53762135   -7.7991503    325.46801   0.01526299   0.01402391           13 
 1778000   0.54660642   -7.7780038      325.231  0.015243298  0.014012981           40 
 1779000   0.55885327   -7.7988452    325.23325  0.015234835  0.014002053           16 
 1780000   0.54938594   -7.7882578    325.22352   0.01522582  0.013991146           15 
 1781000   0.54098974   -7.7940322    325.14488  0.015213592  0.013980236           18 
 1782000    0.5462244   -7.7857963    325.51486  0.015222356  0.013969352           22 
 1783000   0.54880215   -7.7695238    325.11901  0.015195317  0.013958458           19 
 1784000   0.53235974   -7.8004903    325.69583  0.015213744  0.013947581           12 
 1785000   0.54128639   -7.8043227    325.06933  0.015175973   0.01393672           13 
 1786000   0.54320429   -7.7989195    324.81817  0.015155756  0.013925845           22 
 1787000   0.53307905   -7.7830478    325.12469  0.015161569  0.013914987           20 
 1788000   0.54168534   -7.7838088    325.08542  0.015151259  0.013904139           22 
 1789000   0.53686456   -7.7971955    325.37192  0.015156135  0.013893293           18 
 1790000   0.55876347   -7.7997509    324.78964  0.015120561  0.013882462           15 
 1791000    0.5440456   -7.7895236    324.78587  0.015111942  0.013871643           34 
 1792000   0.53009712   -7.8050204    324.84328  0.015106179  0.013860847           17 
 1793000   0.53231449   -7.7931575    325.03191  0.015106521   0.01385005           26 
 1794000   0.54980151   -7.8204205    324.26349  0.015062407  0.013839263           19 
 1795000   0.54872407   -7.7970437    325.31459  0.015102813   0.01382848           19 
 1796000   0.53503879   -7.7860622    324.65635  0.015063862  0.013817701           19 
 1797000   0.53558433   -7.7859326    324.68155  0.015056648  0.013806936           20 
 1798000   0.53528952   -7.8092532    324.75387  0.015051625  0.013796177           20 
 1799000   0.52799427   -7.7937553    325.03881  0.015056458  0.013785431           13 
 1800000   0.54082386   -7.8085995    325.11028  0.015051402  0.013774704           15 
 1801000   0.53229874   -7.8098297    324.56795  0.015017951  0.013763971           25 
 1802000   0.53926233   -7.8011955    324.35762   0.01499989  0.013753239           14 
 1803000   0.54167982   -7.8036355    324.60352  0.015002936   0.01374253           27 
 1804000   0.52950175   -7.7979341    324.76939  0.015002282  0.013731817           21 
 1805000   0.54399921   -7.8238462    324.46431  0.014979885  0.013721114           24 
 1806000   0.54068967   -7.8068535    324.99762  0.014996199  0.013710421           27 
 1807000   0.53020918    -7.816501    324.70577  0.014974441  0.013699734           30 
 1808000   0.52738859   -7.8159232    324.49841  0.014956601  0.013689057           25 
 1809000   0.52591445   -7.8149763    325.23879  0.014982439  0.013678386           31 
 1810000   0.53027955   -7.8008768    324.58192  0.014943919  0.013667713           33 
 1811000    0.5500003   -7.8300123    324.90328  0.014950454  0.013657044           18 
 1812000   0.52601055   -7.8079582    324.49841  0.014923584  0.013646389           32 
 1813000   0.52473617   -7.8036741    324.74071   0.01492649  0.013635741           17 
 1814000   0.53120595   -7.8252012    325.07496  0.014933617  0.013625115           28 
 1815000    0.5226887   -7.8181145    324.80979  0.014913213   0.01361449           19 
 1816000   0.53048054   -7.8303432    324.64901  0.014897623  0.013603869           30 
 1817000   0.52236581   -7.8253586    324.40745  0.014878346  0.013593263           30 
 1818000   0.52063756   -7.7908202    324.74132  0.014885466  0.013582659           21 
 1819000   0.52567753   -7.8189566    324.01345  0.014843937  0.013572081           16 
 1820000   0.53358078   -7.8261051    324.66251  0.014865499  0.013561517           19 
 1821000    0.5222077   -7.8544911    325.14374  0.014879358  0.013550949           20 
 1822000   0.52399174   -7.8124001     324.9503  0.014862345  0.013540388           19 
 1823000   0.52032625   -7.8216944    324.67806  0.014841747  0.013529841           27 
 1824000   0.51131034   -7.8287881    324.56418  0.014828408  0.013519296           21 
 1825000   0.51508121   -7.8317142    324.57855  0.014820938  0.013508757           21 
 1826000   0.51771194   -7.8232558    324.40296  0.014804808  0.013498205           16 
 1827000   0.51414228   -7.8175336    324.33782  0.014793734  0.013487678           18 
 1828000   0.51651171   -7.8355196    324.41519  0.014789168  0.013477162           17 
 1829000   0.53399178   -7.8549157    324.49089  0.014784531  0.013466661           22 
 1830000    0.5313467   -7.8243612    324.54195  0.014778777  0.013456169           17 
 1831000   0.53436674   -7.8244773    324.16427  0.014753517  0.013445683           17 
 1832000   0.52004893   -7.8159133    324.43549  0.014757801   0.01343521           23 
 1833000   0.52218024   -7.8323524    324.65617  0.014759782  0.013424732           37 
 1834000   0.52443426   -7.8235866    324.29268  0.014735218  0.013414276           14 
 1835000    0.5399487   -7.8316528    324.34922  0.014729756  0.013403822           15 
 1836000   0.52493475   -7.8319909    324.45163  0.014726381  0.013393387           19 
 1837000   0.52836454   -7.8487828      324.448    0.0147182  0.013382943           11 
 1838000   0.52450404   -7.8308581    324.34696  0.014705611  0.013372513           19 
 1839000   0.51067521   -7.8362609    324.73616  0.014715251  0.013362093           15 
 1840000    0.5111573   -7.8354045     324.3059  0.014687767  0.013351688           36 
 1841000   0.51761708   -7.8306933    324.18327  0.014674238  0.013341298           37 
 1842000    0.5145857   -7.8446384    324.40064  0.014676106  0.013330912           16 
 1843000   0.51319103   -7.8482547     324.8574  0.014688796  0.013320538           21 
 1844000   0.50832432   -7.8601755    324.32555  0.014656794   0.01331017           15 
 1845000   0.52414995   -7.8442726     324.0055  0.014634395  0.013299791           17 
 1846000   0.52134912   -7.8327324    324.63316  0.014654801  0.013289432           18 
 1847000   0.51942698   -7.8414979    324.05461  0.014620764  0.013279081           17 
 1848000   0.52211436   -7.8446287      324.052  0.014612734  0.013268735           23 
 1849000   0.51869953   -7.8363534    324.73521  0.014635623  0.013258401           20 
 1850000   0.50666484   -7.8330023    324.28814  0.014607574  0.013248073           32 
 1851000   0.51207007   -7.8302088    324.52726  0.014610447  0.013237754           46 
 1852000    0.5241778   -7.8366907    324.93107  0.014620728  0.013227455           44 
 1853000   0.51870723   -7.8478976    324.37988   0.01458805  0.013217161           27 
 1854000   0.51107493   -7.8364733    323.71275  0.014550196  0.013206876           38 
 1855000   0.51444154   -7.8497759    324.31725  0.014569508  0.013196611           16 
 1856000   0.50487258   -7.8508832    323.77639  0.014537374  0.013186337           20 
 1857000   0.52102309   -7.8406611    323.87291  0.014533877  0.013176074           18 
 1858000   0.51507726   -7.8510253    324.24567  0.014542773  0.013165818           18 
 1859000   0.49581599   -7.8438532    324.10491  0.014528641  0.013155574           23 
 1860000   0.51377391   -7.8506061    324.60622  0.014543289  0.013145343           19 
 1861000   0.50963138   -7.8522487     324.0805  0.014511934  0.013135111           19 
 1862000   0.50433569   -7.8626258    324.31062  0.014514439  0.013124896           17 
 1863000   0.51092687   -7.8550262    324.26816  0.014504748  0.013114678           18 
 1864000   0.50909634   -7.8359398    323.99513  0.014484761  0.013104479           15 
 1865000   0.51078334    -7.867909     324.2391  0.014487895  0.013094285           17 
 1866000   0.51327833   -7.8613671     323.9827  0.014468681  0.013084097           13 
 1867000   0.50872746   -7.8738389     324.3635  0.014477928  0.013073926           16 
 1868000   0.50215889   -7.8545583    324.63788  0.014482418  0.013063768            9 
 1869000   0.50696897   -7.8643522    324.33114  0.014460992   0.01305362           15 
 1870000   0.52834765   -7.8561954    324.35941  0.014454519  0.013043476           18 
 1871000   0.50775914    -7.858331    323.91898  0.014427177  0.013033349           24 
 1872000   0.49424909   -7.8608822    324.19226  0.014431635  0.013023229           11 
 1873000   0.50975562   -7.8540558    324.34148  0.014430569  0.013013121           18 
 1874000   0.50500938   -7.8581268    324.41574  0.014426171  0.013003024            9 
 1875000   0.50282844   -7.8666918    324.39713   0.01441765  0.012992933           12 
 1876000   0.50354365   -7.8634881    324.60955  0.014419401  0.012982849            9 
 1877000    0.5029804   -7.8662589    323.83044  0.014377129  0.012972778           13 
 1878000   0.50386128   -7.8471463    323.86497  0.014371005  0.012962715           13 
 1879000   0.49762792   -7.8631966     324.2375  0.014379878  0.012952664           14 
 1880000   0.49158005   -7.8540493    324.12026  0.014367033  0.012942614           16 
 1881000   0.49559242   -7.8663725    324.04893  0.014356235  0.012932587           18 
 1882000   0.49585342   -7.8728616     323.5253  0.014325421  0.012922573           22 
 1883000   0.51416306   -7.8793123    324.49837  0.014360877  0.012912554           10 
 1884000   0.50663062   -7.8597287    324.33942  0.014346223  0.012902542           12 
 1885000   0.49780766   -7.8679728    324.36373  0.014339688  0.012892546            7 
 1886000   0.49997615   -7.8852169    324.21138  0.014325353  0.012882545           10 
 1887000   0.49708246   -7.8575447    324.05364  0.014310795  0.012872568           38 
 1888000   0.49404544   -7.8649248    324.12417  0.014306328  0.012862591           11 
 1889000   0.48624506   -7.8748257    324.55647  0.014317825  0.012852619           11 
 1890000   0.50235966   -7.8627342    323.60045  0.014268098  0.012842655           13 
 1891000   0.50065966   -7.8724383    324.22906  0.014288254  0.012832709           16 
 1892000   0.49888085   -7.8807748    324.02862  0.014271874  0.012822766           19 
 1893000   0.50750285   -7.8585079    323.79586  0.014254088  0.012812844            9 
 1894000   0.51300164   -7.8848253    324.45999  0.014275783  0.012802931           13 
 1895000     0.493185   -7.8635069    323.98303  0.014247275  0.012793024           11 
 1896000   0.48302584   -7.8737902    324.22198  0.014250263  0.012783132            9 
 1897000   0.49778704    -7.879033     324.1907  0.014241377  0.012773231           15 
 1898000   0.48575878   -7.8526025    323.72692  0.014213511  0.012763334           15 
 1899000   0.49164345   -7.8802813     323.9887  0.014217514  0.012753457           14 
 1900000   0.49587856   -7.8719731    323.98293  0.014209777  0.012743589           12 
 1901000   0.49740638   -7.8794455    324.02727  0.014204246  0.012733725            9 
 1902000   0.49498703   -7.8638689    323.83527  0.014188366  0.012723856           20 
 1903000   0.49814574   -7.8818132    324.03239  0.014189543  0.012714008           20 
 1904000   0.49516941   -7.8705072     323.9082  0.014176654  0.012704167            8 
 1905000   0.49536588   -7.8899827    323.69588  0.014159925  0.012694327           18 
 1906000   0.49721209   -7.8781347    323.66705  0.014151235  0.012684494           23 
 1907000   0.49375859   -7.8800926    323.81628  0.014150336  0.012674671           30 
 1908000   0.49501241   -7.8764238    323.66579  0.014136346  0.012664865           27 
 1909000   0.49659148   -7.8737736    323.40606  0.014117603  0.012655066           24 
 1910000   0.48013724   -7.8901557    323.84468  0.014129349  0.012645275           28 
 1911000   0.48707901   -7.8841294    324.33474  0.014143325  0.012635483           15 
 1912000   0.49836645    -7.880655    323.75446  0.014110637  0.012625704           22 
 1913000   0.49500586   -7.8883222    323.32868  0.014084713  0.012615932           14 
 1914000   0.49663598   -7.8850372    323.58942  0.014088707  0.012606174           25 
 1915000   0.49515454   -7.8869568    323.41093  0.014073583  0.012596409           12 
 1916000   0.49369988   -7.8839859    323.59097  0.014074068  0.012586657            9 
 1917000    0.4836668   -7.8940521    323.78773  0.014075279   0.01257692           22 
 1918000   0.49961608   -7.9088025    323.85969  0.014071067  0.012567188           24 
 1919000   0.48593409   -7.8765651    323.87068  0.014064212  0.012557455           11 
 1920000   0.48497103   -7.8964699     323.9332  0.014059601  0.012547729            6 
 1921000   0.48248217   -7.8880885    323.31124  0.014025301  0.012538017           11 
 1922000   0.48252777   -7.8899472    324.09066  0.014051798   0.01252831           13 
 1923000   0.48528941   -7.8902474    323.82809  0.014033112  0.012518616            8 
 1924000   0.48685098   -7.8976592    324.24417   0.01404384  0.012508936           22 
 1925000   0.49178194   -7.8824711    323.86702  0.014020217  0.012499259            9 
 1926000   0.49060674   -7.9060473    323.83703   0.01401164  0.012489589           14 
 1927000   0.49110985   -7.9034847    323.65477  0.013996487  0.012479935           13 
 1928000   0.48506756   -7.8975322      323.373  0.013977049   0.01247028           10 
 1929000     0.478306   -7.9027441    323.76195  0.013986606  0.012460621           12 
 1930000    0.4891143   -7.8868626    323.39909  0.013963691  0.012450981           26 
 1931000   0.47578224   -7.9017642    323.74063  0.013971199  0.012441351           13 
 1932000   0.47395106   -7.9026886    323.52014  0.013954457  0.012431724           12 
 1933000   0.47705303   -7.9029144    323.82695  0.013960465  0.012422113           10 
 1934000   0.47957213   -7.9004353     322.9883   0.01391711  0.012412508           20 
 1935000   0.48044193   -7.9009402    323.55192  0.013934191  0.012402902           10 
 1936000   0.48290463   -7.8755344    323.53501  0.013926266   0.01239331           12 
 1937000   0.47873789    -7.912266    323.32132  0.013909883  0.012383727           10 
 1938000   0.46782442   -7.9154232    323.31792  0.013902559  0.012374149           14 
 1939000   0.47118086   -7.8990937    322.97679  0.013880728  0.012364571           17 
 1940000   0.47508126   -7.8980099    323.00988  0.013874995  0.012355003           10 
 1941000   0.47977213   -7.9181625    322.99804  0.013867338  0.012345449           11 
 1942000   0.48544451   -7.9091942    323.32077  0.013874046  0.012335892           14 
 1943000     0.475523   -7.8981109     323.3206  0.013866898  0.012326346           11 
 1944000   0.46883891   -7.9141515    323.07731  0.013849336  0.012316808           13 
 1945000   0.47084896   -7.9074336    323.19395  0.013847213   0.01230728           11 
 1946000   0.47456738   -7.9111018    323.15028  0.013838227  0.012297769           10 
 1947000   0.48303023   -7.9064408    323.27805  0.013836588  0.012288251           10 
 1948000   0.46912132   -7.9037637    323.36611  0.013833253  0.012278755           16 
 1949000   0.47831597   -7.9044541     323.0265  0.013811634  0.012269271           13 
 1950000   0.48135086   -7.9159513    323.43546  0.013822028  0.012259783           10 
 1951000   0.46738706   -7.9028708    323.46273  0.013816108  0.012250308           10 
 1952000   0.47905682   -7.9175052    323.43746  0.013807952  0.012240841           19 
 1953000     0.475101   -7.9018424    323.58708  0.013807266  0.012231391           12 
 1954000   0.46828029   -7.9070727    323.07223  0.013778243  0.012221937           13 
 1955000   0.46917935   -7.9094267    322.95371  0.013766143  0.012212494            7 
 1956000   0.47268602   -7.9064413     322.9728  0.013759918   0.01220306            9 
 1957000   0.47541029   -7.9222309    322.96049  0.013752363  0.012193638           12 
 1958000   0.47245719   -7.9176815    323.29895  0.013759744  0.012184228           16 
 1959000   0.47905702   -7.9125562     323.4405  0.013758742  0.012174825           14 
 1960000   0.47145178    -7.912055    323.19926  0.013741465  0.012165418           13 
 1961000   0.47214845   -7.9185275    322.76075  0.013715823  0.012156015           17 
 1962000    0.4775088   -7.9181925    322.97822  0.013718069  0.012146635           37 
 1963000   0.46850244   -7.9146948    323.08642  0.013715674  0.012137264           14 
 1964000   0.46259521   -7.9149672    323.17984  0.013712655  0.012127901           21 
 1965000   0.45547699   -7.9151105    323.07872  0.013701388  0.012118552           12 
 1966000   0.46537268   -7.9152507    322.83717   0.01368418  0.012109207           20 
 1967000   0.47590591   -7.9135026    323.32742  0.013697993  0.012099859           10 
 1968000    0.4730077   -7.9214403     322.7997  0.013668686  0.012090526           16 
 1969000   0.46898156   -7.9278486    323.18653  0.013678116  0.012081206           12 
 1970000   0.46800417   -7.9325655    322.83433  0.013656275  0.012071886           10 
 1971000   0.47386902   -7.9144681    323.13605  0.013662103  0.012062573           20 
 1972000   0.47266231   -7.9359541    323.31058   0.01366255   0.01205328           28 
 1973000   0.46586203   -7.9170027    323.53202  0.013664978  0.012043997           23 
 1974000   0.46314341   -7.9303119     323.7747  0.013668301  0.012034717           20 
 1975000   0.46251438   -7.9210891    323.76385  0.013660922  0.012025451           10 
 1976000   0.46161274   -7.9180697    323.05822   0.01362425  0.012016192           12 
 1977000   0.46846233   -7.9305277    323.18107  0.013622537   0.01200694            8 
 1978000   0.47194321   -7.9198898    323.27304  0.013619525    0.0119977           12 
 1979000   0.46346086    -7.924201    323.41351  0.013618558  0.011988473            9 
 1980000   0.46541618   -7.9175966    323.43513  0.013612589  0.011979247            8 
 1981000    0.4607192   -7.9344049    323.11195  0.013592123  0.011970036           29 
 1982000   0.46779718   -7.9218873    322.97291  0.013579419  0.011960825           16 
 1983000   0.46603121   -7.9229081    322.97944  0.013572846  0.011951631           18 
 1984000   0.45996955   -7.9202504    322.86584  0.013561233  0.011942442           13 
 1985000   0.45721381    -7.938132    322.79395  0.013551383  0.011933259           15 
 1986000   0.45632919   -7.9089511    323.07801  0.013556479  0.011924091            9 
 1987000   0.46159689   -7.9277463    323.42124  0.013564051  0.011914929           15 
 1988000   0.46601405   -7.9375731    323.22316  0.013548925  0.011905779           26 
 1989000   0.45755562   -7.9197185    323.25116  0.013543286  0.011896643           13 
 1990000   0.46560191   -7.9351029    322.80979  0.013517998  0.011887506           10 
 1991000   0.46173413   -7.9196661    322.77104  0.013509586  0.011878387           11 
 1992000   0.46048425   -7.9299351    323.17264  0.013519605  0.011869276           13 
 1993000    0.4623748   -7.9220838    322.53437  0.013486134  0.011860166           19 
 1994000   0.45161864    -7.923415    322.75499   0.01348859  0.011851072           13 
 1995000   0.45048959   -7.9264405    323.29748  0.013504489   0.01184198           11 
 1996000    0.4503726   -7.9389474    322.95459  0.013483408  0.011832896           11 
 1997000    0.4596801   -7.9340389    322.50241  0.013457787  0.011823826           16 
 1998000   0.45786843   -7.9264807    322.87377   0.01346654  0.011814762            9 
 1999000   0.45446863   -7.9341577    323.36739  0.013480381  0.011805712           12 
 2000000    0.4554082   -7.9403078    323.26343  0.013469309  0.011796667           10 
 2001000   0.46234905   -7.9500943    322.98022  0.013450784  0.011787629           18 
 2002000   0.45292078   -7.9425912    322.70988  0.013432812  0.011778594           22 
 2003000   0.45074124   -7.9390804    323.08065  0.013441532  0.011769575           17 
 2004000   0.45983748   -7.9281841    322.83212  0.013424489  0.011760556           17 
 2005000   0.45170478   -7.9379857     322.9916  0.013424422   0.01175155           11 
 2006000   0.45189886   -7.9424548    322.89644  0.013413777  0.011742545           11 
 2007000   0.45172011   -7.9561981    322.59332  0.013394508  0.011733546           10 
 2008000    0.4522423   -7.9569913    322.52214  0.013384883  0.011724559            6 
 2009000   0.44503747   -7.9452542    322.73059  0.013386867   0.01171558           12 
 2010000   0.45426322   -7.9488651    323.04093  0.013393073  0.011706603            7 
 2011000   0.45440753   -7.9351117    323.01501   0.01338534  0.011697643           11 
 2012000   0.45409025    -7.955122    322.95711  0.013376288  0.011688682            9 
Loop time of 4441.38 on 48 procs for 2000000 steps with 4000 atoms

Performance: 77813.735 tau/day, 450.311 timesteps/s
99.4% CPU use with 48 MPI tasks x no OpenMP threads

MPI task timing breakdown:
Section |  min time  |  avg time  |  max time  |%varavg| %total
---------------------------------------------------------------
Pair    | 274.21     | 295.71     | 311.87     |  44.0 |  6.66
Neigh   | 27.761     | 28.783     | 29.422     |   6.4 |  0.65
Comm    | 256.61     | 275.24     | 298.21     |  48.5 |  6.20
Output  | 4.0941     | 4.0964     | 4.134      |   0.3 |  0.09
Modify  | 3772       | 3790.2     | 3808.2     |  12.6 | 85.34
Other   |            | 47.32      |            |       |  1.07

Nlocal:        83.3333 ave          91 max          77 min
Histogram: 5 0 10 3 5 11 5 6 1 2
Nghost:        1855.83 ave        1884 max        1831 min
Histogram: 2 7 6 4 5 7 10 4 2 1
Neighs:        11542.1 ave       12861 max        9710 min
Histogram: 1 0 4 5 7 6 10 8 4 3
FullNghs:      23084.5 ave       25536 max       20977 min
Histogram: 4 1 9 6 8 8 4 4 1 3

Total # of neighbors = 1108058
Ave neighs/atom = 277.01450
Neighbor list builds = 107657
Dangerous builds = 0

#clear
#
#next RN
#
#jump SELF
Total wall time: 1:14:04
