
units lj                  # Use reduced LJ style units
atom_style atomic         # Uncharged point particles
atom_modify map hash      # Needed for indexing of clusters etc
                          # Used to be able to find where atoms are in relation to each other.

lattice fcc 1.0 spacing 1 1 1
Lattice spacing in x,y,z = 1.5874011 1.5874011 1.5874011
region box block 0 10 0 10 0 10 units lattice
create_box 2 box
Created orthogonal box = (0.0000000 0.0000000 0.0000000) to (15.874011 15.874011 15.874011)
  3 by 4 by 4 MPI processor grid
create_atoms 1 box
Created 4000 atoms
  using lattice units in orthogonal box = (0.0000000 0.0000000 0.0000000) to (15.874011 15.874011 15.874011)
  create_atoms CPU = 0.028 seconds
set type 1 type/fraction 2 0.55 78393
Setting atom values ...
  2215 settings made for type/fraction
mass 1 1.0
mass 2 1.0
pair_style lj/cut  3.5
pair_modify tail  yes
pair_coeff 1  1  1.0  1.0   # Intearaction between 1 and 1 set with epsilon = 1 and sigma = 1
pair_coeff 1  2  1.5  0.8
pair_coeff 2  2  0.5  0.88

write_data data.0
System init for write_data ...
Neighbor list info ...
  update every 1 steps, delay 10 steps, check yes
  max neighbors/atom: 2000, page size: 100000
  master list distance cutoff = 3.8
  ghost atom cutoff = 3.8
  binsize = 1.9, bins = 9 9 9
  1 neighbor lists, perpetual/occasional/extra = 1 0 0
  (1) pair lj/cut, perpetual
      attributes: half, newton on
      pair build: half/bin/atomonly/newton
      stencil: half/bin/3d
      bin: standard
WARNING: Not all mixed pair coeffs generated from mixing. Use write_data with 'pair ij' option to store all pair coeffs. (../write_data.cpp:312)


#############################
#   M E L T   S Y S T E M   #
#############################

velocity all create 2.4 2750902 mom yes dist gaussian # Assign velocities
                                                    # Temperature 2.4, random number seed, zero linear momentum
                                                                                # Gaussian distribution

timestep 0.002   # simulation timestep
thermo 1000       # output thermodynamic data every 1000 steps bf 100

# Define a fix  in this case with index 1 applied to all
# particles in the simulation. This fix is for simulations
# in the anisotropic NPT ensemble. Note that we use the MTK
# correction.
fix 1 all npt temp 2.4 2.4 0.1 iso 5.68 5.68 0.5 mtk yes tchain 5 pchain 5 # Use NPT ensemble
                                                                         # Set temperature and pressure and damping
                                                                         # Numbers of thermostats in chain and in barostat
run 10000          # run for 10000 steps
Per MPI rank memory allocation (min/avg/max) = 3.642 | 3.644 | 3.648 Mbytes
Step Temp E_pair E_mol TotEng Press Volume 
       0          2.4   -4.9973821            0   -1.3982821   -4.1559512         4000 
    1000    2.4143983   -4.6551094            0   -1.0344174    5.8488099    3647.7498 
    2000    2.4101461   -4.6880307            0   -1.0737154    5.4813227    3664.1824 
    3000    2.3991685   -4.7163977            0   -1.1185447    5.5980896    3644.6923 
    4000    2.3731887    -4.654084            0   -1.0951909    5.9200235    3646.0724 
    5000    2.3612887    -4.731916            0   -1.1908684    5.6725424     3632.744 
    6000    2.3724804   -4.7073862            0   -1.1495552    5.6582962    3648.5035 
    7000    2.3963781   -4.7186246            0   -1.1249562    5.6525886    3642.3978 
    8000     2.403706   -4.6474737            0   -1.0428161    6.0706565    3634.7239 
    9000    2.4332902    -4.766888            0   -1.1178652     5.708866    3608.8267 
   10000    2.3993236   -4.6667034            0   -1.0686178     5.536066    3673.4247 
Loop time of 2.67501 on 48 procs for 10000 steps with 4000 atoms

Performance: 645978.571 tau/day, 3738.302 timesteps/s
99.6% CPU use with 48 MPI tasks x no OpenMP threads

MPI task timing breakdown:
Section |  min time  |  avg time  |  max time  |%varavg| %total
---------------------------------------------------------------
Pair    | 1.2036     | 1.2748     | 1.4198     |   3.2 | 47.66
Neigh   | 0.21222    | 0.2231     | 0.24231    |   1.1 |  8.34
Comm    | 0.75485    | 0.90066    | 0.9938     |   4.5 | 33.67
Output  | 0.00024731 | 0.00025242 | 0.00033634 |   0.0 |  0.01
Modify  | 0.22164    | 0.26001    | 0.31792    |   4.7 |  9.72
Other   |            | 0.01619    |            |       |  0.61

Nlocal:        83.3333 ave          94 max          74 min
Histogram: 3 4 4 5 10 7 7 4 0 4
Nghost:        1743.83 ave        1776 max        1716 min
Histogram: 2 2 6 7 9 7 11 2 1 1
Neighs:        10416.4 ave       12161 max        8860 min
Histogram: 2 2 7 6 8 11 6 3 0 3

Total # of neighbors = 499985
Ave neighs/atom = 124.99625
Neighbor list builds = 901
Dangerous builds = 190

# Equilibrate just above the melting temperature to avoid step fn in T

fix 1 all npt temp 1.25 1.25 0.1 iso 5.68 5.68 0.5 mtk yes tchain 5 pchain 5
run 2000
Per MPI rank memory allocation (min/avg/max) = 3.644 | 3.646 | 3.650 Mbytes
Step Temp E_pair E_mol TotEng Press Volume 
   10000    2.3993236   -4.6667034            0   -1.0686178     5.536066    3673.4247 
   11000    1.2453977   -6.7905952            0   -4.9229657    5.5270217    2821.6382 
   12000    1.2304243   -6.9241964            0   -5.0790213    5.7785373    2780.2656 
Loop time of 0.653846 on 48 procs for 2000 steps with 4000 atoms

Performance: 528565.142 tau/day, 3058.826 timesteps/s
99.6% CPU use with 48 MPI tasks x no OpenMP threads

MPI task timing breakdown:
Section |  min time  |  avg time  |  max time  |%varavg| %total
---------------------------------------------------------------
Pair    | 0.29818    | 0.32338    | 0.34276    |   2.1 | 49.46
Neigh   | 0.040685   | 0.043346   | 0.04559    |   0.5 |  6.63
Comm    | 0.21284    | 0.23598    | 0.26236    |   2.7 | 36.09
Output  | 5.2396e-05 | 5.3757e-05 | 7.1319e-05 |   0.0 |  0.01
Modify  | 0.040051   | 0.046074   | 0.051907   |   1.7 |  7.05
Other   |            | 0.005016   |            |       |  0.77

Nlocal:        83.3333 ave          94 max          77 min
Histogram: 4 9 6 6 9 7 4 2 0 1
Nghost:        2096.10 ave        2117 max        2077 min
Histogram: 4 2 2 8 8 9 5 8 1 1
Neighs:        13699.9 ave       15607 max       11920 min
Histogram: 3 4 2 7 12 6 4 5 3 2

Total # of neighbors = 657593
Ave neighs/atom = 164.39825
Neighbor list builds = 142
Dangerous builds = 10

#############################
# L I N E A R  Q U E N C H  #
#############################

# Define solid atoms. This closely follows ten Wolde  Ruiz-Montero and Frenkel  Faraday Discuss  1996  104  93-110
# Compute components of the per-atom q6 vector
compute q6 all orientorder/atom degrees 1 6 components 6 nnn NULL cutoff 1.3 # compute the Q6 parameter.
                                                                             # Use all neighbours within 1.3 unit cell.

# get number of connections
compute coord_number all coord/atom orientorder q6 0.5

# An atom is solid if it has 8 or more connections (of a possible 14)
variable is_solid atom c_coord_number>=8
group solid dynamic all var is_solid    # Must be dynamic to update
dynamic group solid defined

# do clustering
compute cluster solid cluster/atom 1.3 # Create a cluster where all atoms within are solid and max 1.3 units from another member

# define chunks one chunk per cluster
compute clus_chunks solid chunk/atom c_cluster nchunk every compress yes  # Says which atoms are in which chunk

# count the size of each chunk
compute size_chunks solid property/chunk clus_chunks count


# Find the maximum entry in the vector of chunk sizes
variable max_n equal max(c_size_chunks)


# Thermo style which includes this variable
# thermo_style custom step temp pe vol v_max_n

thermo ${N}  # Print the thermo information every 100 steps
thermo 1000  

# Reset the npt fix at a lower temperature (below freezing)
fix 1  all npt temp  ${temp} ${temp}  0.1  iso  5.68  5.68  0.5  mtk yes tchain  5  pchain  5
fix 1  all npt temp  0.45 ${temp}  0.1  iso  5.68  5.68  0.5  mtk yes tchain  5  pchain  5
fix 1  all npt temp  0.45 0.45  0.1  iso  5.68  5.68  0.5  mtk yes tchain  5  pchain  5

dump dmp2 all dcd ${N} traj.dcd
dump dmp2 all dcd 1000 traj.dcd


compute msd all msd com yes
variable twopoint equal c_msd[4]/6/(step*dt+1.0e-6)
fix 9 all vector 10 c_msd[4]
variable fit equal slope(f_9)/6/(10*dt)
thermo_style custom step temp pe c_msd[4] v_twopoint v_fit v_max_n

fix 1 all npt temp 1.25 ${temp} 0.1 iso 5.68 5.68 0.5 mtk yes tchain 5 pchain 5
fix 1 all npt temp 1.25 0.45 0.1 iso 5.68 5.68 0.5 mtk yes tchain 5 pchain 5
run 2000000 # 5000000  # Run for this many steps
Neighbor list info ...
  update every 1 steps, delay 10 steps, check yes
  max neighbors/atom: 2000, page size: 100000
  master list distance cutoff = 3.8
  ghost atom cutoff = 3.8
  binsize = 1.9, bins = 8 8 8
  4 neighbor lists, perpetual/occasional/extra = 1 3 0
  (1) pair lj/cut, perpetual
      attributes: half, newton on
      pair build: half/bin/atomonly/newton
      stencil: half/bin/3d
      bin: standard
  (2) compute orientorder/atom, occasional
      attributes: full, newton on
      pair build: full/bin/atomonly
      stencil: full/bin/3d
      bin: standard
  (3) compute coord/atom, occasional
      attributes: full, newton on
      pair build: full/bin/atomonly
      stencil: full/bin/3d
      bin: standard
  (4) compute cluster/atom, occasional
      attributes: full, newton on
      pair build: full/bin/atomonly
      stencil: full/bin/3d
      bin: standard
Per MPI rank memory allocation (min/avg/max) = 9.843 | 9.849 | 9.855 Mbytes
Step Temp PotEng c_msd[4] v_twopoint v_fit v_max_n 
   12000    1.2304243   -6.9241964 2.0857482e-30 1.4484362e-32 8.3333333e+20            3 
   13000    1.2685121   -6.9329799   0.46012762 0.0029495359  0.037582884            1 
   14000    1.2453429   -6.8947736   0.84966523  0.005057531  0.035065194            2 
   15000    1.2546988   -6.9451081    1.2310466 0.0068391475   0.03292486            6 
   16000    1.2452921   -6.9357815    1.6361272 0.0085214956  0.032974884            2 
   17000    1.2097173   -6.9763546    2.0247361 0.0099251765  0.033228618            2 
   18000    1.2331098   -6.9295748    2.3790735  0.011014229  0.032679059            2 
   19000    1.2056001    -6.934442    2.7125268  0.011897047  0.032118291            2 
   20000    1.2625181   -6.9873017    3.1641308  0.013183878  0.032010813            1 
   21000    1.2390068    -6.900864    3.6448843  0.014463826  0.032342939            1 
   22000    1.2415166   -6.9563303    4.0244465  0.015244115  0.032714732            3 
   23000    1.2529623   -6.9644334    4.3925146  0.015914908  0.032813906            1 
   24000    1.2382842    -6.948464    4.7737512  0.016575525  0.032849485            2 
   25000    1.2516655   -6.9405129    5.1828467  0.017276155  0.032922907            1 
   26000    1.2468684   -6.9622337    5.5134601  0.017671346   0.03285663            2 
   27000    1.2348547    -6.955633    6.0101521  0.018549852  0.032910323            1 
   28000    1.2517904   -6.9666879     6.329338  0.018837315  0.032921231            2 
   29000    1.2547634   -6.9578837    6.7368732  0.019358831  0.032900327            1 
   30000    1.2626583   -6.9011792    7.1513274  0.019864798  0.032880295            5 
   31000    1.2488064   -6.9065357     7.533004  0.020250011  0.032890402            2 
   32000    1.2459147   -6.9114434    7.8976948  0.020566913  0.032872886            2 
   33000    1.2714148   -6.9624099    8.3045204  0.020971011  0.032855851            3 
   34000    1.2367646   -6.9693076    8.7277233  0.021391478   0.03286821            2 
   35000    1.2489141   -6.9332403    9.2690413  0.022069146  0.032942958            1 
   36000    1.2389939   -6.9491693    9.6760723  0.022398315  0.033059326            1 
   37000    1.2437268   -7.0045345    9.9233732  0.022349939  0.033100713            1 
   38000    1.2353652   -7.0000555    10.276275  0.022535691  0.033052483            2 
   39000    1.2210826   -6.9310381    10.651316  0.022759222  0.032973275            2 
   40000    1.2093006    -6.963485    11.021849  0.022962186  0.032904949            2 
   41000    1.2366808   -6.9615699    11.493615  0.023361006  0.032889322            3 
   42000    1.2424284    -6.962232    11.915328  0.023641523  0.032894725            2 
   43000    1.2270852   -6.9997942    12.229064  0.023699736  0.032900007            2 
   44000    1.2317054   -6.9797316    12.639442  0.023938336  0.032897311            1 
   45000    1.2515846   -6.9688064    12.944043   0.02397045  0.032856923            2 
   46000    1.2556086   -6.9438175    13.342806  0.024171749  0.032805426            3 
   47000    1.2357532   -6.9206719    13.696229  0.024284094  0.032764325            2 
   48000     1.254422   -6.9887017     13.99406  0.024295243  0.032697704            7 
   49000    1.2098248   -6.9873508    14.481094  0.024627711  0.032653433            2 
   50000    1.2533927   -6.9923252    14.948421  0.024914035  0.032642705            1 
   51000    1.2378721   -6.9494396    15.364082  0.025104709  0.032657874            4 
   52000    1.2301036   -6.9453523    15.771409  0.025274693  0.032655543            3 
   53000     1.245277   -6.9673047    16.111212  0.025332094  0.032657816            3 
   54000    1.1785136   -6.9232942    16.552267  0.025543622  0.032656719            2 
   55000    1.2484053   -6.9614023    16.846415   0.02552487  0.032644286            3 
   56000    1.2260616   -6.9749948    17.321739  0.025776398   0.03263938            1 
   57000    1.2186621   -6.9304582    17.855863  0.026105062  0.032640243            2 
   58000    1.2429261   -7.0123905    18.202538  0.026153071  0.032658283            3 
   59000    1.2106976   -6.9799076    18.618324  0.026297068  0.032689471            2 
   60000    1.2391831   -6.9993274    18.975471   0.02635482    0.0327001            2 
   61000    1.2231262   -6.9823725    19.258879  0.026309944  0.032707379            3 
   62000    1.2508445    -6.992732    19.673736  0.026443193  0.032710205            2 
   63000    1.2730773   -6.9609352    20.151517  0.026655446  0.032717362            2 
   64000    1.2237891   -6.9534739    20.457869  0.026637849  0.032709215            2 
   65000    1.2230901   -7.0015653    20.827956  0.026702508   0.03269766            2 
   66000    1.2120667   -6.9833668    21.167656  0.026726839  0.032691547            2 
   67000    1.2466918   -6.9458672    21.387504  0.026601373  0.032667839            6 
   68000    1.2010328   -7.0088182    21.714739    0.0266112   0.03262085            2 
   69000    1.2213007   -6.9735066    22.224494  0.026841176  0.032585656            4 
   70000    1.1956887   -7.0190961    22.546593  0.026841182  0.032554154            3 
   71000    1.2257762   -6.9675129    23.059104  0.027064676  0.032528077            2 
   72000    1.2485358   -6.9730598    23.309766  0.026978896  0.032505812            3 
   73000    1.2334965   -6.9233259     23.77265  0.027137729  0.032476709            2 
   74000    1.2268702   -7.0061936    24.203193  0.027255848  0.032454662            2 
   75000    1.2250705   -6.9794139    24.753045  0.027503383  0.032454634            2 
   76000    1.2054676   -6.9886912    25.214487  0.027647464  0.032472888            6 
   77000    1.2251626   -6.9943266    25.766803   0.02788615  0.032501182            2 
   78000    1.2155656   -6.9421576    26.245196  0.028039739  0.032536341            3 
   79000    1.2233354   -7.0235023     26.51557   0.02797001  0.032565937            2 
   80000    1.2440969   -7.0330213    26.788262  0.027904439  0.032586479            2 
   81000    1.1846925   -7.0081754    27.231095  0.028015529  0.032605284            2 
   82000    1.2249139   -7.0050322    27.566759  0.028014999   0.03262279            1 
   83000      1.21604   -7.0121897    28.094567  0.028207396  0.032644698            4 
   84000    1.2331793   -6.9804368    28.553047  0.028326435  0.032669434            3 
   85000    1.2151872   -6.9536211    29.028087  0.028458909  0.032701697            1 
   86000    1.2137633   -7.0276924    29.442192  0.028529256  0.032733712            5 
   87000    1.2552313   -7.0337951    29.796089  0.028540315  0.032761935            2 
   88000    1.2098246   -7.0080541    30.062736    0.0284685  0.032787398            3 
   89000    1.2479903    -6.992589    30.638966   0.02868817  0.032799666            2 
   90000    1.2174303   -6.9867307     30.88951  0.028601398  0.032814336            3 
   91000    1.2294537   -6.9871618    31.228663  0.028597677  0.032827131            3 
   92000    1.2155702   -6.9902295    31.629204  0.028649641  0.032831718            3 
   93000    1.2067438   -7.0683347    32.177495  0.028832881  0.032848025            2 
   94000     1.197327   -6.9888786     32.61539  0.028914352  0.032863385            1 
   95000    1.2216663   -6.9633256    33.059076   0.02899919   0.03288578            2 
   96000    1.2206828   -7.0978358     33.12806  0.028756996  0.032892734            3 
   97000    1.1926997   -7.0603766    33.517291  0.028794924  0.032897728            3 
   98000    1.2348684   -6.9793123    34.114308  0.029008765  0.032900945            2 
   99000    1.2323946   -7.0050524    34.556708  0.029088138  0.032907635            5 
  100000    1.2168303   -7.0400221    34.956888   0.02913074  0.032917801            1 
  101000    1.2242794   -7.0576057    35.181819  0.029027903  0.032925245            3 
  102000    1.2389641   -7.0130205    35.504919  0.029007287  0.032929261            1 
  103000    1.2114253   -7.0618347    35.738523  0.028914663  0.032927767            4 
  104000    1.2333918   -7.0761965    36.085275  0.028914483  0.032917883            3 
  105000    1.2085829   -7.0213232    36.561991  0.029017453  0.032907857            2 
  106000      1.21697   -7.0914543    36.740947  0.028884392  0.032894779            2 
  107000    1.2359927   -6.9953352    37.216249  0.028984617  0.032875555            2 
  108000    1.2106987   -6.9791637    37.768065  0.029142026  0.032860303            2 
  109000    1.1956926   -7.0276451    38.021788  0.029068645  0.032853332            3 
  110000    1.1954848   -7.0156671    38.482663  0.029153532  0.032848072            2 
  111000    1.1988378   -6.9871419     39.03436  0.029305075  0.032840666            2 
  112000    1.2168343   -6.9900688    39.544351   0.02942288  0.032838502            5 
  113000      1.22177   -7.0236251    39.636014  0.029230099  0.032835183            4 
  114000    1.1828543   -7.0088481    40.013517  0.029249647  0.032828439            2 
  115000    1.1886348   -7.0447946    40.272072  0.029182661  0.032817597            2 
  116000    1.2148189   -7.0656822    40.495397  0.029091521  0.032799686            3 
  117000    1.2086117   -7.0883802    40.848109  0.029094094  0.032780293            3 
  118000    1.1872679   -7.0462955    41.317485  0.029179015  0.032760979            3 
  119000    1.2092828    -7.059648    41.655384  0.029170437  0.032740226            2 
  120000    1.2006949   -7.0108034    41.969103   0.02914521    0.0327191            1 
  121000    1.2159653   -7.0168111    42.260457  0.029104998  0.032693294            1 
  122000    1.2118855   -7.0580258     42.49546  0.029026953  0.032667861            2 
  123000     1.228164   -7.0511988    42.998406  0.029131711  0.032642422            3 
  124000    1.1832143    -7.050132    43.451904  0.029201548  0.032620976            2 
  125000    1.2343092   -7.0794119    43.735855  0.029157237  0.032600636            1 
  126000      1.21954   -7.0879724    44.199485  0.029232464  0.032580986            3 
  127000    1.1952427   -7.0362986    44.514745   0.02920915  0.032558865            3 
  128000    1.2150488   -7.0664086    44.798163   0.02916547  0.032535073            8 
  129000    1.2030288   -7.0859281     45.04918  0.029101538  0.032509657            2 
  130000    1.2116859   -7.0595695    45.432843  0.029123617  0.032480741            2 
  131000     1.206462   -7.0552736    45.802101  0.029136196  0.032454724            3 
  132000    1.1678901   -7.0603441    46.197398  0.029165024  0.032427062            3 
  133000    1.1952639   -7.0368745    46.605023  0.029201142  0.032403091            2 
  134000    1.1846627   -7.0464135    46.761962  0.029080822   0.03237625            1 
  135000      1.20377    -7.030583    47.212255  0.029143367  0.032348542            2 
  136000    1.2023478   -7.0612322    47.239832  0.028945976   0.03231632            2 
  137000    1.1742721   -7.0239083    47.712236  0.029022041  0.032282806            1 
  138000    1.2042044   -7.0993387    47.893436  0.028921157   0.03224757            2 
  139000    1.2207928   -7.1146832    48.440716  0.029041196  0.032211226            4 
  140000    1.2066238   -7.0781096    48.752792  0.029019519  0.032180122            2 
  141000    1.2021754   -7.0361479    49.116552  0.029028695  0.032151794            4 
  142000    1.1840198   -7.0219915    49.643077  0.029133261   0.03212452            2 
  143000    1.2157308   -7.0572611    49.753737  0.028994019  0.032094904            4 
  144000    1.1945378    -7.031476    50.143879  0.029018449  0.032064681            2 
  145000    1.2087679   -7.0211891    50.426911  0.028980983  0.032033035            5 
  146000    1.1933511   -7.0952283     50.58628  0.028873447  0.032000587            2 
  147000    1.1953255   -7.1052713    50.981184  0.028900898  0.031966242            3 
  148000    1.2027154   -7.0556113    51.280394  0.028874096  0.031934792            3 
  149000    1.1768564    -7.062295    51.758629  0.028947779  0.031900332            2 
  150000    1.1976789    -7.062038    51.977986  0.028876659  0.031863939            3 
  151000    1.1840256   -7.1006582     52.21051  0.028813747  0.031828701            3 
  152000    1.2031528   -7.0406958     52.70821  0.028897045  0.031794316            1 
  153000    1.2109512   -7.0763247    53.150745  0.028949207  0.031760443            4 
  154000    1.2071331   -7.0785136    53.105526  0.028736756  0.031727279            1 
  155000    1.1835509    -7.040585    53.524991  0.028776877  0.031692572            2 
  156000    1.1964538   -7.1037762    53.986956  0.028839186  0.031658031            3 
  157000    1.1782555    -7.119263    54.106208  0.028718794  0.031624529            4 
  158000    1.1646381   -7.1007352    54.697931   0.02884912   0.03158991            2 
  159000    1.1788901   -7.0710285    54.698997  0.028668237  0.031557587            2 
  160000    1.1977043   -7.0562451    55.286323   0.02879496  0.031522311            2 
  161000    1.2043411   -7.0712384    55.583851  0.028770109  0.031490781            3 
  162000     1.204674   -7.1168644    55.718696   0.02866188  0.031460431            2 
  163000    1.1922183   -7.0641225    56.242956  0.028754067  0.031426988            3 
  164000    1.1999567   -7.0545753    56.535944  0.028727614  0.031394836            5 
  165000    1.2133411    -7.099863    56.943849  0.028759519  0.031363891            4 
  166000    1.1939427   -7.1084057    57.065702  0.028647441  0.031331845            1 
  167000    1.1795437   -7.0936903    57.655284  0.028770102  0.031299694            3 
  168000    1.1951875   -7.0664889    57.757445  0.028649526   0.03126856            3 
  169000    1.1670713   -7.1305631    57.988894  0.028594129  0.031235652            2 
  170000    1.1828781   -7.1023138    58.369406  0.028612454  0.031202326            2 
  171000    1.1944643   -7.0730148    58.987636  0.028746411  0.031172853            6 
  172000    1.1769971   -7.0648145    59.331601   0.02874593  0.031142037            5 
  173000    1.1973062   -7.0535671    59.763635  0.028787878  0.031113026            2 
  174000    1.1828198   -7.0543341    59.775411   0.02862807  0.031084055            3 
  175000    1.2048041   -7.1226162    59.986641  0.028565067  0.031051107            3 
  176000    1.1736144    -7.079743    60.360004  0.028579547  0.031018424            2 
  177000     1.191791   -7.1149621    60.753814   0.02860349  0.030986367            2 
  178000    1.2021048   -7.1184428    61.427363  0.028758129  0.030958883            5 
  179000    1.1958667   -7.1145291    62.032018  0.028878965  0.030933435            5 
  180000    1.1897667   -7.1266776    61.990446  0.028699281  0.030910457            5 
  181000    1.1765961   -7.0957595    62.322315  0.028693515  0.030885037            3 
  182000    1.1628325   -7.0682624    62.465656  0.028601491   0.03085969            2 
  183000    1.1792389    -7.099893    62.871638  0.028630072   0.03083261            1 
  184000    1.1920938   -7.1188895    63.457033  0.028739598  0.030806578            5 
  185000    1.1883825   -7.0990592    63.671877  0.028681026  0.030783195            3 
  186000    1.1816316   -7.0577327    64.018336   0.02868205  0.030758622            3 
  187000    1.1706185   -7.1282674    64.189127   0.02860478   0.03073377            1 
  188000    1.1700126   -7.1159878    64.435595  0.028561877  0.030708958            5 
  189000    1.1919817   -7.1002769    64.590159  0.028478906  0.030684551            4 
  190000    1.1932743   -7.1112497    65.225391  0.028607628  0.030659621            4 
  191000    1.1617105   -7.1190586    65.277245  0.028480473   0.03063249            2 
  192000      1.17694    -7.090741    65.621286  0.028481461  0.030605503            3 
  193000    1.1717435   -7.1119883    65.841053  0.028428779  0.030578234            2 
  194000    1.1759387   -7.1282339    65.874217  0.028296485  0.030548049            2 
  195000    1.1826857   -7.0748501    66.431342  0.028389462  0.030515092            2 
  196000    1.1735195   -7.0986421    66.406468  0.028234042  0.030483313            2 
  197000    1.1656526   -7.0952641    66.591813  0.028169125  0.030451195            1 
  198000     1.149339   -7.0995315    66.977346  0.028189119   0.03041777            1 
  199000    1.1673345   -7.0722512     67.38709  0.028219049   0.03038387            1 
  200000     1.179274   -7.1372375    67.376801  0.028073667  0.030350037            6 
  201000    1.1560454   -7.1495212    67.925688  0.028161562  0.030317325            1 
  202000    1.1494833    -7.148135    68.259474  0.028159849  0.030287499            5 
  203000    1.1580449   -7.0963453    68.833627  0.028256825   0.03025711            3 
  204000    1.1535312   -7.1521066    68.924975  0.028155627  0.030227233            2 
  205000    1.2047213   -7.0908241    69.391026  0.028207734  0.030198081            4 
  206000    1.1551442   -7.1195261    69.701876  0.028196552  0.030168544            2 
  207000     1.186217   -7.0906529    70.131095   0.02823313  0.030139649            3 
  208000    1.1639046   -7.1371613    69.930437  0.028017002   0.03010865            3 
  209000    1.1969804   -7.1311814     70.45743  0.028093074  0.030078013            4 
  210000    1.1958239   -7.1629837    70.828942  0.028106723  0.030048024            2 
  211000    1.1535536   -7.1494974    71.072898  0.028069865  0.030017422            8 
  212000    1.1709553    -7.156404    71.385889  0.028060491  0.029989318            7 
  213000    1.1821822   -7.1487605    71.872154  0.028118996  0.029962298            5 
  214000    1.1768685   -7.0883924     72.57776  0.028262368  0.029937316            2 
  215000    1.1629976   -7.1679102    72.634127  0.028152762  0.029911391            5 
  216000     1.160068   -7.1632847    72.948629  0.028143761  0.029886104            1 
  217000    1.1527251   -7.1716514    73.302407  0.028149926   0.02986119            2 
  218000    1.1764811   -7.1150559    73.832722  0.028223518  0.029836434            3 
  219000    1.1645734   -7.1490975     73.81912  0.028089467  0.029812896            1 
  220000    1.1774455    -7.118503    74.374946  0.028172328  0.029791547            4 
  221000    1.1533624     -7.13708    74.743299  0.028183748  0.029767965            3 
  222000    1.1632918   -7.1859708    74.700682  0.028040797  0.029743158            2 
  223000    1.1785727   -7.1373472    75.051981   0.02804633  0.029719521            4 
  224000    1.1799504    -7.155643    75.549716  0.028106293  0.029696121            2 
  225000    1.1414221   -7.1608217    75.901522  0.028111675  0.029673461            1 
  226000    1.1618317   -7.1961988    75.945488  0.028003498  0.029649741            2 
  227000     1.179262    -7.187279     76.29833  0.028009666  0.029626074            3 
  228000    1.1778384   -7.1624944    76.529697   0.02797138  0.029601756            3 
  229000    1.1684498   -7.1154533    77.293608  0.028127223  0.029579884            3 
  230000    1.1856253    -7.167756    77.184649  0.027965453  0.029558158            2 
  231000    1.1743423   -7.1537362     77.86302  0.028089112  0.029537885            3 
  232000    1.1678441   -7.1741709    77.996141  0.028015855  0.029516605            1 
  233000    1.1584643   -7.1833989    78.342511  0.028019496  0.029496174            2 
  234000    1.1598689    -7.137083    79.134206  0.028181697  0.029477236            7 
  235000     1.169137   -7.2148759    78.848549  0.027960478  0.029457167            4 
  236000    1.1728872   -7.1836028    79.190859  0.027962874  0.029438278            3 
  237000    1.1556185    -7.169006      79.5256  0.027962588  0.029417273            2 
  238000    1.1284898   -7.2331592    79.520425  0.027843286  0.029394467            2 
  239000    1.1596042   -7.1430948    80.068058  0.027917733  0.029373471            2 
  240000    1.1531358   -7.1176585    80.573504  0.027976911  0.029352409            4 
  241000     1.158448   -7.1393331    80.823768  0.027947361   0.02933233            3 
  242000    1.1502164   -7.2165123    80.784985  0.027818521  0.029311452            2 
  243000    1.1656779   -7.1713172    81.241177  0.027860486  0.029289307            2 
  244000      1.16641   -7.1952022    81.120106  0.027704954  0.029267475            8 
  245000    1.1493955   -7.1581093    81.739036  0.027802393  0.029246097            1 
  246000    1.1545573   -7.1741078    82.158227  0.027831377  0.029225073            2 
  247000     1.166961    -7.201463    82.252115  0.027750376  0.029202309            4 
  248000    1.1497169   -7.1870222    82.626439   0.02776426  0.029179858            2 
  249000    1.1510854   -7.1557519    83.198651  0.027844261  0.029159518            3 
  250000    1.1614859   -7.2110779    83.128593  0.027709531  0.029139277            4 
  251000    1.1193055   -7.1688717      83.6591  0.027775266  0.029119245            5 
  252000    1.1449777   -7.2420706    83.898771  0.027744303  0.029099129            1 
  253000    1.1402188   -7.1972942    84.525021  0.027840916  0.029080522            2 
  254000    1.1350854   -7.1348296    85.220653  0.027959532  0.029063044            2 
  255000    1.1613439   -7.1774377     85.14995  0.027826781  0.029046379            1 
  256000     1.174805   -7.1270322    85.866131  0.027951215  0.029031313            3 
  257000    1.1520564   -7.1666883    86.178917  0.027943877  0.029016596            1 
  258000     1.158476   -7.1612131    86.938555  0.028080929  0.029003295            3 
  259000    1.1480902   -7.1883337    86.753927  0.027913104  0.028987864            2 
  260000    1.1593385   -7.1815379    86.995728  0.027883246  0.028970786            3 
  261000    1.1524245   -7.1965781    87.425324  0.027913577  0.028954378            2 
  262000    1.1289173    -7.169565    87.794896  0.027924585  0.028940118            3 
  263000    1.1435741   -7.1520946    88.299578   0.02797832  0.028927181            4 
  264000    1.1754684   -7.1679941    88.753631  0.028015666   0.02891597            2 
  265000    1.1544993   -7.2416702     88.51582  0.027835164  0.028903488            1 
  266000    1.1492065   -7.1782458    89.088998  0.027910087  0.028890516            2 
  267000    1.1656108   -7.1799264    89.415333  0.027907407   0.02887691            2 
  268000    1.1250932   -7.1811001    89.414195  0.027802921  0.028863165            2 
  269000    1.1360005    -7.217263    90.041973  0.027894044  0.028848469            3 
  270000    1.1486795   -7.1304028    90.811156  0.028028134  0.028834072            2 
  271000    1.1366127    -7.203324    90.787268  0.027917364  0.028821094            4 
  272000    1.1489556   -7.2257111    90.632929  0.027767442  0.028808416            8 
  273000    1.1259074   -7.1897979    91.341718  0.027882087   0.02879596            8 
  274000    1.1316514   -7.1890482    91.683763  0.027884356  0.028783527            1 
  275000    1.1362487   -7.1490121     92.25049  0.027954694  0.028770769            2 
  276000    1.1486284     -7.21027    92.025174  0.027785378  0.028757184            3 
  277000    1.1399899   -7.1652145    92.329309  0.027776567  0.028743655            1 
  278000    1.1518246   -7.2249567    92.453353  0.027713835  0.028730007            3 
  279000    1.1455134   -7.1914966    92.853999  0.027734169   0.02871586            4 
  280000    1.1302334   -7.2269518    92.893089  0.027646753  0.028700835            2 
  281000    1.1571654   -7.2166207     93.54515  0.027741741    0.0286859            4 
  282000     1.133287   -7.1960093    94.102076  0.027807942  0.028671843            3 
  283000    1.1402782   -7.2196347    94.122845  0.027715797  0.028657588            2 
  284000    1.1390137   -7.2699853    94.122774  0.027618185  0.028642382            3 
  285000    1.1362772   -7.2240387    94.818677  0.027724759  0.028627919            2 
  286000    1.1463931   -7.1885152    95.080082  0.027703986  0.028613999            5 
  287000    1.1218121    -7.224596    95.299226  0.027671088  0.028599835            7 
  288000    1.1486358   -7.1898962    95.474077  0.027625601  0.028584792            4 
  289000    1.1201467   -7.1959873    95.943748  0.027665441  0.028570518            3 
  290000    1.1396847   -7.1894443    96.291342  0.027669926  0.028555728            2 
  291000    1.1151813   -7.2264996    96.134284  0.027529864   0.02853936            3 
  292000    1.1496661   -7.2284589    96.341638   0.02749476  0.028521942            3 
  293000    1.1102898   -7.2188285     96.60315  0.027475299   0.02850446            4 
  294000    1.1207849   -7.2149885    96.660331  0.027398053  0.028488526            2 
  295000     1.145651   -7.2316468    97.372107  0.027506245  0.028472225            2 
  296000    1.1276538   -7.2487581     97.52238  0.027455625  0.028456497            2 
  297000    1.1310846   -7.2332098    97.630319  0.027393468  0.028439151            4 
  298000     1.139634   -7.2432591    97.649214  0.027306827  0.028421242            5 
  299000     1.158392   -7.2409364    97.744203  0.027241974   0.02840242            1 
  300000    1.1654687   -7.2390543    98.213487  0.027281524  0.028381648            5 
  301000    1.1236413   -7.2493773    98.306271  0.027216575  0.028361733            2 
  302000     1.153278    -7.234469      98.2764  0.027118212  0.028341623            3 
  303000     1.178509   -7.2805925    98.850372  0.027186571  0.028322233            2 
  304000    1.1378312   -7.2689975     98.88395  0.027106346   0.02830255            2 
  305000    1.1456645   -7.2686189    99.135977  0.027086333  0.028281265            2 
  306000    1.1397871   -7.2600173    99.387028  0.027066184   0.02825919            3 
  307000    1.1227434   -7.2303701    100.14129  0.027182761   0.02823814            2 
  308000    1.1255784   -7.2622522    100.58902  0.027215644  0.028218156            2 
  309000    1.1207926   -7.2445792    100.56428  0.027120894  0.028198951            2 
  310000    1.1335612   -7.2413669    100.67662  0.027063609  0.028180091            5 
  311000    1.1059165   -7.2361063    101.01363  0.027066889  0.028160999            8 
  312000    1.1353093   -7.2589978    101.19679  0.027029058    0.0281421            2 
  313000    1.1303556    -7.233435    101.95759  0.027145258  0.028122887            1 
  314000    1.1293384   -7.2939359    101.63559  0.026973353  0.028103305            4 
  315000     1.134277   -7.2680241    102.34057  0.027074224  0.028083225            2 
  316000    1.1081973   -7.2687972    102.46478  0.027021303  0.028063289            2 
  317000    1.1319654   -7.2531267    102.62931  0.026979314   0.02804267            2 
  318000    1.1370357   -7.2971312     102.5104  0.026863312  0.028022478            6 
  319000    1.1414201   -7.2806602    102.96585   0.02689808    0.0280021            3 
  320000    1.1127122   -7.2799666    103.20424  0.026876104  0.027981417            3 
  321000    1.1395344   -7.2757074    103.75189   0.02693455   0.02796123            3 
  322000    1.1277376   -7.2593846    103.73811  0.026847337  0.027940162            3 
  323000    1.1206912   -7.2794007    104.13981  0.026867856  0.027918901            2 
  324000    1.1278235    -7.264521    104.14268   0.02678567  0.027898062            3 
  325000      1.11302   -7.2502034    104.24761  0.026730157  0.027876274            2 
  326000    1.1208114   -7.2801315    104.04835  0.026597227  0.027854376            3 
  327000    1.1346775    -7.280615    105.00679   0.02676014   0.02783218            5 
  328000    1.1109684   -7.2842551    104.96053    0.0266668  0.027810073            2 
  329000    1.1346808   -7.2585572    105.29371  0.026670139  0.027788522            6 
  330000     1.119631   -7.3133351    105.90524  0.026743747   0.02776745            1 
  331000    1.1190602   -7.2330546    106.13758  0.026721446  0.027746333            6 
  332000    1.1341032   -7.2770422    106.45199  0.026719877  0.027725188            6 
  333000    1.1238118   -7.2900838    106.37046  0.026619235  0.027704227            2 
  334000    1.1028349   -7.2561005    106.75216  0.026634772   0.02768294           10 
  335000    1.1152089   -7.3104594    106.78615   0.02656372   0.02766193            3 
  336000    1.1351677   -7.3009211    107.50682  0.026663399   0.02764089            4 
  337000    1.1431872   -7.2576964    107.84584   0.02666811  0.027621151            5 
  338000    1.1221168   -7.2508135    108.15259   0.02666484   0.02760214            3 
  339000    1.1345963   -7.3009186    108.00635  0.026550234  0.027583067            3 
  340000    1.1243694    -7.249719    108.51055  0.026595724  0.027563338            2 
  341000    1.0987964   -7.2814793    108.85932  0.026602963  0.027543705            3 
  342000    1.1312712   -7.2896732    109.09597  0.026582839  0.027523693            4 
  343000    1.1177535   -7.2175154    109.63053  0.026635211   0.02750419            3 
  344000    1.1183807   -7.2760721    109.40987  0.026504329  0.027484661            2 
  345000    1.1310002   -7.2857883    109.79973  0.026521675  0.027465114            3 
  346000    1.1292308   -7.2720754    109.76909  0.026437641    0.0274443            3 
  347000    1.1296265   -7.2929356    109.84741  0.026380262  0.027424213            3 
  348000    1.1233561   -7.2846959    110.30457  0.026413931  0.027403763            4 
  349000    1.1219186   -7.2459934    110.49287  0.026383206  0.027384132            8 
  350000    1.1060947   -7.3151467    110.70067  0.026357301  0.027363939            4 
  351000    1.1331887   -7.2927534    111.00283  0.026353948  0.027342069            7 
  352000    1.1020861   -7.3441505    111.13282  0.026309853  0.027321178            2 
  353000    1.1062187   -7.2694281    112.16586  0.026479191   0.02730083            2 
  354000    1.0917625   -7.2770604    112.16234  0.026403565  0.027280894            4 
  355000    1.1252001   -7.2753063    112.46669  0.026400632  0.027260749            2 
  356000    1.1013322   -7.2817288    112.46573  0.026326247   0.02724145            4 
  357000    1.1185351   -7.2453996    112.71759  0.026311295   0.02722175            3 
  358000    1.1388542    -7.301003    112.51162  0.026189854  0.027201294            2 
  359000    1.1198323   -7.2786414    113.11818  0.026257702  0.027181144            3 
  360000    1.1138706   -7.3335396    113.28321  0.026222965  0.027160519            1 
  361000    1.1089689   -7.3130958     113.6468  0.026234256  0.027140334            4 
  362000    1.0924507   -7.3236577    113.92869  0.026226677  0.027120638            1 
  363000    1.1046197   -7.2802049    114.37017  0.026255779  0.027101125            4 
  364000    1.1176186   -7.3104292    114.51026  0.026215719  0.027081632            5 
  365000    1.1074279   -7.2945244    114.62965  0.026171152  0.027062449            5 
  366000    1.0991303   -7.2859728    115.30591  0.026253623  0.027042941            4 
  367000    1.1059498   -7.2657278    115.22971  0.026164785  0.027023256            3 
  368000    1.0929407   -7.3166094    115.51554   0.02615841  0.027003473            3 
  369000    1.1252666    -7.284288    115.72069  0.026133851  0.026984062            2 
  370000    1.0891904   -7.3039523    115.98041  0.026121713   0.02696481            2 
  371000    1.1293951   -7.2849643    116.66624  0.026205355  0.026946349            2 
  372000    1.1001272   -7.2601854    117.27327  0.026270893  0.026928791            2 
  373000    1.1309883   -7.3207939    116.78831  0.026092115  0.026911155            2 
  374000    1.0930357   -7.3167738    117.49172  0.026179083  0.026893419            2 
  375000    1.0876511   -7.3391536      117.594  0.026131999  0.026875751            1 
  376000     1.130949   -7.3341562    117.62924  0.026070311  0.026857473           16 
  377000    1.1326063   -7.3502105    117.94731  0.026071465  0.026839271            2 
  378000    1.1044402   -7.3169246    118.39479  0.026101145  0.026821823            3 
  379000    1.1299897   -7.2753334    118.57662  0.026072255  0.026804349            4 
  380000    1.1121411     -7.32458    118.68619  0.026027672  0.026787047            4 
  381000    1.0940259   -7.3499358    118.57548  0.025935143  0.026768554            3 
  382000    1.1195146   -7.2908937    119.16651  0.025996184  0.026750099            3 
  383000    1.1069475   -7.3567302    118.74361  0.025836295  0.026730336            3 
  384000    1.0905348   -7.3499693    119.06538  0.025838841  0.026710312            1 
  385000    1.1041205   -7.3618813    119.28383  0.025819011  0.026690097            2 
  386000    1.0724837   -7.3259103    119.30866  0.025757482  0.026670127            3 
  387000    1.1050383   -7.3195706    119.69065  0.025773181  0.026650467            2 
  388000     1.104721   -7.3125601     119.8528   0.02574158  0.026630239            2 
  389000    1.1061942   -7.3553596    120.21284  0.025752536  0.026609964            4 
  390000    1.0986378   -7.3911527    119.69879  0.025576665  0.026588885            7 
  391000    1.0897187   -7.3624544    120.03262    0.0255824  0.026566847            2 
  392000    1.0782791   -7.3560319    120.57805  0.025633088  0.026545256            2 
  393000    1.1072254   -7.3664835    120.74089  0.025602393  0.026523951            2 
  394000    1.1003567   -7.2787331    121.17992  0.025630272  0.026503016            4 
  395000    1.1040722   -7.3209515    121.24211  0.025578504  0.026482604            2 
  396000    1.1087329   -7.3506349    121.51291  0.025570898  0.026461452            2 
  397000    1.0986572   -7.3484271    122.14276  0.025638698  0.026441049            4 
  398000    1.1029524   -7.3055414    122.05383   0.02555566  0.026420538            4 
  399000    1.0992964   -7.3214196    122.61798  0.025609436  0.026400269            3 
  400000    1.1420459    -7.366863    122.83396  0.025590409  0.026379902            2 
  401000    1.1066127   -7.3059232    123.04365  0.025570168  0.026359506            1 
  402000     1.091099   -7.3057746    123.07659   0.02551339  0.026338718            2 
  403000    1.1148388   -7.3305099    123.27981  0.025492103  0.026318104            3 
  404000     1.102411   -7.3233783    123.66481  0.025508417  0.026297837            2 
  405000    1.0801448   -7.3087608    123.93287   0.02550059  0.026277704            2 
  406000    1.0828884    -7.373076    123.21831  0.025291115  0.026256451            4 
  407000    1.0710675   -7.3679502    124.05307  0.025399892  0.026234984            3 
  408000    1.0810747    -7.318592    124.46277  0.025421318  0.026214164            3 
  409000    1.1090097   -7.3322447     124.2449  0.025314772  0.026193811            1 
  410000    1.1124388    -7.312576    124.94725  0.025395783  0.026172599            2 
  411000    1.0600618   -7.3461156    125.05531  0.025355903  0.026152264            5 
  412000     1.095867   -7.3609397    125.02627  0.025288485  0.026131421            3 
  413000     1.073346   -7.3174693    125.74599  0.025372475  0.026110289            2 
  414000    1.0940533   -7.3833816    125.70339  0.025302615  0.026089776            3 
  415000    1.1034199   -7.4252728    125.07403  0.025115267  0.026068702            2 
  416000    1.0939077   -7.3682587    125.87277  0.025214898  0.026047366            2 
  417000    1.0871851   -7.3380967    126.47348  0.025274477  0.026026759            4 
  418000    1.0816289   -7.3790263    126.55801  0.025230863  0.026006708            2 
  419000    1.0953908   -7.3749367    127.05469  0.025269429  0.025986561            5 
  420000    1.0816289   -7.3894904    127.05125  0.025208582  0.025966182            3 
  421000     1.092332    -7.349831    126.95077  0.025128815  0.025945541            3 
  422000     1.102098   -7.3796155    127.21076  0.025120609  0.025924395            4 
  423000    1.0828961   -7.3693353    127.09908  0.025039219  0.025902421            3 
  424000    1.0942979   -7.3844844    127.44557  0.025048264  0.025880187            7 
  425000    1.0752984   -7.3890701    127.71557  0.025042269  0.025858757            6 
  426000    1.0924476    -7.416388    127.32904  0.024907872   0.02583686            6 
  427000    1.0939578   -7.3501267    127.94979  0.024970685  0.025815508            3 
  428000    1.0628235   -7.3720518    128.16578  0.024954396  0.025794593            5 
  429000    1.0968107   -7.3973619    128.54994  0.024970851  0.025773438            2 
  430000    1.0778895   -7.3843292    128.96303  0.024992836  0.025752102            3 
  431000    1.0754038   -7.3361197    128.93861  0.024930126  0.025731319            3 
  432000    1.0623888    -7.388567    128.94814  0.024874256  0.025710515            2 
  433000    1.0865034   -7.3668531    129.69213  0.024959994  0.025689675            5 
  434000    1.0630665   -7.3924939    129.43701  0.024853497  0.025668644            4 
  435000    1.0711939   -7.3921441    129.98852  0.024902015  0.025647548           10 
  436000    1.0635759   -7.3628188    130.33978  0.024912037  0.025626528            6 
  437000    1.0788815   -7.3767566    130.09878  0.024809073   0.02560568            2 
  438000    1.0974737   -7.3903493    130.45833  0.024820838  0.025584789            5 
  439000    1.0692333   -7.3599589    130.87903  0.024844159   0.02556387            2 
  440000    1.0709011   -7.4153495    130.63455  0.024741391  0.025542769            5 
  441000    1.0933749   -7.3562354    131.08931  0.024771222  0.025521364            4 
  442000    1.0598604   -7.3909664    130.73192  0.024647798  0.025499581            4 
  443000    1.1126669   -7.4145519    131.04136  0.024650369  0.025477629            3 
  444000    1.0728811   -7.3839111    131.56092  0.024692365  0.025456263            3 
  445000     1.104854   -7.3727067    131.62491  0.024648859  0.025434647            1 
  446000    1.0875447   -7.4108086    131.50073   0.02457039   0.02541283            2 
  447000    1.0950179    -7.356775    132.09147  0.024625554  0.025391206            3 
  448000    1.0849077   -7.3911214    132.21838  0.024594193  0.025369799            3 
  449000    1.1010127   -7.3743784    132.50226  0.024592105  0.025348697            8 
  450000    1.0661238   -7.3899907    132.84625  0.024601157   0.02532752            2 
  451000    1.0566401   -7.3680554    133.44214  0.024656714  0.025306042            3 
  452000      1.07687   -7.4097913    133.28532  0.024573252    0.0252852            3 
  453000    1.0815795   -7.4454184    133.24133  0.024510915  0.025264306            2 
  454000     1.059957    -7.433656    133.77383  0.024554667  0.025243868            2 
  455000    1.0774474   -7.3849955    134.12391  0.024564818  0.025223828            1 
  456000    1.0528128   -7.3966259    134.54538  0.024587971  0.025203433            3 
  457000    1.0748797   -7.3891675    134.69701  0.024561818  0.025183679            2 
  458000    1.0609696   -7.4250359    134.69161  0.024507207  0.025164482            5 
  459000      1.05796   -7.4076147    135.09268   0.02452663   0.02514504            3 
  460000    1.0723288   -7.3746822    135.26637  0.024504777  0.025125519            3 
  461000    1.0745081   -7.3735657    135.65931  0.024522652  0.025106042            2 
  462000    1.0635824   -7.4202531    135.31184  0.024406898  0.025086567            5 
  463000    1.0748516    -7.429452    135.91939  0.024463533  0.025066851            6 
  464000    1.0520109   -7.4261295    136.46072  0.024508031  0.025046998            8 
  465000     1.101918   -7.4213045    136.03086  0.024378291  0.025027615            4 
  466000      1.06785   -7.4165994    136.81089  0.024465467  0.025008697            2 
  467000    1.0527194   -7.4091566    136.99377  0.024445713  0.024989682            4 
  468000    1.0832994   -7.3699947    137.74355  0.024526986  0.024970964            4 
  469000    1.0901607   -7.3931059    137.57362  0.024444495  0.024952807            4 
  470000    1.0774333   -7.4068185    137.80987  0.024434374  0.024934459            2 
  471000    1.0557666    -7.416296    138.28957  0.024467369   0.02491615            3 
  472000    1.0441451   -7.3986442    138.11798  0.024385236  0.024897572            2 
  473000    1.0614484   -7.4363033    138.70587  0.024437257  0.024879394            3 
  474000    1.0657523   -7.4590122    138.71246  0.024386861   0.02486111            3 
  475000    1.0594687   -7.4156792    139.11766  0.024406607  0.024842073            4 
  476000    1.0536654   -7.3806628    139.25346  0.024379108  0.024823174            8 
  477000    1.0478269   -7.4498104    139.06279  0.024294687  0.024804192            2 
  478000    1.0707483   -7.4061297     139.7199   0.02435842  0.024785608            6 
  479000    1.0932291   -7.4243481    139.54238  0.024276685    0.0247672            2 
  480000      1.05384   -7.4022641    139.31555  0.024186727  0.024748878            2 
  481000    1.0671541   -7.4262886    140.39484  0.024323431  0.024730254            3 
  482000    1.0351087   -7.4066638    140.54039  0.024298131  0.024711687            6 
  483000    1.0688929   -7.4430801     139.9585  0.024147429  0.024693167            4 
  484000    1.0599467   -7.4451536    139.98944  0.024102865  0.024673975            4 
  485000    1.0499035   -7.4216703     140.2222  0.024093162  0.024654746            9 
  486000    1.0598147   -7.4538669    140.40136  0.024074307  0.024635021            2 
  487000     1.047063   -7.4347122    140.71631  0.024078767  0.024615573            6 
  488000    1.0553868   -7.4368341    140.93493  0.024066757  0.024595995            5 
  489000    1.0496851   -7.4417748    140.92127  0.024015214  0.024576239            9 
  490000    1.0615653   -7.4828381    140.58925  0.023909736  0.024556353            4 
  491000    1.0664259   -7.4365538    141.30215  0.023982034  0.024536694            2 
  492000    1.0444629   -7.4437132    141.81253  0.024019737   0.02451746            2 
  493000    1.0486118   -7.4248906    142.05363   0.02401177  0.024498228            2 
  494000     1.029906   -7.4139447    141.92185  0.023940932  0.024478765            5 
  495000    1.0725819   -7.4437717    142.09784  0.023922195  0.024459129           12 
  496000    1.0608823   -7.4647912     141.9268  0.023845228  0.024439528            2 
  497000    1.0578586   -7.4920176    142.27251  0.023855216  0.024419799            5 
  498000      1.05211   -7.4232438    142.87783  0.023908606  0.024400184            4 
  499000    1.0577666   -7.4672228    142.77093  0.023842841  0.024380822            1 
  500000    1.0351435   -7.4987056    142.35357  0.023725595  0.024361534            5 
  501000    1.0748767   -7.4168359    143.70179  0.023902493  0.024342412            5 
  502000     1.050009   -7.4569057    144.12827  0.023925675  0.024323699           11 
  503000    1.0637624   -7.4665114    143.82012  0.023827057  0.024304721            2 
  504000     1.057905   -7.4329367     144.3217  0.023862715  0.024285911            3 
  505000    1.0662734   -7.4548764    144.41497  0.023830854  0.024267157            2 
  506000     1.059917   -7.4687221    144.16028  0.023741812  0.024248212            3 
  507000    1.0536803   -7.4763983    144.34217   0.02372488  0.024229479            5 
  508000     1.071617   -7.4595854    144.82482  0.023757352   0.02421086            2 
  509000      1.06008   -7.5121598    144.60394  0.023674516  0.024192353            2 
  510000    1.0522752   -7.4709996    144.92719  0.023680913  0.024173396            7 
  511000    1.0402271   -7.4829589    144.86583  0.023624564  0.024154513            3 
  512000    1.0390486   -7.4572076    145.37177  0.023660769  0.024135323            8 
  513000     1.049734   -7.5009936    145.38255  0.023616399  0.024116419            2 
  514000    1.0484983   -7.4342903    145.61221  0.023607687  0.024097569            4 
  515000    1.0372337   -7.4896705    145.35624  0.023520427  0.024078281            2 
  516000    1.0700996   -7.4739249    145.99683    0.0235783  0.024059068            2 
  517000      1.04711   -7.4955655    145.51505  0.023455038  0.024039957            3 
  518000    1.0229426   -7.4633629    146.37304  0.023547786  0.024020909            3 
  519000    1.0554345   -7.4764745    146.67726  0.023551261  0.024002329            2 
  520000    1.0465595    -7.479219    146.53344  0.023482923  0.023983622            5 
  521000    1.0188881   -7.4836509    146.77683   0.02347678  0.023964494            2 
  522000    1.0572519   -7.4752543    147.53595  0.023552994  0.023945548            4 
  523000    1.0507924   -7.4923948    147.46023  0.023495894  0.023926717            2 
  524000    1.0368368   -7.4893638    147.20481  0.023410435  0.023907455            3 
  525000    1.0368291   -7.4577529    147.42129  0.023400205  0.023888091            4 
  526000    1.0290624   -7.4784949    147.94717  0.023439032  0.023869128            3 
  527000    1.0389375    -7.504006    148.09869  0.023418515  0.023850273            8 
  528000    1.0233461   -7.5034853    148.06235  0.023368427  0.023831413            3 
  529000    1.0452072   -7.4883466    148.21278  0.023347948   0.02381287            3 
  530000    1.0365274    -7.493871    148.54698  0.023356443  0.023793751            4 
  531000    1.0516446   -7.4733963    148.96636  0.023378274  0.023774848            5 
  532000    1.0222862   -7.5120088    148.52471  0.023265149  0.023755945            2 
  533000    1.0520591   -7.5035287     149.5178  0.023376767  0.023737074            3 
  534000    1.0452296   -7.4753168     149.3212   0.02330231   0.02371819            3 
  535000    1.0340222    -7.463819    149.89603  0.023348291  0.023700121            3 
  536000    1.0570746    -7.493054    149.33317  0.023217221  0.023682087            3 
  537000    1.0588789   -7.4581711    149.62198  0.023218805  0.023663599            4 
  538000    1.0377144   -7.4582145    149.87497  0.023214834  0.023644567            3 
  539000    1.0352566   -7.4750179    150.41908  0.023255888  0.023625841            3 
  540000     1.037452   -7.5342086    150.06933  0.023158847  0.023606992            3 
  541000    1.0572572   -7.5183338    149.90489   0.02309071  0.023587967            3 
  542000    1.0263112   -7.5048317    150.07756  0.023074655   0.02356894            2 
  543000    1.0307606   -7.4844493    150.75824  0.023136624  0.023549807            2 
  544000    1.0437013   -7.4987663     150.7643  0.023095021  0.023531085            6 
  545000    1.0335752   -7.4714491    151.29847  0.023134322  0.023512319            3 
  546000    1.0520081   -7.4869339    151.93055  0.023188424  0.023493766            1 
  547000    1.0347249   -7.4963685    151.50499  0.023081199  0.023475521            5 
  548000    1.0493957   -7.4815978     151.8102  0.023085492  0.023457317            8 
  549000    1.0305149   -7.5554749    151.55278  0.023004369  0.023438806            4 
  550000    1.0335508   -7.5446681    151.46648  0.022949467  0.023420089            4 
  551000    1.0410303   -7.5720786    151.58254  0.022925369  0.023401428            3 
  552000    1.0496411   -7.5308711    152.17818  0.022973759  0.023382536            5 
  553000    1.0402169   -7.5645432    152.82037   0.02302899  0.023363704            4 
  554000    1.0451234   -7.5137279    152.99476  0.023013652  0.023345134            4 
  555000    1.0285814   -7.5539316    152.11038  0.022839397  0.023326601            3 
  556000     1.042803   -7.4899249    152.61836  0.022874455  0.023307717           10 
  557000    1.0188154   -7.5353853    153.34593  0.022942239  0.023289023            5 
  558000    1.0468814   -7.4798079    153.62035  0.022942107  0.023270559           11 
  559000    1.0212154   -7.4966971    153.74402  0.022919501  0.023252241            2 
  560000    1.0284885   -7.5193958    153.34025   0.02281849  0.023233727            3 
  561000    1.0174987   -7.5096615    153.97328  0.022871848  0.023214992            2 
  562000    1.0221607   -7.5061738    154.00056  0.022835196  0.023197048            3 
  563000    1.0235885   -7.5474308    154.34711   0.02284593  0.023179028            6 
  564000    1.0029455   -7.5457787    154.16162  0.022778017  0.023160887            4 
  565000    1.0187021   -7.5537654    154.39311  0.022771845   0.02314274            4 
  566000    1.0265569   -7.4987739    154.66932  0.022772279   0.02312462            4 
  567000    1.0485153     -7.53022    154.69679  0.022736154   0.02310666            2 
  568000    1.0294312   -7.5022254    155.38861  0.022797625  0.023088457            5 
  569000    1.0213361    -7.505023    155.21778  0.022732539  0.023070485           11 
  570000    1.0332838   -7.5283239    155.52447  0.022737496  0.023051962            8 
  571000    1.0118428   -7.5521718    155.57424  0.022704939  0.023033968            3 
  572000    1.0209697   -7.5593526    155.91882  0.022715446  0.023015955            2 
  573000    1.0173517   -7.5269847     155.8026  0.022658901  0.022997931            2 
  574000    1.0378832   -7.5675689    155.91611  0.022635904  0.022979614            6 
  575000    1.0182282   -7.5645732     155.7032  0.022565681  0.022960883            5 
  576000    1.0042538   -7.5695749    156.17206  0.022594338  0.022942256            7 
  577000    1.0027305   -7.5528589    156.36406  0.022582909   0.02292368            3 
  578000    1.0036884   -7.5601086     156.5189  0.022566161  0.022905519            3 
  579000    1.0229548   -7.5039441    157.55754  0.022676675  0.022888181            3 
  580000    1.0295582   -7.5522896    157.13252  0.022576512  0.022870598            3 
  581000    1.0403698   -7.5268008     157.7864  0.022631441   0.02285317            6 
  582000    1.0236327   -7.5723659    156.90355  0.022466144  0.022835719            7 
  583000    1.0068793   -7.5689345    157.37488   0.02249498  0.022818041            2 
  584000    1.0116068   -7.5873496    158.10301  0.022560361  0.022800706            7 
  585000    1.0044344   -7.5494452    158.27326  0.022546048  0.022783188            5 
  586000    1.0001777   -7.5219829    158.37118  0.022521499  0.022765745            5 
  587000    1.0520211   -7.5513201    158.42508  0.022490784  0.022748085            3 
  588000    1.0173419   -7.6177252    158.14364  0.022412647   0.02273043            3 
  589000    1.0171024   -7.5709422    158.41798  0.022413409  0.022712763            2 
  590000    1.0132183   -7.5913913    158.50605   0.02238786   0.02269529            9 
  591000    1.0193025   -7.5523381    159.11197  0.022435416   0.02267771            2 
  592000    1.0123622   -7.6108744    158.47922  0.022308449  0.022660135            4 
  593000    1.0162125    -7.590891    158.92588  0.022333598  0.022642752            8 
  594000    1.0083071   -7.5708122    159.20715  0.022335459  0.022625272            3 
  595000    1.0407556   -7.5517889     159.8128  0.022382745  0.022608144            4 
  596000   0.99990011   -7.5511199    159.90989  0.022358766   0.02259104            4 
  597000    1.0071119   -7.5819963    159.73297  0.022296618  0.022573908            5 
  598000    1.0148823   -7.5658247    160.17735  0.022321258  0.022556673            8 
  599000    1.0043447   -7.5819549    160.04882  0.022266113  0.022539409            3 
  600000    1.0169711    -7.580623    160.06841  0.022231723  0.022521974            3 
  601000    1.0193226   -7.5580242    160.76072  0.022290726  0.022504514            3 
  602000    1.0265707   -7.5545547    160.81994  0.022261897  0.022487346            5 
  603000   0.99240575   -7.5695247    160.85202  0.022229412  0.022469961            4 
  604000   0.99568285   -7.5949039    160.79632  0.022184923  0.022452294            2 
  605000   0.99316661   -7.6096967    160.67694   0.02213181  0.022434421            2 
  606000    1.0090254   -7.5823257    161.41569  0.022196878  0.022416566            2 
  607000    1.0337391   -7.5750687    161.33129  0.022148722  0.022398792            4 
  608000     0.996982   -7.6007427    161.08472  0.022078498  0.022380926            4 
  609000    1.0042159    -7.581372    161.24121  0.022063657  0.022363099            4 
  610000    1.0091439   -7.5722613    161.36562  0.022044483  0.022345122            4 
  611000    1.0282853   -7.5938095    161.58084  0.022037758  0.022327159            3 
  612000    1.0323958   -7.5964088    161.65913  0.022012409  0.022309208            4 
  613000    1.0059823   -7.6029578    161.49697  0.021954455   0.02229102            4 
  614000      1.00921   -7.5454773    162.21032  0.022015515   0.02227301            4 
  615000    1.0213899    -7.577669    161.59443  0.021896264  0.022255005            5 
  616000    1.0112832   -7.5960439    162.00525  0.021916295  0.022236913            6 
  617000    1.0223198   -7.6091464    162.08435  0.021891457  0.022218863            4 
  618000    1.0027911   -7.6228326    162.27793  0.021882137  0.022200644            4 
  619000    1.0156029   -7.6231104    162.55417  0.021883975  0.022182503            9 
  620000    1.0374302   -7.6049563    162.78099  0.021879165  0.022164339            6 
  621000    1.0160647   -7.5665471    162.99693  0.021872911  0.022146326            8 
  622000    1.0194086   -7.6028453    162.90349  0.021825227   0.02212829            4 
  623000    1.0107755   -7.5779852    162.75258  0.021770007  0.022110068            5 
  624000    1.0149577    -7.604003    163.21483  0.021796852  0.022092018            5 
  625000   0.99923336   -7.5908235    163.68002  0.021824003  0.022074186            5 
  626000   0.99221509   -7.6284005    163.66344  0.021786933  0.022056304            8 
  627000   0.98285644   -7.5493958    163.95226  0.021790571  0.022038325            4 
  628000    1.0035474   -7.6061697    163.77508  0.021732362  0.022020105            3 
  629000     1.005466    -7.604299     163.8119  0.021702689  0.022002027            4 
  630000   0.99006054    -7.609415     164.5775   0.02176951  0.021984083            3 
  631000   0.98873803   -7.5985971    164.61003  0.021739306  0.021966404            9 
  632000   0.98588544   -7.6033903    164.74275  0.021722409  0.021948682            4 
  633000   0.99036422   -7.6452494    164.09735  0.021603126  0.021930702            3 
  634000    1.0176855   -7.6105926    164.76409  0.021656689  0.021912756            6 
  635000   0.99172208   -7.5849203    165.65387  0.021739353   0.02189503            6 
  636000   0.98693349   -7.6056873    165.41299   0.02167361  0.021877449            5 
  637000   0.98706691   -7.5912901    165.41344  0.021639644  0.021859838            4 
  638000     1.019405   -7.6147926    165.55454  0.021624156  0.021842336            4 
  639000   0.99748416   -7.5852134    165.66486  0.021604703  0.021825064            3 
  640000    1.0045286   -7.6280752    166.00189   0.02161483  0.021807995            6 
  641000   0.98112936   -7.6537867    165.59922  0.021528759   0.02179084            3 
  642000   0.98758883   -7.5920427    166.03629  0.021551959  0.021773346            3 
  643000    1.0074712   -7.6360343    166.29895  0.021552481  0.021755582            2 
  644000     1.008935    -7.655788    166.06062  0.021488175  0.021737711            4 
  645000    1.0073722   -7.5943482    166.91155  0.021564799   0.02172012            5 
  646000   0.99686152    -7.587695    167.12995  0.021559591  0.021702776            5 
  647000    0.9923026   -7.6436415    166.78138  0.021481373  0.021685524            4 
  648000   0.99082989   -7.6358492    167.15125  0.021495788  0.021668246            4 
  649000   0.99553872   -7.6118722    167.73181  0.021537212   0.02165116            4 
  650000   0.99248464   -7.6253364    166.95087  0.021403957  0.021634195            7 
  651000    1.0066587    -7.583191    168.24165  0.021536309   0.02161718            3 
  652000    1.0014485   -7.6189798    167.50667  0.021409339   0.02160005            4 
  653000     1.007709    -7.593336    168.08581  0.021450461  0.021582721            4 
  654000    1.0087072   -7.6326637    167.52814  0.021346603  0.021565538            5 
  655000    1.0120076   -7.6250912    167.84457  0.021354272  0.021548339            2 
  656000   0.97267341   -7.6242593    167.79669  0.021315636  0.021530871            4 
  657000    1.0005674   -7.5680197    168.62532  0.021388295  0.021513452            4 
  658000    1.0112225   -7.6366842    168.11391  0.021291022  0.021495972            4 
  659000   0.98532618   -7.6172296    167.86173  0.021226824  0.021478491            5 
  660000   0.98342659   -7.6420025    168.64355  0.021293377  0.021460989            5 
  661000   0.97890852   -7.6142229    168.57329  0.021252306  0.021443499            3 
  662000   0.96175052   -7.5976437    169.07558  0.021283431  0.021426608            5 
  663000   0.99913044   -7.6380855    168.97315  0.021238455  0.021409524            3 
  664000   0.97371455   -7.6298543    168.85003  0.021191018  0.021392425            6 
  665000   0.99896731   -7.6158869    169.51962  0.021243061  0.021375269            6 
  666000    0.9666864   -7.5928092    169.43414  0.021200469  0.021358047            5 
  667000   0.98959694   -7.6640954    169.58755   0.02118785  0.021340836            5 
  668000    0.9787046   -7.6020687    170.06828  0.021216103  0.021323551            5 
  669000    1.0007557   -7.6173231    169.91915  0.021165813  0.021306492            5 
  670000   0.98975236   -7.6435061     169.4477  0.021075585  0.021289122            3 
  671000   0.97458219   -7.6611871    169.87692  0.021097482  0.021271931            6 
  672000   0.96443837   -7.6757479    170.30848  0.021119603  0.021254845            7 
  673000   0.97118771   -7.6182748    170.59989  0.021124306  0.021237874            8 
  674000    0.9981349   -7.6510156    170.77303  0.021114371  0.021221041            9 
  675000   0.99077776   -7.6270008    170.77755  0.021083648  0.021204161            4 
  676000   0.97890408   -7.6368613    170.71846  0.021045176  0.021187527            7 
  677000   0.98573089   -7.6311587    171.10644  0.021061846  0.021170931            6 
  678000   0.98701455   -7.6829836    171.13469  0.021034254  0.021154309            8 
  679000   0.99916207   -7.6227041    171.26539  0.021019316   0.02113775           10 
  680000   0.96639155   -7.6579795    171.65405  0.021036036  0.021121064            5 
  681000   0.97555802   -7.6724857    171.01682  0.020927168  0.021104377            3 
  682000   0.99296301    -7.650362    171.57759  0.020965004  0.021087789            4 
  683000   0.97179138   -7.6620106    171.76484  0.020957155  0.021071128            9 
  684000   0.99329857   -7.6673923     171.3659  0.020877912  0.021054342            3 
  685000   0.97627219   -7.7236092    171.48616  0.020862063   0.02103729            4 
  686000   0.99842181   -7.6813697    171.45781  0.020828209  0.021020069            5 
  687000   0.97404994   -7.6690158    172.22746  0.020891249  0.021003288            2 
  688000   0.98138015   -7.6578582    172.46961  0.020890215   0.02098645            4 
  689000    1.0066222   -7.6615977    172.60249  0.020875966  0.020969619            4 
  690000   0.98590838   -7.6445562    173.24342  0.020923119  0.020952936            6 
  691000   0.97705484   -7.6426954    172.85457  0.020845945  0.020936313            3 
  692000   0.99854359   -7.6994348    172.82839  0.020812667  0.020919539           14 
  693000    0.9994027   -7.6966066     172.9515  0.020797439  0.020902681            4 
  694000   0.97029992   -7.7018809    172.44455  0.020706598  0.020885766            7 
  695000   0.98160462   -7.6784427    172.80234  0.020719705   0.02086884            5 
  696000   0.97776432   -7.6908218    173.06876  0.020721834  0.020852096            7 
  697000   0.98086645   -7.6698621    173.54854  0.020749467  0.020835351            4 
  698000    1.0070844   -7.7088296    173.09297   0.02066535   0.02081854            5 
  699000   0.97728429   -7.6493745     173.9115  0.020733369  0.020801864            5 
  700000   0.98351536   -7.7135306    173.44691  0.020648441  0.020785207            3 
  701000   0.97261536   -7.6808301    173.97393  0.020681637  0.020768473            2 
  702000   0.97526507   -7.7272799    173.38552  0.020582326  0.020751953            8 
  703000   0.96490292   -7.6875614    174.21258  0.020651088  0.020735291            2 
  704000   0.97592278   -7.6908058    174.25432  0.020626695  0.020718677           16 
  705000   0.97937656   -7.6765128    174.54266  0.020631521  0.020702235            5 
  706000   0.96193909   -7.7269226    174.23873  0.020566422  0.020685564            5 
  707000   0.97484579   -7.6770999    174.56604  0.020575912  0.020668836            9 
  708000   0.96485552   -7.6854582    174.72448  0.020565499  0.020652149            6 
  709000   0.98525857   -7.6947337    174.69538  0.020533072  0.020635303            4 
  710000   0.98408895    -7.706271    174.86304  0.020523831  0.020618686            5 
  711000   0.96369152   -7.6405887    175.61422  0.020583007  0.020602022            6 
  712000   0.98274708   -7.6769039    175.48581   0.02053907  0.020585448            6 
  713000   0.95613382   -7.7019575    175.26744   0.02048474  0.020568972            2 
  714000   0.95298002   -7.7022119     175.5504  0.020489076  0.020552599            7 
  715000   0.96572501   -7.7087279    175.63507  0.020470287  0.020536425            4 
  716000   0.94945462    -7.680484    175.88967   0.02047133  0.020520376           11 
  717000   0.96157643   -7.7074007    176.30586  0.020491151  0.020504279            3 
  718000    0.9671871   -7.6623972    176.45469  0.020479885  0.020488313            6 
  719000   0.99618295   -7.6840575    176.52244  0.020459253  0.020472273           11 
  720000   0.98272538   -7.7201972    176.39645  0.020416256  0.020456036            4 
  721000   0.93711148   -7.6878399     177.0389  0.020462193  0.020440059            2 
  722000   0.93595748   -7.7117373    176.83228  0.020410005  0.020424124            6 
  723000   0.99497578   -7.7138521    176.18567  0.020307246  0.020408183            2 
  724000   0.98978001   -7.6957647    177.19547  0.020395427  0.020392435            6 
  725000    0.9647194   -7.7303136    176.90008  0.020333342  0.020376423            5 
  726000   0.96981335   -7.7086224     177.3794  0.020360353  0.020360246            2 
  727000   0.96319609   -7.6945687    177.34262  0.020328132  0.020344169            4 
  728000   0.96754768   -7.7301223    177.77274  0.020349444  0.020328479            3 
  729000   0.95978527   -7.6916394    177.75902  0.020319961  0.020312678            3 
  730000   0.96318828   -7.6985866    177.96139  0.020315227  0.020296822            6 
  731000   0.94822486   -7.7197021    177.33288  0.020215787  0.020280679            5 
  732000   0.97316019   -7.7128368    178.04355  0.020269074  0.020264391            6 
  733000   0.96139407   -7.6962194    178.10427  0.020248325   0.02024846            3 
  734000   0.93060681   -7.7090839    178.06474  0.020216251  0.020232496            4 
  735000   0.93721998   -7.7327609    177.88061   0.02016787  0.020216324            4 
  736000   0.95205882   -7.7663053    177.51265  0.020098806  0.020199826            3 
  737000   0.95987451   -7.7587809    177.78738  0.020102598  0.020183444            4 
  738000   0.94822128   -7.7302047    178.62495  0.020169936  0.020167231            3 
  739000   0.96264483   -7.7531897    178.40067  0.020117352  0.020150929            9 
  740000   0.94860179   -7.7380764    178.48794  0.020099993  0.020134536            4 
  741000   0.96063069   -7.7476652     178.4246  0.020065745   0.02011827            5 
  742000   0.96508185   -7.7453762    178.90095    0.0200922  0.020102261            5 
  743000   0.93923036   -7.7192383    178.99311  0.020075495  0.020086109            4 
  744000   0.96058264   -7.7177838    179.01293  0.020050731  0.020069897            4 
  745000   0.96087277   -7.7418352    178.50091  0.019966545  0.020053492            7 
  746000   0.96283062   -7.7453823    179.60212  0.020062792  0.020036992            7 
  747000   0.93116226   -7.7343964    178.92816   0.01996075  0.020020709            4 
  748000    0.9710634   -7.7459007    179.05722  0.019948443  0.020004505           13 
  749000   0.93358448   -7.7795102    178.97318  0.019912459  0.019988193            5 
  750000     0.947844   -7.7764525    179.25196  0.019916884  0.019971789            7 
  751000   0.94018859   -7.7392695    179.43981  0.019911209  0.019955416           12 
  752000   0.97016141   -7.7440043    179.82718  0.019927657  0.019939143            5 
  753000   0.96695915   -7.7262928    179.56622  0.019872313   0.01992283            8 
  754000   0.96836817   -7.7207621    179.71984  0.019862936   0.01990635            5 
  755000   0.97401141   -7.7261031    180.25376  0.019895558  0.019890087            8 
  756000   0.95717102   -7.7303192    180.44126  0.019889909  0.019873857            4 
  757000   0.95020892   -7.7530775    179.92726  0.019807052  0.019857682            5 
  758000   0.94474215   -7.7488205    179.82773  0.019769979  0.019841382           11 
  759000   0.95631839   -7.7925491    180.16282  0.019780722  0.019824872            5 
  760000   0.96073549   -7.7394176    180.40374  0.019781111  0.019808407            6 
  761000   0.97501087   -7.7489007    180.48937  0.019764495  0.019792184            2 
  762000   0.94735107   -7.7582432    180.85065  0.019778068  0.019775934            4 
  763000   0.95562635   -7.7524908    179.95614   0.01965445  0.019759673           12 
  764000   0.96840441   -7.7434528    180.17983  0.019653123  0.019743346            4 
  765000   0.95432772   -7.7896273    180.59122  0.019672246  0.019726841            4 
  766000   0.95021676   -7.7659875    180.82754  0.019672274   0.01971038            3 
  767000   0.95028775   -7.7566812    181.28029  0.019695815  0.019694033            5 
  768000   0.94959243   -7.7815772    180.63921  0.019600609   0.01967789           16 
  769000    0.9421528   -7.7824334    180.82232  0.019594963  0.019661691           11 
  770000   0.93997858   -7.8044843    181.00276  0.019589044  0.019645297            2 
  771000   0.94380482   -7.7442383    181.64688  0.019633255  0.019628794            3 
  772000   0.93868144   -7.7288514    181.70441  0.019614034  0.019612544            5 
  773000   0.93247533   -7.8167256    180.68678  0.019478954  0.019596108            7 
  774000   0.92633052   -7.7424238    181.10008  0.019498286  0.019579419            5 
  775000   0.93678728   -7.7757884    181.14558  0.019478019  0.019563025            3 
  776000   0.95347976   -7.7985906    181.49088      0.01949  0.019546659            7 
  777000   0.95983923   -7.7719659    181.98052   0.01951743  0.019530364            9 
  778000   0.93591772   -7.7435106    181.81034  0.019474115  0.019514149            5 
  779000   0.95206876    -7.783726    181.75244  0.019442923  0.019497818            5 
  780000   0.94517069   -7.8083203    182.01811  0.019446379  0.019481267            3 
  781000    0.9388795   -7.8020021    182.04915  0.019424792   0.01946463            6 
  782000   0.95991744   -7.7792696    182.08001  0.019403241  0.019448095           11 
  783000   0.94804739   -7.7736368    182.47209  0.019420188  0.019431695           16 
  784000   0.94549457    -7.810882    181.49314  0.019291362  0.019415317            5 
  785000   0.94310355   -7.7656211     182.2285  0.019344852  0.019398896            4 
  786000   0.95629898   -7.8124225    182.02511  0.019298675   0.01938236           10 
  787000   0.94089349   -7.7862913    182.24566  0.019297508  0.019365807           15 
  788000   0.93219768   -7.7721902    182.40049  0.019289392  0.019349384            3 
  789000   0.94321526   -7.7629548     182.8096  0.019308153  0.019333064            6 
  790000   0.93864362   -7.7787126    182.97054  0.019300689  0.019316639            6 
  791000   0.92042381   -7.7470824     183.0038  0.019279793  0.019300238            7 
  792000   0.94437405   -7.8147176    182.38244  0.019190072  0.019283755            5 
  793000   0.93865456   -7.7731399    183.46629   0.01927977  0.019267256            4 
  794000   0.94827609   -7.7715126    182.96022  0.019202374  0.019250703            4 
  795000   0.94714521   -7.7920838    182.55548  0.019135794  0.019234096            4 
  796000   0.93419227   -7.7813279    182.95974  0.019154077  0.019217554            5 
  797000   0.93836865   -7.7836398    183.86973  0.019225191   0.01920111            3 
  798000   0.94024625   -7.7561225    183.74942  0.019188536  0.019184935            5 
  799000   0.93719038   -7.8399497    182.91908  0.019077918  0.019168578            9 
  800000   0.93990786   -7.7814669    184.02685  0.019169464  0.019152341            4 
  801000   0.93769845    -7.787092    184.12159  0.019155388  0.019136244           10 
  802000   0.93399121   -7.7887827    184.21533  0.019141244  0.019120192            6 
  803000   0.94126436   -7.7940059     183.6373   0.01905742  0.019104116            4 
  804000   0.94771579   -7.8392063    183.89433  0.019060358   0.01908775            6 
  805000    0.9122044   -7.8476175    183.32802  0.018978056  0.019071435            3 
  806000   0.93210902   -7.8045608    184.32084  0.019057159  0.019055106            5 
  807000   0.90207253   -7.8066229    184.53199  0.019055348  0.019038745            2 
  808000   0.94151083   -7.8136287    183.97756  0.018974584  0.019022541            8 
  809000   0.93499816   -7.8236022     184.3248  0.018986898  0.019006254            9 
  810000   0.93213997   -7.7995022    184.31858  0.018962817  0.018990084            4 
  811000   0.94426434    -7.806693    184.69004  0.018977604  0.018973852            3 
  812000   0.93199558   -7.8230234    184.71727  0.018957027  0.018957716            6 
  813000   0.90404061   -7.8310622    184.80038  0.018942228  0.018941677            3 
  814000   0.92314623   -7.8089623     184.4385  0.018881911  0.018925645            3 
  815000   0.92175336    -7.825372      185.253  0.018942025  0.018909611           15 
  816000   0.92221838   -7.8329568    185.27149    0.0189207  0.018893717           14 
  817000   0.94827026   -7.8414289    185.03671  0.018873593  0.018877715           13 
  818000   0.92754124   -7.8402539    185.40161  0.018887694  0.018861818           11 
  819000   0.91375059   -7.8026105     186.0139  0.018926933  0.018845964            6 
  820000   0.92948808   -7.8285204    185.36129   0.01883753  0.018830187            5 
  821000   0.92411232    -7.807552    185.99997  0.018879413  0.018814481            4 
  822000   0.93302216   -7.8089458    185.98616  0.018855044  0.018798681            5 
  823000     0.924782   -7.8529445    186.14867   0.01884859   0.01878293            6 
  824000   0.92650467    -7.808229    186.36754   0.01884785  0.018767185            5 
  825000   0.94725701   -7.8261813    186.87917  0.018876684  0.018751663            9 
  826000   0.92782726   -7.8566354    187.16002  0.018882165  0.018736207           11 
  827000   0.92391795   -7.8377317    186.50157  0.018792983  0.018720732            4 
  828000   0.93267929   -7.8427929    186.10752  0.018730628  0.018705166            4 
  829000    0.9174382   -7.8245117    186.61592  0.018759139  0.018689641            8 
  830000   0.90848255   -7.7966333    187.13812  0.018788967   0.01867426            4 
  831000   0.94049292   -7.8291667    186.61633  0.018714032  0.018658823            6 
  832000   0.93931083   -7.8185207    187.15717  0.018745711  0.018643357            3 
  833000   0.91356246   -7.8425338    187.37622   0.01874512  0.018627975            4 
  834000   0.93246439   -7.8388724    187.07662  0.018692708  0.018612594            2 
  835000   0.90179204   -7.8603965    187.18251  0.018680889  0.018597065            6 
  836000   0.91693629   -7.8663748    187.29026  0.018669285  0.018581406            5 
  837000   0.92490632   -7.8300721    187.29732  0.018647683   0.01856595            9 
  838000   0.92886328   -7.8517119    187.45056  0.018640668  0.018550491            2 
  839000   0.90534889   -7.8479571    187.45115  0.018618509  0.018535014            5 
  840000    0.9267854   -7.8733496    187.41806  0.018593061  0.018519427           16 
  841000   0.91932124   -7.8709341    187.57528  0.018586532  0.018503928            5 
  842000   0.89852044   -7.8670412    187.65586  0.018572432  0.018488442            3 
  843000   0.90904217   -7.8638442    187.70805  0.018555561  0.018472824            3 
  844000   0.91934888    -7.832638     188.3079  0.018592802  0.018457378            3 
  845000   0.92732108   -7.8642895     188.4761  0.018587386  0.018442053            4 
  846000    0.9228229   -7.8771711    187.26508  0.018446127  0.018426734            5 
  847000   0.92618392   -7.8307325    188.10166  0.018506657  0.018411313            5 
  848000   0.91485435   -7.8564488    188.14806  0.018489393  0.018395936            6 
  849000   0.90930411   -7.8735669    188.59769  0.018511748  0.018380501            5 
  850000   0.90664071   -7.9010153    187.89374  0.018420955  0.018364994           14 
  851000   0.91088531   -7.8822473    188.20218  0.018429513  0.018349579            7 
  852000   0.92678181   -7.8542589    188.27695  0.018415195  0.018334073            8 
  853000   0.91848235    -7.847865    188.41084  0.018406686  0.018318549            9 
  854000   0.92353135   -7.8803853    188.75384  0.018418602  0.018303043            3 
  855000   0.90494086    -7.900508    187.94706  0.018318427  0.018287564            7 
  856000   0.89988995   -7.8632362    188.87891  0.018387745  0.018272019            5 
  857000   0.89656717   -7.8624378    188.98449  0.018376555  0.018256659            7 
  858000   0.92191787   -7.8743426    188.55069  0.018313004  0.018241279            7 
  859000   0.91140076   -7.8509437    188.88993  0.018324596  0.018225862            7 
  860000   0.90990194    -7.864831    188.87878  0.018302208  0.018210486            5 
  861000   0.89153091   -7.9017687    188.65524  0.018259315   0.01819502            7 
  862000   0.89755237   -7.9277524    188.40365   0.01821381  0.018179506            8 
  863000   0.92591561   -7.8601354    189.19669  0.018269283  0.018164029           12 
  864000    0.9151324   -7.8890674    189.22697  0.018251058  0.018148573           10 
  865000   0.89926741    -7.908833     189.0389   0.01821184  0.018133084           31 
  866000    0.9373232   -7.8795642     188.6998  0.018158179  0.018117557           17 
  867000   0.91744582   -7.8821602    189.56625  0.018220517  0.018102078            5 
  868000    0.9116805   -7.8249822    189.55355  0.018198305  0.018086743            8 
  869000   0.89496603   -7.8901673    189.55447  0.018177452  0.018071437           31 
  870000   0.92326177   -7.8685296    189.34651  0.018136639  0.018055888            5 
  871000   0.89584677   -7.8633921    189.16111  0.018098078  0.018040405            5 
  872000    0.8963082    -7.867578    189.50464  0.018110153  0.018024988            4 
  873000   0.91561324   -7.8797337    189.74571   0.01811242  0.018009303            4 
  874000   0.89156854   -7.8740033     189.5435  0.018072416  0.017993626            6 
  875000   0.89912264    -7.860146     189.5834  0.018055562  0.017978015            6 
  876000   0.88819822   -7.8247372    189.77423  0.018053104  0.017962408            9 
  877000    0.8905121   -7.9054216    188.86271  0.017945906  0.017946679            9 
  878000   0.89595871   -7.8975837    189.53445  0.017989223  0.017930963            5 
  879000   0.88181655   -7.9361256    189.18085  0.017935234  0.017915256            7 
  880000   0.90263955   -7.9056209    189.77142  0.017970778  0.017899504            6 
  881000   0.90372884   -7.9368994    189.55134  0.017929563  0.017883761            7 
  882000   0.88173673    -7.864301    190.53264   0.01800195  0.017868134           22 
  883000   0.91210038   -7.9382792     190.2546  0.017955323  0.017852647            4 
  884000   0.90306076   -7.8873107    189.78854  0.017891077  0.017837103            5 
  885000   0.90023849   -7.8819604     190.4128  0.017929642  0.017821634            3 
  886000   0.88603597   -7.9544932    189.74547  0.017846639  0.017806101            5 
  887000   0.90376677   -7.9014216    190.30476  0.017879064  0.017790432            4 
  888000   0.88799258   -7.8584925    191.02919  0.017926914  0.017775049            6 
  889000   0.91226236   -7.8975769    190.65627  0.017871792  0.017759741            3 
  890000    0.9201057   -7.9102535    190.74304  0.017859835  0.017744317            2 
  891000   0.90603623   -7.9208354    190.82767  0.017847706  0.017728947            7 
  892000   0.89759949   -7.9464651    190.20492  0.017769518   0.01771359            7 
  893000   0.89486749   -7.9407908    190.92244  0.017816578   0.01769818            5 
  894000   0.90103498   -7.9341351     190.8313  0.017788153  0.017682849            4 
  895000   0.88815588   -7.9143338    191.02372  0.017786194   0.01766748            6 
  896000   0.88800102   -7.9236366    191.09118  0.017772617  0.017652123            7 
  897000   0.90069319   -7.8964744    191.35807  0.017777599  0.017636735           12 
  898000   0.88318196   -7.9576495     190.5945  0.017686944  0.017621245            7 
  899000   0.90522626    -7.913178    191.08391  0.017712635  0.017605825           17 
  900000    0.8736551   -7.9310901    191.27712  0.017710845  0.017590413           14 
  901000   0.90755752   -7.9343712    190.86654  0.017653213  0.017574959           18 
  902000   0.90732874    -7.930839    191.01233  0.017647111  0.017559416           20 
  903000   0.90715231   -7.9522284    190.91609  0.017618687  0.017543838           13 
  904000   0.89385075   -7.9226271    191.20639  0.017625957  0.017528326            6 
  905000   0.89926493   -7.9025292     191.7302  0.017654714  0.017512883           18 
  906000   0.89689907   -7.9452103    191.39737  0.017604614  0.017497473            4 
  907000   0.89013424   -7.9657748    191.56855  0.017600932  0.017482016            8 
  908000    0.8993225   -7.9489298     190.7892  0.017510022  0.017466447           14 
  909000   0.89273581   -7.9443285    190.99767  0.017509871  0.017450844           12 
  910000   0.90289805   -7.9669933     190.9939  0.017490284   0.01743523           12 
  911000   0.87019356   -7.9615065    191.36715  0.017505227  0.017419658           12 
  912000   0.90544811    -7.967667    191.27297  0.017477427  0.017403955            4 
  913000   0.87207878   -7.9770675    190.73994  0.017409633  0.017388349            8 
  914000   0.87472816   -7.9443865    191.85178  0.017491957  0.017372857           13 
  915000   0.87715382   -7.9421782    191.86343    0.0174739  0.017357478            6 
  916000   0.88766907   -7.9454948    191.63978  0.017434478  0.017342225            7 
  917000   0.89194468   -7.9293296    192.03396  0.017451287  0.017326865           12 
  918000   0.89689619   -7.9444498    191.96558   0.01742607  0.017311578            4 
  919000   0.88813453   -7.9564136    192.26596  0.017434345  0.017296219           24 
  920000   0.89139517   -7.9290793    192.06946  0.017397596   0.01728092            5 
  921000   0.88991993   -7.8980128     192.2993  0.017399502  0.017265709            4 
  922000   0.88501295   -7.9245865    192.44539  0.017393835  0.017250382            3 
  923000   0.90992635   -7.9342988    192.44193  0.017374678  0.017235066            8 
  924000   0.87429171   -7.9769304    191.89993  0.017306992  0.017219702            3 
  925000   0.89239811   -7.9680413    192.16632  0.017312281  0.017204348           12 
  926000   0.86715554   -7.9462621    192.30343  0.017305924  0.017188973            5 
  927000   0.89205107   -7.9696392    191.96126  0.017256496  0.017173456            5 
  928000    0.8834955   -7.9905778    192.26099  0.017264816   0.01715796            4 
  929000   0.87942948   -7.9833962    192.51982  0.017269449  0.017142439            4 
  930000   0.88666348   -7.9994581    191.99885  0.017204198  0.017126945            5 
  931000   0.87370177   -7.9804866    192.66298  0.017245164   0.01711149            6 
  932000   0.91039248   -7.9676122    191.91861  0.017160105  0.017096123            7 
  933000   0.87882781   -7.9843699    192.13989  0.017161477  0.017080673            2 
  934000   0.88576548   -7.9889712    192.56764  0.017181267   0.01706529           11 
  935000   0.88854597   -7.9280074    193.46724   0.01724307   0.01705014            6 
  936000   0.86038837   -7.9776667    192.97112  0.017180477  0.017035029           11 
  937000   0.89743849   -7.9667461     193.2066  0.017183084  0.017019899           10 
  938000   0.88323869    -7.971013    192.62538  0.017113129  0.017004688           10 
  939000   0.87905368   -7.9918733    193.19004  0.017145016  0.016989515           19 
  940000   0.87744894   -8.0096104    193.01524   0.01711128  0.016974274           16 
  941000    0.8599454   -7.9708578    193.00137  0.017091867  0.016959021           16 
  942000   0.87348253   -7.9568409    193.24709  0.017095461  0.016943783           13 
  943000    0.8732364    -7.997932     193.2112   0.01707416  0.016928696            9 
  944000   0.86689158   -8.0028508    193.26943  0.017061214  0.016913541           33 
  945000   0.89655618    -7.951562    194.02857  0.017110103  0.016898429           14 
  946000   0.87715189   -7.9796335    193.56283  0.017050989  0.016883369            8 
  947000   0.86476162   -7.9596721    194.11372  0.017081461  0.016868314           10 
  948000   0.87050261   -8.0210063    193.25933  0.016988337  0.016853202           19 
  949000   0.87136458   -7.9441401    194.20324  0.017053323  0.016838154           41 
  950000   0.85869374   -8.0429526    193.53726  0.016976953  0.016823094           67 
  951000   0.86039968   -7.9917397    193.42598   0.01694935  0.016808035           72 
  952000    0.8561831   -8.0022219    193.57458  0.016944553  0.016793025           56 
  953000   0.87014445   -7.9764043    194.49614  0.017007357    0.0167782           58 
  954000   0.88341103   -7.9966518    193.85849   0.01693383  0.016763316           97 
  955000   0.85956204   -7.9960021    194.00761  0.016929111  0.016748558           81 
  956000   0.86264307   -7.9972352    194.08991  0.016918577  0.016733783          130 
  957000   0.87519845   -8.0077452    194.56946  0.016942656  0.016718994          101 
  958000   0.86453023   -8.0095518    194.43877  0.016913602  0.016704172           86 
  959000   0.86726966   -8.0374666    194.30752   0.01688456  0.016689319          122 
  960000   0.86344976   -8.0562074    194.05066  0.016844675  0.016674422          110 
  961000   0.87384194    -8.046389    194.65706  0.016879731  0.016659569          120 
  962000   0.88219549   -8.0250893    194.30312  0.016831524  0.016644707          147 
  963000   0.87817761   -8.0286295    194.41407  0.016823647  0.016629842          132 
  964000   0.90699058   -8.0415141    194.24592  0.016791659  0.016614915          157 
  965000   0.86899638   -8.0215546    194.33467  0.016781923  0.016600088          181 
  966000   0.84990245   -8.0345901    194.73129  0.016798765  0.016585262          190 
  967000   0.85833544   -8.0452607    194.05721  0.016723303  0.016570298          136 
  968000   0.87008058   -8.0674712    194.50027  0.016744169    0.0165553          197 
  969000   0.84599982   -8.0532918    194.47708  0.016724895  0.016540347          161 
  970000   0.87591255   -8.0477618    194.32244  0.016694367  0.016525432          186 
  971000   0.84687325   -8.0656218    194.39286  0.016683219  0.016510569          220 
  972000   0.86617286   -8.0408925    194.59254  0.016683174  0.016495738          204 
  973000   0.85744105   -8.0370729    194.45692  0.016654413    0.0164808          206 
  974000   0.87490032   -8.0966779    194.41077  0.016633365  0.016465887          274 
  975000   0.87387344   -8.0586934    195.10485  0.016675629  0.016450986          277 
  976000    0.8544734   -8.1102876    194.73697  0.016627132  0.016436202          293 
  977000   0.86379152   -8.1174179    194.78581  0.016614279  0.016421359          281 
  978000   0.87951475   -8.1197821    194.80076  0.016598565  0.016406499          309 
  979000   0.86048268   -8.1023228    195.04687   0.01660256  0.016391545          365 
  980000   0.86034035   -8.1253314    194.54985  0.016543354  0.016376694          391 
  981000   0.87349018   -8.1367733    194.64899  0.016534912  0.016361748          420 
  982000   0.85342734     -8.13507    194.37514  0.016494835  0.016346815          468 
  983000    0.8706928   -8.1403361    194.49175  0.016487941  0.016331775          457 
  984000   0.86718773   -8.1363113    194.55917  0.016476895  0.016316734          479 
  985000   0.86757421   -8.1269094    194.83701  0.016483672  0.016301786          504 
  986000    0.8670593   -8.1339321     194.6633  0.016452274  0.016286842          537 
  987000   0.88070609   -8.1093516    194.26371  0.016401867  0.016271728          506 
  988000     0.860625   -8.1467411    194.51486  0.016406449  0.016256692          595 
  989000   0.86058801   -8.1653249    194.58189  0.016395508  0.016241709          567 
  990000   0.84797764   -8.1540713    194.47425  0.016369887  0.016226586          617 
  991000   0.84732253   -8.2018503    194.77551  0.016378701   0.01621144          655 
  992000   0.88678799   -8.1472795    194.86488  0.016369697  0.016196248          688 
  993000   0.84863902   -8.1794119    194.91686  0.016357575  0.016181061          739 
  994000   0.86762729   -8.2103629    194.55073  0.016310423  0.016165785          815 
  995000   0.81702032   -8.2564584    194.17581  0.016262631  0.016150403          861 
  996000   0.86291607   -8.2529266    193.97629  0.016229609   0.01613494          884 
  997000    0.8717434   -8.2531985    193.93976  0.016210277  0.016119531          921 
  998000   0.84791457   -8.2388219    194.11311  0.016208509  0.016104042         1011 
  999000   0.83590941   -8.2907063    193.41474  0.016134029  0.016088433         1078 
 1000000   0.83933237   -8.2946659    194.08035  0.016173362  0.016072833         1175 
 1001000   0.85212996   -8.3022285    193.67631  0.016123569  0.016057152         1271 
 1002000   0.84831579   -8.2952754      193.449  0.016088573  0.016041449         1274 
 1003000   0.87233139   -8.3270574    193.46293   0.01607369  0.016025688         1296 
 1004000   0.85804112   -8.3321702    193.51347  0.016061875  0.016009903         1407 
 1005000   0.85551349   -8.3568425    193.03313  0.016006064  0.015994083         1418 
 1006000   0.83915312   -8.4029822    192.88752  0.015978091  0.015978121         1544 
 1007000   0.84709669   -8.4070115    192.71623  0.015948049  0.015962155         1584 
 1008000   0.83823905   -8.3940413    192.98358   0.01595433  0.015946181         1618 
 1009000   0.87847911   -8.3569236    193.59831  0.015989289  0.015930303         1639 
 1010000   0.86750416   -8.4096864    193.01569  0.015925387  0.015914321         1826 
 1011000   0.84834422   -8.4011546     192.9173  0.015901525  0.015898315         1805 
 1012000   0.83925835   -8.4586699     192.6634  0.015864904  0.015882331         1985 
 1013000    0.8521356   -8.4697772    192.34595  0.015823129  0.015866187         1988 
 1014000   0.82085452   -8.4794145    192.64482  0.015832086  0.015849956         2009 
 1015000   0.82777053   -8.5029992    192.23643  0.015782958  0.015833671         2031 
 1016000   0.85028002   -8.4942242    192.39142  0.015780136  0.015817403         2084 
 1017000   0.84293204   -8.5317623     192.3161  0.015758448  0.015801132         2149 
 1018000    0.8437296   -8.5180585    192.07603  0.015723316  0.015784867         2207 
 1019000   0.83939195   -8.4794769    192.77732  0.015765237  0.015768583         2243 
 1020000   0.84319025   -8.5338573    192.24193   0.01570604  0.015752233         2265 
 1021000   0.84064661   -8.5171201     191.7137  0.015647543  0.015735846         2330 
 1022000   0.86163703   -8.5452853    191.94291  0.015650922  0.015719392         2341 
 1023000    0.8321371   -8.5794862    191.64993  0.015611757  0.015702901         2426 
 1024000   0.84034099   -8.5585615    191.77872  0.015606993  0.015686332         2534 
 1025000   0.84241631   -8.5924075    191.23682  0.015547709  0.015669711         2546 
 1026000   0.84399747   -8.6010204    191.28627  0.015536572  0.015653042         2688 
 1027000   0.84419554   -8.6449251    190.93869   0.01549324  0.015636308         2757 
 1028000     0.841397   -8.6645391    191.04007  0.015486387  0.015619495         2833 
 1029000   0.83612057   -8.6490926    191.20572  0.015484752  0.015602602         2894 
 1030000      0.83353   -8.6395503    191.06885  0.015458645  0.015585709         2847 
 1031000   0.82959997   -8.6672258    190.87884  0.015428293  0.015568784         2816 
 1032000   0.81514821   -8.6648916    190.60594  0.015391306  0.015551832         2839 
 1033000   0.84479831   -8.6570573    190.92051  0.015401783  0.015534893         2845 
 1034000   0.83074443    -8.686545    190.76259  0.015374161  0.015517966         2868 
 1035000   0.83778869   -8.7018286    190.32013  0.015323682   0.01550103         2864 
 1036000    0.8438636   -8.6899612     190.7499   0.01534346  0.015484027         2860 
 1037000   0.83240085   -8.7095151    190.27288  0.015290331  0.015467027         2988 
 1038000   0.82360686   -8.7222674    190.11339  0.015262796  0.015450035         3013 
 1039000   0.81861436   -8.7203003    190.56905  0.015284653  0.015433038         3042 
 1040000   0.81218999   -8.7005759    190.93106  0.015298963     0.015416         3118 
 1041000   0.84469366   -8.6916117    190.48174  0.015248298  0.015398981         3015 
 1042000    0.8303884    -8.720932    190.54049  0.015238363  0.015381986         3082 
 1043000   0.84551058   -8.7409278    190.45452  0.015216884  0.015364968         3120 
 1044000   0.83785757   -8.7333126    190.81448  0.015231041  0.015347969         3045 
 1045000   0.81870331   -8.7318677    190.78002  0.015213718  0.015330994         3070 
 1046000   0.83583504   -8.7463073    190.52786  0.015179084  0.015313997         3117 
 1047000   0.84138607   -8.7443971    190.21238  0.015139476  0.015297011         3101 
 1048000   0.84496416   -8.7323056    190.53806  0.015150927  0.015280032         3175 
 1049000   0.83641646   -8.7611671    190.53247   0.01513604  0.015263056         3226 
 1050000   0.83418744   -8.7672034    190.00504  0.015079765  0.015246063         3136 
 1051000   0.85512411   -8.7715059    190.05045  0.015069017  0.015229041         3143 
 1052000   0.83992067   -8.7735728    190.09413  0.015058154  0.015212008         3254 
 1053000   0.83078155   -8.7660105      190.243  0.015055635  0.015194961         3304 
 1054000   0.82149097   -8.7915793    190.58574  0.015068449  0.015177899         3327 
 1055000   0.86793439   -8.7546409    190.46708  0.015044793  0.015160902         3235 
 1056000   0.82619366   -8.7899434    190.18849  0.015008561  0.015143844         3397 
 1057000   0.82490728   -8.8107418    190.19008  0.014994488  0.015126774         3404 
 1058000   0.81801005   -8.8098787    190.15053    0.0149772  0.015109708         3439 
 1059000   0.84473253    -8.819572    189.92822  0.014945564  0.015092633         3447 
 1060000    0.8285769   -8.8121453    189.69445  0.014913086  0.015075545         3433 
 1061000   0.83606957   -8.8235779    189.54147  0.014887015  0.015058508         3517 
 1062000   0.84497933   -8.8272262    189.54713  0.014873441  0.015041422         3522 
 1063000   0.83386614   -8.8081677     189.5849   0.01486241  0.015024329         3439 
 1064000   0.83979517   -8.8325319    189.83204  0.014867798  0.015007271         3489 
 1065000   0.79645667   -8.8237494    189.77615  0.014849464   0.01499022         3533 
 1066000   0.83644945   -8.7958117    189.55388  0.014818158  0.014973158         3458 
 1067000   0.80644632    -8.831471    189.40123  0.014792349  0.014956113         3549 
 1068000   0.83179405   -8.8718637    189.47876  0.014784548  0.014939056         3583 
 1069000   0.81814533   -8.8426195     189.6546  0.014784425   0.01492204         3555 
 1070000   0.83202844    -8.835346    189.69859  0.014774034  0.014905039         3470 
 1071000    0.8401222   -8.8403772    189.53876  0.014747803  0.014888011         3605 
 1072000   0.84082519   -8.8721169    189.25564  0.014712037  0.014871014         3601 
 1073000   0.83935257   -8.8258433    189.55492  0.014721569   0.01485402         3578 
 1074000   0.83184581   -8.8643391    189.52045  0.014705187  0.014837033         3586 
 1075000   0.81143336   -8.8639123    189.35624  0.014678778  0.014820073         3581 
 1076000   0.80436628   -8.8544518    189.45463  0.014672757  0.014803127         3621 
 1077000   0.83265494    -8.882749    189.59464  0.014669966  0.014786214         3613 
 1078000   0.81794284   -8.8868592    189.37422  0.014639318  0.014769271         3632 
 1079000    0.8084146   -8.8710308    189.43565  0.014630495  0.014752371         3644 
 1080000   0.82423272   -8.8316968    189.54286   0.01462522  0.014735436         3639 
 1081000   0.83810072   -8.8567613     189.4937  0.014607901  0.014718568         3565 
 1082000   0.81007994   -8.8828372    189.47815  0.014593203  0.014701687         3607 
 1083000   0.83056514   -8.9008817    189.20742  0.014558897  0.014684816         3569 
 1084000   0.79985787   -8.8869866    189.53477  0.014570631   0.01466797         3611 
 1085000   0.83502606   -8.9189083    189.08289  0.014522496  0.014651094         3681 
 1086000   0.82102802   -8.8853669    189.80042  0.014564182  0.014634193         3611 
 1087000   0.82852315   -8.8853303    189.53761  0.014530636  0.014617366         3662 
 1088000      0.81641   -8.9151752    189.00028  0.014476124  0.014600486         3726 
 1089000   0.80423238   -8.8933247    189.24888  0.014481855  0.014583596         3696 
 1090000   0.83302197   -8.9147464    189.18217  0.014463468  0.014566711         3649 
 1091000   0.83274054   -8.9243848    188.62139  0.014407378  0.014549887         3736 
 1092000    0.8367981   -8.9277276    188.92306  0.014417205  0.014533035         3692 
 1093000    0.8146528   -8.9147476    188.92206  0.014403939  0.014516175         3682 
 1094000   0.81461931   -8.8899043    189.48433  0.014433603  0.014499336         3624 
 1095000   0.81772566   -8.9495424    188.82245  0.014370049  0.014482511         3693 
 1096000   0.81685164   -8.9095444    189.25802  0.014390056  0.014465708         3669 
 1097000   0.82652719   -8.9058135    189.04792  0.014360978  0.014448919         3664 
 1098000   0.82486457   -8.9258778    188.65605  0.014318158  0.014432143         3697 
 1099000   0.81772126   -8.9398488     189.0141  0.014332279  0.014415335         3735 
 1100000   0.79950447   -8.9301023    188.66921  0.014293122  0.014398549         3740 
 1101000   0.81220507   -8.9174491    189.14998  0.014316529  0.014381775         3714 
 1102000    0.8204673   -8.9488988    188.59955  0.014261914  0.014365009         3748 
 1103000   0.82918687   -8.9411298     188.8654  0.014269069  0.014348231         3706 
 1104000   0.81919879    -8.926835    188.88509  0.014257631  0.014331459         3750 
 1105000   0.81205965   -8.9661124    188.42375  0.014209936  0.014314698         3716 
 1106000   0.81206097   -8.9526117    188.52562  0.014204763  0.014297952         3759 
 1107000   0.80691861    -8.958757     188.5402  0.014193029  0.014281215         3771 
 1108000    0.8108303   -8.9629247    188.72627  0.014194214  0.014264516         3762 
 1109000   0.79942267   -8.9573747    188.78124  0.014185546  0.014247823         3761 
 1110000    0.8118626   -8.9515102    188.64764  0.014162736  0.014231134         3757 
 1111000   0.80309882   -8.9610193    188.87789  0.014167258  0.014214466         3771 
 1112000   0.81077035   -8.9614661    188.92062  0.014157721  0.014197791         3792 
 1113000   0.81402006   -9.0020925    188.34166  0.014101652  0.014181102         3801 
 1114000   0.80588146   -8.9437483    188.81081  0.014124088  0.014164448         3749 
 1115000   0.80545457   -8.9772397    188.63338   0.01409816  0.014147846         3807 
 1116000   0.80763162   -8.9775311    188.65314  0.014087002  0.014131244         3795 
 1117000    0.8280872   -8.9830573    188.37611  0.014053723  0.014114643         3814 
 1118000   0.79628488   -8.9726364    188.54257  0.014053561  0.014098057         3817 
 1119000    0.8295672   -9.0009676    188.26116  0.014020044  0.014081478         3839 
 1120000   0.81041548   -8.9951416    188.52158  0.014026903    0.0140649         3827 
 1121000   0.80209229   -8.9883632    188.63628  0.014022917  0.014048327         3855 
 1122000   0.79764921   -9.0063173    188.07131  0.013968457  0.014031768         3860 
 1123000   0.80771483   -9.0061904    188.68687  0.014001697  0.014015225         3855 
 1124000   0.81806251   -8.9786417    188.37972  0.013966468  0.013998698         3838 
 1125000   0.80530383    -8.975947    188.19801  0.013940593  0.013982205         3834 
 1126000   0.80216496   -9.0004693    187.96513  0.013910978   0.01396573         3844 
 1127000   0.81920584    -8.995094    188.30686  0.013923903  0.013949257         3842 
 1128000   0.78910108    -9.000255     188.2377   0.01390645  0.013932793         3869 
 1129000   0.79861969   -9.0289574    188.23993  0.013894296  0.013916329         3828 
 1130000   0.81438289   -8.9692274     188.1231  0.013873385  0.013899895         3835 
 1131000   0.80655787   -9.0016661    188.46448  0.013886272  0.013883479         3839 
 1132000   0.80458171   -8.9812529     188.2658  0.013859379  0.013867088         3813 
 1133000   0.78649785   -8.9649458    188.16863      0.01384   0.01385071         3825 
 1134000   0.77938299    -9.000437    188.21658  0.013831318  0.013834362         3805 
 1135000   0.79418957   -8.9887016    188.83816   0.01386477  0.013818029         3813 
 1136000   0.79617623   -9.0330416    187.92761   0.01378577  0.013801734         3822 
 1137000   0.80907297   -8.9868423    188.05157   0.01378273  0.013785404         3808 
 1138000   0.80570212   -8.9879161    188.21864  0.013782853  0.013769125         3827 
 1139000   0.81861689   -9.0292288    188.21646  0.013770593  0.013752846         3857 
 1140000   0.78621988   -9.0368931    188.33512  0.013767187  0.013736558         3843 
 1141000   0.80782284   -9.0311939    188.04393  0.013733854  0.013720294         3831 
 1142000   0.79803632   -9.0314361    188.11162  0.013726767  0.013704036         3828 
 1143000   0.80329688    -9.030114    188.09899  0.013713837  0.013687787         3841 
 1144000   0.79599345   -9.0397589    188.19339  0.013708726  0.013671557         3859 
 1145000   0.79802072   -9.0212774    187.81501  0.013669214  0.013655367         3850 
 1146000     0.792742   -9.0365086    188.31052  0.013693318  0.013639176         3832 
 1147000   0.81223942   -9.0274308    187.89632  0.013651288  0.013623003         3844 
 1148000   0.79815786   -9.0252773    187.99275  0.013646396  0.013606861         3828 
 1149000   0.79065377   -9.0479546    187.71337  0.013614257  0.013590724         3830 
 1150000   0.79797593   -9.0281818    187.95991  0.013620283  0.013574612         3833 
 1151000   0.79437322   -9.0565001    188.27499  0.013631262  0.013558501         3830 
 1152000   0.79578612   -9.0548494    187.56436  0.013568024  0.013542451         3851 
 1153000   0.80283221   -9.0271218    187.94095  0.013583474  0.013526391         3817 
 1154000   0.81110465   -9.0572752    187.67256  0.013552322  0.013510357         3837 
 1155000    0.8008033   -9.0440325    188.09454  0.013571034  0.013494342         3854 
 1156000   0.78256089   -9.0428964    187.72897  0.013532942  0.013478338         3809 
 1157000   0.80913557   -9.0342382    188.19875  0.013555081  0.013462366         3811 
 1158000   0.79452134   -9.0207197    188.23068  0.013545673    0.0134464         3820 
 1159000    0.8046126   -9.0657878    187.77859   0.01350148  0.013430486         3879 
 1160000   0.80319546    -9.056355    187.91229  0.013499446  0.013414564         3849 
 1161000   0.79777836   -9.0193126    188.46096  0.013527201  0.013398648         3825 
 1162000   0.77773818   -9.0570533    187.68997  0.013460268  0.013382745         3804 
 1163000   0.78638047   -9.0704828     187.7861  0.013455582  0.013366869         3860 
 1164000   0.79402577   -9.0511795    187.88688  0.013451237  0.013350972         3854 
 1165000   0.78423425   -9.0590729    187.84776  0.013436892  0.013335114         3832 
 1166000   0.79174155   -9.0433602    187.67515  0.013413033  0.013319287         3823 
 1167000   0.78560546   -9.0393685    187.76493   0.01340795   0.01330347         3817 
 1168000   0.78083185   -9.0522558    187.42879  0.013372488  0.013287659         3852 
 1169000   0.78717942   -9.0488132      188.083  0.013407685  0.013271871         3839 
 1170000   0.77298025   -9.0640652    187.77437  0.013374243  0.013256128         3870 
 1171000   0.79609252   -9.0592006    187.96108  0.013376109  0.013240408         3857 
 1172000   0.79697978   -9.0792703    187.60304  0.013339238  0.013224694         3855 
 1173000   0.79012274   -9.0662787    187.81423   0.01334287  0.013208979         3879 
 1174000   0.79122339   -9.0809619    187.68979  0.013322671  0.013193305         3868 
 1175000    0.7886579   -9.0755612    187.30485  0.013284032  0.013177649         3841 
 1176000   0.78620308   -9.0810834    187.65621  0.013297634  0.013162019         3858 
 1177000   0.78171229   -9.0802332    187.42662  0.013270081  0.013146395         3868 
 1178000   0.77955503   -9.0770281    187.28641  0.013248897  0.013130776         3864 
 1179000   0.79420204   -9.0718995    187.82836  0.013275966  0.013115198         3851 
 1180000   0.79135438   -9.0895324    187.39533  0.013234133  0.013099655         3853 
 1181000   0.79057796   -9.0652255    187.61812  0.013238648  0.013084114         3881 
 1182000    0.7801586   -9.0785828    187.50906  0.013219759   0.01306858         3832 
 1183000   0.78335806   -9.0849942    187.70729  0.013222548  0.013053076         3886 
 1184000   0.76352841   -9.0761015    187.91015  0.013225658  0.013037597         3880 
 1185000   0.79056907   -9.0994533    187.55647  0.013189625  0.013022148         3826 
 1186000    0.7946974   -9.0532513    187.70148  0.013188693    0.0130067         3857 
 1187000   0.78396721   -9.0752043     187.7898  0.013183783  0.012991282         3859 
 1188000    0.7840867   -9.0791543    187.93954  0.013183189  0.012975887         3880 
 1189000    0.7728604   -9.0913823    187.85549  0.013166211  0.012960516         3859 
 1190000    0.7774984    -9.085998    187.19568  0.013108941  0.012945147         3883 
 1191000   0.76400749   -9.0775912    187.81064  0.013140963  0.012929804         3863 
 1192000   0.78013844   -9.0956389    187.46812  0.013105993  0.012914471         3868 
 1193000   0.76481139   -9.0745804    187.42044  0.013091676  0.012899146         3904 
 1194000   0.77230615   -9.0742251    187.56236  0.013090617  0.012883845         3868 
 1195000   0.76553931   -9.0993122    187.34533  0.013064528  0.012868538         3870 
 1196000   0.77678824   -9.0951716    187.51615  0.013065507  0.012853248         3896 
 1197000   0.77182738   -9.1013901    187.17701  0.013030981  0.012838008         3870 
 1198000   0.79466012   -9.0917221    187.46244  0.013039958  0.012822796         3874 
 1199000   0.78048397   -9.1283216    187.17103  0.013008829  0.012807583         3873 
 1200000   0.77966646   -9.0959145    187.32493  0.013008676  0.012792396         3899 
 1201000   0.77682806    -9.107969    187.53112  0.013012151  0.012777217         3869 
 1202000   0.75781791   -9.1174933    187.14476   0.01297454  0.012762068         3902 
 1203000   0.78596116   -9.0745394    187.61486  0.012996319  0.012746933         3886 
 1204000   0.76179286   -9.0995324    187.52217  0.012979109  0.012731828         3890 
 1205000   0.76096543   -9.0875211    187.56755  0.012971476  0.012716735         3876 
 1206000    0.7698753   -9.1069178    187.28443  0.012941157  0.012701674         3895 
 1207000   0.76711864   -9.1101472    187.52291  0.012946901  0.012686611         3892 
 1208000   0.76446379   -9.1268859    187.49153  0.012934018   0.01267158         3885 
 1209000   0.78973492   -9.1146879    187.50637  0.012924343  0.012656555         3910 
 1210000   0.77226362   -9.1140523    187.47421  0.012911447   0.01264156         3902 
 1211000   0.78107824   -9.0907839    187.37324  0.012893837   0.01262657         3859 
 1212000   0.78227116   -9.0949526     187.8919   0.01291886  0.012611601         3875 
 1213000   0.76002548   -9.1325189    187.27264  0.012865667  0.012596663         3887 
 1214000   0.76266924   -9.1048547    187.24451  0.012853138  0.012581745         3906 
 1215000   0.78147308   -9.1399476    187.36057  0.012850519  0.012566843         3898 
 1216000   0.75706246   -9.1260717     187.1729   0.01282709  0.012551964         3887 
 1217000   0.75957398   -9.1199642    187.08571   0.01281058  0.012537091         3877 
 1218000   0.77584502   -9.1238927     187.3265  0.012816537  0.012522242         3900 
 1219000   0.76355623   -9.1432787    187.37314  0.012809211  0.012507395         3893 
 1220000   0.75497904   -9.1086189    187.17557  0.012785216  0.012492575         3888 
 1221000   0.78359022   -9.1140879    187.18851  0.012775628  0.012477783         3905 
 1222000   0.76367674   -9.1024143    187.62519  0.012794953  0.012463003         3898 
 1223000   0.76350687   -9.1264889     187.4035  0.012769386  0.012448243         3906 
 1224000   0.75719357   -9.1312917    186.98257  0.012730295  0.012433514         3877 
 1225000   0.77609814   -9.1391369    187.25217  0.012738243  0.012418796         3897 
 1226000   0.77487523    -9.118934    187.46562  0.012742361  0.012404127         3898 
 1227000    0.7792823   -9.1504887    187.34945  0.012724087  0.012389478         3924 
 1228000   0.77082197    -9.127313    187.23904  0.012706232  0.012374825         3898 
 1229000   0.75520828   -9.1249286    187.25394  0.012696904  0.012360186         3908 
 1230000    0.7486861   -9.1257643    187.46136  0.012700634  0.012345573         3896 
 1231000   0.77165579   -9.1179402    186.91667  0.012653444   0.01233099         3886 
 1232000   0.77326837   -9.1254609    186.99542    0.0126485  0.012316434         3910 
 1233000   0.78312869   -9.1314782    186.97449  0.012636827  0.012301887         3868 
 1234000   0.78220114   -9.1326804    187.01626  0.012629407  0.012287364         3906 
 1235000    0.7714442   -9.1235592    187.30814  0.012638876  0.012272859         3905 
 1236000    0.7589453   -9.1057196    187.49932   0.01264154  0.012258383         3862 
 1237000   0.75461902    -9.140302    187.27058  0.012615911  0.012243899         3915 
 1238000   0.76665685   -9.1525476    187.03128  0.012589612  0.012229449         3882 
 1239000   0.74164241   -9.1556368    186.88788  0.012569806  0.012215019         3900 
 1240000   0.77776659   -9.1431953    187.20842  0.012581211  0.012200602         3905 
 1241000   0.75192169   -9.1216676    187.40018   0.01258395  0.012186193         3891 
 1242000   0.75968177   -9.1259057    186.82328   0.01253511  0.012171825         3898 
 1243000   0.76427663   -9.1564875     187.1333   0.01254581  0.012157458         3893 
 1244000    0.7575949     -9.12068    187.06279  0.012531001  0.012143117         3897 
 1245000   0.75597371   -9.1531963    187.02866  0.012518652  0.012128782         3890 
 1246000   0.74585459   -9.1171282    187.19471   0.01251971  0.012114493         3886 
 1247000   0.75874196   -9.1336115    187.00911  0.012497268  0.012100222         3910 
 1248000   0.76191388   -9.1554246    186.86909  0.012477904  0.012085969         3878 
 1249000   0.74504736   -9.1612528    187.03943  0.012479279  0.012071731         3910 
 1250000   0.74160747   -9.1408673    187.25771  0.012483848  0.012057506         3905 
 1251000   0.77427475   -9.1353337    187.35757   0.01248052  0.012043299         3909 
 1252000   0.74180341   -9.1481835    187.31816  0.012467929  0.012029119         3875 
 1253000   0.75583873   -9.1400356    186.90201  0.012430301  0.012014962         3904 
 1254000   0.75271927   -9.1267498    186.76863  0.012411525  0.012000812         3876 
 1255000   0.76260716   -9.1378122    187.14286  0.012426485  0.011986686         3890 
 1256000   0.76079091   -9.1376965     187.0838  0.012412673  0.011972581         3878 
 1257000   0.74729455   -9.1287484    187.32719  0.012418933  0.011958489         3900 
 1258000    0.7428743   -9.1197181     187.2119  0.012401424  0.011944423         3887 
 1259000   0.76356722   -9.1490799    187.33115  0.012399467  0.011930378         3910 
 1260000   0.74424377   -9.1657684    187.04533  0.012370723  0.011916369         3909 
 1261000   0.76254627    -9.122835    187.25601  0.012374836  0.011902367         3877 
 1262000   0.73862124   -9.1641672     187.1014   0.01235482  0.011888375         3920 
 1263000   0.76469027   -9.1406713    187.27653  0.012356593  0.011874424         3922 
 1264000    0.7505785   -9.1525866    186.82471   0.01231703  0.011860483         3895 
 1265000   0.74514216   -9.1457692    187.17143  0.012330134   0.01184656         3897 
 1266000   0.74380146   -9.1588962    186.77287   0.01229416  0.011832657         3895 
 1267000   0.75239663   -9.1725426    186.76962  0.012284242  0.011818756         3913 
 1268000   0.73806265   -9.1596012    187.01579  0.012290733  0.011804879         3889 
 1269000   0.75164606   -9.1520734    187.03752  0.012282474  0.011791005         3902 
 1270000   0.73997033   -9.1545303    186.76528  0.012254939  0.011777168         3905 
 1271000   0.76568176   -9.1668673    186.85527  0.012251198  0.011763357         3892 
 1272000    0.7479385    -9.154189     186.9108  0.012245204  0.011749553         3895 
 1273000   0.74553807   -9.1603865    186.75461  0.012225361  0.011735764         3912 
 1274000   0.75754458   -9.1599716    186.75426  0.012215741  0.011721993         3911 
 1275000    0.7388602   -9.1652118    187.27653  0.012240296  0.011708249         3897 
 1276000    0.7347591    -9.152805    187.13607   0.01222153  0.011694533         3889 
 1277000   0.73739181   -9.1580484    187.09583  0.012209334  0.011680831         3916 
 1278000    0.7588483   -9.1748478    187.00788  0.012194045  0.011667148         3895 
 1279000   0.75541565   -9.1577694    187.00018  0.012184009  0.011653471         3903 
 1280000   0.73597604   -9.1927106    186.81227  0.012162257  0.011639816         3895 
 1281000   0.74444005   -9.1595581    187.07215  0.012169669  0.011626188         3925 
 1282000   0.74975201   -9.1519404    186.95686  0.012152682   0.01161257         3889 
 1283000   0.75541815   -9.1700881    186.74163   0.01212923  0.011598973         3906 
 1284000   0.73147285   -9.1556836    186.80311  0.012123774  0.011585398         3888 
 1285000    0.7429909   -9.1514381    186.83892  0.012116661  0.011571854         3887 
 1286000   0.74957578   -9.1850088    186.59586  0.012091489  0.011558312         3909 
 1287000   0.73754385   -9.1750999    186.88608  0.012100886  0.011544818         3910 
 1288000   0.71807723   -9.1750458    186.99646  0.012098632  0.011531323         3906 
 1289000   0.72594965     -9.17935    186.88897  0.012082297  0.011517833         3917 
 1290000   0.74236897   -9.1700472    186.89687  0.012073441  0.011504374         3903 
 1291000    0.7322446   -9.1671223    186.92925  0.012066179  0.011490922         3896 
 1292000   0.74089288   -9.1633468    186.76363  0.012046157  0.011477497         3886 
 1293000   0.73771271   -9.1942272     186.5385  0.012022332  0.011464087         3904 
 1294000   0.72791106   -9.1785465    186.68787  0.012022661  0.011450701         3912 
 1295000   0.73406598   -9.1666801    186.84373  0.012023406  0.011437325         3884 
 1296000   0.74197804   -9.2007137     187.0537   0.01202763  0.011423982         3895 
 1297000   0.73616029   -9.1711075    186.83222  0.012004126  0.011410634         3894 
 1298000   0.73464038   -9.1841246    186.77064  0.011990924  0.011397322         3916 
 1299000   0.74940726   -9.1865041    186.51676  0.011965407  0.011384026         3896 
 1300000   0.72531756   -9.1822568     186.7882  0.011973603  0.011370768         3886 
 1301000   0.74485629   -9.1945162    186.61195   0.01195311   0.01135752         3885 
 1302000    0.7293065   -9.1886953    186.94058  0.011964963  0.011344289         3902 
 1303000   0.75336943   -9.1905499    187.01963  0.011960836  0.011331086         3898 
 1304000   0.73265712   -9.1902492    186.35694  0.011909314  0.011317884         3889 
 1305000   0.73681642   -9.2040265    186.37553  0.011901375  0.011304696         3893 
 1306000   0.73492621   -9.1800954    186.80487  0.011919657  0.011291539         3883 
 1307000   0.72429971   -9.1969743    186.86763  0.011914539  0.011278417         3885 
 1308000   0.72037758   -9.1983009    186.19228  0.011862403  0.011265286         3915 
 1309000   0.71911654   -9.1906502    186.80611  0.011892418   0.01125216         3885 
 1310000   0.73064769   -9.1849884    187.14249  0.011904738  0.011239071         3905 
 1311000    0.7383845    -9.190825    186.39532  0.011848164  0.011225997         3921 
 1312000   0.72741869   -9.1768339    186.79379  0.011864443  0.011212946         3913 
 1313000   0.72822563   -9.1885847    186.62797  0.011844883   0.01119991         3885 
 1314000   0.74422066   -9.2016127    186.52863  0.011829568  0.011186908         3893 
 1315000   0.73075607   -9.1985338    186.49277    0.0118183  0.011173923         3904 
 1316000   0.73071682    -9.173877    186.76317  0.011826442  0.011160944         3886 
 1317000   0.71272262   -9.1927981    186.76217  0.011817399  0.011147994         3908 
 1318000   0.73156155   -9.1712748    186.40317  0.011785734  0.011135071         3888 
 1319000   0.73477081   -9.1971675    186.49582  0.011782652  0.011122149         3928 
 1320000   0.72802327   -9.1878822    186.23425  0.011757213  0.011109234         3914 
 1321000   0.72751074   -9.1970635    186.44466  0.011761586  0.011096344         3903 
 1322000   0.73764193   -9.2247595    186.52689  0.011757873  0.011083487         3922 
 1323000   0.71579935   -9.1994894    186.62301   0.01175504  0.011070651         3890 
 1324000   0.72243195   -9.2070975    186.55515   0.01174189  0.011057838         3908 
 1325000   0.73178151   -9.1958245    186.84332  0.011751152  0.011045035         3909 
 1326000   0.72038712   -9.2083745    186.30316  0.011708343  0.011032237         3928 
 1327000   0.72049101   -9.1957156    186.40211  0.011705734  0.011019467         3915 
 1328000   0.73038053   -9.2004619    186.50217  0.011703199  0.011006699         3925 
 1329000   0.71590374   -9.1776978    186.63761  0.011702885  0.010993965         3914 
 1330000   0.72026708   -9.2135533    186.49915  0.011685411  0.010981236         3906 
 1331000   0.71498577   -9.2094076    186.68252  0.011688112  0.010968537         3904 
 1332000   0.72080746   -9.2070418    186.32401  0.011656908  0.010955865         3921 
 1333000   0.73077303   -9.2070497    186.36386  0.011650654  0.010943188         3919 
 1334000   0.71747564   -9.2162844    186.31439   0.01163883  0.010930537         3910 
 1335000   0.71776631   -9.2312467    186.51657  0.011642732   0.01091791         3911 
 1336000   0.73657873   -9.2131135    186.57221  0.011637488  0.010905298         3910 
 1337000   0.69982984   -9.2200622    186.28388  0.011610813  0.010892699         3925 
 1338000   0.73001952   -9.2009009    186.43459  0.011611522  0.010880111         3902 
 1339000   0.71788825   -9.2156035     186.1422  0.011584653  0.010867539         3887 
 1340000   0.71362621   -9.2077648    186.59978  0.011604464  0.010854996         3907 
 1341000   0.72402644   -9.2102715    186.54565  0.011592447  0.010842464         3895 
 1342000    0.7096899   -9.2308038    186.15613   0.01155962  0.010829961         3913 
 1343000   0.73150981   -9.2269006    186.62126  0.011579874  0.010817477         3904 
 1344000   0.71629066   -9.2292328    186.31403  0.011552209     0.010805         3904 
 1345000   0.70979611   -9.2361704    186.42085  0.011550238  0.010792547         3906 
 1346000   0.70897029   -9.2083928    186.24939  0.011531042  0.010780115         3926 
 1347000   0.71087861   -9.2066637    186.81898   0.01155772  0.010767707         3924 
 1348000   0.72740387   -9.2183829    186.24968  0.011513952  0.010755328         3909 
 1349000   0.71560679   -9.1942708    186.52685  0.011522538  0.010742946         3912 
 1350000   0.72156326   -9.2094101    186.40808  0.011506672   0.01073058         3910 
 1351000   0.69632505   -9.2229154    186.49945  0.011503791  0.010718234         3918 
 1352000   0.71193392   -9.2400739    186.34652  0.011485855  0.010705899         3893 
 1353000   0.71538478   -9.2177351    186.17409  0.011466746  0.010693576         3892 
 1354000   0.71683134   -9.2153219    186.36843  0.011470238  0.010681285         3915 
 1355000    0.6993841   -9.2133283      186.429  0.011465498  0.010669014         3897 
 1356000   0.69637616   -9.2109257    186.27238  0.011447418  0.010656764         3924 
 1357000   0.70203229   -9.2293557    186.65957  0.011462759  0.010644535         3909 
 1358000   0.71283499   -9.2279599    186.06888  0.011418071  0.010632302         3904 
 1359000   0.71378266   -9.2316433    186.07814  0.011410237   0.01062008         3903 
 1360000   0.72183493   -9.2103248    186.05352  0.011400339  0.010607884         3916 
 1361000   0.70517901   -9.2097417    186.28336  0.011406035  0.010595715         3901 
 1362000   0.70661506   -9.2175887    186.31983  0.011399892  0.010583543         3925 
 1363000   0.70169599   -9.2113046    186.40299  0.011396613  0.010571409         3903 
 1364000   0.69815829   -9.2349374    186.28221  0.011380878  0.010559282         3911 
 1365000   0.71279123   -9.2526362     185.8871  0.011348419  0.010547182         3911 
 1366000   0.71633176   -9.1984019    186.31627  0.011366292  0.010535103         3893 
 1367000    0.6888322    -9.237903    185.83597  0.011328699  0.010523042         3907 
 1368000   0.71345652    -9.221889    186.60277  0.011367128  0.010510989         3915 
 1369000   0.70565221   -9.2204235    186.53458  0.011354674  0.010498951         3908 
 1370000    0.6956447   -9.2311922    186.32956  0.011333915  0.010486943         3907 
 1371000   0.69416933   -9.2280758    186.27719  0.011322465  0.010474957         3909 
 1372000   0.71818253   -9.2501562    186.17439  0.011307968  0.010462993         3902 
 1373000   0.70604528   -9.2159433    186.17068  0.011299507  0.010451042         3915 
 1374000   0.71440697   -9.2409817    186.14887   0.01128996  0.010439109         3904 
 1375000    0.7224225   -9.2283765    186.15953  0.011282395  0.010427184         3904 
 1376000    0.7028657   -9.2253579    186.30483  0.011282996  0.010415266         3911 
 1377000   0.69827981   -9.2238992    186.19712  0.011268284  0.010403375         3918 
 1378000   0.70489903   -9.2177174     186.3799   0.01127116  0.010391508         3914 
 1379000   0.70518824    -9.248498    186.01927  0.011241194  0.010379647         3921 
 1380000   0.68205462    -9.228466    186.40399  0.011256279  0.010367811         3911 
 1381000   0.68860015   -9.2344774    185.87005   0.01121591  0.010355989         3918 
 1382000   0.69900303   -9.2340357    186.33894  0.011236067  0.010344175         3927 
 1383000   0.71322124    -9.223683    186.05549  0.011210863  0.010332379         3902 
 1384000   0.70315119   -9.2107395    186.27144  0.011215766  0.010320597         3905 
 1385000   0.70689412   -9.2310627    185.90405  0.011185563  0.010308852         3921 
 1386000   0.69864052   -9.2363796    186.04457  0.011185941  0.010297103         3908 
 1387000   0.69764577   -9.2439824    185.96469  0.011173077  0.010285377         3920 
 1388000   0.68915009    -9.245598    186.09079  0.011172598  0.010273677         3889 
 1389000   0.69858171   -9.2462365    186.24108  0.011173571  0.010261987         3900 
 1390000   0.68553142    -9.237207    186.00977  0.011151665  0.010250316         3907 
 1391000   0.69772201   -9.2549644    186.14655  0.011151842  0.010238659         3889 
 1392000   0.69507171   -9.2163949    185.97853  0.011133772  0.010227016         3881 
 1393000   0.68248601   -9.2370631    186.10685  0.011133456  0.010215405         3895 
 1394000   0.69488411   -9.2582282    186.02284  0.011120447   0.01020381         3881 
 1395000   0.70263673   -9.2385449    186.01686  0.011112118  0.010192229         3903 
 1396000   0.69731506   -9.2221439    186.13973  0.011111493  0.010180669         3893 
 1397000    0.6988994   -9.2518982     186.1837  0.011106162  0.010169119         3898 
 1398000   0.68886175   -9.2406054    186.05978  0.011090831  0.010157583         3896 
 1399000   0.69716014   -9.2408173    185.89528  0.011073105  0.010146067         3907 
 1400000   0.69346709   -9.2466796    186.06407  0.011075242  0.010134569         3928 
 1401000   0.70137796   -9.2396898    186.52259   0.01109461   0.01012309         3912 
 1402000    0.6907932    -9.262847    185.83492  0.011045823  0.010111619         3904 
 1403000   0.67800825   -9.2442647    186.12242  0.011055026   0.01010016         3934 
 1404000   0.68579581   -9.2369559    186.02323  0.011041265  0.010088725         3899 
 1405000   0.69392271   -9.2444934    186.44766   0.01105858  0.010077309         3912 
 1406000   0.70380089   -9.2395665    185.80472  0.011012608  0.010065906         3904 
 1407000   0.68745843     -9.25515    185.57791  0.010991348  0.010054513         3910 
 1408000   0.68508691   -9.2492749    185.76271  0.010994479  0.010043121         3902 
 1409000    0.6796417   -9.2311159      186.308  0.011018926  0.010031766         3918 
 1410000    0.6892817   -9.2671165    185.70546    0.0109755  0.010020429         3915 
 1411000     0.688799   -9.2469253    185.63815  0.010963746  0.010009099         3925 
 1412000    0.6847728   -9.2448474    185.57181  0.010952066 0.0099977999         3914 
 1413000   0.70425671   -9.2651126    185.91797   0.01096473 0.0099865119         3918 
 1414000   0.68545144   -9.2576028    185.74038   0.01094651  0.009975245         3914 
 1415000   0.69658199   -9.2233183    185.88636  0.010947371 0.0099639806         3909 
 1416000   0.68545183   -9.2626878    185.85956  0.010938062 0.0099527466         3914 
 1417000   0.69678264   -9.2575255    185.97159  0.010936932 0.0099415153         3935 
 1418000   0.69578774   -9.2690091    185.95887  0.010928471 0.0099302989         3915 
 1419000   0.68111465   -9.2635928    186.08575  0.010928221  0.009919103         3914 
 1420000   0.68269587   -9.2723052     185.9563  0.010912928 0.0099079243         3912 
 1421000    0.6763938   -9.2574321    185.81786   0.01089713 0.0098967543         3924 
 1422000   0.67464295   -9.2671654    186.33659  0.010919866 0.0098856126         3910 
 1423000   0.68573213   -9.2461978    186.19316  0.010903793 0.0098744976         3897 
 1424000   0.68445653   -9.2679401    186.00861  0.010885335 0.0098633758         3920 
 1425000   0.69434362   -9.2654033    186.03785  0.010879406 0.0098522792         3932 
 1426000   0.69647839    -9.259033    185.75697  0.010855363 0.0098411957         3914 
 1427000   0.69835181   -9.2795671     185.6844  0.010843518 0.0098301297         3917 
 1428000   0.69285639   -9.2775839    185.57096  0.010829304 0.0098190709         3916 
 1429000   0.68017383   -9.2650007    186.07912   0.01085136 0.0098080409         3917 
 1430000   0.69395788   -9.2770853    185.72474   0.01082312 0.0097970155         3931 
 1431000   0.68826025   -9.2598374     186.1884  0.010842557 0.0097860076         3902 
 1432000   0.69734283   -9.2861234    185.84962  0.010815271 0.0097750145         3915 
 1433000   0.67196053   -9.2437944    185.79375  0.010804475 0.0097640416         3914 
 1434000   0.67630594   -9.2752618    185.79577  0.010797058 0.0097530851         3926 
 1435000   0.68381727   -9.2738158    185.76095  0.010787512 0.0097421513         3893 
 1436000   0.68525371   -9.2731614    186.02232  0.010795167 0.0097312256         3907 
 1437000   0.67062512   -9.3049893    185.69775  0.010768832 0.0097203121         3910 
 1438000   0.66675493   -9.2605202    185.82396  0.010768658 0.0097094151         3909 
 1439000   0.66779356   -9.2570508    186.28005  0.010787587  0.009698541         3909 
 1440000   0.67866882    -9.273746    185.88443  0.010757201 0.0096876877         3904 
 1441000   0.68155451   -9.2798552    185.71291  0.010739817 0.0096768439         3915 
 1442000   0.66019505   -9.2849216    185.46469  0.010718024 0.0096660079         3910 
 1443000   0.68021367   -9.2780902    185.74597   0.01072684 0.0096551957         3901 
 1444000   0.68020073   -9.2612516    186.05957   0.01073751 0.0096444042         3913 
 1445000   0.67912984   -9.2546507    185.86473  0.010718842 0.0096336268         3877 
 1446000   0.66848479   -9.3079832    185.59462  0.010695863 0.0096228648         3915 
 1447000    0.6910694   -9.2953641    185.74588  0.010697183 0.0096121151         3901 
 1448000   0.68335062   -9.2798145    185.86824  0.010696837 0.0096013884         3927 
 1449000   0.67008024   -9.2802466    186.04516  0.010699629 0.0095906627         3917 
 1450000    0.6634707   -9.2690415     186.0647  0.010693373 0.0095799579         3903 
 1451000    0.6828118   -9.2694729    185.95332  0.010679607 0.0095692702         3911 
 1452000   0.67054902   -9.3069226    186.01304  0.010675679 0.0095586048         3914 
 1453000   0.68117407   -9.2751089    185.81194  0.010656799 0.0095479469         3901 
 1454000     0.666426    -9.308919    185.49214  0.010631141 0.0095372934         3918 
 1455000    0.6752792   -9.2648723    185.36681  0.010616656 0.0095266607         3899 
 1456000   0.68036917   -9.2537168    185.59075  0.010622181 0.0095160527         3904 
 1457000   0.65974569   -9.2796433    185.35066  0.010601159 0.0095054605         3888 
 1458000   0.66275836   -9.2736491    185.62867  0.010609778 0.0094948793         3922 
 1459000   0.67587614   -9.2660891    185.83251  0.010614148 0.0094843139         3903 
 1460000   0.67159311   -9.2937684    185.66087  0.010597082 0.0094737688         3906 
 1461000   0.65875639   -9.2780609    185.53331  0.010582552   0.00946323         3891 
 1462000   0.66766066   -9.2897294    185.95014  0.010599073 0.0094527083         3915 
 1463000   0.66031081    -9.309628    185.40518  0.010560787 0.0094422094         3891 
 1464000   0.67473641   -9.2861242    185.64311  0.010567117 0.0094317229         3935 
 1465000   0.68017954   -9.2766519    185.93393  0.010576446 0.0094212484         3919 
 1466000   0.66389437   -9.2879356    185.76705  0.010559746 0.0094107921         3916 
 1467000   0.65850327   -9.2915485    185.73378  0.010550658 0.0094003537         3908 
 1468000   0.66436061   -9.2934881    185.43895  0.010526734 0.0093899363         3899 
 1469000   0.67130137   -9.2750012    185.67982  0.010533232 0.0093795309         3946 
 1470000   0.65575364   -9.2998968    185.70099  0.010527267 0.0093691358         3912 
 1471000   0.65445331   -9.3030528    185.91399  0.010532177 0.0093587516         3911 
 1472000   0.65746881   -9.2935164    185.61846  0.010508291 0.0093483873         3912 
 1473000   0.66697221   -9.2833639    185.85906  0.010514769 0.0093380277         3926 
 1474000   0.67631739   -9.2861995    185.82183  0.010505531 0.0093276882         3918 
 1475000   0.66294543   -9.3311698    185.61211   0.01048656 0.0093173616         3916 
 1476000   0.66083769   -9.2871712    185.52857  0.010474739 0.0093070563         3930 
 1477000   0.67117836   -9.2901236    185.87708   0.01048731 0.0092967656         3923 
 1478000   0.65405421   -9.3165245    185.54928  0.010461732 0.0092864871         3930 
 1479000   0.66946758   -9.3000706    185.99675  0.010479871 0.0092762267         3900 
 1480000   0.65059629   -9.2939192    185.71163  0.010456736 0.0092659777         3928 
 1481000   0.63862521   -9.3124183    185.45923  0.010435473 0.0092557416         3921 
 1482000   0.65806786   -9.3071721    185.74612  0.010444564 0.0092455148         3912 
 1483000   0.66734134   -9.2983146    185.56604  0.010427402 0.0092353108         3918 
 1484000   0.66037966   -9.3017653    185.36404  0.010409032 0.0092251064         3905 
 1485000   0.66948856   -9.3327409    185.57168  0.010413674 0.0092149267         3914 
 1486000   0.65177645   -9.3035015    185.63772   0.01041037 0.0092047702         3916 
 1487000   0.64878295   -9.3218262    185.69266  0.010406448 0.0091946176         3904 
 1488000   0.65451053   -9.2821775    185.71544   0.01040073 0.0091844769         3886 
 1489000   0.65695873   -9.3025076    185.57441  0.010385853 0.0091743632         3915 
 1490000   0.66885671   -9.3000935    185.42119  0.010370313 0.0091642628         3913 
 1491000   0.66152599   -9.3093477    185.26867  0.010354833 0.0091541762         3924 
 1492000   0.67704269   -9.2972271    185.52473  0.010362194 0.0091441021         3924 
 1493000   0.66209497   -9.2942836    185.48093  0.010352809 0.0091340474         3906 
 1494000   0.65006952   -9.3145721    185.65287   0.01035547 0.0091240005         3915 
 1495000   0.64715429   -9.2769689    185.54998  0.010342808 0.0091139707         3929 
 1496000   0.63782072   -9.3092063    185.09144  0.010310352 0.0091039652         3905 
 1497000    0.6506409   -9.2862312    185.62157  0.010332975 0.0090939645         3905 
 1498000   0.64371595   -9.2952897     185.8039   0.01033622 0.0090839869         3914 
 1499000   0.65805917   -9.3371371    185.39208  0.010306431 0.0090740157         3919 
 1500000   0.65776101   -9.2990785    185.63496  0.010313053 0.0090640638         3930 
 1501000   0.64950718    -9.305459    185.88089  0.010319836 0.0090541243         3931 
 1502000   0.66709033   -9.3110779    185.37091  0.010284671 0.0090441947         3912 
 1503000   0.65308791   -9.3118161    185.53811  0.010287099  0.009034289         3928 
 1504000   0.64660527   -9.3408188    185.35397  0.010270056 0.0090243914         3921 
 1505000   0.66352819   -9.3143666    185.40966  0.010266315 0.0090145032         3910 
 1506000   0.64207959   -9.3240408    185.10412  0.010242592 0.0090046203         3927 
 1507000   0.65441297   -9.3158518    185.34509   0.01024912 0.0089947631         3906 
 1508000   0.65427761   -9.3106988     185.2893  0.010239241  0.008984926         3899 
 1509000    0.6514446   -9.3090054    185.33482  0.010234969 0.0089751047         3920 
 1510000   0.66317164   -9.3253649    185.19425  0.010220433 0.0089652958         3917 
 1511000   0.65635966   -9.3165396    185.44616  0.010227563 0.0089555046         3933 
 1512000   0.65856306   -9.3226612    185.55228  0.010226647 0.0089457266         3926 
 1513000   0.64350744   -9.3359033     185.3758  0.010210168 0.0089359526         3932 
 1514000   0.63560411   -9.3109941    185.68988  0.010220711 0.0089261932         3931 
 1515000   0.65260183   -9.3028726    185.52791  0.010205056 0.0089164546         3933 
 1516000    0.6447916    -9.313485    185.34672  0.010188364 0.0089067217         3923 
 1517000   0.65596659   -9.3150288      185.387  0.010183861 0.0088970005         3903 
 1518000   0.63993399   -9.3230865    185.48381  0.010182466 0.0088872917         3930 
 1519000   0.66620809   -9.3106179    185.93275  0.010200392 0.0088776047         3919 
 1520000    0.6405136   -9.3144734    185.57445  0.010174038 0.0088679257         3920 
 1521000   0.63897093   -9.3229244       185.28  0.010151216 0.0088582614         3932 
 1522000   0.63335667   -9.2960636    185.43362  0.010152958 0.0088486119         3932 
 1523000   0.63652326   -9.3237816    185.21832  0.010134511 0.0088389826         3904 
 1524000   0.62846892   -9.3363749     185.2108   0.01012745 0.0088293531         3915 
 1525000   0.65788584   -9.3292846    185.30224  0.010125805 0.0088197388         3911 
 1526000   0.64063995   -9.3231172    185.28888  0.010118441 0.0088101439         3879 
 1527000   0.64317812   -9.3392999    185.56782  0.010127037 0.0088005676         3925 
 1528000   0.63219093   -9.3148481    185.39886  0.010111194 0.0087909969         3924 
 1529000   0.63081046   -9.3303266    185.39011  0.010104104 0.0087814464         3919 
 1530000   0.63572952   -9.3409321    185.51702  0.010104413 0.0087719106         3911 
 1531000   0.65530212   -9.3475365    185.06286  0.010073093 0.0087623866         3912 
 1532000   0.64250231   -9.3227961    185.31106  0.010080018 0.0087528763         3922 
 1533000   0.65302179     -9.32325    185.14962  0.010064667 0.0087433657         3914 
 1534000    0.6497818    -9.326862    185.03027  0.010051623 0.0087338767         3913 
 1535000   0.62883014   -9.3169159    185.24291  0.010056618 0.0087243927         3922 
 1536000   0.63950645   -9.3209141    185.52573  0.010065415 0.0087149355         3915 
 1537000   0.63219304   -9.3256628    185.35547  0.010049635 0.0087054923         3921 
 1538000   0.63321655   -9.3464565    185.16294  0.010032669 0.0086960628         3935 
 1539000   0.64071487   -9.3383632    185.41118  0.010039592 0.0086866406         3907 
 1540000    0.6334962   -9.3133842    184.87754  0.010004196 0.0086772411         3917 
 1541000   0.65195695    -9.342871    185.18563  0.010014365 0.0086678525         3917 
 1542000   0.66074517   -9.3337438    185.39666  0.010019275  0.008658484         3934 
 1543000   0.63219948   -9.3440642    185.25662  0.010005218 0.0086491265         3922 
 1544000   0.62788045   -9.3243882    185.21862  0.009996687 0.0086397816         3913 
 1545000   0.64280307   -9.3475427    185.12319 0.0099850694 0.0086304464         3928 
 1546000    0.6488577   -9.3437981    185.25583 0.0099857607 0.0086211312         3924 
 1547000   0.63239793    -9.329345    185.29857 0.0099816077 0.0086118232         3908 
 1548000   0.64720919   -9.3266457    185.37222 0.0099791247  0.008602533         3909 
 1549000    0.6286436   -9.3080688    185.09587 0.0099578153 0.0085932414         3910 
 1550000   0.63679829   -9.3354672    185.37549 0.0099664242 0.0085839799         3920 
 1551000    0.6175399   -9.3391242    185.20297 0.0099507292 0.0085747345         3908 
 1552000   0.64100854   -9.3528073    185.11843 0.0099397783 0.0085654954         3915 
 1553000   0.63576883   -9.3378223    185.02365 0.0099282918 0.0085562766         3925 
 1554000    0.6391006    -9.309456    185.40336  0.009942265 0.0085470666         3935 
 1555000   0.63416961   -9.3553027    185.20591 0.0099252901 0.0085378711         3911 
 1556000   0.62837204   -9.3438455    185.05559 0.0099108605  0.008528683         3924 
 1557000   0.62419117   -9.3223199     185.2445 0.0099146059 0.0085195103         3912 
 1558000   0.62939717   -9.3282983    185.21351 0.0099065847 0.0085103482         3923 
 1559000   0.62556974   -9.3449828    185.42443 0.0099115048 0.0085011953         3909 
 1560000   0.62137224   -9.3619647     185.0348 0.0098843377 0.0084920608         3924 
 1561000    0.6137847   -9.3492838     185.1204 0.0098825753 0.0084829386         3936 
 1562000   0.63555986   -9.3558009    184.91413 0.0098652436 0.0084738264         3917 
 1563000   0.62400047   -9.3461797    185.32768 0.0098809809 0.0084647328         3913 
 1564000   0.64709127    -9.376621    184.88185 0.0098509086 0.0084556555         3923 
 1565000   0.61902229   -9.3575218    185.15535 0.0098591774 0.0084465813         3943 
 1566000   0.62697167   -9.3236059    185.40908 0.0098663836 0.0084375246         3914 
 1567000   0.62576397   -9.3496124    185.57962 0.0098691565 0.0084284788         3911 
 1568000     0.634925   -9.3635257    185.00563 0.0098323571 0.0084194393         3930 
 1569000   0.62952502   -9.3646422    184.85481   0.00981808 0.0084104161         3907 
 1570000   0.63355631   -9.3573359    185.18987 0.0098296108 0.0084013988         3936 
 1571000   0.60807627    -9.339579    184.99484 0.0098130088 0.0083923985         3919 
 1572000    0.6335012   -9.3531791    185.10606 0.0098126622 0.0083834199         3913 
 1573000   0.62153306   -9.3699877    185.33046 0.0098183119 0.0083744445         3936 
 1574000   0.62100688   -9.3802008    185.14059 0.0098020221  0.008365478         3927 
 1575000   0.61425001   -9.3427419    185.03307 0.0097901094 0.0083565209         3923 
 1576000    0.6249397   -9.3593267    184.94292 0.0097791306 0.0083475889         3919 
 1577000   0.61053262   -9.3446618     185.2162 0.0097873706 0.0083386631         3914 
 1578000   0.61909331    -9.367544    184.94096 0.0097666327 0.0083297509         3928 
 1579000   0.61561218   -9.3537953    184.81152  0.009753616 0.0083208592         3923 
 1580000   0.62047623   -9.3809458    184.94977 0.0097547346 0.0083119765         3921 
 1581000   0.63267868   -9.3670058    185.07685 0.0097552629 0.0083030944         3921 
 1582000   0.61044857   -9.3538769    185.12545 0.0097516565 0.0082942344         3917 
 1583000   0.61934197   -9.3477645    185.18585 0.0097486761 0.0082853865         3916 
 1584000   0.61714049   -9.3717425    184.96559 0.0097309336  0.008276547         3921 
 1585000   0.61942407   -9.3623941     185.0684 0.0097301997 0.0082677191         3917 
 1586000   0.61904595   -9.3642919      185.427 0.0097429065 0.0082589059         3917 
 1587000    0.6158253   -9.3599158    184.91363 0.0097098106 0.0082500947         3935 
 1588000   0.60563203   -9.3540523    185.12792 0.0097149411 0.0082413081         3929 
 1589000   0.61072037   -9.3625607    184.86344 0.0096949569 0.0082325347         3922 
 1590000    0.6067727   -9.3681164    184.83305 0.0096872669 0.0082237731         3935 
 1591000   0.61758161    -9.367418    184.87357 0.0096833005 0.0082150287         3919 
 1592000   0.61712525    -9.393201    184.94249 0.0096808256 0.0082062871         3927 
 1593000   0.61968517   -9.3656775    184.97329 0.0096763596 0.0081975572         3919 
 1594000   0.61609568   -9.3630785    185.42006  0.009693646 0.0081888346         3928 
 1595000   0.61765566   -9.3516026     185.1731 0.0096746654 0.0081801357         3945 
 1596000     0.627754   -9.3764935    184.97219 0.0096581136 0.0081714504         3897 
 1597000   0.61919359   -9.3572913    184.96543 0.0096517131 0.0081627729         3920 
 1598000   0.60838259   -9.3623428    184.90497 0.0096425203 0.0081541136         3923 
 1599000    0.6273225   -9.3635294    184.74087  0.009627938 0.0081454579         3915 
 1600000   0.62725924   -9.3573615    184.95053 0.0096328403 0.0081368205         3906 
 1601000    0.6006303   -9.3742598    184.68775 0.0096131457 0.0081281995         3917 
 1602000   0.61266315   -9.3892208    184.64625 0.0096049859 0.0081195866         3920 
 1603000   0.61232811   -9.3611025    184.70904 0.0096022583 0.0081109894         3939 
 1604000   0.61505442   -9.3726795    184.77487 0.0095996917 0.0081023964         3930 
 1605000   0.60972231   -9.3652363    185.30433 0.0096212008 0.0080938146         3933 
 1606000   0.59491653   -9.3723023    185.04931 0.0096019776   0.00808525         3920 
 1607000   0.60511974   -9.3633148    184.80801 0.0095834893 0.0080766926         3925 
 1608000   0.60372475   -9.3807814    184.95612  0.009585205 0.0080681456         3938 
 1609000   0.60963448   -9.3733693     184.8613 0.0095743373  0.008059617         3924 
 1610000   0.59414951   -9.3745363    185.05919 0.0095786332 0.0080511012         3921 
 1611000   0.61953571   -9.3745619    184.92135 0.0095655568 0.0080425931         3916 
 1612000   0.60013283   -9.3683813    184.74512  0.009550513 0.0080340983         3926 
 1613000   0.61698772   -9.3655788    184.80826 0.0095478539 0.0080256088         3911 
 1614000    0.6163381   -9.3762444    184.86342 0.0095447861 0.0080171355         3917 
 1615000   0.61501775   -9.3857975    185.01609  0.009546754 0.0080086718         3923 
 1616000   0.60709834   -9.3663881    184.90684 0.0095352125  0.008000232         3917 
 1617000    0.6157089   -9.3867684    184.97752 0.0095329581 0.0079917955         3930 
 1618000   0.61778724   -9.3865112    184.77798 0.0095167893 0.0079833687         3924 
 1619000    0.6064246   -9.3789247    184.90262 0.0095173263 0.0079749564         3918 
 1620000   0.61019752   -9.3839115    185.08683 0.0095209272 0.0079665575         3907 
 1621000    0.6144012   -9.3951136     184.6161 0.0094908543 0.0079581689         3935 
 1622000   0.61748559   -9.3751558    184.92701 0.0095009766    0.0079498         3935 
 1623000   0.60449568   -9.3828353    184.84268 0.0094907929 0.0079414329         3931 
 1624000   0.61273123    -9.376289    184.81683 0.0094836224 0.0079330766         3930 
 1625000   0.60152956   -9.4016847    184.52579 0.0094628609 0.0079247332         3927 
 1626000   0.59747189   -9.3968824    184.57358 0.0094594906 0.0079164081         3932 
 1627000   0.59340417   -9.3833624    185.03002 0.0094770551  0.007908085         3915 
 1628000   0.59995166   -9.4053829    184.68905   0.00945378 0.0078997786         3940 
 1629000   0.61088474   -9.4028876    184.71604 0.0094493576 0.0078914801         3918 
 1630000   0.59249302   -9.3772703    184.62415 0.0094388623 0.0078831915         3931 
 1631000   0.60734143   -9.3948688    184.51127 0.0094273077  0.007874917         3939 
 1632000   0.59849322   -9.4035956    184.71553 0.0094319611 0.0078666584         3929 
 1633000   0.60791265   -9.3860513    184.75214 0.0094280538 0.0078584047         3921 
 1634000   0.61183858   -9.3711731    184.72152 0.0094207221 0.0078501704         3917 
 1635000   0.59841704   -9.3977947    184.39206 0.0093981682 0.0078419445         3928 
 1636000   0.59126846    -9.378534    184.72674 0.0094094714 0.0078337296         3909 
 1637000   0.58594683   -9.4029634    184.84282 0.0094096325 0.0078255243         3935 
 1638000   0.58789933   -9.4038896    184.70425 0.0093968379 0.0078173312         3915 
 1639000   0.60097405   -9.3888263     184.7343 0.0093926329 0.0078091467         3925 
 1640000   0.58927493    -9.396248    184.79072 0.0093897722 0.0078009791         3942 
 1641000   0.58745052   -9.3955058    184.73625 0.0093812841 0.0077928187         3926 
 1642000   0.58512534   -9.3829371    185.02082 0.0093900131  0.007784675         3933 
 1643000   0.59316043   -9.3764285    184.59705 0.0093628045 0.0077765402         3934 
 1644000   0.60007242   -9.4099272    184.65389 0.0093599904 0.0077684163         3914 
 1645000   0.59084412   -9.3969365    184.62416 0.0093527943 0.0077603049         3945 
 1646000   0.58919788   -9.3937916    184.99861 0.0093660699 0.0077522123         3897 
 1647000   0.59868989   -9.3962962    184.30132 0.0093251022 0.0077441256         3911 
 1648000   0.60196213   -9.3816426     184.6855 0.0093388706 0.0077360445         3922 
 1649000   0.58964586   -9.4013767    184.83969 0.0093409993 0.0077279773         3921 
 1650000   0.60137948   -9.3779651    184.97375 0.0093421084 0.0077199218         3940 
 1651000   0.60021424   -9.4013282     184.6655 0.0093208916 0.0077118841         3905 
 1652000   0.58782891   -9.3943829    184.55216 0.0093095318 0.0077038522         3923 
 1653000   0.58447063   -9.3815515    184.65224 0.0093089453  0.007695828         3937 
 1654000   0.58923571   -9.3968872    184.90802 0.0093162041 0.0076878112         3921 
 1655000   0.58522229   -9.3912689    184.90726 0.0093105367 0.0076798071         3900 
 1656000   0.59246829   -9.3896153    184.74223 0.0092966098 0.0076718223         3919 
 1657000   0.58143482   -9.4007393    184.59888 0.0092837902 0.0076638499         3924 
 1658000   0.60594714   -9.4120809    184.66256 0.0092813913 0.0076558779         3916 
 1659000   0.58917661   -9.3921645    184.46316 0.0092657804 0.0076479256         3917 
 1660000   0.59441297   -9.3898024    184.52391 0.0092632483 0.0076399802         3923 
 1661000   0.59565103   -9.3930003     184.6683 0.0092649156 0.0076320495         3927 
 1662000   0.58158235   -9.4133349    184.34337 0.0092430491 0.0076241259         3909 
 1663000    0.5963007   -9.3944302    184.41425 0.0092410426 0.0076162128         3927 
 1664000   0.58988473   -9.3997195    184.68735 0.0092491659 0.0076083187         3921 
 1665000    0.5812235   -9.4195039    184.75903 0.0092471988 0.0076004306         3926 
 1666000    0.5923271   -9.3996157    184.58371 0.0092328789 0.0075925548         3922 
 1667000   0.58641637   -9.4230142    184.49011 0.0092226608 0.0075846829         3928 
 1668000   0.59696419   -9.4118567    184.76704 0.0092309671 0.0075768326         3921 
 1669000   0.59780897   -9.4413475    184.39002 0.0092066116 0.0075689855         3925 
 1670000   0.60220632   -9.4153515    184.58024 0.0092105907  0.007561154         3928 
 1671000   0.58032987   -9.4033009    184.66163 0.0092091376 0.0075533285         3926 
 1672000   0.58271196   -9.4188693    184.39606 0.0091903939 0.0075455206         3916 
 1673000   0.60037197   -9.4142289    184.58931 0.0091945261 0.0075377207         3898 
 1674000   0.59129963   -9.3942474    184.83533 0.0092012808 0.0075299358         3912 
 1675000   0.58226021   -9.4197196    184.26719 0.0091675219 0.0075221569         3930 
 1676000   0.58149087   -9.4122312    184.72408  0.009184769 0.0075143867         3934 
 1677000   0.58732409   -9.4236068    184.69675 0.0091779342 0.0075066236         3927 
 1678000   0.57209021   -9.4246789    184.50132 0.0091627591  0.007498875         3917 
 1679000   0.57637263   -9.4227491      184.531 0.0091587751 0.0074911383         3923 
 1680000   0.57404986     -9.41566    184.80195 0.0091667633 0.0074834138         3929 
 1681000   0.57697855   -9.4088293    184.35474 0.0091391404 0.0074756947         3911 
 1682000    0.5753601   -9.4175255    184.51579 0.0091416861  0.007467995         3921 
 1683000   0.57609028   -9.4172826    184.30348 0.0091257417 0.0074603047         3934 
 1684000   0.58523859   -9.4095705     184.2087 0.0091156324 0.0074526213         3927 
 1685000   0.57458587     -9.41735    184.69282 0.0091341652 0.0074449459         3918 
 1686000   0.58272934   -9.4208705    184.35439 0.0091120199 0.0074372886         3938 
 1687000   0.58568825   -9.4114391    184.57992 0.0091177595 0.0074296408         3930 
 1688000   0.57871762   -9.4205778    184.83709 0.0091250539 0.0074220019         3914 
 1689000    0.5743512   -9.4264915    184.38551 0.0090973709 0.0074143732         3921 
 1690000   0.57403001   -9.4434898    184.45248 0.0090952899 0.0074067474         3928 
 1691000   0.58557614   -9.4319124    184.45194 0.0090898848 0.0073991356         3916 
 1692000   0.58513195   -9.4196236    184.00048 0.0090622772  0.007391538         3922 
 1693000   0.58455328    -9.431805    184.36067 0.0090746541 0.0073839463         3939 
 1694000   0.57651706   -9.4282604    184.37159 0.0090698344 0.0073763626         3940 
 1695000   0.56956931   -9.4292599    184.18829 0.0090554714 0.0073687849         3925 
 1696000   0.57495516   -9.4263353    184.31675 0.0090564439 0.0073612251         3931 
 1697000   0.58064396   -9.4205534    184.35235 0.0090528554 0.0073536758         3936 
 1698000   0.57904695   -9.4277873    184.56527 0.0090579735 0.0073461356         3923 
 1699000   0.58205266   -9.4253426    184.31321 0.0090402793  0.007338599         3932 
 1700000   0.57213763   -9.4194104    184.37681 0.0090380791 0.0073310813         3933 
 1701000   0.58053148   -9.4470957    184.32284 0.0090301214  0.007323571         3916 
 1702000   0.57157668   -9.4443729    184.59407  0.009038096 0.0073160787         3922 
 1703000   0.58782106   -9.4319451    184.42796 0.0090246603 0.0073085965         3923 
 1704000   0.55821658   -9.4270728    184.60782   0.00902816  0.007301124         3912 
 1705000   0.57330256    -9.430671    184.34728 0.0090101311  0.007293655         3917 
 1706000   0.56081495     -9.43792    184.10057 0.0089927983 0.0072861991         3930 
 1707000   0.56833859   -9.4260577    184.36942 0.0090006553  0.007278749         3941 
 1708000   0.56804987   -9.4316067    184.59567 0.0090064242 0.0072713141         3924 
 1709000   0.59036827   -9.4621917    184.50816 0.0089968872 0.0072638891         3928 
 1710000    0.5811608   -9.4472172     184.1159 0.0089725097 0.0072564731         3925 
 1711000   0.56644314    -9.435759    184.11027 0.0089669915 0.0072490705         3917 
 1712000   0.57037996   -9.4291622    184.43011 0.0089773225 0.0072416818         3935 
 1713000   0.56454573    -9.428786    184.31507 0.0089664852 0.0072342951         3927 
 1714000   0.56802564   -9.4373407    184.49583 0.0089700425 0.0072269238         3907 
 1715000   0.57074556   -9.4337003    184.45297 0.0089627291 0.0072195544         3921 
 1716000   0.57705712   -9.4393698    184.43315  0.008956544 0.0072121982         3936 
 1717000   0.56826406   -9.4539877    184.33465  0.008946547 0.0072048524         3930 
 1718000   0.56405754   -9.4357201    184.44149 0.0089465216 0.0071975157         3932 
 1719000   0.57361354   -9.4145344    184.30412 0.0089346576 0.0071901954         3916 
 1720000   0.57004591    -9.445911    184.37616 0.0089329537 0.0071828845         3915 
 1721000   0.55845807   -9.4487418    184.05549 0.0089122358 0.0071755805         3925 
 1722000   0.56471539   -9.4498104    184.43833 0.0089255871 0.0071682888         3933 
 1723000   0.56124206   -9.4596973    184.44099 0.0089205353  0.007161003         3927 
 1724000   0.56182473   -9.4421307    184.34884 0.0089109068 0.0071537349         3919 
 1725000   0.56926312   -9.4571753    184.37163 0.0089068422 0.0071464775         3910 
 1726000   0.55866381   -9.4657093    184.26577 0.0088965705 0.0071392243         3929 
 1727000   0.56805928   -9.4486966    184.48697 0.0089020927 0.0071319829         3937 
 1728000   0.57083617   -9.4435769    184.03098 0.0088749509 0.0071247507         3923 
 1729000   0.55893161   -9.4516318    184.13976 0.0088750605 0.0071175244         3932 
 1730000   0.55668223   -9.4635701    184.36756 0.0088809037 0.0071103072         3926 
 1731000   0.56633448   -9.4546676    184.20495  0.008867945 0.0071031033         3926 
 1732000   0.55595355   -9.4474164    184.38418 0.0088714482 0.0070959062         3938 
 1733000   0.56105693   -9.4407077    184.20609 0.0088577652 0.0070887181         3923 
 1734000   0.55868742   -9.4491786     184.3744  0.008860746  0.007081536         3915 
 1735000   0.55942405   -9.4471457    184.09417 0.0088421791 0.0070743647         3911 
 1736000   0.55972754   -9.4711595    184.18281 0.0088413409 0.0070672043         3924 
 1737000   0.55224066     -9.47464    184.28659 0.0088412298 0.0070600586         3930 
 1738000   0.55543379   -9.4477607    184.06554 0.0088255436 0.0070529225         3924 
 1739000   0.55874731   -9.4699971    184.30195 0.0088317976 0.0070457974         3921 
 1740000   0.55654425   -9.4578383    184.08577 0.0088163684 0.0070386809         3926 
 1741000   0.56085865   -9.4439395    184.31765 0.0088224032 0.0070315698         3908 
 1742000   0.56007026   -9.4605026    184.32799 0.0088178336 0.0070244678         3925 
 1743000    0.5564652   -9.4520956    184.19365 0.0088063515 0.0070173754         3928 
 1744000   0.55358591   -9.4872047    184.05589 0.0087947197 0.0070102951         3940 
 1745000   0.55372782   -9.4565949    183.79567 0.0087772527 0.0070032254         3918 
 1746000   0.55518809   -9.4604211    184.27626 0.0087951633 0.0069961696         3935 
 1747000   0.55086431   -9.4764133     184.2095 0.0087869445 0.0069891171         3916 
 1748000   0.54731239   -9.4748438    184.12787 0.0087780257 0.0069820791         3920 
 1749000   0.55380521      -9.4721    183.82889 0.0087587619 0.0069750431         3924 
 1750000   0.56340696    -9.463481    183.83869 0.0087542235 0.0069680221         3933 
 1751000   0.55450008    -9.470417    183.92779 0.0087534641 0.0069610122         3932 
 1752000   0.55815845   -9.4572659    184.27477 0.0087649721 0.0069540089         3935 
 1753000   0.55439257   -9.4730705     183.9751 0.0087457266 0.0069470145         3928 
 1754000    0.5646235   -9.4679301    183.94343 0.0087392355 0.0069400332         3927 
 1755000    0.5608833   -9.4539038    184.01543  0.008737675 0.0069330599         3931 
 1756000   0.54774331   -9.4500551    183.97079 0.0087305803 0.0069261003         3932 
 1757000   0.55219205   -9.4398162    184.16028 0.0087345986 0.0069191431         3916 
 1758000   0.55111189   -9.4656321    184.03781 0.0087238249 0.0069122005         3925 
 1759000   0.55858988   -9.4716923    184.00012 0.0087170797 0.0069052599         3926 
 1760000   0.55454555   -9.4763845    184.13974 0.0087187378  0.006898336         3932 
 1761000   0.55022355   -9.4671445    184.15892 0.0087146944 0.0068914218         3924 
 1762000   0.54925464   -9.4614711    184.21349 0.0087123292 0.0068845094         3927 
 1763000   0.55263613   -9.4662214    184.11626 0.0087027917 0.0068776107         3938 
 1764000   0.54774925   -9.4582489    184.01396 0.0086930254 0.0068707211         3933 
 1765000   0.54511461   -9.4873812    183.91881 0.0086836078 0.0068638442         3941 
 1766000   0.54917645    -9.479806    184.16821  0.008690459 0.0068569763         3931 
 1767000   0.55193495   -9.4700655     184.1072 0.0086826637 0.0068501207         3923 
 1768000   0.54824316   -9.4778789    184.11306 0.0086780291  0.006843275         3919 
 1769000   0.54183749   -9.4824725    183.82748 0.0086596704 0.0068364345         3952 
 1770000   0.54536418   -9.4678545    183.92608   0.00865942  0.006829602         3948 
 1771000   0.53838653   -9.4679546    184.13853 0.0086645273 0.0068227825         3931 
 1772000   0.53206409   -9.4735164    184.14661 0.0086600175 0.0068159736         3932 
 1773000   0.55512366   -9.4620744    184.10727 0.0086532838 0.0068091771         3931 
 1774000    0.5549634   -9.4834419    184.28719 0.0086568577 0.0068023851         3934 
 1775000    0.5435552    -9.475526    183.92041 0.0086347609 0.0067956021         3939 
 1776000   0.54011397   -9.4697123    183.93533  0.008630599 0.0067888255         3939 
 1777000   0.55199726    -9.461805    184.17052 0.0086367718 0.0067820659         3922 
 1778000   0.54120009   -9.4660005    183.74526 0.0086119826 0.0067753144         3939 
 1779000   0.53644792   -9.4912113    184.16764 0.0086269273 0.0067685656         3933 
 1780000   0.54664897   -9.4897676    183.81154  0.008605409  0.006761831         3935 
 1781000    0.5366918   -9.4845616    184.09305 0.0086137495 0.0067551101         3927 
 1782000   0.53683136   -9.4569989    184.04035 0.0086064509 0.0067483939         3927 
 1783000   0.55048131   -9.4787492    183.86986 0.0085936557 0.0067416845         3935 
 1784000   0.54393892   -9.5057903    183.82639 0.0085868083 0.0067349823         3944 
 1785000     0.539008   -9.4636171    183.66061  0.008574258 0.0067282887         3909 
 1786000   0.54029691   -9.4784556    184.13466 0.0085915763  0.006721609         3932 
 1787000   0.53308078   -9.4608199    184.04187 0.0085824415 0.0067149381         3931 
 1788000   0.53962741   -9.4796056    183.71111 0.0085622253 0.0067082697         3939 
 1789000   0.54254501   -9.4917155    183.78486 0.0085608749 0.0067016154         3927 
 1790000   0.52928371   -9.4750819    183.98725 0.0085655146 0.0066949722         3940 
 1791000   0.53872759   -9.4933125    183.77372 0.0085507968 0.0066883339         3937 
 1792000   0.54356812   -9.4859643    183.90477 0.0085521189 0.0066817019         3944 
 1793000   0.53334475   -9.4858901    184.01202  0.008552334 0.0066750826         3924 
 1794000   0.53946709   -9.4938665    184.04322 0.0085490161 0.0066684731         3928 
 1795000   0.53815723   -9.4844918     183.9316 0.0085390714 0.0066618713         3948 
 1796000   0.54198255   -9.4793513    184.01289  0.008538089 0.0066552759         3947 
 1797000   0.54382681    -9.480307    184.00933 0.0085331722 0.0066486927         3936 
 1798000   0.54032279   -9.4903486    183.83249 0.0085202303  0.006642114         3940 
 1799000   0.51546212   -9.4870229    184.16839 0.0085310537 0.0066355471         3930 
 1800000   0.53279329   -9.5096941    183.89433 0.0085136265 0.0066289889         3925 
 1801000   0.53156854   -9.4808449    183.84577 0.0085066523  0.006622434         3933 
 1802000   0.53744945   -9.4942919    183.83459 0.0085014148 0.0066158882         3941 
 1803000   0.52494472   -9.4896845    183.91274 0.0085003117 0.0066093568         3939 
 1804000   0.52829424   -9.4947302    183.84873 0.0084926429 0.0066028401         3939 
 1805000   0.54603691    -9.481466    183.88252 0.0084894977 0.0065963256         3937 
 1806000   0.53631948   -9.5030621    183.55711 0.0084697816 0.0065898166         3918 
 1807000   0.52492376   -9.4832588    183.87188  0.008479611 0.0065833182         3937 
 1808000   0.52422621   -9.5048427    183.68964 0.0084665212 0.0065768279         3933 
 1809000   0.52573996     -9.49141    183.78564  0.008466263 0.0065703485         3939 
 1810000   0.52913756   -9.4927093    183.72226 0.0084586676 0.0065638756         3927 
 1811000   0.52938978   -9.4961601    183.72424 0.0084540878 0.0065574135         3945 
 1812000    0.5430835   -9.4842417    184.11207 0.0084672585 0.0065509602         3929 
 1813000   0.53273387   -9.4912867    183.84668 0.0084503898  0.006544516         3950 
 1814000   0.52791189   -9.4851813    183.47698 0.0084287477 0.0065380756         3924 
 1815000   0.53460468   -9.4964912    183.69774 0.0084342398 0.0065316429         3936 
 1816000   0.52902062   -9.5205662    183.72227 0.0084307211  0.006525218         3934 
 1817000   0.51652574   -9.4990271    183.73917 0.0084268561  0.006518803         3939 
 1818000   0.53032847   -9.5078535    183.89424  0.008429329 0.0065124009         3931 
 1819000   0.53042865   -9.5138105    183.67199 0.0084145129 0.0065060034         3947 
 1820000    0.5257725   -9.5030892    183.67298 0.0084099352 0.0064996176         3937 
 1821000    0.5269846   -9.5023952    183.47079 0.0083960641 0.0064932401         3919 
 1822000   0.53540837   -9.4914108    184.08396 0.0084195005 0.0064868771         3929 
 1823000   0.52143072   -9.5001324     183.9281 0.0084077573 0.0064805184         3934 
 1824000   0.52004513   -9.4907675    183.62018 0.0083890798 0.0064741664         3943 
 1825000    0.5240158   -9.4969083    183.92857 0.0083985649 0.0064678241         3931 
 1826000   0.52343134    -9.510301     183.8344 0.0083896675 0.0064614873         3943 
 1827000   0.52266793    -9.522829    183.71737 0.0083797379 0.0064551606         3923 
 1828000   0.52227516   -9.5133756    183.56701 0.0083682991 0.0064488398         3931 
 1829000   0.51863081   -9.5186956    183.70338 0.0083699369 0.0064425303         3930 
 1830000   0.52268308    -9.499928     183.9285 0.0083756148 0.0064362248         3938 
 1831000   0.52007994   -9.5052002    183.59793 0.0083559952   0.00642993         3921 
 1832000   0.52432028   -9.5147647    183.82287 0.0083616662 0.0064236404         3921 
 1833000   0.52404066   -9.4948064    183.77394 0.0083548802  0.006417357         3941 
 1834000   0.51697167   -9.4909917    183.80513 0.0083517416  0.006411087         3939 
 1835000   0.50795627   -9.5128918     183.6213 0.0083388422 0.0064048239         3938 
 1836000   0.52407611   -9.5181159    183.70463 0.0083380826  0.006398566         3925 
 1837000   0.52136452   -9.5198714    183.81895 0.0083387293 0.0063923191         3934 
 1838000   0.50836439   -9.5087985    183.77548 0.0083322215 0.0063860788         3917 
 1839000   0.52356204   -9.5073265    183.90653 0.0083336292 0.0063798479         3943 
 1840000   0.52284423   -9.5221392    183.82283 0.0083253095 0.0063736276         3925 
 1841000   0.51293978   -9.5103269    183.51025  0.008306638 0.0063674159         3943 
 1842000   0.51602249    -9.519107    183.50285 0.0083017939 0.0063612125         3930 
 1843000   0.51201132   -9.5034437    183.69601 0.0083060235 0.0063550169         3929 
 1844000   0.51963177   -9.5186755    183.48843 0.0082921381 0.0063488232         3943 
 1845000   0.51539854   -9.5207467    183.91723 0.0083070114 0.0063426471         3928 
 1846000   0.52346825   -9.5312746    183.40017   0.00827917 0.0063364729         3936 
 1847000   0.51929994    -9.509686     183.8641 0.0082956189 0.0063303096         3931 
 1848000   0.51329748   -9.5107015    183.76685 0.0082867446 0.0063241531         3933 
 1849000   0.51686181   -9.5204928    183.46572 0.0082686913  0.006318005         3930 
 1850000   0.52616167   -9.5136631    183.50522 0.0082660009 0.0063118649         3936 
 1851000   0.50397749   -9.5260157    183.61253 0.0082663662 0.0063057316         3918 
 1852000   0.51687451   -9.5231109    183.79508  0.008270117 0.0062996089         3928 
 1853000   0.51228095   -9.5098895    183.87263 0.0082691417 0.0062934926         3930 
 1854000   0.51278531   -9.5131281    183.40882 0.0082438341 0.0062873818         3948 
 1855000    0.5081978   -9.5416032    183.52155  0.008244454 0.0062812787         3936 
 1856000   0.50694974   -9.5310813    183.32304 0.0082310991 0.0062751862         3932 
 1857000   0.51777593   -9.5289094    183.75137 0.0082458882 0.0062691001         3939 
 1858000   0.49990776   -9.5152125    183.72167  0.008240118 0.0062630221         3936 
 1859000   0.50630298   -9.5163649    183.46959 0.0082243856 0.0062569548         3931 
 1860000   0.50096876   -9.5269554     183.3045 0.0082125673 0.0062508928         3929 
 1861000   0.51467919   -9.5247209    183.68476 0.0082251818 0.0062448399         3936 
 1862000   0.51607198   -9.5135678     183.7276 0.0082226818 0.0062387943         3937 
 1863000   0.51975156   -9.5320771    183.42717 0.0082048296  0.006232755         3936 
 1864000    0.5080757   -9.5337565       183.68 0.0082117311 0.0062267224         3922 
 1865000   0.49920125   -9.5258217    183.33628 0.0081919697  0.006220698         3921 
 1866000   0.51195968   -9.5285013    183.51047 0.0081953584 0.0062146773         3928 
 1867000   0.51575701   -9.5391926    183.63573 0.0081965601 0.0062086731         3919 
 1868000   0.50179602   -9.5404685    183.27155 0.0081759259 0.0062026754         3921 
 1869000   0.50531754   -9.5306162    183.35338 0.0081751996  0.006196684         3931 
 1870000   0.51301834   -9.5195245    183.64081 0.0081836367 0.0061906998         3924 
 1871000     0.502195   -9.5322277    183.66979 0.0081805536 0.0061847271         3934 
 1872000   0.49870167   -9.5135151    183.56276  0.008171419 0.0061787573         3948 
 1873000   0.50359946    -9.523754     183.4361 0.0081614209 0.0061727954         3921 
 1874000   0.50532883   -9.5300336    183.58842 0.0081638396  0.006166839         3938 
 1875000   0.50379246   -9.5370739    183.61898 0.0081608437 0.0061608959         3934 
 1876000   0.49643612   -9.5172182    183.40014 0.0081467724 0.0061549575         3921 
 1877000   0.49265763   -9.5358553     183.6034  0.008151456 0.0061490304         3941 
 1878000   0.49902462    -9.528901    183.40465 0.0081382963 0.0061431065         3935 
 1879000    0.5046114   -9.5228157    183.60737 0.0081429558 0.0061371953         3934 
 1880000   0.50504867   -9.5207409    183.42298 0.0081304514 0.0061312914         3928 
 1881000   0.51294576   -9.5523844    183.58722 0.0081334053 0.0061253968         3935 
 1882000   0.50172628   -9.5565389    183.54133 0.0081270516  0.006119507         3921 
 1883000   0.49982677   -9.5345079    183.55936 0.0081235335 0.0061136218         3930 
 1884000   0.50702538    -9.528186    183.53984 0.0081183583 0.0061077496         3928 
 1885000   0.50811603   -9.5478929    183.63204 0.0081181274  0.006101882         3951 
 1886000   0.50114541   -9.5391681    183.40015 0.0081035767 0.0060960195         3942 
 1887000   0.48911767   -9.5284852    183.41457  0.008099919 0.0060901653         3935 
 1888000   0.49899174      -9.5445    183.51162 0.0080999124 0.0060843236         3932 
 1889000   0.50394955    -9.534519     183.5472 0.0080971942 0.0060784864         3944 
 1890000   0.50666311   -9.5380686    183.19571 0.0080774121 0.0060726584         3936 
 1891000   0.49894548    -9.548013    183.24603 0.0080753581 0.0060668382         3936 
 1892000   0.50749284   -9.5539745    183.47365 0.0080811156 0.0060610272         3942 
 1893000   0.49368575   -9.5578505     183.5744 0.0080812819 0.0060552203         3941 
 1894000   0.49892044   -9.5431248    183.44534 0.0080713365 0.0060494247         3934 
 1895000   0.50757336   -9.5390721    183.33477 0.0080622149 0.0060436317         3950 
 1896000   0.49749883   -9.5421603    183.35504 0.0080588536 0.0060378446         3936 
 1897000   0.49872063   -9.5287165    183.36399 0.0080549988 0.0060320672         3935 
 1898000   0.49616046    -9.532894    183.42905 0.0080536112 0.0060262994         3933 
 1899000   0.49715738   -9.5461238    183.61709 0.0080576219 0.0060205366         3939 
 1900000   0.49931037   -9.5383525    183.23785 0.0080367479 0.0060147846         3931 
 1901000   0.49383351   -9.5336247    183.15304 0.0080288023 0.0060090374         3931 
 1902000   0.49316778   -9.5589733    183.14442 0.0080242037  0.006003298         3933 
 1903000   0.49687613   -9.5422856    183.29205 0.0080264516 0.0059975691         3954 
 1904000   0.49552625    -9.534677    183.44482 0.0080289222 0.0059918427         3947 
 1905000   0.49517313   -9.5503831    183.19546 0.0080137997 0.0059861255         3936 
 1906000   0.50399959   -9.5451546     183.5866 0.0080266964 0.0059804191         3931 
 1907000   0.49412701    -9.542831    183.53044 0.0080200332  0.005974723         3934 
 1908000   0.49384647   -9.5480938    183.27499  0.008004673 0.0059690296         3941 
 1909000   0.50100313   -9.5486724    183.33852  0.008003253 0.0059633437         3951 
 1910000   0.48698403   -9.5617504    183.45832 0.0080042897 0.0059576681         3942 
 1911000   0.49110877   -9.5449408    182.96732   0.00797869 0.0059519974         3932 
 1912000   0.49024047   -9.5664221    182.88185 0.0079707917 0.0059463319         3947 
 1913000   0.48754711   -9.5647502    183.23772 0.0079821277 0.0059406784         3949 
 1914000   0.49079318   -9.5497906    183.28816 0.0079801534 0.0059350264         3932 
 1915000   0.49232977   -9.5576125    183.37264 0.0079796624  0.005929385         3957 
 1916000   0.49063692   -9.5739781    182.98675  0.007958714 0.0059237492         3935 
 1917000   0.48962475   -9.5647468    183.20091 0.0079638721 0.0059181223         3935 
 1918000   0.49573347   -9.5531933     183.2064 0.0079599584 0.0059125013         3940 
 1919000   0.49026609   -9.5605927    183.25515 0.0079579273 0.0059068838         3946 
 1920000   0.50169663   -9.5665261    183.47156 0.0079631754 0.0059012796         3940 
 1921000   0.48851725   -9.5632401    183.41688 0.0079566579 0.0058956816         3933 
 1922000   0.49135514   -9.5410155    183.29069  0.007947047 0.0058900909         3940 
 1923000   0.48636917   -9.5675756    183.38189 0.0079468664 0.0058845022         3926 
 1924000   0.48815453   -9.5616426    183.35568 0.0079416008 0.0058789246         3935 
 1925000   0.47696594   -9.5587607    183.17401  0.007929611 0.0058733593         3945 
 1926000   0.48444782   -9.5747348    183.29394 0.0079306829 0.0058677964         3933 
 1927000   0.49164939   -9.5675952    183.16001 0.0079207753 0.0058622361         3930 
 1928000   0.48833786   -9.5472601    183.21133 0.0079188854  0.005856688         3945 
 1929000   0.49548552   -9.5530886    183.00299 0.0079057799 0.0058511444         3946 
 1930000   0.48013794   -9.5592075    183.01728 0.0079023007 0.0058456091         3948 
 1931000   0.47038229   -9.5750824    182.95143 0.0078953665 0.0058400802         3939 
 1932000   0.47472729   -9.5629247    182.92795 0.0078902668 0.0058345508         3940 
 1933000   0.48034833   -9.5687963    183.07166 0.0078923805 0.0058290349         3943 
 1934000   0.48042744   -9.5569392    183.17976 0.0078929576 0.0058235228         3932 
 1935000   0.48668273    -9.584309    183.22829 0.0078909685 0.0058180212         3937 
 1936000   0.48978689   -9.5946274    182.99204 0.0078767234 0.0058125254         3942 
 1937000    0.4734967   -9.5681887    183.08379 0.0078766045 0.0058070369         3939 
 1938000   0.49322596   -9.5791034     183.0541 0.0078712631 0.0058015541         3944 
 1939000   0.48539742   -9.5706566    183.04806 0.0078669444 0.0057960734         3955 
 1940000   0.47275955   -9.5548797    183.07456 0.0078640276 0.0057906019         3936 
 1941000   0.48076195   -9.5657488    183.12958 0.0078623383 0.0057851354         3945 
 1942000   0.48202537   -9.5697405    183.03493  0.007854228 0.0057796791         3947 
 1943000    0.4701198     -9.56836    182.98035 0.0078478447 0.0057742317         3930 
 1944000   0.48150047   -9.5678724    183.13367 0.0078503802 0.0057687903         3926 
 1945000   0.48607099   -9.5744624    183.32553 0.0078545643 0.0057633599         3934 
 1946000   0.48103616   -9.5752831    182.97175 0.0078353779 0.0057579288         3944 
 1947000   0.47467717   -9.5811871    183.14203 0.0078386421 0.0057525105         3925 
 1948000   0.47403683   -9.5831923    183.30302 0.0078415051 0.0057471004         3953 
 1949000   0.48393125   -9.5682663    182.86189 0.0078186203 0.0057416882         3950 
 1950000   0.47673918   -9.5711995    182.90871 0.0078166116 0.0057362904         3947 
 1951000   0.46966761   -9.5831777    183.14741 0.0078228007 0.0057308996         3941 
 1952000   0.46628098   -9.5632591    182.81023 0.0078043986 0.0057255152         3947 
 1953000   0.46840772   -9.5872102     182.8906 0.0078038318 0.0057201375         3945 
 1954000   0.47013359   -9.5829373    183.22086 0.0078139225 0.0057147647         3947 
 1955000   0.46798356   -9.5635862    182.98914 0.0078000485 0.0057094021         3938 
 1956000   0.47646243   -9.5656975    183.06592 0.0077993318 0.0057040458         3936 
 1957000   0.47265347   -9.5615447    182.91794 0.0077890451  0.005698695         3928 
 1958000   0.47522861   -9.5920117    183.09534 0.0077926173 0.0056933511         3943 
 1959000   0.46544566   -9.5859114    183.02841 0.0077857926 0.0056880131         3937 
 1960000   0.47791754   -9.5914338    182.93272 0.0077777519 0.0056826829         3932 
 1961000   0.46152822   -9.5883309    183.24606  0.007787101 0.0056773597         3943 
 1962000   0.47889338   -9.5957562    182.86643 0.0077670077 0.0056720438         3941 
 1963000   0.47265439   -9.5867651     182.9829 0.0077679953  0.005666735         3936 
 1964000   0.47220159   -9.5814484    183.04734 0.0077667745 0.0056614308         3935 
 1965000   0.47618437   -9.5817888     183.2859 0.0077729387 0.0056561329         3949 
 1966000   0.46779993   -9.5913744    182.52424 0.0077367004 0.0056508421         3935 
 1967000   0.47538571   -9.5832137    182.86079 0.0077470255 0.0056455548         3947 
 1968000    0.4602583   -9.5854751    183.06186 0.0077516033 0.0056402743         3947 
 1969000   0.46570659   -9.5963632    182.93001 0.0077420859 0.0056350043         3932 
 1970000   0.46584044   -9.5896155    182.97242 0.0077399501 0.0056297401         3936 
 1971000   0.46317459    -9.583137    182.73487 0.0077259798 0.0056244817         3952 
 1972000   0.46745723   -9.5812018     182.8124 0.0077253379  0.005619232         3948 
 1973000   0.45224348   -9.5955115    183.13174 0.0077349105  0.005613987         3943 
 1974000   0.46419427   -9.5877911    182.93518 0.0077226942 0.0056087506         3948 
 1975000   0.45864348   -9.5985013    182.76701  0.007711688  0.005603517         3943 
 1976000   0.46483165   -9.5965046    182.89398 0.0077131402 0.0055982911         3934 
 1977000     0.476107   -9.5965067    182.99727 0.0077135926 0.0055930747         3934 
 1978000   0.46056454   -9.5771942    182.87416 0.0077045062 0.0055878642         3934 
 1979000    0.4628086   -9.6023501    183.00019 0.0077059199 0.0055826603         3941 
 1980000   0.46603647   -9.5989355    182.93359 0.0076992251 0.0055774593         3962 
 1981000   0.46623855   -9.5880822    182.93318 0.0076953216 0.0055722656         3931 
 1982000   0.45553353   -9.5988343    182.96019 0.0076925742   0.00556708         3947 
 1983000   0.46941548   -9.5954181    182.81784 0.0076827131  0.005561901         3945 
 1984000   0.45770167   -9.6034241    182.73877 0.0076755197 0.0055567271         3940 
 1985000    0.4620524   -9.6013831    182.90925 0.0076788099 0.0055515611         3948 
 1986000   0.45681943   -9.5951915    183.05205 0.0076809351 0.0055464004         3945 
 1987000   0.47201896   -9.6008326    182.68906 0.0076618461 0.0055412456         3947 
 1988000   0.45114965   -9.5958311     182.9728 0.0076698859 0.0055361002         3951 
 1989000   0.45730581    -9.605471    182.82699 0.0076599209 0.0055309572         3936 
 1990000   0.44540509   -9.5982207    183.15832 0.0076699465 0.0055258225         3939 
 1991000    0.4616157    -9.589438    182.74265 0.0076486964 0.0055206947         3937 
 1992000   0.46863201   -9.5947007    182.88387 0.0076507643 0.0055155794         3940 
 1993000   0.46169457   -9.5930722    182.62253 0.0076359979 0.0055104643         3920 
 1994000   0.46451767   -9.6173963    183.12352 0.0076531059 0.0055053547         3954 
 1995000   0.45901865   -9.5913755    182.75363 0.0076338193 0.0055002526         3953 
 1996000   0.45134564   -9.5964139    182.97951 0.0076394252 0.0054951587         3925 
 1997000   0.45343451    -9.613569    182.78332 0.0076274127 0.0054900722         3937 
 1998000    0.4568896   -9.6143906     182.7019 0.0076201992 0.0054849924         3948 
 1999000   0.44617112   -9.6117425    182.95724 0.0076270317 0.0054799191         3943 
 2000000   0.44621562     -9.58975    182.68921 0.0076120502 0.0054748483         3949 
 2001000   0.45022789   -9.6027774    182.72398 0.0076096942 0.0054697869         3920 
 2002000   0.45060462   -9.6217498    183.07727  0.007620599 0.0054647281         3933 
 2003000   0.47108123    -9.609979    183.05855 0.0076160155 0.0054596779         3957 
 2004000   0.45164024   -9.6153357     182.7434 0.0075991101  0.005454636         3941 
 2005000   0.45024138   -9.6172225    182.65607 0.0075916902 0.0054495961         3960 
 2006000   0.44692067    -9.611719    182.48765 0.0075809092 0.0054445655         3953 
 2007000   0.45081066   -9.6098112     182.8784 0.0075933568  0.005439541         3945 
 2008000   0.44664841    -9.616347    182.78534 0.0075857131 0.0054345214         3942 
 2009000   0.45120825   -9.6150618    182.73988 0.0075800515 0.0054295088         3942 
 2010000   0.45303025   -9.6032964    182.68263 0.0075739067 0.0054245038         3938 
 2011000   0.45951196   -9.6206223    182.79032 0.0075746029 0.0054195033         3934 
 2012000   0.45654435   -9.6289732    183.04615 0.0075814345 0.0054145097         3942 
Loop time of 5193.05 on 48 procs for 2000000 steps with 4000 atoms

Performance: 66550.510 tau/day, 385.130 timesteps/s
99.4% CPU use with 48 MPI tasks x no OpenMP threads

MPI task timing breakdown:
Section |  min time  |  avg time  |  max time  |%varavg| %total
---------------------------------------------------------------
Pair    | 373.16     | 401.96     | 433.3      |  80.2 |  7.74
Neigh   | 37.89      | 39.179     | 41.589     |  12.8 |  0.75
Comm    | 324.66     | 361.94     | 393.64     |  89.2 |  6.97
Output  | 6.0656     | 6.0675     | 6.1025     |   0.2 |  0.12
Modify  | 4322.2     | 4336.3     | 4348.6     |   9.5 | 83.50
Other   |            | 47.56      |            |       |  0.92

Nlocal:        83.3333 ave          90 max          77 min
Histogram: 2 0 3 12 7 10 12 0 1 1
Nghost:        2447.67 ave        2456 max        2436 min
Histogram: 2 3 1 5 4 7 5 7 6 8
Neighs:        16888.9 ave       19225 max       14702 min
Histogram: 5 3 6 7 4 6 3 6 6 2
FullNghs:      33778.7 ave       37018 max       30792 min
Histogram: 2 1 4 10 9 12 8 0 1 1

Total # of neighbors = 1621376
Ave neighs/atom = 405.34400
Neighbor list builds = 106383
Dangerous builds = 0

#clear
#
#next RN
#
#jump SELF
Total wall time: 1:26:36
