
units lj                  # Use reduced LJ style units
atom_style atomic         # Uncharged point particles
atom_modify map hash      # Needed for indexing of clusters etc
                          # Used to be able to find where atoms are in relation to each other.

lattice fcc 1.0 spacing 1 1 1
Lattice spacing in x,y,z = 1.5874011 1.5874011 1.5874011
region box block 0 10 0 10 0 10 units lattice
create_box 2 box
Created orthogonal box = (0.0000000 0.0000000 0.0000000) to (15.874011 15.874011 15.874011)
  3 by 4 by 4 MPI processor grid
create_atoms 1 box
Created 4000 atoms
  using lattice units in orthogonal box = (0.0000000 0.0000000 0.0000000) to (15.874011 15.874011 15.874011)
  create_atoms CPU = 0.026 seconds
set type 1 type/fraction 2 0.15 78393
Setting atom values ...
  634 settings made for type/fraction
mass 1 1.0
mass 2 1.0
pair_style lj/cut  3.5
pair_modify tail  yes
pair_coeff 1  1  1.0  1.0   # Intearaction between 1 and 1 set with epsilon = 1 and sigma = 1
pair_coeff 1  2  1.5  0.8
pair_coeff 2  2  0.5  0.88

write_data data.0
System init for write_data ...
Neighbor list info ...
  update every 1 steps, delay 10 steps, check yes
  max neighbors/atom: 2000, page size: 100000
  master list distance cutoff = 3.8
  ghost atom cutoff = 3.8
  binsize = 1.9, bins = 9 9 9
  1 neighbor lists, perpetual/occasional/extra = 1 0 0
  (1) pair lj/cut, perpetual
      attributes: half, newton on
      pair build: half/bin/atomonly/newton
      stencil: half/bin/3d
      bin: standard
WARNING: Not all mixed pair coeffs generated from mixing. Use write_data with 'pair ij' option to store all pair coeffs. (../write_data.cpp:312)


#############################
#   M E L T   S Y S T E M   #
#############################

velocity all create 2.4 9622624 mom yes dist gaussian # Assign velocities
                                                    # Temperature 2.4, random number seed, zero linear momentum
                                                                                # Gaussian distribution

timestep 0.002   # simulation timestep
thermo 1000       # output thermodynamic data every 1000 steps bf 100

# Define a fix  in this case with index 1 applied to all
# particles in the simulation. This fix is for simulations
# in the anisotropic NPT ensemble. Note that we use the MTK
# correction.
fix 1 all npt temp 2.4 2.4 0.1 iso 5.68 5.68 0.5 mtk yes tchain 5 pchain 5 # Use NPT ensemble
                                                                         # Set temperature and pressure and damping
                                                                         # Numbers of thermostats in chain and in barostat
run 10000          # run for 10000 steps
Per MPI rank memory allocation (min/avg/max) = 3.642 | 3.644 | 3.648 Mbytes
Step Temp E_pair E_mol TotEng Press Volume 
       0          2.4   -7.3553801            0   -3.7562801   -3.3553213         4000 
    1000     2.391388   -4.7569898            0   -1.1708046    5.4971381    4652.9409 
    2000    2.3914287   -4.7279648            0   -1.1417185    5.6635932    4646.4044 
    3000    2.4153726   -4.7272511            0   -1.1050979    5.6919847    4649.0439 
    4000    2.3704837   -4.7847478            0   -1.2299111    5.3429034    4658.9727 
    5000    2.4097301   -4.6916361            0   -1.0779446    5.8861913    4640.9432 
    6000     2.388795   -4.6728238            0   -1.0905272    5.7434874    4663.3292 
    7000    2.4572428   -4.7563551            0   -1.0714124    5.4157514    4665.2433 
    8000    2.4087051   -4.7534543            0   -1.1412999    5.5684418    4650.3762 
    9000    2.3702397   -4.7342821            0   -1.1798114    5.4191645    4671.7009 
   10000    2.3972057   -4.7784355            0   -1.1835259     5.727702     4609.985 
Loop time of 2.26424 on 48 procs for 10000 steps with 4000 atoms

Performance: 763170.939 tau/day, 4416.498 timesteps/s
99.6% CPU use with 48 MPI tasks x no OpenMP threads

MPI task timing breakdown:
Section |  min time  |  avg time  |  max time  |%varavg| %total
---------------------------------------------------------------
Pair    | 0.93708    | 1.0003     | 1.0687     |   2.9 | 44.18
Neigh   | 0.19446    | 0.19998    | 0.21383    |   0.9 |  8.83
Comm    | 0.69311    | 0.77383    | 0.83532    |   4.1 | 34.18
Output  | 0.00024623 | 0.00025176 | 0.00031255 |   0.0 |  0.01
Modify  | 0.24358    | 0.27505    | 0.30985    |   3.0 | 12.15
Other   |            | 0.0148     |            |       |  0.65

Nlocal:        83.3333 ave          96 max          74 min
Histogram: 2 5 9 5 10 9 4 0 3 1
Nghost:        1502.69 ave        1532 max        1462 min
Histogram: 1 1 1 3 10 9 7 9 5 2
Neighs:        8274.46 ave        9516 max        7284 min
Histogram: 3 4 7 7 10 5 5 2 3 2

Total # of neighbors = 397174
Ave neighs/atom = 99.293500
Neighbor list builds = 899
Dangerous builds = 178

# Equilibrate just above the melting temperature to avoid step fn in T

fix 1 all npt temp 1.25 1.25 0.1 iso 5.68 5.68 0.5 mtk yes tchain 5 pchain 5
run 2000
Per MPI rank memory allocation (min/avg/max) = 3.642 | 3.644 | 3.648 Mbytes
Step Temp E_pair E_mol TotEng Press Volume 
   10000    2.3972057   -4.7784355            0   -1.1835259     5.727702     4609.985 
   11000    1.2605081   -6.3753368            0   -4.4850474    5.5695886    3818.0488 
   12000    1.2714752   -6.3779073            0   -4.4711712    6.0923602    3791.0927 
Loop time of 0.49272 on 48 procs for 2000 steps with 4000 atoms

Performance: 701411.920 tau/day, 4059.097 timesteps/s
99.7% CPU use with 48 MPI tasks x no OpenMP threads

MPI task timing breakdown:
Section |  min time  |  avg time  |  max time  |%varavg| %total
---------------------------------------------------------------
Pair    | 0.20758    | 0.23627    | 0.26749    |   1.9 | 47.95
Neigh   | 0.031599   | 0.033615   | 0.03586    |   0.5 |  6.82
Comm    | 0.14485    | 0.1683     | 0.20632    |   2.7 | 34.16
Output  | 5.0637e-05 | 5.1925e-05 | 6.5553e-05 |   0.0 |  0.01
Modify  | 0.039992   | 0.049906   | 0.056429   |   2.2 | 10.13
Other   |            | 0.004579   |            |       |  0.93

Nlocal:        83.3333 ave          93 max          75 min
Histogram: 2 7 1 12 6 5 7 4 1 3
Nghost:        1704.08 ave        1725 max        1677 min
Histogram: 1 1 3 5 7 8 11 5 4 3
Neighs:        10058.6 ave       11796 max        8833 min
Histogram: 5 2 8 10 8 7 4 2 1 1

Total # of neighbors = 482812
Ave neighs/atom = 120.70300
Neighbor list builds = 141
Dangerous builds = 9

#############################
# L I N E A R  Q U E N C H  #
#############################

# Define solid atoms. This closely follows ten Wolde  Ruiz-Montero and Frenkel  Faraday Discuss  1996  104  93-110
# Compute components of the per-atom q6 vector
compute q6 all orientorder/atom degrees 1 6 components 6 nnn NULL cutoff 1.3 # compute the Q6 parameter.
                                                                             # Use all neighbours within 1.3 unit cell.

# get number of connections
compute coord_number all coord/atom orientorder q6 0.5

# An atom is solid if it has 8 or more connections (of a possible 14)
variable is_solid atom c_coord_number>=8
group solid dynamic all var is_solid    # Must be dynamic to update
dynamic group solid defined

# do clustering
compute cluster solid cluster/atom 1.3 # Create a cluster where all atoms within are solid and max 1.3 units from another member

# define chunks one chunk per cluster
compute clus_chunks solid chunk/atom c_cluster nchunk every compress yes  # Says which atoms are in which chunk

# count the size of each chunk
compute size_chunks solid property/chunk clus_chunks count


# Find the maximum entry in the vector of chunk sizes
variable max_n equal max(c_size_chunks)


# Thermo style which includes this variable
# thermo_style custom step temp pe vol v_max_n

thermo ${N}  # Print the thermo information every 100 steps
thermo 1000  

# Reset the npt fix at a lower temperature (below freezing)
fix 1  all npt temp  ${temp} ${temp}  0.1  iso  5.68  5.68  0.5  mtk yes tchain  5  pchain  5
fix 1  all npt temp  0.45 ${temp}  0.1  iso  5.68  5.68  0.5  mtk yes tchain  5  pchain  5
fix 1  all npt temp  0.45 0.45  0.1  iso  5.68  5.68  0.5  mtk yes tchain  5  pchain  5

dump dmp2 all dcd ${N} traj.dcd
dump dmp2 all dcd 1000 traj.dcd


compute msd all msd com yes
variable twopoint equal c_msd[4]/6/(step*dt+1.0e-6)
fix 9 all vector 10 c_msd[4]
variable fit equal slope(f_9)/6/(10*dt)
thermo_style custom step temp pe c_msd[4] v_twopoint v_fit v_max_n

fix 1 all npt temp 1.25 ${temp} 0.1 iso 5.68 5.68 0.5 mtk yes tchain 5 pchain 5
fix 1 all npt temp 1.25 0.45 0.1 iso 5.68 5.68 0.5 mtk yes tchain 5 pchain 5
run 5000000 # 5000000  # Run for this many steps
Neighbor list info ...
  update every 1 steps, delay 10 steps, check yes
  max neighbors/atom: 2000, page size: 100000
  master list distance cutoff = 3.8
  ghost atom cutoff = 3.8
  binsize = 1.9, bins = 9 9 9
  4 neighbor lists, perpetual/occasional/extra = 1 3 0
  (1) pair lj/cut, perpetual
      attributes: half, newton on
      pair build: half/bin/atomonly/newton
      stencil: half/bin/3d
      bin: standard
  (2) compute orientorder/atom, occasional
      attributes: full, newton on
      pair build: full/bin/atomonly
      stencil: full/bin/3d
      bin: standard
  (3) compute coord/atom, occasional
      attributes: full, newton on
      pair build: full/bin/atomonly
      stencil: full/bin/3d
      bin: standard
  (4) compute cluster/atom, occasional
      attributes: full, newton on
      pair build: full/bin/atomonly
      stencil: full/bin/3d
      bin: standard
Per MPI rank memory allocation (min/avg/max) = 9.763 | 9.769 | 9.775 Mbytes
Step Temp PotEng c_msd[4] v_twopoint v_fit v_max_n 
   12000    1.2714752   -6.3779073 1.1146605e-30 7.7406973e-33 8.3333333e+20            2 
   13000    1.2486521   -6.3960753   0.54612777 0.0035008189  0.045391926            2 
   14000    1.2481995   -6.3939379    1.0506079 0.0062536181  0.043424975            3 
   15000    1.2362172   -6.3896526    1.5528663 0.0086270346  0.042400344            1 
   16000     1.264014   -6.4006877    2.0399639  0.010624812  0.042578107            1 
   17000    1.2498729   -6.4022386     2.569851  0.012597309  0.041895627            2 
   18000    1.2608357   -6.3765016    3.1523044  0.014594001  0.042348639            1 
   19000    1.2498897   -6.3791467    3.7210949  0.016320591  0.043347329            1 
   20000    1.2236193   -6.3873607    4.2739893  0.017808288  0.043848976            7 
   21000    1.2430429   -6.4050878     4.839253  0.019203384  0.044358556            2 
   22000    1.2516148   -6.4166053    5.4167564  0.020518016  0.044852779            2 
   23000    1.2542144   -6.4285802    5.9009881  0.021380391  0.045112341            2 
   24000    1.2516412    -6.418825    6.4212983  0.022296174  0.045055027            2 
   25000    1.2453241    -6.367443    6.9287358  0.023095785  0.044955165            2 
   26000     1.235284   -6.4185947    7.3569033  0.023579818  0.044771495            2 
   27000    1.2475302   -6.4084317     7.810374  0.024106092  0.044426662            1 
   28000    1.2390756   -6.4461644    8.2865056  0.024662219  0.044050431            1 
   29000    1.2613338    -6.386206    8.8050543   0.02530188  0.043780478            2 
   30000    1.2531704   -6.3913487    9.4431215  0.026230893   0.04364026            3 
   31000    1.2388585   -6.4257609    9.8810929  0.026562077  0.043536581            3 
   32000    1.2423142   -6.4400089    10.455419  0.027227654  0.043456351            2 
   33000    1.2550922    -6.397132    10.988462  0.027748641   0.04342074            2 
   34000    1.2267832   -6.3982155    11.440565    0.0280406  0.043372708            2 
   35000    1.2499282   -6.3566913    11.958946  0.028473679  0.043317961            1 
   36000     1.252193   -6.4126608    12.550678  0.029052496  0.043271941            2 
   37000    1.2300758    -6.396056    13.014508  0.029311954  0.043269802            1 
   38000    1.2525227   -6.3813372    13.538315  0.029689287  0.043233904            2 
   39000    1.2383441   -6.3779015    14.109675  0.030148879   0.04321644            2 
   40000    1.2359979   -6.4028108    14.629141  0.030477376  0.043236109            1 
   41000    1.2644598    -6.404531    15.138277  0.030768855  0.043232654            2 
   42000    1.2272536   -6.4384386    15.517968  0.030789619  0.043233337            4 
   43000    1.2531436   -6.3995515    16.024925  0.031056056  0.043193538            3 
   44000    1.2293079   -6.4250313    16.489621  0.031230342  0.043139983            2 
   45000    1.2444935   -6.4092004    16.920439  0.031334146  0.043035712            2 
   46000    1.2395154   -6.3985138    17.454933  0.031621254  0.042940395            2 
   47000    1.2297195   -6.4045809    17.930685  0.031791995  0.042864111            3 
   48000    1.2311101   -6.3893786    18.407015  0.031956623  0.042792243            3 
   49000    1.2369691   -6.3872767    19.098647  0.032480691  0.042738752            3 
   50000    1.2490691   -6.3563104    19.696395  0.032827325  0.042735529            1 
   51000    1.2235709   -6.4161832    20.185375  0.032982639  0.042747119            3 
   52000    1.2427584   -6.3919943     20.78333  0.033306619   0.04278564            2 
   53000    1.2291802   -6.3978832    21.201695  0.033335999  0.042799471            2 
   54000    1.2330013   -6.4149595     21.61428  0.033355369  0.042789004            1 
   55000     1.240177   -6.3596116    22.043981   0.03339997  0.042749919            3 
   56000    1.2381277   -6.3967768    22.348211  0.033256265   0.04267154            3 
   57000    1.2339004    -6.422927    22.819641  0.033362047  0.042599478            2 
   58000    1.2490436   -6.4339275    23.277933  0.033445306  0.042518661            1 
   59000    1.2442457   -6.4142494    23.957387  0.033838118  0.042441302            6 
   60000    1.2489381   -6.3638448     24.34586  0.033813694  0.042396331            3 
   61000     1.246116   -6.3856989    25.026313  0.034188952  0.042354284            2 
   62000    1.2652327    -6.395588    25.533587  0.034319337  0.042339224            4 
   63000    1.2458091   -6.4485172    26.155705  0.034597493  0.042340613            2 
   64000    1.2408817   -6.3583905    26.872922  0.034990784  0.042369175            2 
   65000    1.2403129   -6.4248834    27.259341  0.034947873  0.042403557            2 
   66000    1.2277486   -6.3997326    27.723264  0.035004121  0.042418375            8 
   67000    1.2275853   -6.4079036    28.604215  0.035577382  0.042457925            2 
   68000    1.2465696   -6.4203994    29.212401  0.035799511   0.04253752            1 
   69000    1.2438063   -6.3754369    29.769017  0.035952919  0.042602472            1 
   70000    1.2408213   -6.4134389    30.223116    0.0359799  0.042666355            4 
   71000    1.2402861   -6.4034888    30.620336  0.035939361  0.042715993            2 
   72000    1.2819985   -6.4209948    31.207072  0.036119296  0.042761129            1 
   73000    1.2091949   -6.3933692    31.728699  0.036219976  0.042803582            1 
   74000    1.2214966   -6.4189672    32.358243  0.036439462  0.042852313            1 
   75000    1.2438981   -6.4143051    33.211723  0.036901915  0.042929241            3 
   76000    1.2147843   -6.4191904    34.035461  0.037319584  0.043025372            3 
   77000    1.2404397    -6.424529    34.610365  0.037457105  0.043134799            2 
   78000    1.2386172   -6.4069435    35.057208  0.037454282  0.043242523            5 
   79000    1.2331486   -6.4119806    35.574595  0.037525944  0.043331152            2 
   80000    1.2400171   -6.4288558    36.045286  0.037547173  0.043418964            2 
   81000    1.2306229   -6.3981791    36.650176  0.037705942  0.043493653            4 
   82000    1.2352319   -6.4165581    37.280855  0.037887048  0.043578653            1 
   83000    1.2469885   -6.4156602    37.636861  0.037788013   0.04365699            1 
   84000    1.2362241   -6.3939734    38.389944  0.038085261  0.043728641            2 
   85000    1.2440321     -6.42028    38.822064  0.038060847  0.043793524            2 
   86000    1.2381248   -6.4024683    39.770866  0.038537661  0.043872729            2 
   87000    1.2464977   -6.3992919    40.083692   0.03839434  0.043947517            2 
   88000    1.2394566   -6.4331293    40.582666  0.038430555  0.044006026            1 
   89000    1.2448047     -6.40423    41.282556  0.038654079   0.04407427            2 
   90000    1.2411102   -6.4133226     41.83108  0.038732481  0.044145061            2 
   91000    1.2364314   -6.4368172    42.350017  0.038782067  0.044209531            3 
   92000    1.2567308   -6.4052337    43.078212   0.03902012  0.044272977            1 
   93000    1.2429984   -6.4207453    43.587633  0.039057019  0.044341232            1 
   94000    1.2354263   -6.3806667    44.157915  0.039147088  0.044400827            4 
   95000    1.2329542   -6.4058239    44.442096  0.038984294  0.044448526            2 
   96000    1.2354178   -6.4313479    45.249058  0.039278696  0.044497425            3 
   97000    1.2245504   -6.4206863    45.605621  0.039180086   0.04454648            2 
   98000     1.263856   -6.3789473    46.336776   0.03940202  0.044592984            1 
   99000    1.2515338   -6.4194362    46.903703  0.039481231  0.044638178            2 
  100000    1.2441019   -6.4292878    47.558383  0.039631985  0.044686052            2 
  101000    1.2418362   -6.4093533    48.168071  0.039742632  0.044734241            2 
  102000    1.2283276    -6.419996    48.737592  0.039818294  0.044782251            3 
  103000    1.2436955   -6.4563627    49.199894   0.03980574  0.044836898            3 
  104000    1.2485115   -6.4105642    49.724545  0.039843385  0.044875913            1 
  105000    1.2328221   -6.4508427    50.181982   0.03982697  0.044911944            1 
  106000    1.2493572   -6.4145296    50.621176  0.039796522  0.044937451            2 
  107000     1.244889    -6.411963    51.196819  0.039872912  0.044964002            3 
  108000    1.2309174   -6.4233853    51.743623  0.039925635  0.044989795            5 
  109000    1.2693138   -6.4338233    52.212378   0.03991772  0.045006371            2 
  110000    1.2209512   -6.4480894    52.583544  0.039836018  0.045026567            2 
  111000    1.1970904   -6.4384253    53.178383  0.039923711  0.045041245            1 
  112000    1.2403771   -6.4476303    53.745989  0.039989575  0.045059178            2 
  113000    1.2275464   -6.4490907    54.453788  0.040157661  0.045077375            2 
  114000    1.2458539   -6.4363406     55.08376  0.040265906  0.045099046            3 
  115000    1.2246389   -6.4042421    55.443873  0.040176719  0.045110721            1 
  116000    1.2609054     -6.42267    55.889697  0.040150644  0.045124269            3 
  117000    1.2269761   -6.4082617    56.410002  0.040178064  0.045133833            1 
  118000    1.2338509   -6.3861851    57.166107  0.040371544  0.045139637            1 
  119000    1.2696086   -6.3842511    57.793324  0.040471515  0.045152077            1 
  120000     1.210977    -6.448055    58.038753   0.04030469   0.04516629            2 
  121000    1.2264718   -6.4460311    58.824797  0.040512945  0.045187854            4 
  122000    1.2483891   -6.4006924    59.252789  0.040473216  0.045198818            1 
  123000    1.2310992   -6.3949294    59.858195  0.040554333  0.045204722            2 
  124000    1.2571457   -6.4137308    60.281868  0.040512008  0.045212211            2 
  125000    1.2171981   -6.4105173    61.117051    0.0407447  0.045221878            1 
  126000    1.2602177   -6.4232254    61.487953  0.040666635  0.045237094            4 
  127000    1.2428967   -6.4219505    62.270689  0.040860032  0.045249457            3 
  128000    1.2252857   -6.4288293    62.439637  0.040650805  0.045252645            2 
  129000    1.2260418   -6.4162819    62.863189  0.040609295  0.045250271            2 
  130000    1.2371353   -6.3646543    63.414857  0.040650549  0.045248351            2 
  131000    1.2318442   -6.4174414    64.141654  0.040802579  0.045255763            2 
  132000    1.2339074   -6.4368428    64.834389  0.040930801  0.045265797            2 
  133000    1.2229451   -6.3795394     65.44824  0.041007669  0.045273546            3 
  134000    1.2105177   -6.4361548    65.661034  0.040833976  0.045280048            6 
  135000    1.2461365   -6.4069768    66.230933  0.040883292  0.045279204            1 
  136000    1.2195922   -6.4509934    66.682797  0.040859557  0.045279328            3 
  137000    1.2133658   -6.4239963    67.018574  0.040765556  0.045273553            1 
  138000    1.1993879   -6.4400936    67.438215   0.04072356  0.045263107            5 
  139000    1.2398443   -6.4421709    68.094158  0.040823835  0.045254304            1 
  140000    1.2360215   -6.4050459    68.568289  0.040814458  0.045247313            3 
  141000    1.2234803   -6.4066457    69.188286  0.040891422  0.045240738            4 
  142000    1.1858483    -6.420988    69.793825  0.040958817  0.045235165            2 
  143000    1.2286093   -6.4420137    69.729931  0.040635158  0.045222936            3 
  144000    1.2269771   -6.4095785    70.594448  0.040853268  0.045205868            1 
  145000    1.2374185   -6.4887538    70.878514  0.040734778   0.04519085            2 
  146000    1.2229214   -6.4207713    71.362544  0.040732045    0.0451763            2 
  147000    1.2164582   -6.4066018    72.178015  0.040917242  0.045160791            2 
  148000    1.2320056   -6.4329314    72.602568  0.040879824  0.045148315            3 
  149000    1.2422716   -6.4660884    73.183575  0.040930411  0.045136413            2 
  150000    1.2339914   -6.4280039    73.415813  0.040786563  0.045122896            2 
  151000    1.2572404   -6.4557998    73.582067  0.040608204  0.045103791            1 
  152000     1.216032   -6.4468303    74.448511   0.04081607  0.045086463            2 
  153000    1.2279077   -6.4304115    74.830733   0.04075748  0.045067906            2 
  154000    1.2459923   -6.4385844    75.253678  0.040721687  0.045046731            2 
  155000    1.2123966   -6.4050251     75.47833  0.040579747   0.04501831            2 
  156000    1.2380969   -6.4720307    75.839374  0.040512486  0.044986094            2 
  157000     1.225646   -6.4802117    76.080487  0.040382424   0.04495228            2 
  158000    1.2324882   -6.4078983    76.226247  0.040203717  0.044912885            2 
  159000    1.2192162   -6.3864353    76.935455  0.040322565  0.044870521            3 
  160000    1.2230902   -6.4637405    77.123426  0.040168451  0.044825283            2 
  161000     1.210807   -6.4377235     77.66756    0.0402006  0.044779631            1 
  162000    1.1997939   -6.4007359    78.085044  0.040167204  0.044732904            3 
  163000    1.2310328   -6.4263512    78.445329  0.040104974  0.044685359            3 
  164000    1.2174248   -6.4978002    79.074258  0.040180009  0.044641046            2 
  165000    1.2081702   -6.4620143    79.901968  0.040354529  0.044598719            2 
  166000    1.2186019   -6.4279314    80.578501  0.040451054  0.044558324            2 
  167000    1.2290329   -6.4197774    80.919935  0.040379209  0.044521161            1 
  168000    1.2478652   -6.4323569    81.551124  0.040451946  0.044488349            3 
  169000    1.2095224   -6.4247601    82.014255  0.040440954  0.044457962            2 
  170000    1.2190492   -6.4315655    82.419618  0.040401774  0.044429633            4 
  171000    1.2236843   -6.4051883    83.387559  0.040637212   0.04440141            3 
  172000     1.240392   -6.4425944    83.377775  0.040396209  0.044373077            3 
  173000    1.2181187   -6.4104398    84.007774  0.040466172  0.044342628            2 
  174000    1.2313967   -6.4497008    84.698112   0.04056423  0.044314801            2 
  175000    1.2068945   -6.4407542    85.088642  0.040518401  0.044288089            1 
  176000    1.2344078   -6.4323295    85.981503  0.040710939  0.044261281            2 
  177000      1.27479   -6.4550188    85.829618  0.040409424  0.044234329            2 
  178000    1.2348782   -6.4557693    86.630396  0.040557301  0.044207607            1 
  179000    1.2382577   -6.4126668     86.87578  0.040444963  0.044181742            4 
  180000    1.2306599    -6.434214       87.647  0.040577315  0.044155812            2 
  181000    1.2558219   -6.4227886    88.174299  0.040595902  0.044132074            3 
  182000    1.2365895   -6.4166302    88.740731  0.040632203  0.044108985            3 
  183000    1.2166279   -6.3875837    89.253713  0.040643767  0.044084493            2 
  184000    1.2343454   -6.4604156    89.378175  0.040479246  0.044057474            2 
  185000    1.1936838   -6.4341696    89.660468  0.040387598  0.044026553            1 
  186000    1.2065808   -6.4658912    89.914214  0.040284146   0.04399462            3 
  187000       1.2081   -6.4302803    90.701833  0.040419712  0.043963738            2 
  188000    1.1994292   -6.4170231     90.96113   0.04031965   0.04393572            3 
  189000    1.2172667    -6.457564    91.509336  0.040348032  0.043905087            3 
  190000     1.212402   -6.4283376    92.311662  0.040487571  0.043874941            2 
  191000    1.2000666   -6.4471232    92.580855  0.040393043  0.043847933            1 
  192000    1.2483063   -6.4351624    93.380173  0.040529589  0.043821833            1 
  193000    1.2151057   -6.4389145    93.895001  0.040541883  0.043795019            4 
  194000    1.2472866   -6.4528775    93.855147  0.040315785  0.043766097            2 
  195000    1.2267305   -6.4136693       94.621  0.040436325   0.04373862            2 
  196000    1.2200738   -6.4185168    95.164177  0.040460959  0.043710162            2 
  197000    1.2118986   -6.4133825    95.327455  0.040324643  0.043683563            1 
  198000    1.2193649    -6.402885    96.212604   0.04049352  0.043658427            3 
  199000    1.2364061   -6.4091235    96.728775  0.040506187  0.043635481            1 
  200000    1.2373465    -6.475609     96.93031  0.040387629   0.04360978            3 
  201000    1.2354524   -6.4357456    97.077346  0.040247656  0.043585232            2 
  202000    1.2060455   -6.4298686    98.011103  0.040433623  0.043560674            4 
  203000    1.2064266   -6.3980824    98.810227   0.04056249  0.043539027            1 
  204000    1.1924547    -6.404826    99.355753    0.0405865  0.043519995            1 
  205000    1.2257173   -6.4570991    100.09239  0.040687963  0.043503109            2 
  206000    1.2247102   -6.4798631    100.23878  0.040549669  0.043488765            4 
  207000    1.1954575   -6.4039609    100.85933  0.040603593  0.043472285            1 
  208000    1.2125656   -6.4066124    101.92433  0.040835069  0.043455759            1 
  209000    1.2259074     -6.45064     101.9364  0.040644496   0.04343799            1 
  210000    1.2063677   -6.4560443    102.05748     0.040499    0.0434213            4 
  211000    1.2091563   -6.4247468    103.11251  0.040723739  0.043403828            1 
  212000    1.2125377   -6.4168913     103.6608  0.040747169  0.043389692            3 
  213000    1.2122139   -6.4478431    104.13215  0.040740279  0.043375786            2 
  214000    1.2361286   -6.4795952    104.15562   0.04055904  0.043359156            1 
  215000    1.2282064   -6.4577278    104.48995   0.04049998   0.04334089            1 
  216000    1.1939554   -6.4352804    105.17756  0.040577761  0.043322347            2 
  217000    1.2373744   -6.4205805    105.57171  0.040542131  0.043303264            2 
  218000    1.2235959   -6.4139807    106.01146  0.040524259  0.043284492            1 
  219000    1.2479809   -6.4617572    106.50533  0.040527141  0.043265107            3 
  220000     1.209755   -6.4300653    106.81427  0.040459951  0.043242854            1 
  221000    1.2163704   -6.4749802    107.04101   0.04036237  0.043218985            3 
  222000    1.2246839   -6.4773825    107.19312  0.040237656  0.043195337            1 
  223000    1.2055287   -6.4916457    107.76056  0.040269266  0.043169658            2 
  224000    1.1755949   -6.4860213    108.19685  0.040251804  0.043146539            3 
  225000    1.2205853   -6.4813731    108.62537   0.04023162  0.043124285            2 
  226000    1.2073233   -6.4271966    109.64374  0.040429109  0.043103199            3 
  227000    1.2056868   -6.4707922    110.25649  0.040475951  0.043083798            1 
  228000    1.2209308   -6.4560583    110.71242  0.040465066   0.04306349            2 
  229000    1.2188875   -6.4860812    111.05763  0.040413985  0.043043399            2 
  230000    1.2334241   -6.4596281    111.50402  0.040400006  0.043023682            2 
  231000    1.2219865   -6.4668594     111.8296  0.040342569  0.043002755            1 
  232000    1.2286833   -6.4575703    112.83997  0.040531599  0.042983337            2 
  233000    1.2259121   -6.4105136    113.42546  0.040567046  0.042966741            3 
  234000    1.2317692   -6.4737804    113.86544   0.04055037  0.042950956            3 
  235000    1.1937506   -6.4801105    114.37822  0.040559652  0.042936131            3 
  236000    1.2160587   -6.4450857     115.0701  0.040632096  0.042921115            2 
  237000    1.2019297   -6.4525225     115.7738  0.040708086  0.042906489            5 
  238000    1.2197921   -6.4586415    115.94341  0.040596433  0.042894838            2 
  239000    1.2144245   -6.4379212    116.78346  0.040719478  0.042883658            4 
  240000    1.2114412   -6.4638731    117.25749  0.040714407  0.042874726            3 
  241000    1.2138043   -6.4717458    117.55741  0.040649173  0.042864619            2 
  242000    1.2132632    -6.457662    118.12002  0.040674938  0.042855958            6 
  243000    1.2186634   -6.4775805    118.14095   0.04051473  0.042840871            3 
  244000    1.1967316   -6.4557705    118.94557  0.040623487  0.042824968            1 
  245000    1.2035256   -6.4302465    119.40042  0.040612388  0.042810592            1 
  246000    1.2234338   -6.4140878    119.71574  0.040554112  0.042794489            3 
  247000    1.2348848   -6.4441943    119.60172  0.040351456  0.042776002            2 
  248000    1.2059662   -6.4697231    119.96068  0.040309369   0.04275569            3 
  249000    1.2007531   -6.4626833    120.68577  0.040390151  0.042734435       -1e+20 
  250000    1.2121533   -6.4872455    120.79909  0.040266364  0.042715435            3 
  251000    1.2164766   -6.4907712    121.70161  0.040405581  0.042696091            4 
  252000    1.2161951   -6.4870964    122.04042  0.040357281  0.042678112            2 
  253000    1.2182426   -6.4504522    122.69315  0.040412765  0.042662792            2 
  254000    1.1966114    -6.460421     123.1598  0.040406759  0.042648256            1 
  255000    1.2252634   -6.4442664     124.2578  0.040607126  0.042635734            4 
  256000     1.201026   -6.4756577    124.47065  0.040517789  0.042623612            2 
  257000    1.2113877   -6.4439231    125.03955  0.040544601  0.042611148            2 
  258000    1.2230756   -6.4492681    125.44416  0.040518138  0.042599587            2 
  259000    1.2020657   -6.5005681    125.88491  0.040503509  0.042587481            4 
  260000    1.2010348   -6.5020027    126.65903  0.040595842   0.04257457            2 
  261000    1.2183922   -6.4923293    126.48252  0.040383948  0.042561964            2 
  262000    1.2488465   -6.4836461    127.18671  0.040453789  0.042549452            1 
  263000    1.1981339   -6.4666201    127.75134  0.040478878  0.042539284            3 
  264000    1.2179659   -6.4275905    128.48782  0.040558025  0.042529361            2 
  265000    1.2040891   -6.4287868    129.19623  0.040627747  0.042517336            2 
  266000     1.195623   -6.4851386    129.37878  0.040532199  0.042505785            2 
  267000    1.2302218   -6.4615015    129.72998  0.040490007  0.042494012            2 
  268000    1.2161112   -6.4802816    130.19475  0.040483443  0.042481156            2 
  269000    1.2007929   -6.4814746    130.18747  0.040330689  0.042466286            1 
  270000    1.2027501   -6.4789082    131.00043  0.040432231  0.042451526            3 
  271000    1.2268781   -6.4979217    131.66339  0.040486896  0.042439383            2 
  272000    1.2401919   -6.4326146    132.44642  0.040577947  0.042429242            1 
  273000    1.1841228   -6.4358514    133.05026  0.040613632  0.042419079            2 
  274000    1.2181302   -6.4828313    133.15441  0.040497083  0.042407961            2 
  275000    1.2177547   -6.4893854    133.85843   0.04056316  0.042397415            2 
  276000    1.2015998   -6.4289286    134.24836  0.040533924   0.04238711            1 
  277000    1.1992541   -6.4438828    134.81972  0.040559483  0.042376439            5 
  278000    1.1724472    -6.467915     135.2249  0.040535043  0.042364962            4 
  279000    1.2250578   -6.4426947    135.56392  0.040491015  0.042353668            2 
  280000    1.1923007   -6.4653031    136.04822  0.040490541   0.04234274            3 
  281000    1.1964152   -6.4595889    136.41808  0.040456133  0.042331878            1 
  282000    1.1744901    -6.507243    136.54589  0.040350439   0.04231848            3 
  283000    1.2189281   -6.5107072    136.80503  0.040284166  0.042304021            1 
  284000    1.2026325   -6.4948237    137.40572  0.040318581  0.042290052            1 
  285000    1.2094805   -6.4820524    137.90223   0.04032229  0.042274644            1 
  286000     1.217272   -6.4480788    138.97178  0.040492943  0.042261062            1 
  287000    1.2128707   -6.5096214    139.00046  0.040360181  0.042248435            4 
  288000    1.2328604   -6.4598923    139.93493  0.040490431  0.042235783            4 
  289000    1.2259553   -6.4753863    139.84346  0.040323951  0.042222587            3 
  290000    1.2195376   -6.4755114     140.2646   0.04030592  0.042211629            6 
  291000    1.2199171   -6.5012349    140.69992  0.040292073  0.042199267            7 
  292000    1.2201754   -6.4590634    141.25006   0.04031109  0.042186821            2 
  293000    1.1919512   -6.4653488    142.04778  0.040400393  0.042173803            2 
  294000    1.1740147    -6.460311    142.85128  0.040490726  0.042161908            1 
  295000    1.2296423   -6.4624173    143.17023  0.040443567  0.042150977            2 
  296000    1.1980082   -6.4903721    143.33884  0.040354404   0.04213946            3 
  297000    1.1851529   -6.5016413    143.85069  0.040362146   0.04212697            2 
  298000    1.2094587   -6.4587794    144.62614  0.040443552  0.042115504            2 
  299000    1.1837778   -6.4888833    145.16066  0.040457262  0.042104736            3 
  300000    1.2400357   -6.4837473    145.59257   0.04044238  0.042095001            2 
  301000    1.2101803   -6.4619613    146.17784  0.040470056  0.042084625            3 
  302000     1.221137   -6.4965746    146.29724  0.040368995  0.042073739            2 
  303000    1.2175926   -6.4841154    147.07538  0.040449775  0.042062409            1 
  304000    1.1945747   -6.4820929    147.75664  0.040503464  0.042052936            2 
  305000    1.1796929   -6.4605978     148.8462  0.040668362  0.042044659            3 
  306000    1.1752018   -6.4796445    148.40004  0.040413955  0.042034058            2 
  307000    1.2150849   -6.4646413    149.09215  0.040470182  0.042023451            2 
  308000    1.2133599   -6.5429981    148.36323  0.040141566  0.042011875            3 
  309000    1.1936241    -6.449142    149.60162  0.040345636  0.042000066            1 
  310000    1.1929821   -6.4709194    150.05558  0.040337522  0.041988559            2 
  311000    1.1787955     -6.51589    150.36834  0.040291623  0.041977087            5 
  312000    1.1904943   -6.4812186    150.67031  0.040243138   0.04196484            3 
  313000    1.1882356   -6.4928674    150.79435  0.040147592  0.041951988            5 
  314000    1.1794579   -6.4883763    151.75126  0.040273689  0.041939103            3 
  315000      1.22552   -6.4972415    152.10966   0.04024065  0.041926538            4 
  316000    1.2011216   -6.4997202    152.84662  0.040307653  0.041913936            2 
  317000    1.1946996    -6.484539    153.33847  0.040309797  0.041902543            2 
  318000    1.1834644   -6.4830545     154.0361  0.040365855  0.041891125            2 
  319000    1.1940963   -6.4696067    154.26356  0.040298735  0.041880558            3 
  320000    1.1823253   -6.4774421    154.85252  0.040326177  0.041868373            4 
  321000    1.2077978   -6.5231561    154.49834  0.040108604  0.041857143            3 
  322000    1.2334266   -6.4771711    155.51823   0.04024799    0.0418458            2 
  323000    1.1914137   -6.4550912    155.98903  0.040244848  0.041834746            7 
  324000    1.2083626   -6.5016128    155.77818  0.040066404  0.041821647            3 
  325000    1.2073689   -6.5095478    156.22936   0.04005881  0.041808764            3 
  326000    1.1903917   -6.4610707    157.04995  0.040145693  0.041795575            1 
  327000    1.1923332   -6.5032388    157.29149  0.040084479  0.041781734            3 
  328000    1.2034771   -6.4495742    157.88976  0.040114268  0.041768516            4 
  329000    1.2145636   -6.4466395    158.33188  0.040104326  0.041755904            2 
  330000    1.1870845   -6.4346189     159.2432  0.040212929  0.041744345            2 
  331000    1.2068991   -6.4854032    159.88678   0.04025347  0.041733102            2 
  332000    1.1816117   -6.5043771    160.14529   0.04019711  0.041720296            1 
  333000    1.1809761   -6.4303461    160.67395  0.040208697   0.04170951            2 
  334000    1.1959422   -6.4837935    161.46924  0.040286737  0.041699923            3 
  335000    1.1915273    -6.447692    161.82362  0.040254631  0.041691702            2 
  336000    1.2166794   -6.4830762    162.51218    0.0403056  0.041683594            1 
  337000    1.2037252    -6.475275    163.35015  0.040393212  0.041676504            3 
  338000     1.187734   -6.4423458    164.47611   0.04055131  0.041669987            4 
  339000    1.2059685   -6.4949669    164.10044   0.04033934  0.041662895            1 
  340000    1.1831003   -6.4432674    165.43231  0.040547134  0.041656201            2 
  341000    1.2304809   -6.5072451    165.46573  0.040436395  0.041650832            1 
  342000      1.20834   -6.4787236    166.27027  0.040514199  0.041644922            2 
  343000    1.2239269   -6.4734044    166.50559  0.040453253  0.041638489            2 
  344000    1.2025905   -6.5144839    166.27782   0.04028048  0.041631923            2 
  345000    1.2042126   -6.4670424    167.51692  0.040463024  0.041625232            2 
  346000     1.174659   -6.4912094    168.21269  0.040513653  0.041618592            2 
  347000    1.1950004   -6.4877105    168.31912   0.04042246  0.041612135            1 
  348000    1.2177602   -6.4503572     168.6426  0.040383764  0.041606547            2 
  349000    1.1798099   -6.5073025    168.74025  0.040291368  0.041598677            1 
  350000    1.2217956   -6.4862719    169.36734  0.040325558  0.041588881            2 
  351000    1.2162433   -6.4810037    169.89303  0.040335477  0.041580077            2 
  352000    1.1848705   -6.4995845    170.36218  0.040331955   0.04157303            1 
  353000    1.1893843   -6.5333571    170.63112  0.040281191  0.041566395            3 
  354000    1.1878856    -6.470329    171.60074  0.040395655  0.041558848            3 
  355000    1.1846671   -6.4900299    171.42686  0.040241047  0.041551269            3 
  356000    1.1832205    -6.459749    172.51445  0.040382595  0.041543807            1 
  357000     1.203911   -6.4904913    172.76234  0.040327344  0.041535964            2 
  358000    1.1965723   -6.4944948    173.12383  0.040298843  0.041529258            3 
  359000    1.2055903    -6.509585    173.28852  0.040224818  0.041520703            3 
  360000    1.2043336   -6.4945618    173.70854  0.040210309  0.041512337            1 
  361000    1.1737344   -6.4990484    173.55836  0.040064257  0.041502636            5 
  362000    1.1852718   -6.4699689      174.594  0.040191988  0.041493712            3 
  363000    1.1901379   -6.4996262    174.99727  0.040173846  0.041483258            3 
  364000    1.1974645   -6.4882303    174.97733  0.040058912   0.04147309            1 
  365000    1.2097259   -6.5054806    175.07061  0.039970459  0.041462272            3 
  366000    1.1836257   -6.4622966      176.403  0.040164618  0.041452897            3 
  367000    1.1990002   -6.4959654    177.12093  0.040218195  0.041443593            4 
  368000    1.1940857   -6.4814832    177.21859  0.040131022  0.041433871            4 
  369000    1.2123007   -6.4952832    177.64227  0.040117947  0.041422873            1 
  370000    1.1734332   -6.4702652    177.29553  0.039931426  0.041412289            2 
  371000    1.1976835   -6.5106135    178.46818  0.040087193  0.041401857            2 
  372000    1.2115521    -6.456223    179.18972  0.040141066  0.041392304            6 
  373000    1.1794132   -6.5363014    179.03123   0.03999804  0.041382116            3 
  374000      1.16308   -6.4749488    179.80298  0.040063053  0.041372287            2 
  375000    1.2058494   -6.4844825    180.70122  0.040155826  0.041363889            2 
  376000    1.2041089   -6.5055386    181.14576  0.040147554  0.041355493            5 
  377000    1.2049766   -6.5298329    181.21028  0.040055324  0.041346195            1 
  378000    1.2160524   -6.5299317    181.50854   0.04001511  0.041337042            3 
  379000    1.1939793   -6.4774643    182.44434   0.04011529  0.041328303            3 
  380000    1.2032163   -6.5242246    182.62011  0.040048269  0.041319758            2 
  381000    1.1607306   -6.4972196    182.71621  0.039964176  0.041310818            3 
  382000    1.1949206   -6.5158061    183.18033  0.039960804  0.041301038            1 
  383000     1.190933   -6.5375292    183.72318  0.039974582  0.041290334            4 
  384000    1.2015177   -6.5343606     184.0959  0.039951367  0.041278865            2 
  385000    1.1918684   -6.4965734    184.96038  0.040034715  0.041268293            2 
  386000    1.1701424   -6.5109637    185.18234  0.039978916  0.041257144            3 
  387000    1.1898011   -6.5365832    185.14342   0.03986723  0.041245984            4 
  388000    1.1608743   -6.5087139    185.79412  0.039904235  0.041234183            4 
  389000    1.1757956     -6.48151    186.48662  0.039950005  0.041223212            4 
  390000    1.1897235   -6.5168376    186.30878  0.039809568  0.041210902            1 
  391000    1.1581236   -6.5249936    187.57596  0.039977825  0.041199112            4 
  392000    1.1868196    -6.481863    187.89698  0.039944087   0.04118727            1 
  393000    1.1752725   -6.5046231    187.70082  0.039800853  0.041174589            1 
  394000     1.170864    -6.491753    188.37051  0.039841479  0.041162465            2 
  395000    1.1784664   -6.5024891    189.00444  0.039874354  0.041150043            2 
  396000    1.1846578   -6.5510209    189.56449  0.039891516  0.041140209            4 
  397000    1.2179763   -6.4887856    190.70765  0.040030993  0.041131185            2 
  398000    1.1858458   -6.5308911    191.06197    0.0400046  0.041122375            3 
  399000    1.1871088   -6.5250365    191.08787  0.039909747    0.0411137            1 
  400000    1.1720828   -6.4929099    192.22514  0.040046904  0.041105101            2 
  401000    1.1776127   -6.5274226    191.63927  0.039825284  0.041095994            2 
  402000    1.2069837   -6.5384202    192.08396    0.0398184  0.041085727            7 
  403000    1.1944735    -6.526647    193.05631   0.03992066  0.041075778            1 
  404000    1.1894704   -6.5323744     193.1481  0.039840779  0.041064088            7 
  405000    1.1870535   -6.5140649    193.04857  0.039721929  0.041053055            3 
  406000    1.1847389   -6.5137529     194.1455   0.03984924  0.041043295            3 
  407000    1.1677423   -6.4943439    194.49792   0.03982349  0.041034255            2 
  408000    1.1929064   -6.4941916    195.29556    0.0398888  0.041025235            1 
  409000    1.2039769   -6.4827411    196.28286  0.039992432  0.041015704            2 
  410000    1.1724062   -6.5440861    196.52134  0.039943362  0.041006686            9 
  411000    1.1863723   -6.4953409    196.45067  0.039831848  0.040997675            1 
  412000    1.1917333   -6.4683983    197.51194  0.039949826  0.040989524            2 
  413000    1.2100814   -6.5023332    198.03051   0.03995773  0.040982556            1 
  414000    1.1950159   -6.5265967    198.62021  0.039979913  0.040975567            5 
  415000    1.1884131   -6.4933534    199.33733  0.040027576  0.040968401            2 
  416000    1.1786468   -6.4912995    199.71955  0.040007923  0.040961938            1 
  417000    1.1910885   -6.4977942    200.21019  0.040010031   0.04095473            1 
  418000    1.1679551   -6.5139372    200.24823  0.039921897  0.040947628            5 
  419000    1.2114724   -6.4964895    201.03334  0.039982764  0.040939741            2 
  420000    1.2184283   -6.4876169    201.07402   0.03989564  0.040932298            1 
  421000    1.1893242   -6.5548307      200.802  0.039747031  0.040923813           11 
  422000     1.203919   -6.4628588    202.23045  0.039934923  0.040915859            4 
  423000     1.196008   -6.5113572    201.96662  0.039788538  0.040908228            3 
  424000    1.2143869    -6.537474    202.65491  0.039829975  0.040899445            2 
  425000    1.1792807   -6.4922294    202.73576  0.039752109  0.040890113            2 
  426000    1.1757417    -6.505077    203.31053  0.039771231  0.040880168            3 
  427000     1.163918   -6.5385018    203.23556  0.039663458  0.040869815            2 
  428000    1.2068596   -6.5164141    203.78117  0.039677019  0.040859649            4 
  429000    1.1789539    -6.461239    205.20819   0.03986173  0.040849949            4 
  430000    1.1793255   -6.5196427    204.66774  0.039664291  0.040840679            4 
  431000    1.1838945     -6.51918    205.47406  0.039728163  0.040830933            1 
  432000    1.2000596   -6.4560995    206.89259  0.039909836  0.040822587            4 
  433000     1.176617   -6.5160479    206.50973  0.039743983   0.04081382            5 
  434000    1.2034979   -6.5197995    208.00686  0.039939873  0.040805553            4 
  435000    1.1692159   -6.5356216    208.16814  0.039878954   0.04079778            3 
  436000    1.1614318   -6.5226544    208.22937  0.039799191  0.040790155            2 
  437000    1.1662841   -6.5227693    208.61974  0.039782559  0.040781998            2 
  438000    1.1893464   -6.4595481    210.08665  0.039970823  0.040774645            2 
  439000    1.1717298   -6.5127047    210.26067  0.039912808  0.040767439            2 
  440000    1.1695965   -6.5397443    209.31234  0.039642488  0.040759422            2 
  441000    1.2035324   -6.5303483    209.98142  0.039679029  0.040750385            2 
  442000    1.1808497   -6.5007282    210.51849  0.039690514  0.040741227            2 
  443000    1.1892265   -6.5481176    210.25799  0.039551917  0.040731044            3 
  444000    1.1725047   -6.5262396    210.75397  0.039555925  0.040720627            3 
  445000    1.1769562    -6.520199     211.8691  0.039675862  0.040710594            2 
  446000    1.1957589   -6.5169008    211.65302  0.039546529  0.040700264            6 
  447000    1.2066181   -6.5096795    212.61931  0.039638201  0.040689742            2 
  448000    1.2060357    -6.553943     212.4964  0.039526859  0.040679516            3 
  449000    1.1671447   -6.5685297    212.81831  0.039498573  0.040668541            2 
  450000    1.1786875   -6.5478285    213.45459  0.039528628  0.040657335            2 
  451000    1.1680211   -6.4726971    214.25213  0.039588346  0.040646632            4 
  452000    1.1595999   -6.4957227    214.78315  0.039598664  0.040635962            1 
  453000    1.1637089   -6.5281546    214.43287  0.039446812  0.040624334            3 
  454000    1.1855298   -6.5303065    215.14397  0.039490449  0.040613318            2 
  455000    1.1729023    -6.508622    216.45431  0.039643647  0.040602263            2 
  456000    1.1407877   -6.5031266    215.88963  0.039453515  0.040591507            2 
  457000    1.1660495   -6.5786128    216.39561  0.039459448  0.040580729            5 
  458000    1.1718717   -6.5478538    216.73948  0.039435859   0.04057009            2 
  459000    1.1652926   -6.4851683    217.84245  0.039550191  0.040560333            1 
  460000    1.1862992   -6.5444836    218.19706  0.039528453  0.040549931            2 
  461000    1.1998188   -6.5048351    218.94709  0.039578288  0.040540525            2 
  462000    1.1717866    -6.471388    219.12322  0.039524391  0.040532532            2 
  463000    1.1711336   -6.5408802    219.60302  0.039525381  0.040524422            1 
  464000    1.1814945   -6.4730903    220.44804  0.039591962  0.040515835            2 
  465000    1.1820629   -6.5231993    220.00736  0.039427843  0.040506478            1 
  466000    1.1638477   -6.5237877    220.55815   0.03944173  0.040497458            4 
  467000    1.1757549   -6.5130019     221.8577  0.039589168  0.040488033            3 
  468000    1.1785005   -6.5076218    221.32702  0.039410083  0.040478388            4 
  469000     1.186817   -6.5441506    222.48979  0.039532656  0.040468423            2 
  470000    1.1786522   -6.5371877     222.1429  0.039387039  0.040458572            2 
  471000    1.1712648   -6.4935512    223.13855  0.039479574  0.040449133            3 
  472000     1.162581    -6.510361    224.34143  0.039608303  0.040439733            3 
  473000    1.1631725   -6.4933977    225.18496  0.039673179  0.040431769            3 
  474000    1.1635283   -6.5343035    224.52935  0.039474218  0.040423582            4 
  475000    1.1939616   -6.5009086     226.0782  0.039662842  0.040415804            3 
  476000    1.1985162   -6.5504858    226.09083  0.039581727  0.040408345            4 
  477000    1.1593909   -6.5315728    226.94976  0.039648806  0.040400618            4 
  478000    1.1784846   -6.5129734    226.88443  0.039554469   0.04039311            1 
  479000    1.1690331   -6.4984253    227.37438  0.039557129  0.040385447            3 
  480000    1.1546826   -6.5219798    228.19299  0.039616838  0.040377395            2 
  481000      1.17236   -6.4758678    229.00065  0.039674402  0.040370158            1 
  482000    1.1797301   -6.5539242     227.6099  0.039351643  0.040361685            4 
  483000    1.1728032   -6.5062758    229.01362  0.039512357   0.04035273            2 
  484000    1.1750781   -6.5163959    228.40932  0.039326673  0.040343577            2 
  485000    1.1703614   -6.5040685    228.91175  0.039331916  0.040334276            2 
  486000    1.1785194   -6.5199922    229.92791  0.039425224  0.040325395            2 
  487000    1.1942834   -6.5232578    230.01299  0.039358827  0.040316142            1 
  488000    1.1602659   -6.5007975      230.485  0.039358777  0.040306337            2 
  489000    1.1710932   -6.5529412     230.0937  0.039211605  0.040296334            3 
  490000    1.1808065   -6.5102287    231.61482  0.039390275   0.04028683            4 
  491000     1.183625    -6.547593    231.52378    0.0392946  0.040277094            2 
  492000     1.151668   -6.5870488    232.13397  0.039318084  0.040267872            1 
  493000    1.1767995   -6.5187516    232.74525  0.039341658  0.040258968            1 
  494000    1.1832986   -6.5373237    233.72431  0.039427177  0.040251094            3 
  495000    1.1595911   -6.5434532    234.05333  0.039402917   0.04024248            5 
  496000    1.1709973   -6.5275565    234.64326  0.039422591  0.040233442            2 
  497000    1.1747587   -6.5061257    234.58084  0.039332803  0.040224655            2 
  498000    1.1730488   -6.5327424    235.42417  0.039394941   0.04021623            3 
  499000    1.1693576    -6.531229    235.97717  0.039408345  0.040207356            3 
  500000    1.1692829   -6.5313728    235.69859  0.039283099  0.040198973            1 
  501000    1.1690911   -6.5287171    236.26487  0.039298881  0.040191322            2 
  502000    1.1780384   -6.5258436    237.31613  0.039395108  0.040183598            3 
  503000    1.1640687   -6.4922431    238.19147  0.039461808  0.040175618            1 
  504000     1.146764   -6.5142672    238.35782  0.039411014  0.040167226            2 
  505000    1.1767566    -6.562619    237.90179  0.039257721  0.040158633            2 
  506000    1.1820711   -6.5297041    238.64244  0.039302114  0.040149443            2 
  507000    1.1651278   -6.5331349    239.17294  0.039311792  0.040141018            3 
  508000    1.1711318   -6.5696259    239.26017  0.039248715  0.040132206            1 
  509000    1.1551762   -6.5463427    239.33286  0.039183508  0.040123959            2 
  510000    1.1628326   -6.5856383    239.97254  0.039211199   0.04011529            2 
  511000    1.1801641    -6.550474    241.06711  0.039312967  0.040106946            2 
  512000    1.1601022   -6.5338992    242.12268  0.039407988  0.040099635            3 
  513000    1.1674329   -6.5279672    242.33637  0.039365881  0.040093087            2 
  514000    1.1594748   -6.5705463    242.54262  0.039322733  0.040085692            1 
  515000    1.1682406   -6.5363426    243.62326   0.03942124  0.040078541            4 
  516000    1.1882079   -6.5227294     244.4565  0.039479408  0.040071472            8 
  517000    1.1673384   -6.5372122    244.34475  0.039385034  0.040064697            2 
  518000    1.1874822   -6.5575491    245.27971  0.039459413  0.040057493            5 
  519000    1.1322115   -6.5273631    244.40587  0.039243074  0.040049928            3 
  520000    1.1915867    -6.539798    245.80617  0.039392015  0.040042185            1 
  521000    1.1856843   -6.5475011    245.24983   0.03922742  0.040034933            3 
  522000    1.1613016   -6.5417171    246.82753  0.039404139  0.040027788            3 
  523000    1.1719586   -6.5407615     246.3722  0.039256245  0.040020487            4 
  524000    1.1743632   -6.5381139    247.06441  0.039291414  0.040012977            2 
  525000    1.1678538   -6.5747999     246.8908  0.039189016  0.040005058            2 
  526000    1.1901042     -6.58786    246.98861  0.039130008  0.039996867            4 
  527000    1.1782261   -6.5614524     247.6963  0.039167663  0.039988724            5 
  528000    1.1802279   -6.5301242    248.99096  0.039297816  0.039980991            2 
  529000    1.1414922   -6.5311231    249.06043  0.039234473  0.039973315            3 
  530000    1.1583881   -6.4988194    249.15148   0.03917476  0.039965334            2 
  531000    1.1553761   -6.5539832    249.84975  0.039210569  0.039956871            2 
  532000    1.1734969   -6.5567599    251.53248  0.039400451  0.039949182            1 
  533000    1.1677424   -6.5379134    250.88101  0.039224674  0.039941831            1 
  534000    1.1866525   -6.5655253    251.77367  0.039290523  0.039934556            2 
  535000    1.1747945   -6.5501628    251.97912  0.039249084  0.039927373            1 
  536000     1.125995   -6.5667052    251.88683   0.03916151  0.039920223            2 
  537000    1.1276026   -6.5555836    253.43748  0.039329217  0.039913576            4 
  538000    1.1579187   -6.5635568     254.0864   0.03935663   0.03990737            4 
  539000    1.2093766   -6.5436011    253.94184  0.039261262  0.039900761            2 
  540000    1.1482513    -6.523713     254.1532  0.039221172  0.039893166            3 
  541000    1.1732129   -6.5460376    254.45799  0.039195624  0.039885988            2 
  542000    1.1407445   -6.5358547    255.12255  0.039225484  0.039878952            2 
  543000    1.1580081   -6.5632527    255.56028  0.039220424  0.039872079            2 
  544000    1.1724849   -6.5247036    256.12687  0.039235121  0.039865127            3 
  545000    1.1692347    -6.551257    256.65547  0.039243956  0.039857288            3 
  546000    1.1714909   -6.5431487    256.76427  0.039188685  0.039849769            2 
  547000    1.1707413   -6.5286184    256.75533   0.03911568  0.039842282            3 
  548000    1.1584634   -6.5841126    256.61219  0.039022535  0.039834615            4 
  549000    1.1587121   -6.5867831    255.58551  0.038795615  0.039825317            2 
  550000    1.1861712   -6.5775637    256.65784  0.038887552  0.039815635            3 
  551000    1.1630786   -6.5350811    257.53819   0.03895012  0.039805904            3 
  552000     1.194945   -6.5337162    257.88226  0.038931501  0.039796619            2 
  553000    1.1707448   -6.5641384    258.93314   0.03901946  0.039787254            5 
  554000     1.161402   -6.5776659    258.10112  0.038823875  0.039777717            1 
  555000    1.1735568   -6.5689938     258.9027   0.03887428  0.039768065            5 
  556000    1.1465511   -6.5550391    259.42069  0.038881998  0.039758764            5 
  557000    1.1541463   -6.5668739     260.4155  0.038961026  0.039749038            2 
  558000    1.1620497   -6.5125512    260.69987  0.038933672   0.03973983            4 
  559000    1.1698143   -6.5368909    261.64956    0.0390056  0.039729878            2 
  560000    1.1711847   -6.5374601    260.85323  0.038817446  0.039720558            1 
  561000    1.1487723   -6.5741043    260.93921  0.038761023  0.039710507            1 
  562000    1.1703672    -6.528743    261.54648    0.0387821  0.039701028            1 
  563000    1.1656396    -6.554257    262.45743  0.038848051  0.039691392            1 
  564000    1.1627377   -6.5281495    262.23336  0.038746063  0.039681774            3 
  565000    1.1725088   -6.5499286    263.23935  0.038825863  0.039672192            2 
  566000    1.1846445   -6.5507684    263.87452  0.038850783   0.03966261            1 
  567000    1.1612696   -6.5825153    263.77919  0.038768252  0.039653027            2 
  568000    1.1547986    -6.539443    264.05632  0.038740657  0.039644136            3 
  569000    1.1627526   -6.5490586    264.50569  0.038738385  0.039634968            2 
  570000    1.1886234   -6.5522023    264.95092  0.038735514  0.039625212            1 
  571000    1.1782205   -6.5563237    265.77767  0.038788335  0.039615539            6 
  572000    1.1611511   -6.5525996     266.1901  0.038780609  0.039606219            1 
  573000    1.1881279   -6.5560946    267.18137  0.038857093  0.039597342            2 
  574000    1.1497995   -6.5389729    266.94623   0.03875526  0.039588248            1 
  575000     1.151282   -6.5215212    268.21624  0.038871919  0.039579821            2 
  576000    1.1657406   -6.5725911    268.99644  0.038917309  0.039571259            3 
  577000     1.144645   -6.5549146    269.88712  0.038978497  0.039562051            2 
  578000    1.1543985   -6.5209313    269.23271  0.038816712  0.039553404            2 
  579000    1.1915225   -6.6178105    268.00157  0.038572476  0.039543995            5 
  580000    1.1480763   -6.5707201    269.37669  0.038703547  0.039534489            2 
  581000    1.1634248   -6.5828219    269.32106  0.038628953  0.039524679            1 
  582000    1.1760085   -6.5789422    269.68897  0.038615259  0.039515037            4 
  583000    1.1571811   -6.5682575    270.75788  0.038701812  0.039504793            3 
  584000    1.1634938   -6.5296172    271.91067  0.038800039  0.039494843            1 
  585000    1.1501331   -6.5796568    270.27173  0.038500246  0.039485312            5 
  586000    1.1717978   -6.5543372    271.84298  0.038657989  0.039475258            3 
  587000    1.1508348   -6.5688338    272.48215  0.038682871  0.039466069            4 
  588000     1.149073   -6.5791633    272.48894  0.038618047  0.039457066            2 
  589000    1.1480969   -6.5649957    273.34242  0.038673234  0.039447811            2 
  590000    1.1523746   -6.5535824    273.79498  0.038671607  0.039438563            2 
  591000    1.1553049   -6.5278207    273.79489  0.038606161  0.039429154            2 
  592000     1.140333   -6.5647622    273.84583  0.038548118  0.039419656            1 
  593000    1.1703439   -6.5506534     275.9209   0.03877472  0.039410015            3 
  594000    1.1510698   -6.5839215    275.35636  0.038630241  0.039401088            2 
  595000    1.1468174   -6.5386363    274.92239  0.038504536  0.039391605            2 
  596000    1.1484234   -6.5650444    275.66566  0.038543857   0.03938149            4 
  597000    1.1701427    -6.563661    276.36648  0.038577119   0.03937174            3 
  598000    1.1401436    -6.557784    277.46465  0.038665642  0.039362401            2 
  599000     1.151202   -6.5710308    277.94772  0.038668297  0.039353666            1 
  600000    1.1362302   -6.5690488    278.40783  0.038667754  0.039344541            1 
  601000    1.2045897   -6.5831221    278.50826  0.038617341  0.039335631            1 
  602000    1.1411798    -6.540057    278.44748  0.038544778  0.039326473            4 
  603000     1.157437   -6.5317788    278.38037  0.038471582  0.039316769            2 
  604000    1.1479654   -6.5704805    278.37691  0.038407411  0.039306699            3 
  605000    1.1777331   -6.5731191    279.82501  0.038543389  0.039296758            3 
  606000    1.1327044   -6.5789584    279.48034   0.03843239   0.03928687            1 
  607000    1.1696105    -6.585353     279.0671  0.038312342  0.039276505            2 
  608000    1.1447055   -6.5911702    279.73939  0.038341473   0.03926568            3 
  609000    1.1683724   -6.5844752    281.23828  0.038483617  0.039255404            5 
  610000    1.1414257   -6.5406325    281.02738  0.038391718  0.039246173            3 
  611000    1.1424166   -6.5648681    281.07837  0.038335839  0.039236675            2 
  612000    1.1537145   -6.5859735    282.22565  0.038429418  0.039227232            2 
  613000     1.183565   -6.5886556    282.50824  0.038405144  0.039217493            1 
  614000    1.1625947   -6.5723122    283.39717  0.038463243  0.039208195            3 
  615000    1.1207687   -6.5665115    283.49858  0.038414442  0.039198912            3 
  616000    1.1741939   -6.5816655     284.5306  0.038491693   0.03918992            2 
  617000    1.1411366   -6.5618611    285.13442  0.038510861  0.039180669            1 
  618000    1.1424554   -6.5641345    284.15864  0.038316968  0.039171678            3 
  619000    1.1650173    -6.577092    286.27976  0.038540624   0.03916279            2 
  620000    1.1516737   -6.5394931    286.16756  0.038463382  0.039153698            4 
  621000    1.1654976   -6.5771319    286.64601  0.038465648  0.039144281            3 
  622000     1.147144   -6.5659572     286.0237  0.038320431  0.039135172            1 
  623000    1.1677697   -6.5687122    286.65919  0.038343926  0.039125825            5 
  624000    1.1633962   -6.5513673    288.18616  0.038486399  0.039116897            1 
  625000    1.1643613   -6.5914851    288.84063  0.038512084  0.039108028            2 
  626000     1.139235   -6.5709597     288.3738  0.038388418   0.03909917            2 
  627000    1.1473041   -6.5711018    289.45969  0.038471516  0.039090116            4 
  628000    1.1504251   -6.5882125    289.57022  0.038424923   0.03908191            3 
  629000    1.1522037     -6.55627    290.68761  0.038511872  0.039073904            2 
  630000    1.1652166   -6.5624483    291.71828  0.038587074  0.039065748            5 
  631000    1.1376994   -6.5803001     291.2037  0.038457963  0.039058047            2 
  632000    1.1172016   -6.5790343    291.42064  0.038425717  0.039050421            1 
  633000    1.1391332   -6.5606101    291.83064  0.038418989  0.039041902            4 
  634000     1.146713   -6.5482407    292.28335  0.038417896    0.0390336            1 
  635000    1.1541599   -6.6020882    292.72686  0.038415599  0.039025429            3 
  636000    1.1406335   -6.5663181    293.15143  0.038410827  0.039017318            1 
  637000    1.1400285   -6.6219502    293.63218  0.038413419  0.039009434            2 
  638000    1.1371025    -6.558184    294.03204  0.038405439   0.03900138            3 
  639000    1.1465683   -6.5831303    295.48535  0.038534866  0.038993769            2 
  640000    1.1647248   -6.6014963    295.33207  0.038454696  0.038986365            4 
  641000    1.1223587   -6.5745646    296.21304  0.038509236  0.038979092            2 
  642000    1.1270886   -6.5679843    296.11804  0.038436922  0.038972379            4 
  643000    1.1262362   -6.6251527    296.12924  0.038378596  0.038965484            2 
  644000    1.1249891   -6.5828621    298.08866   0.03857255  0.038958237            3 
  645000    1.1585271   -6.5934528    297.75546  0.038469698  0.038951578            2 
  646000    1.1708957   -6.5922843    298.43426  0.038497712  0.038944449            3 
  647000    1.1901062   -6.6082759    299.30732  0.038550659  0.038938069            4 
  648000    1.1443517   -6.5761891    300.32321  0.038621812  0.038931689            1 
  649000    1.1362947   -6.5602512    300.85748  0.038630904  0.038925648            4 
  650000    1.1408556   -6.5941099     299.7092  0.038424257  0.038919273            3 
  651000    1.1358071   -6.5724346     300.6727  0.038488569  0.038913366            5 
  652000    1.1457654   -6.5568674    301.39503   0.03852186  0.038907822            2 
  653000    1.1409042   -6.5956712    301.66703   0.03849758  0.038902146            2 
  654000    1.1848985   -6.5823808    302.56106  0.038552632  0.038896281            2 
  655000    1.1418528   -6.5450363    302.70169  0.038511665  0.038890546            1 
  656000    1.1181213   -6.5647657    303.43832  0.038546535  0.038884742            2 
  657000    1.1523614   -6.5867158    304.28369  0.038595089  0.038879067            2 
  658000     1.129571   -6.5601554    304.96694  0.038622966  0.038873428            2 
  659000    1.1459306   -6.6022883    304.74116  0.038535807   0.03886751            5 
  660000    1.1499722   -6.5514187      305.638  0.038590657  0.038861879            3 
  661000    1.1410777    -6.557711    306.51375  0.038642681  0.038856291            2 
  662000     1.139911   -6.5220904     306.3667  0.038565798  0.038850638            3 
  663000     1.126845   -6.5754825    307.28455  0.038622995  0.038845161            3 
  664000    1.1457012   -6.5707285    306.56116  0.038474041   0.03883958            2 
  665000    1.1565593   -6.5864107    307.47899  0.038531202  0.038834124            2 
  666000    1.1635963   -6.5902805    308.42611  0.038591855  0.038828452            2 
  667000    1.1493783   -6.5646001    307.70363  0.038443732  0.038822749            6 
  668000    1.1543424   -6.5529619    307.68367  0.038383691  0.038816766            1 
  669000     1.122365   -6.5607504    309.04729  0.038496174  0.038810491            2 
  670000    1.1228915   -6.5575007     308.6458  0.038388781  0.038804037            1 
  671000    1.1400235   -6.5859748    309.21135  0.038401807  0.038797653            6 
  672000    1.1334059   -6.6472033     308.0754  0.038203795  0.038789997            3 
  673000      1.14624   -6.6041044    308.88686  0.038247506  0.038782928            5 
  674000    1.1375135    -6.605166    308.98107  0.038202407  0.038775844            8 
  675000    1.1170095   -6.6166452    308.92742  0.038139188  0.038767454            3 
  676000    1.1302024   -6.6161958    309.91902  0.038205008  0.038759552            4 
  677000    1.1320002   -6.6312935    310.62324  0.038235258   0.03875192            1 
  678000     1.160763   -6.6128686    311.02506  0.038228253   0.03874474            2 
  679000    1.1569715   -6.5859493    310.90917  0.038157728  0.038737464            2 
  680000    1.1147187   -6.5953915    312.47701  0.038293751  0.038730256            5 
  681000    1.1372779   -6.6000863    313.33134  0.038342063  0.038723305            3 
  682000    1.1408195   -6.6048316    313.29722  0.038281674    0.0387163            6 
  683000    1.1547284   -6.5720986     313.6289  0.038266093  0.038709218            2 
  684000    1.1592422   -6.6424772    312.80694  0.038110008  0.038702166            2 
  685000    1.1289292   -6.6033646    314.25605  0.038230663   0.03869468            2 
  686000    1.1614884   -6.5817886    314.67726  0.038226101  0.038687818            4 
  687000    1.1263509   -6.6026853    315.62083  0.038284914  0.038680796            5 
  688000    1.1329185   -6.5827312    315.59524  0.038226167  0.038674174            1 
  689000    1.1355803   -6.5988328    316.79429   0.03831571  0.038667791            4 
  690000     1.133639   -6.5695392    316.96513  0.038280813  0.038661153            2 
  691000    1.1415269   -6.6257265    316.39479  0.038156632   0.03865458            2 
  692000    1.1468145   -6.5576233    317.50787  0.038235533  0.038647791            3 
  693000    1.1568564    -6.558608    318.72702  0.038326962  0.038641259            1 
  694000    1.1417159   -6.6232325    317.92645  0.038175606   0.03863477            2 
  695000    1.1523435   -6.5912785    319.95676   0.03836412  0.038628409            1 
  696000    1.1477866   -6.5988603    319.28033  0.038228009  0.038622537            1 
  697000    1.1355675   -6.6193296    320.53246  0.038322867  0.038616331            3 
  698000    1.1614462   -6.6071167    319.55086  0.038150771  0.038609661            2 
  699000    1.1514988   -6.5662526    321.27254  0.038301447  0.038602924            2 
  700000    1.1215025   -6.5630064    320.54171  0.038159727   0.03859671            4 
  701000    1.1556225   -6.6063175    321.78556  0.038253157  0.038590787            3 
  702000    1.1264687   -6.6087619    322.30167  0.038259932  0.038585149            2 
  703000    1.1482667   -6.6146345    322.85655  0.038271283  0.038579353            4 
  704000    1.1422927   -6.5538849    324.86391  0.038454534  0.038574147            1 
  705000    1.1497943   -6.6227549    323.89317  0.038285245  0.038569064            2 
  706000    1.1294913   -6.6340571    324.72007  0.038328621  0.038563497            3 
  707000     1.133929    -6.542285    324.59556  0.038259731   0.03855839            3 
  708000     1.110509   -6.5979142    324.03624  0.038139858  0.038552578            1 
  709000    1.1506656   -6.5939833    325.94124  0.038309972  0.038546659            1 
  710000    1.0949856   -6.5869259    325.83402   0.03824343  0.038541041            6 
  711000    1.1351812   -6.6387971     325.0699  0.038100082  0.038535393            5 
  712000     1.151969   -6.5875838    327.08785  0.038282754  0.038529353            2 
  713000    1.1297439   -6.5928939    326.10566  0.038114266  0.038523714            3 
  714000    1.1335608    -6.623841     326.6932  0.038129458  0.038517591            1 
  715000    1.1149859    -6.590107    327.56726  0.038178003  0.038511527            3 
  716000    1.1415378   -6.6087366    328.33637  0.038214195   0.03850558            2 
  717000    1.1649877   -6.5818197    328.68359  0.038201254  0.038499656            3 
  718000    1.1516466   -6.6096258    327.76145  0.038041022  0.038493424            4 
  719000    1.1378669   -6.6547427    328.11005  0.038028517  0.038487311            2 
  720000    1.1330174   -6.5748984    330.54033  0.038256983  0.038481552            2 
  721000    1.1574909   -6.5912463    331.71527  0.038339721   0.03847579            2 
  722000    1.1386853   -6.5999209    329.82578  0.038068534  0.038470261            3 
  723000    1.1309676   -6.6004105    331.46949  0.038205335  0.038464446            2 
  724000     1.114024   -6.5885423    331.40435  0.038145068   0.03845836            2 
  725000    1.1254144   -6.5762066    331.91706  0.038151386  0.038452015            2 
  726000    1.1453864   -6.6147409     332.1436  0.038124839  0.038445334            3 
  727000    1.1334698   -6.5893997    331.76176  0.038028629  0.038438909            2 
  728000    1.1419663   -6.6337484    331.34961  0.037929213  0.038431963            3 
  729000    1.1406663   -6.6014657    331.98534  0.037949856  0.038424928            1 
  730000    1.1379292    -6.606047    333.11471  0.038026793   0.03841833            2 
  731000    1.1460479   -6.5978941    334.27583  0.038107139  0.038411604            1 
  732000    1.1202819   -6.6048324    333.61148   0.03797945  0.038404863            4 
  733000    1.1163015   -6.5687006    334.23643  0.037998685  0.038398049            1 
  734000    1.1491064   -6.5850299     334.0842  0.037929632  0.038390711            4 
  735000    1.1045927    -6.647845    333.80398  0.037846256  0.038383438            1 
  736000    1.1334373    -6.609655    335.55933  0.037993583  0.038375603            3 
  737000    1.1216333   -6.6118256    335.06909  0.037886599  0.038368386            1 
  738000    1.1571552   -6.5745613    336.07905  0.037949306  0.038361034            3 
  739000    1.1088446   -6.5927553    336.06087  0.037895904  0.038353819            1 
  740000    1.1274382   -6.6190403    336.26206  0.037867349  0.038346853            2 
  741000    1.1115724   -6.6028417    337.59672  0.037966343  0.038340404            2 
  742000    1.1375237   -6.6352045    337.17875  0.037868233  0.038333528            2 
  743000    1.1356554   -6.6552982    337.49605  0.037852854  0.038326802            1 
  744000    1.1217244   -6.5836233    338.54308  0.037919251  0.038320248            5 
  745000    1.1456092   -6.6158233    338.04318  0.037812436  0.038312964            2 
  746000    1.1385123   -6.6360668    339.07463   0.03787697  0.038305873            2 
  747000    1.1391546    -6.600563    339.57578  0.037882171  0.038298593            2 
  748000    1.1478077    -6.595326    339.23049  0.037793058  0.038291738            2 
  749000    1.1467134   -6.6285889    340.45209  0.037878514  0.038284761            3 
  750000    1.1382916   -6.5808836    341.37375  0.037930416  0.038278045            3 
  751000    1.1241474    -6.591474    342.45231  0.037999591  0.038271778            3 
  752000    1.1397218   -6.6128575    341.41701  0.037834332  0.038265514            1 
  753000    1.1188964   -6.5968432    342.68162  0.037924039  0.038259291            3 
  754000    1.1226561    -6.607312    342.72231  0.037878239  0.038252624            2 
  755000    1.1238743   -6.6077864    343.82172  0.037949417  0.038246207            2 
  756000    1.1559252   -6.5955045    344.71965  0.037998197  0.038239731            2 
  757000    1.1189718   -6.6406017    343.43313  0.037806377  0.038233581            3 
  758000    1.1438444   -6.5921221    344.41764  0.037864736  0.038227192            4 
  759000    1.1367386    -6.565352    345.73111   0.03795906  0.038220943            2 
  760000    1.1539465   -6.6217894    345.50555  0.037884381  0.038214593            4 
  761000    1.1413893   -6.5991175    346.17602  0.037908018  0.038207497            3 
  762000    1.1118566   -6.6236432    346.32472  0.037874532  0.038200717            1 
  763000    1.1372244   -6.6472465    346.13271  0.037803922  0.038193816            2 
  764000    1.1181383   -6.5941926    346.85205  0.037832903     0.038187            2 
  765000    1.1252353    -6.615608    347.48256   0.03785213    0.0381805            3 
  766000    1.1284139    -6.641352    347.49513  0.037804083  0.038173704            2 
  767000     1.140531   -6.6261403    347.97677  0.037807124  0.038167176            4 
  768000    1.1486171   -6.6147749    348.22991  0.037785363  0.038160008            5 
  769000    1.1352892   -6.5946026     348.8693  0.037805516  0.038153033            2 
  770000    1.1104642   -6.6242823    348.91214  0.037761054    0.0381459            4 
  771000    1.1257861   -6.6368678    348.81918  0.037702029  0.038138397            1 
  772000    1.1394902   -6.6339536    349.45266  0.037721574  0.038131519            2 
  773000    1.1169154    -6.595242    349.26039  0.037652047  0.038124338            2 
  774000    1.1202069   -6.6661621    349.39935  0.037618363  0.038117371            2 
  775000    1.1176343   -6.6392937    350.95779  0.037737397  0.038109984            3 
  776000    1.1308899   -6.6231594    350.90312  0.037682895   0.03810311            3 
  777000    1.0999361   -6.6099419    352.18768  0.037772167  0.038096266            2 
  778000    1.1257243   -6.6395176    351.85925  0.037688437  0.038089395            9 
  779000    1.1282076   -6.6421942     352.3186  0.037689196  0.038082506            9 
  780000    1.1271256   -6.6265359     352.8655  0.037699306  0.038075385            3 
  781000     1.130479   -6.6354543     352.9435  0.037659357  0.038068332            2 
  782000    1.1168758   -6.6032036      353.293  0.037648444  0.038061339            2 
  783000    1.1343344   -6.6134814    353.49565  0.037621929  0.038054036            2 
  784000    1.1321121   -6.6955001    353.25287  0.037548137  0.038046867            3 
  785000    1.1023414   -6.5887443    354.63585  0.037647118  0.038039998            3 
  786000    1.1343036   -6.6769217    353.57887  0.037487158  0.038033082            2 
  787000    1.0941405   -6.5930348    355.14223  0.037605065  0.038025913            1 
  788000    1.1361226    -6.650705    355.20525  0.037564007  0.038018908            2 
  789000    1.1115443   -6.6568963    354.42161   0.03743363  0.038011706            3 
  790000     1.144984   -6.6761236    356.32852  0.037587396  0.038004563            4 
  791000    1.1370818   -6.6440348    356.60593  0.037569103  0.037997631            3 
  792000    1.1390363   -6.6086466     356.8998  0.037552588  0.037990957            4 
  793000    1.1180618   -6.5910686     356.2159  0.037433365  0.037983726            2 
  794000    1.1124904   -6.6078401    356.69254  0.037436245  0.037976125            3 
  795000    1.1190627   -6.6201902    357.44189  0.037467703  0.037967944            2 
  796000    1.1098674   -6.6224708    357.32021  0.037407894  0.037959954            2 
  797000    1.1207256   -6.6296245    358.91163  0.037527356  0.037952005            3 
  798000    1.0859541   -6.6422761    357.82113  0.037366451  0.037943501            2 
  799000    1.1172795   -6.6251879    358.22126  0.037361416  0.037935388            2 
  800000    1.1321975   -6.6360548    359.93154  0.037492869  0.037927239            2 
  801000    1.1402531   -6.6269205    358.82748  0.037331198  0.037918923            3 
  802000    1.1376667   -6.6123348    358.83865  0.037285812  0.037910577            2 
  803000    1.1267485   -6.6096918    360.71697  0.037434306  0.037902406            2 
  804000    1.0956539    -6.636557    359.65245   0.03727741  0.037894157            3 
  805000    1.1304285   -6.6109921    359.89926  0.037256652  0.037885653            2 
  806000    1.1258349   -6.6229667    360.24848  0.037246534   0.03787711            5 
  807000    1.1208914   -6.6209043    361.24099   0.03730287  0.037868528            2 
  808000    1.1556977   -6.6043661     362.0622  0.037341399  0.037860407            3 
  809000    1.1433881   -6.6188944    363.89253  0.037483779  0.037852822            4 
  810000    1.1077335     -6.62637    363.70406  0.037418113   0.03784514            4 
  811000    1.1136948   -6.6129523    364.68564  0.037472836  0.037837431            3 
  812000    1.1080381   -6.5945993    364.01229  0.037357583  0.037829726            1 
  813000     1.100395   -6.6194082    364.04966  0.037315463  0.037821967            4 
  814000    1.1267301   -6.6045191    365.13963  0.037381207    0.0378145            2 
  815000    1.1420823    -6.629919    365.38017  0.037359935   0.03780657            1 
  816000      1.12403   -6.6331008    365.52191  0.037328626  0.037798646            2 
  817000    1.1072995   -6.6093361    365.27048  0.037257291  0.037790531            6 
  818000     1.128768   -6.6363296    365.74407   0.03725999  0.037782356            2 
  819000    1.1315749   -6.6487037    365.83783  0.037224037  0.037774376            2 
  820000    1.1261213   -6.6521662    366.28772  0.037224362  0.037766333            3 
  821000    1.1460066   -6.6281588     367.7103  0.037323416  0.037758214            3 
  822000    1.1120601   -6.6642933    365.32762  0.037036458  0.037749898            1 
  823000    1.1145584   -6.6110467    367.93712  0.037255682  0.037741444            4 
  824000    1.0984371   -6.6488835    367.38207  0.037154336  0.037732986            1 
  825000    1.0991588   -6.6139081    368.69768   0.03724219  0.037724723            3 
  826000    1.1081982   -6.6537563    367.48199  0.037074454  0.037716353            3 
  827000    1.0997089   -6.6311858    368.17899  0.037099858  0.037708454            2 
  828000    1.1259565   -6.6542057    369.11175  0.037148928  0.037700245            2 
  829000    1.1313549   -6.6125029    369.41444  0.037134544  0.037692113            1 
  830000    1.1176854   -6.6529645    370.31327  0.037180048  0.037684261            1 
  831000    1.1174017   -6.6231871    369.81924  0.037085764  0.037676121            7 
  832000    1.1210028   -6.6563061     370.9308  0.037152524  0.037667519            2 
  833000    1.1221656   -6.5989429    371.27545  0.037142402  0.037659004            2 
  834000    1.1266769   -6.6352609    371.47087  0.037117393  0.037650527            4 
  835000    1.1106909   -6.6041079    371.85855  0.037111632  0.037641884            2 
  836000    1.1138632   -6.5644057    372.46421  0.037127613  0.037633627            2 
  837000    1.1063817   -6.6154183    373.11163  0.037147713   0.03762529            2 
  838000     1.133521    -6.618662    373.47649  0.037139666  0.037617006            2 
  839000    1.1398889   -6.6519439    373.98382  0.037145791  0.037608775            2 
  840000    1.1215886   -6.6456319    373.54907  0.037058439  0.037600172            2 
  841000    1.1332464    -6.654468    373.26769  0.036986494  0.037591194            1 
  842000    1.0954016   -6.5811612    373.65018  0.036980422  0.037582461            3 
  843000    1.1318941   -6.6099334    374.47423  0.037018014  0.037573413            3 
  844000    1.0992592    -6.643129    373.69699  0.036897412  0.037564592            3 
  845000    1.1340286   -6.6586388     374.2645  0.036909714  0.037555746            2 
  846000    1.1235467   -6.6259719    375.59517   0.03699716   0.03754711            2 
  847000     1.143304   -6.5839095     377.6884  0.037159426  0.037538847            2 
  848000    1.0984516   -6.6145107    376.34223  0.036983316  0.037530509            2 
  849000    1.1110553   -6.6676012    376.86047  0.036990623  0.037521957            2 
  850000    1.1226324   -6.6253161    377.20063  0.036980454  0.037513697            3 
  851000    1.1093334    -6.636102    378.18595  0.037033486  0.037505171            4 
  852000    1.1029043   -6.6460629    377.64725  0.036937329  0.037496749            3 
  853000    1.1005794   -6.6335865    378.93622  0.037019951  0.037488407            2 
  854000    1.1387459   -6.6850091    378.23784  0.036908454  0.037480053            2 
  855000    1.0853455   -6.6650839    379.16042  0.036955207  0.037471404            3 
  856000    1.1060742   -6.6503538    379.06765  0.036903003  0.037462975            4 
  857000    1.1205623    -6.606309    380.99499  0.037047354  0.037454547            4 
  858000    1.1429604   -6.6380362    379.25706  0.036835379  0.037446372            2 
  859000    1.1208739   -6.6648299     379.4824  0.036814357  0.037438071            3 
  860000    1.1198541   -6.6474199    381.61565  0.036978261  0.037429366            3 
  861000    1.1248041   -6.6094159    380.53901  0.036831108  0.037420802            3 
  862000    1.1009374   -6.6506227    382.74337  0.037001486  0.037412717            2 
  863000     1.123234   -6.5964506    383.12355  0.036995321  0.037404989            3 
  864000    1.1053371   -6.6261584    383.55864  0.036994467  0.037397408            3 
  865000    1.1219535   -6.6101248    384.27432  0.037020648  0.037389507            3 
  866000    1.1323691   -6.6340839    382.98188   0.03685353  0.037381284            8 
  867000     1.127601   -6.6732112    383.81842  0.036891429  0.037373452            3 
  868000     1.118952   -6.6406308    384.62765  0.036926618  0.037365686            1 
  869000    1.1111762   -6.6446739     385.2427  0.036943105  0.037357851            3 
  870000    1.1154816   -6.6309938    386.51315  0.037022332  0.037349969            5 
  871000    1.1312934   -6.6686315    385.48229  0.036881199  0.037342189            5 
  872000    1.0983798   -6.6407496    385.13692  0.036805898  0.037334313            1 
  873000    1.0865835   -6.6224655    387.38156  0.036978003    0.0373267            4 
  874000    1.1379655   -6.6394506    387.44306  0.036941558  0.037319346            2 
  875000    1.1065493   -6.6555842     386.9138  0.036848934  0.037311826            2 
  876000    1.1121551   -6.6651603    388.02424  0.036912503  0.037304123            3 
  877000    1.1095356    -6.640382    388.67471  0.036932223   0.03729609            3 
  878000    1.1185322    -6.669359    387.39694  0.036768882  0.037288546            5 
  879000    1.1432684   -6.6363415    388.24555  0.036807504  0.037280879            8 
  880000    1.0864646   -6.6483029    390.02931  0.036934594  0.037273267            7 
  881000    1.1173205     -6.65047    390.20133  0.036908942  0.037265401            2 
  882000    1.1214041   -6.6156765    389.94498  0.036842874  0.037257569            3 
  883000    1.0943436   -6.6213366    390.19603  0.036824842  0.037249728            3 
  884000    1.1159909   -6.6226347    390.39133  0.036801596  0.037241995            3 
  885000    1.1132065   -6.6526747    390.77372  0.036796018  0.037234423            3 
  886000     1.122054   -6.6325309    390.32823  0.036712587  0.037226661            2 
  887000     1.148468     -6.61645    392.71065  0.036895025  0.037219127            2 
  888000    1.1187871   -6.6748945    392.87189  0.036868608  0.037211827            1 
  889000    1.1126424   -6.6422987    392.94747  0.036834221  0.037204087            3 
  890000    1.0912057   -6.6495229    392.59979   0.03676028  0.037196455            5 
  891000    1.0953434   -6.6286853    393.93386  0.036843795  0.037188932            4 
  892000    1.1180575   -6.6206793    395.69424  0.036966951  0.037181962            2 
  893000    1.1106148   -6.6331383    394.60394  0.036823809  0.037174825            3 
  894000    1.1051058    -6.665541     394.3822   0.03676195  0.037167583            2 
  895000    1.0966548   -6.6930784    393.48533  0.036637368  0.037159901            3 
  896000    1.0975594   -6.6708162    395.76089  0.036808119   0.03715224            2 
  897000    1.1003374    -6.666967    396.38086  0.036824681  0.037144687            2 
  898000    1.1162806   -6.6412416    395.89148  0.036738259  0.037136769            3 
  899000    1.1086302   -6.6710542    396.73706  0.036775775  0.037129148            4 
  900000    1.0833273   -6.6576375    395.89844  0.036657263   0.03712148            1 
  901000    1.0807831    -6.668566     396.5514   0.03667697  0.037113833            2 
  902000    1.0909152   -6.6191175    397.32935   0.03670818   0.03710612            2 
  903000    1.1040676   -6.6706892    396.08102  0.036552327  0.037098183            3 
  904000    1.1204625     -6.69288    396.84872  0.036582662  0.037090307            2 
  905000    1.1090207   -6.6725976       397.55  0.036606814  0.037082259            2 
  906000    1.0765608     -6.65991    398.51368  0.036655047   0.03707418            2 
  907000    1.1160466   -6.6702468    397.89264  0.036557575  0.037066062            3 
  908000    1.1084402   -6.6914496    397.31509  0.036464307  0.037057601            4 
  909000    1.1173451   -6.6697748     399.0859  0.036586533  0.037049227            3 
  910000    1.1141899   -6.6839872    399.49122  0.036583445  0.037040942            2 
  911000    1.0903443   -6.6186754    399.96561  0.036586682   0.03703285            3 
  912000    1.0993768    -6.666238    400.54199  0.036599232  0.037024554            3 
  913000     1.099006   -6.6360209     400.0852  0.036517452  0.037016495            3 
  914000     1.104205   -6.6696511    400.83209  0.036545595  0.037008119            3 
  915000    1.1060644   -6.6652819    401.21915  0.036540906  0.036999791            2 
  916000    1.1294618   -6.6627115    400.41729  0.036428065  0.036991259            2 
  917000    1.0965452   -6.6698233    401.62428  0.036498026   0.03698281            3 
  918000    1.0955472   -6.7158026    402.00607  0.036492926  0.036974319            3 
  919000     1.145353   -6.6784336    403.31995  0.036572356  0.036965868            3 
  920000    1.1072303   -6.6706146    401.93136  0.036406826  0.036957583            8 
  921000    1.1142236   -6.7071542    403.23613  0.036485354  0.036949278            1 
  922000    1.1180113   -6.6249234    404.38051  0.036549214  0.036940636            4 
  923000    1.0797041   -6.6909174    402.26663  0.036318764  0.036931963            3 
  924000    1.0874497   -6.6754955    404.48875  0.036479865  0.036923545            2 
  925000    1.0924525    -6.686108    404.37133   0.03642985  0.036915083            1 
  926000    1.0907269   -6.6585422    403.97995  0.036355287  0.036906503            2 
  927000    1.0832772   -6.6723091    405.20486  0.036426183  0.036898158            5 
  928000    1.1109032   -6.6708674    405.34776  0.036399763  0.036889975            3 
  929000    1.0963906   -6.6445238    406.92655  0.036502202  0.036881651            2 
  930000    1.1043369   -6.6495453     405.5255  0.036337411  0.036873315            2 
  931000    1.0793017   -6.6690677    407.50919  0.036475939  0.036865179            1 
  932000    1.0956978   -6.6730735    405.77652  0.036281877  0.036856918            3 
  933000    1.0714555   -6.6417537    407.35876  0.036384312  0.036848579            3 
  934000    1.0999345   -6.6748252    407.68558  0.036374516   0.03684065            3 
  935000    1.0964109   -6.6709649    407.32345  0.036303338  0.036832429            2 
  936000    1.1067699   -6.6809726    408.19814  0.036342427  0.036824303            2 
  937000    1.0891475   -6.6515535    409.34277   0.03640544  0.036816314            2 
  938000    1.0767877   -6.6631115    408.72759  0.036311975   0.03680823            4 
  939000    1.0939067   -6.7022023    408.59555  0.036261586  0.036800174            2 
  940000    1.0953113   -6.6894203    411.23529  0.036457029  0.036792268            3 
  941000    1.0930848   -6.6491915    412.61966  0.036540884  0.036784338            4 
  942000    1.0844887   -6.6597447    411.22608  0.036378811  0.036776326            3 
  943000    1.0953744   -6.6789097     411.0376  0.036323577  0.036768365            3 
  944000    1.1045809   -6.6674438    411.72442  0.036345729  0.036760056            3 
  945000    1.0847514   -6.6576772    411.17917  0.036259186  0.036751861            3 
  946000    1.1101418   -6.6479238    410.19374  0.036134051  0.036743354            2 
  947000    1.0875043    -6.673708    411.38686  0.036200885  0.036734748            3 
  948000    1.1006668   -6.7003589    410.99199  0.036127988  0.036725955            3 
  949000    1.0923523   -6.6643011    411.77129   0.03615835   0.03671731            1 
  950000    1.0944085   -6.6667921    412.46237  0.036180909  0.036708695            4 
  951000    1.1124891   -6.7154478    413.32118  0.036218119  0.036700056            3 
  952000    1.0968786   -6.7158896    411.96213  0.036061111  0.036691366            4 
  953000     1.090925   -6.6669658    414.13279   0.03621308  0.036682463            2 
  954000    1.1009108   -6.6948917    414.63888  0.036219329  0.036674061            2 
  955000    1.0787487   -6.6808621     414.4011  0.036160655  0.036665373            6 
  956000    1.0842057   -6.6832078    414.11737  0.036098097  0.036656595            2 
  957000    1.0996918   -6.7151527    415.85416  0.036211612  0.036648084            2 
  958000    1.0775512   -6.6837852    415.08684  0.036107066  0.036639716            5 
  959000    1.0996877   -6.6427591    415.67497  0.036120522  0.036631364            2 
  960000    1.1202162   -6.7026087    416.29567  0.036136777  0.036623023            6 
  961000    1.1036451   -6.6937021    416.92877  0.036154073  0.036614315            2 
  962000    1.0921004   -6.6700141    416.82947  0.036107889  0.036605928            2 
  963000    1.0928249   -6.7284041    415.89912  0.035989885  0.036597415            4 
  964000    1.1114473   -6.6706315    418.58118  0.036184403  0.036588902            3 
  965000    1.0927125    -6.657884    418.26706  0.036119781  0.036580409            2 
  966000    1.0962077   -6.6789505    418.73354  0.036122631  0.036572429            2 
  967000    1.1059925   -6.6634824    418.74005  0.036085837  0.036564256            3 
  968000    1.0894588   -6.6609855    420.44271  0.036195137  0.036555962            3 
  969000    1.1164447   -6.6614726    420.82408  0.036190581  0.036547861            4 
  970000    1.0852279   -6.6880166    418.68368  0.035969388  0.036539691            2 
  971000    1.0865739   -6.6982323    419.75618  0.036024389   0.03653138            2 
  972000    1.0788168   -6.6565567    420.57059  0.036057149  0.036523258            3 
  973000    1.0844147   -6.6431563     421.2647  0.036079539  0.036515138            3 
  974000     1.095529   -6.6708146    420.15807  0.035947816  0.036506669            2 
  975000    1.0971623   -6.7013839    421.12483  0.035993576  0.036498121            4 
  976000    1.0910659   -6.6734658    422.65845  0.036087641  0.036489977            3 
  977000    1.0856495   -6.6666234    423.73025  0.036142123  0.036481827            2 
  978000    1.0933811   -6.6597117    423.00653  0.036043501   0.03647411            3 
  979000    1.0813103   -6.7013448    423.19852  0.036023026  0.036466065            3 
  980000    1.1100168   -6.6794876    424.08971   0.03606205  0.036457803            8 
  981000    1.0879438   -6.6631651    425.64876  0.036157727  0.036449842            2 
  982000    1.0875495    -6.680556    425.00064  0.036065906  0.036441988            3 
  983000    1.1002139   -6.6749323    425.97713  0.036111998  0.036434252            4 
  984000    1.0787946   -6.7012745      426.431  0.036113737   0.03642646            2 
  985000    1.0921227   -6.6552708     427.6473  0.036179974  0.036418645            4 
  986000     1.100209   -6.7014548    425.83817  0.035990379  0.036410841            1 
  987000    1.1036572   -6.6717255    427.51738  0.036095692  0.036403122            3 
  988000     1.101143    -6.670999    427.21323  0.036033504  0.036394963            4 
  989000    1.1092266    -6.690679    427.23939  0.035999275  0.036386797            3 
  990000    1.1063614   -6.6801194    427.63287  0.035996033  0.036378487            3 
  991000    1.1024455   -6.6786558    427.56112  0.035953676  0.036370207            2 
  992000    1.1206825    -6.733025    427.63869  0.035923949  0.036362066            2 
  993000     1.082349   -6.6910823    428.88138  0.035992059  0.036354056            2 
  994000    1.0957179   -6.6937872     428.8184   0.03595057  0.036346153            2 
  995000    1.1210701   -6.6781406    429.01937  0.035931271  0.036338384            2 
  996000    1.0827043   -6.6868966    429.68083  0.035950538  0.036330367            2 
  997000    1.0986872   -6.6778666    429.84543  0.035928237  0.036322542            3 
  998000    1.1383225   -6.6810246    430.58166  0.035953713  0.036314934            3 
  999000    1.0617591   -6.6638385    431.42262  0.035987873  0.036307186            5 
 1000000    1.0895971   -6.6969668    431.87629  0.035989691  0.036299517            1 
 1001000    1.0791161   -6.6910223    431.90647  0.035956249  0.036291806            1 
 1002000      1.07617   -6.6981429    431.16565  0.035858753  0.036283925            1 
 1003000    1.1031403   -6.6585673    432.87043  0.035964642  0.036276064            4 
 1004000    1.0881068   -6.6485838    433.30125  0.035964579   0.03626812            3 
 1005000    1.0814831   -6.6115464     434.0618  0.035991858  0.036260388            2 
 1006000    1.1064828   -6.6947978    433.19198  0.035884027  0.036252493            3 
 1007000    1.0849774   -6.6680654    433.48924  0.035872992  0.036244575            1 
 1008000    1.1009323   -6.6625198    434.82483   0.03594782  0.036236707            4 
 1009000    1.0935477   -6.6866573    434.93196  0.035921041  0.036229179            2 
 1010000    1.0785267   -6.6620549    435.38648  0.035922977  0.036221148            3 
 1011000    1.0963086   -6.6830817    434.71338  0.035831964  0.036213135            3 
 1012000    1.1002526   -6.6814269    434.28117  0.035760966  0.036204889            4 
 1013000     1.108184   -6.6968982    434.35801  0.035731985  0.036196757            2 
 1014000    1.0878485   -6.6751604     435.9102   0.03582431  0.036188802            2 
 1015000    1.0933671   -6.6963795    436.08291  0.035803194  0.036180952            6 
 1016000    1.0784587   -6.6614016    436.88608  0.035833832  0.036173196            3 
 1017000    1.1184864   -6.7061773    437.17293  0.035822102  0.036165364            3 
 1018000    1.0905456   -6.6971736    437.26659   0.03579458  0.036157504            3 
 1019000    1.0886789    -6.691802    437.14988  0.035749908  0.036149598            4 
 1020000    1.0824332   -6.6727613     437.6067  0.035752181   0.03614167            4 
 1021000      1.10257   -6.6862796    438.32588  0.035775864  0.036133505            3 
 1022000    1.1067429   -6.7033165    438.60232  0.035763399   0.03612544            1 
 1023000    1.0838734   -6.6754027    437.87573  0.035669251  0.036117124            3 
 1024000    1.0916689   -6.6673105    437.87801  0.035634604  0.036108593            6 
 1025000    1.0562712   -6.6994153    438.22033  0.035627669  0.036100382            2 
 1026000     1.071239   -6.6900421    438.50851  0.035616351  0.036091899            1 
 1027000    1.0935669   -6.6940197    439.99466   0.03570226  0.036083566            2 
 1028000    1.1003772   -6.6711638    439.46825  0.035624858  0.036075209            4 
 1029000    1.0802404   -6.6999229    439.54152  0.035596171  0.036066791            3 
 1030000    1.1023685   -6.6529088    440.45986  0.035635911   0.03605828            4 
 1031000    1.1180018   -6.7037607    440.81699  0.035630213   0.03605024            2 
 1032000    1.0739242   -6.7037312    441.33898  0.035637837  0.036041934            4 
 1033000    1.0619389   -6.7050067    442.62748  0.035707283  0.036033535            3 
 1034000    1.0833299   -6.7139389    439.69432  0.035436357  0.036025081            3 
 1035000    1.0905826    -6.690269    440.88343  0.035497861  0.036016636            3 
 1036000    1.0577845   -6.6845202    442.50854  0.035594316  0.036008261            2 
 1037000    1.0985071   -6.6680605    444.15368  0.035692195  0.036000032            3 
 1038000    1.0911574   -6.7165753    444.54896  0.035689544  0.035992047            1 
 1039000    1.0789034   -6.6916846    443.24179  0.035550352  0.035984007            1 
 1040000    1.0802878   -6.6566508    445.36078   0.03568596  0.035975532            2 
 1041000    1.0779414    -6.684484    443.77483  0.035524722  0.035966935            3 
 1042000    1.0584137   -6.6953383    444.05246  0.035512832  0.035958491            2 
 1043000    1.0792751   -6.7100494    444.49316  0.035513995  0.035949808            3 
 1044000    1.1054299   -6.6959339    443.96463   0.03543779  0.035941159            5 
 1045000    1.0835955   -6.6940021    443.71237  0.035383761  0.035932555            3 
 1046000    1.0648087   -6.7183871    444.65283  0.035424859  0.035924089            5 
 1047000    1.1025892   -6.6672981     446.3591  0.035526831  0.035915899            3 
 1048000    1.0955715    -6.722331    447.44121  0.035578977  0.035907775            2 
 1049000    1.1021268    -6.713555    447.12794  0.035520173  0.035899442            2 
 1050000    1.0890635   -6.6924848    447.54202  0.035519208  0.035891295            5 
 1051000    1.0943251   -6.6817836    448.40063  0.035553491  0.035883275            3 
 1052000    1.0828123   -6.7337702    447.13515  0.035419451  0.035875099            4 
 1053000    1.0835379   -6.6867152    448.35609  0.035482438  0.035866955            2 
 1054000    1.1016705   -6.6718442    449.97783  0.035576994  0.035858874            3 
 1055000     1.071772   -6.7146634    448.82996  0.035452603  0.035850558            2 
 1056000    1.0881339   -6.7027895    447.91263  0.035346641  0.035842171            2 
 1057000    1.0765843   -6.7345367    448.18902   0.03533499  0.035833806            3 
 1058000    1.0965506   -6.7115027    449.65895  0.035417372  0.035825388            3 
 1059000    1.0801344    -6.725162    449.90467  0.035403263   0.03581725            5 
 1060000    1.0634694   -6.7199925    451.74922  0.035514876   0.03580914            3 
 1061000    1.0723948   -6.7086778    451.48432  0.035460597  0.035801311            6 
 1062000    1.0925252   -6.6806295    452.85598  0.035534838   0.03579334            2 
 1063000    1.0937399   -6.6805565    451.67158  0.035408559   0.03578531            2 
 1064000    1.0967322   -6.6732372    452.13226  0.035411362  0.035777137            2 
 1065000    1.0538044   -6.6526017    454.20988  0.035540679  0.035769126            3 
 1066000    1.0872467   -6.6779693    452.98244  0.035411385  0.035761178            4 
 1067000    1.0862813   -6.6855267    454.08727  0.035464485  0.035753282            2 
 1068000    1.0837095    -6.695253    453.45203  0.035381713  0.035745509            1 
 1069000    1.0896378   -6.7500286    453.32485  0.035338701  0.035737535            3 
 1070000    1.0834847   -6.7260637    453.45132  0.035315523  0.035729337            5 
 1071000    1.0680888   -6.7511646    454.39224  0.035355761  0.035721281            9 
 1072000    1.0850378   -6.7191356    455.13824  0.035380771  0.035713219            2 
 1073000    1.0949752   -6.7358227      455.189   0.03535174  0.035705164            2 
 1074000    1.1000861   -6.6931354    455.96109  0.035378731  0.035697199            3 
 1075000    1.0800903   -6.6983389    457.47204  0.035462949  0.035689442            3 
 1076000    1.0950755   -6.7162643    456.42888  0.035349201  0.035681578            4 
 1077000    1.0940647   -6.7325133    455.65985  0.035256875  0.035673247            1 
 1078000     1.086867   -6.6945583    456.82005  0.035313856  0.035665378            4 
 1079000    1.0724157   -6.7606447    456.61779  0.035265507  0.035657486            3 
 1080000    1.0908358   -6.6981771    457.36863   0.03529079  0.035649518            2 
 1081000    1.0647942   -6.7016356    458.82859   0.03537069  0.035641782            3 
 1082000    1.0698916   -6.7555691    457.24451  0.035215997  0.035633886            3 
 1083000    1.0569204   -6.7304315    458.47911  0.035278479  0.035625869            3 
 1084000    1.0854992   -6.7206602    457.21621  0.035148847  0.035617628            2 
 1085000    1.0866859   -6.7014608    457.64896   0.03514969  0.035609327            4 
 1086000    1.1072015   -6.7233613    458.43667  0.035177768   0.03560096            2 
 1087000    1.0836728   -6.7092144    459.78051  0.035248429  0.035592454            1 
 1088000    1.0607133   -6.6742066    460.30069  0.035255874  0.035583995            3 
 1089000    1.0945757   -6.7026067    460.00796  0.035201099  0.035575477            3 
 1090000    1.0835055   -6.6958312    459.40256   0.03512252  0.035566882            3 
 1091000     1.082015   -6.7083174    459.21663  0.035076125  0.035558271            3 
 1092000    1.0967953   -6.7285759    458.68414  0.035003368  0.035549843            3 
 1093000    1.0755836     -6.72455    461.17224  0.035161043  0.035541473            2 
 1094000    1.0864465   -6.7079205    460.93604  0.035110911  0.035533037            4 
 1095000    1.0855748   -6.7207822    461.67282  0.035134918  0.035524608            7 
 1096000    1.0671129   -6.7123452    460.82684  0.035038537  0.035516015            4 
 1097000    1.0638696   -6.6894678    462.52453  0.035135561  0.035507254            3 
 1098000    1.0802255   -6.7114151    462.02385  0.035065563  0.035498537            3 
 1099000    1.0678239   -6.7361365    462.26744  0.035052126  0.035489946            4 
 1100000    1.0829725   -6.7024165    461.82457   0.03498671  0.035481104            3 
 1101000    1.0887492   -6.7464288    462.67584  0.035019364  0.035472505            3 
 1102000    1.0720856    -6.695543    463.78936  0.035071791  0.035463949            3 
 1103000    1.0617183   -6.7144945    464.37023   0.03508388  0.035455741            2 
 1104000    1.0912824   -6.7228968    464.56026  0.035066444  0.035447217            2 
 1105000    1.0636751   -6.7451493    464.72135  0.035046859  0.035438746            2 
 1106000    1.0793139   -6.7002854    466.70596  0.035164705   0.03543048            1 
 1107000    1.0801885   -6.6945114    466.40907  0.035110589  0.035421973            2 
 1108000    1.0877733   -6.7282199    464.52937  0.034937527  0.035413549            3 
 1109000    1.0909861   -6.6516823    466.02663  0.035018532  0.035404945            3 
 1110000    1.0775917   -6.7205488    464.01204  0.034835738  0.035396315            3 
 1111000    1.0493617   -6.7195492    466.03743  0.034956303  0.035387747            5 
 1112000     1.055985   -6.7461414     466.3148  0.034945654  0.035379437            4 
 1113000    1.0775954   -6.6891043    466.97662  0.034963808  0.035371029            2 
 1114000     1.093097   -6.7459013    466.26389  0.034879106  0.035362622            2 
 1115000     1.075038   -6.7204746    467.71548  0.034956314  0.035354198            4 
 1116000    1.0897876   -6.7061171    467.99335   0.03494574  0.035345876            2 
 1117000    1.0609871   -6.7344929    467.28876  0.034861889   0.03533745            3 
 1118000    1.0663172   -6.7373038    468.55076  0.034924774   0.03532882            3 
 1119000    1.0560634   -6.7040144    469.33101  0.034951669  0.035320217            2 
 1120000    1.0655596   -6.7095374    469.05687  0.034900064   0.03531167            6 
 1121000    1.0874517   -6.7326056    469.02479  0.034866547  0.035303157            5 
 1122000    1.0695238   -6.7687626    468.61574  0.034805091  0.035294676            5 
 1123000    1.0791299   -6.7106332    470.10135  0.034884339   0.03528607            6 
 1124000    1.0878131   -6.7038541    470.26796  0.034865656  0.035277647            3 
 1125000    1.0845777     -6.74792    470.90441  0.034881808  0.035269007            2 
 1126000    1.0910123   -6.7162741    469.66184  0.034758869  0.035260412            8 
 1127000    1.0723126   -6.7208488    469.96543  0.034750475  0.035251815            3 
 1128000    1.0827094   -6.7108519    471.78162  0.034853843  0.035243174            3 
 1129000    1.0599544   -6.7255322    471.61886  0.034810958  0.035234422            3 
 1130000    1.0578581   -6.7285651    470.61358  0.034706016  0.035225691            3 
 1131000     1.057233    -6.708094    471.66042  0.034752463  0.035217083            3 
 1132000    1.0563553   -6.7246053    471.53692  0.034712671  0.035208504            3 
 1133000    1.0778669    -6.764804     473.0454  0.034792984  0.035199724            3 
 1134000    1.0603622   -6.7417368    472.47044   0.03472005  0.035191011            3 
 1135000     1.056724   -6.6910308    474.81561  0.034861646  0.035182436            3 
 1136000    1.0600442   -6.7198188    474.22722  0.034787795  0.035174062            2 
 1137000    1.0501585   -6.7306585     474.3127  0.034763464  0.035165355            3 
 1138000    1.0648817   -6.7090006    474.01581  0.034711176  0.035156732            5 
 1139000    1.0571607   -6.7123158    474.98902  0.034751903  0.035148046            5 
 1140000    1.0798162   -6.7124083    475.31912   0.03474555  0.035139604            2 
 1141000    1.0777435   -6.7344807    474.56711  0.034660174  0.035131123            1 
 1142000    1.0706808   -6.7281624    475.37826  0.034689015   0.03512263            5 
 1143000    1.0513634   -6.7341021    476.47301  0.034738481  0.035114138            3 
 1144000    1.0623081   -6.7132767    476.03789   0.03467642  0.035105775            3 
 1145000    1.0569577   -6.7459495    476.11203   0.03465153  0.035097365            2 
 1146000    1.0710742   -6.7470044    477.59789   0.03472934  0.035089037            2 
 1147000    1.0614703   -6.7346856    477.42846  0.034686753  0.035080628            3 
 1148000    1.0908587   -6.6849911    479.54653  0.034810288  0.035072544            3 
 1149000    1.0745642   -6.7506179    478.69472  0.034718213  0.035064589            4 
 1150000    1.0586223   -6.7064632    479.26531   0.03472937  0.035056318            3 
 1151000    1.0530284   -6.7181226      479.253  0.034698306  0.035048247            2 
 1152000    1.0611567   -6.7710677    480.88191  0.034786018  0.035040132            5 
 1153000    1.0533666   -6.7739178    478.75656  0.034602238  0.035031723            2 
 1154000    1.0472564   -6.7511752    478.93367  0.034585042  0.035022996            1 
 1155000    1.0428361   -6.7231713    479.67368  0.034608491  0.035014201            3 
 1156000     1.089079   -6.7553141    479.57373  0.034571348  0.035005735            2 
 1157000     1.071411    -6.743554    480.16294  0.034583906  0.034997112            4 
 1158000     1.076949    -6.731204    480.91357  0.034608058  0.034988552            2 
 1159000    1.0582818   -6.7134797    481.16132  0.034596011  0.034979868            2 
 1160000    1.0713299    -6.768021    480.64653  0.034529205  0.034971195            2 
 1161000    1.0632899   -6.7045021    483.17996  0.034681306  0.034962712            4 
 1162000    1.0767268    -6.752947    481.59105  0.034537511  0.034954412            3 
 1163000    1.0906917   -6.7444907    482.09479  0.034543909  0.034946049            6 
 1164000      1.03756   -6.7193155    483.38311  0.034606465  0.034937697            2 
 1165000    1.0702583   -6.7376886    482.92154  0.034543744  0.034929188            4 
 1166000    1.0870679   -6.7755956    483.28139  0.034539836  0.034920765            3 
 1167000    1.0593248   -6.7510031    484.61658  0.034605582  0.034912413            2 
 1168000    1.0618867   -6.7419847    483.22971  0.034477006  0.034903949            3 
 1169000    1.0514135    -6.743378    484.94972  0.034570126  0.034895656            4 
 1170000    1.0819338   -6.7261798    485.19179   0.03455782  0.034887266            2 
 1171000    1.0461612   -6.7645867    484.24955  0.034461255  0.034878624            2 
 1172000    1.0680846   -6.7719759    483.83029   0.03440204  0.034870007            3 
 1173000    1.0719457   -6.7571273     485.2761  0.034475426  0.034861555            4 
 1174000    1.0991236   -6.7416959    484.79882  0.034412182  0.034852978            3 
 1175000    1.0399494   -6.7491733    486.43045  0.034498614  0.034844529            3 
 1176000    1.0575676   -6.7370593    486.49391  0.034473774  0.034835952            5 
 1177000    1.0608709   -6.7631789    486.12424  0.034418312  0.034827608            2 
 1178000    1.0458452   -6.7560403    485.18386   0.03432257  0.034819274            5 
 1179000    1.0517351   -6.7703287    487.70209  0.034471451    0.0348108            3 
 1180000    1.0703179   -6.7564543    487.81478  0.034450196  0.034802467            2 
 1181000    1.0695162    -6.728483    488.37942  0.034460868  0.034794134            3 
 1182000    1.0313623   -6.7481176    487.43906  0.034365416  0.034785818            3 
 1183000    1.0830604   -6.7463942    487.34778  0.034329936  0.034777399            3 
 1184000    1.0767777   -6.7238074    489.15255  0.034427966  0.034769053            2 
 1185000    1.0781741   -6.7356488    489.97652  0.034456858  0.034760982            2 
 1186000    1.0697054   -6.7386843    491.06179  0.034504061  0.034752863            2 
 1187000     1.058755   -6.7424723      489.872  0.034391463  0.034744751            2 
 1188000    1.0850205   -6.6998129    491.24918  0.034459118  0.034736854            4 
 1189000    1.0316533   -6.7585171    492.05255  0.034486442  0.034728905            6 
 1190000     1.079803   -6.7669057    490.07511  0.034318986  0.034720735            3 
 1191000    1.0545112   -6.7629562    490.53673  0.034322469  0.034712524            2 
 1192000    1.0455281   -6.7711415    491.14613  0.034336279  0.034704368            3 
 1193000     1.075308    -6.737627    493.21959  0.034452332  0.034696209            3 
 1194000    1.0900513   -6.7373579     492.6673  0.034384931  0.034688094            3 
 1195000    1.0578883   -6.7370959    493.44372  0.034410301  0.034679851            1 
 1196000     1.062529    -6.724372    493.68226  0.034398151  0.034671572            5 
 1197000    1.0749173   -6.7474547    493.85934  0.034381742   0.03466315            2 
 1198000    1.0383804   -6.7246517    493.72437  0.034343654  0.034654997            5 
 1199000    1.0476485   -6.7428479    493.86665  0.034324899  0.034646853            5 
 1200000    1.0896082   -6.7317878    496.25076  0.034461858  0.034638796            2 
 1201000    1.0703395   -6.7442084     494.0516  0.034280571  0.034631044            4 
 1202000    1.0778327   -6.7437799    495.69333  0.034365871  0.034623092            2 
 1203000    1.0583945   -6.7532092    494.88969  0.034281636  0.034615044            2 
 1204000    1.0650337   -6.7425073    496.56256  0.034368948  0.034607131            5 
 1205000    1.0445611   -6.7588987    497.00912  0.034371309  0.034599253            4 
 1206000    1.0632808    -6.764685    497.31782  0.034364139  0.034591361            3 
 1207000    1.0556223   -6.7428741    495.61048  0.034217791  0.034583433            3 
 1208000     1.087414   -6.7723746    496.72211   0.03426615  0.034575344            3 
 1209000    1.0612774   -6.7613573    497.36109  0.034281851  0.034567268            3 
 1210000     1.051612   -6.7331918    497.81493  0.034284775  0.034559336            3 
 1211000    1.0439874   -6.7293079    498.91637  0.034332257  0.034551483            4 
 1212000    1.0706629   -6.7441716    497.98845   0.03424013   0.03454357            3 
 1213000    1.0633621   -6.7547434    498.76286  0.034265105  0.034535564            3 
 1214000    1.0697561   -6.7346699     499.3168  0.034274904  0.034527449            3 
 1215000    1.0522326   -6.7639426    498.11954  0.034164578  0.034519352            4 
 1216000    1.0583954    -6.766791    499.52679  0.034232922  0.034511241            6 
 1217000    1.0395605     -6.77464    498.75124  0.034151687  0.034503299            2 
 1218000    1.0680306   -6.7706732    500.38036  0.034235109  0.034495152            3 
 1219000    1.0517348   -6.7351123    501.47175  0.034281635  0.034487445            2 
 1220000    1.0433124   -6.7260176    502.78205  0.034343037  0.034479753            2 
 1221000    1.0684941   -6.7386393    501.88634  0.034253777   0.03447188            4 
 1222000    1.0540258   -6.7535825    501.75762  0.034216968  0.034464044            2 
 1223000    1.0723498   -6.7944597    501.57181  0.034176329  0.034455974            4 
 1224000    1.0257572     -6.78554    501.40296  0.034136912   0.03444797            5 
 1225000    1.0715763   -6.7585579    502.39922  0.034176818  0.034439966            3 
 1226000    1.0557487   -6.7467501    504.39153  0.034284362  0.034432272            3 
 1227000    1.0436245   -6.7318571    502.60294  0.034134946  0.034424547            5 
 1228000    1.0391939   -6.7280518      504.074  0.034206976  0.034416607            4 
 1229000    1.0381561   -6.7647778    504.70222   0.03422174  0.034408605            3 
 1230000    1.0700907   -6.7460271    505.03103  0.034216194  0.034400787            2 
 1231000    1.0688107   -6.7921754    505.32857  0.034208541  0.034392919            5 
 1232000    1.0875419   -6.7502065    504.15412  0.034101334  0.034384962            2 
 1233000    1.0734477   -6.7387479     506.7164   0.03424685    0.0343771            2 
 1234000      1.07074    -6.709604    504.67666  0.034081352   0.03436945            2 
 1235000     1.062258   -6.7838562    506.75828  0.034194216  0.034361921            3 
 1236000    1.0426947   -6.7643489    505.97852  0.034113978  0.034354246            3 
 1237000     1.069538   -6.7739073    506.22931  0.034103295  0.034346497            3 
 1238000       1.0373   -6.7461331    505.31595  0.034014267   0.03433887            4 
 1239000     1.051148   -6.7337259    508.27718  0.034185982  0.034330992            2 
 1240000    1.0688207   -6.7801363    505.59431  0.033978112  0.034323067            2 
 1241000    1.0518546   -6.7952297     505.5764   0.03394953  0.034315032            2 
 1242000    1.0613398   -6.7627373    508.48293  0.034117212   0.03430726            4 
 1243000    1.0393074   -6.7728127    508.77138  0.034109103  0.034299523            3 
 1244000    1.0775637   -6.7754644    508.82395  0.034085205  0.034291872            3 
 1245000    1.0852969   -6.7822013    508.52995  0.034038149  0.034284166            4 
 1246000    1.0464847   -6.7901717    509.22354  0.034057219  0.034276468            2 
 1247000    1.0729031    -6.772569    508.12674  0.033956612   0.03426861            2 
 1248000    1.0462269   -6.7967106    509.03365   0.03398996  0.034260629            4 
 1249000    1.0503329   -6.7959098    510.13401  0.034036163  0.034252598            7 
 1250000    1.0581194   -6.7794868    510.16131  0.034010754  0.034244536            5 
 1251000    1.0650642   -6.7724732    510.29502  0.033992474  0.034236344            5 
 1252000    1.0421728   -6.7670335    510.68133  0.033991036   0.03422827            3 
 1253000    1.0418782   -6.7547548    510.71516  0.033966159  0.034220325            5 
 1254000      1.04062   -6.7636401     511.4574  0.033988397  0.034212236            3 
 1255000    1.0718501   -6.7785058    509.79436  0.033850887  0.034204224            7 
 1256000    1.0480751   -6.7881045    511.31029  0.033924515  0.034196063            2 
 1257000    1.0543153   -6.7514925    512.65775  0.033986857  0.034188119            3 
 1258000    1.0664438   -6.7768161    511.50971  0.033883791  0.034180125            4 
 1259000     1.054433   -6.7662372    511.78668  0.033875211  0.034172077            2 
 1260000    1.0565132    -6.784618    511.35845  0.033820003  0.034164009            1 
 1261000    1.0632106   -6.8144639    511.08761  0.033775285  0.034155908            4 
 1262000    1.0604736    -6.774762    513.62215  0.033915884  0.034147851            4 
 1263000    1.0483489   -6.7557041    513.71846  0.033895385  0.034139946            5 
 1264000    1.0523567    -6.782603    513.62087  0.033862135  0.034132305            3 
 1265000    1.0479421   -6.7747996    514.79374  0.033912631  0.034124523            2 
 1266000    1.0614119   -6.7677196    513.61948  0.033808549   0.03411662            1 
 1267000     1.060193   -6.7917792    514.23721  0.033822495  0.034108622            2 
 1268000    1.0470942   -6.7519619    515.90842  0.033905653  0.034100656            4 
 1269000    1.0492659   -6.7666649    517.02707  0.033952395  0.034092699            6 
 1270000    1.0764761   -6.7899536    514.92866   0.03378797  0.034084842            2 
 1271000    1.0571937   -6.7415772    517.08695  0.033902895   0.03407686            3 
 1272000    1.0617936   -6.7631159    516.08632  0.033810687  0.034069121            3 
 1273000    1.0633101   -6.7812781    515.23258  0.033728239  0.034060995            2 
 1274000     1.038125   -6.7872916    516.27848  0.033770178  0.034053075            4 
 1275000    1.0419984   -6.7859119     515.8417  0.033715144   0.03404504            2 
 1276000    1.0493635   -6.7571064    516.86911   0.03375582   0.03403699            1 
 1277000    1.0362254   -6.7610687    516.29089  0.033691653  0.034028958            3 
 1278000     1.039718   -6.7922148    517.82048  0.033765028  0.034020773            3 
 1279000    1.0244463    -6.784302    516.95271  0.033682089  0.034012595            5 
 1280000    1.0370102   -6.7799006     517.3504  0.033681667  0.034004397            5 
 1281000     1.056445    -6.769822    518.24344  0.033713469  0.033996301            5 
 1282000    1.0670038   -6.7677181    520.00475  0.033801661  0.033988396            2 
 1283000    1.0384261   -6.7463464    518.94625  0.033706563  0.033980334            3 
 1284000    1.0121889   -6.8162446    517.71047  0.033600109  0.033972146            3 
 1285000    1.0607167   -6.7935046    518.38554   0.03361774  0.033963725            2 
 1286000    1.0233347   -6.7644229    518.57661  0.033603979  0.033955457            4 
 1287000    1.0853473   -6.8180085    520.60869  0.033709446  0.033947281            2 
 1288000    1.0539618   -6.7826645    520.65384  0.033686196  0.033939263            4 
 1289000    1.0752036   -6.7682136    520.80773  0.033670011  0.033931125            2 
 1290000    1.0833944   -6.7892866    519.82988  0.033580742  0.033923048            3 
 1291000    1.0470426    -6.763232     521.5861  0.033668093  0.033915038            3 
 1292000    1.0418558   -6.7571971    523.02611  0.033734914  0.033907248            5 
 1293000    1.0288931   -6.7887944    522.54068  0.033677538  0.033899507            5 
 1294000    1.0542948   -6.7630992    523.50628  0.033713696  0.033891567            4 
 1295000    1.0424414   -6.7590879    524.21722  0.033733412  0.033883872            2 
 1296000     1.037085    -6.720332    524.71122  0.033739147  0.033876225            3 
 1297000    1.0430216   -6.7742341    523.25518  0.033619583  0.033868492            2 
 1298000     1.045586   -6.8111666    524.14718  0.033650949  0.033860638            4 
 1299000    1.0748354    -6.776357    524.62265  0.033655546  0.033852586            2 
 1300000    1.0259707   -6.7928915    524.10254  0.033596317   0.03384474            3 
 1301000    1.0667681   -6.7421185    524.70026  0.033608779  0.033836956            6 
 1302000    1.0459429   -6.7589687    526.12341  0.033674053  0.033829148            1 
 1303000    1.0397857   -6.7972217    526.75517  0.033688614  0.033821629            2 
 1304000    1.0266505   -6.7835221    527.11965  0.033686071   0.03381389            2 
 1305000    1.0449045   -6.8056462    526.84296   0.03364259  0.033806133            5 
 1306000    1.0414617   -6.7857654    528.46837  0.033720544  0.033798578            4 
 1307000    1.0466056   -6.8126755     526.7438  0.033584787  0.033791087            2 
 1308000    1.0508018   -6.8061095    528.40726   0.03366509  0.033783706            2 
 1309000    1.0533291   -6.7689142    529.31009  0.033696848  0.033776347            3 
 1310000    1.0405837    -6.800367    529.01534  0.033652375  0.033769068            2 
 1311000    1.0511764   -6.8311327    526.48505  0.033465869  0.033761634            4 
 1312000    1.0401652   -6.8091182    530.66863  0.033706087  0.033754267            3 
 1313000    1.0376548   -6.7501161     531.3683  0.033724822  0.033747054            2 
 1314000    1.0424828   -6.8166985    531.55298  0.033710869  0.033739848            1 
 1315000    1.0475935   -6.7863553    530.84291  0.033640235  0.033732614            1 
 1316000    1.0540478   -6.7967504    531.05658  0.033628203  0.033725498            2 
 1317000    1.0467648   -6.7855252    532.07495  0.033667107   0.03371847            3 
 1318000    1.0428508   -6.7802768    532.11473  0.033644077  0.033711207            2 
 1319000    1.0528851   -6.7834968    532.51859  0.033644086  0.033703962            4 
 1320000    1.0418255   -6.7942035    532.12488  0.033593742   0.03369661            6 
 1321000    1.0390629   -6.7546165    532.37712  0.033584224  0.033689331            2 
 1322000    1.0167408   -6.8259075    531.36884  0.033495262  0.033681892            4 
 1323000    1.0387461   -6.7916789    531.17549  0.033457766  0.033674404            1 
 1324000     1.031415   -6.7986916    532.28963   0.03350262  0.033667019            5 
 1325000    1.0172896   -6.7949698    533.97479   0.03358332  0.033659565            4 
 1326000    1.0306728   -6.7943326    534.20811  0.033572656  0.033652093            5 
 1327000     1.037394   -6.7607677    535.59517  0.033634462  0.033644813            4 
 1328000    1.0492498   -6.7928176    534.84043  0.033561774  0.033637673            7 
 1329000     1.052705   -6.8131048    535.33392  0.033567464  0.033630501            2 
 1330000    1.0427332   -6.8174473     533.8797  0.033451109  0.033623299            3 
 1331000    1.0485562   -6.8014773    535.00143  0.033496208  0.033615985            6 
 1332000    1.0335993   -6.7463808    536.01789  0.033534653  0.033608655            3 
 1333000    1.0300223   -6.7856628    537.18247    0.0335823  0.033601234            2 
 1334000    1.0566414   -6.7900103    535.96984  0.033481374  0.033593878            3 
 1335000     1.043685   -6.8155638    535.17079  0.033406416  0.033586457            6 
 1336000    1.0445764   -6.7957741    535.96722  0.033431089   0.03357882            2 
 1337000    1.0189514   -6.7928853    535.75393   0.03339279  0.033571284            3 
 1338000    1.0330913   -6.8255178    537.13763  0.033454013  0.033563786            2 
 1339000    1.0257903   -6.8011405    536.67229  0.033400068  0.033556372            3 
 1340000    1.0295801   -6.8167277    535.58275  0.033307385  0.033548762            2 
 1341000    1.0432321   -6.7872944    537.87388  0.033424924  0.033541217            2 
 1342000     1.026726   -6.7840034    538.60594  0.033445475  0.033533533            3 
 1343000    1.0222424   -6.7798176    537.10246  0.033327281   0.03352583            5 
 1344000    1.0566928   -6.7939994    537.85348   0.03334905  0.033518023            2 
 1345000    1.0194293   -6.8185652    536.87069  0.033263364  0.033510356            4 
 1346000    1.0410885   -6.7964507    538.28642  0.033326302  0.033502705            2 
 1347000    1.0401754   -6.7987344    539.02809  0.033347444  0.033494982            2 
 1348000    1.0302715   -6.7839197    539.34096  0.033342048  0.033487372            4 
 1349000    1.0484376   -6.8183999    538.82226  0.033285289  0.033479849            4 
 1350000    1.0530112    -6.799881    540.50363  0.033364422  0.033472263            4 
 1351000    1.0379218   -6.8294036    539.73594  0.033292372  0.033464617            2 
 1352000    1.0449769   -6.7980033     539.6839   0.03326454  0.033457046           10 
 1353000    1.0521058   -6.7854195    539.03044  0.033199707  0.033449488            3 
 1354000    1.0500654   -6.7967883    540.52157   0.03326696  0.033441982            3 
 1355000    1.0306792   -6.8108327    540.74527  0.033256166  0.033434146            3 
 1356000    1.0214837   -6.7692477    541.00899  0.033247848  0.033426363            4 
 1357000    1.0343126   -6.8197077    540.90189   0.03321677  0.033418633            4 
 1358000    1.0129746   -6.8148087    542.32501   0.03327964  0.033410928            5 
 1359000    1.0294342    -6.817421    542.21967  0.033248692  0.033403318            3 
 1360000    1.0402408   -6.7917566    541.30792  0.033168377  0.033395616            2 
 1361000    1.0342477   -6.7491431    543.32537  0.033267535   0.03338785            4 
 1362000    1.0457582   -6.8003815    542.49262  0.033192157  0.033380307            2 
 1363000     1.036831   -6.8156994    541.97365  0.033136076  0.033372571            4 
 1364000    1.0526454   -6.8318467    542.33944   0.03313413  0.033364875            4 
 1365000    1.0237331    -6.773986    543.18826  0.033161677  0.033357175            3 
 1366000    1.0217517   -6.8552568    543.53706  0.033158679  0.033349548            5 
 1367000    1.0173175   -6.8056368    544.13274  0.033170735  0.033341948            5 
 1368000    1.0550951    -6.802987    544.94341  0.033195871  0.033334497            1 
 1369000    1.0182274   -6.7811466    545.50171  0.033205607  0.033326958            3 
 1370000    1.0394243   -6.7845496    544.46558  0.033118345  0.033319286            3 
 1371000    1.0119832   -6.8346336    545.47105  0.033155303  0.033311692            2 
 1372000    1.0200376   -6.8186838     545.3686  0.033124915  0.033304087            2 
 1373000    1.0024417   -6.8085193     546.3795  0.033162145  0.033296724            4 
 1374000    1.0181023   -6.7803597    548.13748  0.033244631  0.033289455            2 
 1375000    1.0496966   -6.8043857    547.00685   0.03315193  0.033282309            4 
 1376000    1.0236631    -6.803779    546.22927  0.033080745  0.033274983            5 
 1377000    1.0326968   -6.8182749    546.78714  0.033090483  0.033267459            1 
 1378000    1.0498861   -6.8054321    547.45637  0.033106941  0.033259982            3 
 1379000    1.0073649   -6.7964578     548.2787  0.033132627  0.033252681            3 
 1380000    1.0234123    -6.820398    549.00246  0.033152323  0.033245265            3 
 1381000    1.0394205   -6.8229251    547.74138  0.033052219  0.033237918            3 
 1382000    1.0593346   -6.8242161    550.49589  0.033194398  0.033230748            4 
 1383000    1.0080983   -6.8279159    548.90921   0.03307479  0.033223517            3 
 1384000    1.0374413   -6.7838615    551.63727  0.033215153  0.033216163            3 
 1385000    1.0349174   -6.7857672    550.76351  0.033138599  0.033208991            9 
 1386000    1.0266133   -6.7900653    552.11386  0.033195879  0.033201812            2 
 1387000    1.0232462   -6.8208876    551.03351  0.033107036  0.033194596            4 
 1388000    1.0326385   -6.8299972    549.95227  0.033018268  0.033187294            6 
 1389000    1.0257944   -6.7982082     553.1403  0.033185763  0.033180009            2 
 1390000    1.0186775   -6.7991803    552.17585  0.033104068  0.033172795            6 
 1391000    1.0434056   -6.8032243    551.85832  0.033061246  0.033165635            2 
 1392000    1.0321348   -6.8317678    551.23793  0.033000355  0.033158404            2 
 1393000    1.0255477   -6.7792394    551.80109  0.033010354  0.033151213            5 
 1394000    1.0557394   -6.8049149    554.04022  0.033120529   0.03314405            3 
 1395000    1.0260828   -6.7963702     555.3416  0.033174528   0.03313684            2 
 1396000     1.016265   -6.8244356     552.1981  0.032963115  0.033129584            7 
 1397000    1.0455099   -6.8084873    554.37646  0.033069462  0.033122555            2 
 1398000    1.0398458   -6.8398797    553.49258   0.03299312  0.033115296            5 
 1399000    1.0058352   -6.8032306    556.21468  0.033131682  0.033108031            2 
 1400000    1.0143691   -6.8298513    554.86745  0.033027825  0.033100849            3 
 1401000    1.0419483   -6.8045112    554.98246  0.033011091  0.033093661            2 
 1402000    1.0108752   -6.8228495    556.78423  0.033094641  0.033086495            2 
 1403000    1.0274962   -6.7941753     555.2908  0.032982347  0.033079253            3 
 1404000    1.0227128   -6.8228064    555.60202  0.032977328  0.033071978            4 
 1405000    1.0265034   -6.8449222    554.86633  0.032910221  0.033064637            2 
 1406000    1.0420421   -6.8393721    554.87126  0.032887107  0.033057277            3 
 1407000    1.0114705   -6.8255384    556.60048   0.03296615  0.033050045            4 
 1408000    1.0512774   -6.8329584    556.98186  0.032965309  0.033042782            4 
 1409000    1.0301291   -6.8509895     556.9848  0.032942087  0.033035583            2 
 1410000    1.0233285   -6.8113111    558.29134  0.032995942  0.033028425            3 
 1411000    1.0249048   -6.8275618    557.12611  0.032903739  0.033021209            2 
 1412000    1.0174715   -6.8574895    557.77577  0.032918778  0.033013898            3 
 1413000     1.021958   -6.8097358    557.75967  0.032894531  0.033006731            5 
 1414000     1.016518   -6.8196202    557.70698  0.032868162  0.032999556            3 
 1415000    1.0497473   -6.8246458    558.42952  0.032887487  0.032992299            2 
 1416000    1.0430702   -6.7960911    558.16694  0.032848808  0.032984981            2 
 1417000    1.0148022   -6.8201404    558.31402  0.032834276   0.03297755            3 
 1418000    1.0129379   -6.8459836    558.59701  0.032827751  0.032970005            2 
 1419000    1.0338631   -6.8427604    560.07927  0.032891665  0.032962479            4 
 1420000    1.0403356   -6.8190989     560.0469  0.032866602  0.032954966            4 
 1421000    1.0355345   -6.8347578    557.83951  0.032714022  0.032947524            4 
 1422000   0.99109081   -6.8225243    560.30407  0.032835447  0.032940013            2 
 1423000    1.0097386    -6.823926    559.81281  0.032783603  0.032932436            4 
 1424000    1.0373249   -6.8409142    561.05138  0.032833063  0.032924883            2 
 1425000    1.0359098   -6.8186508       560.88       0.0328  0.032917438            3 
 1426000    1.0164407   -6.8379212    561.67164  0.032823261  0.032910182            5 
 1427000    1.0219222   -6.7873629    561.23395  0.032774699   0.03290301            5 
 1428000    1.0421923   -6.7984937    562.69342  0.032836917  0.032895763            1 
 1429000    1.0166193   -6.7924458    563.19419  0.032843141  0.032888527            3 
 1430000    1.0315956   -6.8598657    560.20509  0.032645984  0.032881075            7 
 1431000    1.0184069   -6.8047173    564.45205   0.03287049   0.03287363            3 
 1432000    1.0191163   -6.8207277    564.08299  0.032826058  0.032866317            3 
 1433000     1.045071    -6.840845    563.91236  0.032793229   0.03285897            2 
 1434000    0.9980517   -6.7970951    565.05976  0.032837039  0.032851738            4 
 1435000    1.0387757   -6.8241568    563.02186   0.03269581  0.032844438            2 
 1436000    1.0154182   -6.8223367     564.1591  0.032739038  0.032837011            4 
 1437000    1.0616307   -6.8087529     563.8595   0.03269888  0.032829606            6 
 1438000    1.0099282   -6.8128467    565.96502  0.032798158  0.032822242            5 
 1439000    1.0292621   -6.8509883    564.85331  0.032710986  0.032814704            6 
 1440000    1.0024486   -6.8503315    563.89821  0.032632998  0.032807122            1 
 1441000    1.0089215   -6.8197104    566.69693  0.032772203  0.032799705            4 
 1442000    1.0013339    -6.792822      566.271  0.032724862  0.032792295            4 
 1443000    1.0247471   -6.8330755    566.05349  0.032689622  0.032784795            4 
 1444000   0.99615337    -6.853729    565.89561  0.032657872  0.032777296            4 
 1445000    1.0051274   -6.7996965    566.63956  0.032678175  0.032769932            2 
 1446000    1.0342486   -6.8279976    566.19822  0.032630142  0.032762504            4 
 1447000    1.0159426   -6.8450713    566.63522  0.032632759  0.032754977            5 
 1448000    1.0297017   -6.8055251    567.22562    0.0326442  0.032747573            7 
 1449000    1.0247948   -6.7787383    566.79748  0.032597048  0.032740123            3 
 1450000    1.0168611   -6.8261015    568.40687  0.032667061  0.032732704            4 
 1451000    1.0159151   -6.8077538    569.42329  0.032702923  0.032725316            5 
 1452000     1.013397   -6.8393755    568.14631  0.032607111  0.032717956            4 
 1453000    1.0056324   -6.8360912    567.85716  0.032568087  0.032710611            3 
 1454000    1.0358685   -6.8029645    569.54339  0.032642331  0.032703224            4 
 1455000    1.0351983   -6.8389035    569.99695  0.032645874  0.032695926            2 
 1456000    1.0320937   -6.8723856    569.18731  0.032577112  0.032688444            2 
 1457000    1.0228733   -6.8176853    569.12593  0.032551243  0.032680929            5 
 1458000    1.0302589   -6.8559789     569.3387  0.032541078   0.03267364            5 
 1459000    1.0188797   -6.8207537    569.93903  0.032553063  0.032666369            4 
 1460000    1.0081579   -6.8081626    571.04769  0.032594046  0.032659145            7 
 1461000   0.99892723   -6.8345472    571.81347  0.032615416  0.032651983            3 
 1462000    1.0018406   -6.8518505     572.1303  0.032611166  0.032644863            3 
 1463000   0.99608439   -6.8152618    572.16125  0.032590638  0.032637691            7 
 1464000    1.0464697   -6.8326214    573.75268  0.032658964  0.032630473            1 
 1465000    1.0100916   -6.8137848     573.7811  0.032638288  0.032623346            4 
 1466000    1.0105565   -6.8697535    573.86498  0.032620793  0.032616069            3 
 1467000    1.0138764   -6.8239161    573.04879  0.032552192  0.032608812            5 
 1468000    1.0158248   -6.8647266    572.09953  0.032476131  0.032601617            5 
 1469000    1.0107993   -6.8762002    572.78629  0.032492982  0.032594215            4 
 1470000   0.99254777   -6.8203745     572.8752  0.032475918  0.032586682            3 
 1471000    1.0086892   -6.8300748    573.07148  0.032464961  0.032579368            4 
 1472000    1.0050103   -6.8025174    573.97191  0.032493881  0.032572188            2 
 1473000    1.0321561   -6.8634153    572.36302    0.0323808  0.032564891            4 
 1474000    1.0117068   -6.8623128    574.23418  0.032464619  0.032557465            4 
 1475000    1.0355246    -6.854659    573.54511  0.032403678  0.032550155            7 
 1476000   0.99614085   -6.8535552    573.59345  0.032384454  0.032542718            5 
 1477000    1.0154185   -6.8392972    576.78516  0.032542607  0.032535438            3 
 1478000   0.99933777   -6.8353335    576.08107  0.032480891  0.032528191            5 
 1479000     1.011926   -6.8549103    576.20799   0.03246608   0.03252096            2 
 1480000    1.0112612   -6.8433723    575.32824  0.032394608  0.032513727            7 
 1481000    1.0069644   -6.8578053    576.90467  0.032461438  0.032506605            2 
 1482000    1.0110728   -6.7884949    579.13131  0.032564739  0.032499577            2 
 1483000     1.002685   -6.8272203    578.13225   0.03248664  0.032492514            2 
 1484000    1.0237355   -6.8601849     576.8157  0.032390819  0.032485329            4 
 1485000    1.0081469   -6.8560364    577.55532  0.032410512   0.03247802            3 
 1486000    1.0109432   -6.8377621    578.30267  0.032430612  0.032470678            5 
 1487000    1.0067223   -6.8372393    577.31744  0.032353589  0.032463544            1 
 1488000    1.0146721    -6.871627    579.20461  0.032437534  0.032456359            3 
 1489000    1.0120978   -6.8416041    577.17564  0.032302196  0.032449051            4 
 1490000    1.0254737   -6.8343187     577.5843  0.032303372  0.032441568            5 
 1491000   0.98805408   -6.8261724    579.17488  0.032370606  0.032434244            2 
 1492000    1.0275804   -6.8511226    578.70333  0.032322572  0.032426859            5 
 1493000    1.0155418   -6.8417188    579.68872  0.032355923  0.032419623            2 
 1494000    1.0166333   -6.8474301     580.5714  0.032383501   0.03241236            3 
 1495000    1.0113034   -6.8392434    579.87265   0.03232289  0.032405102            4 
 1496000    1.0021883   -6.8231397    581.49562   0.03239169  0.032397829            4 
 1497000    1.0176876   -6.8679287    579.46802  0.032257182  0.032390487            3 
 1498000    1.0141925    -6.867966     582.6272  0.032411393  0.032383225            6 
 1499000    1.0062884   -6.8490075    581.78313  0.032342847  0.032375923            3 
 1500000   0.99996936   -6.8344476    581.40762  0.032300423  0.032368462            3 
 1501000   0.98228313   -6.8402218    581.49568  0.032283793  0.032361194            4 
 1502000    1.0037104   -6.8493061    581.70886  0.032274126  0.032353805            5 
 1503000    1.0001913   -6.8586073    581.62012  0.032247733  0.032346607            3 
 1504000    1.0057138   -6.8657444    583.66105  0.032339375  0.032339352            6 
 1505000    1.0155954   -6.8626044    583.90745  0.032331531  0.032332061            3 
 1506000    1.0124261   -6.8365315    583.06019   0.03226318  0.032324832            3 
 1507000    1.0012377   -6.8787596    582.68293   0.03222091  0.032317634            2 
 1508000    1.0035226   -6.8807281    581.80775   0.03215118  0.032310205            4 
 1509000    1.0397508   -6.8309564    583.39582  0.032217573  0.032302898            3 
 1510000    1.0109682   -6.8478859    584.96648  0.032282918  0.032295574           13 
 1511000    1.0148563    -6.819335    583.32106  0.032170806  0.032288404            2 
 1512000    1.0258507   -6.8411571    584.59673  0.032219837  0.032281282            3 
 1513000    1.0273313   -6.8186456    586.11579  0.032282209  0.032274254            2 
 1514000    1.0215628   -6.8807008    583.39623  0.032111197  0.032266973            3 
 1515000   0.98863455    -6.846488    584.32482  0.032141079  0.032259623            3 
 1516000    1.0282875   -6.8524668    586.96451   0.03226498  0.032252528            5 
 1517000     1.033196   -6.8419878    587.17081  0.032255043  0.032245331            4 
 1518000      1.00475   -6.8488993    585.82454  0.032159889  0.032238265            4 
 1519000    1.0102522   -6.8333684    585.78533  0.032136566  0.032231232            1 
 1520000     1.004603   -6.8541511      587.232  0.032194737   0.03222414            3 
 1521000    1.0048558   -6.8830641    587.08136  0.032165317   0.03221701            3 
 1522000    1.0223898   -6.8523179    586.86081  0.032132107  0.032209885            4 
 1523000    1.0049216   -6.8295029    586.98495  0.032117802  0.032202759            5 
 1524000   0.99383772   -6.8302245     588.2219  0.032164365  0.032195557            2 
 1525000    1.0084267    -6.876298    588.07355  0.032135167  0.032188344            2 
 1526000   0.99399005   -6.8512897    589.49345  0.032191648  0.032181293            2 
 1527000    1.0090942   -6.8565851    588.95303  0.032141073  0.032174048            3 
 1528000     1.018309   -6.9013751    587.84235  0.032059465  0.032166895            4 
 1529000     1.031164   -6.8376631    589.98761  0.032155418  0.032159805            3 
 1530000    1.0218706    -6.847401     590.1968  0.032145795  0.032152819            3 
 1531000    1.0037069   -6.8282961    590.49017  0.032140767  0.032145905            2 
 1532000    1.0023061   -6.8399354    590.56183  0.032123686  0.032139082            8 
 1533000    1.0183025   -6.8619045    591.25691  0.032140515  0.032132215            4 
 1534000    1.0086468   -6.8463482    592.59983  0.032192516  0.032125265            2 
 1535000    1.0190659   -6.8184769    592.83518   0.03218432  0.032118389            5 
 1536000   0.99418805   -6.8651632    592.22462  0.032130242  0.032111402            2 
 1537000    1.0047556   -6.8713314     592.8556  0.032143548  0.032104505            2 
 1538000    1.0183879    -6.889811    592.16846  0.032085417  0.032097532            3 
 1539000       1.0073   -6.8725827    593.64828  0.032144698   0.03209059            3 
 1540000   0.99427805   -6.8475939    593.44516  0.032112833  0.032083864            2 
 1541000    1.0098845   -6.8589573    594.04507  0.032124436  0.032077049            5 
 1542000   0.99253186   -6.9058417    592.68268  0.032029976  0.032070243            3 
 1543000    1.0222268     -6.88144    593.29148  0.032042098  0.032063325            3 
 1544000    1.0162705   -6.8769446    596.48497  0.032193705  0.032056498            4 
 1545000   0.98517934   -6.8433598     593.7292  0.032024229  0.032049771            5 
 1546000    1.0032828   -6.8532827    596.45767  0.032150586  0.032043028            2 
 1547000    1.0000166   -6.8140429    596.66495  0.032140969  0.032036335            3 
 1548000    1.0012409   -6.8717817    596.69934  0.032122057  0.032029655            5 
 1549000    1.0246681   -6.8657322    596.30676    0.0320802  0.032022827            3 
 1550000    1.0268775   -6.8314778     599.5621  0.032234522  0.032016216            4 
 1551000   0.99505524   -6.8259272    597.42827   0.03209909  0.032009743            6 
 1552000     1.009124   -6.8296588    598.65559  0.032144308  0.032003387            2 
 1553000   0.98953408    -6.866227    598.77969  0.032130269  0.031996946            3 
 1554000   0.99759521   -6.8908106    596.93466  0.032010653  0.031990407            2 
 1555000   0.98988094   -6.8531333    597.99862  0.032047086   0.03198385            3 
 1556000    1.0012547   -6.8560008    601.10005   0.03219259  0.031977336            3 
 1557000    1.0079126   -6.8598203    601.45392  0.032190854  0.031970917            4 
 1558000    1.0188122   -6.8607027    601.76123  0.032186629  0.031964387            4 
 1559000    1.0242168    -6.894563    598.58749  0.031996338  0.031957811            5 
 1560000    1.0013245   -6.8840423    600.17829  0.032060806  0.031951292            9 
 1561000   0.99535814   -6.8498783    601.28153  0.032099164  0.031944667            7 
 1562000   0.98031044   -6.8787433    600.63926  0.032044348  0.031938114            6 
 1563000   0.99646184   -6.8669556    599.99407  0.031989447  0.031931465            4 
 1564000   0.98696566      -6.8552    603.38153  0.032149485  0.031924889            3 
 1565000    1.0109213   -6.8566718    599.98996  0.031948347  0.031918396            3 
 1566000   0.99021883   -6.8577208    601.69606  0.032018734  0.031911858            3 
 1567000      1.00415   -6.8669299     602.6393  0.032048463  0.031905315            4 
 1568000   0.99464143   -6.8337889    603.68908  0.032083816    0.0318988            4 
 1569000   0.99316611   -6.8624301    603.53146  0.032054996  0.031892453            3 
 1570000   0.98154114    -6.853003    602.85779  0.031998821  0.031886048            3 
 1571000    1.0105667   -6.8621873    603.18771  0.031995953  0.031879545            4 
 1572000    1.0010057    -6.882569    603.71811  0.032003717  0.031872955            3 
 1573000   0.97650865   -6.8765091    604.11207  0.032004242  0.031866355            3 
 1574000   0.95658676    -6.893136    603.55287  0.031954303  0.031859713            2 
 1575000    1.0054969   -6.7998116    605.90366  0.032058394  0.031853218            4 
 1576000   0.97040573   -6.8406038    606.06823  0.032046755  0.031846784            2 
 1577000    1.0126224   -6.8488131    605.03973  0.031972084  0.031840287            6 
 1578000    1.0131337   -6.8681424     605.7914  0.031991519  0.031833722            5 
 1579000   0.98779653   -6.8304774    606.56966  0.032012331  0.031827246            3 
 1580000    1.0045148   -6.9108717    606.09234  0.031966896  0.031820826            4 
 1581000   0.99534459    -6.840997    605.52143  0.031916584  0.031814422            3 
 1582000   0.98280075   -6.8755106     606.3064  0.031937758  0.031808133            3 
 1583000    1.0111044   -6.8522182    606.85097   0.03194625  0.031801728            3 
 1584000   0.99720406   -6.9166676    608.06245  0.031989817  0.031795249            7 
 1585000    1.0032493   -6.8861908    607.10122  0.031919097  0.031788797            2 
 1586000    1.0061931   -6.9059454    609.49411  0.032024701  0.031782441            3 
 1587000   0.98196936   -6.8812522    607.02557  0.031874899  0.031776082            2 
 1588000    1.0043729   -6.8362447    609.37857  0.031978305  0.031769748            4 
 1589000    1.0065283   -6.8931982    610.11642  0.031996876  0.031763306            2 
 1590000   0.98277359   -6.8850206    607.99728  0.031865686  0.031756844            2 
 1591000   0.97904882   -6.8757163    609.65656  0.031932566  0.031750355            4 
 1592000   0.98810394   -6.8651205     608.4934  0.031851623  0.031744071            2 
 1593000    1.0047074   -6.8841465    608.87482  0.031851581  0.031737566           11 
 1594000   0.99413299   -6.8915249    611.39677  0.031963445  0.031731294            4 
 1595000   0.98963889   -6.9028373    611.58829  0.031953411  0.031725003            5 
 1596000    1.0023045   -6.8888605    610.67821  0.031885871  0.031718769            3 
 1597000   0.97968827   -6.8488718    610.21823  0.031841903  0.031712501            5 
 1598000    1.0077493   -6.8859746    611.50852  0.031889263  0.031706125            2 
 1599000    0.9777428   -6.8915433     610.6502  0.031824588  0.031699746            2 
 1600000   0.99997985   -6.8423729    611.68628   0.03185866  0.031693568            2 
 1601000   0.99893762    -6.863281    611.63948  0.031836325  0.031687212            3 
 1602000   0.98755502   -6.9238921    611.23296  0.031795306  0.031680695            6 
 1603000   0.99293045     -6.90531    610.37151  0.031730688  0.031674283            4 
 1604000   0.99982034   -6.8587794    611.87299  0.031788912  0.031667729            3 
 1605000    1.0019766   -6.8862607     612.0823  0.031779974  0.031661101            4 
 1606000   0.98652153   -6.8735553    613.02198  0.031808944  0.031654649            2 
 1607000    1.0080482    -6.886938     613.1507  0.031795825  0.031648041            3 
 1608000   0.99401668   -6.8875611    612.49712  0.031742181  0.031641549            2 
 1609000     0.998221   -6.8844593    614.91569  0.031847715  0.031635179            3 
 1610000   0.98527727   -6.8825421    612.39387  0.031697405  0.031628751            2 
 1611000   0.96530757   -6.8776921    612.40854  0.031678489  0.031622193            3 
 1612000   0.99956103   -6.8327136    614.05725  0.031744068   0.03161558            5 
 1613000   0.97737994   -6.8875735    613.15281  0.031677661  0.031609055            4 
 1614000   0.99393411   -6.8624037    613.23558  0.031662308  0.031602435            3 
 1615000   0.99140101   -6.8600199    615.39201  0.031753974  0.031595833            4 
 1616000    1.0006377   -6.9062305    611.58485  0.031537997  0.031589194            8 
 1617000   0.99913475   -6.9183368    615.12465   0.03170092  0.031582354            2 
 1618000    1.0267663   -6.8778057    615.02861  0.031676381  0.031575769            3 
 1619000    1.0010121   -6.8724683    612.36183  0.031519551  0.031569103            3 
 1620000   0.97489435   -6.8968883    614.00616  0.031584679  0.031562364            4 
 1621000   0.98393735   -6.8919385    616.75511  0.031706514  0.031555747            4 
 1622000   0.98012247   -6.8423411     617.5036  0.031725421  0.031549141            3 
 1623000   0.98802124   -6.9129104    615.80238  0.031618524  0.031542599            5 
 1624000    1.0092557   -6.8714541    615.94396   0.03160632  0.031535758            4 
 1625000    1.0035573   -6.9032315    615.14457  0.031545875  0.031528943            4 
 1626000    0.9839823   -6.8967722    614.44219  0.031490477  0.031522074            4 
 1627000    0.9910316   -6.8831646    617.02877  0.031603604  0.031515158            3 
 1628000   0.99881923   -6.9058832    616.55178  0.031559776   0.03150832            3 
 1629000   0.99391121   -6.8845298    615.74301  0.031499029  0.031501355            9 
 1630000   0.98918255   -6.8573175    617.90055  0.031590007  0.031494439            4 
 1631000   0.98487144   -6.8684817    617.76073  0.031563495  0.031487522            3 
 1632000   0.96670438   -6.8605824     616.6403  0.031486943  0.031480606            6 
 1633000   0.99159873   -6.9156585    617.38576  0.031505703  0.031473706            4 
 1634000    1.0019662   -6.8963628    618.03423  0.031519494    0.0314667            4 
 1635000    1.0039861   -6.8968344    617.63373  0.031479803  0.031459837            2 
 1636000   0.98330443   -6.8944138    618.18234  0.031488505  0.031452976            5 
 1637000   0.98519464   -6.8554924    618.56301  0.031488649  0.031446045            2 
 1638000    1.0030239   -6.8796608    618.79611  0.031481283  0.031439217            3 
 1639000   0.98819398   -6.8963831    618.08163  0.031425749  0.031432338            2 
 1640000    1.0238052   -6.9290316    618.90192  0.031448268  0.031425463            4 
 1641000   0.98215937   -6.8918551    617.70071  0.031368104  0.031418423            5 
 1642000   0.98876962   -6.8825462    618.24528  0.031376638  0.031411459            5 
 1643000   0.98167834   -6.9317181    617.68793  0.031329272  0.031404426            2 
 1644000   0.98651012   -6.8969465     619.4136  0.031397689  0.031397401            4 
 1645000    0.9950596   -6.9030454    618.69619  0.031342259   0.03139039            2 
 1646000   0.99159004   -6.8980997     617.7473  0.031275177   0.03138323            3 
 1647000    1.0051568   -6.8818177    619.87541  0.031363864  0.031376287            5 
 1648000   0.96427268   -6.8952669    618.86777   0.03129388  0.031369276            3 
 1649000   0.98843744   -6.8823964    621.37262  0.031401487  0.031362336            2 
 1650000   0.98939126   -6.9197786     620.6394  0.031345424  0.031355315            2 
 1651000   0.97579178   -6.8909437    623.21178  0.031456278  0.031348378            5 
 1652000    0.9891667   -6.8972847     622.7574  0.031414316  0.031341573            3 
 1653000   0.98615967   -6.9195434    620.30196  0.031271524  0.031334591            2 
 1654000   0.99183437    -6.898411    621.33046  0.031304437  0.031327657            4 
 1655000    1.0126014   -6.9003598    622.26343  0.031332499  0.031320818            2 
 1656000   0.99142102   -6.8997459    619.80145  0.031189686  0.031314064            2 
 1657000   0.97209818   -6.9085007    623.91551  0.031377767   0.03130721            4 
 1658000   0.98173463   -6.9012713    621.87374  0.031256219  0.031300376            4 
 1659000    1.0084054   -6.9095407    625.02521   0.03139568   0.03129359            2 
 1660000   0.98723238   -6.9187428    624.31391   0.03134106  0.031286719            5 
 1661000   0.99131006   -6.9376828    624.78022  0.031345586  0.031279906            4 
 1662000   0.99754057   -6.8844225    622.78748  0.031226809  0.031273038            7 
 1663000    1.0061958   -6.9132446    623.89744  0.031263652  0.031266136            2 
 1664000    1.0023463    -6.891508    625.44035  0.031322133  0.031259241            4 
 1665000    1.0013963   -6.9094083     624.3615  0.031249324  0.031252335            5 
 1666000   0.97754898   -6.8962146    623.90326  0.031207646  0.031245257            6 
 1667000   0.96678126   -6.8999881    623.77832  0.031182679   0.03123818            5 
 1668000   0.96669025    -6.896701    624.28323   0.03118921  0.031231034            3 
 1669000   0.98572328   -6.8815945    624.02073  0.031157416  0.031223978            6 
 1670000    1.0025492   -6.9120316    621.96389  0.031036122   0.03121681            4 
 1671000   0.98212815   -6.9154396    623.64261  0.031101267  0.031209587            5 
 1672000   0.99204394   -6.9159558    624.25056  0.031112967  0.031202345            6 
 1673000   0.98443353   -6.8867987    623.77595  0.031070729  0.031195116            2 
 1674000   0.97503486   -6.9235107    624.30774  0.031078641  0.031187883            5 
 1675000   0.96051649    -6.901099    626.00052  0.031144304  0.031180677            5 
 1676000   0.98580597   -6.9209468     625.1344  0.031082657  0.031173319            3 
 1677000   0.99355073   -6.8819252    626.73236  0.031143528  0.031166124            2 
 1678000   0.99368105   -6.8777068    628.17537  0.031196631  0.031158921            4 
 1679000    0.9824417   -6.9329187    624.59042   0.03100012  0.031151676            4 
 1680000   0.99810621   -6.9119459     626.6495  0.031083805  0.031144327            4 
 1681000   0.98163422   -6.9403679    627.56725  0.031110809  0.031137128            3 
 1682000   0.99201447   -6.9063772    626.82259   0.03105542  0.031129871            3 
 1683000   0.98142888   -6.8871835    626.96965  0.031044249  0.031122588            3 
 1684000   0.97584644   -6.8898786    628.43156  0.031098157  0.031115211            3 
 1685000   0.99273134   -6.9142351    627.53282  0.031035253  0.031107894            4 
 1686000   0.97298732   -6.9214319    627.55814  0.031018097  0.031100602            3 
 1687000   0.99693726   -6.8931226    626.98635  0.030971466  0.031093323            6 
 1688000    0.9700653   -6.8956612    628.48896  0.031027298  0.031086093            4 
 1689000   0.98535002   -6.8889802    628.96712   0.03103252  0.031078845            2 
 1690000   0.98506723   -6.9078464    628.78247  0.031005053  0.031071514            3 
 1691000   0.98088918    -6.905153    627.35558    0.0309164  0.031064068            5 
 1692000   0.97286303   -6.9216746    628.50249  0.030954614   0.03105666            2 
 1693000   0.97248333    -6.914578    628.71103  0.030946595  0.031049298            5 
 1694000   0.97173101   -6.8801586    630.13833  0.030998541  0.031042065            3 
 1695000    1.0134532   -6.9066666    631.09513  0.031027292  0.031034839            3 
 1696000   0.96356969    -6.899593    629.98573  0.030954487  0.031027666            3 
 1697000   0.97085792   -6.9026572     631.9691  0.031033643  0.031020546            2 
 1698000   0.96898933   -6.8812571    631.68281  0.031001316  0.031013426            2 
 1699000   0.96325668   -6.8993939    630.62919  0.030931391  0.031006332            3 
 1700000   0.98944909   -6.9027877    631.52886  0.030957297   0.03099925            4 
 1701000   0.97090705   -6.9457618    630.89654   0.03090812  0.030992062            6 
 1702000    1.0019195   -6.9358287    633.10372  0.030998028  0.030984969            4 
 1703000   0.95908363   -6.9166298    632.64044  0.030957156   0.03097789            3 
 1704000   0.98668099    -6.904845    632.72489  0.030943119   0.03097082            2 
 1705000   0.95510141   -6.8882514    634.60348  0.031016788  0.030963721            3 
 1706000   0.97091119   -6.9336236    634.48197  0.030992672  0.030956769            4 
 1707000    0.9676698   -6.8935177    633.15267  0.030909621  0.030949633            5 
 1708000    0.9794729   -6.9104473    634.06454  0.030936014  0.030942509            2 
 1709000   0.98086309   -6.8966244     632.8227  0.030857358  0.030935413            2 
 1710000    0.9907159     -6.93068     633.0178  0.030848821  0.030928248            3 
 1711000   0.96869538   -6.9071179    633.84838  0.030871244  0.030920902            3 
 1712000   0.97304748    -6.903664    633.38219  0.030830519  0.030913667            3 
 1713000   0.96269362   -6.8930499    636.24945  0.030952007  0.030906543           10 
 1714000   0.98358155   -6.9201502    634.27182  0.030837797  0.030899356            4 
 1715000   0.97228689   -6.8968625    636.10979  0.030909125  0.030892219            6 
 1716000   0.97136345   -6.9079847    635.48401  0.030860723  0.030885029            4 
 1717000   0.99001671   -6.9205002    635.50312  0.030843677  0.030877894            3 
 1718000   0.96868264   -6.8903629    635.62261   0.03083152  0.030870755            3 
 1719000   0.97389821   -6.8756841    636.22256  0.030842668  0.030863698            2 
 1720000   0.99377779   -6.9005276    635.70571  0.030799695  0.030856569            3 
 1721000   0.98119319   -6.8929231    636.84443  0.030836937  0.030849576            3 
 1722000   0.99389721   -6.9180331    635.42282  0.030750233  0.030842506            2 
 1723000   0.98056812   -6.9105171    637.09917  0.030813464  0.030835355           10 
 1724000   0.95455495   -6.9278487    635.16788  0.030702237   0.03082814            3 
 1725000   0.97818446   -6.9047648    636.34992  0.030741542  0.030821035            3 
 1726000    0.9719546   -6.9679774    637.02784  0.030756462  0.030813888            2 
 1727000   0.99689044   -6.9342229    638.41215   0.03080545  0.030806674            5 
 1728000    1.0013567   -6.9207654    638.15507  0.030775225  0.030799551            5 
 1729000    0.9695009   -6.8827473    637.95957  0.030748003  0.030792426            4 
 1730000   0.99869368   -6.8920322    636.56195  0.030662907  0.030785381            4 
 1731000   0.99185504   -6.9255373    638.13997  0.030721162  0.030778176            3 
 1732000   0.97924641   -6.9565279    638.71261  0.030730976  0.030771063            4 
 1733000   0.97731629   -6.9078839    638.70599  0.030712925  0.030763813            4 
 1734000   0.98358616   -6.9371726    636.92322  0.030609536  0.030756587            4 
 1735000   0.97723172   -6.9480465    637.76249  0.030632204  0.030749408            3 
 1736000   0.96968941   -6.9160372    639.88471  0.030716432  0.030742284            3 
 1737000   0.97032091   -6.9067215    640.97391  0.030751003  0.030735298            3 
 1738000   0.97625763   -6.9268063    640.56716  0.030713807  0.030728364            2 
 1739000   0.97271531   -6.9192315    640.78911  0.030706781  0.030721244            2 
 1740000   0.97089988   -6.9498823    642.66643  0.030779044  0.030714108            6 
 1741000   0.99343699   -6.9071096    642.41293  0.030749231  0.030707021            3 
 1742000   0.96186383   -6.8935161    640.66828  0.030648119  0.030699974            2 
 1743000   0.95116818   -6.9002685    642.06706  0.030697411   0.03069292            1 
 1744000   0.95638627   -6.9263568     640.2085  0.030591002  0.030685717            3 
 1745000   0.97339219   -6.9595442     640.2609  0.030575974  0.030678314            2 
 1746000   0.97103458   -6.9508626    642.65239  0.030672604  0.030671069            5 
 1747000   0.98046466    -6.895609    642.16176  0.030631643  0.030663888            4 
 1748000   0.94592939   -6.9179101    640.18133  0.030519705    0.0306566            6 
 1749000   0.97310829    -6.908603    640.32138  0.030508928  0.030649343            4 
 1750000   0.99287513   -6.8869257    642.45734  0.030593207  0.030641994            5 
 1751000   0.94469269    -6.930983    642.25525  0.030566117  0.030634623            4 
 1752000   0.97487315   -6.9493728    640.53484   0.03046684  0.030627189            4 
 1753000   0.97682904    -6.907032    642.58321  0.030546835    0.0306197            1 
 1754000   0.98707404   -6.9334761    640.93177  0.030450958  0.030612234            2 
 1755000   0.96002867   -6.9287349    640.79022  0.030426886  0.030604778            6 
 1756000   0.96917187   -6.9291946    642.69101  0.030499763  0.030597409            7 
 1757000   0.98570536   -6.9184044    642.71612  0.030483595  0.030589968            8 
 1758000   0.98331585   -6.9641622    641.71848  0.030418965  0.030582587            6 
 1759000   0.94993299   -6.9168792    645.57811  0.030584523  0.030575155            2 
 1760000   0.96034523   -6.9397874    642.55252  0.030423888  0.030567771            3 
 1761000   0.97282644    -6.947116    642.08467  0.030384472  0.030560366           11 
 1762000   0.96720322   -6.8996814    644.90129  0.030500439  0.030553057            4 
 1763000   0.98148472   -6.9295933    643.16932  0.030401273   0.03054574            2 
 1764000   0.95202676   -6.9417394    644.50302  0.030447043  0.030538358            2 
 1765000   0.94710416   -6.9120661    646.74176  0.030535494  0.030531034            1 
 1766000    0.9673616   -6.9407284    645.56543  0.030462695   0.03052379           10 
 1767000   0.95998956   -6.8969767    645.23903  0.030430062  0.030516589            2 
 1768000   0.98267623   -6.9233123    645.19981  0.030411002  0.030509265            3 
 1769000   0.95041685   -6.9542594    645.50712  0.030408287  0.030501978            8 
 1770000   0.96871955   -6.9304115    644.49563  0.030343486  0.030494757            6 
 1771000   0.96691368   -6.9551928    645.41288  0.030369512  0.030487455            3 
 1772000   0.95434325    -6.965329    646.34858  0.030396378  0.030480063            7 
 1773000   0.99089363   -6.8896791     646.7445  0.030397842  0.030472796            2 
 1774000    0.9641975   -6.9198245    645.44018  0.030319437  0.030465483            3 
 1775000   0.96967696   -6.9465739    646.30251  0.030342841  0.030458076            6 
 1776000   0.96780017   -6.9251794    647.82663   0.03039727  0.030450726            2 
 1777000   0.97508176   -6.9105493    647.47854  0.030363841  0.030443417            2 
 1778000   0.93521598   -6.9436602    648.13177  0.030377379  0.030436099            3 
 1779000    0.9704947   -6.9683769    646.03346  0.030262013  0.030428673            5 
 1780000    0.9629014   -6.9406803    646.05204  0.030245882  0.030421194            4 
 1781000   0.95980185   -6.9565636     646.5684   0.03025306  0.030413761            3 
 1782000   0.96043375   -6.9497602    648.20832  0.030312772  0.030406309            5 
 1783000   0.97617838   -6.9635453    649.05905  0.030335532  0.030398932            4 
 1784000   0.95246539   -6.9356916     649.0919  0.030320062  0.030391574            5 
 1785000   0.98008872   -6.9481673    647.62239  0.030234472  0.030384247            5 
 1786000   0.97955731   -6.9550453    646.99916  0.030188464  0.030376793           10 
 1787000   0.96829459   -6.9554931    648.70441  0.030251092  0.030369318            4 
 1788000   0.97260711    -6.966261    648.92076  0.030244256  0.030361879            6 
 1789000   0.97949563    -6.905912    649.42537  0.030250856  0.030354328            6 
 1790000   0.97937283   -6.9351628    647.62033  0.030149922  0.030346897            4 
 1791000   0.96901881     -6.96918    650.01947  0.030244717   0.03033931            4 
 1792000   0.94870739    -6.936494     649.3196  0.030195294  0.030331811            4 
 1793000   0.96242305   -6.9233749      652.862  0.030343093  0.030324387            4 
 1794000   0.95280427   -6.9422698    651.40463  0.030258483  0.030317029            2 
 1795000   0.97997396   -6.9363283    651.40677  0.030241726  0.030309742            2 
 1796000   0.97814957    -6.939874    650.98569  0.030205349  0.030302367            2 
 1797000   0.94882031   -6.9480737    650.64012  0.030172515  0.030294962            2 
 1798000   0.96169649   -6.9743635    651.19249  0.030181335  0.030287562            5 
 1799000   0.97574907   -6.9434824    651.88623  0.030196694  0.030280182            3 
 1800000   0.96578063   -6.9256384    650.93387  0.030135827  0.030272771            3 
 1801000   0.97837415   -6.9175529     650.7997  0.030112886  0.030265318            4 
 1802000   0.96264244   -6.9775725    649.13886   0.03001937   0.03025784            5 
 1803000   0.94838636   -6.9567998    651.90178  0.030130421   0.03025036            5 
 1804000   0.95050032   -6.9503002    652.91294  0.030160428  0.030243006            2 
 1805000    0.9808554     -6.94339    652.37657  0.030118955  0.030235689            4 
 1806000   0.95978172   -6.9640663    652.62452  0.030113719  0.030228218            4 
 1807000   0.96197056   -6.9474748    654.84465   0.03019944  0.030220789            7 
 1808000   0.97142532   -6.9600407    653.89518  0.030138974   0.03021342            3 
 1809000   0.96544058   -6.9391981    654.03702  0.030128847  0.030206074            6 
 1810000    0.9468133   -6.9492024    651.73488   0.03000621   0.03019865            4 
 1811000   0.98274598   -6.9705627    652.97554   0.03004673  0.030191143            4 
 1812000   0.95498521   -6.9471802    652.34891  0.030001329  0.030183492            3 
 1813000    0.9722092   -6.9676288    652.38133  0.029986272  0.030175863           11 
 1814000   0.97377192   -6.9662806    652.66603   0.02998282  0.030168277           10 
 1815000   0.96725134   -6.9601957    651.99666  0.029935568  0.030160684           12 
 1816000   0.97050444   -6.9803361     653.9876  0.030010444   0.03015297            2 
 1817000   0.95626986   -6.9459626     654.0958   0.02999889  0.030145364            4 
 1818000   0.96684448   -6.9444337     654.2091  0.029987582  0.030137796            3 
 1819000   0.97522682    -6.969838    654.47132   0.02998311  0.030130237            5 
 1820000   0.95953828   -6.9344865    656.00645  0.030036925  0.030122752            2 
 1821000   0.95135458     -6.91156    654.44433  0.029948944  0.030115241            3 
 1822000    0.9768202   -6.9207285     656.6428  0.030033059  0.030107758            3 
 1823000   0.96972329   -6.9361945    655.60543  0.029969164  0.030100324            7 
 1824000   0.95515076   -6.9512416    655.66735  0.029955563  0.030092806            4 
 1825000   0.96297254   -6.9635164    654.70142  0.029895042  0.030085298            3 
 1826000   0.96137261   -6.9595823    655.47761  0.029914093   0.03007769            6 
 1827000   0.96094657   -6.9513963    657.19609  0.029976103  0.030070178            3 
 1828000    0.9714527   -6.9457236    657.71434  0.029983331  0.030062545            3 
 1829000   0.97328717   -6.9823371    655.74338  0.029877136  0.030054911            4 
 1830000   0.94702994   -6.9769289    657.02981   0.02991939  0.030047276            5 
 1831000    0.9673215   -6.9577055    656.59268  0.029883155  0.030039742            7 
 1832000   0.96004468   -6.9399945    656.75777  0.029874353  0.030032135            5 
 1833000   0.95746041    -6.949197    657.30026  0.029882718  0.030024588            3 
 1834000   0.94913025   -6.9367952    658.22902  0.029908625   0.03001706            3 
 1835000   0.94361204   -6.9262152    657.65352  0.029866191  0.030009512            3 
 1836000   0.95618093   -6.9436132    659.41851  0.029930034  0.030001943            2 
 1837000   0.95469019   -6.9711599    657.84167   0.02984221  0.029994327            4 
 1838000   0.93426847   -6.9305059    658.04186   0.02983505  0.029986763            4 
 1839000   0.94817993   -6.9723925    658.14546  0.029823521  0.029979199            4 
 1840000   0.95253121   -6.9542958    658.30091  0.029814353  0.029971583            2 
 1841000   0.94242005   -6.9607694    660.14829   0.02988178   0.02996393            3 
 1842000   0.96250789   -6.9515067    657.33364  0.029738221   0.02995628            4 
 1843000   0.95153864   -6.9231955    659.80433  0.029833801  0.029948685            3 
 1844000   0.96307527    -6.943968    659.38586   0.02979871  0.029941189            4 
 1845000   0.97652724   -6.9524317    660.84526  0.029848476  0.029933702            2 
 1846000   0.95475936   -6.9517607    660.63514  0.029822821  0.029926254            3 
 1847000   0.96670742   -6.9374712    659.31834  0.029747263  0.029918668            3 
 1848000   0.93699273   -6.9863142    658.18832  0.029680209  0.029911021            3 
 1849000   0.94548893   -6.9788063    659.06555  0.029703694  0.029903391            4 
 1850000   0.94869282    -6.956384    660.34604  0.029745317  0.029895742            2 
 1851000   0.96321983   -6.9476533     660.0771   0.02971714  0.029888206            3 
 1852000   0.97050496   -6.9703919    659.97387  0.029696449  0.029880722            4 
 1853000   0.95338366   -6.9236061    658.97178  0.029635356  0.029873146            4 
 1854000   0.96010718   -6.9801929    661.79329  0.029746192  0.029865588            1 
 1855000   0.96770821   -6.9510237    659.82484  0.029641727  0.029857933            3 
 1856000   0.94633274   -6.9860154    660.52132  0.029657028  0.029850433            2 
 1857000   0.95219418   -6.9624219    661.03198  0.029663973  0.029842942            4 
 1858000   0.93923227   -6.9556784    661.94154  0.029688802  0.029835437            4 
 1859000   0.95318442   -6.9673287    663.26569   0.02973219  0.029827993            4 
 1860000   0.96037996    -6.968024    662.01374  0.029660114   0.02982057            3 
 1861000   0.96653115   -6.9480708    663.48332  0.029709982  0.029813084            2 
 1862000   0.95229329   -6.9684156    663.95346  0.029715067  0.029805557            3 
 1863000   0.95207506   -7.0133394    660.53946  0.029546406  0.029797944            3 
 1864000   0.97838378   -6.9880966    661.59818  0.029577887  0.029790298            2 
 1865000   0.97407725   -6.9388347    664.75251  0.029702972  0.029782678            4 
 1866000   0.95882164   -6.9314595    662.40518  0.029582225  0.029775098            3 
 1867000   0.95790225    -6.958819    663.81697  0.029629395  0.029767503            2 
 1868000   0.93842534   -6.9391252    664.33048  0.029636442  0.029759903            5 
 1869000   0.94248624   -6.9581247    664.41742  0.029624461  0.029752313            3 
 1870000   0.93535164   -6.9842313    663.42595  0.029564436  0.029744694            4 
 1871000    0.9345049   -6.9643792    664.43514  0.029593584  0.029736995            5 
 1872000   0.95481979   -6.9606086    665.32489  0.029617383  0.029729277            4 
 1873000   0.96325214   -6.9667401    664.90726  0.029582989  0.029721643            7 
 1874000   0.94959731    -6.983026    663.20742  0.029491614  0.029714015            8 
 1875000   0.94677238   -6.9797531    664.04589  0.029513151  0.029706339            3 
 1876000   0.96192493   -6.9544335    665.13406  0.029545756  0.029698677            3 
 1877000   0.93725743   -6.9655688     665.0269  0.029525257  0.029690964            2 
 1878000   0.94460931   -6.9815396    665.28008   0.02952077   0.02968319            7 
 1879000   0.94929935   -6.9904039    664.48264  0.029469693  0.029675424            4 
 1880000   0.93898095   -6.9593149     665.2197  0.029486689  0.029667787            2 
 1881000   0.92927451   -6.9551363    666.70396   0.02953677  0.029660184            6 
 1882000   0.93632725   -6.9898538    664.27213  0.029413396  0.029652517            3 
 1883000   0.94452771   -6.9649579    664.05905  0.029388345  0.029644717            5 
 1884000   0.92857519   -6.9720943    664.23486  0.029380523   0.02963694            5 
 1885000   0.94987463   -6.9550496    664.82446  0.029391002  0.029629123            7 
 1886000   0.92974758   -6.9829534    664.70154  0.029369987  0.029621301            3 
 1887000   0.94112472   -6.9807206    664.91053  0.029363652  0.029613464            5 
 1888000   0.95750356   -6.9490192    664.92543  0.029348757  0.029605664            3 
 1889000   0.94871498   -6.9729129    665.72304  0.029368407  0.029597804            3 
 1890000   0.93595647   -6.9690402    664.61489  0.029304007  0.029589987            3 
 1891000   0.93082359   -6.9477951    666.73985  0.029382155  0.029582186            3 
 1892000   0.92050353   -6.9668181    664.35284  0.029261489  0.029574319            4 
 1893000   0.95156805   -6.9668479    668.47708  0.029427587  0.029566518            3 
 1894000   0.94114816   -6.9651592    667.18441  0.029355175  0.029558769            4 
 1895000   0.95779187   -6.9917979    666.01853  0.029288414  0.029550924            9 
 1896000   0.95439196   -6.9674714    665.85206  0.029265649  0.029542962            2 
 1897000   0.92734363   -6.9647866     666.0098  0.029257152   0.02953507            4 
 1898000   0.94520307    -6.980037    667.90367  0.029324889  0.029527251            3 
 1899000   0.94092071    -6.985615      667.913  0.029309856  0.029519503            4 
 1900000   0.94523461   -6.9652735    668.15637  0.029305104  0.029511705            2 
 1901000   0.93211878   -6.9880282    668.14772  0.029289309  0.029503923            4 
 1902000   0.94991804   -7.0185487     668.1968   0.02927606  0.029496094            2 
 1903000   0.92835391   -7.0115982    669.15483  0.029302629  0.029488293            3 
 1904000   0.95291283   -6.9431053    669.30429   0.02929378  0.029480515            2 
 1905000   0.94093879   -6.9586728     670.4669  0.029329261  0.029472761            5 
 1906000   0.92764839   -6.9387047    670.24764  0.029304287  0.029464967            2 
 1907000   0.95978199    -6.954965    670.43061  0.029296915   0.02945726            3 
 1908000   0.92957783   -6.9680591    670.15268  0.029269422  0.029449464            6 
 1909000   0.94591861   -6.9620879    669.21621   0.02921321  0.029441695            3 
 1910000   0.96062364    -6.964817    669.64398  0.029216579  0.029433938            2 
 1911000   0.94682215   -6.9898146    669.52358   0.02919604  0.029426166            3 
 1912000   0.94179831   -6.9644023    670.19648  0.029210097  0.029418373            3 
 1913000   0.94306961   -6.9753902    671.82038  0.029265568  0.029410592            3 
 1914000   0.94436906   -6.9830964    670.92491   0.02921129  0.029402839            6 
 1915000   0.93897529   -6.9475069    669.18121  0.029120157  0.029395063            4 
 1916000   0.94025428   -6.9832566    670.07553  0.029143855  0.029387311            3 
 1917000   0.94145412    -6.983324    671.30544  0.029182118  0.029379546            2 
 1918000   0.93928118   -6.9641032    669.93872  0.029107522  0.029371738            3 
 1919000   0.95800506   -6.9922563    670.27862  0.029107114   0.02936391            5 
 1920000   0.94359088   -7.0084321     669.9521  0.029077782  0.029356027            9 
 1921000   0.95722502   -6.9831124    669.81013  0.029056487  0.029348195            1 
 1922000   0.93249007   -6.9657344    672.95268  0.029177622  0.029340486            4 
 1923000   0.94746065    -6.987995    672.81326  0.029156408  0.029332651            3 
 1924000   0.95877361   -6.9893273     672.8981  0.029144928   0.02932493            2 
 1925000   0.94253626   -6.9843277    671.74817  0.029080007   0.02931712            4 
 1926000   0.95274755   -7.0034827    673.52166  0.029141643  0.029309319            7 
 1927000    0.9520496   -6.9898163    674.44452   0.02916643  0.029301551            4 
 1928000   0.93454982   -6.9779644    673.00405  0.029089041  0.029293845            5 
 1929000   0.94108817   -6.9735509    674.08701  0.029120745  0.029286201            2 
 1930000   0.94338667   -6.9877552     673.9316  0.029098946  0.029278541            5 
 1931000   0.92135406   -6.9604138    674.55176   0.02911064  0.029270854            4 
 1932000   0.96344186   -6.9766741    674.25474  0.029082761  0.029263144            2 
 1933000   0.93338052   -6.9914444    674.32888  0.029070912  0.029255422            6 
 1934000    0.9366976   -6.9828765    672.67158   0.02898447  0.029247587            6 
 1935000   0.92882529   -6.9671095    677.04938  0.029158027  0.029239853            3 
 1936000   0.93055388   -6.9662746    675.10894  0.029059441  0.029232198            3 
 1937000   0.94429451   -6.9939397    675.30564  0.029052901  0.029224446            4 
 1938000   0.95668497   -6.9703718    675.79536  0.029058968  0.029216714            3 
 1939000   0.92174495   -6.9683425    678.10199  0.029143114  0.029209066            8 
 1940000   0.94021559   -6.9861557    674.00814   0.02895224  0.029201379            3 
 1941000   0.94392633   -6.9969542    675.67669   0.02900896  0.029193626            3 
 1942000   0.92285284   -6.9819669    675.92106  0.029004508  0.029185897            2 
 1943000   0.95429116   -6.9834319    674.88825  0.028945284  0.029178196            6 
 1944000   0.93414153   -6.9704818    675.34475  0.028949964    0.0291705            9 
 1945000   0.94227223    -6.989466    676.38361  0.028979589  0.029162769            5 
 1946000    0.9321025   -7.0225843    675.38983  0.028922141  0.029154956            4 
 1947000   0.92217781   -6.9811717    677.85185  0.029012663  0.029147119            6 
 1948000   0.93926934   -6.9633811    677.89722   0.02899971  0.029139376            2 
 1949000   0.93698975   -7.0092986    675.22572  0.028870606   0.02913159            2 
 1950000   0.94263859   -6.9862523    677.37044  0.028947455  0.029123763            6 
 1951000   0.95494693   -7.0070193    677.62435  0.028943463  0.029115995            6 
 1952000   0.94152056   -7.0082671    677.03115  0.028903311  0.029108136            2 
 1953000   0.93905271   -6.9811077    678.72217  0.028960666  0.029100359            3 
 1954000   0.92857247   -6.9817843    679.32574  0.028971585  0.029092612            3 
 1955000   0.92863466   -6.9697377    677.07932  0.028861011  0.029084904            3 
 1956000   0.92030346   -7.0252118    677.01543  0.028843534  0.029077148            4 
 1957000   0.95861248   -7.0064682    677.90637  0.028866733  0.029069327            2 
 1958000   0.90868245   -6.9592232    679.15875  0.028905292  0.029061647            5 
 1959000   0.94408668   -6.9881996    678.55878  0.028865015   0.02905402            6 
 1960000   0.94800395   -6.9870267    678.01889  0.028827334   0.02904637            3 
 1961000   0.93560251    -6.991873    679.71169  0.028884569  0.029038757            2 
 1962000   0.94529773   -6.9888903    679.88836  0.028877351  0.029031117            7 
 1963000   0.92237258    -6.971303    679.84356  0.028860739  0.029023436            5 
 1964000   0.94830442   -7.0031704    680.97319  0.028893974  0.029015736            4 
 1965000   0.93728607   -6.9841425      681.485  0.028900976  0.029008105            5 
 1966000   0.92150338   -6.9904452    681.26115  0.028876786  0.029000485            5 
 1967000    0.9400345   -7.0128183    681.71209  0.028881211   0.02899289           11 
 1968000   0.94473402   -7.0174674    678.81676  0.028743934  0.028985343            3 
 1969000   0.93306002   -7.0127465    680.79189  0.028812929  0.028977676            5 
 1970000   0.93509979   -7.0088137    681.91338  0.028845744  0.028970037            8 
 1971000   0.91591016   -7.0143877    681.43664  0.028810952  0.028962419            4 
 1972000   0.92531762    -7.005951    681.35233  0.028792779  0.028954887            7 
 1973000   0.92071018   -6.9845949    682.38281   0.02882171  0.028947319            4 
 1974000   0.92574998   -6.9995855    681.82123  0.028783402  0.028939728            2 
 1975000   0.91955327    -7.006159    684.58543  0.028885461  0.028932102            4 
 1976000   0.92152537   -7.0103722    681.86302  0.028756032  0.028924534            3 
 1977000    0.9273146   -6.9989305    680.59786  0.028688158  0.028916866            4 
 1978000   0.94585694   -7.0022487    682.17416  0.028740064  0.028909227            3 
 1979000   0.95582272   -7.0026603    683.19382  0.028768478  0.028901564            4 
 1980000   0.94231602   -6.9550473    683.99182  0.028787534  0.028893968            8 
 1981000   0.92329903   -7.0134869    682.16488   0.02869615  0.028886282            4 
 1982000   0.94539636   -6.9937498    683.03471  0.028718244  0.028878587            2 
 1983000   0.92092167   -6.9621619    685.96695  0.028826986  0.028870991            2 
 1984000   0.93879554   -6.9812729    684.80341  0.028763584   0.02886339            3 
 1985000    0.9280915    -6.994273    683.36454  0.028688688  0.028855762            4 
 1986000   0.93899881   -6.9745074    683.57521  0.028683082  0.028848116            3 
 1987000   0.91351965   -6.9694099    685.73187  0.028759096  0.028840519            2 
 1988000   0.91530346   -6.9868637    685.05323  0.028716182  0.028832949            6 
 1989000   0.95190039   -7.0313285    682.64001  0.028600637  0.028825299            8 
 1990000   0.91842589   -6.9914955    684.42521  0.028661022  0.028817658            3 
 1991000   0.92786842   -7.0277483    685.04202  0.028672444  0.028810024            5 
 1992000   0.92348324   -7.0169114    684.34567  0.028628919   0.02880232            2 
 1993000   0.94907261   -7.0155819    685.39308  0.028658349   0.02879464            2 
 1994000   0.95487521   -7.0240624     685.5865   0.02865206  0.028787029            2 
 1995000   0.93307553   -7.0451755       684.09  0.028575188  0.028779399            4 
 1996000     0.936778   -7.0385715    686.48143  0.028660714  0.028771819            5 
 1997000   0.94430227   -6.9770263    686.00717  0.028626572  0.028764268            3 
 1998000   0.92481737   -7.0026186    687.57013  0.028677433  0.028756722            3 
 1999000   0.92347811   -7.0244879    684.78172  0.028546845  0.028749147            5 
 2000000   0.95158111   -6.9689343    686.03784   0.02858491  0.028741544            3 
 2001000   0.91050722   -7.0140191     687.5951  0.028635478  0.028733965            3 
 2002000   0.93960529   -7.0254779    686.12561  0.028560007  0.028726377            4 
 2003000   0.95990052   -6.9681946    687.33007  0.028595859  0.028718796            1 
 2004000   0.93292321   -7.0204428    686.42734  0.028544051  0.028711125            4 
 2005000   0.93730194   -6.9955239    686.04857  0.028514072  0.028703454            4 
 2006000   0.92687791   -7.0050536    687.51276  0.028560683   0.02869579            3 
 2007000   0.92697536     -7.02145    687.90776  0.028562853  0.028688091            2 
 2008000   0.92519307   -6.9985938    687.06367  0.028513598  0.028680439            5 
 2009000   0.92383189   -6.9828134    686.32348  0.028468702  0.028672818            4 
 2010000   0.91035037   -7.0105737    688.48629  0.028544208   0.02866507            6 
 2011000    0.9432861   -7.0322132    686.41051  0.028443996  0.028657336            4 
 2012000   0.93165172   -7.0431199    686.06892  0.028415711  0.028649646            6 
 2013000   0.93056957   -7.0366929    688.52555  0.028503293   0.02864199            3 
 2014000   0.94450146   -7.0021859    688.90571  0.028504871  0.028634373            6 
 2015000   0.93939541   -7.0100744    687.92778   0.02845028   0.02862676            1 
 2016000   0.91788231   -7.0490353     688.7281   0.02846925  0.028619188            3 
 2017000   0.93213819   -6.9621618    690.97998  0.028548173  0.028611707            8 
 2018000   0.93669654   -7.0052602    691.01947  0.028535657  0.028604211            3 
 2019000   0.94794458   -7.0358947    690.17195  0.028486542  0.028596672            3 
 2020000   0.92253856   -7.0120463    689.58838  0.028448366  0.028589078            5 
 2021000   0.94039958   -7.0233791    691.66183  0.028519785  0.028581524            3 
 2022000   0.94144717   -6.9924731    691.27263   0.02848964  0.028574023            6 
 2023000   0.94026525   -7.0259281     691.3311  0.028477966  0.028566463            4 
 2024000   0.93245727   -7.0040195    690.93035  0.028447396  0.028558932            3 
 2025000   0.93093804   -6.9852215    692.21045  0.028486027  0.028551516            2 
 2026000   0.92933506   -7.0300997    691.41651   0.02843931  0.028544055            3 
 2027000   0.90402755   -7.0107699    691.37197  0.028423449  0.028536584            3 
 2028000   0.95060366   -6.9917406    693.42132  0.028493644  0.028529169            3 
 2029000   0.93908106   -7.0363603    693.03735  0.028463831  0.028521747            4 
 2030000   0.90934909   -7.0024388    693.69429  0.028476777  0.028514309            2 
 2031000   0.95496828   -6.9883063    693.81242  0.028467603  0.028506858            5 
 2032000   0.93730909    -7.039913    691.73692  0.028368476  0.028499331            9 
 2033000   0.93879309   -6.9796026    693.21766  0.028415218  0.028491886            2 
 2034000   0.91420879   -7.0000083    693.13242  0.028397756  0.028484436            7 
 2035000   0.92133028   -7.0390646    691.53612  0.028318432  0.028476913            3 
 2036000   0.90892964   -6.9858156    692.92665  0.028361438  0.028469328            4 
 2037000    0.9240504   -7.0067414    694.17542  0.028398602  0.028461791            2 
 2038000   0.93700701   -7.0591073    692.37081  0.028310877  0.028454272            5 
 2039000   0.90783353   -7.0675898    693.38559  0.028338466  0.028446732            4 
 2040000   0.93383973   -7.0023799    693.26037  0.028319459   0.02843919            5 
 2041000   0.91090309   -7.0060528     694.5716  0.028359121  0.028431714            3 
 2042000   0.92146415   -7.0605839    694.88633  0.028358078  0.028424267            3 
 2043000   0.92629029   -7.0181535    693.74394  0.028297599   0.02841683            2 
 2044000    0.9037185    -7.058836     694.5786  0.028317784  0.028409408            2 
 2045000   0.91633618   -7.0008769    696.98298  0.028401914  0.028401917            7 
 2046000   0.92555712    -6.994725    695.48996  0.028327222  0.028394521            2 
 2047000   0.93737167   -7.0228368    696.90305  0.028370911  0.028387122            3 
 2048000   0.94521612   -7.0128232    696.15391  0.028326575  0.028379712            4 
 2049000   0.91978097   -6.9854666     697.5157  0.028368135  0.028372333            3 
 2050000   0.91000218   -7.0195035     694.4445  0.028229451  0.028364888            4 
 2051000    0.9119259   -7.0365336    696.74382   0.02830911  0.028357504            3 
 2052000    0.9130759   -7.0155912    696.95936  0.028304068  0.028350111            2 
 2053000   0.93279722   -7.0550575    695.93735  0.028248796  0.028342781            4 
 2054000   0.94974231   -7.0329605    696.48459  0.028257245  0.028335355           11 
 2055000   0.91292874   -7.0264316    698.82543   0.02833842  0.028327954            4 
 2056000   0.93170654   -7.0375033    697.51937  0.028271699  0.028320554            3 
 2057000   0.92122935   -7.0317797    697.85218  0.028271438  0.028313205            1 
 2058000   0.91688481   -7.0440123    697.09547   0.02822706  0.028305886            4 
 2059000   0.91187225   -7.0315168    697.41993  0.028226483  0.028298557            5 
 2060000    0.9125841   -7.0236852    698.92894  0.028273824  0.028291186            3 
 2061000   0.90771243   -7.0447782    698.97473  0.028261957  0.028283865            3 
 2062000   0.90075878   -7.0212112    701.31612  0.028342876  0.028276536            6 
 2063000   0.91473227   -7.0493467    697.41538   0.02817157  0.028269235            5 
 2064000   0.92765957   -7.0085045    698.52979  0.028202914  0.028261868            3 
 2065000   0.94209848   -7.0639164    697.92127    0.0281647  0.028254479            4 
 2066000   0.92268872    -7.050159     698.4232  0.028171313  0.028247033            4 
 2067000   0.92053367   -7.0260938    698.31214  0.028153207  0.028239606            4 
 2068000   0.92438587   -7.0407136    698.24523  0.028136897  0.028232261            4 
 2069000   0.90072532   -7.0268696    699.61187  0.028178342  0.028224806            6 
 2070000   0.90112203   -7.0346691    700.72668  0.028209609  0.028217417            3 
 2071000   0.93735745   -7.0851545    699.02881  0.028127668  0.028210096            5 
 2072000   0.92716056   -7.0576253    700.70907  0.028181671  0.028202674            5 
 2073000   0.91260175   -7.0413685    699.44079  0.028117092  0.028195292            4 
 2074000   0.92972597   -7.0442324    699.48288  0.028105227   0.02818794            6 
 2075000   0.89241795   -7.0421565    700.16367  0.028119023  0.028180537           20 
 2076000    0.9129819   -7.0111394    702.40489  0.028195443  0.028173274            2 
 2077000   0.91039702   -7.0384526    700.08081  0.028088622  0.028166077            5 
 2078000   0.91991218   -6.9955704    702.56865  0.028174874  0.028158863            3 
 2079000   0.93196853   -7.0513392    702.72155   0.02816745  0.028151618            5 
 2080000   0.93132096   -7.0532221    701.65323  0.028111107  0.028144333            3 
 2081000    0.9221835   -7.0118415    701.07127  0.028074294  0.028137064            3 
 2082000   0.90401381   -7.0366215    701.97852  0.028097123  0.028129772            4 
 2083000   0.91465815   -6.9946566    703.93102  0.028161747  0.028122521            6 
 2084000   0.92829951   -7.0354726    701.88142  0.028066276  0.028115311            4 
 2085000   0.90729514   -7.0255458    705.27682  0.028188522  0.028108107            3 
 2086000   0.92701924   -7.0247085    704.94108  0.028161596  0.028100894            4 
 2087000   0.90797764   -7.0195683    705.30164    0.0281625  0.028093726            4 
 2088000    0.8983722   -7.0312848    703.89609  0.028092916  0.028086501            2 
 2089000   0.90314695   -7.0312913    704.42216  0.028100453  0.028079228            2 
 2090000   0.91169419   -7.0431016    703.08916  0.028033858  0.028071981            4 
 2091000    0.9425822   -7.0325309    704.97934  0.028095781  0.028064723            3 
 2092000    0.9116342   -7.0368323    706.03651  0.028124463  0.028057516            2 
 2093000   0.91321175   -7.0503443    705.32691  0.028082772  0.028050268            6 
 2094000    0.8978453   -7.0513875    705.11719  0.028061015  0.028043045            3 
 2095000   0.91378545   -6.9900268    706.17366  0.028089644  0.028035834            5 
 2096000   0.92233227   -7.0073696    705.64363   0.02805517  0.028028751            4 
 2097000   0.91240248   -7.0543097    706.51065  0.028076246  0.028021628            7 
 2098000   0.90469008   -7.0259041     704.7171  0.027991623  0.028014475            3 
 2099000   0.93730565   -7.0049507    707.77344  0.028099629  0.028007453            4 
 2100000   0.91942861   -7.0632449    707.28421  0.028066834   0.02800039            3 
 2101000   0.93290678   -7.0260347    708.50239  0.028101792  0.027993299            3 
 2102000   0.88766715   -7.0376116    707.87129  0.028063404  0.027986177            4 
 2103000   0.92653291   -7.0495997     706.5393  0.027997278  0.027979073            5 
 2104000   0.92687806   -7.0703724    703.96947  0.027882188  0.027971937            4 
 2105000   0.91290851   -7.0354753    708.23068  0.028037636   0.02796486            2 
 2106000   0.90503019   -7.0299711     708.0129  0.028015705  0.027957725            2 
 2107000   0.91846088   -7.0516511    706.74454  0.027952244   0.02795055            3 
 2108000   0.92921098   -7.0474629    705.42815  0.027886945  0.027943434            2 
 2109000   0.87606982   -7.0632459    706.58434  0.027919406   0.02793629            3 
 2110000   0.92222438   -7.0193249    708.75871   0.02799205  0.027929152            7 
 2111000   0.91432872   -7.0750425     708.6706  0.027975312  0.027921992            5 
 2112000   0.92354214   -7.0464609    708.02506  0.027936595   0.02791485            4 
 2113000   0.92067283   -7.0483521    708.29853  0.027934159  0.027907809            2 
 2114000   0.89870093   -7.0764107    709.51625  0.027968947  0.027900626            3 
 2115000    0.9078761     -7.01888    709.31205  0.027947677  0.027893438            4 
 2116000   0.91366091   -7.0230514    710.27747   0.02797249  0.027886286            3 
 2117000   0.91252571   -7.0100007    708.09395  0.027873325  0.027879168            3 
 2118000   0.90559146   -7.0267011    709.06686  0.027898444  0.027872002            3 
 2119000   0.91144155   -7.0243151    708.51943   0.02786375  0.027864831            5 
 2120000   0.90664596   -7.0292929    708.51262  0.027850339  0.027857672            2 
 2121000   0.91271917   -7.0632864    707.55345  0.027799523  0.027850495            3 
 2122000   0.90940293   -6.9963811    710.89813  0.027917771  0.027843306            3 
 2123000    0.9311486   -7.0313634    708.66378  0.027816917  0.027836224            2 
 2124000   0.88757172   -7.0552041    709.51779  0.027837327  0.027829078            4 
 2125000   0.89616957   -7.0584106    708.62244  0.027789115  0.027821875            8 
 2126000   0.92436928   -7.0566889    708.07336  0.027754522  0.027814562           17 
 2127000   0.90152706   -6.9972336    711.63108   0.02788086  0.027807292            4 
 2128000   0.92349024   -7.0477934    710.88501  0.027838542  0.027800031            3 
 2129000   0.91082469   -7.0624312    709.41887  0.027768079  0.027792743            6 
 2130000   0.92276338   -7.0703022    710.49285   0.02779706  0.027785416            5 
 2131000   0.91207435   -7.0455481    710.04558  0.027766525  0.027778104            6 
 2132000   0.90791069   -7.0766701    708.67605   0.02769997  0.027770773            7 
 2133000   0.89454899   -7.0622561    708.59083  0.027683655  0.027763424            3 
 2134000   0.90546093   -7.0458906    709.25946  0.027696792  0.027756041            4 
 2135000   0.90616264   -7.0297422    710.71271  0.027740543  0.027748654            7 
 2136000   0.91583546   -7.0838303    709.41516  0.027676934  0.027741288            4 
 2137000   0.91679144   -7.0553478    711.15218  0.027731718  0.027733944            2 
 2138000    0.8963976   -7.0036045    711.02955  0.027713968  0.027726598            4 
 2139000   0.92280225   -7.0461651    709.24019  0.027631299  0.027719253            3 
 2140000   0.93108887   -7.0510811    710.85653  0.027681329  0.027711874            3 
 2141000   0.90298693   -7.0284592    709.56784  0.027618241  0.027704469            6 
 2142000   0.90010946   -7.0481893    709.73186  0.027611728  0.027697021            4 
 2143000   0.89869374   -7.0627969    709.71879  0.027598335  0.027689585            5 
 2144000    0.9179645   -7.0779921    708.72402  0.027546798  0.027682161            3 
 2145000   0.89476917    -7.043162     709.2187  0.027553174  0.027674713            5 
 2146000   0.90424505    -7.012456    709.81132  0.027563347   0.02766732            5 
 2147000   0.90856502   -7.0416269    710.05784  0.027560078  0.027659912            5 
 2148000   0.93033387   -7.0794549    709.47014  0.027524447   0.02765249            7 
 2149000   0.90916545   -7.0749033     710.1891  0.027539518  0.027645094            1 
 2150000   0.91253593    -7.035872    711.22575  0.027566889  0.027637723            4 
 2151000   0.91316916   -7.0730842    711.82766  0.027577393  0.027630293            5 
 2152000   0.90923985   -7.0774477    710.03809  0.027495279  0.027622918            2 
 2153000   0.92078405   -7.0471515     712.5981  0.027581595   0.02761555            6 
 2154000   0.91641774   -7.0575889    713.17515  0.027591115  0.027608223            4 
 2155000   0.88709555   -7.0897084    712.15342  0.027538802  0.027600785            5 
 2156000   0.88964401   -7.0340545    711.96202  0.027518631  0.027593433            4 
 2157000   0.90545899   -7.0691459    711.68018  0.027494984  0.027586092            5 
 2158000    0.9142706   -7.0741906    711.56592  0.027477831  0.027578666            6 
 2159000   0.90941931   -7.0702111    712.67018  0.027507727  0.027571284            5 
 2160000   0.90246737   -7.0329939    715.27921  0.027595648  0.027563926            7 
 2161000   0.92054063   -7.0756196     713.6861  0.027521445  0.027556626            4 
 2162000   0.89399241    -7.066957    712.04003  0.027445268  0.027549284            2 
 2163000    0.9228126   -7.0863394    711.44759  0.027409755   0.02754189            4 
 2164000    0.8893694   -7.0654397    713.21693  0.027465224  0.027534521            3 
 2165000    0.9006599   -7.0480818    717.08933  0.027601591  0.027527213            2 
 2166000   0.89716795   -7.0563681    713.93986  0.027467677  0.027519917            4 
 2167000   0.91381951   -7.0739607    716.22532   0.02754289  0.027512601            3 
 2168000   0.90685518   -7.0527106    716.32975    0.0275342  0.027505326            6 
 2169000   0.91801647   -7.0732598    714.20827  0.027439998  0.027498092            5 
 2170000   0.91935817   -7.0490687    717.15461    0.0275405  0.027490859            2 
 2171000   0.90046557   -7.0952879    714.04641  0.027408506  0.027483543            3 
 2172000   0.91594303   -7.0541496    716.19907  0.027478479  0.027476235            7 
 2173000   0.88929595   -7.0599329    717.30782  0.027508353  0.027469006            6 
 2174000   0.90551119   -7.0739567    718.29438  0.027533517  0.027461848            3 
 2175000   0.90911459   -7.0556588    716.43223  0.027449511  0.027454657            8 
 2176000   0.91240143   -7.0574211    716.38989  0.027435275    0.0274474            3 
 2177000   0.91619252   -7.0466218    718.71937  0.027511842  0.027440238            2 
 2178000    0.9123926   -7.0814494     715.5045  0.027376205  0.027432993            5 
 2179000   0.92045082    -7.054734    717.75526  0.027449719  0.027425771            3 
 2180000   0.90430944    -7.084485    717.91942  0.027443403  0.027418474            4 
 2181000    0.8856723   -7.0889218    717.60393  0.027418765  0.027411232            4 
 2182000   0.89965303   -7.1005794    716.06297  0.027347348  0.027403906            7 
 2183000   0.90180228   -7.0818197    716.53199  0.027352725  0.027396596            5 
 2184000   0.90813602   -7.0497901    717.40371  0.027373463  0.027389332            2 
 2185000   0.92188027   -7.0495181    718.80786  0.027414487  0.027382094            5 
 2186000   0.87257266   -7.0742558    718.19207  0.027378472  0.027374845            5 
 2187000   0.92473269   -7.0443977    719.19755  0.027404266  0.027367585            4 
 2188000   0.89545677   -7.0680517    717.11349  0.027312366  0.027360386            3 
 2189000   0.89303045    -7.034656      717.567  0.027317154  0.027353136            3 
 2190000   0.89801951   -7.0721597    716.70367  0.027271829  0.027345895            5 
 2191000   0.89095852   -7.0463943    719.34437  0.027359819  0.027338616            4 
 2192000   0.89291376    -7.083448    720.77061  0.027401559  0.027331343            9 
 2193000    0.9058561   -7.0695943    718.24303  0.027293017  0.027324059            5 
 2194000   0.88826171   -7.0908851    719.01995  0.027310086   0.02731683            2 
 2195000   0.89886132    -7.075308    721.64074  0.027397143  0.027309651            9 
 2196000   0.90349577   -7.0920042     720.1592  0.027328446  0.027302513            3 
 2197000   0.91752881   -7.0868069    721.36006  0.027361556  0.027295334            5 
 2198000   0.90886626    -7.095539    718.81336  0.027252554  0.027288149            3 
 2199000   0.88760434   -7.1270882      720.976  0.027322116  0.027281017            5 
 2200000   0.90308919   -7.0762085     721.6797  0.027336352  0.027273907            8 
 2201000     0.888328   -7.0823693    722.19314  0.027343372  0.027266752            4 
 2202000   0.90864926   -7.0766567    725.00367  0.027437317  0.027259684            3 
 2203000   0.90608457   -7.0441156    720.97708  0.027272548  0.027252674            4 
 2204000   0.90987887   -7.0564374     722.7471  0.027327099  0.027245608            3 
 2205000   0.88359411   -7.0565224    723.73105  0.027351892  0.027238491            8 
 2206000   0.88693624   -7.0803641     722.8555  0.027306418  0.027231407            4 
 2207000   0.88693182   -7.1120555    722.81647  0.027292572  0.027224281            4 
 2208000   0.88250465   -7.0699464    724.53874  0.027345212  0.027217161            6 
 2209000   0.91284596   -7.0620593    723.75474  0.027303257  0.027210008            6 
 2210000   0.88430103   -7.1060138     720.4739  0.027167191  0.027202844            4 
 2211000   0.89021638   -7.0738667    724.40217  0.027302961  0.027195575            5 
 2212000   0.87695737   -7.0740433     720.5075  0.027143893  0.027188352            9 
 2213000    0.8818693   -7.0798915    721.03733  0.027151579  0.027181147            5 
 2214000   0.91821335   -7.0968918      721.556  0.027158838  0.027173983            3 
 2215000   0.92358669    -7.074721    721.31123  0.027137368  0.027166791            5 
 2216000   0.89599533   -7.1223709    722.61216  0.027174043  0.027159623            5 
 2217000   0.87793681    -7.077728    722.07282  0.027141513  0.027152428            4 
 2218000   0.91371121   -7.0768492    724.01838  0.027202374  0.027145294            8 
 2219000   0.88614867   -7.0879412     724.7024  0.027215803  0.027138146            4 
 2220000   0.90344503   -7.0776381    724.01235  0.027177641  0.027130931            2 
 2221000   0.88925568   -7.0687144    723.26131  0.027137225  0.027123706            4 
 2222000   0.88900057   -7.1064183    722.55093   0.02709837  0.027116502            4 
 2223000   0.88292413   -7.1045206    721.60703  0.027050796  0.027109221            7 
 2224000   0.88579295   -7.1015804    723.47162  0.027108499  0.027101967            3 
 2225000   0.91433704   -7.0924768    722.09426  0.027044729  0.027094655            6 
 2226000   0.90039187   -7.0945883    722.92704  0.027063756  0.027087343            4 
 2227000    0.8878575   -7.0422242    723.97245  0.027090722  0.027080118            3 
 2228000   0.90547689   -7.0862618    721.64367   0.02699146   0.02707295            2 
 2229000    0.8924011   -7.1090844    724.22547  0.027075874  0.027065723            3 
 2230000   0.91667298   -7.0988931    723.60351   0.02704049  0.027058499            3 
 2231000    0.8947098   -7.1212369    726.07708  0.027120764  0.027051264            7 
 2232000   0.90525107   -7.0729599    724.42649  0.027046987  0.027044075            3 
 2233000    0.8840157   -7.0762015    725.77414  0.027085167  0.027036868            4 
 2234000   0.91090103   -7.0866057    724.70764   0.02703326  0.027029627            2 
 2235000   0.87649237   -7.0781015    725.07892  0.027035008  0.027022431            5 
 2236000    0.9049727   -7.0590526     726.4162  0.027072756   0.02701526            4 
 2237000   0.89792147   -7.0621604    725.97314  0.027044149  0.027008062            1 
 2238000   0.90890192   -7.1049051    723.53688  0.026941349  0.027000777            4 
 2239000   0.90612828   -7.0597648    724.54853  0.026966969  0.026993471            4 
 2240000   0.88567729   -7.1018397    725.25358   0.02698116   0.02698617           14 
 2241000   0.88835461   -7.0837755    725.64863  0.026983811  0.026978859           12 
 2242000   0.88663344   -7.0937384    724.96294  0.026946288  0.026971576            5 
 2243000   0.88868483   -7.0653801    727.15974  0.027015892  0.026964223            4 
 2244000   0.87053088   -7.0906291    724.27248  0.026896631  0.026956936            4 
 2245000     0.893187    -7.106729    724.93073  0.026909084  0.026949619            5 
 2246000   0.88802288   -7.0719559    725.38356  0.026913905   0.02694233            4 
 2247000   0.92367588   -7.0886895    726.30541  0.026936115  0.026935024            3 
 2248000   0.89802412   -7.1149666    724.01481   0.02683922  0.026927733            5 
 2249000   0.89960607    -7.076751    726.95167  0.026936107  0.026920484            3 
 2250000   0.89649199    -7.086725    727.78989  0.026955181  0.026913263            2 
 2251000   0.87954039   -7.1098299    727.41669   0.02692939  0.026905944            3 
 2252000   0.88850943   -7.1120322    726.97855  0.026901219  0.026898685            4 
 2253000   0.89601105   -7.0575124    729.82085  0.026994409  0.026891471            2 
 2254000   0.87881595   -7.0790218    726.19072  0.026848223  0.026884271            8 
 2255000   0.89604799   -7.0625898    727.37665  0.026880142   0.02687706            4 
 2256000   0.90108479    -7.090599    727.65679  0.026878575  0.026869852            3 
 2257000   0.88678473   -7.1194356    727.04407  0.026844043  0.026862583            6 
 2258000    0.8907732    -7.123275    725.77428  0.026785292  0.026855316            4 
 2259000   0.91508779   -7.0889203    728.57396  0.026876714  0.026848103            4 
 2260000   0.87817345   -7.0981794    727.51458  0.026825759  0.026840906            7 
 2261000   0.89257578    -7.094286    727.91422  0.026828624  0.026833677            5 
 2262000    0.8930577   -7.1200985    728.18595  0.026826774  0.026826474            4 
 2263000   0.89341759    -7.096938    728.90294  0.026841322  0.026819265           14 
 2264000   0.88722816   -7.0950402    729.08318    0.0268361  0.026812059            7 
 2265000   0.89199953   -7.1058805     729.5767   0.02684241  0.026804908            4 
 2266000   0.90654304   -7.1040572    727.93591  0.026770223   0.02679769            7 
 2267000   0.89964858   -7.0759202    729.65883  0.026821748  0.026790422            3 
 2268000   0.90802372   -7.0885592    729.02372  0.026786586  0.026783202            4 
 2269000   0.89436339   -7.0787996    729.49329  0.026792026   0.02677596            3 
 2270000   0.89808107    -7.071871    730.20872  0.026806487  0.026768798            7 
 2271000   0.88534446   -7.0671576    727.63577  0.026700271  0.026761617            3 
 2272000   0.87230436   -7.0834014     728.0874  0.026705084  0.026754364            3 
 2273000   0.88757608   -7.0923855    729.80583  0.026756336   0.02674716            3 
 2274000   0.89612566   -7.0592119    729.83341  0.026745581  0.026739871            4 
 2275000   0.87685067   -7.0984436    729.46637   0.02672038  0.026732634            6 
 2276000   0.89420282   -7.1000123     728.7837  0.026683644  0.026725358            3 
 2277000   0.89510177   -7.1367175    727.87864  0.026638802   0.02671805            4 
 2278000   0.89897463   -7.0926757    729.33648  0.026680439  0.026710749            4 
 2279000   0.88231414   -7.0674905    730.59837  0.026714874  0.026703458           10 
 2280000   0.88235846    -7.125344    729.06995  0.026647294  0.026696177            6 
 2281000     0.898171   -7.1017914     727.8119   0.02658965  0.026688806            6 
 2282000   0.88778935   -7.0447527    730.77034  0.026686033  0.026681433            3 
 2283000   0.88927272   -7.0835804    729.37106  0.026623268  0.026674165            4 
 2284000   0.90520732   -7.0777332    729.60394  0.026620109  0.026666891            3 
 2285000   0.89137252   -7.0879927    730.71352  0.026648925  0.026659645            4 
 2286000    0.8726342    -7.124154    729.77227  0.026602955  0.026652277            3 
 2287000   0.88987196   -7.1226238    730.16786  0.026605738  0.026644952            5 
 2288000   0.88547169   -7.1258683    732.43005  0.026676502  0.026637643            7 
 2289000   0.89446438   -7.0856733    730.59782  0.026598144   0.02663032            4 
 2290000   0.88011376   -7.1252096    728.22077  0.026500028  0.026622961            4 
 2291000   0.89206528    -7.110991    732.01155  0.026626348  0.026615573            8 
 2292000   0.89037913   -7.1092758    730.98004  0.026577226  0.026608192            5 
 2293000   0.89525445   -7.1123539    729.53732  0.026513204  0.026600868            5 
 2294000   0.89320636   -7.1514705    729.53229  0.026501463  0.026593457            9 
 2295000   0.88341744   -7.1289221    730.71868  0.026532995  0.026586125            8 
 2296000   0.87388038   -7.1148504    732.17611  0.026574336  0.026578823            6 
 2297000   0.88229054   -7.0789988    733.03311  0.026593858  0.026571567            2 
 2298000   0.87170587   -7.1236179    731.94393  0.026542788  0.026564281            4 
 2299000    0.8943323   -7.0963088    732.56238   0.02655366  0.026556945            4 
 2300000   0.88929204   -7.1004293    734.23568  0.026602742  0.026549637            4 
 2301000   0.89220072   -7.1305962    731.08127   0.02647694  0.026542304            7 
 2302000   0.88034159   -7.1139102    730.20806  0.026433828  0.026534916            3 
 2303000   0.87989134   -7.1063156    730.59653  0.026436407  0.026527488            3 
 2304000   0.89031332   -7.1263006    730.89057  0.026435567  0.026520128            3 
 2305000   0.90331734    -7.098422    731.11409   0.02643218  0.026512751            5 
 2306000   0.90522985   -7.0802919    731.99148  0.026452424  0.026505459            4 
 2307000   0.87503048   -7.1138144    733.20538  0.026484806  0.026498148            8 
 2308000   0.85896857   -7.1320192    732.99462  0.026465721  0.026490877            3 
 2309000   0.89179376   -7.1034012    734.45026  0.026506794  0.026483608            3 
 2310000   0.89092562   -7.1115734    733.51099  0.026461435  0.026476395            6 
 2311000   0.86691723   -7.1120733    733.98815  0.026467191  0.026469192            9 
 2312000   0.89135488   -7.0908365    735.91269  0.026525111  0.026461979            5 
 2313000   0.87694662   -7.1019269    734.21377  0.026452434  0.026454746            8 
 2314000   0.90488748   -7.1535303     733.8054  0.026426297  0.026447461            3 
 2315000    0.8831419   -7.1296079    734.60497  0.026443663  0.026440194            3 
 2316000   0.86420109   -7.1154583    734.29137  0.026420962  0.026433012            5 
 2317000   0.88643899   -7.1102748    733.05681  0.026365156  0.026425745            4 
 2318000   0.88575947   -7.1159895    734.42747  0.026403058  0.026418521            3 
 2319000   0.86112976   -7.1347679    733.70153  0.026365586   0.02641124            6 
 2320000   0.88362436   -7.1156762    735.89194    0.0264329  0.026403948            4 
 2321000   0.88170548   -7.1176061    735.33958  0.026401679  0.026396658            4 
 2322000    0.8583154   -7.1098708    735.79075  0.026406501  0.026389444            4 
 2323000   0.89209651   -7.1085699    736.86545  0.026433687  0.026382204            2 
 2324000   0.87258852   -7.1082625    737.85233    0.0264577  0.026375011            4 
 2325000   0.88795785   -7.1308839    734.34969  0.026320777  0.026367744            3 
 2326000   0.89659486   -7.1554225     735.8129  0.026361884  0.026360476            5 
 2327000   0.88301131    -7.134271    735.53784  0.026340705  0.026353208            4 
 2328000   0.89699449   -7.1166121    736.58975  0.026367044  0.026345939            9 
 2329000   0.87583928   -7.1446931    735.76352   0.02632616  0.026338693            4 
 2330000   0.86846345   -7.1318792    734.06234  0.026254018  0.026331427            6 
 2331000   0.86919132    -7.143006    735.57881  0.026296969  0.026324192            4 
 2332000    0.8650217   -7.1161603    736.67718  0.026324942  0.026316954            5 
 2333000   0.87564603   -7.1048591    736.27686  0.026299359  0.026309704            4 
 2334000   0.88685866   -7.1372119    734.60779  0.026228498  0.026302425            6 
 2335000   0.88232834   -7.1161274    738.40427  0.026352758  0.026295158            5 
 2336000   0.87310115   -7.0957639    736.41549   0.02627053  0.026287916            3 
 2337000   0.89124008   -7.0957714    737.02697  0.026281093  0.026280715            4 
 2338000   0.86755342   -7.0867462    738.55876   0.02632445  0.026273512            3 
 2339000   0.87367938   -7.1254974    738.03486   0.02629453  0.026266321            7 
 2340000   0.87217237   -7.1230206     736.0344  0.026212051  0.026259103            4 
 2341000   0.88300369   -7.1233824    739.86887  0.026337351  0.026251904            8 
 2342000   0.87241176   -7.1193422    737.10865  0.026227891  0.026244757            5 
 2343000   0.87966618   -7.1396738    739.75054  0.026310661  0.026237585            9 
 2344000   0.86406569   -7.1530498    736.16705  0.026172037  0.026230367            3 
 2345000   0.85989408   -7.1254113    738.17527  0.026232241  0.026223116            4 
 2346000   0.87344269   -7.1170875     739.0439  0.026251915  0.026215919            4 
 2347000   0.86833173   -7.1181486    739.09442  0.026242523  0.026208794            6 
 2348000   0.87301303   -7.1686101    737.13622  0.026161848  0.026201588            6 
 2349000   0.86999416   -7.0987614    738.24724  0.026190125  0.026194361            5 
 2350000   0.86287158   -7.1538948    737.32765  0.026146371  0.026187132            8 
 2351000   0.87611306   -7.1491632    738.00091  0.026159114  0.026179853            4 
 2352000   0.87952702   -7.1282127    738.74469  0.026174344  0.026172546            5 
 2353000   0.87583783   -7.1431197    737.87928  0.026132571   0.02616524           12 
 2354000   0.85496866   -7.1469868    740.01491  0.026197073  0.026157947            3 
 2355000   0.88449504   -7.1402815    739.45564  0.026166159  0.026150636            5 
 2356000   0.87427977   -7.1135335    740.56291  0.026194217  0.026143383            7 
 2357000   0.88457905   -7.0997879    740.01803  0.026163839  0.026136145            4 
 2358000   0.87359543   -7.1294213    738.94254  0.026114735  0.026128906            4 
 2359000   0.86467243   -7.1585694    740.20195  0.026148154  0.026121644            4 
 2360000   0.87259111   -7.1407768    738.56301  0.026079202  0.026114347            7 
 2361000   0.86660813   -7.1340835    739.98824  0.026118461  0.026107048            5 
 2362000    0.8897582   -7.1382395    738.29187  0.026047554  0.026099721            4 
 2363000   0.89077872   -7.0807832    740.78925  0.026124603  0.026092489            2 
 2364000   0.87515834   -7.1201666    739.64539   0.02607323  0.026085282            5 
 2365000   0.88522459   -7.1033359    738.95628  0.026037924  0.026078039            4 
 2366000   0.86834584   -7.1141704     742.0883  0.026137232  0.026070909            1 
 2367000     0.859878   -7.1113957    740.78774  0.026080402   0.02606371            5 
 2368000   0.86957618   -7.1001453    740.88797  0.026072916  0.026056517            4 
 2369000   0.86797008   -7.1119093    740.16598  0.026036513  0.026049252            3 
 2370000   0.87798017   -7.1378755    739.73964  0.026010536  0.026041977            3 
 2371000   0.86319637    -7.121877    740.06748  0.026011088  0.026034724           10 
 2372000   0.88459057    -7.093412     742.4661  0.026084391  0.026027483            5 
 2373000   0.87865516   -7.1562262    739.28827  0.025961802  0.026020172            4 
 2374000   0.86887949   -7.1084313     740.1503  0.025981125  0.026012837            3 
 2375000   0.86816455   -7.1489704    742.20477  0.026042273  0.026005552            4 
 2376000   0.87661465   -7.1214842    741.79878  0.026017073  0.025998286            3 
 2377000   0.85655481   -7.1394484    739.38405  0.025921471  0.025990995            7 
 2378000   0.87418217   -7.1565904    741.44189  0.025982685  0.025983659            4 
 2379000   0.88192858   -7.1073423    740.74206  0.025947249  0.025976362            6 
 2380000   0.88207503   -7.1343336    741.65904  0.025968454  0.025969004            3 
 2381000   0.86991285   -7.1327129    741.82678  0.025963418  0.025961732            5 
 2382000   0.85034437   -7.1261783    743.20787  0.026000835  0.025954407            4 
 2383000   0.87425538   -7.1494506    739.73836  0.025868596  0.025947066            3 
 2384000   0.85684797    -7.168069    739.66031  0.025855017  0.025939674            3 
 2385000    0.8688158   -7.1628197     739.3529  0.025833435  0.025932292            5 
 2386000   0.85837983   -7.1294717    739.77734  0.025837432  0.025924913            3 
 2387000   0.88101465   -7.1050549     741.1838  0.025875709  0.025917593            1 
 2388000   0.87717072   -7.1188363    741.90838  0.025890158   0.02591022            3 
 2389000   0.86119474    -7.148674    739.85255  0.025807609  0.025902854            3 
 2390000   0.85822509   -7.1242362    741.09092   0.02583999  0.025895481            3 
 2391000   0.86972721   -7.1152607    744.46154  0.025946659  0.025888142            8 
 2392000   0.86671567   -7.1704541     741.4629  0.025831344  0.025880809           10 
 2393000   0.86374249   -7.1528352    742.71547  0.025864169  0.025873387            5 
 2394000   0.88060189   -7.1338412    742.70078  0.025852854  0.025866084            7 
 2395000   0.88994012   -7.1643088    741.92823  0.025815179  0.025858767            5 
 2396000   0.86715747   -7.1331638    741.09789  0.025775525  0.025851384            3 
 2397000   0.87449831   -7.1408208    742.29707  0.025806462   0.02584407           10 
 2398000   0.87628334   -7.1139638    741.53468  0.025769206   0.02583676            3 
 2399000   0.87119276   -7.1465477    741.39926  0.025753761   0.02582946            6 
 2400000    0.8704707   -7.1392854     742.5647  0.025783496  0.025822133            5 
 2401000   0.87595873   -7.1251223    742.78812  0.025780512  0.025814821            7 
 2402000   0.86897435   -7.1209214    744.74596  0.025837703  0.025807546            3 
 2403000   0.88629876     -7.10674    744.83521  0.025830046  0.025800345            5 
 2404000   0.85949448   -7.1558746    741.98155  0.025720381  0.025793082           15 
 2405000   0.85973722   -7.1533378    743.83704  0.025773979  0.025785804            5 
 2406000   0.87755812     -7.10663    744.05257  0.025770732  0.025778509            8 
 2407000   0.85283172   -7.1191752    745.70274  0.025817156  0.025771208            2 
 2408000   0.85338418    -7.141034    743.49904  0.025730172  0.025763863            4 
 2409000   0.87224999   -7.1600858    743.57387  0.025722079  0.025756471            5 
 2410000   0.86487231   -7.1780443    743.56193  0.025710993  0.025749132            4 
 2411000   0.86567096   -7.1272971    743.91442  0.025712513  0.025741785            5 
 2412000   0.84077675   -7.1666029    743.56232  0.025689688  0.025734453            6 
 2413000     0.871019   -7.1717725    744.10008  0.025697613  0.025727105            4 
 2414000   0.87597501   -7.1481338    744.48057  0.025700103  0.025719744            6 
 2415000   0.86483534   -7.1708767     743.9956  0.025672726   0.02571243            5 
 2416000   0.87121743   -7.1637073    744.77145  0.025688861  0.025705098            4 
 2417000   0.87187885   -7.1862658    742.45087  0.025598223  0.025697744            3 
 2418000   0.86339168   -7.1509296    745.00075  0.025675515  0.025690369            3 
 2419000   0.88643271   -7.1425146     745.0673  0.025667194  0.025683038            2 
 2420000   0.86242997   -7.1474219    746.05465  0.025690587  0.025675736            4 
 2421000   0.86462713   -7.1513904    744.01716  0.025609843  0.025668392            7 
 2422000   0.87247983   -7.1409479    746.01319  0.025667946  0.025661096            4 
 2423000   0.88048127   -7.1666164    744.70856  0.025612483  0.025653798            7 
 2424000   0.85466463   -7.1519801    745.72828  0.025636973  0.025646454            4 
 2425000   0.86131707   -7.1518622    746.32147  0.025646786  0.025639174            6 
 2426000   0.86809819   -7.1504798    746.35753  0.025637453  0.025631887            5 
 2427000   0.85984971   -7.1944343    745.70934  0.025604633  0.025624608            6 
 2428000   0.86671622   -7.1989956    745.59909  0.025590304  0.025617324           11 
 2429000   0.88617663   -7.1651062    746.94128  0.025625816  0.025610066            9 
 2430000   0.86564112   -7.1687215    745.24349  0.025557047  0.025602808            3 
 2431000   0.85055289   -7.1264186    745.77895  0.025564889  0.025595537            2 
 2432000   0.87625029   -7.1470344    747.23998   0.02560444  0.025588284            6 
 2433000   0.86661686   -7.1099323    748.51942  0.025637739  0.025581038            5 
 2434000   0.86345186   -7.1475494    746.63883  0.025562819  0.025573839            3 
 2435000    0.8627121   -7.1539345    748.16154  0.025604433  0.025566614            3 
 2436000   0.87050054   -7.1542924    746.58675   0.02554005  0.025559408            3 
 2437000   0.85199628   -7.1322196    748.27404  0.025587267  0.025552193            6 
 2438000   0.86018513   -7.1285496    748.26104  0.025576328  0.025545009            5 
 2439000   0.84419616   -7.1755361    748.09406  0.025560136  0.025537753            2 
 2440000   0.85089377   -7.1310116     748.2305   0.02555432   0.02553053            6 
 2441000   0.85200399   -7.1618497    747.51769  0.025519517  0.025523317            4 
 2442000   0.89336611   -7.1706801    745.94413  0.025455369  0.025516034            3 
 2443000   0.85664864     -7.17071    747.41864  0.025495246  0.025508729            3 
 2444000   0.87558679   -7.1701698    746.24007  0.025444629  0.025501396           12 
 2445000   0.85833654   -7.1786822    747.30868  0.025470644  0.025494135            3 
 2446000   0.86124613   -7.1627105    749.48727  0.025534453  0.025486874            4 
 2447000   0.86502378   -7.1584187     748.7213  0.025497933  0.025479635            6 
 2448000   0.86061043   -7.1390189    749.53195  0.025515113  0.025472374            5 
 2449000   0.84420309   -7.1415884    748.01866  0.025453201  0.025465148            4 
 2450000   0.85409697   -7.1681472    749.20352  0.025483113  0.025457919            5 
 2451000    0.8691507   -7.1563766     747.8442  0.025426499  0.025450632            6 
 2452000   0.84913833    -7.180087    747.90523  0.025418204   0.02544341            4 
 2453000   0.85618068   -7.1601888    750.19178   0.02548552  0.025436151            4 
 2454000   0.85251102   -7.1659679    748.82773  0.025428815   0.02542891            2 
 2455000    0.8657669   -7.1742879    748.10706  0.025393994  0.025421706            4 
 2456000   0.87381352   -7.1671975    748.77432  0.025406295  0.025414426            3 
 2457000    0.8692281   -7.1615506    748.63532   0.02539124  0.025407141            6 
 2458000   0.84706028    -7.154009      749.233  0.025401173  0.025399873            5 
 2459000   0.86363047   -7.1435346    749.10709  0.025386576  0.025392691            5 
 2460000   0.85503145   -7.1547776    747.79306  0.025331743  0.025385485            2 
 2461000   0.86408594   -7.1661787    747.79214  0.025321419   0.02537827            9 
 2462000   0.84880817   -7.1612783    750.03266  0.025386971  0.025371066            8 
 2463000   0.87359939   -7.1468832    750.66355  0.025398009  0.025363904            6 
 2464000   0.87430274   -7.1549388    752.15295  0.025438073  0.025356702            5 
 2465000   0.85221178   -7.1805971     748.9402  0.025319141   0.02534945            4 
 2466000   0.85537146   -7.2117536     750.2176  0.025352041  0.025342238            6 
 2467000   0.86954258   -7.1962201    751.32616  0.025379211  0.025335098            4 
 2468000   0.86978408   -7.1569016    752.28487  0.025401299   0.02532798            4 
 2469000   0.86163071   -7.1578711    750.92464  0.025345101  0.025320834            6 
 2470000   0.85757845   -7.1300777    753.93463  0.025436391  0.025313742            8 
 2471000   0.85363317   -7.1701106    751.84059  0.025355477  0.025306608            8 
 2472000   0.87110335   -7.1730371    751.42221  0.025331115  0.025299466            5 
 2473000   0.85288457   -7.1649347      751.863  0.025335726  0.025292338            7 
 2474000   0.85991005   -7.1844255     752.6307  0.025351344  0.025285216           10 
 2475000   0.86791671   -7.1560164    752.57051  0.025339074  0.025278126            6 
 2476000   0.84891056   -7.1401774    752.24538  0.025317898  0.025271032            4 
 2477000   0.85319303   -7.2085511    752.44884  0.025314522  0.025263924            5 
 2478000   0.85628655   -7.1520378    752.98326  0.025322278  0.025256794            3 
 2479000   0.87832872   -7.1838958     752.9038  0.025309392  0.025249647           18 
 2480000   0.84699442   -7.1821126    751.22736  0.025242855  0.025242514            8 
 2481000   0.85703556   -7.2051313    751.89406  0.025255074  0.025235409            4 
 2482000   0.86353215   -7.1757442    752.69253  0.025271707  0.025228252            6 
 2483000   0.86979495   -7.1765604    753.66892  0.025294298  0.025221162            4 
 2484000    0.8569276   -7.1717978    754.45279  0.025310413  0.025214098            5 
 2485000   0.84551843   -7.1615154    751.89024  0.025214294  0.025207066            4 
 2486000   0.85598861   -7.1721253    754.95656  0.025306938  0.025199948            6 
 2487000   0.83355036   -7.1775888    753.12985  0.025235553   0.02519283            4 
 2488000   0.87737475   -7.1708184    753.83538  0.025249041  0.025185766            4 
 2489000   0.84657411   -7.1815323    755.16672  0.025283471  0.025178694            4 
 2490000   0.87506958   -7.1707152    754.74991  0.025259368  0.025171633            5 
 2491000   0.85929184   -7.1510344    753.89074  0.025220485   0.02516455            5 
 2492000   0.86477948   -7.1829372    754.43301  0.025228498   0.02515744            3 
 2493000   0.86824588   -7.1487634    756.21233  0.025277856    0.0251503            3 
 2494000   0.85823275   -7.1752205    753.94141  0.025191841  0.025143206            6 
 2495000   0.84767038   -7.1778118    755.50791  0.025234065  0.025136108            7 
 2496000   0.84932361   -7.2028595    752.98603  0.025139758   0.02512905            4 
 2497000   0.84601374   -7.2191872    751.21739  0.025070665  0.025121923            5 
 2498000   0.84613181   -7.1668889    755.85793  0.025215437  0.025114786            3 
 2499000   0.85604106   -7.1439268    754.89967  0.025173392  0.025107733            8 
 2500000   0.87625633   -7.1942857    756.29111  0.025209704  0.025100705            7 
 2501000   0.84441615   -7.1766266    756.27107  0.025198956  0.025093618            3 
 2502000   0.88044392   -7.1475162     756.6437  0.025201296  0.025086582            3 
 2503000   0.82757613    -7.170256     756.5414  0.025187821  0.025079553            4 
 2504000   0.85692963   -7.1654297    756.37196  0.025172123  0.025072525           14 
 2505000   0.84706657   -7.1906578    753.81518  0.025077019  0.025065423            6 
 2506000   0.85350758   -7.1776878    756.15025  0.025144661   0.02505835            6 
 2507000   0.84679091   -7.2028989    755.43552  0.025110873   0.02505125            6 
 2508000   0.84024166   -7.1561713    756.43809  0.025134174    0.0250442            7 
 2509000   0.84925188   -7.1945553    756.62878   0.02513049  0.025037188            4 
 2510000   0.86181757   -7.1597683     759.1598  0.025204508  0.025030222            2 
 2511000   0.86445446   -7.1428406    757.44458  0.025137547   0.02502323            3 
 2512000   0.84323927   -7.1555575    757.21952  0.025120074  0.025016286            8 
 2513000   0.84252775   -7.1840098     758.2631  0.025144684  0.025009321            3 
 2514000   0.86091813   -7.1946754    757.13654   0.02509734  0.025002311            7 
 2515000   0.84787099   -7.1678537    757.65331  0.025104483   0.02499527            4 
 2516000   0.86295301   -7.1556253    758.79731  0.025132396  0.024988266            8 
 2517000   0.83789301   -7.1683103    756.95387  0.025061378  0.024981267            5 
 2518000   0.83950944   -7.1719052    758.20115  0.025092704  0.024974251            4 
 2519000   0.85660754   -7.1363668    758.55086  0.025094312  0.024967246            5 
 2520000   0.83566209    -7.182897    758.45786  0.025081279  0.024960298            7 
 2521000   0.85009291   -7.1992077    756.19154  0.024996415  0.024953275            4 
 2522000    0.8470846   -7.1812393    756.55965  0.024998667  0.024946273            5 
 2523000   0.87205825   -7.2010897    756.43591  0.024984671  0.024939266            8 
 2524000   0.83609009   -7.2050385    757.93478   0.02502426  0.024932232            4 
 2525000   0.84938577   -7.1851325    757.84622  0.025011426  0.024925188            3 
 2526000   0.86659529   -7.1835199    760.25486  0.025080986  0.024918178            3 
 2527000   0.84012813   -7.1970794     760.1251  0.025066782  0.024911135            2 
 2528000   0.85198975   -7.1980458    758.18941  0.024993058  0.024904085            4 
 2529000    0.8409553   -7.1764026    759.47842   0.02502565  0.024897134            4 
 2530000   0.85726334   -7.1708933    758.86647  0.024995602  0.024890124            2 
 2531000   0.86096436   -7.1766355    758.40754  0.024970616  0.024883108            4 
 2532000   0.84580406   -7.1879453    758.56396  0.024965902   0.02487609            4 
 2533000   0.85928576   -7.2011393    758.22206  0.024944797   0.02486909           11 
 2534000   0.83973818      -7.1927    759.91036  0.024990475  0.024862101            2 
 2535000   0.84874981   -7.1789938    758.64391  0.024938985  0.024855113            8 
 2536000    0.8331609   -7.1680186    760.35262  0.024985299  0.024848154            5 
 2537000   0.86415617   -7.1649069    758.64374  0.024919319  0.024841172            5 
 2538000   0.85304591   -7.2023017    759.80884  0.024947755  0.024834169            6 
 2539000   0.87518232   -7.1757964     760.1178   0.02494807   0.02482717            4 
 2540000   0.83182346   -7.1597913    761.59027  0.024986557  0.024820174            6 
 2541000   0.85628387   -7.1790974    760.08471  0.024927349  0.024813204            5 
 2542000   0.83536033   -7.1534202    760.86633  0.024943166  0.024806268            3 
 2543000   0.84974766   -7.2011056    759.03373  0.024873303  0.024799264            3 
 2544000   0.84844855   -7.2169606    758.44102  0.024844111  0.024792247            5 
 2545000   0.84298635   -7.1943805    761.43392  0.024932348  0.024785185           10 
 2546000   0.85800988   -7.2197251    761.74361  0.024932692  0.024778143            6 
 2547000   0.85320679   -7.1802529    761.72697  0.024922359  0.024771108            6 
 2548000   0.84430023   -7.1839785    761.26704  0.024897535  0.024764158            3 
 2549000   0.83315467   -7.1819935    759.62177   0.02483398  0.024757154            4 
 2550000   0.85278336   -7.1897514    760.54761  0.024854497  0.024750122            4 
 2551000   0.85131247   -7.2140721    761.06855  0.024861772  0.024743103            3 
 2552000   0.84090924   -7.1712617    759.88836  0.024813491  0.024736129            6 
 2553000   0.84108239    -7.215193    762.97176  0.024904418  0.024729155            5 
 2554000   0.84336781    -7.200825    761.64909   0.02485151  0.024722222            6 
 2555000   0.84387018   -7.1929662    761.34263  0.024831788  0.024715261            6 
 2556000   0.84515232   -7.1953919     761.1467  0.024815685  0.024708256            4 
 2557000   0.85127707   -7.1707945    760.89126  0.024797656  0.024701253            7 
 2558000   0.84636775    -7.192736    759.81563   0.02475292  0.024694255            5 
 2559000   0.85236383   -7.1947457     762.4421  0.024828777   0.02468722            6 
 2560000   0.82096921   -7.2059638    760.95647  0.024770718  0.024680159            5 
 2561000   0.83256032   -7.1811022    759.92044  0.024727334  0.024673119            8 
 2562000   0.83171826   -7.1966804    761.01006  0.024753124  0.024666081            6 
 2563000   0.82259842   -7.1847046    763.62827  0.024828595   0.02465906            4 
 2564000   0.84388389   -7.2179233    762.72383  0.024789516  0.024652036           12 
 2565000   0.83831497   -7.1892996    762.82878  0.024783261  0.024645023            8 
 2566000   0.83807691   -7.2151465    763.03024  0.024780146  0.024638017            9 
 2567000   0.84070179   -7.1892175    763.24777  0.024777554  0.024631073           16 
 2568000   0.83089622   -7.2020211    762.07281  0.024729777  0.024624127            4 
 2569000   0.84516725   -7.1976015    761.09641  0.024688478  0.024617108            3 
 2570000   0.84536573   -7.2286549    761.62078  0.024695875  0.024610111            4 
 2571000   0.84907742   -7.2239281    761.48486  0.024681864  0.024603079            8 
 2572000    0.8310921   -7.2049797    763.23394  0.024728938   0.02459603            6 
 2573000   0.84751742   -7.1712534    763.13811  0.024716223  0.024589067            9 
 2574000   0.85273455   -7.1901336    763.94736   0.02473282  0.024582117            2 
 2575000   0.83240749   -7.2303412    761.91593  0.024657473  0.024575148            2 
 2576000   0.82946895   -7.1947192    762.84197  0.024677859  0.024568173            5 
 2577000   0.84895161   -7.1769965    764.89393  0.024734638  0.024561268            4 
 2578000    0.8619599   -7.2380395    762.02458  0.024632292  0.024554338            4 
 2579000   0.83796359   -7.2086841    763.95076   0.02468498  0.024547347            5 
 2580000   0.83663259    -7.192305    764.30329  0.024686799  0.024540411            8 
 2581000   0.85194713   -7.2256178    764.68485  0.024689553  0.024533493            5 
 2582000   0.83813242   -7.1910728    764.21706  0.024664893  0.024526601            4 
 2583000   0.83441504   -7.2182991    764.38103  0.024660635    0.0245197           11 
 2584000    0.8427376   -7.2153315    765.64239  0.024691769  0.024512835            5 
 2585000    0.8350637   -7.2196521    765.48248  0.024677063  0.024505932            5 
 2586000   0.83154639   -7.2231931    763.46329  0.024602452  0.024499035            6 
 2587000   0.83334129   -7.2041803    765.33087  0.024653101  0.024492133            9 
 2588000    0.8394355   -7.2056552     766.4912  0.024680938  0.024485255            4 
 2589000    0.8319275   -7.2157093      765.816  0.024649672  0.024478362            4 
 2590000   0.85016549   -7.2071753    763.53878  0.024566885  0.024471525            5 
 2591000   0.83407942   -7.1943014    765.06436   0.02460647  0.024464664            6 
 2592000   0.85278019   -7.2261391    765.83394  0.024621719  0.024457782            5 
 2593000   0.82239595   -7.2292295    765.99931  0.024617538  0.024450876            8 
 2594000   0.83157597   -7.1897529    765.87939  0.024604195  0.024443994            4 
 2595000   0.85134388   -7.2332395     763.7517  0.024526387  0.024437091            4 
 2596000   0.84991111   -7.2209365    766.05799  0.024590973  0.024430165            4 
 2597000   0.82585239   -7.2180884    765.56764   0.02456577  0.024423259            5 
 2598000    0.8200048   -7.2085262    764.09676  0.024509134  0.024416345            5 
 2599000   0.84636585   -7.2261065    764.49859  0.024512588  0.024409366            5 
 2600000   0.82610511   -7.1912741     767.4189   0.02459676  0.024402481            3 
 2601000   0.83723709   -7.1916048    765.33757  0.024520619  0.024395566            3 
 2602000   0.83989664   -7.2038322    766.58092  0.024551016  0.024388691            4 
 2603000   0.84699793   -7.2232809    765.79041  0.024516276  0.024381807            3 
 2604000   0.83949039   -7.2404268     765.2818  0.024490585  0.024374877            8 
 2605000   0.81238076   -7.2525887    766.52516  0.024520958  0.024367885            6 
 2606000    0.8378292   -7.2378675     766.0208  0.024495421  0.024360925            4 
 2607000   0.82591828   -7.2102634    765.98175  0.024484777  0.024353958            6 
 2608000   0.82648512   -7.2091262    765.01665   0.02444455  0.024347008            5 
 2609000   0.83763626   -7.2122885    766.74192  0.024490288  0.024340048            4 
 2610000   0.83099838   -7.2308594    767.23865  0.024496764  0.024333053            4 
 2611000   0.84725288   -7.2405809    763.86109  0.024379583  0.024326006            9 
 2612000   0.83137273   -7.2022456    766.71988  0.024461456  0.024318994           11 
 2613000   0.85596315   -7.2141483    767.07967  0.024463569  0.024312018            8 
 2614000   0.83735744   -7.2239847    766.78511   0.02444482  0.024305027            3 
 2615000   0.83898738   -7.2169301     767.1992  0.024448668  0.024298012            7 
 2616000   0.84157778   -7.2472242    761.58739  0.024260556  0.024290977            5 
 2617000   0.84021061   -7.2330608    765.77774   0.02438472  0.024283946            4 
 2618000   0.82516268   -7.2076197      763.778  0.024311752  0.024276903            5 
 2619000   0.83774978   -7.2314651    766.41164  0.024386268  0.024269908            4 
 2620000   0.81467822   -7.2332812    766.55039  0.024381374  0.024262889           12 
 2621000   0.81706704   -7.2456112    765.66972  0.024344071  0.024255897            5 
 2622000   0.82542719   -7.2467198    765.16082  0.024318612  0.024248877            6 
 2623000   0.84617908   -7.2449422    766.60404  0.024355192  0.024241907            8 
 2624000    0.8393022   -7.2289822    765.43878  0.024308904  0.024234884           13 
 2625000   0.83077746   -7.2127937    764.44022  0.024267943  0.024227889            6 
 2626000    0.8267398   -7.2269459    766.71636  0.024330933  0.024220881            9 
 2627000   0.85465429   -7.1983865    767.24964  0.024338588  0.024213879            3 
 2628000    0.8273037   -7.2363495     766.3326  0.024300247  0.024206917            5 
 2629000   0.81874433     -7.22029    767.76799  0.024336503   0.02419992            4 
 2630000   0.83398388    -7.231666    767.31398  0.024312864  0.024192971           14 
 2631000   0.82914538   -7.2241229    767.27567  0.024302409  0.024185983            6 
 2632000   0.81852436   -7.2090725    768.11892  0.024319875  0.024178979            4 
 2633000   0.81668038   -7.2080495    767.40563  0.024288063  0.024171971            8 
 2634000   0.84347605   -7.2567679    767.03804  0.024267212  0.024164915            6 
 2635000   0.81682583   -7.2423741    767.48629  0.024272179  0.024157917            6 
 2636000   0.82128117   -7.2445413    765.57595  0.024202578  0.024150891            3 
 2637000   0.84633025   -7.2203349    768.21771  0.024276884  0.024143918            5 
 2638000    0.8214806   -7.2075337    768.24069  0.024268407  0.024136924            3 
 2639000   0.82211902   -7.2105299     768.2538  0.024259625  0.024129944            7 
 2640000   0.82353602   -7.2252814    767.26835  0.024219329   0.02412299            6 
 2641000   0.80990883   -7.2132498    765.70178  0.024160728   0.02411603            7 
 2642000   0.83594328   -7.2363737    766.69232  0.024182826  0.024109042            7 
 2643000   0.83720397   -7.2354467    767.10051  0.024186546  0.024102013            4 
 2644000    0.8490067   -7.2411724    766.56789  0.024160612  0.024094989            5 
 2645000   0.81272683   -7.2404199    768.03627   0.02419774  0.024087973           14 
 2646000   0.82699116   -7.2150219    768.62537  0.024207148  0.024081041            5 
 2647000   0.83596835   -7.2345888    767.02898  0.024147745  0.024074057            4 
 2648000   0.83604645   -7.2095848    767.90744  0.024166271  0.024067065            5 
 2649000    0.8338301   -7.2109703    767.86125  0.024155696  0.024060105            4 
 2650000    0.8114611   -7.2214908    767.92434  0.024148564  0.024053157            6 
 2651000   0.83014089   -7.1822802    769.25048  0.024181142  0.024046188            5 
 2652000   0.83399845   -7.2476447    768.63382  0.024152646  0.024039238            7 
 2653000   0.83558373   -7.2170657    769.87945  0.024182669  0.024032297            5 
 2654000   0.83346563   -7.2326917    769.92339  0.024174937   0.02402536            5 
 2655000   0.83961902   -7.2503853    770.60247  0.024187146  0.024018426            4 
 2656000   0.82139235   -7.2322216    768.02305  0.024097109  0.024011462            6 
 2657000   0.82490614   -7.2208318     770.0947  0.024153014  0.024004503            5 
 2658000   0.82725731   -7.2596635    768.61373  0.024097496  0.023997539            4 
 2659000   0.81841405   -7.2204516    770.18382   0.02413764  0.023990609            4 
 2660000   0.82292433   -7.2390845    771.22852  0.024161294  0.023983685            5 
 2661000   0.83620825   -7.2294546    768.86662  0.024078248  0.023976817            4 
 2662000   0.82895174   -7.2487282    769.35422  0.024084467  0.023969944            5 
 2663000   0.83216568   -7.2378729    772.01241  0.024158606   0.02396308            4 
 2664000   0.82862487   -7.2343147    771.80034  0.024142904  0.023956208            4 
 2665000   0.83086592   -7.2559215    771.08597  0.024111506  0.023949312            5 
 2666000    0.8040739   -7.2258752    770.56283   0.02408611  0.023942415            3 
 2667000   0.82169019   -7.2431395    773.11672  0.024156878  0.023935546            5 
 2668000   0.82857057   -7.2421757    769.75434  0.024042802  0.023928682            5 
 2669000   0.80820065   -7.2348357    771.00518  0.024072848   0.02392181            7 
 2670000   0.84492742   -7.2722013    770.02675  0.024033294  0.023914891            3 
 2671000   0.82508459   -7.2605508    771.04677   0.02405612  0.023908002            8 
 2672000   0.81725592   -7.2076285    772.23552  0.024084192  0.023901159            5 
 2673000   0.81622404    -7.256559    771.53334   0.02405329  0.023894311            6 
 2674000   0.83441634   -7.2411739     773.6824  0.024111269  0.023887441            6 
 2675000   0.81768106   -7.2387191    772.41934  0.024062908  0.023880591            3 
 2676000    0.8279675   -7.2700883    773.59166  0.024090423  0.023873745            5 
 2677000   0.82704353   -7.2356097    770.16434  0.023974734  0.023866835            6 
 2678000   0.84328633   -7.2299269    771.64528  0.024011865  0.023859962            4 
 2679000   0.82541277   -7.2417556    773.43158  0.024058467  0.023853149            4 
 2680000   0.83346208     -7.19638    775.17111  0.024103579  0.023846376            4 
 2681000   0.83613749   -7.2195027    773.35188  0.024038042  0.023839607            4 
 2682000   0.82165812   -7.2643856    770.32849  0.023935138  0.023832803            5 
 2683000   0.80059168   -7.2374295    773.24635  0.024016845  0.023825995            7 
 2684000   0.82217501   -7.2327297    773.78868  0.024024736  0.023819221            7 
 2685000   0.82412218   -7.2330393    773.88248  0.024018699  0.023812399            9 
 2686000   0.81755704   -7.2417416    771.50126  0.023935879  0.023805594            5 
 2687000   0.83939368   -7.2328164    773.00601  0.023973639  0.023798804           19 
 2688000   0.82252624    -7.219516    772.42961  0.023946851  0.023791983            2 
 2689000   0.81113564   -7.2564679    772.47898  0.023939475  0.023785164            3 
 2690000   0.82871595   -7.2407764    774.08803  0.023980422  0.023778365            4 
 2691000   0.82601088   -7.2277536     773.5597   0.02395515  0.023771549            5 
 2692000    0.8184935    -7.229302    772.93511  0.023926916  0.023764777            4 
 2693000   0.82235588   -7.2218726    773.17742   0.02392553  0.023758007            3 
 2694000   0.84082556   -7.2270033    774.78216  0.023966288  0.023751228            3 
 2695000   0.82449335   -7.2746132     774.9316  0.023962016   0.02374444            3 
 2696000   0.81316567    -7.268047    772.90601  0.023890517  0.023737606            7 
 2697000   0.80242966   -7.2243134    775.18067  0.023951943   0.02373075            6 
 2698000   0.79576627   -7.2351259     774.0457  0.023908009  0.023723925            8 
 2699000    0.8314141   -7.2129257    775.64884  0.023948649  0.023717121            2 
 2700000    0.8157583   -7.2281441    773.30257  0.023867363  0.023710362            3 
 2701000   0.80005032   -7.2526394    773.72301  0.023871498  0.023703586            7 
 2702000    0.8163865   -7.2448929    773.99005    0.0238709    0.0236968            8 
 2703000   0.81244589   -7.2364062    775.92311  0.023921665  0.023690002            4 
 2704000    0.8256539   -7.2305324    776.92229  0.023943611  0.023683222            3 
 2705000   0.79886829   -7.2540893    777.26629  0.023945357  0.023676469            3 
 2706000   0.82263654   -7.2595618    775.21919  0.023873466  0.023669686            3 
 2707000   0.79628602   -7.2183173    774.59126  0.023845316  0.023662882            7 
 2708000   0.82280553   -7.2510734     775.5757  0.023866805   0.02365613            4 
 2709000   0.81447939   -7.2449185    774.93298  0.023838224  0.023649363            7 
 2710000   0.79956816   -7.2631612    775.60066  0.023849959  0.023642601            5 
 2711000   0.82515104   -7.2580229    777.17082  0.023889426  0.023635842            3 
 2712000   0.81251016   -7.2323094    774.91281  0.023811234  0.023629068            3 
 2713000    0.8134212   -7.2529784    775.51151  0.023820848  0.023622318            4 
 2714000   0.80778532   -7.2174821    777.65182  0.023877789  0.023615559            4 
 2715000   0.79762405   -7.2613264    776.27026  0.023826589  0.023608817            5 
 2716000   0.82603353   -7.2600843    778.52311  0.023886939  0.023602099            7 
 2717000    0.8246626   -7.2659342    776.02107  0.023801407  0.023595357            4 
 2718000   0.82673907   -7.2724643    775.84348  0.023787205   0.02358864            5 
 2719000   0.82877005   -7.2621108    776.25827  0.023791169  0.023581891           14 
 2720000   0.81173201   -7.2196876    777.01523  0.023805614  0.023575168           10 
 2721000   0.81836616   -7.2538106     775.7481  0.023758058  0.023568438           10 
 2722000    0.7957989   -7.2517559    776.76311  0.023780404  0.023561718            3 
 2723000   0.82521919   -7.2181124    777.07236  0.023781135  0.023554979           12 
 2724000   0.81180103   -7.2591653    776.55176  0.023756478  0.023548263            6 
 2725000   0.81811129    -7.241217    776.21952    0.0237376  0.023541507            7 
 2726000   0.80331633   -7.2525249    778.13189  0.023787353  0.023534731            3 
 2727000   0.82497237   -7.2611318    776.45746  0.023727462  0.023527969            9 
 2728000   0.81446799   -7.2566417    775.87451  0.023700957  0.023521228            6 
 2729000   0.82497602   -7.2624236    776.98333  0.023726131  0.023514536            4 
 2730000   0.82448325   -7.2417233    776.99828  0.023717896  0.023507797            3 
 2731000   0.80546359   -7.2578888    777.10635  0.023712509  0.023501041            7 
 2732000   0.80405622   -7.2420977    779.16696  0.023766684  0.023494315            8 
 2733000   0.81369333   -7.2492768    777.85267  0.023717913  0.023487598            4 
 2734000   0.81994153   -7.2829119    777.21067  0.023689669  0.023480907            3 
 2735000    0.8105608   -7.2877224    777.99775  0.023704989  0.023474149            6 
 2736000   0.82722375    -7.229905    779.03971  0.023728061  0.023467434            8 
 2737000   0.80718776   -7.2526945    779.00628  0.023718374  0.023460728            3 
 2738000   0.81893502   -7.2977359    777.39678  0.023660725   0.02345398           11 
 2739000   0.82064128   -7.2193577    777.29892  0.023649109  0.023447238            4 
 2740000    0.8011822    -7.286483    776.20648  0.023607253  0.023440489            3 
 2741000   0.81325543   -7.2700114    775.59851  0.023580157  0.023433695            5 
 2742000   0.82222446   -7.2626279    779.11104  0.023678308  0.023426935            6 
 2743000   0.81267783   -7.2657827     776.6931  0.023596218  0.023420154            6 
 2744000   0.82437382   -7.2522958    778.46577  0.023641453  0.023413338            6 
 2745000   0.80308507   -7.2901045    777.09279  0.023591159  0.023406522            8 
 2746000     0.817565   -7.2541565    777.18829  0.023585466  0.023399738            4 
 2747000   0.82049699   -7.2615653    776.19908  0.023546872  0.023392987            8 
 2748000   0.81413954   -7.2775315    778.35846  0.023603787  0.023386156            4 
 2749000    0.8121246   -7.2369149    777.20402  0.023560204  0.023379354            6 
 2750000    0.8302198   -7.2474722    777.78987   0.02356939  0.023372578            4 
 2751000   0.82165264   -7.2512798    778.06262  0.023569085  0.023365797            6 
 2752000   0.81864569   -7.2771415    778.09537  0.023561512  0.023359029            5 
 2753000   0.82745797   -7.2525159    776.98094   0.02351922   0.02335221            7 
 2754000    0.8127662   -7.2677996    779.54135  0.023588155  0.023345386            3 
 2755000   0.79972986    -7.272716    778.12146  0.023536644   0.02333859           10 
 2756000   0.79621995   -7.2337294    778.92179  0.023552304  0.023331829            7 
 2757000   0.82410569   -7.2263713    778.65999  0.023535848  0.023325125           11 
 2758000   0.79979373   -7.2673765    778.73672  0.023529633  0.023318387            4 
 2759000   0.82974377   -7.2373915    779.06109  0.023530902  0.023311685            7 
 2760000   0.81952401   -7.2414038    779.31373  0.023530004  0.023304981            5 
 2761000   0.81509817   -7.2852636    778.84372  0.023507296  0.023298293            5 
 2762000   0.79338583   -7.2469285    778.60586  0.023491608  0.023291532            4 
 2763000   0.81215605   -7.2607592    778.61331  0.023483331   0.02328477            4 
 2764000    0.8131774   -7.2622635     778.8504  0.023481983  0.023277992            7 
 2765000   0.80274728   -7.2768795    776.96019  0.023416522  0.023271225            5 
 2766000   0.78199781   -7.2541303    779.55417  0.023486207  0.023264451            7 
 2767000   0.79178416   -7.2812481    779.71693  0.023482621  0.023257692            4 
 2768000   0.79350916   -7.2576283     781.0557  0.023514442  0.023250967            4 
 2769000   0.81125828   -7.2825359      778.332   0.02342398  0.023244261           13 
 2770000   0.80830763   -7.2515172    777.87712  0.023401839  0.023237497            4 
 2771000   0.80289497   -7.2734319    779.58747  0.023444829  0.023230756            6 
 2772000   0.82285582   -7.2628021    779.11859  0.023422276  0.023224004            6 
 2773000   0.80856547   -7.2653678    778.55499  0.023396892  0.023217305            4 
 2774000   0.81147497   -7.2153517    782.31729  0.023501481  0.023210624            3 
 2775000   0.83188447    -7.288575    780.50631  0.023438628  0.023203894            4 
 2776000   0.79934112   -7.2637837    780.93218  0.023442969  0.023197173            4 
 2777000   0.81576408   -7.3141728    777.66542  0.023336497  0.023190425           10 
 2778000   0.83702805   -7.2870594    779.82076  0.023392751  0.023183679            4 
 2779000   0.81029832   -7.2727801    778.88843  0.023356376  0.023176941            7 
 2780000   0.80285827   -7.2817632    780.76831  0.023404326    0.0231702           10 
 2781000   0.81061554   -7.2982658    781.29143  0.023411585  0.023163479           12 
 2782000   0.79950636   -7.2862365    779.53495  0.023350556  0.023156776           10 
 2783000   0.78966347   -7.2888073    779.20482   0.02333228  0.023150048            5 
 2784000   0.81037051   -7.2371071    781.34308  0.023387904  0.023143311            5 
 2785000   0.80069152   -7.2511283    781.30125  0.023378254   0.02313658            7 
 2786000   0.82802246   -7.2792707    780.51138  0.023346237  0.023129848            7 
 2787000   0.79176442   -7.2980216      778.984   0.02329219   0.02312313            7 
 2788000   0.80665421   -7.2522908    780.42049  0.023326772  0.023116391            4 
 2789000    0.8059137   -7.2714043    779.69207  0.023296644  0.023109664            4 
 2790000   0.81852393   -7.2745156    780.99631   0.02332725  0.023102938            4 
 2791000   0.79693682   -7.2767176    781.13647  0.023323076  0.023096286            3 
 2792000   0.80723781    -7.294782    782.10698   0.02334369  0.023089585            4 
 2793000   0.80386888   -7.2635232    781.85854  0.023327919  0.023082883            6 
 2794000   0.80203212   -7.2717092    781.09271  0.023296728  0.023076186            4 
 2795000   0.82242009   -7.2681219    782.79139   0.02333904  0.023069566           13 
 2796000   0.79711261   -7.2583583    781.39019   0.02328893  0.023062921            6 
 2797000     0.803512   -7.2812813    781.66406  0.023288764  0.023056327            9 
 2798000   0.81653154   -7.2761634    783.25011  0.023327678  0.023049697            5 
 2799000   0.81996952   -7.3096322    783.32749  0.023321647  0.023043066            8 
 2800000   0.81309725   -7.2721159    782.72304  0.023295329  0.023036433            8 
 2801000   0.79353508   -7.3167691    782.81696  0.023289806   0.02302978            4 
 2802000   0.79415124   -7.2661678    784.88653  0.023343045   0.02302316            5 
 2803000   0.79593525   -7.2948726    783.33955  0.023288725  0.023016534            5 
 2804000   0.80301151   -7.2910858    781.67752  0.023231025  0.023009883            3 
 2805000   0.78585956   -7.2849397    780.65608  0.023192397  0.023003217            3 
 2806000   0.82806554   -7.2532124    783.46074  0.023267425  0.022996607            2 
 2807000   0.79683456   -7.2932913    782.36216  0.023226522  0.022989984            4 
 2808000   0.80276699   -7.2905062    781.03669  0.023178914  0.022983318            6 
 2809000   0.80671667   -7.3000101    783.95824  0.023257335  0.022976637            4 
 2810000   0.79161245   -7.2782026    782.65743  0.023210481  0.022969971            3 
 2811000   0.80417412   -7.2471495    783.47656  0.023226508  0.022963358            2 
 2812000   0.80742808   -7.2702828    782.86841  0.023200226  0.022956731            8 
 2813000   0.79111449   -7.2591518    783.72135  0.023217246  0.022950045            9 
 2814000   0.78624442   -7.2556951    782.56976  0.023174892  0.022943358            5 
 2815000   0.80018216   -7.2930305    782.72907  0.023171376  0.022936673            7 
 2816000   0.80829462    -7.268441    783.27608  0.023179335   0.02293002            7 
 2817000   0.80101581    -7.295752    784.66766  0.023212273  0.022923371            4 
 2818000    0.7974102   -7.2545606    787.09097  0.023275697  0.022916747            4 
 2819000   0.79795227   -7.2738936    782.72549  0.023138391   0.02291011            2 
 2820000   0.81142328   -7.2713365    783.01512  0.023138745  0.022903441            8 
 2821000   0.81674014   -7.2780443    783.17821   0.02313536  0.022896751           10 
 2822000   0.79829672   -7.2948995    782.75406  0.023114637  0.022890048            4 
 2823000   0.80150793    -7.293387    782.42275  0.023096669  0.022883381            6 
 2824000   0.79708865   -7.2700258    783.46717   0.02311931  0.022876711            8 
 2825000   0.80954204   -7.2954923    783.72046  0.023118598  0.022870041           11 
 2826000   0.79693587   -7.3033873    782.37103  0.023070625  0.022863357            6 
 2827000    0.8041768   -7.3113334    782.56178  0.023068087  0.022856656            9 
 2828000   0.79340146   -7.3035368    782.91149  0.023070235  0.022849974            5 
 2829000   0.78463712   -7.2719984    784.58536  0.023111387  0.022843317            6 
 2830000   0.79024683   -7.3064487    783.65638  0.023075865  0.022836645            7 
 2831000   0.80149185   -7.3207073    784.09576  0.023080648  0.022829945            9 
 2832000   0.80251872   -7.2826781    784.15274  0.023074174  0.022823239            9 
 2833000   0.80105501   -7.2720731    783.49848  0.023046784  0.022816583            5 
 2834000   0.81093051    -7.303471    784.59697  0.023070953   0.02280995            5 
 2835000   0.79034896   -7.3168951    784.02684  0.023046057   0.02280324            4 
 2836000   0.80070783   -7.3048122    785.77191  0.023089208   0.02279659            4 
 2837000   0.78346464   -7.2709679    785.94651  0.023086198  0.022789977            7 
 2838000   0.76905473   -7.2777906    785.32813  0.023059905  0.022783359            4 
 2839000   0.79197611   -7.3214286     785.1279  0.023045905  0.022776764            3 
 2840000   0.79957953   -7.2844977    784.39289  0.023016223  0.022770148            6 
 2841000   0.80306682   -7.3143817    784.84249   0.02302131  0.022763559            4 
 2842000   0.78138754    -7.264444    785.58089  0.023034861  0.022757014            6 
 2843000   0.80447157   -7.2811764    787.14679  0.023072658  0.022750432           12 
 2844000   0.79944835   -7.2859697     785.9477   0.02302941  0.022743874            6 
 2845000   0.80438797     -7.29258    786.43648  0.023035632  0.022737301            4 
 2846000   0.78690736   -7.2802632    787.63371  0.023062594  0.022730735           10 
 2847000    0.7867333   -7.3054309    786.54694  0.023022683   0.02272417            5 
 2848000   0.79267845   -7.2988913    783.75299  0.022932847  0.022717584            4 
 2849000   0.79698839   -7.2711509    785.66437  0.022980706  0.022711009            7 
 2850000   0.80227994   -7.2828412    785.24575  0.022960402  0.022704409           13 
 2851000    0.7996404   -7.2905116    784.28781  0.022924349  0.022697839            4 
 2852000   0.80353223   -7.3001149    786.19128  0.022971928  0.022691247            9 
 2853000   0.79735252    -7.278324    788.61732  0.023034739  0.022684706            5 
 2854000   0.78677859   -7.2782462    787.34105  0.022989402  0.022678166            4 
 2855000   0.76489085   -7.2792347     787.9265  0.022998438  0.022671608            2 
 2856000   0.78198571   -7.2514857     787.7355  0.022984813  0.022665048            4 
 2857000   0.79806143   -7.2851085     787.3264  0.022964835   0.02265852            5 
 2858000   0.79747539   -7.2519239    789.03864  0.023006725   0.02265199            4 
 2859000   0.79647733   -7.3163852    786.91725  0.022936844  0.022645456            5 
 2860000   0.78282838   -7.2882843    787.09369  0.022933965  0.022638895            6 
 2861000   0.78340111   -7.2685071    786.49437  0.022908493  0.022632343            3 
 2862000   0.79508947    -7.274896    788.41963  0.022956547   0.02262581            2 
 2863000   0.78688438    -7.301293    787.48122  0.022921214  0.022619307            6 
 2864000   0.78535711   -7.2825283    789.05737  0.022959071  0.022612781            8 
 2865000   0.80472303   -7.2902315    789.21267  0.022955575  0.022606289            7 
 2866000   0.78952095   -7.2819247     786.8304  0.022878297   0.02259977            6 
 2867000   0.78687637   -7.3103749    784.63619   0.02280654   0.02259322            4 
 2868000   0.80103028   -7.3102909    786.94565  0.022865692  0.022586639            3 
 2869000   0.79722247   -7.2871984    788.49365  0.022902685  0.022580092            4 
 2870000   0.78117498   -7.3290672    786.93575   0.02284947  0.022573514            5 
 2871000   0.81289986   -7.3270685    786.53054   0.02282975  0.022566939            4 
 2872000   0.78532285   -7.3005611    788.01171  0.022864778   0.02256039            9 
 2873000   0.79374895   -7.3272583    787.91592  0.022854041   0.02255384           18 
 2874000   0.80442624   -7.3055099    786.70001  0.022810833  0.022547273           10 
 2875000   0.78793175   -7.2940075    787.42048  0.022823782  0.022540719            3 
 2876000   0.80788123   -7.2900883    789.05894  0.022863321  0.022534174            5 
 2877000   0.81281165   -7.2734044    789.72725  0.022874732  0.022527679            5 
 2878000   0.79185346   -7.3076062    788.88844  0.022842496  0.022521162            4 
 2879000    0.7721625   -7.2701766    789.16377  0.022842531  0.022514659            5 
 2880000   0.79301295   -7.3179079    788.80342  0.022824173  0.022508136            7 
 2881000   0.79662274   -7.2954926    788.78209  0.022815634  0.022501664            7 
 2882000   0.78747507   -7.3150605    790.47509   0.02285667  0.022495142            5 
 2883000   0.77743104   -7.3489483    787.09308  0.022750985  0.022488617            4 
 2884000   0.79858991   -7.3314999    788.32212   0.02277861  0.022482054            8 
 2885000   0.78255465   -7.2986882    789.28366  0.022798488  0.022475526            6 
 2886000   0.80318082   -7.3270123    788.88357  0.022779036  0.022468957            9 
 2887000   0.80702966   -7.3223903    788.78306  0.022768244  0.022462442            7 
 2888000   0.80368974   -7.3282127    789.69823  0.022786768  0.022455903            6 
 2889000   0.80510245   -7.3292003    787.51771  0.022715983  0.022449342            9 
 2890000   0.79734631   -7.3183273    788.86108  0.022746859  0.022442766            6 
 2891000   0.79014018   -7.3193969    789.27003  0.022750779  0.022436221            2 
 2892000   0.78881958   -7.2713405    788.82149  0.022729988  0.022429695            4 
 2893000   0.77423007   -7.2825917    787.98531  0.022698044  0.022423178            8 
 2894000   0.80471842    -7.287618    789.56505   0.02273569  0.022416695            5 
 2895000    0.7801437   -7.2953636     788.3556  0.022693022  0.022410174            8 
 2896000   0.77551257   -7.3160459    788.46318  0.022688282  0.022403648            5 
 2897000   0.79536908   -7.3150958    788.22166  0.022673503  0.022397119           10 
 2898000   0.79332637   -7.3183579      790.246   0.02272389  0.022390581            5 
 2899000    0.7732908   -7.3278104    790.64908  0.022727638  0.022384057            4 
 2900000    0.8007245   -7.3278123    788.44817  0.022656557  0.022377529            9 
 2901000   0.79191023   -7.3049176    789.06855  0.022666567  0.022370996           14 
 2902000   0.76930774   -7.3026409    789.10188  0.022659714  0.022364473            6 
 2903000   0.79162213   -7.3270214    790.41965  0.022689736  0.022357963            7 
 2904000   0.79064806   -7.3020521    790.30934  0.022678757  0.022351435            6 
 2905000    0.7722309   -7.3208953    789.49338  0.022647544  0.022344896            9 
 2906000   0.79345234   -7.3060025    790.88174  0.022679564  0.022338342            4 
 2907000   0.78032472   -7.2988093    788.03283  0.022590094   0.02233181            8 
 2908000   0.79642384   -7.3105203    788.56253  0.022597505  0.022325246            8 
 2909000   0.77772001   -7.3399914    790.37367   0.02264162  0.022318674           13 
 2910000   0.78589386   -7.3145781    790.25485  0.022630437  0.022312126            5 
 2911000   0.78398791   -7.3173603    789.63822   0.02260501  0.022305599            5 
 2912000     0.790922   -7.2841301    789.02417  0.022579675  0.022299086            3 
 2913000   0.77524205   -7.3174561    791.40317  0.022639981  0.022292574            5 
 2914000   0.79432175   -7.3242281    789.94178  0.022590419  0.022286051            3 
 2915000   0.76675131   -7.3291841    791.75072  0.022634383   0.02227953           13 
 2916000   0.79364329   -7.3542089    789.71344    0.0225684  0.022272966            5 
 2917000   0.76541016    -7.337246    790.31362  0.022577809  0.022266419           13 
 2918000   0.79360265   -7.3129948    790.87816  0.022586194  0.022259878            7 
 2919000   0.78206532   -7.3404914    790.43033  0.022565671  0.022253378           10 
 2920000    0.7886876   -7.3417649    788.19519  0.022494155  0.022246817            5 
 2921000   0.77862307   -7.3304101    788.55609   0.02249675  0.022240228            8 
 2922000   0.77399732    -7.326082    789.01644   0.02250218  0.022233657            9 
 2923000   0.78526654   -7.3153291    789.47442  0.022507539  0.022227095            3 
 2924000   0.77431039   -7.3192822    789.70606  0.022506443   0.02222053           10 
 2925000   0.77014601    -7.322364    791.42606  0.022547751     0.022214            8 
 2926000   0.77935176    -7.341091     790.5828  0.022516029   0.02220748            9 
 2927000   0.78247992   -7.3225681    789.73354  0.022484157  0.022200956            4 
 2928000   0.78443923   -7.3175979    790.43622  0.022496477  0.022194459            8 
 2929000   0.77756585   -7.3276503    792.46685   0.02254657  0.022187951            2 
 2930000   0.79521713   -7.3080075    790.53315  0.022483878  0.022181434            7 
 2931000   0.77784039   -7.2967286    789.52247  0.022447472  0.022174925            8 
 2932000   0.76614569    -7.347986    789.16426  0.022429635  0.022168404            5 
 2933000   0.79044327   -7.3325381    789.28725  0.022425482  0.022161852            3 
 2934000   0.79705219   -7.3446953    788.08046  0.022383562  0.022155275            3 
 2935000   0.77294166   -7.3253195    791.94422  0.022485639  0.022148756            3 
 2936000   0.78369691   -7.3150643    789.07068   0.02239642  0.022142223            4 
 2937000   0.78376384   -7.3695348    789.11566  0.022390071  0.022135692            8 
 2938000   0.77132664   -7.3272186    791.69447  0.022455595  0.022129175            3 
 2939000   0.77533511   -7.3019164    791.98969  0.022456326  0.022122673            7 
 2940000   0.79147826   -7.3365871    790.55672   0.02240807   0.02211613           14 
 2941000   0.78161265    -7.324215    790.51191  0.022399181  0.022109639           13 
 2942000   0.79215937   -7.3385059    790.68086  0.022396353  0.022103161            9 
 2943000   0.78585692    -7.323588    790.27397  0.022377222  0.022096636           16 
 2944000   0.77114911   -7.2936629    793.17392  0.022451707  0.022090153           12 
 2945000   0.77931935   -7.3352341    789.20406   0.02233175  0.022083645            7 
 2946000   0.78741748   -7.3072406    793.85717  0.022455792  0.022077139            6 
 2947000   0.78937593   -7.3389608    791.06538  0.022369228  0.022070609            9 
 2948000   0.76339323   -7.3340826    790.94146  0.022358137  0.022064065            5 
 2949000   0.77955034   -7.3523639     792.0541  0.022381997  0.022057538            7 
 2950000   0.77172729   -7.3326836    790.21152  0.022322359  0.022051032           10 
 2951000    0.7853652   -7.3173069    790.64824  0.022327128   0.02204454            7 
 2952000   0.77603224   -7.3480118    792.27351  0.022365445  0.022038067           10 
 2953000   0.77108432   -7.3254294    792.23828  0.022356876   0.02203158            7 
 2954000   0.76875155   -7.3217587    791.64521  0.022332578  0.022025087            4 
 2955000   0.77688493   -7.3091226    791.55599  0.022322504  0.022018624            3 
 2956000   0.76142438   -7.3333927    792.34068  0.022337074  0.022012148            6 
 2957000   0.80096269   -7.3460278    792.78372  0.022342005  0.022005645            6 
 2958000   0.77377139   -7.3142631    791.41154  0.022295795  0.021999173            5 
 2959000   0.76032705   -7.3315697    792.22494  0.022311167  0.021992716            6 
 2960000   0.79929829   -7.3350666    794.05572  0.022355172  0.021986234            5 
 2961000   0.77139954   -7.3182051    794.04482  0.022347316  0.021979797            4 
 2962000   0.78915568   -7.3294646    795.54294  0.022381919  0.021973372            3 
 2963000   0.79302142   -7.3338153    793.98806  0.022330635  0.021966992            9 
 2964000   0.78185407   -7.3273788    792.79546  0.022289571  0.021960542            4 
 2965000   0.78696897   -7.3375038     792.4515  0.022272386  0.021954058            6 
 2966000   0.77556845   -7.3592273    793.50288  0.022294417  0.021947577            8 
 2967000   0.77950259   -7.3298541    793.27192  0.022280416  0.021941101            5 
 2968000   0.76692431   -7.3673015     792.8772  0.022261826  0.021934642            6 
 2969000   0.76559242   -7.3257599    794.06435  0.022287649  0.021928227           10 
 2970000   0.77469055   -7.3656553    791.25728  0.022201383  0.021921769            9 
 2971000   0.79456544   -7.3309841    793.99782  0.022270779  0.021915311           16 
 2972000   0.76674138   -7.3412036    793.52925  0.022250147  0.021908869            5 
 2973000   0.76740396   -7.3827154    791.76245   0.02219314   0.02190242            7 
 2974000   0.77026851   -7.3620752    792.28246  0.022200248  0.021895942            3 
 2975000   0.76273376   -7.3485185     793.4912  0.022226644  0.021889476            5 
 2976000   0.77513003   -7.3490008    794.39624  0.022244518  0.021883019            7 
 2977000   0.76802384   -7.3334698    794.18648  0.022231175  0.021876558            8 
 2978000    0.7775088   -7.3341729     793.9182  0.022216202  0.021870111           10 
 2979000    0.7737436   -7.3755228    793.57044  0.022199016  0.021863665            4 
 2980000   0.77009955   -7.3420633     791.8352  0.022143042  0.021857184           10 
 2981000   0.78609334   -7.3450129    794.34475  0.022205768  0.021850723            4 
 2982000   0.78225638   -7.3442498    795.18022  0.022221669  0.021844293            4 
 2983000   0.78371734   -7.3426443    794.45059  0.022193837  0.021837912            4 
 2984000    0.7710704   -7.3271222    796.19737  0.022235181  0.021831519            4 
 2985000   0.78167956   -7.3701467    793.61905  0.022155752  0.021825108            7 
 2986000   0.77643899   -7.3442642    795.41238  0.022198381  0.021818693            5 
 2987000   0.79830499   -7.3239471    796.88859  0.022232133  0.021812309            9 
 2988000   0.77639508   -7.3513827    795.58305  0.022188282  0.021805942            7 
 2989000   0.77113038   -7.3361195    794.38051  0.022147332  0.021799551            6 
 2990000   0.77366347   -7.3535426    795.02382  0.022157854  0.021793159            9 
 2991000   0.77142306   -7.3454813    793.99061   0.02212166  0.021786759            6 
 2992000   0.76567619   -7.3532237    795.26537  0.022149771  0.021780354            7 
 2993000   0.76680768   -7.3221819    796.53383  0.022177688  0.021773971            9 
 2994000   0.78105601   -7.3342375     794.0674  0.022101631  0.021767557           11 
 2995000   0.79545974   -7.3349707    793.74481  0.022085276  0.021761078            7 
 2996000   0.77311008   -7.3623793     794.7588  0.022106108  0.021754601           10 
 2997000   0.77057779   -7.3647719    793.30516  0.022058313   0.02174813            4 
 2998000   0.77972512   -7.3353158    794.77525  0.022091818  0.021741653            4 
 2999000   0.75663025   -7.3492938    794.35624  0.022072809  0.021735194            3 
 3000000   0.77938271   -7.3569827    794.61849  0.022072736  0.021728735            5 
 3001000   0.76804831   -7.3800349    794.06653  0.022050054  0.021722265            5 
 3002000   0.77660983   -7.3394535    794.29703  0.022049107  0.021715782            3 
 3003000   0.77221339   -7.3529809     795.9308  0.022087102  0.021709353            6 
 3004000   0.77684685   -7.3367419    795.77459  0.022075416  0.021702921            4 
 3005000   0.76829136    -7.360066    795.39281  0.022057482   0.02169648            3 
 3006000   0.77293513   -7.3646858    795.99833  0.022066931  0.021690012            7 
 3007000   0.77496116   -7.3635694    795.43324  0.022043932  0.021683591           11 
 3008000   0.77741623   -7.3604984    792.95374  0.021967912  0.021677153            5 
 3009000   0.77756713   -7.3548898    795.87354  0.022041474  0.021670735            3 
 3010000   0.77111726   -7.3508344    794.12278  0.021985681  0.021664321            7 
 3011000   0.77082301   -7.3491289    794.57734  0.021990959  0.021657919            5 
 3012000   0.76454582   -7.3773308    793.16812  0.021944669   0.02165151            5 
 3013000   0.78237373   -7.3743228    795.37098  0.021998312  0.021645067            5 
 3014000   0.77066977    -7.327096    795.83509  0.022003846  0.021638642            4 
 3015000   0.76300027   -7.3438656    794.71853  0.021965686  0.021632227           14 
 3016000   0.77380819   -7.3425156    793.58812   0.02192717  0.021625808            4 
 3017000   0.77197976   -7.3850173     795.1082  0.021961888  0.021619387            7 
 3018000   0.78701574   -7.3580264    793.92824   0.02192203  0.021612962            4 
 3019000   0.76978175   -7.3579455    795.01758  0.021944838   0.02160654            3 
 3020000   0.79307575    -7.344833    794.13378  0.021913184  0.021600102            4 
 3021000   0.77341202   -7.3552198    795.12738  0.021933338  0.021593692            5 
 3022000   0.77069565   -7.3690846    796.31805  0.021958914   0.02158727            3 
 3023000   0.75236681   -7.3669691    794.23507   0.02189423  0.021580822           11 
 3024000   0.76312043   -7.3912307     795.3599  0.021917987  0.021574372            6 
 3025000   0.77995401   -7.3674367     797.2024  0.021961499  0.021567926            9 
 3026000   0.76538314   -7.3314308     795.0342  0.021894531  0.021561502            8 
 3027000   0.77174846   -7.3814266    793.82855  0.021854106  0.021555093           23 
 3028000   0.76464847   -7.3519432    795.44605  0.021891404  0.021548699            6 
 3029000   0.76621037   -7.3603009    794.93981  0.021870249  0.021542283            7 
 3030000   0.77639977   -7.3313277    796.53403  0.021906876  0.021535856            5 
 3031000   0.78304543   -7.3352408    797.11227  0.021915547  0.021529457            7 
 3032000   0.76857648   -7.3539847    794.41865  0.021834286  0.021523054            5 
 3033000   0.76593469   -7.3805633    796.57144  0.021886236  0.021516637            3 
 3034000   0.76507453   -7.3459335    797.17815  0.021895686   0.02151022            4 
 3035000   0.75224013   -7.3615711    793.47996  0.021786929  0.021503798            9 
 3036000   0.77953265   -7.3869008    795.49564   0.02183508  0.021497366            6 
 3037000   0.75634857   -7.3577599    796.27353  0.021849235  0.021490956            7 
 3038000   0.75122933   -7.3925741    795.27863  0.021814753  0.021484541            6 
 3039000   0.76953239   -7.3431265    794.39253  0.021783276  0.021478108           12 
 3040000   0.75718371   -7.3994452    795.00223  0.021792824  0.021471668            8 
 3041000    0.7488298   -7.3708385    796.46096  0.021825632  0.021465224            5 
 3042000   0.76260674   -7.3983013    794.23386  0.021757447  0.021458759            3 
 3043000   0.75414793   -7.3797237    796.09374  0.021801231    0.0214523            6 
 3044000   0.78236474    -7.361054    796.25363  0.021798446  0.021445897            4 
 3045000   0.76128991   -7.3652429    796.12544  0.021787779  0.021439483            6 
 3046000   0.75518001   -7.3520912    794.78229   0.02174388  0.021433072           11 
 3047000    0.7669163   -7.3966188    796.30571  0.021778408  0.021426636            6 
 3048000   0.76041629   -7.4034632    794.79853  0.021730056  0.021420189            9 
 3049000   0.76694806   -7.3871775    795.96784  0.021754888  0.021413721            8 
 3050000   0.76353406   -7.3571447    794.72982  0.021713929  0.021407296            6 
 3051000    0.7675884   -7.3693781    796.45728  0.021753995   0.02140085            9 
 3052000   0.76712079   -7.3589921    796.78551   0.02175583  0.021394371            4 
 3053000   0.77240886   -7.3793146    796.76226  0.021748069  0.021387915            5 
 3054000   0.75792802   -7.3555193    796.45572  0.021732583  0.021381454            7 
 3055000   0.77170556   -7.3809467    795.46343  0.021698402  0.021374988           10 
 3056000   0.76637102   -7.3800311    796.07541   0.02170799  0.021368537            5 
 3057000   0.76102219   -7.3954758    793.66715   0.02163524  0.021362044            5 
 3058000   0.77197063   -7.3719513    796.68134  0.021710305  0.021355571            4 
 3059000   0.75407832   -7.3643288    794.42828   0.02164183  0.021349118            3 
 3060000   0.74074577   -7.3745571    794.36324  0.021632986  0.021342657            4 
 3061000   0.74416421   -7.3557217    797.32102  0.021706442  0.021336201            9 
 3062000   0.75425197   -7.3553546    798.00868  0.021718068  0.021329787            3 
 3063000   0.76587642   -7.3769635     796.0462  0.021657585  0.021323379            7 
 3064000    0.7625328   -7.3641068    796.51579  0.021663288  0.021316951            5 
 3065000   0.76200004   -7.3867099    795.23264  0.021621333    0.0213105            8 
 3066000   0.76547777   -7.3543593    795.90636  0.021632593  0.021304051           15 
 3067000   0.75130567   -7.3841436    796.13377  0.021631719  0.021297609           13 
 3068000   0.76757813   -7.3640118    796.57518  0.021636657  0.021291166           12 
 3069000   0.74277826   -7.3520933    797.63234  0.021658313   0.02128475            5 
 3070000   0.75582764   -7.3560755    795.35341  0.021589398  0.021278313            8 
 3071000   0.74399819   -7.3552717    798.95228  0.021680025  0.021271903            3 
 3072000   0.74991612   -7.3850024    795.59214  0.021581818   0.02126546           13 
 3073000   0.75274083   -7.3832485    794.97236  0.021557988   0.02125901           11 
 3074000   0.73939478   -7.3559853    796.19246  0.021584051  0.021252551            8 
 3075000   0.74853014   -7.3726034    797.84518  0.021621821  0.021246113            8 
 3076000   0.76221947   -7.3531556    796.43835  0.021576678  0.021239669            4 
 3077000    0.7651865   -7.3872964     794.7304   0.02152341  0.021233222            8 
 3078000   0.75384938   -7.3804732    797.19219  0.021583068   0.02122679            4 
 3079000   0.75951014    -7.347799    798.40867  0.021608982  0.021220345            5 
 3080000   0.75744885   -7.3711951    797.81921  0.021586018  0.021213896            8 
 3081000   0.75620945   -7.3900978    795.49422  0.021516126  0.021207442            6 
 3082000   0.77428704     -7.39044    797.16568  0.021554339  0.021201018            5 
 3083000   0.74316931    -7.402287    796.49571  0.021529238  0.021194565            5 
 3084000   0.74700706   -7.3847683    795.36329  0.021491658  0.021188115            8 
 3085000   0.77302761   -7.3333988    797.59236  0.021544904  0.021181691            6 
 3086000   0.76258404   -7.3624223    795.05362  0.021469368  0.021175298            6 
 3087000   0.75118105   -7.3764627    795.87787  0.021484663  0.021168882            6 
 3088000   0.77051242   -7.3506118    796.42938  0.021492589  0.021162471            8 
 3089000   0.75202691   -7.3916778    796.86561    0.0214974  0.021156051            4 
 3090000   0.75109873   -7.4048892    796.74899  0.021487297  0.021149639            5 
 3091000   0.75925096    -7.386355    797.40447  0.021498018  0.021143225           11 
 3092000   0.77276246   -7.3820532    797.58477  0.021495924  0.021136792            7 
 3093000   0.76578285   -7.3919466    796.78038  0.021467302  0.021130384            5 
 3094000   0.76827582    -7.375357    797.33434  0.021475284  0.021123956            4 
 3095000   0.74738668   -7.3529394    800.01024  0.021540394  0.021117564            4 
 3096000   0.75542887   -7.3637257    797.20015  0.021457799  0.021111145            5 
 3097000   0.76102937   -7.4148172    795.99671  0.021418489   0.02110471            3 
 3098000   0.76363611   -7.3892141    794.51866  0.021371817  0.021098234            7 
 3099000   0.76310562   -7.3883678    796.27949   0.02141227  0.021091766            5 
 3100000    0.7446664   -7.3832124    797.38822  0.021435167  0.021085318            5 
 3101000   0.76005289   -7.4197818    794.58505  0.021352925   0.02107885            8 
 3102000   0.76983458   -7.3963221    798.47262  0.021450479  0.021072404            8 
 3103000   0.76033584   -7.3996207    797.59551   0.02142001  0.021065951            4 
 3104000   0.76973367   -7.3990096    796.78501   0.02139135  0.021059482            8 
 3105000   0.75656872   -7.3798457    797.65466  0.021407801  0.021053036            4 
 3106000   0.76138289   -7.3910761    796.51828   0.02137042  0.021046613            4 
 3107000   0.75330747   -7.4039471    796.13731  0.021353324  0.021040177            7 
 3108000   0.75871393   -7.4098362    796.67754  0.021360938  0.021033743            4 
 3109000   0.75691628   -7.3977228    795.44204  0.021320951  0.021027302            7 
 3110000   0.75843628   -7.4037839    796.48969  0.021342167  0.021020855            7 
 3111000   0.77022404   -7.3937666    796.77818  0.021343035  0.021014424            5 
 3112000   0.74778917   -7.3830884    796.66127  0.021333046  0.021008004            7 
 3113000   0.74895626   -7.4149405    795.98179  0.021308004  0.021001588            2 
 3114000   0.74940629    -7.428284    797.02385  0.021329047  0.020995155            7 
 3115000    0.7508262   -7.4048689    798.33335  0.021357232  0.020988738            7 
 3116000   0.73687078   -7.3827691    797.23466  0.021320996  0.020982354            3 
 3117000   0.75915051   -7.4021402    798.71744  0.021353797  0.020975961           13 
 3118000   0.74535665   -7.3810012    799.10329  0.021357261   0.02096959           10 
 3119000   0.76031478   -7.4128657    798.53046  0.021335109  0.020963258            9 
 3120000   0.74345948   -7.3867356    799.62123  0.021357405  0.020956907           10 
 3121000   0.76584258   -7.3914026    800.45946  0.021372943  0.020950545            6 
 3122000   0.75583767   -7.4117658    798.45011  0.021312463  0.020944198           10 
 3123000   0.74713566   -7.3896959    799.34591  0.021329542  0.020937853            4 
 3124000   0.75371816   -7.3944659    797.84585    0.0212827  0.020931485            5 
 3125000   0.73784713   -7.3853533    801.36303  0.021369681  0.020925143            3 
 3126000   0.76212437   -7.3852633    798.95528  0.021298659  0.020918798            5 
 3127000    0.7618478   -7.4103327     797.8555  0.021262539  0.020912426            8 
 3128000   0.73803468   -7.3662018    796.46126  0.021218597  0.020906063            6 
 3129000   0.76228971   -7.3850788    798.35862  0.021262347  0.020899691            9 
 3130000   0.75806747   -7.4120359    799.29632   0.02128052   0.02089335            6 
 3131000   0.73371667   -7.4068535    798.87958  0.021262631  0.020886995            4 
 3132000   0.75179199   -7.4191734    798.93745  0.021257382  0.020880645           10 
 3133000   0.76559186   -7.4181671    797.34479  0.021208235  0.020874295            4 
 3134000   0.75343456   -7.3910823    802.12228  0.021328501  0.020867949            5 
 3135000   0.75487422    -7.413524    799.15031  0.021242698  0.020861619            7 
 3136000   0.74201135   -7.4154651    799.70928  0.021250778  0.020855317            8 
 3137000   0.74594676   -7.4083439    800.94975  0.021276956  0.020849009            8 
 3138000   0.75494438   -7.3949751    797.39133  0.021175678  0.020842686           11 
 3139000   0.75623886   -7.4041656    798.25469  0.021191852  0.020836359           10 
 3140000   0.75679032   -7.4077745    799.39455  0.021215354  0.020830019            7 
 3141000   0.74288389   -7.3823504    797.21847  0.021150867   0.02082366            8 
 3142000   0.75253686   -7.4229588    797.79198  0.021159346  0.020817315            5 
 3143000    0.7661513   -7.4049992    797.91098  0.021155769  0.020810959           13 
 3144000   0.76525025   -7.3849506    798.26986  0.021158552  0.020804594            5 
 3145000   0.76536997   -7.4142261    798.67533  0.021162568  0.020798229            8 
 3146000   0.76597905   -7.3660662    797.36038   0.02112101  0.020791891           13 
 3147000   0.75155669   -7.3782504    800.78641  0.021205021  0.020785572           13 
 3148000   0.74977328   -7.3902152    801.19836   0.02120919  0.020779262            7 
 3149000   0.75924536   -7.3812219    800.73516  0.021190197   0.02077297            6 
 3150000   0.75627149    -7.424619    800.21112  0.021169606  0.020766665            3 
 3151000   0.74089596   -7.4086354     798.5461  0.021118854  0.020760336           15 
 3152000   0.73852496   -7.4249344    798.90437  0.021121626  0.020754004            8 
 3153000    0.7421776   -7.3931462    799.23205  0.021123587  0.020747683            4 
 3154000   0.73651431   -7.4105089    799.68986  0.021128986  0.020741354            4 
 3155000   0.73091017   -7.4340758    799.09101  0.021106472  0.020734993           10 
 3156000    0.7427938   -7.3920156    799.20426  0.021102774  0.020728664           12 
 3157000   0.73639973   -7.4049007    799.54842  0.021105174   0.02072234            4 
 3158000   0.74727958   -7.3987306    800.21028  0.021115956  0.020716059            9 
 3159000   0.75245006   -7.3909205    799.84674  0.021099682   0.02070976           11 
 3160000   0.74348242   -7.4109204    802.20591  0.021155219  0.020703475            8 
 3161000   0.72920753   -7.3818261    801.25046  0.021123338  0.020697184            7 
 3162000   0.73512934   -7.3903934    801.16752  0.021114472  0.020690892            4 
 3163000   0.76513794   -7.4170367    799.30775  0.021058798  0.020684591           15 
 3164000   0.74926832   -7.4335979    800.84187  0.021092548  0.020678279           12 
 3165000   0.75105558   -7.3988066    801.08982  0.021092412  0.020671972            9 
 3166000   0.74564277   -7.4064073    799.48041  0.021043388  0.020665662            5 
 3167000   0.74665463   -7.3829749    801.25584  0.021083461  0.020659364            6 
 3168000   0.74531943   -7.3992852    800.75024  0.021063506  0.020653081            6 
 3169000    0.7395503   -7.3734947    801.21642  0.021069118  0.020646829            5 
 3170000   0.75491004   -7.3905655    801.35091  0.021066007  0.020640563            4 
 3171000   0.73958698   -7.3872426     800.3057  0.021031896  0.020634282            5 
 3172000     0.737707   -7.4269312    799.58761    0.0210064  0.020627996            6 
 3173000    0.7340871   -7.4035974    800.96074  0.021035843  0.020621695            7 
 3174000   0.73714504   -7.4056997    801.93741  0.021054857  0.020615427            9 
 3175000   0.74494868   -7.4368652    801.13632    0.0210272  0.020609153            5 
 3176000   0.74038705   -7.4197669    800.26587   0.02099774  0.020602849            5 
 3177000    0.7565363   -7.4004033     800.4858    0.0209969  0.020596589            5 
 3178000   0.75538528   -7.4222197    800.11299  0.020980517  0.020590338            3 
 3179000   0.74238208   -7.3963233    799.69474  0.020962953  0.020584066            7 
 3180000   0.73393538   -7.4010011    802.41048  0.021027528  0.020577788            5 
 3181000   0.73015927   -7.4294724    800.77929  0.020978185  0.020571535           11 
 3182000   0.72891936   -7.3966142    801.28149  0.020984745  0.020565246           21 
 3183000   0.73768289   -7.4134745    798.86269  0.020914826  0.020558954            5 
 3184000    0.7496524   -7.4215709    801.53869  0.020978295   0.02055266            5 
 3185000   0.75501593   -7.4168895     801.2116   0.02096315  0.020546375            6 
 3186000   0.75335502   -7.4278379    801.79577   0.02097185  0.020540093            6 
 3187000   0.74528049   -7.4278877    798.91902  0.020890049  0.020533802            6 
 3188000   0.72292686   -7.4010779    800.66092  0.020929029  0.020527532            6 
 3189000   0.75760812   -7.4132251    800.96775  0.020930484  0.020521248            7 
 3190000   0.75859155   -7.4115742    802.73189  0.020970008  0.020515008            7 
 3191000   0.74927783   -7.4305928    801.88326  0.020941274  0.020508768           25 
 3192000   0.74832875   -7.4285032    802.93794  0.020962248  0.020502514            6 
 3193000   0.73305429   -7.4338603    801.82048  0.020926518   0.02049626            6 
 3194000   0.73884162   -7.4338938    800.20434  0.020877801   0.02048999            7 
 3195000   0.72763849    -7.390704    801.40708  0.020902636  0.020483717           14 
 3196000   0.73233394   -7.4065281    801.89563  0.020908835  0.020477469            4 
 3197000   0.73877456   -7.4220622    801.21742  0.020884616  0.020471225            5 
 3198000    0.7590323    -7.400141    802.73782  0.020917704  0.020465005            8 
 3199000   0.75193668   -7.4339689    802.02679  0.020892643  0.020458762           10 
 3200000    0.7273676   -7.4295731    801.95672   0.02088429  0.020452533            7 
 3201000   0.73347954   -7.4026253    802.38111  0.020888814   0.02044632            4 
 3202000   0.74219448   -7.4201525    802.62735  0.020888698  0.020440123           13 
 3203000   0.75210259   -7.4202663    801.81916   0.02086115  0.020433917            7 
 3204000   0.73342331   -7.4225881    801.67458  0.020850878  0.020427694            7 
 3205000   0.73772009   -7.4196667    802.31884  0.020861124  0.020421476            8 
 3206000   0.74790068   -7.4444154    802.13751  0.020849904  0.020415255           13 
 3207000   0.72514394   -7.4248515    803.07055  0.020867648  0.020409027            4 
 3208000   0.73388456    -7.420142    802.85556  0.020855558  0.020402762            6 
 3209000   0.74591353   -7.4205487    801.40184  0.020811308  0.020396533            4 
 3210000   0.73231903   -7.4218247    801.08157   0.02079651  0.020390293            6 
 3211000   0.72666854   -7.4273943    801.66141  0.020805082  0.020384071            6 
 3212000    0.7352207   -7.4515486    801.43318  0.020792683  0.020377836           12 
 3213000   0.72588248   -7.4453833    801.21181   0.02078047  0.020371595            5 
 3214000    0.7272485   -7.4362968    799.81933    0.0207379  0.020365344            5 
 3215000   0.72959668   -7.4053797    801.94583  0.020786569  0.020359111            4 
 3216000   0.72042163   -7.4278468    802.90037   0.02080484  0.020352899            5 
 3217000   0.73427468   -7.4194557    802.49312  0.020787823  0.020346713           13 
 3218000    0.7354151    -7.414001    802.39735  0.020778883    0.0203405           17 
 3219000   0.73681738   -7.4256845    804.29869   0.02082165  0.020334297            5 
 3220000   0.73855813   -7.4560825    801.42704  0.020740865  0.020328106            7 
 3221000   0.73046644   -7.4544665    802.69202  0.020767154  0.020321891            5 
 3222000   0.74285243   -7.4316407    801.93652  0.020741168  0.020315673            8 
 3223000   0.73234234   -7.4694858    801.17367  0.020715009  0.020309438           12 
 3224000   0.73892353   -7.4230077    802.77885  0.020750074  0.020303211            7 
 3225000   0.74817624   -7.4433426    801.49827   0.02071055   0.02029703            6 
 3226000   0.74393608   -7.4362972    803.84071  0.020764639  0.020290869            5 
 3227000   0.73277933   -7.4412378     805.1975  0.020793242  0.020284736            5 
 3228000   0.73856615   -7.4086497    804.77263  0.020775832  0.020278602            6 
 3229000   0.73937562   -7.4313205    803.21807  0.020729278   0.02027247            9 
 3230000   0.74527329   -7.4563387    803.91668  0.020740884  0.020266311           20 
 3231000   0.73883455    -7.461717    804.02239  0.020737192  0.020260166            9 
 3232000   0.73310633   -7.4723088    803.96672   0.02072934   0.02025401            7 
 3233000   0.73148255   -7.4235065    805.04255  0.020750659  0.020247868            4 
 3234000     0.732742   -7.4297491    804.92506  0.020741215  0.020241728           12 
 3235000   0.74654065   -7.4231752    805.26229   0.02074349  0.020235621            6 
 3236000   0.72542972   -7.4390698    805.07796  0.020732333   0.02022952            6 
 3237000   0.72549083   -7.4636054    803.36424   0.02068181  0.020223391            7 
 3238000   0.74572309     -7.43828    804.51924  0.020705148  0.020217267            9 
 3239000   0.73813964   -7.4460707    804.04642  0.020686591  0.020211124           12 
 3240000   0.73356924   -7.4339929     804.8279  0.020700306   0.02020499            6 
 3241000   0.74876499    -7.460459    803.37291  0.020656508  0.020198878            5 
 3242000   0.73112821   -7.4470586    803.94238  0.020664774  0.020192749           12 
 3243000   0.73176617   -7.4306384    804.84832  0.020681681   0.02018662            6 
 3244000   0.73541565   -7.4673617    803.92501  0.020651588  0.020180509            5 
 3245000   0.73929367   -7.4350322    805.42849  0.020683834  0.020174394            8 
 3246000   0.73137513   -7.4158516    805.34608  0.020675346  0.020168283            3 
 3247000   0.73122793   -7.4453519    804.94054   0.02065857  0.020162164            8 
 3248000   0.73787156   -7.4696146    804.35866  0.020637281  0.020156088            8 
 3249000   0.74537702   -7.4432199    804.52538  0.020635205  0.020149995            5 
 3250000   0.73883629   -7.4229956    806.12753  0.020669937  0.020143914            9 
 3251000   0.71843463   -7.4290505    807.45169  0.020697521  0.020137853            9 
 3252000   0.73925925   -7.4076107    808.30644   0.02071306  0.020131819            8 
 3253000   0.73362152   -7.4335177    804.16763  0.020600667  0.020125745           12 
 3254000   0.74749696   -7.4486201    806.65588  0.020658059  0.020119678           11 
 3255000   0.72173349   -7.4270515    804.88071  0.020606265  0.020113599            9 
 3256000   0.73528163   -7.4195315    804.46942   0.02058941  0.020107504            8 
 3257000   0.73498192   -7.4211948    804.28347  0.020578331  0.020101408           11 
 3258000   0.72384836   -7.4476975    803.43797  0.020550388  0.020095311            6 
 3259000   0.71305425   -7.4234405     804.2556  0.020564989  0.020089218            6 
 3260000   0.72556174   -7.4539808    804.75664  0.020571489  0.020083119            9 
 3261000   0.72594479   -7.4448643    805.27331  0.020578384  0.020076998            5 
 3262000   0.73126354   -7.4850481    803.52566  0.020527429  0.020070868           11 
 3263000   0.71992042   -7.4619374    805.90456  0.020581892  0.020064747            3 
 3264000   0.73033486   -7.4288013    804.79733  0.020547317  0.020058644            5 
 3265000   0.74895801   -7.4464885    804.68738  0.020538218  0.020052548            6 
 3266000   0.73379414    -7.418423    804.58221  0.020529246  0.020046436            7 
 3267000   0.73653739   -7.4252905    805.03591  0.020534535  0.020040326            7 
 3268000   0.72707261   -7.4482229    804.53921  0.020515586  0.020034233            8 
 3269000   0.75478513   -7.4468331    805.21861  0.020526629  0.020028128           12 
 3270000   0.72383857   -7.4563625    805.85206  0.020536495  0.020022047            9 
 3271000   0.72781123   -7.4187251    806.20908  0.020539312  0.020015959            7 
 3272000    0.7336492   -7.4250834    804.86595  0.020498827  0.020009894            6 
 3273000   0.74388252   -7.4498423    804.91345  0.020493773  0.020003796            8 
 3274000   0.71683293   -7.4246996    805.83934  0.020511081  0.019997713           13 
 3275000   0.71995786   -7.4676343    802.92052  0.020430548   0.01999162            5 
 3276000   0.72268178   -7.4836779    803.88227  0.020448776  0.019985516           13 
 3277000   0.73322107   -7.4534093    805.96953  0.020495614  0.019979412            5 
 3278000   0.74009577    -7.464899    805.41986  0.020475388  0.019973315           10 
 3279000   0.72782978   -7.4201236    806.48518  0.020496218  0.019967275            3 
 3280000   0.72728698   -7.4438999    807.88735  0.020525593  0.019961228            5 
 3281000   0.72574876   -7.4226529    807.00267  0.020496868  0.019955162            8 
 3282000   0.73087628     -7.42254    805.25935  0.020446358  0.019949094            5 
 3283000   0.72768609   -7.4510813    805.86615  0.020455532  0.019943037            7 
 3284000   0.72492688   -7.4532571    807.45904  0.020489724  0.019936984            3 
 3285000   0.72283371   -7.4497565    805.13673  0.020424574  0.019930949            4 
 3286000   0.72934684   -7.4466973     806.1864  0.020444979  0.019924887            7 
 3287000   0.73500902   -7.4721437    806.98021  0.020458884   0.01991883            7 
 3288000   0.72031574   -7.4758771    805.32686  0.020410758  0.019912756           10 
 3289000   0.73402313   -7.4423459    804.07825  0.020372916  0.019906674            6 
 3290000   0.71716906   -7.4573256     804.7998     0.020385  0.019900578           13 
 3291000   0.71880462   -7.4682526    806.45519  0.020420723  0.019894489           17 
 3292000   0.71879547   -7.4949342    805.11429  0.020380576    0.0198884           13 
 3293000   0.71773765   -7.4695888      805.864   0.02039336  0.019882329            8 
 3294000   0.73875908   -7.4746856    805.50134  0.020377994  0.019876255            6 
 3295000   0.72457652   -7.4566018    805.00472  0.020359249  0.019870205           11 
 3296000   0.72866566   -7.4665006    805.27448  0.020359893  0.019864143            9 
 3297000   0.72762861   -7.4900507    804.07377  0.020323369  0.019858066            9 
 3298000   0.72622088    -7.459284    807.84662  0.020412538   0.01985199            8 
 3299000   0.71051071   -7.4491342    805.66816  0.020351323  0.019845962            8 
 3300000   0.72704319   -7.4553775    805.34226  0.020336926  0.019839912            6 
 3301000   0.73388147   -7.4639276    804.58737  0.020311708  0.019833849           12 
 3302000   0.71459283   -7.4452434    806.05196  0.020342519  0.019827798            7 
 3303000   0.71763305   -7.4400048    805.25019  0.020316132  0.019821763            5 
 3304000   0.71753203   -7.4421327    806.63686  0.020344957  0.019815732            5 
 3305000   0.72980576   -7.4507419    803.68881  0.020264468  0.019809699            4 
 3306000   0.74631307   -7.4708206    805.84409  0.020312666  0.019803657            5 
 3307000    0.7307616   -7.4533435    805.87938  0.020307413  0.019797617           13 
 3308000   0.72379878   -7.4383057    805.79514  0.020299152  0.019791606            9 
 3309000   0.72538082   -7.4539626     806.2131  0.020303543  0.019785582            5 
 3310000   0.73153325   -7.4616494     808.2548  0.020348812  0.019779564            5 
 3311000   0.72461696   -7.4622199    807.77191  0.020330512  0.019773544            4 
 3312000   0.72204074   -7.4718174    805.64255  0.020270797  0.019767493            4 
 3313000    0.7228932   -7.4700734    807.20532  0.020303987   0.01976147            5 
 3314000   0.73073128   -7.4699758    807.35684  0.020301671  0.019755465           16 
 3315000    0.7370115   -7.4218814    806.32196  0.020269531  0.019749464            3 
 3316000   0.69996743   -7.4537594    808.29361  0.020312968   0.01974347            4 
 3317000   0.73775246   -7.4442428    807.83626  0.020295354  0.019737489            9 
 3318000   0.70797756   -7.4396033    808.54153   0.02030695  0.019731503            7 
 3319000   0.74017823   -7.4279639    808.71491  0.020305185  0.019725516            4 
 3320000    0.7176814   -7.4414957    807.28258  0.020263117  0.019719515            8 
 3321000   0.71463382   -7.4514055    807.79343  0.020269834  0.019713537            5 
 3322000   0.72130798   -7.4553048    808.19091  0.020273703  0.019707527           13 
 3323000   0.72461107   -7.4633238    805.77448  0.020207004  0.019701534            9 
 3324000   0.70841893   -7.4589275    807.89183  0.020254007  0.019695541            6 
 3325000   0.70509969    -7.455498    806.45775  0.020211974  0.019689533            7 
 3326000   0.72058441   -7.4663072     806.4176  0.020204891  0.019683523            8 
 3327000   0.72016294   -7.4516236    807.75422  0.020232297  0.019677527           19 
 3328000   0.70883604   -7.4647281    806.08607  0.020184447  0.019671549           16 
 3329000   0.72880213   -7.4511338    807.43693  0.020212199  0.019665548            5 
 3330000   0.72957293   -7.4865899    807.40902  0.020205431  0.019659539            6 
 3331000   0.72786687   -7.4903217    807.99511  0.020214028  0.019653558           10 
 3332000   0.72099225   -7.4819783    808.09935  0.020210568   0.01964757            8 
 3333000   0.71876639   -7.4807164     807.7622  0.020196075  0.019641596            4 
 3334000   0.71296153   -7.4751229    807.97707  0.020195388  0.019635597            9 
 3335000   0.71119861   -7.4655198    809.39295  0.020224711  0.019629609            7 
 3336000   0.71365382   -7.4350868    808.30101  0.020191372  0.019623645            6 
 3337000   0.71810008   -7.4545135    807.33884  0.020161294  0.019617706            5 
 3338000   0.72141413   -7.4758221    806.73204  0.020140105  0.019611762            5 
 3339000   0.73348164   -7.4560059    808.84467  0.020186799  0.019605818           14 
 3340000   0.71925695   -7.4963354    806.98225  0.020134288  0.019599878            9 
 3341000   0.72270256   -7.4527763    808.69234  0.020170915  0.019593943            6 
 3342000   0.70999366   -7.4488198    808.06199  0.020149162  0.019588027           16 
 3343000   0.71664477   -7.4675728    807.17317  0.020120978  0.019582109           12 
 3344000   0.73938475   -7.4972942    808.05008  0.020136814  0.019576161            6 
 3345000   0.71456851   -7.4640787    807.87891   0.02012653  0.019570227            9 
 3346000   0.71738096   -7.4600428     807.1927  0.020103424   0.01956432            4 
 3347000    0.7088657   -7.4584942    809.42501  0.020152998  0.019558405            9 
 3348000   0.70341766   -7.4980598    807.56286  0.020100629  0.019552492           20 
 3349000   0.71778295   -7.4613256    808.24758  0.020111665  0.019546573            5 
 3350000   0.71517433   -7.4784155    808.78111  0.020118933   0.01954066           13 
 3351000   0.72584347   -7.4565452    809.41293  0.020128641  0.019534734            8 
 3352000   0.71888489   -7.4671958    807.05356  0.020063981  0.019528801            5 
 3353000   0.70297772   -7.4871369    808.72874  0.020099631  0.019522877            4 
 3354000   0.72839851   -7.4935849    808.12651  0.020078675  0.019516955           10 
 3355000   0.70584703   -7.4867999    806.18187  0.020024388  0.019511022            4 
 3356000   0.72088483   -7.4678937    809.54266  0.020101874  0.019505115           11 
 3357000   0.69986672   -7.4787719    809.38514  0.020091975  0.019499224           10 
 3358000   0.71167704   -7.4987463    807.94494  0.020050252  0.019493308           10 
 3359000   0.70573028   -7.4828055    808.23093  0.020051378  0.019487392            7 
 3360000   0.70500351    -7.487867    808.08726  0.020041847  0.019481491            9 
 3361000   0.69974346   -7.4769413     809.0747  0.020060366  0.019475606            9 
 3362000   0.70842043   -7.4931213    809.28222  0.020059543  0.019469703            5 
 3363000   0.71150466   -7.4962207    810.56658  0.020085404  0.019463817            5 
 3364000   0.70845219    -7.472311    809.74257  0.020059021  0.019457937            5 
 3365000   0.71618468   -7.4839537    809.51398  0.020047399  0.019452045            7 
 3366000   0.71322079   -7.4777458    807.65433  0.019995403  0.019446161            6 
 3367000   0.70766966   -7.4848546    810.13049   0.02005075  0.019440276            5 
 3368000    0.6999762    -7.464515    808.90618  0.020014504  0.019434379            5 
 3369000   0.71607725    -7.499329    810.56085  0.020049492  0.019428512            8 
 3370000   0.72075747   -7.4855313    810.75658  0.020048382  0.019422643            9 
 3371000   0.70180159   -7.4763015    809.17305  0.020003289   0.01941678            6 
 3372000   0.69964224   -7.4785169    808.51052  0.019980984  0.019410906            6 
 3373000   0.71507269    -7.484975    809.96752  0.020011056  0.019405046            7 
 3374000   0.71315629   -7.4751547    809.62139  0.019996576  0.019399158            7 
 3375000   0.71170934   -7.4815784    811.06196  0.020026221  0.019393288            6 
 3376000   0.71355605   -7.5001033     810.7293  0.020012078  0.019387425           11 
 3377000   0.71047143   -7.4845836    810.15911  0.019992082  0.019381559            6 
 3378000    0.7268634   -7.4958494    810.12791  0.019985393  0.019375697            5 
 3379000   0.69844599   -7.4790521     810.8045  0.019996165  0.019369863            9 
 3380000   0.71089867   -7.4883919    809.94335  0.019969017  0.019363993            5 
 3381000   0.71885015   -7.4636943    810.64762   0.01998047  0.019358156            5 
 3382000   0.69706696   -7.5011756    809.83205  0.019954466  0.019352318            6 
 3383000   0.70696015   -7.4796198    810.77911  0.019971897  0.019346465           20 
 3384000   0.71281371   -7.4575006    811.19841   0.01997632  0.019340615           11 
 3385000   0.70750197   -7.5029349    809.53633  0.019929501  0.019334763            7 
 3386000   0.70783975   -7.4926383    810.25627  0.019941334   0.01932892           14 
 3387000   0.70997834   -7.4835594    811.67807  0.019970428  0.019323066            6 
 3388000    0.7191003   -7.4716491    811.13092  0.019951075  0.019317223            5 
 3389000     0.712097   -7.4899387    810.66824  0.019933811  0.019311386            6 
 3390000    0.7037099    -7.513191    809.45074  0.019898002  0.019305524           11 
 3391000   0.70107629   -7.4557788     810.2719  0.019912314  0.019299679            5 
 3392000   0.70821172   -7.5063998     809.7281  0.019893084  0.019293838            6 
 3393000   0.70345327   -7.4868645    809.51458  0.019881977  0.019287972            8 
 3394000   0.72887433   -7.4712372    809.87631  0.019885001  0.019282142            3 
 3395000   0.71407801   -7.4781636      811.766  0.019925528  0.019276303            3 
 3396000   0.70268755   -7.4908065     809.5577  0.019865472  0.019270456            7 
 3397000   0.71493208   -7.4951982    809.35092  0.019854551  0.019264614            7 
 3398000    0.7137822   -7.5168357    809.98081  0.019864156  0.019258762            4 
 3399000   0.70845258   -7.4935046    811.41631  0.019893506  0.019252945           10 
 3400000   0.69986131   -7.4914109    813.44403  0.019937354   0.01924712            7 
 3401000    0.6994016   -7.4881011    810.75903  0.019865702  0.019241304           13 
 3402000   0.70770915   -7.4868884    810.06245    0.0198428  0.019235487            9 
 3403000   0.71093036   -7.4747642    810.40258  0.019845298  0.019229665           13 
 3404000   0.70759794   -7.4665274    811.24162  0.019860008   0.01922388           11 
 3405000   0.70269713   -7.4932112    810.94858  0.019847004  0.019218075            8 
 3406000   0.72817333   -7.4700958    810.23181   0.01982364  0.019212266            6 
 3407000   0.69624851   -7.4689519    811.71422   0.01985408  0.019206464            7 
 3408000   0.71672868    -7.509987    810.50386  0.019818659  0.019200652           10 
 3409000   0.70484069   -7.4924539    810.99541  0.019824861  0.019194847            8 
 3410000   0.69796505   -7.4933273     809.5234  0.019783074  0.019189044           15 
 3411000   0.71000412   -7.4993371     811.1652  0.019817385  0.019183239            9 
 3412000   0.70913474   -7.5127158    810.03611     0.019784  0.019177435           11 
 3413000   0.71234877   -7.4928071    811.90655  0.019823873  0.019171627           18 
 3414000   0.70104012   -7.4984416    811.24058  0.019801811  0.019165829            7 
 3415000   0.70804299   -7.5110799    810.38223  0.019775067  0.019160007           10 
 3416000     0.708405    -7.514903    810.75544  0.019778382  0.019154197           13 
 3417000   0.70617407   -7.5169625    810.35853  0.019762914  0.019148366            5 
 3418000   0.70439796    -7.500752    810.54821  0.019761757  0.019142544            5 
 3419000   0.70714914   -7.4978309     810.3905  0.019752133  0.019136758            6 
 3420000   0.70276788   -7.4882358    812.18507  0.019790085  0.019130959            7 
 3421000   0.70828089   -7.4961195    812.22697   0.01978532  0.019125157            4 
 3422000   0.69701326   -7.4837008    813.03553  0.019799229  0.019119368            4 
 3423000    0.7103407   -7.4936583    813.40439  0.019802425  0.019113584            7 
 3424000   0.70202528   -7.5160958    811.01525  0.019738494  0.019107797            6 
 3425000    0.7070953   -7.5109457    811.62544  0.019747578  0.019102014            6 
 3426000   0.72049657   -7.5060742    811.18412  0.019731079  0.019096244            6 
 3427000   0.69894362   -7.5186693    811.75757  0.019739266  0.019090464            4 
 3428000   0.70624043   -7.5113075     811.4655  0.019726408  0.019084681            5 
 3429000   0.69905477   -7.5119404    811.06282  0.019710869  0.019078894           11 
 3430000   0.70379702   -7.5258275    810.32469  0.019687189  0.019073086            8 
 3431000   0.72361815    -7.513519    810.32266  0.019681401  0.019067308            4 
 3432000   0.71383158   -7.5190528    811.20281  0.019697038  0.019061532            9 
 3433000   0.71026038   -7.5075953    811.15515  0.019690143   0.01905577            9 
 3434000   0.69792214   -7.5083825    811.72854  0.019698324  0.019049989           10 
 3435000   0.70734761   -7.5331895    811.18075    0.0196793  0.019044238            8 
 3436000   0.69865337   -7.5229242    811.50007  0.019681317  0.019038471            8 
 3437000    0.6813917   -7.5034588    812.36121   0.01969647  0.019032707            5 
 3438000   0.70465668   -7.5017153    812.54197  0.019695122  0.019026952            4 
 3439000   0.70298931   -7.4853937    812.23082  0.019681856  0.019021193            9 
 3440000   0.69122028   -7.5066542    811.95008  0.019669333  0.019015427            4 
 3441000   0.69155203   -7.5322043    810.60113  0.019630949  0.019009665            8 
 3442000   0.70984583   -7.5050962    810.97223   0.01963423  0.019003882            6 
 3443000   0.70475353   -7.4995996    811.61887  0.019644178  0.018998091            8 
 3444000   0.69730614   -7.4848361    812.74379  0.019665694  0.018992324            4 
 3445000   0.71128247   -7.5328613    811.05282  0.019619081  0.018986575            6 
 3446000   0.71193384   -7.5094172     810.8259    0.0196079  0.018980825           16 
 3447000   0.70088158   -7.5130121    812.71043  0.019647772  0.018975076            6 
 3448000   0.70095406   -7.4972518     810.8798   0.01959783  0.018969334            9 
 3449000   0.69336859   -7.5091548    812.35028  0.019627677  0.018963599            6 
 3450000    0.7031456   -7.5176003    813.93318  0.019660222  0.018957874           11 
 3451000   0.70308316   -7.5319407    812.38282  0.019617087  0.018952137            7 
 3452000   0.70070546   -7.5182696    811.48759  0.019589793  0.018946419           11 
 3453000   0.69580183   -7.5142375    812.67635  0.019612809   0.01894071            8 
 3454000     0.708989   -7.5261169    813.59726  0.019629349  0.018934979           13 
 3455000   0.69950688   -7.5329565    812.44357  0.019595841  0.018929253            9 
 3456000   0.70514052   -7.5066208    813.59064   0.01961783  0.018923537           12 
 3457000   0.69910029   -7.5267036    812.35675  0.019582411  0.018917812            5 
 3458000   0.70907416   -7.5392187    811.91063  0.019565997   0.01891207           18 
 3459000   0.69652246   -7.5306168    812.23992  0.019568274   0.01890633            9 
 3460000   0.69819723   -7.5456314     811.5205  0.019545291  0.018900577           12 
 3461000   0.70483077    -7.519468      813.268   0.01958172  0.018894813            7 
 3462000   0.70287498   -7.5428688    813.60258  0.019584118  0.018889066           12 
 3463000   0.70251895   -7.5431403    812.81863  0.019559597   0.01888331           12 
 3464000   0.68405244   -7.5376893    811.29118  0.019517205  0.018877555            3 
 3465000   0.69300997   -7.5680607     811.0671  0.019506183  0.018871816            8 
 3466000   0.70854969   -7.4881701    813.90848  0.019568871  0.018866071           30 
 3467000   0.69914481    -7.530899    810.58148  0.019483258  0.018860338           11 
 3468000   0.69755461   -7.5253937    810.51729  0.019476098  0.018854574           13 
 3469000   0.69818345   -7.5339812    812.11511  0.019508867  0.018848822            5 
 3470000   0.71485895   -7.5032281    811.63974  0.019491829  0.018843066           12 
 3471000   0.71243752   -7.5050412    812.98848  0.019518594  0.018837325            8 
 3472000   0.69188199   -7.5108119    813.08736  0.019515346  0.018831602            8 
 3473000     0.710828   -7.5109628     811.4461  0.019470345  0.018825859           13 
 3474000   0.69123172   -7.5338888    811.72021  0.019471316  0.018820117           12 
 3475000   0.69273012    -7.528613    812.23691  0.019478103  0.018814385            5 
 3476000   0.68994238   -7.4953777    813.28818  0.019497703  0.018808665           12 
 3477000   0.69176749   -7.5172886    812.52759  0.019473866  0.018802942           12 
 3478000   0.69804062   -7.5372706    812.11754  0.019458442  0.018797217           10 
 3479000   0.69503318   -7.5372694    812.12849  0.019453111  0.018791488            6 
 3480000   0.69437961   -7.5082773     812.4007   0.01945404  0.018785784           21 
 3481000   0.69508278   -7.4941939    813.66588  0.019478739  0.018780079           22 
 3482000   0.68284659   -7.5269543     812.7027  0.019450093  0.018774364            6 
 3483000    0.6957589   -7.5065584     812.0557  0.019429029  0.018768655            9 
 3484000   0.70947941   -7.5199635    815.15748  0.019497644  0.018762961            5 
 3485000   0.68797942   -7.5323584    813.00987  0.019440695  0.018757262           11 
 3486000   0.69861053   -7.5150157    812.62167  0.019425838  0.018751538            5 
 3487000   0.69959479   -7.5341572    812.84849  0.019425688  0.018745824           10 
 3488000   0.70186182   -7.5132854    812.50437  0.019411897  0.018740136            7 
 3489000   0.69874574   -7.5096903    813.73755  0.019435787  0.018734425           14 
 3490000   0.69176749   -7.4904233     812.3253  0.019396497  0.018728713            6 
 3491000   0.70827444   -7.5190619    811.88982  0.019380546  0.018723014            9 
 3492000   0.69090681   -7.5086592    813.89397  0.019422823  0.018717308            9 
 3493000    0.7036136   -7.5186911    812.39315  0.019381457  0.018711621           10 
 3494000   0.67748456    -7.522575    812.57594   0.01938027  0.018705936           17 
 3495000   0.68099503    -7.524902    810.73788  0.019330898  0.018700221            9 
 3496000    0.6988558   -7.5203419    811.52058  0.019344026   0.01869451           10 
 3497000    0.6907758   -7.5433701    810.43345  0.019312588   0.01868879           12 
 3498000   0.68251929   -7.5460035    813.69148  0.019384684  0.018683071           21 
 3499000   0.68726306   -7.5383738    812.68645  0.019355207  0.018677353           18 
 3500000    0.6830847   -7.5506972      812.937  0.019355643  0.018671643           16 
 3501000   0.67064606   -7.5578198    812.66406  0.019343618  0.018665926           12 
 3502000   0.68659488   -7.5331193     812.8064  0.019341481  0.018660225           10 
 3503000   0.68898265   -7.5270596    811.23701  0.019298625   0.01865451            6 
 3504000   0.68113755   -7.5343679     813.0768  0.019336872  0.018648814           10 
 3505000   0.71076156   -7.5412657    813.27121  0.019335977  0.018643107            5 
 3506000   0.69505004   -7.5163928     813.0442  0.019325067   0.01863741           20 
 3507000    0.6895452   -7.5391238    811.59819  0.019285196  0.018631717            8 
 3508000    0.6922518   -7.5090605    811.99037  0.019289015   0.01862604           11 
 3509000   0.66884695   -7.5136171    812.96884  0.019306755  0.018620355           14 
 3510000   0.67876191   -7.5085599     812.8454  0.019298324  0.018614673           12 
 3511000   0.68508256   -7.5132437    812.97481  0.019295899  0.018608997            6 
 3512000   0.69050368   -7.5000083    812.99327  0.019290843  0.018603334            3 
 3513000   0.68454442   -7.5264743    813.44021  0.019295953  0.018597667            5 
 3514000   0.67288703   -7.5512518     812.9192  0.019278107  0.018591982            6 
 3515000    0.6886096   -7.5419475    811.60032  0.019241354   0.01858632            8 
 3516000   0.70140173   -7.5240707    813.17678  0.019273246  0.018580657            7 
 3517000     0.693176   -7.5285864    812.45015  0.019250549  0.018574979            6 
 3518000   0.69396741   -7.5482443    814.31702  0.019289298  0.018569303            5 
 3519000   0.68567537    -7.525976    813.65204   0.01926807  0.018563635            5 
 3520000   0.68199035    -7.496337    814.72918  0.019288096  0.018557989            4 
 3521000   0.70726816   -7.5231342     813.7589  0.019259654  0.018552324            9 
 3522000   0.68300506    -7.542006    811.61372  0.019203429  0.018546648           11 
 3523000   0.68107535   -7.5366637    813.39266  0.019240057  0.018540988            7 
 3524000   0.68432617   -7.5352949    812.98517  0.019224961  0.018535327            9 
 3525000   0.68503319   -7.5100944    813.85352  0.019240036  0.018529665            3 
 3526000   0.70056197   -7.5257292    813.23975  0.019220074  0.018524003           13 
 3527000   0.68456049   -7.5494989    813.50456  0.019220881  0.018518334            7 
 3528000   0.70863201   -7.5239542    812.13959  0.019183191  0.018512675            7 
 3529000   0.69336275    -7.526101    812.50116  0.019186294  0.018507004            6 
 3530000   0.68335734   -7.5227271    813.61531   0.01920716  0.018501352           12 
 3531000   0.67794352    -7.511576    814.21045  0.019215766  0.018495685           11 
 3532000   0.69163784   -7.5450213    813.20283  0.019186552  0.018490026            4 
 3533000    0.6902767   -7.5713573    813.03401   0.01917714  0.018484356            5 
 3534000   0.67651507   -7.5294537    814.75177  0.019212219  0.018478684            8 
 3535000   0.69294945   -7.5033901    814.81545  0.019208285  0.018473027            5 
 3536000   0.68042161    -7.535661    812.44453  0.019146977  0.018467374            8 
 3537000   0.68423614   -7.5408769    812.05012  0.019132271  0.018461713           12 
 3538000   0.67885415   -7.5468795     811.6252  0.019116855  0.018456032           12 
 3539000   0.67303131    -7.543875     811.8719  0.019117262  0.018450345            7 
 3540000   0.68875218   -7.5655952    811.18817  0.019095767  0.018444652           12 
 3541000   0.68811474   -7.5553279    811.82729  0.019105415  0.018438953           11 
 3542000   0.68963957    -7.584392    812.21794  0.019109212  0.018433251            7 
 3543000   0.68628149   -7.5594653    811.81899  0.019094435  0.018427558           22 
 3544000   0.68625943   -7.5524612    811.39187  0.019079004  0.018421853           14 
 3545000   0.68628775   -7.5649696    811.64369  0.019079541  0.018416166            8 
 3546000   0.70369872   -7.5435368    811.43418  0.019069237  0.018410481           14 
 3547000   0.68535109   -7.5446655    812.59736  0.019091189   0.01840479           22 
 3548000   0.67937285    -7.558806    814.15476  0.019122387  0.018399114            9 
 3549000   0.68181112   -7.5432424    812.57824  0.019079981  0.018393428            5 
 3550000   0.67802317    -7.531677    813.63339  0.019099375   0.01838775            8 
 3551000    0.6953865   -7.5403993    814.11992  0.019105414  0.018382075           13 
 3552000   0.67432278    -7.550508    811.90542  0.019048081  0.018376394           10 
 3553000   0.67925764   -7.5622068    812.01543    0.0190453  0.018370717            9 
 3554000   0.69263899   -7.5530024    810.46725   0.01900364  0.018365021            8 
 3555000   0.69068919   -7.5547289    813.23841  0.019063254  0.018359331            9 
 3556000   0.66850427   -7.5275082    812.90955  0.019050186  0.018353651            6 
 3557000   0.69433894   -7.5524141     811.8719  0.019020521  0.018347974            6 
 3558000   0.69737432   -7.5307295    811.88809  0.019015554  0.018342302            9 
 3559000   0.68887692   -7.5493356    811.53151  0.019001862  0.018336638           10 
 3560000   0.68111947   -7.5416098    812.20321  0.019012247  0.018330982           10 
 3561000   0.68074207    -7.548137    810.89346  0.018976258  0.018325315            5 
 3562000   0.67913473   -7.5693264    811.77172  0.018991478  0.018319644            9 
 3563000   0.67735609   -7.5649036    810.84955  0.018964579  0.018313965            8 
 3564000   0.68030296   -7.5502883    812.67495  0.019001939  0.018308285            8 
 3565000   0.68691563   -7.5549468    811.30459  0.018964577  0.018302633            7 
 3566000   0.67068732   -7.5546426    811.71538  0.018968858  0.018296955            7 
 3567000   0.67416728   -7.5430868    812.01215  0.018970473  0.018291295            4 
 3568000   0.68591584   -7.5121466    812.62456   0.01897946  0.018285654            7 
 3569000   0.67059072   -7.5476582    812.32475  0.018967142  0.018280013            5 
 3570000   0.67161482   -7.5360792     811.9829  0.018953849  0.018274364            5 
 3571000   0.67043837   -7.5535291    812.82863  0.018968278  0.018268701            6 
 3572000    0.6931964   -7.5464538     813.2254  0.018972224  0.018263044            6 
 3573000   0.67509775   -7.5381475    811.64256  0.018929997  0.018257388            8 
 3574000   0.67859762   -7.5388305    813.63707  0.018971206   0.01825173            8 
 3575000   0.68403221    -7.543896    812.88091  0.018948273   0.01824607            3 
 3576000   0.67969523    -7.545481    812.65438  0.018937695  0.018240414            4 
 3577000   0.67074068   -7.5236097    812.34157  0.018925113  0.018234776            4 
 3578000   0.68194035   -7.5692351    810.79368  0.018883773  0.018229126            4 
 3579000   0.67109763   -7.5511509    812.43965  0.018916821  0.018223473            7 
 3580000   0.69159998   -7.5795825    812.78477  0.018919571  0.018217811           10 
 3581000   0.68353272   -7.5689472    810.64497  0.018864492  0.018212147           11 
 3582000   0.67629239   -7.5462268    812.54024  0.018903319  0.018206495            7 
 3583000   0.66704048   -7.5649944    813.43529   0.01891886  0.018200854           14 
 3584000   0.67101658   -7.5530662    811.93248  0.018878638  0.018195232            9 
 3585000   0.67661595   -7.5402522    813.29287  0.018904995  0.018189635            9 
 3586000   0.66637775   -7.5473366    813.86689  0.018913062  0.018184019            9 
 3587000   0.67187019   -7.5489577    814.88482  0.018931438  0.018178422            5 
 3588000    0.6749961   -7.5449676    813.33073  0.018890067  0.018172809            6 
 3589000   0.68409558     -7.53496    813.91108  0.018898279  0.018167222            8 
 3590000   0.67548988   -7.5547367    812.05358  0.018849897  0.018161607           16 
 3591000    0.6771733   -7.5644866    812.55625  0.018856313  0.018155985           16 
 3592000   0.67703979   -7.5684173    813.77115  0.018879249  0.018150376           12 
 3593000   0.67932003   -7.5334649    813.06814  0.018857689  0.018144764            4 
 3594000   0.69481865   -7.5656936    813.05092  0.018852043  0.018139155           13 
 3595000   0.66479688   -7.5558328     812.2498  0.018828229  0.018133548            8 
 3596000   0.68376843   -7.5572212    811.92971  0.018815575  0.018127935           14 
 3597000   0.68728264   -7.5713842    813.69852  0.018851323  0.018122324           17 
 3598000   0.68180122   -7.5925556    811.50619  0.018795307  0.018116707           11 
 3599000   0.67992711   -7.5799211    811.94156  0.018800166  0.018111091            5 
 3600000   0.67856568   -7.5738118    813.97624  0.018842043   0.01810547           12 
 3601000    0.6806782   -7.5708094    813.43309  0.018824241  0.018099856            7 
 3602000   0.69016506   -7.5690649    812.05141  0.018787049  0.018094245            9 
 3603000   0.67405446   -7.5597057    811.33259  0.018765209  0.018088645           12 
 3604000   0.67167246   -7.5694953    813.13321  0.018801637  0.018083029           21 
 3605000   0.67474801   -7.5647007    812.50516  0.018781904  0.018077432           14 
 3606000   0.69240761   -7.5847852    812.32039  0.018772425  0.018071851           12 
 3607000   0.65768791   -7.5506276    814.95335  0.018828051  0.018066271           15 
 3608000   0.66289196   -7.5839278    815.39351  0.018832999  0.018060689           19 
 3609000   0.67148589   -7.5671607    814.73082  0.018812478  0.018055108           17 
 3610000   0.67965358   -7.5801337    812.54911  0.018756905  0.018049537           11 
 3611000    0.6645921   -7.5735588     813.4113  0.018771608  0.018043949            7 
 3612000   0.67569111   -7.5911748    813.99904   0.01877997  0.018038367           16 
 3613000   0.67798337   -7.5934202    813.40468  0.018761064  0.018032785           18 
 3614000   0.66572282    -7.597579    812.79078  0.018741717   0.01802719           12 
 3615000   0.67055122   -7.5875198    813.30737  0.018748441  0.018021597           19 
 3616000     0.674427   -7.5867164    813.47762   0.01874718  0.018016015           24 
 3617000   0.67425445   -7.5756318    813.53429  0.018743302  0.018010432           17 
 3618000   0.68067302   -7.5844893     813.2695  0.018732023  0.018004857           12 
 3619000   0.67589105   -7.5716852    813.99027  0.018743444  0.017999287           17 
 3620000   0.67980124   -7.5790131    814.03771  0.018739358   0.01799373           14 
 3621000   0.67063694   -7.5870421    812.81904  0.018706136  0.017988161           15 
 3622000   0.67182815   -7.5888061    813.33979  0.018712953  0.017982585            9 
 3623000   0.66486396   -7.5831308    813.33132  0.018707593  0.017977026           11 
 3624000   0.66272993   -7.6061672    812.60642  0.018685762  0.017971462           11 
 3625000   0.68170271   -7.6025718    813.03664  0.018690498  0.017965909           12 
 3626000   0.65478342   -7.5957957    814.47578  0.018718417  0.017960351           13 
 3627000   0.68010527   -7.5897877    813.76127   0.01869684  0.017954805           18 
 3628000   0.67396267   -7.5979327    814.44561  0.018707406  0.017949255            7 
 3629000    0.6713457   -7.5955611    813.09811  0.018671308  0.017943699           13 
 3630000   0.67539627   -7.5941452    814.27784  0.018693247  0.017938134            7 
 3631000   0.67085367   -7.5803394    812.68172  0.018651467   0.01793258            8 
 3632000   0.67908664   -7.5817675    814.74911  0.018693766  0.017927037            5 
 3633000   0.67170151   -7.5886938    814.23674  0.018676868  0.017921497            7 
 3634000   0.66161089   -7.5827227    814.04085  0.018667237  0.017915962            9 
 3635000    0.6487661   -7.6027193    815.54421  0.018696566  0.017910435            9 
 3636000   0.67294331   -7.5910783    814.98009  0.018678495  0.017904895            5 
 3637000   0.65912953   -7.5951025    813.66242  0.018643168  0.017899345            8 
 3638000   0.65742054   -7.5643988    814.06118  0.018647178  0.017893815           11 
 3639000   0.67348245    -7.555129    813.39299  0.018626752  0.017888275            9 
 3640000   0.66180533   -7.5767103    816.41454  0.018690809  0.017882747           23 
 3641000   0.66069914   -7.5831084    814.23668   0.01863583  0.017877202            9 
 3642000   0.65564531   -7.5942574    814.61651  0.018639404  0.017871672           14 
 3643000   0.66611634   -7.5623749    813.50023  0.018608753  0.017866144           10 
 3644000   0.66850563   -7.5725648    814.17413  0.018619057  0.017860631           10 
 3645000   0.66091925   -7.5930505    814.91764  0.018630947  0.017855107            9 
 3646000   0.66771102   -7.5693403    812.76066  0.018576537  0.017849595           15 
 3647000    0.6792904    -7.581374    815.63473  0.018637116  0.017844081           13 
 3648000   0.65836596   -7.5830709    814.60855  0.018608565  0.017838579           16 
 3649000   0.67899535    -7.588758    813.02964  0.018567408  0.017833072            7 
 3650000   0.66553231    -7.605293    814.34792  0.018592418  0.017827552            8 
 3651000   0.66196265   -7.5685505    813.90873  0.018577302  0.017822038            9 
 3652000   0.68277622   -7.6216948    815.38401  0.018605878  0.017816511           10 
 3653000   0.66955648   -7.5963858    815.42594  0.018601741  0.017810982           12 
 3654000   0.66533043   -7.6000876    814.21905  0.018569126  0.017805483            9 
 3655000   0.66093286   -7.5769567    814.89531  0.018579464  0.017799976           11 
 3656000   0.66620844   -7.5771834    813.88015  0.018551243  0.017794475           10 
 3657000   0.66924237   -7.5765847    815.56969  0.018584671  0.017788992            5 
 3658000   0.66777999   -7.5941197     813.9669  0.018543077  0.017783506            7 
 3659000   0.66898015    -7.567609    816.35557  0.018592411  0.017778032           10 
 3660000   0.65966835   -7.5992473    813.22246  0.018515994  0.017772537           11 
 3661000   0.66604458   -7.5959027    813.36678  0.018514222  0.017767047           15 
 3662000   0.67196643   -7.5698011    815.66178  0.018561391  0.017761566            6 
 3663000   0.66811242   -7.5918509    814.83463  0.018537506  0.017756093            8 
 3664000   0.67305022   -7.5790193    815.25202   0.01854194  0.017750613            7 
 3665000   0.67163509   -7.5906065    816.99446    0.0185765  0.017745119           12 
 3666000   0.65622503   -7.5944965    812.77079  0.018475422  0.017739634           21 
 3667000    0.6685475   -7.6175015       813.69  0.018491274  0.017734153            7 
 3668000   0.65936585   -7.5702429    812.86975  0.018467597  0.017728677            6 
 3669000   0.64836519   -7.5889281    815.51203  0.018522577  0.017723203            9 
 3670000   0.66754727   -7.5861315    815.27896  0.018512238  0.017717738            9 
 3671000   0.66498861   -7.6066972    813.54832  0.018467909  0.017712269           12 
 3672000   0.66174523   -7.5977577    813.25111  0.018456134    0.0177068           13 
 3673000   0.65445064   -7.6080579     816.2502  0.018519153  0.017701321            9 
 3674000   0.65869594   -7.6164069    814.68027  0.018478504  0.017695843           10 
 3675000   0.65783524   -7.5906223    814.10718   0.01846048  0.017690357            8 
 3676000   0.66640904   -7.6077109    815.06196  0.018477103  0.017684894           13 
 3677000   0.65993795   -7.5913479    815.20485  0.018475316  0.017679455            9 
 3678000   0.66706971   -7.5893451    815.17337   0.01846958   0.01767401           10 
 3679000    0.6460243   -7.5950028    815.04204  0.018461585   0.01766856           11 
 3680000   0.65127351   -7.5983978    816.29187   0.01848487  0.017663117           11 
 3681000   0.66987571    -7.620365    815.79852   0.01846868  0.017657669            6 
 3682000   0.66987288   -7.6254439    816.23738  0.018473596  0.017652208            8 
 3683000   0.64534356    -7.590199    817.01201  0.018486108  0.017646759            6 
 3684000   0.65243202   -7.5973741    815.35772  0.018443669  0.017641322            8 
 3685000   0.66121919   -7.6072019    813.31244  0.018392412  0.017635873           14 
 3686000   0.67388301   -7.6134898    813.71533   0.01839653  0.017630418           14 
 3687000   0.65979766   -7.6018738    813.04994  0.018376502  0.017624964            8 
 3688000   0.66592327   -7.6164258    815.35087   0.01842351  0.017619513           15 
 3689000   0.66336541   -7.5762214    815.91441  0.018431246  0.017614074           16 
 3690000   0.64782625   -7.6132737    815.50044  0.018416902  0.017608639           16 
 3691000   0.65900535   -7.6121823    813.67925  0.018370795  0.017603203           17 
 3692000   0.65587092   -7.6325422    814.73897  0.018389738  0.017597768           24 
 3693000   0.66041473    -7.641061    815.16924  0.018394468  0.017592331           25 
 3694000   0.67425542   -7.6093902    815.21671  0.018390559  0.017586893           20 
 3695000   0.66120519   -7.6264343    815.54134  0.018392904   0.01758146           17 
 3696000   0.64901038   -7.6380678    815.21183  0.018380498  0.017576036           18 
 3697000     0.657624   -7.6190972     814.5412  0.018360409  0.017570608           13 
 3698000   0.65793247   -7.6318633    815.29392  0.018372407  0.017565177           18 
 3699000   0.64637988   -7.6211193     814.6852  0.018353726  0.017559747           19 
 3700000   0.68633962   -7.5924067    815.50696  0.018367274  0.017554321           16 
 3701000   0.65717342   -7.6144781    815.30893  0.018357852  0.017548893           16 
 3702000   0.67471143   -7.5955851    813.20742  0.018305588  0.017543468           12 
 3703000   0.64726937    -7.605112    815.24731   0.01834655  0.017538031           23 
 3704000    0.6682484    -7.619477    813.50174  0.018302325  0.017532601            8 
 3705000   0.65512472   -7.6113289    813.52518  0.018297912  0.017527175            5 
 3706000    0.6632628   -7.6137973    813.82535  0.018299724  0.017521745            8 
 3707000   0.65469751   -7.6102948    815.55154  0.018333593  0.017516317            6 
 3708000   0.65160311   -7.6071112    815.90423  0.018336575  0.017510898            9 
 3709000   0.67610026   -7.6096349    813.96033  0.018287956  0.017505486           15 
 3710000   0.65224045   -7.6125526    814.74904  0.018300742  0.017500067            8 
 3711000   0.64940898   -7.5978057    814.74598  0.018295742  0.017494645            7 
 3712000   0.66146636   -7.6326809    814.29143  0.018280609  0.017489222           13 
 3713000   0.65550496   -7.6273273    814.55013  0.018281491  0.017483814           14 
 3714000   0.64606329    -7.614122    817.13016  0.018334459  0.017478406            5 
 3715000   0.65100698   -7.6102636    814.99033  0.018281524  0.017473001           13 
 3716000   0.65287305   -7.6126994     814.9909  0.018276617  0.017467598            6 
 3717000   0.65412077   -7.6333369       814.57  0.018262263  0.017462191           18 
 3718000    0.6546678   -7.6230459    814.68734  0.018259982  0.017456788           11 
 3719000   0.65250788   -7.6148296    815.32423  0.018269343  0.017451398           13 
 3720000   0.65754676   -7.6163417     814.3255  0.018242059  0.017445995            6 
 3721000    0.6644258   -7.5816429    815.96639  0.018273905  0.017440601            8 
 3722000   0.65565959   -7.6350788    813.16732  0.018206326  0.017435197           13 
 3723000   0.66848858   -7.6084288    815.15078  0.018245832  0.017429801            5 
 3724000   0.65031363   -7.6179255    815.65021  0.018252108  0.017424399            9 
 3725000   0.64002802   -7.6069586    815.03484  0.018233442  0.017419004            6 
 3726000   0.65746289   -7.6190555    815.98699  0.018249843  0.017413625            5 
 3727000   0.65049969   -7.6174648    815.55655  0.018235322  0.017408241            7 
 3728000   0.66499819   -7.6084858    815.45467  0.018228153  0.017402866            6 
 3729000    0.6394015   -7.6193229     816.6407   0.01824977  0.017397504           14 
 3730000   0.63659468   -7.6077257    815.71792  0.018224261  0.017392143           17 
 3731000   0.66389411   -7.6255755    815.82036  0.018221664  0.017386782            6 
 3732000   0.63810958   -7.6217438    816.14708  0.018224077  0.017381413            4 
 3733000   0.66210986   -7.6231985    816.37545  0.018224293  0.017376052            7 
 3734000   0.66683118   -7.6244256    813.80918   0.01816214  0.017370676            6 
 3735000   0.65874176   -7.6132532     816.2829   0.01821247  0.017365312            6 
 3736000   0.66252217   -7.6372486    815.62497  0.018192919  0.017359951            8 
 3737000   0.66282011   -7.6340431    815.72582    0.0181903  0.017354578            6 
 3738000   0.65903652   -7.6339153    814.29734  0.018153588  0.017349209           12 
 3739000   0.67225112   -7.6061679    816.42721  0.018196202  0.017343849            7 
 3740000   0.65826961   -7.6279264    815.05697  0.018160806  0.017338502            8 
 3741000   0.66825652   -7.6297481    816.01608  0.018177316  0.017333154           12 
 3742000   0.67747886   -7.6127532    816.23952  0.018177435  0.017327812           13 
 3743000    0.6491747   -7.6154584    816.33608  0.018174728  0.017322471           13 
 3744000   0.63651785   -7.6364781    815.02939  0.018140789  0.017317117           14 
 3745000   0.65858454   -7.6401601    815.02496  0.018135847  0.017311765           14 
 3746000   0.65783823    -7.628241    816.02873  0.018153335  0.017306429           12 
 3747000   0.66193416   -7.6309319    815.86525  0.018144855  0.017301089           27 
 3748000   0.65102625   -7.6205548    816.44157  0.018152827  0.017295741           17 
 3749000   0.64754276   -7.6335407    815.03255  0.018116666    0.0172904            9 
 3750000   0.65520261   -7.6293949    815.28943  0.018117543   0.01728506           15 
 3751000   0.63990564   -7.6326295    814.50682  0.018095326  0.017279718           11 
 3752000   0.65976907   -7.6416381    815.21963  0.018106335   0.01727437            7 
 3753000   0.64297945   -7.6252063     815.1601  0.018100189  0.017269034           12 
 3754000    0.6437967   -7.6368653    814.38872  0.018078244  0.017263687           14 
 3755000   0.65597875   -7.6196472    814.36046  0.018072802  0.017258327           11 
 3756000    0.6353701   -7.6391831     814.9646  0.018081394  0.017252981           31 
 3757000   0.65281644   -7.6497297    815.48246  0.018088068  0.017247628           12 
 3758000   0.67778449   -7.6497149    815.92008  0.018092959   0.01724228           11 
 3759000   0.64382156   -7.6345503    815.26269  0.018073572  0.017236936           13 
 3760000   0.65782814   -7.6476238    816.50169  0.018096225  0.017231583           11 
 3761000   0.66103991   -7.6396098    816.36946  0.018088484  0.017226241            5 
 3762000   0.63794529   -7.6349463    815.95873  0.018074578    0.0172209            7 
 3763000   0.64765888   -7.6488439    814.96703  0.018047813  0.017215553           16 
 3764000   0.65112937   -7.6331041    816.30578  0.018072657  0.017210224            4 
 3765000     0.659355   -7.6376068     816.2143  0.018065832  0.017204892            7 
 3766000   0.65272154    -7.634147     815.5324  0.018045946  0.017199564            6 
 3767000   0.65122249   -7.6060271    817.13871   0.01807669  0.017194247            5 
 3768000   0.64012177   -7.6353476    815.22812  0.018029638  0.017188925           14 
 3769000   0.64104268   -7.6324349    815.77682  0.018036986  0.017183604            8 
 3770000   0.65287758    -7.614674    816.09473  0.018039229  0.017178291           11 
 3771000   0.64133393   -7.6286653    818.27126  0.018082544  0.017172977            6 
 3772000   0.65828524   -7.6123718    815.16916  0.018009216  0.017167664            6 
 3773000   0.63331569   -7.6297979    816.56105  0.018035185  0.017162366           12 
 3774000    0.6396556   -7.6318492    814.64269  0.017988047  0.017157051            7 
 3775000   0.63911476   -7.6267899    815.50141  0.018002239  0.017151743           12 
 3776000    0.6593766   -7.6250276    815.93534  0.018007048  0.017146429            5 
 3777000   0.65664475    -7.620616    816.72584  0.018019721   0.01714113            8 
 3778000   0.64955886   -7.6425661    815.21365  0.017981596  0.017135815           11 
 3779000   0.64687008   -7.6394933     817.5671  0.018028736    0.0171305           12 
 3780000   0.65055682   -7.6381649    816.19127  0.017993635   0.01712518           15 
 3781000   0.65455752   -7.6503279    815.13073  0.017965501  0.017119858           10 
 3782000   0.64516049   -7.6681904    814.91952  0.017956097  0.017114547           10 
 3783000   0.65706441   -7.6344813    815.62569  0.017966907  0.017109249           13 
 3784000   0.65736655   -7.6262273    815.75091  0.017964916  0.017103957            7 
 3785000   0.64180286   -7.6445506    815.98645  0.017965356  0.017098664            9 
 3786000   0.64195048   -7.6447227    815.83784  0.017957339  0.017093373            8 
 3787000   0.65299127   -7.6564652    817.88153  0.017997569   0.01708808            7 
 3788000   0.65373746   -7.6223291    814.70693  0.017922979  0.017082796            7 
 3789000   0.64946135   -7.6289583    816.76824  0.017963584  0.017077527            5 
 3790000   0.64232838   -7.6203453    817.23387  0.017969082  0.017072245            6 
 3791000   0.63855001   -7.6360679    816.32249  0.017944309  0.017066959            6 
 3792000   0.64745476   -7.6402183    816.59251  0.017945511  0.017061673           17 
 3793000   0.64369157   -7.6527869    815.95589  0.017926793  0.017056387           11 
 3794000   0.65035636   -7.6357999    816.95604  0.017944035  0.017051098            8 
 3795000    0.6487817   -7.6442748    815.31062  0.017903176  0.017045816            5 
 3796000   0.64818174   -7.6564259     816.4927   0.01792441  0.017040536           13 
 3797000    0.6499704   -7.6509663    816.22667   0.01791385  0.017035243            8 
 3798000    0.6541538   -7.6586914    815.13797  0.017885246  0.017029943           11 
 3799000   0.64920282    -7.649705    816.00662  0.017899592  0.017024648            7 
 3800000   0.63495492   -7.6591286    815.15213  0.017876143  0.017019349            8 
 3801000   0.65438891   -7.6440795    814.58588  0.017859026  0.017014037            6 
 3802000   0.64233523   -7.6487927    815.12355  0.017866113  0.017008738            6 
 3803000   0.65552762   -7.6444458    814.95792  0.017857786  0.017003454            6 
 3804000   0.63315664   -7.6558004    816.15814  0.017879384   0.01699817           14 
 3805000   0.63384147   -7.6521995    814.49849  0.017838337  0.016992889           11 
 3806000     0.642221   -7.6171498    814.38292   0.01783112  0.016987601           13 
 3807000   0.63784288   -7.6613452    817.44263  0.017893412  0.016982331            5 
 3808000   0.64210866   -7.6495591    815.72492  0.017851123  0.016977052            4 
 3809000   0.65277331   -7.6520595    816.38298  0.017860834  0.016971774            4 
 3810000   0.62345793    -7.642688    815.87948  0.017845133    0.0169665            8 
 3811000   0.64806176   -7.6420578    816.46437   0.01785324  0.016961228            7 
 3812000   0.64132484   -7.6380324    816.62481  0.017852064  0.016955969           10 
 3813000    0.6411354   -7.6281132    815.73433  0.017827921  0.016950714           13 
 3814000   0.65153085   -7.6299196    816.22867  0.017834047  0.016945457            9 
 3815000   0.63794738   -7.6499624    816.83978  0.017842721  0.016940209           13 
 3816000   0.63337752   -7.6285166    816.00895  0.017819902  0.016934954            8 
 3817000   0.64311085   -7.6419326    817.12429  0.017839584  0.016929703           18 
 3818000   0.63208258   -7.6261797    815.94324  0.017809133  0.016924461            9 
 3819000   0.63301849   -7.6439201    816.30758   0.01781242  0.016919227            5 
 3820000   0.64109381   -7.6524052    815.60314   0.01779239  0.016913991           10 
 3821000    0.6476332   -7.6576535    816.19867  0.017800721   0.01690875           10 
 3822000   0.65260458   -7.6703758    816.16357  0.017795299   0.01690351           11 
 3823000    0.6414789   -7.6492865    816.60312  0.017800225  0.016898266           13 
 3824000   0.62839418   -7.6646654    815.17792  0.017764512   0.01689302           10 
 3825000   0.63915324   -7.6547366    815.74131  0.017772142  0.016887775           19 
 3826000   0.64549147   -7.6519322    815.94311  0.017771892  0.016882523           12 
 3827000    0.6299514   -7.6590069    817.14536  0.017793427  0.016877283           14 
 3828000    0.6431685   -7.6584644    817.49417  0.017796373  0.016872045           20 
 3829000   0.63278727   -7.6588512    816.63716  0.017773073  0.016866807           10 
 3830000   0.63329897   -7.6479008    815.98644  0.017754274  0.016861583           13 
 3831000   0.65248638   -7.6516754    816.38106  0.017758224  0.016856359           12 
 3832000    0.6361953   -7.6361866    815.86699   0.01774241  0.016851141           11 
 3833000   0.62295957   -7.6591365    816.89239  0.017760075  0.016845922           10 
 3834000   0.63615326   -7.6691877    815.66004  0.017728657  0.016840687           13 
 3835000   0.64456488   -7.6695889    815.81307  0.017727359  0.016835451            8 
 3836000   0.63379503   -7.6485789    815.41068  0.017713996  0.016830229            9 
 3837000   0.62947633   -7.6759577     813.6081  0.017670231  0.016825003           12 
 3838000   0.64225764   -7.6570148    817.85555   0.01775785  0.016819775            9 
 3839000   0.64329414   -7.6797794    816.61278  0.017726248  0.016814554            8 
 3840000   0.65740517   -7.6586627    816.17874  0.017712212  0.016809336            8 
 3841000   0.63512766   -7.6894179    816.16926  0.017707395  0.016804114            6 
 3842000   0.64160364   -7.6799122    816.13409  0.017702023  0.016798891           10 
 3843000   0.63669678   -7.6818811    815.93444  0.017693088  0.016793667            8 
 3844000   0.64227671   -7.6711244    815.95443  0.017688918  0.016788438           10 
 3845000   0.64340703   -7.6676201    815.59138  0.017676449  0.016783208           15 
 3846000   0.64831407    -7.663274    815.69107  0.017674014  0.016777992           11 
 3847000   0.64239233   -7.6314227    816.99158  0.017697591  0.016772779            8 
 3848000   0.62637149   -7.6445741    815.58051  0.017662433  0.016767568            7 
 3849000   0.62598933    -7.660631    813.67547  0.017616599  0.016762357           15 
 3850000   0.64256967     -7.64682    815.91636  0.017660527  0.016757133           10 
 3851000   0.62333496   -7.6398864    815.56751  0.017648392  0.016751913            6 
 3852000   0.64521165   -7.6570961    816.38093  0.017661408    0.0167467            8 
 3853000   0.64671761   -7.6636591    815.72381  0.017642612  0.016741492           16 
 3854000   0.63602094   -7.6578682    814.79083  0.017617861  0.016736266            7 
 3855000   0.63899935   -7.6593903    815.63233  0.017631482  0.016731062            9 
 3856000   0.63140711   -7.6804353    815.20184  0.017617606  0.016725853            8 
 3857000    0.6514248   -7.6542296      815.564  0.017620862  0.016720648           12 
 3858000   0.63162403   -7.6573016    816.75947  0.017642118  0.016715437           16 
 3859000   0.64004771   -7.6572931    815.72716  0.017615253  0.016710234           11 
 3860000   0.62764616   -7.6701759    815.77419  0.017611705  0.016705027            7 
 3861000   0.64165331   -7.6458803     815.8848  0.017609531  0.016699814            8 
 3862000   0.63964875   -7.6733026    815.38089  0.017594098   0.01669461            9 
 3863000   0.63581965   -7.6586289    815.61167  0.017594522  0.016689394            6 
 3864000   0.63961702   -7.6665538    814.32409    0.0175622  0.016684179            8 
 3865000   0.63746567   -7.6448831     815.8808   0.01759122  0.016678961           10 
 3866000   0.63849245   -7.6628024    816.04266  0.017590159  0.016673744           12 
 3867000   0.62178461   -7.6900287    816.60548  0.017597739  0.016668519           16 
 3868000   0.63623747   -7.6591774    815.59186  0.017571352  0.016663295           14 
 3869000   0.62683565   -7.6675532    817.01257   0.01759741  0.016658074           16 
 3870000   0.63089917   -7.6565876    814.40012  0.017536609  0.016652853            8 
 3871000   0.63478564   -7.6832264    815.89868  0.017564339  0.016647636           15 
 3872000   0.63962545   -7.6595525    815.64417  0.017554325  0.016642423           12 
 3873000   0.63128367   -7.6646143    815.14471  0.017539046  0.016637203            9 
 3874000   0.62698343   -7.6751705    813.40884  0.017497179  0.016631976            9 
 3875000   0.64434372   -7.6634761    815.49419  0.017537509  0.016626764           10 
 3876000   0.63372935   -7.6987606    815.47627    0.0175326  0.016621558            7 
 3877000   0.63785434   -7.6714208    814.27616  0.017502282  0.016616354           10 
 3878000   0.62415973   -7.6644085    815.19405  0.017517493  0.016611145           13 
 3879000    0.6334826    -7.653941    815.32733   0.01751584  0.016605938           16 
 3880000   0.63345729   -7.6782703    815.42756  0.017513478  0.016600731           10 
 3881000   0.62948027   -7.6722562    813.99802  0.017478271  0.016595532           10 
 3882000   0.63123951   -7.6593794    814.37512  0.017481863  0.016590315            6 
 3883000   0.62988522   -7.6747909    815.99911  0.017512214  0.016585104           11 
 3884000   0.62818215   -7.6704625    815.65582  0.017500339  0.016579912           14 
 3885000   0.61684805   -7.6625742    813.24961  0.017444222  0.016574704           12 
 3886000   0.63837369    -7.655583    813.28298  0.017440448  0.016569501            9 
 3887000   0.63040888   -7.6759641    814.21213  0.017455881  0.016564297           31 
 3888000   0.63101681   -7.6703018    814.53799  0.017458376  0.016559102           16 
 3889000   0.63093333   -7.6728217    814.76834  0.017458823  0.016553918           16 
 3890000   0.63426021   -7.6552397    815.15415    0.0174626  0.016548741            7 
 3891000   0.62204538   -7.6435122    815.53269  0.017466219  0.016543561           10 
 3892000   0.61911985   -7.6822498    815.33947  0.017457594  0.016538387           12 
 3893000   0.61936393   -7.6890454    815.46872  0.017455876  0.016533197           14 
 3894000   0.62818676   -7.6590245    816.77661  0.017479383  0.016528019           12 
 3895000   0.61530488   -7.6662546    814.71946  0.017430883   0.01652284           10 
 3896000    0.6397681   -7.6687086    814.40564  0.017419696  0.016517657            5 
 3897000   0.61508534   -7.6761891    815.84412  0.017445987  0.016512478            6 
 3898000   0.62589438   -7.6845361    816.44004  0.017454251  0.016507291            8 
 3899000   0.62426003   -7.6540225      815.922  0.017438702  0.016502107            4 
 3900000   0.63392378   -7.6741653    814.72376  0.017408627  0.016496933           10 
 3901000   0.64458498   -7.6922902    816.03188  0.017432109  0.016491757            6 
 3902000   0.62497871   -7.6755479    816.40459  0.017435601  0.016486585            8 
 3903000   0.61680512    -7.672921    814.81971  0.017397295  0.016481409            9 
 3904000   0.62747326   -7.6811175     817.1546  0.017442678  0.016476243            8 
 3905000    0.6217189   -7.6739937    815.54681  0.017403901  0.016471084           10 
 3906000   0.62038935   -7.6847602    814.54577  0.017378089  0.016465922            5 
 3907000   0.64185368   -7.6936724     814.1038  0.017364214  0.016460761           10 
 3908000   0.61651903   -7.6804198    817.09618  0.017423579  0.016455617            9 
 3909000   0.61176879    -7.688152    815.76789  0.017390805   0.01645046            9 
 3910000   0.61719897   -7.6602218    816.13158  0.017394109  0.016445293           11 
 3911000   0.62437944   -7.6900993    814.29553   0.01735054  0.016440129           11 
 3912000     0.635992   -7.7005897    816.77136  0.017398845  0.016434968           13 
 3913000   0.62569177   -7.7030566    814.09237  0.017337345  0.016429799           16 
 3914000   0.63076094   -7.6677164    816.41477  0.017382362  0.016424637           12 
 3915000   0.62520507   -7.6943901    815.72936  0.017363333  0.016419483           16 
 3916000   0.62705166   -7.6858268    813.90153  0.017320002  0.016414326           27 
 3917000    0.6247768   -7.7016143    814.86433  0.017336064  0.016409163           29 
 3918000   0.62770246   -7.6877103    816.27927  0.017361734  0.016404005           18 
 3919000   0.63591032   -7.7001367    815.51245  0.017340998   0.01639885            7 
 3920000   0.63001289   -7.6958466    815.02448  0.017326201  0.016393703           13 
 3921000   0.62839673   -7.6725679    815.73909   0.01733697  0.016388546           23 
 3922000   0.62562385     -7.67923     814.3084   0.01730215  0.016383397            8 
 3923000   0.62296698   -7.6901371    815.70844   0.01732748  0.016378253            9 
 3924000   0.63430517   -7.6820464    815.07496  0.017309611  0.016373104            8 
 3925000   0.62960772   -7.6767673    815.13653  0.017306508  0.016367956            7 
 3926000   0.63757017   -7.6833579    814.03979   0.01727882  0.016362802           12 
 3927000   0.62410391   -7.6974496    814.49731  0.017284129  0.016357638           16 
 3928000   0.63345805   -7.7126216     813.7083   0.01726299   0.01635247           11 
 3929000   0.62411951   -7.6933011    814.49295  0.017275239  0.016347307            8 
 3930000   0.62265684   -7.6962951    814.09605  0.017262427  0.016342147           13 
 3931000   0.61748267   -7.6973946    814.81567  0.017273291  0.016337001           10 
 3932000   0.61332363   -7.7122321    813.80988  0.017247581  0.016331846           11 
 3933000    0.6183215   -7.7046694    813.67686  0.017240378  0.016326698           11 
 3934000   0.61086576   -7.6985583    812.43144  0.017209614  0.016321545           16 
 3935000   0.62964244   -7.6934428    814.95821  0.017258751  0.016316387           10 
 3936000   0.61749789   -7.7046291    813.43635  0.017222145  0.016311227            6 
 3937000   0.62145105   -7.6918108    813.78218  0.017225091  0.016306061           12 
 3938000   0.64172972   -7.7017662    814.46176  0.017235097  0.016300903           12 
 3939000   0.62039699   -7.7045621    813.39535  0.017208161  0.016295742            9 
 3940000   0.61334822   -7.7038533    812.61358  0.017187258  0.016290586            8 
 3941000   0.63439963   -7.7362232    813.43234   0.01720021   0.01628542           10 
 3942000   0.61627832   -7.7023052    813.42083  0.017195604  0.016280262           14 
 3943000   0.62140105   -7.7102753    813.41502   0.01719112  0.016275101           12 
 3944000     0.628642   -7.7259951    814.38281  0.017207209  0.016269941            8 
 3945000   0.62291419   -7.7088554    813.74484  0.017189371  0.016264783           10 
 3946000   0.61919908   -7.7174743    812.37554  0.017156098  0.016259624           16 
 3947000   0.62081593   -7.7091728    814.05306  0.017187169  0.016254475           15 
 3948000   0.61488326   -7.7052258    813.88782  0.017179327  0.016249326           16 
 3949000   0.62322631   -7.7020833    813.75859   0.01717225  0.016244176            9 
 3950000   0.61672927   -7.7188023    813.38751  0.017160074  0.016239033           18 
 3951000   0.61581544   -7.7004998    813.46891  0.017157448  0.016233882           16 
 3952000   0.60841337   -7.7078711     814.8652  0.017182549  0.016228751           16 
 3953000   0.61190245   -7.7007103    812.71404  0.017132854  0.016223612           17 
 3954000    0.6162062   -7.7146629    815.46964  0.017186597  0.016218481           13 
 3955000   0.60902959   -7.7194128    813.64547  0.017143815  0.016213346            8 
 3956000   0.62793444   -7.7002858    815.20234  0.017172277  0.016208215           12 
 3957000   0.61650537   -7.6969028    815.81431  0.017180825  0.016203088            8 
 3958000   0.59747049   -7.7218919    814.92146  0.017157686  0.016197959           11 
 3959000   0.61497998   -7.7063405    814.02672  0.017134519  0.016192831           10 
 3960000   0.60562113   -7.6939922    813.82067  0.017125856  0.016187703           23 
 3961000   0.62014705   -7.7058209    811.93443  0.017081849  0.016182583           15 
 3962000   0.61479375   -7.6925102    812.63384  0.017092248   0.01617746           18 
 3963000   0.60295328   -7.7069177    814.81799  0.017133863  0.016172335           14 
 3964000   0.63012666   -7.7144442    812.14383  0.017073323  0.016167202            8 
 3965000   0.62736036    -7.709452    813.72884  0.017102329   0.01616207           15 
 3966000   0.62068047   -7.7354956    813.26097  0.017088187  0.016156947            8 
 3967000   0.62125065   -7.7081002    814.02203  0.017099866  0.016151823           10 
 3968000   0.62922595   -7.7167088    814.49865  0.017105566  0.016146707           12 
 3969000   0.60995437   -7.7037335    814.43973  0.017100019  0.016141584           10 
 3970000   0.61463036   -7.7117288    813.80234  0.017082333  0.016136467           28 
 3971000   0.62850613   -7.7357796    812.89035  0.017058893  0.016131344           12 
 3972000   0.62757983   -7.7258579    813.69895  0.017071562  0.016126223           13 
 3973000   0.61971988   -7.7124477    813.60088  0.017065209  0.016121105           14 
 3974000   0.61090604   -7.7271216    812.02638  0.017027898   0.01611598           12 
 3975000   0.59981309   -7.7082619    812.20935   0.01702745  0.016110851           18 
 3976000   0.60661813   -7.7160706    813.90393  0.017058684  0.016105729           15 
 3977000   0.62434873   -7.7120067    814.48978   0.01706667   0.01610062            9 
 3978000   0.62769758   -7.6992238    812.27007  0.017015881  0.016095519           15 
 3979000   0.62582145   -7.7362976    813.19787  0.017031035  0.016090416           14 
 3980000    0.6068161    -7.711852    813.34199  0.017029774  0.016085309           12 
 3981000   0.63770327   -7.7287459    814.55485  0.017050884  0.016080199           23 
 3982000   0.61399873   -7.7123451    814.07312  0.017036521  0.016075102           15 
 3983000   0.62752339   -7.7091902    813.31247  0.017016329      0.01607            8 
 3984000   0.61111757   -7.7270203    813.38718  0.017013621  0.016064895           13 
 3985000   0.61418167   -7.7267695    813.22258  0.017005909  0.016059805           12 
 3986000   0.60261859   -7.7142774    815.08187  0.017040514  0.016054715            8 
 3987000   0.61211066   -7.7182475    814.08627  0.017015431  0.016049628            9 
 3988000   0.61549989   -7.7285443    813.04425   0.01698939  0.016044535           16 
 3989000   0.63442038    -7.742072    812.88492  0.016981802  0.016039443           13 
 3990000   0.61857654   -7.7152206    812.85113  0.016976841  0.016034361           15 
 3991000    0.6156435   -7.7266016    815.17228  0.017021053  0.016029273           26 
 3992000   0.62260037   -7.7167369    814.49385  0.017002627  0.016024195           12 
 3993000   0.61077714   -7.7315071    813.75516  0.016982953  0.016019119           12 
 3994000   0.61330455   -7.6912866    813.33647  0.016969965  0.016014042           12 
 3995000   0.61072996   -7.7107674     814.0963  0.016981567   0.01600898           14 
 3996000   0.60904505   -7.7017878    813.30817  0.016960881  0.016003919           13 
 3997000    0.6200345   -7.6965829    813.73704  0.016965579  0.015998861           12 
 3998000   0.60951677     -7.69302     815.1889  0.016991598  0.015993811           12 
 3999000   0.62053208   -7.6980733     814.1592  0.016965891  0.015988759           12 
 4000000    0.6334277   -7.7106477    813.74075  0.016952932  0.015983705            8 
 4001000   0.61107989   -7.7046653    814.20707  0.016958408   0.01597866           13 
 4002000   0.62230902   -7.7147213    815.39417  0.016978889  0.015973613           17 
 4003000   0.60446103    -7.714378    814.09228  0.016947545  0.015968565            7 
 4004000   0.60486996   -7.7258792    813.22412  0.016925244  0.015963522           22 
 4005000   0.63195108   -7.7083569    814.31538  0.016943724  0.015958471           17 
 4006000   0.61460628   -7.6907783    814.27449  0.016938644  0.015953425           18 
 4007000   0.60884735   -7.7204025    813.80223  0.016924595  0.015948381           14 
 4008000   0.59831815   -7.7169819    813.63829  0.016916964  0.015943333           16 
 4009000   0.60001272    -7.709905    814.24786  0.016925415   0.01593828           15 
 4010000   0.59701333   -7.7235138    814.39791  0.016924312  0.015933244            5 
 4011000   0.61845594   -7.7166418    812.67789  0.016884357  0.015928202            8 
 4012000   0.60576917   -7.7137345    813.76259  0.016902679  0.015923161            9 
 4013000   0.59886064   -7.7131802    814.60392  0.016915938  0.015918128            9 
 4014000   0.61384764   -7.7078512    813.84811  0.016896033  0.015913107            8 
 4015000   0.61728975     -7.69952    815.41478  0.016924342  0.015908094            8 
 4016000   0.60567691   -7.7038105    814.53531  0.016901878  0.015903077            8 
 4017000   0.62058985   -7.7049685    814.49112  0.016896754   0.01589807           10 
 4018000   0.60861904   -7.7087432    813.82054  0.016878641  0.015893053            8 
 4019000    0.5950279   -7.7044012    814.34511  0.016885318  0.015888035            8 
 4020000    0.6070292   -7.7098384    815.53696  0.016905824  0.015883015            8 
 4021000   0.60019927   -7.7066216     813.6205  0.016861902  0.015878001           14 
 4022000   0.62326186   -7.6982691    816.03325    0.0169077     0.015873            9 
 4023000   0.61581328   -7.7122828    813.91768  0.016859675  0.015867984           15 
 4024000   0.60951621   -7.7102056    813.04686  0.016837452  0.015862971           16 
 4025000   0.60309668   -7.7112147    813.99536  0.016852906  0.015857956           14 
 4026000   0.61573038   -7.7185638    815.87195  0.016887563  0.015852943           18 
 4027000   0.60982976   -7.7162665     812.5678  0.016814995  0.015847926           12 
 4028000   0.61269038   -7.7231744    812.48574  0.016809122  0.015842897            6 
 4029000     0.616067   -7.7081526    813.43147  0.016824511  0.015837872            9 
 4030000   0.60548314   -7.7505988    814.58848  0.016844261  0.015832858           12 
 4031000   0.60486106   -7.6979814     815.0488  0.016849599  0.015827841            9 
 4032000   0.60763905   -7.7221198    814.26895  0.016829302  0.015822827            8 
 4033000   0.61517345   -7.7360679    816.22577  0.016865563  0.015817822           20 
 4034000   0.60347698   -7.7166135    813.95718  0.016814518  0.015812816            9 
 4035000   0.59710255   -7.7211464    814.23056  0.016815997  0.015807814            8 
 4036000   0.60557824   -7.7262826    812.44033  0.016774866  0.015802801           14 
 4037000   0.62403314   -7.7173978    815.22501  0.016828194  0.015797797            9 
 4038000   0.59745535   -7.7327527    813.48317  0.016788079  0.015792794           22 
 4039000   0.60254091   -7.7039047    812.47889  0.016763202  0.015787805           14 
 4040000   0.60479808   -7.7339422    815.27726  0.016816775  0.015782821           15 
 4041000   0.61499013   -7.7005494    815.14582  0.016809903   0.01577784            8 
 4042000   0.60568064   -7.7162935    814.70135  0.016796581   0.01577286           21 
 4043000   0.59626281   -7.7263806    814.05759  0.016779157  0.015767883           14 
 4044000   0.60512897   -7.7028157    815.10956  0.016796686  0.015762904           28 
 4045000   0.60674854   -7.6967748    814.22396  0.016774288  0.015757923           11 
 4046000   0.60761918    -7.721357    813.25291  0.016750142  0.015752936           14 
 4047000   0.59544669   -7.7397634     815.6604  0.016795577  0.015747971           13 
 4048000   0.59881946   -7.7233785    815.22147  0.016782392   0.01574299           15 
 4049000   0.60430108   -7.7598735    815.77616  0.016789663  0.015738014           14 
 4050000   0.59398553   -7.7332682    814.66818   0.01676272  0.015733035           15 
 4051000    0.6062819   -7.7470248    815.17385  0.016768984  0.015728057            6 
 4052000   0.60259267   -7.7329309    813.29019  0.016726106  0.015723081           17 
 4053000   0.59472326   -7.7211825    815.01896  0.016757525  0.015718101           15 
 4054000   0.59643291   -7.7069618    815.21354  0.016757391  0.015713125           13 
 4055000   0.59635066    -7.739873    813.33917  0.016714738   0.01570816           14 
 4056000   0.60430746    -7.721774    813.84869  0.016721086  0.015703185           24 
 4057000   0.59401128   -7.7203187       813.55  0.016710829   0.01569821           10 
 4058000   0.59675471   -7.7284821    814.30721  0.016722261  0.015693238           10 
 4059000   0.60419356   -7.7231456    815.33843  0.016739312  0.015688273            7 
 4060000   0.59628608   -7.7146788    814.85326  0.016725231  0.015683311           13 
 4061000   0.60592432   -7.7201598    814.21627  0.016708041  0.015678349           10 
 4062000   0.60101813   -7.7360745    815.62845  0.016732899  0.015673387           12 
 4063000   0.60652939    -7.726634    813.89518  0.016693231   0.01566843           15 
 4064000   0.60774673   -7.7280834    815.98472   0.01673197  0.015663473           11 
 4065000   0.59613268    -7.735196    814.33988  0.016694134  0.015658519           12 
 4066000   0.60166424   -7.7312332    814.17586  0.016686667  0.015653566            9 
 4067000   0.59661121   -7.7410581    812.88585  0.016656132  0.015648607           13 
 4068000   0.58489455   -7.7378962    813.32629   0.01666106  0.015643646           10 
 4069000   0.59065105   -7.7179337     815.2215  0.016695779  0.015638682           13 
 4070000   0.60385849   -7.7467543    812.67014  0.016639438  0.015633725           18 
 4071000   0.59646671   -7.7367838    812.86038  0.016639245  0.015628765           16 
 4072000   0.59397159   -7.7590597    813.39973  0.016646196  0.015623801           14 
 4073000   0.59866038   -7.7199763    814.25042  0.016659514  0.015618851           12 
 4074000    0.6072488   -7.7114008    813.86448  0.016647531  0.015613905           19 
 4075000   0.60249381   -7.7499003    812.27224  0.016610884  0.015608956           15 
 4076000   0.59219831    -7.729357      813.661  0.016635202  0.015604008           13 
 4077000    0.6107258   -7.7296486    813.37995  0.016625377   0.01559905           14 
 4078000   0.59612078   -7.7452272     813.3666  0.016621027  0.015594104           19 
 4079000   0.59561722   -7.7419121    813.65437  0.016622832  0.015589166           18 
 4080000   0.58882446   -7.7422526    814.37813   0.01663354  0.015584233           15 
 4081000    0.6013256   -7.7409738    814.50421  0.016632039   0.01557929           20 
 4082000   0.59981867   -7.7473859    814.31169  0.016624034  0.015574346           20 
 4083000   0.58534194   -7.7396523    812.01122   0.01657301  0.015569397           16 
 4084000   0.60657688   -7.7573399    812.50952   0.01657912  0.015564456           15 
 4085000   0.61162115   -7.7434373    812.51973   0.01657527  0.015559522           18 
 4086000   0.60383726     -7.75572    812.24004  0.016565509  0.015554576           15 
 4087000   0.59266859   -7.7302383    812.66764  0.016570175  0.015549636           29 
 4088000   0.59738282   -7.7675216    813.22031  0.016577387  0.015544694           10 
 4089000   0.58377852   -7.7381251    812.49023  0.016558454  0.015539764           15 
 4090000   0.58751037   -7.7460162    812.86131  0.016561966  0.015534837           18 
 4091000   0.59679731   -7.7336902    813.18681  0.016564548  0.015529912           18 
 4092000   0.60313178   -7.7596605    813.52775  0.016567444   0.01552498           13 
 4093000   0.58941052   -7.7324403    813.95829  0.016572162  0.015520043           17 
 4094000   0.59702876   -7.7336559    813.94626  0.016567869  0.015515104           15 
 4095000   0.60377673    -7.774654    813.10504  0.016546704  0.015510165           13 
 4096000   0.59298089   -7.7471945    813.49884  0.016550676  0.015505232           14 
 4097000   0.61013052   -7.7591091    813.42367  0.016545108  0.015500308           17 
 4098000   0.59665413    -7.752471    812.23789  0.016516957  0.015495385           13 
 4099000    0.5950693     -7.74206    813.73246  0.016543313  0.015490463            9 
 4100000   0.59533873   -7.7528981    812.49871  0.016514201  0.015485537           17 
 4101000   0.59672074   -7.7759257    813.92366   0.01653913  0.015480612           16 
 4102000   0.59249963   -7.7418434    813.96326  0.016535903  0.015475687           17 
 4103000    0.6025831   -7.7578468    813.57786  0.016524045  0.015470768           31 
 4104000   0.59902036   -7.7398892    813.70522  0.016522604  0.015465849           18 
 4105000   0.59093155   -7.7498339    814.03407  0.016525255  0.015460925           15 
 4106000   0.58625984   -7.7475002    813.73044  0.016515068     0.015456            7 
 4107000   0.58716427   -7.7570115     812.8119  0.016492409  0.015451084           14 
 4108000   0.57103961   -7.7626078    813.18532   0.01649597  0.015446169           10 
 4109000    0.6083383   -7.7393657    812.15101  0.016470979  0.015441253           15 
 4110000   0.58353027   -7.7375121    813.31371  0.016490546  0.015436339           11 
 4111000   0.60651884   -7.7481611    815.17974   0.01652436  0.015431428           18 
 4112000   0.59752348   -7.7788431    813.77513  0.016491876  0.015426529           22 
 4113000   0.58253886   -7.7409441    815.03964  0.016513486  0.015421636           14 
 4114000   0.59383297   -7.7506656    812.68261  0.016461728  0.015416741           16 
 4115000   0.59225107   -7.7632664    813.54439   0.01647518  0.015411848           16 
 4116000   0.61282396   -7.7670425    813.38547   0.01646796  0.015406961           16 
 4117000   0.58106075   -7.7275801    813.75849   0.01647151  0.015402068           19 
 4118000    0.5868391   -7.7520826    813.65608  0.016465438  0.015397182           24 
 4119000   0.58893977   -7.7552956    813.00875  0.016448344  0.015392292           11 
 4120000   0.59403571   -7.7337785    812.69128   0.01643793  0.015387416           10 
 4121000   0.59403007   -7.7576923     814.3762  0.016468013  0.015382526           11 
 4122000   0.59635969    -7.761402    814.06948  0.016457817  0.015377642           10 
 4123000   0.59719352   -7.7550325    814.23791   0.01645723  0.015372764           10 
 4124000   0.58913489   -7.7694257    813.33534  0.016435001  0.015367881           13 
 4125000   0.58481593   -7.7606181    813.05378  0.016425329  0.015363002           10 
 4126000   0.59420466   -7.7706737    814.23476    0.0164452  0.015358124           16 
 4127000   0.59486739   -7.7398594    813.05056  0.016417304  0.015353248           17 
 4128000   0.59554009   -7.7592543    812.57078  0.016403641   0.01534837           12 
 4129000   0.58977848   -7.7638804    813.14432  0.016411244  0.015343495           11 
 4130000   0.60391007   -7.7568841    813.79116  0.016420322  0.015338625           14 
 4131000   0.59777243   -7.7400272    813.05811   0.01640156  0.015333741            5 
 4132000   0.59002652   -7.7713244    811.13107  0.016358726  0.015328869           11 
 4133000   0.59117568   -7.7789986    812.79285  0.016388274  0.015323994            7 
 4134000   0.59343157   -7.7863977    813.68268  0.016402247  0.015319124           10 
 4135000   0.58475466   -7.7569482    812.81729   0.01638084  0.015314251           16 
 4136000   0.58682055   -7.7517136    813.94005  0.016399501  0.015309393           18 
 4137000    0.5837013   -7.7549119    813.28135  0.016382269  0.015304529           24 
 4138000   0.58607911    -7.774389    813.11177  0.016374895   0.01529967           20 
 4139000   0.58307033   -7.7570817    813.06195  0.016369935  0.015294803           16 
 4140000   0.58842323   -7.7675536    813.20708  0.016368903  0.015289943           17 
 4141000   0.59328447   -7.7478928     812.8826   0.01635842  0.015285088           18 
 4142000   0.58914178   -7.7568392    812.41179  0.016344998   0.01528024           14 
 4143000   0.58419207   -7.7561021    813.91086  0.016371206  0.015275384           26 
 4144000   0.58871939   -7.7487433     814.3188  0.016375458  0.015270538           13 
 4145000    0.5912145   -7.7606668    812.63102  0.016337576  0.015265684           23 
 4146000   0.58766503    -7.768861    812.73082  0.016335641  0.015260839           11 
 4147000   0.59034256   -7.7625029    813.78975  0.016352981  0.015256002           12 
 4148000   0.58630955   -7.7781004    812.92673  0.016331701  0.015251157           17 
 4149000   0.57490075   -7.7611369    813.22284  0.016333712  0.015246315           27 
 4150000   0.59268014   -7.7639817    812.84718  0.016322233  0.015241472           22 
 4151000   0.58826286   -7.7728933    813.17401  0.016324862  0.015236631           20 
 4152000   0.59301415   -7.7528864    812.31812  0.016303752  0.015231801           23 
 4153000   0.58712163   -7.7465162    814.06393  0.016334857  0.015226971           30 
 4154000   0.58286911   -7.7859159    812.32341  0.016296008  0.015222136           24 
 4155000   0.58698617   -7.7802208    813.55494  0.016316786  0.015217299           19 
 4156000   0.58119838   -7.7759167    813.61684  0.016314101  0.015212461           14 
 4157000   0.58720978   -7.7747348    812.26365   0.01628305  0.015207624           39 
 4158000   0.59129235   -7.7806183    813.66893  0.016307298    0.0152028           13 
 4159000   0.58955222    -7.767576    813.68924  0.016303784  0.015197973           21 
 4160000   0.60003518    -7.790865    814.13714  0.016308837  0.015193147           14 
 4161000   0.57745735   -7.7718303    813.76369  0.016297438  0.015188319           16 
 4162000   0.58007651   -7.7538725    813.35374  0.016285314  0.015183496           15 
 4163000   0.58463778   -7.7828056    813.13856  0.016277095  0.015178674           14 
 4164000   0.58609687   -7.7811357    813.93275   0.01628908  0.015173858           12 
 4165000   0.57374693   -7.7637536     813.7507  0.016281527  0.015169038            7 
 4166000   0.59078142    -7.794643    813.43039  0.016271211  0.015164214           17 
 4167000    0.5919414   -7.7610719     813.3063  0.016264825  0.015159399           13 
 4168000   0.58375814   -7.7705335    813.71004  0.016268995  0.015154583           19 
 4169000   0.58733974   -7.8004835    812.78103  0.016246522  0.015149767           11 
 4170000   0.57711143   -7.7607581    812.35461  0.016234105  0.015144955            9 
 4171000   0.58323166   -7.7606201    813.61648  0.016255424  0.015140137            7 
 4172000   0.58673645   -7.7786643    812.04797  0.016220198  0.015135331           12 
 4173000   0.57912214   -7.7824522    814.39666  0.016263213  0.015130523           15 
 4174000   0.58320631    -7.782648    812.44741    0.0162204  0.015125711           10 
 4175000    0.5820838   -7.7665669    812.35327  0.016214636  0.015120899           11 
 4176000    0.5850581   -7.7781858    813.27004  0.016229048  0.015116089           19 
 4177000   0.57813798   -7.7879557     811.2048   0.01618396  0.015111276            9 
 4178000   0.58451102   -7.7891933    812.66431  0.016209197   0.01510646           22 
 4179000   0.58471244   -7.7705464    812.42342  0.016200515  0.015101661            9 
 4180000   0.59154928   -7.7850896    813.01498  0.016208433  0.015096858           14 
 4181000   0.58070252    -7.768326    813.82904  0.016220781  0.015092057           25 
 4182000   0.58771479   -7.7754768    813.38746  0.016208103  0.015087258            8 
 4183000   0.58662322   -7.7745011    813.14549  0.016199408  0.015082462            8 
 4184000   0.58986857   -7.7858558    813.66206  0.016205825  0.015077669           20 
 4185000   0.58314872   -7.7710022    811.96535  0.016168167  0.015072886           19 
 4186000   0.59135497   -7.7828746    811.68033  0.016158631  0.015068095           17 
 4187000   0.57255012   -7.7990971    813.63511  0.016193677  0.015063306           11 
 4188000   0.58075157   -7.7978566    812.89908  0.016175165  0.015058516           12 
 4189000   0.57767217   -7.7927912    811.90042  0.016151437  0.015053726           17 
 4190000   0.58488272    -7.782232    812.92677  0.016167995   0.01504894           14 
 4191000   0.59690429   -7.7604748    811.89672  0.016143655  0.015044155           11 
 4192000     0.589987    -7.776396    813.16277  0.016164972  0.015039373           20 
 4193000   0.57955214   -7.7853168    812.44331  0.016146818  0.015034588           24 
 4194000   0.58694749   -7.7910112    812.27213  0.016139567  0.015029806           31 
 4195000    0.5841578   -7.7810242    813.84175    0.0161669  0.015025023           14 
 4196000   0.58048818   -7.7726478    812.63891  0.016139159  0.015020238           25 
 4197000   0.58347796   -7.8075597    812.01731  0.016122971  0.015015453           17 
 4198000   0.57934817   -7.7802047    812.84918  0.016135644  0.015010678           22 
 4199000   0.57816696   -7.7770777    812.45947  0.016124067  0.015005905           28 
 4200000   0.58371824   -7.7859739    811.19317  0.016095102   0.01500113           19 
 4201000   0.58837273   -7.7708719    812.42763  0.016115759  0.014996353           22 
 4202000   0.59672627   -7.7889034    812.18219  0.016107056  0.014991583           25 
 4203000   0.57377104   -7.7846575    813.45198    0.0161284  0.014986804           17 
 4204000   0.58620301   -7.7854228    813.18561  0.016119283  0.014982029           24 
 4205000   0.58187874   -7.7760409    811.96955  0.016091351  0.014977266           21 
 4206000   0.58423929   -7.8097643     812.4336  0.016096719  0.014972502           25 
 4207000   0.58132882   -7.7808799    813.06693  0.016105438  0.014967748           24 
 4208000   0.57703718   -7.7864493    811.30486  0.016066715  0.014962991           17 
 4209000   0.56865206   -7.7801525    812.16677  0.016079963  0.014958242           19 
 4210000   0.57124983   -7.7834432     813.2578   0.01609774  0.014953493           22 
 4211000   0.58241728   -7.7754201    811.53069  0.016059738  0.014948748           24 
 4212000   0.58596362   -7.7957685     812.1153  0.016067492  0.014944001           14 
 4213000   0.56582588   -7.7725819    813.10647  0.016083283  0.014939259           20 
 4214000   0.57291645   -7.7670704    812.72423  0.016071908  0.014934519           24 
 4215000   0.58247982   -7.7800661     812.2682  0.016059079  0.014929777           22 
 4216000   0.58262937   -7.8108246    812.49446  0.016059742  0.014925034           17 
 4217000   0.57063156   -7.7699958    813.74329  0.016080612  0.014920294           10 
 4218000    0.5887749   -7.7974287    814.13899  0.016084617  0.014915565           16 
 4219000   0.56413714   -7.7790235    813.40996  0.016066405  0.014910835           17 
 4220000   0.57256617   -7.7935235    812.03105  0.016035368  0.014906101           37 
 4221000   0.56165865   -7.7953685    811.49266   0.01602094  0.014901364           21 
 4222000   0.59088902   -7.8014022    811.73427  0.016021914   0.01489663           26 
 4223000   0.58023418   -7.7893777    811.56105  0.016014702  0.014891902           29 
 4224000   0.57077897   -7.7903112    813.00895  0.016039476  0.014887163           20 
 4225000    0.5665997   -7.7950713    812.64624  0.016028525  0.014882428           17 
 4226000   0.57666201   -7.7741165    811.98598  0.016011713   0.01487769           23 
 4227000   0.58000603   -7.8001259    812.27682  0.016013659  0.014872955           19 
 4228000   0.57226449   -7.7930399    811.31017  0.015990819  0.014868223           22 
 4229000   0.56891809   -7.7959438     811.0978  0.015982853  0.014863497           22 
 4230000   0.57974354   -7.8080262    812.31261  0.016003007  0.014858768           26 
 4231000   0.57809437   -7.7740021    812.03949  0.015993845  0.014854048           18 
 4232000   0.57194277    -7.791028    813.02078  0.016009388  0.014849325           27 
 4233000   0.56742611    -7.820491    812.34919  0.015992385    0.0148446           19 
 4234000   0.56670422   -7.8150854    813.17944  0.016004949  0.014839882           15 
 4235000   0.57503043   -7.7887142    812.57182  0.015989213  0.014835158           18 
 4236000   0.57077681   -7.7798322    811.93791  0.015972968  0.014830432           19 
 4237000   0.57564004   -7.7954252    811.57143   0.01596199  0.014825724           16 
 4238000   0.57834082   -7.8018132    812.58585  0.015978171  0.014821019           27 
 4239000   0.58396125   -7.7906427    812.54679  0.015973634  0.014816319           33 
 4240000   0.58006226   -7.7816306    812.34238  0.015965849  0.014811621           27 
 4241000   0.58078874   -7.8098235    812.62538  0.015967645  0.014806924           20 
 4242000   0.57901287   -7.7825759    812.97224  0.015970695  0.014802226           23 
 4243000   0.57271057   -7.7933637      811.738   0.01594269   0.01479753           20 
 4244000   0.57265836   -7.7996656      812.386  0.015951657  0.014792827           25 
 4245000   0.57076216   -7.7772224    812.24209  0.015945074  0.014788133           17 
 4246000   0.57810445   -7.7852147    811.59544  0.015928628  0.014783442           19 
 4247000   0.57341692   -7.7853753    814.27535  0.015977462  0.014778752           17 
 4248000   0.57610587   -7.7879466    812.62862  0.015941396  0.014774068           17 
 4249000   0.56998568   -7.8084207    813.09679  0.015946827  0.014769378           27 
 4250000   0.55629614   -7.7832626    814.47131  0.015970026  0.014764695           20 
 4251000   0.56070455    -7.790056    812.70843  0.015931711  0.014760015           14 
 4252000   0.58522525   -7.7692612    813.12179  0.015936065  0.014755329           14 
 4253000   0.57324705   -7.8067512    813.35248  0.015936838  0.014750654           12 
 4254000   0.58007301   -7.8129915    813.86574  0.015943146   0.01474598           13 
 4255000   0.57072271   -7.7959291    812.89571  0.015920402  0.014741303           10 
 4256000   0.57817585   -7.7899643    812.40002  0.015906955  0.014736631           13 
 4257000   0.57770746   -7.7877989     812.9729  0.015914433  0.014731963           11 
 4258000   0.57186258   -7.7929322    811.85902  0.015888896  0.014727283           12 
 4259000   0.56948136   -7.7969996    812.85414  0.015904636  0.014722607            9 
 4260000   0.56800202   -7.7821982    812.62752  0.015896469  0.014717932           11 
 4261000   0.56605563   -7.7831009    813.09225  0.015901828  0.014713264            9 
 4262000   0.58006224   -7.7817253    812.91409  0.015894613  0.014708603            6 
 4263000   0.56491249    -7.791526    812.56745  0.015884108  0.014703945           10 
 4264000   0.59306962   -7.7839089    812.26365  0.015874446  0.014699286           11 
 4265000   0.57328991   -7.7956326    811.13536  0.015848678  0.014694623           17 
 4266000   0.56849354   -7.7853914     812.8364  0.015878192  0.014689971            9 
 4267000   0.56537237   -7.7802341    812.59111   0.01586968  0.014685318            9 
 4268000    0.5654502   -7.7899995    811.30267  0.015840805  0.014680665           14 
 4269000   0.56661747    -7.775507    812.42463  0.015858996  0.014676017           15 
 4270000   0.57612703    -7.795751    813.59653  0.015878152  0.014671367           19 
 4271000   0.56744591   -7.7722121    813.46172  0.015871804  0.014666725           12 
 4272000   0.57262447   -7.7986249     812.4688   0.01584872  0.014662079           15 
 4273000   0.56674664   -7.7939364    812.74603  0.015850418  0.014657446           18 
 4274000   0.56716525   -7.7973144    812.22327  0.015836517  0.014652802            8 
 4275000   0.57399083   -7.7921347    812.40436  0.015836342  0.014648163           10 
 4276000     0.560874    -7.781227    813.23331  0.015848794  0.014643522           11 
 4277000   0.56634059   -7.7967403     813.3528  0.015847416  0.014638884            7 
 4278000   0.56270791   -7.7963447    811.95309  0.015816446  0.014634248           18 
 4279000   0.55855794    -7.819324    812.97642  0.015832679  0.014629615           10 
 4280000   0.57051052   -7.7959998    814.03977  0.015849684  0.014624987           13 
 4281000    0.5608507   -7.7830412    812.12449  0.015808699  0.014620355           10 
 4282000   0.58885771   -7.8075198     813.1251   0.01582448  0.014615716            8 
 4283000   0.57801068   -7.7832138    812.10737  0.015800984  0.014611086           20 
 4284000   0.57124258   -7.8026903    811.82568  0.015791816  0.014606449           12 
 4285000   0.56471382   -7.8228966    812.09768  0.015793421  0.014601814           23 
 4286000   0.57145369   -7.8000328    812.84562  0.015804278  0.014597179            9 
 4287000   0.55340102   -7.8139076    814.12377  0.015825437   0.01459255           12 
 4288000    0.5623565   -7.8145588    812.20927   0.01578454  0.014587926           13 
 4289000   0.56462608   -7.8071976    812.37815  0.015784141  0.014583298           14 
 4290000   0.57736266    -7.798442    812.68173  0.015786358  0.014578679           12 
 4291000   0.55669128   -7.8084272    811.89656  0.015767431  0.014574054           24 
 4292000   0.55249821   -7.7935727    812.26816  0.015770972  0.014569428           11 
 4293000   0.57040525   -7.8030123    810.99681   0.01574262  0.014564809           15 
 4294000   0.57043815   -7.8156948     812.3921  0.015766032  0.014560188           14 
 4295000   0.56331263   -7.8163142     812.0889  0.015756479   0.01455557           19 
 4296000   0.57553958   -7.8210408    812.42579  0.015759346   0.01455096           13 
 4297000   0.56601495   -7.8119275    811.46992  0.015737141  0.014546344           17 
 4298000   0.56306693   -7.8199998    811.53521  0.015734745   0.01454173           13 
 4299000    0.5615306   -7.8052952    812.34924  0.015746864  0.014537119           10 
 4300000   0.55685723    -7.821806    811.65739  0.015729794  0.014532514           17 
 4301000   0.56985156   -7.8259504    813.54523  0.015762715  0.014527899           16 
 4302000   0.55569293   -7.8309274    813.42471  0.015756716  0.014523293           20 
 4303000   0.55817702   -7.8221983    811.64005  0.015718492  0.014518687           14 
 4304000   0.56311941   -7.8224247    812.97398  0.015740667  0.014514083           18 
 4305000   0.56882377   -7.8124155    811.45284  0.015707566  0.014509477           29 
 4306000   0.56141521   -7.8238658    811.39438  0.015702786  0.014504874           10 
 4307000   0.55780098   -7.8120228     813.2207  0.015734477  0.014500273           14 
 4308000   0.56658914   -7.8321139    811.81797   0.01570369   0.01449568           16 
 4309000   0.56598019   -7.8288621    811.97298  0.015703044   0.01449109           18 
 4310000   0.57544375   -7.8152535    811.44956   0.01568928   0.01448649           31 
 4311000   0.57399153   -7.8086029    812.78972  0.015711546   0.01448189           19 
 4312000   0.56806783   -7.8194816    812.55513  0.015703369  0.014477297           16 
 4313000   0.56484798   -7.8078101    812.40344  0.015696797  0.014472702           17 
 4314000   0.56817571   -7.8273337    811.55057  0.015676684  0.014468109           26 
 4315000    0.5613774    -7.810196     812.4906  0.015691205  0.014463523           14 
 4316000   0.55809687   -7.8330067    811.69379  0.015672185  0.014458937           12 
 4317000   0.55953354   -7.8103944    813.43481  0.015702162  0.014454351           18 
 4318000   0.55297389   -7.8238496     811.5117  0.015661412  0.014449769           20 
 4319000   0.54609283   -7.8195446    810.77009  0.015643476   0.01444518           12 
 4320000   0.55108238   -7.8157178    811.84907  0.015660669  0.014440599           10 
 4321000   0.54922625   -7.7983727    811.54684  0.015651216  0.014436016           35 
 4322000   0.55371926   -7.8337452    812.38408  0.015663737  0.014431437           17 
 4323000   0.55091527   -7.8251105    812.39098  0.015660247  0.014426858           20 
 4324000   0.55562556   -7.8272059     811.7453  0.015644182  0.014422279           18 
 4325000   0.55637894    -7.815547    811.89082  0.015643368   0.01441771           16 
 4326000   0.55693991   -7.8274441    810.07848  0.015604841  0.014413134           14 
 4327000   0.57329775   -7.8337809    812.64547  0.015650671  0.014408563           20 
 4328000   0.56184573     -7.82601    810.52491  0.015606225  0.014403998           18 
 4329000   0.53406332   -7.8280573    812.01026  0.015631213  0.014399431           16 
 4330000    0.5520871    -7.814764    811.78179  0.015623206  0.014394858           24 
 4331000   0.56551886   -7.8289519    811.77608  0.015619489  0.014390295           20 
 4332000    0.5498343   -7.8273841    811.87787  0.015617841  0.014385728           10 
 4333000   0.55353565   -7.8189496    812.14056  0.015619289  0.014381167           15 
 4334000   0.55630265   -7.8329086    811.71146  0.015607435  0.014376604           14 
 4335000   0.56812655   -7.8200247    812.29359  0.015615025  0.014372041           12 
 4336000   0.56380898   -7.8406929    810.75306  0.015581816  0.014367482           13 
 4337000     0.554091   -7.8222508    812.12291  0.015604544  0.014362923           11 
 4338000   0.54751491   -7.8321114    811.33608  0.015585832   0.01435836           18 
 4339000   0.55391023   -7.8367345    812.88039    0.0156119  0.014353801           16 
 4340000   0.55230518   -7.8346667    810.68611   0.01556617  0.014349242           22 
 4341000   0.55153772   -7.8293663    811.56746  0.015579503  0.014344685           22 
 4342000    0.5592692   -7.8421812    812.27647  0.015589522  0.014340126           19 
 4343000    0.5575656   -7.8277148    811.91191  0.015578938  0.014335575           10 
 4344000    0.5545927   -7.8293168    810.64227  0.015550995  0.014331021           22 
 4345000   0.54628017   -7.8259192    811.27443   0.01555954  0.014326467           16 
 4346000   0.56041597   -7.8393367    811.49527  0.015560195  0.014321918           15 
 4347000   0.56285938   -7.8473178    812.92923  0.015584105  0.014317373           11 
 4348000    0.5494445   -7.8404486    811.56866  0.015554444   0.01431282           27 
 4349000   0.54764208   -7.8160616    810.87248  0.015537527  0.014308271           23 
 4350000   0.55520706   -7.8336565    811.76121  0.015550981  0.014303723           24 
 4351000   0.57310855   -7.8398607     811.0894   0.01553454  0.014299178           18 
 4352000   0.56346451   -7.8235524    811.53544  0.015539511  0.014294629           22 
 4353000   0.56780165   -7.8083979    811.09457  0.015527501  0.014290087           13 
 4354000   0.56593828   -7.8344685    811.51733  0.015532027   0.01428555           18 
 4355000   0.54548882   -7.8276902    812.46686   0.01554663   0.01428101           20 
 4356000   0.55477605   -7.8581318    811.80013  0.015530306   0.01427647           14 
 4357000   0.54796926   -7.8269049    810.69945  0.015505689  0.014271934           30 
 4358000   0.56273979   -7.8529996    812.22504  0.015531303  0.014267399           19 
 4359000   0.55867844   -7.8475394    812.62441  0.015535375   0.01426286           24 
 4360000   0.56292119   -7.8325108    809.90231  0.015479784  0.014258326           28 
 4361000   0.54583033    -7.831081    809.61849  0.015470811  0.014253796           23 
 4362000   0.54919539   -7.8295212    812.33587  0.015519178  0.014249265           17 
 4363000   0.55114565   -7.8344933      810.821  0.015486687  0.014244735           38 
 4364000   0.56217888   -7.8255596    811.79353   0.01550171  0.014240205           19 
 4365000   0.55242311   -7.8513902    810.97308  0.015482495   0.01423568           24 
 4366000   0.56098784   -7.8295411    811.69836  0.015492792  0.014231155           18 
 4367000   0.55496579   -7.8193455    811.34598   0.01548252  0.014226641           18 
 4368000   0.55425598    -7.832934    811.74156  0.015486522  0.014222122           28 
 4369000   0.54818741   -7.8483996    811.68493  0.015481898  0.014217612           14 
 4370000   0.55288947   -7.8331679    810.60717  0.015457803  0.014213097           21 
 4371000   0.54302154   -7.8221735    811.11572  0.015463962  0.014208587           25 
 4372000   0.54487703   -7.8301242    811.85306  0.015474479  0.014204074           13 
 4373000   0.56089443   -7.8542117    810.89133  0.015452613  0.014199558           22 
 4374000   0.53731361   -7.8544492    809.57732  0.015424046  0.014195048           19 
 4375000   0.55890939   -7.8401964    810.33015   0.01543486  0.014190533           41 
 4376000    0.5658773   -7.8520486    811.78216  0.015458984  0.014186027           20 
 4377000   0.55693649   -7.8248519    812.41298  0.015467462  0.014181521           25 
 4378000   0.55614647   -7.8426462    810.18601   0.01542154  0.014177014           44 
 4379000   0.54673022   -7.8359765    810.17361  0.015417782   0.01417251           17 
 4380000   0.56285709   -7.8200933    810.98545  0.015429708   0.01416801           13 
 4381000   0.54247212   -7.8475243    811.34539  0.015433033  0.014163508           34 
 4382000   0.54297653   -7.8390347    810.64988  0.015416284  0.014159013           28 
 4383000   0.55956381   -7.8320591    810.84545  0.015416485  0.014154519           16 
 4384000   0.55148122   -7.8357819    812.27456  0.015440134  0.014150013           25 
 4385000   0.53877092   -7.8386297    811.45134  0.015420968  0.014145517           30 
 4386000   0.54717101   -7.8489382    810.89625  0.015406906  0.014141026           18 
 4387000   0.53579842   -7.8386878    811.25877   0.01541028  0.014136528           27 
 4388000   0.55356329   -7.8243065    810.09062  0.015384583  0.014132033           39 
 4389000   0.52975296    -7.842274    811.29581  0.015403961  0.014127548           24 
 4390000     0.549059   -7.8434621    810.30838  0.015381708  0.014123064           21 
 4391000    0.5487095   -7.8557802      811.123  0.015393665  0.014118574           14 
 4392000   0.54418676   -7.8476918    811.28533   0.01539324  0.014114086           27 
 4393000    0.5504169    -7.861099    810.62572  0.015377224  0.014109602           25 
 4394000   0.54093228   -7.8449152    810.89823  0.015378892  0.014105119           27 
 4395000   0.54309394   -7.8387987    811.58114  0.015388342  0.014100637           18 
 4396000    0.5534794    -7.846324     810.5582   0.01536545  0.014096154           14 
 4397000   0.54431304   -7.8391171     811.0712  0.015371678  0.014091679           30 
 4398000   0.55065607   -7.8423517    811.67677  0.015379657  0.014087207           24 
 4399000   0.55461377   -7.8323203     811.2424  0.015367932  0.014082735           36 
 4400000   0.54697076   -7.8512297    811.65501  0.015372254  0.014078267           24 
 4401000   0.54840546   -7.8266956    810.52717  0.015347405  0.014073793           14 
 4402000   0.54032584   -7.8525645    810.40217  0.015341553  0.014069325           29 
 4403000   0.55620101   -7.8608283    811.28175  0.015354715  0.014064851           15 
 4404000   0.54070988   -7.8468366    812.20494  0.015368698  0.014060383           20 
 4405000   0.56078227   -7.8525959    810.96384   0.01534173  0.014055922           16 
 4406000    0.5385862   -7.8445433    810.75657  0.015334328  0.014051458           20 
 4407000    0.5465476    -7.861377    811.69275  0.015348551     0.014047           35 
 4408000   0.54760848   -7.8342955    810.90377  0.015330153   0.01404254           27 
 4409000    0.5375351   -7.8410107    809.79263  0.015305675   0.01403808           28 
 4410000   0.54556287   -7.8275062    810.70532  0.015319451  0.014033621           24 
 4411000    0.5322688   -7.8599396    811.33038  0.015327786  0.014029161           25 
 4412000   0.55206997   -7.8477818    810.82745  0.015314813  0.014024706           20 
 4413000   0.54902934    -7.856178    810.69001  0.015308747  0.014020251           29 
 4414000    0.5437318   -7.8537167    812.25461  0.015334817    0.0140158           18 
 4415000   0.54437459   -7.8581299    811.83551  0.015323434  0.014011349           32 
 4416000   0.54395192   -7.8402816    810.65347  0.015297657  0.014006907           34 
 4417000   0.54460576   -7.8318379    811.40277  0.015308331   0.01400246           29 
 4418000   0.55172427   -7.8278275    810.83328  0.015294124  0.013998024           27 
 4419000   0.53808434   -7.8301725    810.23744  0.015279427  0.013993587           25 
 4420000   0.55104371   -7.8278765     809.6135  0.015264206  0.013989149           18 
 4421000   0.54735871   -7.8617382    810.50771  0.015277609   0.01398471           25 
 4422000    0.5490771   -7.8559231    811.27148  0.015288547  0.013980277           42 
 4423000   0.54763297   -7.8451983    810.93871  0.015278821  0.013975845           42 
 4424000   0.55327398   -7.8398595    812.01748  0.015295688  0.013971411           30 
 4425000   0.54015693   -7.8410939    811.82451  0.015288597   0.01396698           32 
 4426000   0.53683156   -7.8546819    810.77483  0.015265379   0.01396255           32 
 4427000   0.55168526   -7.8399285    810.28113  0.015252638  0.013958122           32 
 4428000    0.5523778   -7.8376478    810.27402  0.015249059  0.013953698           19 
 4429000   0.54701104   -7.8422282    812.32606  0.015284226  0.013949274           34 
 4430000   0.53479838   -7.8496624    811.44917  0.015264281  0.013944852           30 
 4431000   0.53797885   -7.8438881    812.18373  0.015274651  0.013940431           31 
 4432000   0.54289898   -7.8448528    811.80442  0.015264072  0.013936008           21 
 4433000   0.53778368   -7.8550324    812.27183  0.015269416  0.013931589           20 
 4434000   0.53560192   -7.8381389    812.06366  0.015262059  0.013927173           25 
 4435000   0.54043244   -7.8564798     810.2396  0.015224344  0.013922754           34 
 4436000   0.53660635   -7.8567629    811.45485  0.015243742  0.013918339           28 
 4437000   0.54902707   -7.8680978    810.07397  0.015214371  0.013913929           21 
 4438000   0.53539598   -7.8760582    811.31419  0.015234231  0.013909517           18 
 4439000   0.53439855   -7.8623446    811.47176  0.015233757  0.013905102           32 
 4440000   0.55101908   -7.8472702    811.38216  0.015228644  0.013900688           30 
 4441000   0.53353375   -7.8443341    809.58514  0.015191495  0.013896276           22 
 4442000   0.53812273   -7.8500807    811.12223  0.015216911  0.013891866           28 
 4443000   0.53766287   -7.8673457    810.50643  0.015201936  0.013887455           20 
 4444000   0.55767459   -7.8664384    811.26375  0.015212716  0.013883047           22 
 4445000   0.53754921   -7.8605715    810.46192  0.015194262  0.013878643           25 
 4446000   0.53573015   -7.8632219    809.67009  0.015176003  0.013874237           27 
 4447000   0.53483483   -7.8709814    810.08129  0.015180296  0.013869834           35 
 4448000   0.55432052   -7.8610575    812.30896  0.015218618  0.013865435           20 
 4449000   0.54082217   -7.8547378    810.07204  0.015173298  0.013861037           30 
 4450000   0.53437529   -7.8213374    810.84938  0.015184445  0.013856648           18 
 4451000   0.53359049   -7.8387125     811.8473  0.015199717  0.013852261           28 
 4452000   0.53376609   -7.8349591    809.89919  0.015159838  0.013847871           33 
 4453000   0.54544831   -7.8489279     811.2332  0.015181398  0.013843483           29 
 4454000   0.53292594   -7.8788082    810.18244   0.01515833  0.013839092           30 
 4455000   0.54152581   -7.8524248    810.88904  0.015168145  0.013834702           21 
 4456000   0.55120741   -7.8664905     809.6862  0.015142246  0.013830312           19 
 4457000   0.53904086   -7.8557986    810.05119  0.015145673  0.013825922           18 
 4458000   0.54127348   -7.8530873    809.95431  0.015140465  0.013821532           29 
 4459000   0.55008522   -7.8637211    811.55172  0.015166923  0.013817147           30 
 4460000   0.52609772   -7.8503362    810.93746  0.015152045  0.013812764           23 
 4461000   0.54432248   -7.8621852    809.53202  0.015122395   0.01380838           42 
 4462000     0.534081   -7.8658491    810.72766  0.015141335  0.013803993           37 
 4463000   0.54724488   -7.8702996    811.00142  0.015143054  0.013799613           31 
 4464000   0.53935246   -7.8665763     810.2403  0.015125454  0.013795232           31 
 4465000   0.52908586   -7.8713033    810.10502  0.015119541  0.013790847           20 
 4466000   0.53152181   -7.8518529    808.64907  0.015088988  0.013786464           20 
 4467000   0.53075522   -7.8801315    811.70131  0.015142551  0.013782088           23 
 4468000   0.53963168   -7.8562225    810.12352  0.015109734  0.013777709           31 
 4469000   0.53866468   -7.8602908    809.31972  0.015091365  0.013773332           27 
 4470000   0.54823641    -7.858357    811.33482  0.015125556  0.013768963           24 
 4471000   0.54032244   -7.8504884    811.98089  0.015134215  0.013764594           29 
 4472000    0.5441237   -7.8460385    811.19799  0.015116242  0.013760235           25 
 4473000   0.52253586   -7.8493147    810.14349  0.015093216  0.013755868           25 
 4474000   0.53886894    -7.860919    809.30604  0.015074245  0.013751513           30 
 4475000   0.53559688   -7.8608165    810.89227  0.015100415  0.013747153           33 
 4476000   0.53912961   -7.8549462    810.48013  0.015089368   0.01374279           29 
 4477000   0.52294664   -7.8519085    809.99047  0.015076883  0.013738426           36 
 4478000   0.53445182   -7.8614814    808.90491  0.015053315  0.013734066           27 
 4479000   0.53500252   -7.8735885    809.08816  0.015053363  0.013729707           25 
 4480000   0.53167933   -7.8661785    810.06934  0.015068254  0.013725346           30 
 4481000   0.53203688    -7.876116    810.12367  0.015065902   0.01372099           24 
 4482000    0.5326096   -7.8634869    810.04256  0.015061032  0.013716632           28 
 4483000   0.54208206   -7.8777767    810.15694  0.015059799  0.013712281           31 
 4484000   0.54823059   -7.8677416    809.98479  0.015053241  0.013707926           29 
 4485000   0.52818113      -7.8483    810.20941  0.015054058   0.01370357           22 
 4486000   0.53944118   -7.8493958    810.00678  0.015046938   0.01369922           28 
 4487000   0.53651807   -7.8653377      810.769  0.015057741  0.013694872           28 
 4488000   0.54111249   -7.8691792    810.47106  0.015048854  0.013690523           27 
 4489000   0.53164892   -7.8612373    809.38637  0.015025365  0.013686178           32 
 4490000   0.52926025   -7.8640335    809.78211  0.015029364  0.013681832           13 
 4491000   0.52871203   -7.8683938    809.00264  0.015011554  0.013677491           21 
 4492000    0.5330954   -7.8614156    809.19876   0.01501185  0.013673147           21 
 4493000   0.54026575   -7.8766157    810.26482  0.015028281  0.013668802           20 
 4494000   0.54171658   -7.8457135    810.69138  0.015032847  0.013664467           12 
 4495000    0.5353335   -7.8608806    810.47278   0.01502545  0.013660132           22 
 4496000   0.53957533   -7.8611438      809.385  0.015001946  0.013655798           23 
 4497000   0.53735417   -7.8476977    809.84121  0.015007064  0.013651465           26 
 4498000   0.52813304   -7.8774217    809.42427  0.014996003  0.013647132           19 
 4499000   0.53544961   -7.8749248    810.27451  0.015008419  0.013642807           21 
 4500000   0.53061548   -7.8517249    809.62388  0.014993035  0.013638479           20 
 4501000   0.53253559   -7.8708556    811.07661    0.0150166  0.013634161           20 
 4502000   0.52501212    -7.866987    809.31948   0.01498074  0.013629841           16 
 4503000   0.52181855   -7.8783449    808.70346  0.014966013  0.013625516           13 
 4504000   0.52862453   -7.8541208    808.84025  0.014965221  0.013621196           21 
 4505000   0.52332047    -7.863901    809.63772   0.01497665  0.013616876           14 
 4506000   0.51942701   -7.8655059    809.47826  0.014970378  0.013612559           12 
 4507000   0.53293737   -7.8621008    812.44153  0.015021846  0.013608241           16 
 4508000   0.54033677   -7.8651166    810.22239  0.014977492  0.013603925           13 
 4509000   0.53056913   -7.8744677    810.05246  0.014971029  0.013599605           20 
 4510000   0.52984721   -7.8604482     810.1448  0.014969416   0.01359529           23 
 4511000   0.53758718   -7.8682066    809.75326  0.014958865  0.013590976           21 
 4512000   0.53803428   -7.8786732    809.33405  0.014947807  0.013586665           28 
 4513000   0.53407784   -7.8714779    808.66611  0.014932161  0.013582359           20 
 4514000   0.53029024   -7.8661559    809.55577  0.014945277  0.013578046           12 
 4515000    0.5327255   -7.8734349    810.17559  0.014953407  0.013573739           16 
 4516000   0.52981352   -7.8627901     808.8179  0.014925042  0.013569439           12 
 4517000   0.51552421   -7.8590043    809.13641  0.014927614  0.013565136           15 
 4518000    0.5199677   -7.8795462    810.92102  0.014957227  0.013560843            9 
 4519000   0.53947763   -7.8760856    809.72623  0.014931884  0.013556545           12 
 4520000   0.53416525   -7.8480344    811.44792  0.014960323  0.013552249           15 
 4521000   0.53170096   -7.8779948    809.50271  0.014921159  0.013547955           17 
 4522000   0.52435138   -7.8757828    809.99193  0.014926875  0.013543664           20 
 4523000   0.51402124   -7.8831585    810.21862  0.014927751  0.013539372           14 
 4524000   0.52165053   -7.8822962    809.51887  0.014911562  0.013535079           19 
 4525000   0.52569018   -7.8723455    808.92519  0.014897333  0.013530791           15 
 4526000   0.53213091   -7.8753216    809.17615  0.014898662  0.013526509           18 
 4527000   0.54261575   -7.8605903    808.32134  0.014879636  0.013522221           16 
 4528000   0.53120472   -7.8691585    810.08116  0.014908738  0.013517945           20 
 4529000   0.53665815   -7.8741626    809.77374  0.014899789  0.013513665           23 
 4530000   0.52489304   -7.8597746    810.89887  0.014917198  0.013509392           21 
 4531000   0.53629877   -7.8746598    810.41497  0.014905006  0.013505119           24 
 4532000   0.52094772   -7.8679039    809.62572  0.014887204  0.013500845           17 
 4533000   0.53655901   -7.8924561    809.02883  0.014872947  0.013496573           15 
 4534000   0.52902841   -7.8707817    810.34551  0.014893867  0.013492302           24 
 4535000   0.52642507    -7.893717    808.62795  0.014859022  0.013488027           19 
 4536000    0.5397617    -7.860331    809.54934  0.014872673   0.01348376           19 
 4537000   0.52782341   -7.8769997    809.13298  0.014861747  0.013479495           24 
 4538000   0.51808164   -7.8616644    810.27321  0.014879411  0.013475229           21 
 4539000   0.50971594   -7.8881254    810.44854  0.014879352  0.013470964           15 
 4540000   0.52253516   -7.8710931    810.03689  0.014868519  0.013466702           21 
 4541000    0.5391099    -7.885916    809.05134  0.014847158  0.013462442           19 
 4542000   0.52483653   -7.8930875    808.54228  0.014834549  0.013458175           21 
 4543000   0.53018519    -7.874901    809.90993  0.014856371  0.013453909           22 
 4544000   0.51536968   -7.8837821    809.75452  0.014850252  0.013449645           19 
 4545000    0.5228315   -7.8718928    810.06918  0.014852753  0.013445388           18 
 4546000   0.51684706   -7.8708547    810.78761  0.014862656  0.013441127           27 
 4547000   0.52481047   -7.8449025    811.31352  0.014869026  0.013436872           18 
 4548000   0.51474355   -7.8890191    807.40859  0.014794206  0.013432611           18 
 4549000   0.52337299   -7.8929336    811.85556  0.014872418  0.013428359           17 
 4550000    0.5285234   -7.8655386    809.61925  0.014828191  0.013424106           24 
 4551000   0.51834158   -7.8681936    809.98919  0.014831707  0.013419857           16 
 4552000   0.52534132   -7.8661216    809.87943  0.014826439  0.013415605           22 
 4553000   0.51855869    -7.875808    809.09292  0.014808788  0.013411362           16 
 4554000   0.52179437   -7.8696755    808.66825  0.014797765  0.013407119           19 
 4555000   0.52260221   -7.8861872    810.65809   0.01483092  0.013402883           15 
 4556000   0.52761987   -7.8640175    809.12441  0.014799612  0.013398638           28 
 4557000   0.51307075   -7.8896362    809.14248  0.014796695  0.013394397           23 
 4558000   0.51950757    -7.877617    809.09785  0.014792633  0.013390154           20 
 4559000   0.52361204   -7.8947976    809.83513  0.014802865  0.013385915           10 
 4560000    0.5203092   -7.8720721    809.51606  0.014793788  0.013381683           19 
 4561000   0.52839262   -7.8753902    809.03445  0.014781745  0.013377455           20 
 4562000   0.52170135   -7.8742639    810.06777   0.01479738  0.013373226           16 
 4563000   0.51822044   -7.8891616    809.07578  0.014776021     0.013369           15 
 4564000   0.52198143   -7.8747598    810.56927  0.014800052  0.013364774            9 
 4565000   0.51607837   -7.8713911    809.30885  0.014773802  0.013360548           16 
 4566000   0.52176476   -7.8701672    809.85053  0.014780452  0.013356325           23 
 4567000    0.5258312   -7.8688844    809.98354  0.014779643    0.0133521           17 
 4568000   0.51681147   -7.8819238    809.06218  0.014759599  0.013347877           15 
 4569000   0.51725888   -7.9026689    808.08689  0.014738581  0.013343647           10 
 4570000   0.52364204   -7.8852145    809.01119   0.01475221  0.013339422           19 
 4571000     0.524968   -7.8881096     810.8732  0.014782929    0.0133352           16 
 4572000   0.50723253   -7.8969357     811.0624  0.014783144  0.013330978            9 
 4573000   0.52366624   -7.8963779    808.37048  0.014730857  0.013326761           14 
 4574000   0.51167067   -7.8896779    809.01964  0.014739463  0.013322543           22 
 4575000   0.51071251   -7.8786727    809.37527  0.014742719  0.013318327           14 
 4576000   0.52293741   -7.8770386    809.64835   0.01474447  0.013314109           13 
 4577000   0.50897067   -7.9096295    809.92396  0.014746267  0.013309892           17 
 4578000   0.52483858   -7.8870897    809.25583  0.014730884  0.013305675           15 
 4579000   0.51676173   -7.8695273    808.90915  0.014721357   0.01330146           24 
 4580000   0.51461187    -7.904369     808.9271   0.01471847  0.013297247           21 
 4581000    0.5190022   -7.8910487    810.72173  0.014747903   0.01329304           11 
 4582000   0.52123583   -7.8820139    808.44241   0.01470323  0.013288834           14 
 4583000   0.51657248   -7.8979027    809.54427  0.014720057  0.013284622           32 
 4584000   0.52922036   -7.8969202    808.29204  0.014694082  0.013280417           21 
 4585000   0.51740804   -7.8848747    808.57893  0.014696091  0.013276212           14 
 4586000   0.52391341   -7.8936505    808.76244  0.014696221  0.013272013           17 
 4587000   0.52628312   -7.8907761    807.97545   0.01467872  0.013267812           12 
 4588000   0.52825269   -7.8800731      808.849  0.014691387  0.013263612           22 
 4589000   0.52220287   -7.8830535    809.69819  0.014703606  0.013259416           12 
 4590000   0.51944466   -7.8889541    808.95384  0.014686889   0.01325522           12 
 4591000   0.51605542   -7.8938589    808.90345  0.014682775  0.013251026           16 
 4592000   0.51222986   -7.8730843    807.21844  0.014648999  0.013246831           18 
 4593000      0.51609   -7.9068004    809.51818  0.014687535  0.013242643           16 
 4594000   0.51356686   -7.9005888    809.64149  0.014686575  0.013238452           25 
 4595000   0.51274647   -7.8895004    809.67863  0.014684052  0.013234263           19 
 4596000    0.5159977   -7.8974558    808.67698  0.014662695  0.013230079           29 
 4597000   0.51646648   -7.8991466    807.72419  0.014642234  0.013225898           22 
 4598000   0.51216831   -7.8786679    809.22173  0.014666191  0.013221716           14 
 4599000   0.51516566   -7.8827357    808.66968  0.014652998  0.013217538           11 
 4600000   0.51619366   -7.8878935    807.61717  0.014630746  0.013213359           18 
 4601000   0.51774156   -7.8955633    809.65348  0.014664448  0.013209179           20 
 4602000   0.51902913   -7.9022475    809.28652  0.014654616  0.013205003           19 
 4603000   0.50147312    -7.897964    809.10777  0.014648196  0.013200827            9 
 4604000   0.52183571   -7.8941806    810.10687  0.014663099  0.013196654           11 
 4605000   0.50001222   -7.9028175    808.91533  0.014638352  0.013192478           25 
 4606000   0.50231345   -7.8886889     809.0777  0.014638111  0.013188311           18 
 4607000   0.51686704   -7.8925233    808.44089  0.014623415  0.013184145           16 
 4608000   0.52126238   -7.8975294    808.74161   0.01462568  0.013179982            9 
 4609000   0.51741283   -7.9007419    809.54519  0.014637036  0.013175815           12 
 4610000   0.51110697   -7.8889167    808.45188  0.014614098  0.013171644           19 
 4611000   0.52827051   -7.9229645    808.26372  0.014607528  0.013167475           19 
 4612000   0.51239288   -7.8932419     807.8832  0.014597485  0.013163312           14 
 4613000   0.51582726   -7.8980173    808.43162  0.014604228  0.013159148           13 
 4614000    0.5180763   -7.8924719    808.22805  0.014597386  0.013154988            9 
 4615000   0.50729463   -7.8902304     807.6411  0.014583624   0.01315083            9 
 4616000   0.51342438   -7.9042641    807.90376  0.014585207   0.01314667           14 
 4617000   0.50990209   -7.8955747    809.02267  0.014602243  0.013142518            9 
 4618000   0.51572631   -7.9139253    808.32273   0.01458645  0.013138362            5 
 4619000   0.51080339   -7.9105485    808.47309  0.014586005  0.013134209           11 
 4620000   0.51787421   -7.8941255     807.8723  0.014572011  0.013130058           11 
 4621000   0.51843272   -7.9023032    808.66771  0.014583202   0.01312591            9 
 4622000   0.50987154   -7.8889023    808.48981  0.014576839   0.01312176           12 
 4623000   0.52289829   -7.8833122    808.40599  0.014572175  0.013117611           12 
 4624000   0.50834099   -7.8749068    808.77947  0.014575755  0.013113467           10 
 4625000   0.51752836   -7.9009652     810.0789  0.014596016  0.013109327           12 
 4626000   0.50827198   -7.8942429    808.90661  0.014571743  0.013105183           15 
 4627000   0.51325642    -7.883294    808.40557   0.01455957  0.013101038           11 
 4628000   0.51753487   -7.8891068    807.53081  0.014540673  0.013096898           11 
 4629000   0.50249272   -7.8986382    808.01268  0.014546206  0.013092758           17 
 4630000   0.50349711   -7.8952695    808.28904  0.014548039  0.013088622           12 
 4631000   0.51523804   -7.9125396    807.67991  0.014533936  0.013084484           12 
 4632000   0.49817872   -7.9052588    807.91861  0.014535093  0.013080346           22 
 4633000   0.51660237   -7.9129952    807.97619  0.014532991  0.013076214           21 
 4634000   0.52848696   -7.8868245    808.79853  0.014544643  0.013072087           26 
 4635000   0.49917824   -7.8823225    810.45769  0.014571336   0.01306796           15 
 4636000    0.5020634   -7.8972151    807.91773  0.014522536  0.013063831           15 
 4637000   0.51638557    -7.911126    808.59998  0.014531665  0.013059709           18 
 4638000   0.50480217    -7.916687     808.5477  0.014527593  0.013055589           18 
 4639000    0.5065016   -7.9013211    808.35029  0.014520915  0.013051466           10 
 4640000   0.50517923   -7.8915445    809.37053  0.014536109  0.013047343           23 
 4641000    0.5074537   -7.9039082     809.3148  0.014531976  0.013043225           14 
 4642000   0.50150342   -7.8925328    807.57003  0.014497523  0.013039105            9 
 4643000   0.50446949   -7.9015615    808.15158  0.014504839  0.013034991           25 
 4644000   0.50328853   -7.8917363    808.60437   0.01450984  0.013030877           18 
 4645000   0.51246972   -7.9042303    809.12672  0.014516088  0.013026761           11 
 4646000   0.51607835    -7.900716    808.81244  0.014507326  0.013022649           10 
 4647000   0.50103956   -7.8896701    807.84055  0.014486776  0.013018542           14 
 4648000   0.51807206   -7.9096196    807.86382  0.014484076  0.013014431           16 
 4649000   0.49563768   -7.8943348    809.41708  0.014508803  0.013010322           26 
 4650000   0.50962507   -7.9010598     809.2342  0.014502405  0.013006216           11 
 4651000   0.50895542   -7.9007131    807.91266  0.014475608  0.013002114           21 
 4652000   0.49698453   -7.9196044    808.97473  0.014491522  0.012998013           21 
 4653000   0.51001425   -7.9180741    809.62584  0.014500069  0.012993909            7 
 4654000   0.50302141   -7.8934684    808.57796   0.01447819   0.01298981           18 
 4655000   0.51227836   -7.9229391     808.8931  0.014480722  0.012985708            8 
 4656000   0.50695002   -7.9017475    807.99478  0.014461533  0.012981609           14 
 4657000   0.50338662   -7.9054567    807.88508  0.014456465  0.012977514            8 
 4658000   0.49541314   -7.9080949    807.59725  0.014448212  0.012973419           13 
 4659000   0.50586918   -7.8953472    808.63344  0.014463645   0.01296933           15 
 4660000    0.5108212   -7.9061598    807.51619  0.014440561  0.012965238           16 
 4661000    0.5021706   -7.9107476    808.53222  0.014455629  0.012961155           11 
 4662000   0.50301298   -7.9222339    807.76606  0.014438833  0.012957074            8 
 4663000   0.50110945   -7.9174747    809.29017  0.014462974  0.012952987           17 
 4664000   0.50887214   -7.9035395    808.41182  0.014444179  0.012948908           10 
 4665000   0.49400239    -7.915381    806.54079   0.01440766  0.012944826           13 
 4666000   0.49779141    -7.897356    808.80811  0.014445066  0.012940744           13 
 4667000   0.49943461   -7.9109425    808.25033  0.014432011  0.012936664           28 
 4668000   0.50611098   -7.9184325    808.82249  0.014439133  0.012932588           17 
 4669000   0.50291336   -7.9068636    807.81288  0.014418021  0.012928516           12 
 4670000   0.51857677   -7.8829468     806.9023  0.014398685  0.012924443           13 
 4671000   0.49098508   -7.9101064    807.74361  0.014410612  0.012920372           17 
 4672000   0.50638207   -7.8982364    810.16893  0.014450787  0.012916301           11 
 4673000   0.50442861   -7.8969577    807.44432  0.014399107  0.012912229            8 
 4674000   0.50778785    -7.908743    809.04942  0.014424644   0.01290816           19 
 4675000   0.49663511   -7.9168245    808.51058  0.014411953  0.012904086           18 
 4676000   0.51518749   -7.8937279    808.58981  0.014410283  0.012900017           17 
 4677000   0.51237941   -7.8951563    807.83807  0.014393808   0.01289595           10 
 4678000   0.50405891   -7.9253961    808.87506  0.014409204  0.012891886           13 
 4679000   0.49180222   -7.9171036    808.23607  0.014394744  0.012887823           12 
 4680000   0.49788019   -7.9152614    807.70758  0.014382257  0.012883765            9 
 4681000   0.49549651   -7.8983783    807.83291  0.014381416  0.012879705           20 
 4682000   0.50952511   -7.9078585    807.44634  0.014371464  0.012875644            9 
 4683000    0.5013003     -7.90498    808.44268  0.014386125  0.012871586           15 
 4684000   0.49490496   -7.9046624    807.96019   0.01437447   0.01286753           22 
 4685000    0.5122625   -7.9157555    808.26827  0.014376881  0.012863476           13 
 4686000   0.49175247   -7.9076887    809.44557   0.01439475   0.01285942           15 
 4687000   0.50310649   -7.9235678    806.98295  0.014347894  0.012855366           14 
 4688000   0.50600526   -7.8981417    806.76312  0.014340926  0.012851314           13 
 4689000   0.50597294   -7.9167059    808.22168  0.014363789  0.012847262            9 
 4690000   0.49846397   -7.9176405     808.4976  0.014365629  0.012843213           11 
 4691000   0.50762234   -7.9231276    808.09282  0.014355376  0.012839168           20 
 4692000   0.50316805   -7.9102238    806.66556  0.014326967  0.012835125           16 
 4693000     0.509409   -7.9290059    806.42073  0.014319567  0.012831082           10 
 4694000   0.48696284    -7.911174    808.17064  0.014347583  0.012827035           11 
 4695000   0.50569341   -7.9052488    809.08752  0.014360801  0.012822992           17 
 4696000   0.50679813    -7.927045    807.02665  0.014321171  0.012818952           14 
 4697000   0.50324547   -7.9331236    808.16481  0.014338315  0.012814912            7 
 4698000   0.49617034   -7.9260903      808.142  0.014334859  0.012810876           18 
 4699000   0.49833574   -7.9195262    808.70114  0.014341724  0.012806843            6 
 4700000   0.49425357   -7.9208282    807.56975  0.014318613   0.01280281           10 
 4701000    0.5075493   -7.9206779    808.07252  0.014324479  0.012798774            9 
 4702000   0.49525367   -7.9152355    807.89416  0.014318272  0.012794743           18 
 4703000   0.49484828   -7.9051213    807.06412  0.014300519  0.012790712           14 
 4704000   0.50359634   -7.9210374    807.49504  0.014305113  0.012786685           12 
 4705000   0.50610211   -7.9180111    808.41075  0.014318292  0.012782663           11 
 4706000   0.48982371    -7.918566    808.66268   0.01431971  0.012778639            9 
 4707000   0.50501188   -7.9261517    807.85493  0.014302367   0.01277462           10 
 4708000   0.49484543   -7.8998975    808.16804  0.014304872  0.012770598           16 
 4709000     0.495796    -7.921328     807.2151   0.01428497  0.012766579            7 
 4710000   0.49490317   -7.9080284     807.9958   0.01429575   0.01276256            9 
 4711000   0.50791198   -7.9261459    806.99244  0.014274967   0.01275854            7 
 4712000   0.50887747   -7.9158756    806.89212  0.014270163  0.012754521            9 
 4713000   0.50149884   -7.9155451    807.18724  0.014272354  0.012750507           11 
 4714000   0.49255567   -7.9411187    808.51301  0.014292763  0.012746489           11 
 4715000   0.49392885   -7.9169009    807.74315  0.014276125  0.012742477           11 
 4716000   0.50266746   -7.9278731    807.60958  0.014270738  0.012738459           10 
 4717000   0.49536469   -7.9208941    807.78246  0.014270766   0.01273445           14 
 4718000   0.49925925    -7.924725    808.10694  0.014273473  0.012730441            5 
 4719000   0.49102959   -7.9194989    806.84482   0.01424816  0.012726431           18 
 4720000   0.49328392   -7.9203823    807.90841   0.01426392  0.012722428           11 
 4721000   0.48053864   -7.9345105    808.16256  0.014265384  0.012718423           20 
 4722000   0.49744692   -7.9282848    807.23714  0.014246032  0.012714419            7 
 4723000   0.49560291    -7.922367    808.75753  0.014269841  0.012710417            5 
 4724000   0.49639396   -7.9369704     807.1419   0.01423832  0.012706414            9 
 4725000   0.49396656   -7.9289319    806.38368  0.014221934  0.012702411           13 
 4726000   0.49446019    -7.937542    806.76555  0.014225659   0.01269841            9 
 4727000   0.50411773   -7.9344593    808.62895  0.014255499  0.012694412            9 
 4728000   0.50000215   -7.9248618    806.91872  0.014222341  0.012690418           10 
 4729000   0.49599826   -7.9381656    808.10747  0.014240281  0.012686424           16 
 4730000   0.49379414   -7.9234363    806.47075  0.014208435  0.012682431           11 
 4731000   0.49019642   -7.9185531    806.69068  0.014209305  0.012678436           12 
 4732000   0.49498527   -7.9341241    807.31329  0.014217267  0.012674447           15 
 4733000   0.49999133   -7.9403306    806.56722  0.014201127  0.012670456           14 
 4734000    0.4908612   -7.9451499    807.26944  0.014210489  0.012666471            5 
 4735000   0.48821242   -7.9348325    806.88139  0.014200658  0.012662487            8 
 4736000    0.4911983   -7.9312985    807.12389  0.014201926  0.012658504            9 
 4737000   0.48723577   -7.9364861    807.01042  0.014196932  0.012654522           17 
 4738000   0.48111745   -7.9359137    808.03191  0.014211902  0.012650539            7 
 4739000   0.49845164   -7.9281962    807.21768  0.014194585  0.012646561           10 
 4740000   0.50380678   -7.9284932    807.72996  0.014200597  0.012642584           13 
 4741000   0.48387956   -7.9269497    806.86991  0.014182485  0.012638607           16 
 4742000   0.49841701    -7.928103    807.96835  0.014198797  0.012634634           13 
 4743000   0.48657353   -7.9416796    807.73035  0.014191622  0.012630657            5 
 4744000   0.49915085   -7.9136335    807.64641  0.014187156  0.012626686            9 
 4745000   0.49995752   -7.9342642      806.999  0.014172796  0.012622713           10 
 4746000   0.48949618   -7.9406038    806.14664  0.014154843  0.012618741           16 
 4747000   0.49606988   -7.9131841     806.6768  0.014161169  0.012614769           11 
 4748000    0.4854983   -7.9469501    807.44357  0.014171644  0.012610798           13 
 4749000   0.49361231   -7.9278903    807.36926  0.014167356  0.012606827            9 
 4750000   0.49355918   -7.9318332      806.949     0.014157  0.012602857           17 
 4751000    0.5039401   -7.9362146     805.8995  0.014135612  0.012598886           15 
 4752000   0.49538785   -7.9458745    807.44602  0.014159758  0.012594919           17 
 4753000   0.48194678   -7.9414319    807.62484  0.014159914  0.012590953            7 
 4754000    0.5006469   -7.9323848    807.40386  0.014153062  0.012586993           10 
 4755000   0.48323333    -7.953602     808.0345  0.014161137   0.01258303           15 
 4756000   0.49021292   -7.9382356    806.99639   0.01413997  0.012579069           13 
 4757000   0.48627627   -7.9536853    806.32314  0.014125204  0.012575109           11 
 4758000   0.49570423   -7.9328697     806.8855  0.014132085   0.01257115           15 
 4759000   0.48684136   -7.9466262    806.22834  0.014117608  0.012567193           16 
 4760000   0.48499306   -7.9180891    807.10319  0.014129958  0.012563237           17 
 4761000   0.49137169   -7.9295919    807.37954  0.014131827  0.012559285            5 
 4762000   0.49044862   -7.9021802    807.84919  0.014137078  0.012555339           16 
 4763000   0.48923228   -7.9213231     806.9456  0.014118301   0.01255139           14 
 4764000   0.48844987   -7.9136393    805.14973  0.014083923  0.012547441           10 
 4765000    0.4915263    -7.937742    807.30334  0.014118631  0.012543498           10 
 4766000   0.48178166   -7.9263894      807.654    0.0141218  0.012539556           10 
 4767000   0.48852968   -7.9396543    807.50563  0.014116244  0.012535615            8 
 4768000   0.49694997   -7.9419794    806.77071  0.014100439  0.012531677           12 
 4769000   0.49813894   -7.9429996    806.74837  0.014097092  0.012527736           11 
 4770000    0.4904437   -7.9528754    807.08466  0.014100011  0.012523802           10 
 4771000   0.48983222   -7.9237949    806.04601  0.014078914  0.012519866            9 
 4772000   0.47723595   -7.9395595    807.17889  0.014095748  0.012515933           14 
 4773000    0.4881109   -7.9517129    807.21433  0.014093413  0.012511997           14 
 4774000   0.49349908   -7.9474474    807.59299  0.014097071  0.012508063            7 
 4775000   0.48776868   -7.9388264    806.77287  0.014079806  0.012504131           13 
 4776000   0.49397615   -7.9502586    808.95328  0.014114902  0.012500203           18 
 4777000   0.49116032   -7.9395008    806.72345  0.014073049   0.01249628           17 
 4778000   0.48350445   -7.9428537    806.86353  0.014072547  0.012492355           13 
 4779000   0.49300552    -7.954668    807.44513  0.014079744  0.012488426           14 
 4780000   0.48011978    -7.953106    807.10795   0.01407092  0.012484504           11 
 4781000   0.49163601   -7.9488002    808.24688  0.014087828   0.01248058            8 
 4782000   0.48656128    -7.924379    806.89357  0.014061299  0.012476654           12 
 4783000   0.48078864     -7.94864    805.71919  0.014037898  0.012472734           11 
 4784000   0.48331454   -7.9453072    807.11767  0.014059324  0.012468815            8 
 4785000   0.47878677   -7.9355218    805.75222  0.014032606  0.012464893            9 
 4786000   0.49075001   -7.9508036    807.17592  0.014054463   0.01246098           16 
 4787000   0.47588464   -7.9391369    808.52304  0.014074978  0.012457067            6 
 4788000   0.47965238   -7.9479071    807.40614  0.014052599   0.01245315           11 
 4789000   0.49181626   -7.9557531     806.3865  0.014031922   0.01244924            9 
 4790000   0.48688521   -7.9383278    806.48464    0.0140307  0.012445329           10 
 4791000   0.48839447   -7.9417936    807.63239  0.014047735  0.012441417           10 
 4792000    0.4891698   -7.9493688    807.10403  0.014035615   0.01243751           12 
 4793000   0.48949307   -7.9399798    806.10317  0.014015286  0.012433606           10 
 4794000   0.47356689   -7.9548868     805.8953  0.014008749    0.0124297            8 
 4795000   0.48090455   -7.9465468    806.77614  0.014021135  0.012425796           12 
 4796000   0.48369722     -7.95712    806.04851  0.014005569   0.01242189            8 
 4797000   0.48944796   -7.9591658    807.24972  0.014023517  0.012417989           12 
 4798000   0.48065598   -7.9506727    806.15368  0.014001558  0.012414087            9 
 4799000   0.47804802   -7.9538367    805.73792   0.01399142   0.01241019            6 
 4800000   0.48293963   -7.9511937    806.79084  0.014006785  0.012406292            9 
 4801000   0.48036389   -7.9539713    806.89951  0.014005754  0.012402397            9 
 4802000   0.47347759   -7.9599922    805.07238   0.01397113  0.012398505           11 
 4803000   0.48092209   -7.9554349    807.34279  0.014007613  0.012394614            7 
 4804000   0.47900935   -7.9463705    806.82317  0.013995684  0.012390722           14 
 4805000   0.48490665   -7.9402512    807.59127  0.014006092  0.012386835           12 
 4806000   0.47794233   -7.9479244    806.32132  0.013981158  0.012382949            8 
 4807000   0.49198606   -7.9660184    805.94388  0.013971706  0.012379065            7 
 4808000   0.48653336   -7.9367107    806.41157  0.013976906  0.012375179           10 
 4809000   0.48172208   -7.9761194    806.49882  0.013975512  0.012371298           13 
 4810000   0.47283781   -7.9536531    805.15367  0.013949301  0.012367417           14 
 4811000   0.48361347   -7.9706905    806.00085  0.013961076  0.012363539           11 
 4812000   0.47938535   -7.9498056    806.26522  0.013962753  0.012359662           10 
 4813000   0.48805933   -7.9569217    807.31001  0.013977942  0.012355788           12 
 4814000   0.48341399   -7.9503531    807.06718  0.013970835  0.012351913            6 
 4815000   0.48373089   -7.9675091     807.3197  0.013972304  0.012348044           12 
 4816000   0.47270441   -7.9531016    807.02864  0.013964366   0.01234417           11 
 4817000   0.48463014   -7.9605582     807.3582  0.013967168  0.012340298            9 
 4818000   0.47908779   -7.9475716    806.76759  0.013954054  0.012336425            7 
 4819000   0.48162601   -7.9529285    807.01213  0.013955387  0.012332557           14 
 4820000   0.47101638   -7.9506733    805.68253  0.013929504  0.012328689           12 
 4821000   0.47848305   -7.9612684    806.33311  0.013937861  0.012324821            7 
 4822000   0.49140167    -7.935179    806.93506  0.013945373   0.01232096           11 
 4823000   0.48241544   -7.9524289    806.79286  0.013940025    0.0123171           12 
 4824000   0.48508126   -7.9357517    807.17286  0.013943699  0.012313243           15 
 4825000   0.47451148   -7.9685649    806.45561  0.013928422  0.012309386           22 
 4826000   0.47386697   -7.9666273     807.3913  0.013941693  0.012305528           12 
 4827000   0.47630251   -7.9493111    806.41376  0.013921928  0.012301672            8 
 4828000   0.47991146   -7.9502343    806.67579  0.013923567  0.012297821           14 
 4829000   0.47380134   -7.9455942    807.31023  0.013931632  0.012293965           10 
 4830000   0.47411548   -7.9569374    807.20233  0.013926886   0.01229011           15 
 4831000    0.4744229   -7.9488855    806.25359  0.013907638  0.012286259            9 
 4832000   0.47851281   -7.9579358    806.21103  0.013904026  0.012282411           12 
 4833000   0.47689699    -7.952442    805.58363  0.013890331  0.012278563            9 
 4834000   0.48690498   -7.9713322    807.53292  0.013921061  0.012274719            9 
 4835000   0.47877393   -7.9492764     807.5143  0.013917861  0.012270876           10 
 4836000   0.48069844   -7.9617923    806.80759  0.013902805  0.012267035           15 
 4837000    0.4705877    -7.936841    807.70005  0.013915306  0.012263193           21 
 4838000   0.49181583   -7.9517334    806.85391  0.013897856  0.012259354           18 
 4839000   0.46603003   -7.9550307    804.84592  0.013860404  0.012255511           22 
 4840000   0.46724525   -7.9556613    806.63736  0.013888384  0.012251674            8 
 4841000   0.47044203   -7.9736663    806.00475  0.013874626  0.012247839           20 
 4842000   0.48701583   -7.9693555    806.76384  0.013884825  0.012244006           12 
 4843000   0.47354881   -7.9616025    806.12895  0.013871033  0.012240174            8 
 4844000   0.48600117   -7.9493872    806.88946  0.013881253  0.012236343           18 
 4845000   0.48746477   -7.9571632    805.44481   0.01385354  0.012232517           12 
 4846000   0.47398209   -7.9354455    805.81707  0.013857083  0.012228692            7 
 4847000    0.4750223   -7.9542483    804.74043  0.013835713  0.012224863           13 
 4848000   0.49069668   -7.9671897    806.97151   0.01387121  0.012221037            5 
 4849000   0.47229967   -7.9683623    807.89674   0.01388425  0.012217213           10 
 4850000    0.4736051   -7.9592396    805.06564  0.013832743  0.012213391            6 
 4851000   0.48162816   -7.9538847    806.21873    0.0138497  0.012209569            9 
 4852000   0.47891553   -7.9659953    807.44623  0.013867928  0.012205751            7 
 4853000   0.48064492   -7.9568855    806.75227  0.013853154  0.012201929           11 
 4854000   0.47479697   -7.9717107    806.71071  0.013849586  0.012198111           19 
 4855000   0.47252383   -7.9394272    806.58135  0.013844513  0.012194296           11 
 4856000   0.47583912   -7.9594983    806.39988  0.013838548   0.01219048           22 
 4857000   0.47041916   -7.9598271    806.79922  0.013842551  0.012186667            9 
 4858000   0.47578877   -7.9762138    806.89886   0.01384141  0.012182858           19 
 4859000   0.47997551   -7.9558262    806.57081  0.013832936   0.01217905           18 
 4860000   0.48167234   -7.9594962    805.90407  0.013818657  0.012175242            9 
 4861000   0.48374826   -7.9653313    806.57875   0.01382738  0.012171437           12 
 4862000     0.470536   -7.9543901    806.59916  0.013824886  0.012167631           10 
 4863000   0.46547059    -7.949969    806.56723  0.013821496  0.012163826           11 
 4864000   0.46846732   -7.9513029    806.38941  0.013815608  0.012160023           10 
 4865000   0.46754545   -7.9556525    806.84555  0.013820581  0.012156221           15 
 4866000   0.47791614   -7.9525835    807.06849  0.013821559   0.01215242            9 
 4867000   0.45808391   -7.9611032     805.8292    0.0137975  0.012148623           14 
 4868000   0.46599414   -7.9519108    805.94059  0.013796573  0.012144827           13 
 4869000   0.49199199   -7.9634238    807.47915  0.013820072  0.012141035           24 
 4870000   0.47137815   -7.9684192    805.93949  0.013790888   0.01213724           31 
 4871000   0.47038758   -7.9787765    806.84774  0.013803595  0.012133449           24 
 4872000   0.46310451   -7.9603033    806.65984  0.013797548   0.01212966           28 
 4873000   0.47495902   -7.9547848    805.86239  0.013781079  0.012125866           16 
 4874000   0.46398659   -7.9462673    806.56709    0.0137903  0.012122077           16 
 4875000   0.46482638   -7.9515088    806.44878  0.013785449  0.012118287           13 
 4876000   0.47097233   -7.9708478    806.76055   0.01378795  0.012114507           17 
 4877000   0.47436056   -7.9662298    805.65403  0.013766216  0.012110724           17 
 4878000    0.4704941   -7.9656008     806.4623  0.013777202   0.01210694           18 
 4879000   0.48042783   -7.9605893    806.72797  0.013778916  0.012103159           19 
 4880000   0.46854864   -7.9726823    805.39972   0.01375341  0.012099379           17 
 4881000   0.47598003   -7.9728313    805.42488  0.013751022    0.0120956           18 
 4882000   0.46981737   -7.9649412     806.2717   0.01376266   0.01209182           15 
 4883000   0.46563705   -7.9629808     806.1361  0.013757528  0.012088044           15 
 4884000   0.46515945   -7.9679759    806.64992  0.013763478  0.012084268           21 
 4885000    0.4663218   -7.9657357    806.71475  0.013761767  0.012080494           16 
 4886000   0.47583124   -7.9631083    805.91289  0.013745274  0.012076719           20 
 4887000   0.47507059   -7.9547074    805.45956  0.013734731  0.012072946           17 
 4888000   0.45889294   -7.9752317    805.93396  0.013740009  0.012069177           14 
 4889000   0.46234589   -7.9599035    806.16615  0.013741156  0.012065407           20 
 4890000   0.46617111   -7.9717972    807.48688  0.013760853  0.012061644           24 
 4891000   0.47902826   -7.9510173    806.17737  0.013735728  0.012057879           13 
 4892000   0.47797609   -7.9772338    806.75395  0.013742742  0.012054116           20 
 4893000   0.45899061   -7.9683927    805.87927  0.013725037  0.012050351           19 
 4894000   0.45895772   -7.9890998    805.30907  0.013712523  0.012046585           14 
 4895000   0.47140297   -7.9575964    806.72384  0.013733807  0.012042825           15 
 4896000   0.45956473   -7.9655893    805.69728  0.013713529  0.012039063           14 
 4897000   0.47143892   -7.9723259    805.34297    0.0137047  0.012035305           10 
 4898000   0.47087793   -7.9783756    805.26075  0.013700503  0.012031549           16 
 4899000   0.48366046   -7.9632154    805.35536  0.013699315  0.012027796           18 
 4900000   0.46762641   -7.9644579     805.9189  0.013706104  0.012024043           13 
 4901000    0.4636125   -7.9678413    806.84511  0.013719056  0.012020289           18 
 4902000    0.4792131   -7.9698874     806.2563  0.013706248  0.012016537           27 
 4903000   0.46368077   -7.9622117     805.7123  0.013694206  0.012012792           17 
 4904000   0.46541082   -7.9633605    806.55391  0.013705715  0.012009046           14 
 4905000   0.46040052   -7.9689241    805.11151  0.013678415    0.0120053           11 
 4906000   0.46164779   -7.9790058    804.98098   0.01367341  0.012001555           16 
 4907000   0.46823282   -7.9739626    805.99049  0.013687767  0.011997811           20 
 4908000   0.46001399   -7.9750389    806.35266  0.013691128  0.011994067           17 
 4909000   0.45987246   -7.9834825    806.57883  0.013692178  0.011990324           14 
 4910000   0.47312241   -7.9794717    804.18444  0.013648752  0.011986581           15 
 4911000   0.46695245   -7.9687826    805.37098  0.013666106   0.01198284           23 
 4912000   0.46578286   -7.9731772    806.21546  0.013677651    0.0119791           22 
 4913000   0.46173449   -7.9782501    805.52674  0.013663185  0.011975363           21 
 4914000   0.46192484   -7.9805871    804.30008  0.013639602  0.011971626           23 
 4915000   0.45950684   -7.9721623    805.91732  0.013664248  0.011967891           26 
 4916000    0.4683032   -7.9759054    805.05702  0.013646885  0.011964155           20 
 4917000   0.46472642   -7.9767415    805.40308  0.013649974  0.011960422           13 
 4918000   0.46674761    -7.978895    804.12107  0.013625476  0.011956689           18 
 4919000   0.47782689   -7.9774526    805.44515  0.013645137  0.011952957           13 
 4920000   0.46763306   -7.9839181    805.34684  0.013640699  0.011949222           11 
 4921000   0.47385692   -7.9970822    806.28368  0.013653791  0.011945489           13 
 4922000   0.48081407   -7.9796275    803.12949  0.013597614  0.011941757           15 
 4923000   0.47749807   -7.9685781    806.07753  0.013644755  0.011938026           17 
 4924000   0.47420109   -7.9792955    805.62051  0.013634249  0.011934302           16 
 4925000   0.46750625   -7.9803565    805.13564  0.013623276  0.011930574           23 
 4926000   0.46564882   -7.9872316    805.52018  0.013627016   0.01192685           25 
 4927000   0.45867456   -7.9839275    804.49716  0.013606948  0.011923123           28 
 4928000   0.46419273   -7.9829091    804.70798  0.013607751  0.011919401           16 
 4929000    0.4574041   -7.9841518    804.88849  0.013608042  0.011915678           21 
 4930000   0.45854476   -8.0003196    805.58636  0.013617078  0.011911958           18 
 4931000   0.46117461   -7.9828226    805.57116   0.01361406  0.011908239           19 
 4932000   0.46908379   -7.9928591    803.43134  0.013575144   0.01190452           10 
 4933000   0.45814326   -7.9931545    805.10689  0.013600698  0.011900802           15 
 4934000   0.45767165   -7.9979207    805.86368  0.013610723  0.011897086           16 
 4935000   0.46350031   -7.9878269    805.45753  0.013601106   0.01189337           13 
 4936000   0.45609833   -7.9867351    805.63413  0.013601333  0.011889655           15 
 4937000   0.45885756   -7.9664996    805.03785  0.013588513  0.011885945           18 
 4938000   0.46605143   -7.9781422    804.81641  0.013582024  0.011882235           16 
 4939000   0.45739261   -7.9906712    805.96039  0.013598576  0.011878526           18 
 4940000   0.44970615   -7.9982861    804.66707  0.013574006   0.01187482           17 
 4941000   0.46222687   -7.9872444    804.29388  0.013564965  0.011871114           11 
 4942000   0.45289767   -7.9931506    804.80407  0.013570823  0.011867409           15 
 4943000   0.47003711   -7.9956162    805.63968  0.013582165  0.011863707           15 
 4944000   0.45319472    -7.985342    805.45393  0.013576287  0.011860007           16 
 4945000   0.47100657   -8.0001805    805.41947   0.01357296  0.011856307           16 
 4946000   0.46535915   -7.9972049    805.19264  0.013566394  0.011852608           20 
 4947000   0.45105825    -7.986334    806.18491  0.013580367  0.011848914           13 
 4948000   0.46349228   -7.9877878    805.64996  0.013568613  0.011845222           15 
 4949000   0.46923932   -7.9990919    805.24785    0.0135591  0.011841525           16 
 4950000    0.4594225   -8.0027892    804.65135  0.013546319  0.011837831           18 
 4951000   0.46552625   -7.9908461    803.77913  0.013528902  0.011834138           17 
 4952000   0.45551192   -7.9934478    804.87279  0.013544574  0.011830452           11 
 4953000   0.44704088   -7.9933558    805.04394  0.013544719  0.011826763            9 
 4954000   0.46222697    -7.986262    804.64923  0.013535346  0.011823078           15 
 4955000   0.46951242   -7.9948409    804.60402  0.013531854  0.011819391           13 
 4956000   0.45483223   -7.9781874    804.66283  0.013530112  0.011815707           15 
 4957000   0.45540306   -8.0042788     804.7803  0.013529358   0.01181202           20 
 4958000   0.45898401   -8.0048148    804.64542  0.013524362  0.011808337           13 
 4959000    0.4568633   -7.9913008    805.58827  0.013537478  0.011804655           19 
 4960000   0.45543463   -7.9896898    804.92195  0.013523554  0.011800975           13 
 4961000   0.47240278   -8.0050524    805.77256  0.013535117  0.011797298           17 
 4962000   0.45496527   -7.9855121    805.11551  0.013521354  0.011793623           14 
 4963000   0.45565852   -7.9866712    805.34539   0.01352249  0.011789949           16 
 4964000   0.46191526   -7.9944146    806.35809  0.013536766  0.011786277           12 
 4965000   0.45410507   -7.9841339    804.79206  0.013507755  0.011782602           13 
 4966000   0.46470636   -7.9900345    805.37312  0.013514786  0.011778931           23 
 4967000   0.45139388   -7.9988501    804.81356  0.013502677  0.011775265           15 
 4968000   0.46295974   -7.9911129    804.86248   0.01350078  0.011771597           21 
 4969000   0.45633672   -8.0110908    803.95282  0.013482807  0.011767932           18 
 4970000   0.46569107   -7.9907154    805.83652  0.013511679  0.011764263            9 
 4971000   0.44483104   -7.9988384    804.45166  0.013485745  0.011760598           16 
 4972000   0.45947906   -7.9825175    805.92694  0.013507759  0.011756935           14 
 4973000   0.45793776   -7.9836888    804.14358  0.013475159  0.011753274           14 
 4974000   0.45248474   -7.9963719    805.52035  0.013495516  0.011749613           14 
 4975000   0.45357058   -8.0100346    805.36665  0.013490229  0.011745954           20 
 4976000   0.45573786    -7.998243    804.92367  0.013480099  0.011742298           17 
 4977000   0.45977115   -7.9932815    803.49581  0.013453483  0.011738642           20 
 4978000   0.45039523   -8.0006137    804.52975  0.013468089  0.011734988           21 
 4979000   0.45613106    -7.987285     804.6511  0.013467415  0.011731338           13 
 4980000   0.44817098   -7.9996184    804.65429  0.013464764  0.011727686           15 
 4981000   0.46222338   -7.9949227    804.27301  0.013455682  0.011724037           17 
 4982000   0.45202258   -7.9986276    805.26117   0.01346951  0.011720388           19 
 4983000   0.45076519   -7.9901612    804.76919  0.013458579   0.01171674           29 
 4984000   0.44497294   -8.0005785     804.5517  0.013452242  0.011713096           13 
 4985000   0.45328946   -8.0071169    804.66138  0.013451377  0.011709453           19 
 4986000    0.4502097   -7.9978513    805.61775  0.013464663  0.011705808           20 
 4987000   0.45810779    -8.002069     804.7691  0.013447783  0.011702167           15 
 4988000   0.45176881    -7.990595    805.62772  0.013459431  0.011698528           18 
 4989000   0.45434833   -7.9953082    805.31309  0.013451478  0.011694889           18 
 4990000   0.46142353   -7.9917106    805.39316   0.01345012  0.011691251           10 
 4991000   0.45629546   -7.9910097    805.64803   0.01345168  0.011687613           18 
 4992000    0.4594411   -7.9986363    804.22714  0.013425266  0.011683978           16 
 4993000   0.45418642   -7.9861308    805.15151  0.013438005  0.011680344           13 
 4994000   0.46014721   -7.9999053    804.00043  0.013416107   0.01167671           19 
 4995000   0.45201013   -8.0039085    804.21632  0.013417022   0.01167308           16 
 4996000   0.44649712   -7.9965617    803.44806  0.013401522  0.011669447           11 
 4997000   0.44667764   -7.9948656    804.93985  0.013423718  0.011665819           16 
 4998000   0.44605822   -7.9966598    804.31237   0.01341057  0.011662188           22 
 4999000    0.4546643   -7.9998368    804.24735  0.013406804  0.011658564           15 
 5000000   0.44694408   -7.9947566    802.87948  0.013381325  0.011654937           17 
 5001000   0.45128657   -8.0156341    804.48488    0.0134054  0.011651312           15 
 5002000   0.45978078   -8.0015628    804.83191  0.013408502  0.011647689           24 
 5003000   0.45264511   -8.0222186    804.43992  0.013399292  0.011644069           11 
 5004000   0.45214805   -7.9943735    802.94545  0.013371727  0.011640446           14 
 5005000   0.44299061   -8.0000161    803.99915  0.013386599  0.011636829           17 
 5006000   0.45344688   -8.0117485    804.96067  0.013399931  0.011633211           28 
 5007000   0.44543522   -8.0009882    804.09329  0.013382819  0.011629594           17 
 5008000   0.45967003   -7.9960166    805.02053  0.013395576   0.01162598           12 
 5009000   0.45107985   -7.9915875     804.8702  0.013390401   0.01162237           14 
 5010000   0.45893497   -7.9879379    804.60905  0.013383384  0.011618758           13 
 5011000   0.44946077   -8.0060856     804.4291  0.013377721  0.011615146           12 
 5012000   0.44867793   -8.0084471    804.23596   0.01337184  0.011611537           15 
Loop time of 11111.4 on 48 procs for 5000000 steps with 4000 atoms

Performance: 77757.846 tau/day, 449.988 timesteps/s
99.4% CPU use with 48 MPI tasks x no OpenMP threads

MPI task timing breakdown:
Section |  min time  |  avg time  |  max time  |%varavg| %total
---------------------------------------------------------------
Pair    | 713.78     | 747.49     | 780.42     |  65.7 |  6.73
Neigh   | 71.83      | 73.161     | 75.569     |   9.9 |  0.66
Comm    | 640.22     | 688        | 720.57     |  78.1 |  6.19
Output  | 13.707     | 13.711     | 13.789     |   0.3 |  0.12
Modify  | 9448       | 9475.4     | 9515.8     |  15.6 | 85.28
Other   |            | 113.6      |            |       |  1.02

Nlocal:        83.3333 ave          89 max          77 min
Histogram: 1 5 2 6 5 13 3 4 5 4
Nghost:        1868.44 ave        1886 max        1845 min
Histogram: 2 1 2 4 6 9 10 8 3 3
Neighs:        11675.2 ave       13101 max       10230 min
Histogram: 3 2 2 10 7 8 6 6 1 3
FullNghs:      23350.9 ave       25456 max       21381 min
Histogram: 4 3 3 7 11 6 3 6 3 2

Total # of neighbors = 1120841
Ave neighs/atom = 280.21025
Neighbor list builds = 268988
Dangerous builds = 2

#clear
#
#next RN
#
#jump SELF
Total wall time: 3:05:14
