
units lj                  # Use reduced LJ style units
atom_style atomic         # Uncharged point particles
atom_modify map hash      # Needed for indexing of clusters etc
                          # Used to be able to find where atoms are in relation to each other.

lattice fcc 1.0 spacing 1 1 1
Lattice spacing in x,y,z = 1.5874011 1.5874011 1.5874011
region box block 0 10 0 10 0 10 units lattice
create_box 2 box
Created orthogonal box = (0.0000000 0.0000000 0.0000000) to (15.874011 15.874011 15.874011)
  3 by 4 by 4 MPI processor grid
create_atoms 1 box
Created 4000 atoms
  using lattice units in orthogonal box = (0.0000000 0.0000000 0.0000000) to (15.874011 15.874011 15.874011)
  create_atoms CPU = 0.003 seconds
set type 1 type/fraction 2 0.62 78393
Setting atom values ...
  2494 settings made for type/fraction
mass 1 1.0
mass 2 1.0
pair_style lj/cut  3.5
pair_modify tail  yes
pair_coeff 1  1  1.0  1.0   # Intearaction between 1 and 1 set with epsilon = 1 and sigma = 1
pair_coeff 1  2  1.5  0.8
pair_coeff 2  2  0.5  0.88

write_data data.0
System init for write_data ...
Neighbor list info ...
  update every 1 steps, delay 10 steps, check yes
  max neighbors/atom: 2000, page size: 100000
  master list distance cutoff = 3.8
  ghost atom cutoff = 3.8
  binsize = 1.9, bins = 9 9 9
  1 neighbor lists, perpetual/occasional/extra = 1 0 0
  (1) pair lj/cut, perpetual
      attributes: half, newton on
      pair build: half/bin/atomonly/newton
      stencil: half/bin/3d
      bin: standard
WARNING: Not all mixed pair coeffs generated from mixing. Use write_data with 'pair ij' option to store all pair coeffs. (../write_data.cpp:312)


#############################
#   M E L T   S Y S T E M   #
#############################

velocity all create 2.4 2750902 mom yes dist gaussian # Assign velocities
                                                    # Temperature 2.4, random number seed, zero linear momentum
                                                                                # Gaussian distribution

timestep 0.002   # simulation timestep
thermo 1000       # output thermodynamic data every 1000 steps bf 100

# Define a fix  in this case with index 1 applied to all
# particles in the simulation. This fix is for simulations
# in the anisotropic NPT ensemble. Note that we use the MTK
# correction.
fix 1 all npt temp 2.4 2.4 0.1 iso 5.68 5.68 0.5 mtk yes tchain 5 pchain 5 # Use NPT ensemble
                                                                         # Set temperature and pressure and damping
                                                                         # Numbers of thermostats in chain and in barostat
run 10000          # run for 10000 steps
Per MPI rank memory allocation (min/avg/max) = 3.642 | 3.644 | 3.648 Mbytes
Step Temp E_pair E_mol TotEng Press Volume 
       0          2.4   -4.6132646            0   -1.0141646   -4.0148013         4000 
    1000    2.4545315   -4.3558944            0   -0.6750176    5.5422547    3631.8301 
    2000     2.355569   -4.3980981            0  -0.86562802    5.6230289    3586.9195 
    3000     2.387912   -4.3109922            0  -0.73001965     5.589251    3640.5028 
    4000    2.4965395   -4.2655374            0  -0.52166425    5.6310344    3668.8934 
    5000    2.3959572   -4.2637715            0  -0.67073413    5.7665882    3650.0337 
    6000     2.407829    -4.397315            0  -0.78647451    5.3305457    3618.2371 
    7000    2.4058559   -4.3546055            0  -0.74672388    5.9477702    3599.4397 
    8000    2.4019163   -4.3509432            0  -0.74896943    5.7927838    3597.9256 
    9000    2.4166202   -4.3219314            0  -0.69790738    5.6660557    3619.4196 
   10000    2.4195086   -4.3484845            0  -0.72012884    5.8066956    3608.8121 
Loop time of 2.70361 on 48 procs for 10000 steps with 4000 atoms

Performance: 639144.500 tau/day, 3698.753 timesteps/s
99.6% CPU use with 48 MPI tasks x no OpenMP threads

MPI task timing breakdown:
Section |  min time  |  avg time  |  max time  |%varavg| %total
---------------------------------------------------------------
Pair    | 1.178      | 1.2754     | 1.4318     |   3.6 | 47.17
Neigh   | 0.21762    | 0.22472    | 0.25657    |   1.5 |  8.31
Comm    | 0.73383    | 0.92511    | 1.0167     |   4.7 | 34.22
Output  | 0.0002495  | 0.00025327 | 0.00032298 |   0.0 |  0.01
Modify  | 0.23424    | 0.2625     | 0.29087    |   2.8 |  9.71
Other   |            | 0.01567    |            |       |  0.58

Nlocal:        83.3333 ave          96 max          72 min
Histogram: 2 1 9 6 4 18 1 3 3 1
Nghost:        1758.85 ave        1788 max        1734 min
Histogram: 1 7 8 4 7 6 6 5 1 3
Neighs:        10577.1 ave       12301 max        8768 min
Histogram: 1 2 5 7 7 9 10 2 4 1

Total # of neighbors = 507702
Ave neighs/atom = 126.92550
Neighbor list builds = 904
Dangerous builds = 196

# Equilibrate just above the melting temperature to avoid step fn in T

fix 1 all npt temp 1.25 1.25 0.1 iso 5.68 5.68 0.5 mtk yes tchain 5 pchain 5
run 2000
Per MPI rank memory allocation (min/avg/max) = 3.644 | 3.646 | 3.650 Mbytes
Step Temp E_pair E_mol TotEng Press Volume 
   10000    2.4195086   -4.3484845            0  -0.72012884    5.8066956    3608.8121 
   11000    1.2400937   -6.3673567            0   -4.5076812    5.7191711    2766.9441 
   12000    1.2568191    -6.471342            0   -4.5865846    5.8801136    2732.5617 
Loop time of 0.679177 on 48 procs for 2000 steps with 4000 atoms

Performance: 508851.218 tau/day, 2944.741 timesteps/s
99.7% CPU use with 48 MPI tasks x no OpenMP threads

MPI task timing breakdown:
Section |  min time  |  avg time  |  max time  |%varavg| %total
---------------------------------------------------------------
Pair    | 0.294      | 0.32548    | 0.3801     |   2.9 | 47.92
Neigh   | 0.040965   | 0.043986   | 0.050969   |   0.8 |  6.48
Comm    | 0.19682    | 0.25998    | 0.29314    |   3.6 | 38.28
Output  | 5.2426e-05 | 5.7701e-05 | 7.0386e-05 |   0.0 |  0.01
Modify  | 0.040451   | 0.044817   | 0.047562   |   0.9 |  6.60
Other   |            | 0.004857   |            |       |  0.72

Nlocal:        83.3333 ave          92 max          77 min
Histogram: 1 5 11 3 9 6 10 2 0 1
Nghost:        2137.04 ave        2150 max        2119 min
Histogram: 1 2 2 9 2 10 6 5 5 6
Neighs:        13966.5 ave       15582 max       11970 min
Histogram: 1 0 2 9 6 10 10 7 1 2

Total # of neighbors = 670391
Ave neighs/atom = 167.59775
Neighbor list builds = 144
Dangerous builds = 13

#############################
# L I N E A R  Q U E N C H  #
#############################

# Define solid atoms. This closely follows ten Wolde  Ruiz-Montero and Frenkel  Faraday Discuss  1996  104  93-110
# Compute components of the per-atom q6 vector
compute q6 all orientorder/atom degrees 1 6 components 6 nnn NULL cutoff 1.3 # compute the Q6 parameter.
                                                                             # Use all neighbours within 1.3 unit cell.

# get number of connections
compute coord_number all coord/atom orientorder q6 0.5

# An atom is solid if it has 8 or more connections (of a possible 14)
variable is_solid atom c_coord_number>=8
group solid dynamic all var is_solid    # Must be dynamic to update
dynamic group solid defined

# do clustering
compute cluster solid cluster/atom 1.3 # Create a cluster where all atoms within are solid and max 1.3 units from another member

# define chunks one chunk per cluster
compute clus_chunks solid chunk/atom c_cluster nchunk every compress yes  # Says which atoms are in which chunk

# count the size of each chunk
compute size_chunks solid property/chunk clus_chunks count


# Find the maximum entry in the vector of chunk sizes
variable max_n equal max(c_size_chunks)


# Thermo style which includes this variable
# thermo_style custom step temp pe vol v_max_n

thermo ${N}  # Print the thermo information every 100 steps
thermo 1000  

# Reset the npt fix at a lower temperature (below freezing)
fix 1  all npt temp  ${temp} ${temp}  0.1  iso  5.68  5.68  0.5  mtk yes tchain  5  pchain  5
fix 1  all npt temp  0.45 ${temp}  0.1  iso  5.68  5.68  0.5  mtk yes tchain  5  pchain  5
fix 1  all npt temp  0.45 0.45  0.1  iso  5.68  5.68  0.5  mtk yes tchain  5  pchain  5

dump dmp2 all dcd ${N} traj.dcd
dump dmp2 all dcd 1000 traj.dcd


compute msd all msd com yes
variable twopoint equal c_msd[4]/6/(step*dt+1.0e-6)
fix 9 all vector 10 c_msd[4]
variable fit equal slope(f_9)/6/(10*dt)
thermo_style custom step temp pe c_msd[4] v_twopoint v_fit v_max_n

fix 1 all npt temp 1.25 ${temp} 0.1 iso 5.68 5.68 0.5 mtk yes tchain 5 pchain 5
fix 1 all npt temp 1.25 0.45 0.1 iso 5.68 5.68 0.5 mtk yes tchain 5 pchain 5
run 500000 # 5000000  # Run for this many steps
Neighbor list info ...
  update every 1 steps, delay 10 steps, check yes
  max neighbors/atom: 2000, page size: 100000
  master list distance cutoff = 3.8
  ghost atom cutoff = 3.8
  binsize = 1.9, bins = 8 8 8
  4 neighbor lists, perpetual/occasional/extra = 1 3 0
  (1) pair lj/cut, perpetual
      attributes: half, newton on
      pair build: half/bin/atomonly/newton
      stencil: half/bin/3d
      bin: standard
  (2) compute orientorder/atom, occasional
      attributes: full, newton on
      pair build: full/bin/atomonly
      stencil: full/bin/3d
      bin: standard
  (3) compute coord/atom, occasional
      attributes: full, newton on
      pair build: full/bin/atomonly
      stencil: full/bin/3d
      bin: standard
  (4) compute cluster/atom, occasional
      attributes: full, newton on
      pair build: full/bin/atomonly
      stencil: full/bin/3d
      bin: standard
Per MPI rank memory allocation (min/avg/max) = 9.850 | 9.854 | 9.858 Mbytes
Step Temp PotEng c_msd[4] v_twopoint v_fit v_max_n 
   12000    1.2568191    -6.471342 3.7463004e-30 2.6015974e-32 8.3333333e+20            6 
   13000    1.2366521    -6.461521   0.50843731 0.0032592134   0.04135607            2 
   14000    1.2194529   -6.4407258    1.0123283 0.0060257637  0.041269915            2 
   15000    1.2507583   -6.4791781    1.4890623 0.0082725681  0.041198633            7 
   16000    1.2293524   -6.5071317    1.9512859  0.010162947  0.040294667            3 
   17000    1.2245323   -6.4725337    2.4100101  0.011813775  0.039998268            2 
   18000    1.2567464   -6.4963259    2.8947304  0.013401529  0.039735077            3 
   19000    1.2729038   -6.4697225    3.3377371  0.014639198  0.039454631            1 
   20000    1.2284373   -6.5572839    3.6886246  0.015369269  0.038816162            1 
   21000    1.2691722   -6.5106018    4.1694581  0.016545468  0.038289963            3 
   22000    1.2349695   -6.5189048    4.6497887  0.017612835  0.038096481            2 
   23000     1.225818   -6.5054411    5.0097283  0.018151189  0.037887274            2 
   24000    1.2392948   -6.5272292    5.3379415  0.018534519  0.037415138            3 
   25000    1.1926669   -6.5137236    5.7210413  0.019070137   0.03689506            3 
   26000    1.2402343   -6.4976387    6.1731578  0.019785762  0.036468075            1 
   27000    1.2166733   -6.5511276    6.5723631  0.020285071  0.036166472            2 
   28000    1.2419845   -6.5356443    7.0888164  0.021097667  0.035987586            1 
   29000    1.2147788   -6.4960896    7.5243133   0.02162159  0.035967359            4 
   30000    1.2008348   -6.5084685    7.9705046   0.02214029  0.035973619            4 
   31000    1.2267035   -6.5417886    8.3439998  0.022430107  0.035894468            2 
   32000    1.2068118   -6.6179517    8.7169553  0.022700404   0.03581997            2 
   33000    1.2150171    -6.561915    9.1578161  0.023125798   0.03575183            1 
   34000    1.2057991   -6.5704739    9.4804477  0.023236391  0.035635893            3 
   35000    1.2072279   -6.5873713    9.9154942  0.023608319   0.03551031            2 
   36000    1.2351926   -6.5471265    10.446458  0.024181615  0.035457671            1 
   37000    1.2126984   -6.5749498    10.844208  0.024423891  0.035457693            1 
   38000    1.1969261   -6.5841127    11.402164  0.025004745  0.035482774            1 
   39000    1.2168493   -6.5627135    11.943992   0.02552135  0.035590907            5 
   40000    1.2171063   -6.5472793    12.403724  0.025841092  0.035712804            2 
   41000    1.1791103   -6.6163258    12.767371  0.025949941  0.035815123            2 
   42000     1.215524   -6.5997249     13.30427  0.026397362   0.03589417            2 
   43000    1.2176292   -6.6417726    13.653626  0.026460515  0.035988874            3 
   44000    1.2096014   -6.5769901    14.042351  0.026595361  0.036026369            3 
   45000    1.1774306   -6.6112988    14.449201   0.02675778  0.036042107            2 
   46000    1.1917707   -6.5947673    14.878353  0.026953538  0.036053594            3 
   47000    1.1772622   -6.6171158    15.395672   0.02729729  0.036071493            2 
   48000    1.1860228   -6.5819648    15.898786  0.027602059  0.036111252            3 
   49000    1.1954461    -6.595007    16.436492  0.027953217  0.036163236            2 
   50000    1.1991769   -6.6053168    16.742952   0.02790492  0.036202998            1 
   51000    1.1838965   -6.5936315    17.127957  0.027986858  0.036217811            3 
   52000    1.1844179   -6.6293551    17.591828  0.028192031  0.036226163            2 
   53000    1.2088364   -6.6442419    17.949314  0.028222192  0.036225793            4 
   54000     1.179364   -6.6044517    18.443917  0.028462834  0.036217654            2 
   55000    1.1764645   -6.6394284    18.711737  0.028351116  0.036192442            3 
   56000    1.1862689   -6.6313648    19.046403  0.028342861  0.036130032            3 
   57000    1.1781155   -6.6681216    19.337379  0.028271021  0.036053317            1 
   58000    1.1843737   -6.6186012    19.497404  0.028013512  0.035950009            6 
   59000    1.1553637   -6.5991685    19.908561  0.028119436  0.035822426            3 
   60000    1.1520081   -6.6259242    20.347518  0.028260442  0.035706481            4 
   61000    1.2027104   -6.7005411    20.776512  0.028383213  0.035608546            3 
   62000    1.1635966   -6.7240638    21.092821  0.028350566  0.035511612            4 
   63000    1.1670187   -6.7054735     21.54478  0.028498386  0.035414608            5 
   64000    1.1327533   -6.6729297    21.882588  0.028492952  0.035318447            3 
   65000    1.1792039   -6.6987081    22.337643  0.028638003  0.035235079            5 
   66000    1.1583371   -6.6715399    22.674926  0.028629957  0.035151662            3 
   67000     1.148336   -6.6570611    23.057032    0.0286779    0.0350701            3 
   68000    1.1402283   -6.6470737    23.350922  0.028616326  0.034991132            5 
   69000    1.1847018   -6.7086958    23.769301  0.028706886  0.034902447            5 
   70000    1.1486118   -6.6793685    24.009739  0.028583023  0.034815186            3 
   71000    1.1730292   -6.7288006    24.355121  0.028585822  0.034717206            4 
   72000     1.141947   -6.7419156    24.681957   0.02856708  0.034622233            5 
   73000      1.13341   -6.7561725    24.913276  0.028439813  0.034518245            5 
   74000     1.172864    -6.729778    25.348788  0.028545933  0.034419058            1 
   75000    1.1389017   -6.7348109      25.6969  0.028552111  0.034323729            2 
   76000     1.141587   -6.7661464    25.945932  0.028449486  0.034221791            2 
   77000    1.1617063   -6.7267181    26.266174  0.028426595  0.034115436            3 
   78000     1.146418   -6.7472019    26.589529  0.028407616  0.034015671            3 
   79000    1.1359354    -6.702058    26.916451   0.02839288  0.033899601            4 
   80000    1.1111812   -6.7347788     27.31022  0.028448146  0.033784015            1 
   81000    1.1393099   -6.7157887    27.779077  0.028579297  0.033675137            5 
   82000    1.1311725   -6.7209136     27.90228  0.028355975  0.033563036            6 
   83000      1.10467    -6.719622    28.154808   0.02826788  0.033445252            3 
   84000     1.130891   -6.7543259    28.386108  0.028160821  0.033329425            2 
   85000    1.1181148   -6.7957944    28.810667  0.028245752  0.033221459            4 
   86000    1.1520999   -6.8140374    28.978386  0.028079831  0.033108329            2 
   87000     1.111224   -6.7727329    29.565546  0.028319488  0.033000282            2 
   88000    1.1048068   -6.7779343    29.747138  0.028169638  0.032899846            2 
   89000    1.1141413   -6.7826629    30.022753  0.028111192  0.032794345            3 
   90000    1.1290062   -6.7937551     30.30552  0.028060667   0.03269003            2 
   91000    1.1313182   -6.7969522    30.704043  0.028117255  0.032583004            4 
   92000    1.0963032   -6.8159558    30.824217  0.027920487  0.032477719            4 
   93000    1.1444932   -6.7550909    31.401389  0.028137445  0.032378587            4 
   94000    1.1217142   -6.8186535    31.389948  0.027827968  0.032277481            2 
   95000    1.1055004   -6.7662659    31.719494  0.027824117  0.032168246            2 
   96000    1.1257529   -6.8140704    31.885257  0.027678175  0.032051936            2 
   97000    1.1294966   -6.8200418    32.185552  0.027650818  0.031943073            4 
   98000    1.1254816   -6.8206854    32.481897   0.02762066  0.031829516            3 
   99000    1.1092185   -6.8233779    32.656317  0.027488482  0.031713061            3 
  100000    1.0787587   -6.8409904    32.872176   0.02739348  0.031598061            4 
  101000    1.0972605   -6.8261066    33.188144  0.027382957   0.03148008            3 
  102000    1.1183441   -6.8230802    33.523593  0.027388556  0.031363902            3 
  103000    1.0969949   -6.8571456    33.770922  0.027322753  0.031248881            3 
  104000    1.1271926   -6.8994829     33.83513  0.027111482  0.031130177            2 
  105000    1.1088583   -6.8328684    34.286126  0.027211211  0.031014557            3 
  106000    1.0789958     -6.83949    34.408554   0.02705075  0.030899454            1 
  107000    1.0835458   -6.8711643    34.962657  0.027229483  0.030790396            2 
  108000    1.1017459   -6.8597943    35.178307  0.027143755  0.030687464            3 
  109000    1.0948884   -6.8716105    35.312872  0.026997609  0.030583994            3 
  110000    1.0846999   -6.8705241    35.673886  0.027025671  0.030478129            4 
  111000    1.0865513   -6.9106458    35.742998  0.026834082  0.030371506            3 
  112000    1.0724243   -6.8862494     36.11534  0.026871532  0.030264448            3 
  113000    1.0906447   -6.8999696    36.481233  0.026903564  0.030162232            4 
  114000    1.0803994   -6.8740351    36.805865  0.026904872  0.030065439            2 
  115000     1.087125   -6.8781978    37.275592  0.027011299  0.029971604            4 
  116000    1.0962991   -6.8953405    37.415937  0.026879265  0.029884995            3 
  117000     1.071914   -6.9226276    37.517141   0.02672161  0.029794968            5 
  118000    1.0721715   -6.9097417    37.888059  0.026757104  0.029706407            2 
  119000    1.0528979   -6.8913259    38.175272  0.026733384  0.029616132            3 
  120000    1.0742026   -6.9270317    38.560264  0.026777961  0.029530302            3 
  121000    1.0842575   -6.8991388    38.813704  0.026731201  0.029448075            2 
  122000      1.08567    -6.889415    38.940847  0.026598939  0.029363696            3 
  123000    1.0857276   -6.9076274     39.26558  0.026602697   0.02928041            3 
  124000    1.0689836   -6.9309841    39.616446  0.026623956  0.029202654            5 
  125000    1.0787884   -6.9386068    39.827301  0.026551534  0.029125472            5 
  126000    1.0664886   -6.9116538    40.070959  0.026501957   0.02904681           11 
  127000     1.064759    -6.934509    40.415768  0.026519532  0.028968934            3 
  128000    1.0581085    -6.959873    40.679925  0.026484326  0.028894829            4 
  129000    1.0605155   -6.9426084    41.155679  0.026586356  0.028821712            3 
  130000    1.0339907   -6.9392317    41.346202  0.026503976  0.028752256            2 
  131000    1.0528116   -6.9280793    41.576602   0.02644822  0.028683243            4 
  132000    1.0585187   -6.9835292    41.542662  0.026226428    0.0286124            3 
  133000    1.0824594   -6.9823452     41.96939   0.02629661  0.028540628            5 
  134000    1.0611729   -7.0098897    41.930808  0.026076373  0.028467011            4 
  135000    1.0573618    -6.953975    42.486976  0.026226528   0.02839462            2 
  136000    1.0813908   -6.9428903    42.845691  0.026253487  0.028325449            3 
  137000    1.0552622   -6.9506432    43.089792  0.026210335  0.028256685            6 
  138000    1.0754001   -7.0036296    43.341855  0.026172618  0.028190146            5 
  139000     1.054955   -6.9926595    43.558638  0.026114291  0.028123666            3 
  140000    1.0262903   -7.0091853    43.749092  0.026041126  0.028058293            2 
  141000    1.0529573   -7.0039969    43.998984  0.026004128  0.027991842            9 
  142000    1.0362139   -6.9528509    44.446618  0.026083696  0.027929933            2 
  143000    1.0389306    -7.043657    44.499603   0.02593217  0.027867577            4 
  144000    1.0324283   -7.0186578    44.669018  0.025850126  0.027800339            4 
  145000    1.0146087   -6.9941998     45.01246   0.02586923  0.027734429            2 
  146000    1.0335614   -7.0071998    45.246274  0.025825499   0.02766775            6 
  147000    1.0330381    -7.042936    45.498025  0.025792531  0.027601728            6 
  148000     1.029671    -7.031405    45.717182  0.025741657  0.027535304            4 
  149000    1.0421003   -7.0732307    45.772219  0.025599675  0.027467719            6 
  150000    1.0235312   -7.0298856     46.10918  0.025616211  0.027398603            6 
  151000    1.0282867   -7.0477647    46.232071  0.025514388   0.02733117            4 
  152000    1.0364139   -7.0319405    46.592502  0.025544135  0.027266072            4 
  153000    1.0429063   -7.0900001    46.670822  0.025419838  0.027199853            3 
  154000    1.0261599   -7.0766558    46.880236  0.025368093  0.027134513            2 
  155000    1.0281152   -7.0861319    47.221456   0.02538788  0.027068934            4 
  156000    1.0364314   -7.0854052       47.309  0.025271901  0.027002751            3 
  157000    1.0312725    -7.070781    47.427678  0.025173927  0.026934634            6 
  158000    1.0125323   -7.0769223    47.648511  0.025131071  0.026863316            6 
  159000    1.0109599    -7.097856     47.72067  0.025010833  0.026790902            7 
  160000    1.0105113   -7.0823672    48.067951  0.025035391  0.026719942            3 
  161000    1.0146377   -7.0773817    48.264797  0.024981779  0.026649696            4 
  162000    1.0035137   -7.0929691    48.339127  0.024865806  0.026579643            5 
  163000   0.98987397   -7.0970449    48.347018  0.024717289  0.026507838            3 
  164000   0.98933325   -7.1261168    48.457225  0.024622574  0.026432917            7 
  165000   0.99934511    -7.078375    48.736512    0.0246144  0.026356993            5 
  166000   0.99028142   -7.0934529    49.133494  0.024665409  0.026282774            6 
  167000    1.0162295   -7.1164226    49.350223   0.02462586  0.026212215            2 
  168000   0.99565315    -7.133091    49.465582  0.024536499   0.02614078           14 
  169000   0.99755415   -7.1820195    49.273771  0.024296731  0.026066999            6 
  170000    1.0056579   -7.1057875    49.728688  0.024376808  0.025992918            5 
  171000   0.97746946   -7.1380698    49.898861  0.024317184  0.025920792            6 
  172000    1.0000269   -7.1041295    50.306484  0.024373296  0.025849771            4 
  173000    1.0110525   -7.1884301    50.228371  0.024194784  0.025777591            4 
  174000   0.98146976   -7.1609595    50.491648  0.024181823  0.025703927            5 
  175000   0.98938425   -7.1633687    50.659802  0.024123715   0.02563077            5 
  176000   0.97941623   -7.1969533    50.704811   0.02400796  0.025557836            7 
  177000   0.98115566   -7.1609234    50.956287  0.023990719  0.025484711            6 
  178000   0.99234324   -7.1990417    51.094689  0.023920734  0.025412718            5 
  179000   0.97774645   -7.1421118    51.417778  0.023937513  0.025340666            7 
  180000   0.96398953   -7.1804759     51.36187  0.023778644  0.025269293            4 
  181000   0.97768355   -7.1658279    51.784598  0.023841896  0.025198754            4 
  182000   0.99847343   -7.1504872    52.021477  0.023819358  0.025130317            2 
  183000   0.96372028   -7.1995107     51.93973  0.023651972  0.025060234            6 
  184000   0.97633214   -7.1871195    52.138688  0.023613536  0.024989581           10 
  185000   0.98213724   -7.1932738    52.367547  0.023588985  0.024920895            5 
  186000   0.96708295   -7.1745375    52.502827  0.023522772  0.024850456            2 
  187000   0.94383684   -7.2130654    52.664533  0.023469043  0.024780181            4 
  188000   0.97086328   -7.2150276     52.70501   0.02336215  0.024709578            8 
  189000   0.96879329   -7.2408536    52.540193   0.02316587  0.024636796            2 
  190000   0.98021301   -7.2168961    52.995081  0.023243457  0.024564487            4 
  191000   0.97349598   -7.2053694    53.265632  0.023239805  0.024493442            8 
  192000   0.97349125   -7.2447138    53.241616   0.02310834  0.024422963            5 
  193000   0.95062259    -7.248626    53.485248  0.023093803  0.024351451            4 
  194000   0.95912996   -7.2542756     53.60301  0.023025348  0.024280941            7 
  195000   0.94074099   -7.2902403    53.625353  0.022916817  0.024209044            4 
  196000   0.92814814   -7.2823156    53.745887  0.022851142  0.024136016            3 
  197000   0.95015227   -7.2345649     53.96712  0.022828731   0.02406271            7 
  198000   0.93942418   -7.2404861    54.020065  0.022735718  0.023990612            7 
  199000   0.94690444   -7.2677453    54.087334  0.022649637  0.023917534            6 
  200000   0.95306272   -7.2876114    54.051099  0.022521291  0.023843736            4 
  201000   0.94569695    -7.267797    54.216374  0.022477767  0.023769488            4 
  202000   0.95304981   -7.2851184    54.331931  0.022414163  0.023694544            3 
  203000   0.93430344   -7.2504683    54.491642  0.022369311  0.023619566            3 
  204000   0.95505569   -7.2913112    54.569069  0.022291286  0.023544765            5 
  205000   0.94131854   -7.2890496    54.595248   0.02219319   0.02346957            6 
  206000   0.94467145   -7.2911037    54.780522  0.022160405  0.023394494            6 
  207000   0.93246835   -7.3155384    54.647719  0.021999887  0.023319451           10 
  208000   0.95136673   -7.3175166    54.956483  0.022017822  0.023244333            8 
  209000   0.92668268   -7.3342626    55.063347  0.021955083  0.023170335            7 
  210000    0.9373577   -7.3305672    55.176229  0.021895329  0.023096416            3 
  211000   0.92490287   -7.2945496    55.059983  0.021745649  0.023021764            9 
  212000    0.9384205   -7.3299047    55.509683  0.021819844  0.022946749            6 
  213000   0.92588061   -7.3384252    55.440464  0.021690322  0.022872219            4 
  214000    0.9347698   -7.3577635    55.466296  0.021599025  0.022797027            5 
  215000   0.93140634   -7.3379281    55.626311  0.021560586  0.022721468           12 
  216000   0.94152091    -7.362044    55.656615  0.021472459  0.022646345            4 
  217000   0.92247787   -7.3816249    55.622208  0.021360295   0.02257189            4 
  218000   0.92988929   -7.3505575    55.781409  0.021323169  0.022495716           10 
  219000   0.90520421    -7.329706    56.118876  0.021354214  0.022420879            5 
  220000   0.93133246   -7.3609012    56.315397   0.02133159  0.022347875            5 
  221000   0.91785033   -7.3595215    56.332465  0.021241503   0.02227456            6 
  222000   0.90866722   -7.3670247    56.391029  0.021167804  0.022201189            3 
  223000   0.89949844   -7.3842294     56.51714  0.021120007  0.022129436            5 
  224000   0.91085578   -7.3805114    56.826019  0.021140632  0.022057542           13 
  225000   0.90365979   -7.3661715    56.968174  0.021099324  0.021986031            6 
  226000   0.89441615   -7.4101799    56.747601  0.020924632  0.021914853            3 
  227000   0.90209862    -7.382461    57.044449  0.020941427  0.021843953            6 
  228000   0.88518407   -7.4144659    57.028218  0.020843647  0.021772592           12 
  229000   0.89960456   -7.4559535    56.953145  0.020725308  0.021702019            7 
  230000   0.89802088   -7.4473071    57.109994  0.020692027  0.021631215           11 
  231000   0.90883898   -7.4769655    57.194464  0.020632923  0.021560495            9 
  232000   0.90418241   -7.4207601    57.478355  0.020645961  0.021490512            3 
  233000   0.86984391   -7.4535356    57.350759  0.020511716  0.021419309           10 
  234000   0.88758654   -7.4393673    57.454903  0.020461148  0.021348723            4 
  235000   0.89914734   -7.4583903    57.476515  0.020381743  0.021277822           14 
  236000   0.89901753   -7.4470989    57.655808  0.020358689   0.02120708            8 
  237000   0.85583475   -7.4654614    57.767167  0.020311943  0.021137473           10 
  238000     0.896382   -7.4398861    57.698752  0.020202644    0.0210671           13 
  239000   0.88892742   -7.4716036    57.747659  0.020135167  0.020996801           10 
  240000   0.86459333   -7.4829252    57.759647  0.020055433   0.02092604           12 
  241000   0.86501116   -7.5254724    57.659351  0.019937535  0.020853523            4 
  242000    0.8730516   -7.5019753    57.829097  0.019913601  0.020781045            7 
  243000   0.89361558   -7.4898341     58.11877  0.019930991  0.020709305            6 
  244000   0.87228924   -7.5013465    57.833914   0.01975202   0.02063759            9 
  245000   0.87899584   -7.5036922    57.993503  0.019725681  0.020565825            6 
  246000     0.858864   -7.5201336     57.97561  0.019639434  0.020493767           11 
  247000   0.87469224   -7.5549612    58.003095  0.019569195  0.020421587           12 
  248000   0.87479782   -7.5308969    57.989275  0.019485643  0.020349004           15 
  249000   0.88374009   -7.5207965    58.179894  0.019471183  0.020276835            7 
  250000   0.86363281   -7.5274659    58.351295  0.019450432  0.020206032           12 
  251000   0.86309511    -7.512398    58.374243  0.019380559  0.020135448            7 
  252000   0.86553883   -7.5049538    58.498325  0.019344684  0.020065481           15 
  253000    0.8716472   -7.5167541    58.630312  0.019311697    0.0199958           12 
  254000   0.85601814   -7.5345356    58.541168   0.01920642  0.019925541           11 
  255000   0.84581136   -7.5993673    58.486525  0.019113244  0.019855016           13 
  256000   0.87426791   -7.5778154    58.466604  0.019032098  0.019784409           36 
  257000   0.87291878   -7.5670261    58.765311    0.0190549  0.019713737           18 
  258000   0.86382593   -7.6045395     58.67762   0.01895272  0.019644056            5 
  259000   0.84353838   -7.5948874    58.817434  0.018924528  0.019573707           11 
  260000   0.85683107   -7.5662742    58.732613  0.018824555  0.019503108            8 
  261000   0.86793252   -7.5769087    58.656304  0.018728066  0.019432735            6 
  262000    0.8296944   -7.6201958     58.87356  0.018725687  0.019362754           11 
  263000   0.81404361   -7.5883781    58.949949  0.018678691  0.019292856           12 
  264000   0.84682465   -7.5837886    59.044336  0.018637732  0.019223742            3 
  265000   0.83796048   -7.5886033    59.044995  0.018567609  0.019155205            5 
  266000   0.83858454   -7.6141598    59.206015   0.01854825  0.019087062            3 
  267000   0.84931401   -7.6211047    59.193235  0.018474792  0.019018846            5 
  268000   0.83148846   -7.6306929    59.203711  0.018409114  0.018951203           12 
  269000   0.83392109    -7.612145     59.51569  0.018437326  0.018883596           13 
  270000   0.83806011   -7.6154078    59.312851  0.018306436  0.018816258            8 
  271000   0.82416947   -7.6205642    59.567743  0.018317264  0.018749914           11 
  272000   0.83965429   -7.5678004    59.447258  0.018213008  0.018684015           11 
  273000   0.83684416   -7.6653329    59.354596  0.018118009  0.018617393           12 
  274000   0.83070106    -7.625821    59.418598   0.01807135  0.018550596            6 
  275000   0.82745671   -7.6487796    59.329397  0.017978605  0.018483878            8 
  276000   0.83671039   -7.6418995    59.577295  0.017988314  0.018417737            9 
  277000   0.83229447   -7.6344198    59.808881  0.017993045  0.018351879            8 
  278000   0.83454645   -7.6324764    59.819181  0.017931409  0.018286741           15 
  279000   0.82832047   -7.6419591     59.85014  0.017876386  0.018221487           11 
  280000   0.84238546   -7.6972316    59.779537  0.017791529  0.018156409           14 
  281000   0.82287798   -7.6705544    59.651379  0.017690207  0.018091875            9 
  282000   0.80343159   -7.6798302    59.711041  0.017645107   0.01802644            7 
  283000   0.82913203   -7.6883424    59.706947  0.017581551  0.017960988            9 
  284000   0.81162041   -7.7037139    59.698704  0.017517225  0.017895101            9 
  285000   0.80266071   -7.7124451    59.580898  0.017421315  0.017829314           13 
  286000    0.8203627   -7.7078982    59.721452  0.017401356  0.017763628            8 
  287000   0.78851573   -7.7070977    59.711627  0.017337871  0.017698145           32 
  288000   0.80168555   -7.6940419    59.915978  0.017336799   0.01763284           12 
  289000   0.80330603   -7.7152575    59.884315   0.01726768  0.017567978           27 
  290000   0.80309861   -7.7392238    59.848358  0.017197804  0.017503685           10 
  291000   0.81075532    -7.717404    59.939993  0.017164946  0.017439449           10 
  292000   0.82130071   -7.7417035    60.009956  0.017126129  0.017374935            8 
  293000   0.79640564   -7.7618609    59.832264   0.01701714  0.017310929           18 
  294000   0.80346634   -7.7684198    59.984906  0.017002524  0.017246729           11 
  295000   0.79229332   -7.7740712    59.904803  0.016922261  0.017182437           13 
  296000   0.78548307   -7.7572592    59.916912    0.0168685  0.017118387           20 
  297000   0.81203742   -7.7878986    59.962974  0.016824628  0.017054584           21 
  298000   0.78524971   -7.7602896    59.883107  0.016745835  0.016990703            7 
  299000   0.79407878   -7.7793721    59.777311  0.016660343  0.016927035           22 
  300000   0.79084901   -7.7777673    59.999856  0.016666627  0.016863553           21 
  301000   0.79981624   -7.7999145    59.956008  0.016599116  0.016800614           11 
  302000   0.79690331   -7.7602111    60.168244  0.016602716   0.01673802           23 
  303000   0.79582826   -7.7963394    60.128008  0.016536856  0.016675201           21 
  304000   0.78198111    -7.795101    59.958579  0.016436014  0.016612686           11 
  305000    0.7902426   -7.8196757    60.046717  0.016406207  0.016550524           25 
  306000   0.75890293   -7.8153329    60.058833  0.016355891  0.016488405           24 
  307000   0.77756321   -7.7956275    60.100958  0.016314049  0.016426285           17 
  308000   0.76790172   -7.8210634    60.038031  0.016244056  0.016364949            7 
  309000   0.77038386   -7.8036278    60.193749  0.016233481  0.016304061           13 
  310000   0.76055259   -7.8104093     60.29514  0.016208371  0.016243622           20 
  311000   0.76624014   -7.8238349    60.223623  0.016137091  0.016183366            8 
  312000   0.77029867   -7.8371921    60.318346  0.016110669  0.016122921           10 
  313000   0.76359698   -7.8159154    60.212406  0.016030992  0.016062562           13 
  314000   0.78417614   -7.8365144    60.109388  0.015952598  0.016002499           13 
  315000   0.77216641   -7.8400908    60.233812  0.015934871  0.015942423            7 
  316000   0.75158882   -7.8935163    60.053428  0.015836875  0.015882381            9 
  317000   0.75881348   -7.8615489    60.194328  0.015823956  0.015822434           19 
  318000   0.76199215   -7.8669409    60.072265  0.015742208  0.015762541            9 
  319000   0.75166403   -7.8858893    60.048185  0.015686569  0.015702532            6 
  320000   0.75543132   -7.8988008    59.844236  0.015584437  0.015642512           14 
  321000   0.76106841   -7.8644449    60.015018  0.015580223  0.015582438           11 
  322000   0.74086649    -7.868249    60.063917  0.015544492  0.015522531           30 
  323000   0.76597316   -7.8901249    59.896013  0.015453048  0.015462599            9 
  324000    0.7352357   -7.9158248     59.97106  0.015424655  0.015402758           27 
  325000   0.74008737   -7.8889408    60.105845  0.015411755  0.015343523           16 
  326000   0.76077286    -7.936925    59.866872  0.015303393   0.01528424           40 
  327000   0.72582108   -7.9328391    59.908976  0.015267323   0.01522498           36 
  328000   0.74282544   -7.9372703    59.983794  0.015239785  0.015166131           63 
  329000   0.74656377   -7.9549761    59.799302  0.015146733  0.015107518           44 
  330000   0.73219756   -7.9578799    59.946152  0.015137917  0.015048796           50 
  331000    0.7416533   -7.9229275    60.062987  0.015121598   0.01499047           50 
  332000   0.72065511   -7.9511124    59.880544  0.015030257  0.014932323           44 
  333000   0.72852619   -7.9232526    59.992691  0.015013186  0.014874332           52 
  334000   0.74210583   -7.9700179    60.007229  0.014971864  0.014816709           59 
  335000   0.72075922   -7.9862035    60.110275  0.014952805  0.014759301           76 
  336000   0.72331828   -7.9589103    59.983187  0.014876782  0.014702272           51 
  337000   0.71929622   -7.9571986    60.098218  0.014861083  0.014645383           81 
  338000   0.71644992   -7.9715924    60.117696  0.014821917  0.014588744           41 
  339000   0.72687405   -8.0173331     60.09276  0.014772065  0.014532049           37 
  340000   0.74148916   -8.0156823    59.963505  0.014696938  0.014475815           33 
  341000   0.72397771   -8.0225846    60.108303  0.014689223  0.014419799           51 
  342000   0.71729424   -8.0284394    59.908283  0.014597535  0.014364094           81 
  343000   0.71193833   -7.9925492    60.004336  0.014578313  0.014308356           46 
  344000   0.70591747   -8.0200704    59.972453   0.01452821  0.014253028           61 
  345000   0.71378053   -7.9882498    59.846951  0.014455785  0.014197993           17 
  346000   0.70693532   -8.0133859    59.994911  0.014449641  0.014143092           74 
  347000   0.70948847   -7.9931349    60.070041  0.014426043  0.014088544           54 
  348000   0.70636087   -8.0244959    60.069978  0.014384573  0.014034293           52 
  349000   0.72152404   -8.0167285    59.961402  0.014317431  0.013980273           41 
  350000   0.69966326   -8.0115068    59.922525  0.014267268  0.013926411           81 
  351000   0.72283861   -8.0168284    60.028803  0.014251853  0.013872674           32 
  352000   0.70559833   -8.0189498    60.020336   0.01420936  0.013819437           92 
  353000   0.69820081   -8.0338883    59.969897  0.014157199  0.013766281           65 
  354000    0.6925886   -8.0438999    60.138751  0.014156957  0.013713406           30 
  355000   0.70732861   -8.0578847    60.029238   0.01409137   0.01366087           59 
  356000    0.7089903   -8.0264339    60.046779  0.014055894   0.01360842           65 
  357000    0.7136479   -8.0594208    60.141836   0.01403871  0.013556122           81 
  358000   0.67968139   -8.0830666    60.030966  0.013973689   0.01350413           51 
  359000   0.69044726    -8.066567    60.039569  0.013936762  0.013452439           30 
  360000   0.69513241   -8.0766179    59.941142  0.013875264   0.01340089           68 
  361000   0.68358408   -8.0553105    59.899375  0.013827187  0.013349479           27 
  362000   0.69496303   -8.0874857    59.953067  0.013801351  0.013298042           45 
  363000   0.69387484   -8.0869614    59.881581  0.013746919  0.013246924           76 
  364000   0.69314115   -8.0749365    59.915241  0.013716859  0.013195829           59 
  365000   0.68536258   -8.1013689    59.890128  0.013673545  0.013144803           43 
  366000    0.6831793    -8.093608    59.962895  0.013652754  0.013094039           44 
  367000    0.6745158   -8.0913113    60.006638  0.013625485  0.013043672           47 
  368000   0.66777082   -8.0883724     59.91377   0.01356743  0.012993551           94 
  369000   0.67600371   -8.1079015    59.832123  0.013512223  0.012943467           98 
  370000   0.66847167   -8.1234717     59.76401  0.013460363  0.012893363           57 
  371000   0.68559609   -8.1087793    59.774569  0.013426453  0.012843534           30 
  372000   0.69475689   -8.1084868    59.723619  0.013378947  0.012793958           63 
  373000   0.67352255   -8.1358243    59.915689  0.013385989  0.012744627           96 
  374000   0.67572649    -8.127275    59.889066  0.013344266   0.01269551           73 
  375000   0.66707376   -8.1304526    59.834416  0.013296537  0.012646547          127 
  376000   0.66852553   -8.1324064    59.723371  0.013236563  0.012597797           65 
  377000   0.66219039   -8.1636526    59.910981  0.013242922  0.012549274           91 
  378000   0.65973757   -8.1384823    59.780802  0.013179189  0.012501006          114 
  379000   0.66858237   -8.1384043    59.769891  0.013142016  0.012453031          109 
  380000   0.65335001    -8.169465    59.833037   0.01312128   0.01240522           67 
  381000   0.66128743   -8.1580823    59.779834  0.013075204   0.01235754           58 
  382000   0.65707088   -8.1329743    59.739775  0.013032237  0.012309965           53 
  383000   0.65369029    -8.159763    59.742382  0.012998778  0.012262623           76 
  384000   0.66071573   -8.1613772    59.771094  0.012971158  0.012215506           83 
  385000   0.66143062   -8.1609233    59.799393  0.012943592  0.012168659          100 
  386000   0.63904198   -8.1613203    59.795833   0.01290929  0.012122083          100 
  387000   0.65469906   -8.1664098    59.798418   0.01287649  0.012075705          130 
  388000   0.64814785   -8.1624766    59.865203  0.012857647  0.012029855           80 
  389000   0.64205843   -8.1681286    59.759902  0.012802036   0.01198397           97 
  390000   0.64217383    -8.180857    59.761611  0.012769575  0.011938278          121 
  391000   0.64137976   -8.1747283    59.756973  0.012735928  0.011892907          108 
  392000   0.62371515   -8.1728175     59.88803  0.012731299  0.011847673          148 
  393000   0.62697176    -8.172582    59.796676  0.012679533  0.011802614          132 
  394000    0.6456283   -8.1873209    59.862579   0.01266129  0.011757816           93 
  395000   0.64313514   -8.1872752    59.673577  0.012589362  0.011713093           88 
  396000   0.62848226   -8.1911424    59.847447   0.01259416  0.011668543           84 
  397000   0.65170075   -8.1801213    59.763275  0.012544768  0.011624229           65 
  398000   0.64811618   -8.1891756    59.867468  0.012535064  0.011580103           97 
  399000   0.63574224   -8.1992504    59.678541   0.01246419  0.011536059          132 
  400000   0.63117601   -8.2193825    59.721334  0.012441945  0.011492233           75 
  401000   0.62472025   -8.1988354    59.693146  0.012405059  0.011448643          115 
  402000   0.62875807   -8.2176035    59.625081  0.012360091  0.011405164          121 
  403000   0.63774546   -8.2201453    59.639292   0.01233236  0.011361771          118 
  404000   0.63540689   -8.2271541    59.666431  0.012307432  0.011318613          133 
  405000    0.6162196   -8.2186867    59.626335  0.012268793  0.011275783          116 
  406000    0.6163626    -8.228239    59.641228  0.012241631  0.011233091          158 
  407000   0.62811865   -8.2482673    59.618217  0.012206842  0.011190471          133 
  408000   0.61496859   -8.2325542    59.650546  0.012183526  0.011148074          131 
  409000   0.61211288   -8.2436008    59.550441  0.012133342  0.011105868          210 
  410000   0.61894369   -8.2627414    59.588734  0.012111531  0.011063831          139 
  411000   0.60553149   -8.2593417    59.637601  0.012091971   0.01102196           98 
  412000   0.61467059   -8.2395498    59.643013  0.012063716  0.010980234          104 
  413000   0.60727399   -8.2518221    59.584026  0.012022604   0.01093876          109 
  414000     0.596142   -8.2467078    59.431491   0.01196286  0.010897522          138 
  415000    0.6152524   -8.2706227    59.583804  0.011964619  0.010856449          154 
  416000   0.58918543   -8.2646433    59.507613  0.011920596  0.010815574          150 
  417000   0.59882299    -8.272125    59.496221  0.011889732  0.010774904          151 
  418000    0.6097055   -8.2730945    59.521068  0.011866242  0.010734463          141 
  419000   0.60920677   -8.2563721    59.571356  0.011847923  0.010694245          156 
  420000   0.59945345   -8.2684924    59.576431   0.01182072  0.010654171          161 
  421000   0.59618192   -8.2867895    59.470505  0.011771676  0.010614218          149 
  422000   0.59444184   -8.2853841    59.425736   0.01173494  0.010574346          134 
  423000   0.59692935   -8.2990642     59.48132  0.011718148  0.010534673          164 
  424000    0.5808051    -8.290355    59.529287  0.011699938  0.010495309          186 
  425000    0.5978393   -8.3060434    59.433137  0.011653556  0.010456069          110 
  426000    0.5880808   -8.3016458    59.519549  0.011643104  0.010417006          149 
  427000   0.58975268   -8.2947902    59.538554  0.011619546   0.01037805          179 
  428000   0.58069063   -8.2900945    59.438118  0.011572842   0.01033938          165 
  429000   0.56854633   -8.3022225     59.28089  0.011515324   0.01030086          188 
  430000   0.57900591   -8.3049388    59.479315  0.011526999  0.010262558          120 
  431000   0.56873658   -8.2938257    59.403172  0.011485532  0.010224404          198 
  432000   0.59352721   -8.3130419    59.480386   0.01147384  0.010186424           99 
  433000   0.58308794   -8.3248347    59.458686  0.011443165  0.010148641          125 
  434000   0.57314265   -8.3368066    59.381173  0.011401915     0.010111          162 
  435000   0.56448804    -8.325512    59.385402  0.011376514  0.010073613          115 
  436000   0.56533833    -8.309831    59.354756  0.011344563  0.010036304          118 
  437000   0.57125218   -8.3356209    59.446555  0.011336109 0.0099991498          174 
  438000   0.57549418   -8.3340871    59.365056  0.011294721 0.0099622124          147 
  439000   0.56034821   -8.3233037     59.28548  0.011253888  0.009925441          160 
  440000   0.56834601   -8.3203518     59.38435  0.011247036 0.0098888388          138 
  441000   0.56501596   -8.3335644    59.456167  0.011235103 0.0098523545          148 
  442000   0.56111171   -8.3547325    59.322273  0.011184441 0.0098161216          187 
  443000   0.56926978    -8.342587    59.333809  0.011161364 0.0097799731          157 
  444000   0.55209214   -8.3532821    59.341011  0.011137577 0.0097439232          185 
  445000     0.555881   -8.3304981    59.430711  0.011129347 0.0097081245          168 
  446000   0.55076541   -8.3583333    59.337378  0.011086954 0.0096725106          142 
  447000   0.55893293   -8.3555656    59.456149  0.011084293 0.0096371286          176 
  448000   0.54969238   -8.3480882    59.308935  0.011032168   0.00960187          163 
  449000   0.54276224   -8.3676939    59.275621  0.011001414 0.0095667586          144 
  450000   0.55019391   -8.3491646    59.316773  0.010984588 0.0095317214          160 
  451000   0.54271293   -8.3694315    59.331172  0.010962892 0.0094969232          163 
  452000   0.54323493   -8.3712127    59.360426  0.010944031 0.0094622723          173 
  453000   0.54672713   -8.3696813    59.239853  0.010897692 0.0094277712          165 
  454000   0.54191164   -8.3832157    59.272521  0.010879684  0.009393426          165 
  455000   0.53611203   -8.3711029    59.331678  0.010866608 0.0093592723          178 
  456000   0.52820492   -8.3809805    59.290949  0.010835334 0.0093252993          135 
  457000     0.532979   -8.3985766    59.240811  0.010802482 0.0092914095          132 
  458000   0.54563197   -8.3829823    59.235649  0.010777957 0.0092577143          178 
  459000   0.52662256    -8.376251    59.338096  0.010773075 0.0092242187          104 
  460000   0.53251044   -8.4041883    59.140261  0.010713815    0.0091908          111 
  461000    0.5308088   -8.3842678    59.216964   0.01070444 0.0091575517          123 
  462000   0.52285283   -8.4029956    59.269459  0.010690739 0.0091245278          141 
  463000   0.51942052   -8.4101466    59.168933  0.010649556  0.009091564          147 
  464000   0.52878844   -8.4036281    59.192557  0.010630847 0.0090587503          160 
  465000   0.51724274   -8.4202767     59.16746  0.010603487 0.0090260175          133 
  466000   0.52510387   -8.3910917    59.218001  0.010589771 0.0089934708          146 
  467000   0.52738211   -8.4001913    59.081177   0.01054268 0.0089611008          150 
  468000   0.52598631   -8.4022529    59.214267  0.010543851 0.0089289031          141 
  469000   0.52231938    -8.398778    59.257718   0.01052909 0.0088968551          128 
  470000   0.50556552   -8.4183312    59.191232  0.010494899  0.008864977          165 
  471000   0.51850147   -8.4253729    59.157473  0.010466644 0.0088332427          132 
  472000   0.51487541    -8.429941      59.0492  0.010425353 0.0088016548          149 
  473000   0.51331997   -8.4124266    59.286892  0.010445189 0.0087702113          208 
  474000   0.51692001   -8.4290627    59.128392  0.010395287  0.008738919          224 
  475000   0.50396618   -8.4468095    59.175671  0.010381697 0.0087077566          121 
  476000   0.49899673   -8.4381852    59.110072  0.010348402 0.0086767692          165 
  477000   0.51247245   -8.4348245    59.172267  0.010337573 0.0086459677          154 
  478000   0.51301524   -8.4372509    59.206126  0.010321849 0.0086152352          163 
  479000   0.51232334   -8.4346065    59.202357  0.010299644 0.0085847063          171 
  480000   0.50259836   -8.4490456    59.051082  0.010251924 0.0085543088          101 
  481000    0.5014324    -8.449344    59.033214  0.010227515 0.0085239878          139 
  482000   0.49667104   -8.4149554    59.128346  0.010222743 0.0084938643          169 
  483000   0.49770657   -8.4550446     59.11469  0.010199222 0.0084638686          188 
  484000   0.49648387   -8.4569437     59.08573  0.010173163 0.0084339874          193 
  485000   0.49832752    -8.469569     58.98916  0.010135594 0.0084042362          156 
  486000   0.48956606    -8.427812    59.086202  0.010131379 0.0083746456          158 
  487000   0.49196252   -8.4667195    59.045274  0.010103572 0.0083452239          189 
  488000    0.4942864   -8.4633574    59.004518  0.010075908 0.0083158438          186 
  489000    0.4807652   -8.4613602    58.994184  0.010053542  0.008286621          215 
  490000   0.48804608   -8.4710263    59.019762  0.010037374  0.008257594          170 
  491000   0.48325985   -8.4772505    58.976048  0.010009513 0.0082286555          210 
  492000   0.48756944   -8.4868205    58.937992 0.0099827222 0.0081998242          175 
  493000   0.47688737   -8.4915103    58.994661 0.0099720523 0.0081711795          170 
  494000   0.47707199    -8.467285    58.987175 0.0099506031 0.0081426553          175 
  495000    0.4686935   -8.4887405    59.003792 0.0099332983 0.0081142602          154 
  496000   0.48828775   -8.4778127    59.048716 0.0099208191 0.0080860135          185 
  497000   0.47526085   -8.4933418    58.974677 0.0098884434  0.008057857          193 
  498000   0.47042842   -8.4971025    58.942916 0.0098632725 0.0080298153          186 
  499000    0.4660013   -8.5059643    59.002065 0.0098533843 0.0080019142          170 
  500000   0.47098275   -8.4908054      58.9938    0.0098323 0.0079741175          183 
  501000    0.4728712   -8.4810216    58.971733 0.0098090041 0.0079464657          169 
  502000   0.46295148    -8.511391    58.992829 0.0097929663 0.0079189795          165 
  503000   0.46121393   -8.5104376    58.979333 0.0097712613 0.0078916333          178 
  504000   0.47018103   -8.5108994    58.967864 0.0097499775  0.007864332          175 
  505000     0.456929   -8.5131205     58.87105 0.0097146948  0.007837178          144 
  506000   0.46995465   -8.5142359    58.913267 0.0097024485 0.0078101341          168 
  507000   0.45616282   -8.5069937    58.938359 0.0096874356 0.0077832465          200 
  508000   0.45337539   -8.4932621    58.965358 0.0096727949 0.0077564655          149 
  509000   0.44324933     -8.51441    58.808697 0.0096281429    0.0077298          166 
  510000    0.4611949   -8.5062851    58.876725 0.0096203799 0.0077032218          158 
  511000   0.45603041   -8.5110053    58.959727 0.0096150892 0.0076767674          174 
  512000   0.44954485   -8.5338859    58.914463 0.0095889425 0.0076505185          184 
Loop time of 1302.03 on 48 procs for 500000 steps with 4000 atoms

Performance: 66357.666 tau/day, 384.014 timesteps/s
99.4% CPU use with 48 MPI tasks x no OpenMP threads

MPI task timing breakdown:
Section |  min time  |  avg time  |  max time  |%varavg| %total
---------------------------------------------------------------
Pair    | 91.367     | 100.47     | 107.49     |  35.1 |  7.72
Neigh   | 9.133      | 9.4923     | 9.8076     |   5.8 |  0.73
Comm    | 81.565     | 89.817     | 98.257     |  37.2 |  6.90
Output  | 0.98413    | 0.9849     | 1.0069     |   0.3 |  0.08
Modify  | 1083.4     | 1088.7     | 1094.5     |   8.3 | 83.61
Other   |            | 12.59      |            |       |  0.97

Nlocal:        83.3333 ave          89 max          77 min
Histogram: 3 2 0 6 5 16 7 4 3 2
Nghost:        2419.48 ave        2431 max        2407 min
Histogram: 4 0 5 8 4 11 4 6 2 4
Neighs:        16711.8 ave       19307 max       14392 min
Histogram: 3 4 4 7 10 5 6 4 3 2
FullNghs:      33423.2 ave       35865 max       30913 min
Histogram: 3 2 1 8 10 8 8 4 3 1

Total # of neighbors = 1604316
Ave neighs/atom = 401.07900
Neighbor list builds = 26603
Dangerous builds = 0

#clear
#
#next RN
#
#jump SELF
Total wall time: 0:21:45
