
units lj                  # Use reduced LJ style units
atom_style atomic         # Uncharged point particles
atom_modify map hash      # Needed for indexing of clusters etc
                          # Used to be able to find where atoms are in relation to each other.

lattice fcc 1.0 spacing 1 1 1
Lattice spacing in x,y,z = 1.5874011 1.5874011 1.5874011
region box block 0 10 0 10 0 10 units lattice
create_box 2 box
Created orthogonal box = (0.0000000 0.0000000 0.0000000) to (15.874011 15.874011 15.874011)
  3 by 4 by 4 MPI processor grid
create_atoms 1 box
Created 4000 atoms
  using lattice units in orthogonal box = (0.0000000 0.0000000 0.0000000) to (15.874011 15.874011 15.874011)
  create_atoms CPU = 0.002 seconds
set type 1 type/fraction 2 0.99 78393
Setting atom values ...
  3965 settings made for type/fraction
mass 1 1.0
mass 2 1.0
pair_style lj/cut  3.5
pair_modify tail  yes
pair_coeff 1  1  1.0  1.0   # Intearaction between 1 and 1 set with epsilon = 1 and sigma = 1
pair_coeff 1  2  1.5  0.8
pair_coeff 2  2  0.5  0.88

write_data data.0
System init for write_data ...
Neighbor list info ...
  update every 1 steps, delay 10 steps, check yes
  max neighbors/atom: 2000, page size: 100000
  master list distance cutoff = 3.8
  ghost atom cutoff = 3.8
  binsize = 1.9, bins = 9 9 9
  1 neighbor lists, perpetual/occasional/extra = 1 0 0
  (1) pair lj/cut, perpetual
      attributes: half, newton on
      pair build: half/bin/atomonly/newton
      stencil: half/bin/3d
      bin: standard
WARNING: Not all mixed pair coeffs generated from mixing. Use write_data with 'pair ij' option to store all pair coeffs. (../write_data.cpp:312)


#############################
#   M E L T   S Y S T E M   #
#############################

velocity all create 2.4 6229865 mom yes dist gaussian # Assign velocities
                                                    # Temperature 2.4, random number seed, zero linear momentum
                                                                                # Gaussian distribution

timestep 0.002   # simulation timestep
thermo 1000       # output thermodynamic data every 1000 steps bf 100

# Define a fix  in this case with index 1 applied to all
# particles in the simulation. This fix is for simulations
# in the anisotropic NPT ensemble. Note that we use the MTK
# correction.
fix 1 all npt temp 2.4 2.4 0.1 iso 5.68 5.68 0.5 mtk yes tchain 5 pchain 5 # Use NPT ensemble
                                                                         # Set temperature and pressure and damping
                                                                         # Numbers of thermostats in chain and in barostat
run 10000          # run for 10000 steps
Per MPI rank memory allocation (min/avg/max) = 3.642 | 3.644 | 3.648 Mbytes
Step Temp E_pair E_mol TotEng Press Volume 
       0          2.4   -2.7429598            0   0.85614022   -1.7792645         4000 
    1000     2.385545   -1.5014425            0    2.0759804    5.5883574    4250.2166 
    2000    2.3967299   -1.5383563            0    2.0558398    5.5009671    4234.9888 
    3000    2.3710037   -1.4804465            0      2.07517    5.7586875    4229.0245 
    4000    2.4010749   -1.4807268            0    2.1199851    6.0268444    4190.6068 
    5000    2.4429325   -1.5301957            0    2.1332869    5.5417572    4258.3064 
    6000    2.3783921   -1.5087383            0    2.0579579    5.3288471    4310.1398 
    7000    2.4124736   -1.4743404            0    2.1434653    5.6547841     4281.428 
    8000    2.4283772    -1.506553            0    2.1351021    5.5166818    4274.2073 
    9000    2.4154945   -1.4912095            0    2.1311265    5.9283128    4197.1483 
   10000    2.4582851   -1.4978054            0    2.1887003    5.8001638    4228.6333 
Loop time of 2.39692 on 48 procs for 10000 steps with 4000 atoms

Performance: 720924.119 tau/day, 4172.015 timesteps/s
99.6% CPU use with 48 MPI tasks x no OpenMP threads

MPI task timing breakdown:
Section |  min time  |  avg time  |  max time  |%varavg| %total
---------------------------------------------------------------
Pair    | 1.0145     | 1.0865     | 1.1835     |   3.5 | 45.33
Neigh   | 0.20111    | 0.20755    | 0.22071    |   0.9 |  8.66
Comm    | 0.73493    | 0.82729    | 0.91549    |   4.7 | 34.51
Output  | 0.00023954 | 0.00024292 | 0.0003074  |   0.0 |  0.01
Modify  | 0.20303    | 0.26046    | 0.32357    |   6.9 | 10.87
Other   |            | 0.01487    |            |       |  0.62

Nlocal:        83.3333 ave          91 max          75 min
Histogram: 3 4 3 3 6 11 6 3 6 3
Nghost:        1584.31 ave        1617 max        1562 min
Histogram: 2 6 7 8 11 5 5 1 2 1
Neighs:        9023.27 ave       10118 max        7893 min
Histogram: 3 2 5 6 7 9 5 5 3 3

Total # of neighbors = 433117
Ave neighs/atom = 108.27925
Neighbor list builds = 902
Dangerous builds = 184

# Equilibrate just above the melting temperature to avoid step fn in T

fix 1 all npt temp 1.25 1.25 0.1 iso 5.68 5.68 0.5 mtk yes tchain 5 pchain 5
run 2000
Per MPI rank memory allocation (min/avg/max) = 3.643 | 3.645 | 3.649 Mbytes
Step Temp E_pair E_mol TotEng Press Volume 
   10000    2.4582851   -1.4978054            0    2.1887003    5.8001638    4228.6333 
   11000    1.2369784   -2.3097888            0  -0.45478506    5.6698259    3321.9567 
   12000    1.2674962   -2.3430624            0  -0.44229332    5.6280117    3306.9475 
Loop time of 0.572709 on 48 procs for 2000 steps with 4000 atoms

Performance: 603447.415 tau/day, 3492.173 timesteps/s
99.7% CPU use with 48 MPI tasks x no OpenMP threads

MPI task timing breakdown:
Section |  min time  |  avg time  |  max time  |%varavg| %total
---------------------------------------------------------------
Pair    | 0.24381    | 0.27086    | 0.32003    |   2.4 | 47.29
Neigh   | 0.0367     | 0.03961    | 0.047285   |   0.7 |  6.92
Comm    | 0.16289    | 0.21248    | 0.23838    |   2.7 | 37.10
Output  | 5.0909e-05 | 5.2293e-05 | 6.7042e-05 |   0.0 |  0.01
Modify  | 0.036763   | 0.045139   | 0.051587   |   2.1 |  7.88
Other   |            | 0.004573   |            |       |  0.80

Nlocal:        83.3333 ave          94 max          74 min
Histogram: 1 1 5 10 9 10 5 3 3 1
Nghost:        1865.33 ave        1898 max        1836 min
Histogram: 1 6 7 8 6 5 5 3 5 2
Neighs:        11548.2 ave       13269 max        9754 min
Histogram: 1 1 4 7 8 15 5 3 2 2

Total # of neighbors = 554312
Ave neighs/atom = 138.57800
Neighbor list builds = 143
Dangerous builds = 6

#############################
# L I N E A R  Q U E N C H  #
#############################

# Define solid atoms. This closely follows ten Wolde  Ruiz-Montero and Frenkel  Faraday Discuss  1996  104  93-110
# Compute components of the per-atom q6 vector
compute q6 all orientorder/atom degrees 1 6 components 6 nnn NULL cutoff 1.3 # compute the Q6 parameter.
                                                                             # Use all neighbours within 1.3 unit cell.

# get number of connections
compute coord_number all coord/atom orientorder q6 0.5

# An atom is solid if it has 8 or more connections (of a possible 14)
variable is_solid atom c_coord_number>=8
group solid dynamic all var is_solid    # Must be dynamic to update
dynamic group solid defined

# do clustering
compute cluster solid cluster/atom 1.3 # Create a cluster where all atoms within are solid and max 1.3 units from another member

# define chunks one chunk per cluster
compute clus_chunks solid chunk/atom c_cluster nchunk every compress yes  # Says which atoms are in which chunk

# count the size of each chunk
compute size_chunks solid property/chunk clus_chunks count


# Find the maximum entry in the vector of chunk sizes
variable max_n equal max(c_size_chunks)


# Thermo style which includes this variable
# thermo_style custom step temp pe vol v_max_n

thermo ${N}  # Print the thermo information every 100 steps
thermo 1000  

# Reset the npt fix at a lower temperature (below freezing)
fix 1  all npt temp  ${temp} ${temp}  0.1  iso  5.68  5.68  0.5  mtk yes tchain  5  pchain  5
fix 1  all npt temp  0.45 ${temp}  0.1  iso  5.68  5.68  0.5  mtk yes tchain  5  pchain  5
fix 1  all npt temp  0.45 0.45  0.1  iso  5.68  5.68  0.5  mtk yes tchain  5  pchain  5

dump dmp2 all dcd ${N} traj.dcd
dump dmp2 all dcd 1000 traj.dcd


compute msd all msd com yes
variable twopoint equal c_msd[4]/6/(step*dt+1.0e-6)
fix 9 all vector 10 c_msd[4]
variable fit equal slope(f_9)/6/(10*dt)
thermo_style custom step temp pe c_msd[4] v_twopoint v_fit v_max_n

fix 1 all npt temp 1.25 ${temp} 0.1 iso 5.68 5.68 0.5 mtk yes tchain 5 pchain 5
fix 1 all npt temp 1.25 0.45 0.1 iso 5.68 5.68 0.5 mtk yes tchain 5 pchain 5
run 500000 # 5000000  # Run for this many steps
Neighbor list info ...
  update every 1 steps, delay 10 steps, check yes
  max neighbors/atom: 2000, page size: 100000
  master list distance cutoff = 3.8
  ghost atom cutoff = 3.8
  binsize = 1.9, bins = 8 8 8
  4 neighbor lists, perpetual/occasional/extra = 1 3 0
  (1) pair lj/cut, perpetual
      attributes: half, newton on
      pair build: half/bin/atomonly/newton
      stencil: half/bin/3d
      bin: standard
  (2) compute orientorder/atom, occasional
      attributes: full, newton on
      pair build: full/bin/atomonly
      stencil: full/bin/3d
      bin: standard
  (3) compute coord/atom, occasional
      attributes: full, newton on
      pair build: full/bin/atomonly
      stencil: full/bin/3d
      bin: standard
  (4) compute cluster/atom, occasional
      attributes: full, newton on
      pair build: full/bin/atomonly
      stencil: full/bin/3d
      bin: standard
Per MPI rank memory allocation (min/avg/max) = 9.810 | 9.819 | 9.828 Mbytes
Step Temp PotEng c_msd[4] v_twopoint v_fit v_max_n 
   12000    1.2674962   -2.3430624 2.0995533e-30 1.4580231e-32 8.3333333e+20            2 
   13000    1.2375037   -2.3187138    1.2218526 0.0078323883   0.10355668            1 
   14000    1.2714633   -2.2920816    2.5706112  0.015301257   0.11051064            3 
   15000    1.2200595   -2.2964474    3.8803381  0.021557433   0.10996584            1 
   16000    1.2277987   -2.3143491    5.1696812  0.026925422   0.11026111       -1e+20 
   17000    1.2515888   -2.3189491    6.4419438  0.031578155   0.10910592            3 
   18000    1.2437664   -2.3411628    7.7236381  0.035757583   0.10841317            3 
   19000     1.226697   -2.3180961    9.0183802  0.039554298   0.10800541            2 
   20000     1.219911    -2.322224     10.34493  0.043103875   0.10823198            1 
   21000    1.2313922   -2.3354278    11.410237  0.045278719   0.10794402            3 
   22000    1.2442054   -2.3392115    12.765569  0.048354428   0.10703731            1 
   23000    1.2506165   -2.3314586      13.9227  0.050444565   0.10651921            1 
   24000    1.2626045   -2.3464783    15.072099  0.052333674   0.10604809            2 
   25000    1.2071201   -2.3602232     16.30918  0.054363931   0.10542481            1 
   26000    1.2150609   -2.3295836    17.577423  0.056337895   0.10493965            3 
   27000    1.2249281   -2.3167557    19.016532     0.058693   0.10482195            1 
   28000    1.2488474   -2.3276558    20.423697  0.060784811   0.10499331            1 
   29000    1.2515717   -2.3214895    21.675812  0.062286815   0.10522572            1 
   30000    1.2100661    -2.315244    22.927304  0.063686954   0.10538161            1 
   31000    1.2207765   -2.3476274    24.136227  0.064882331   0.10543149            1 
   32000    1.2338899   -2.3568458    25.242088  0.065734604   0.10543659            2 
   33000    1.2434313   -2.3558362    26.573196   0.06710403   0.10535649            3 
   34000    1.1928092   -2.3560431    27.737895  0.067985036   0.10521813            2 
   35000    1.2153879   -2.3562162    29.018226  0.069091013   0.10512328            1 
   36000     1.211044   -2.3540755    30.217919  0.069948885   0.10514005            6 
   37000    1.1889491   -2.3467823    31.497815  0.070941024    0.1051078            2 
   38000    1.2151619   -2.3509532    32.887109  0.072120851   0.10504237            1 
   39000    1.2286447   -2.3559237    34.213524   0.07310582   0.10500454            1 
   40000    1.1999597   -2.3494847    35.473442  0.073903003   0.10502599            1 
   41000     1.223673   -2.3531982    36.568106  0.074325417   0.10503804            2 
   42000    1.1611751   -2.3630624    37.802937  0.075005826   0.10502413            1 
   43000    1.1938568   -2.3584943    39.241554  0.076049523   0.10505872            2 
   44000    1.1863703   -2.3811462    40.455839  0.076620906   0.10507548            6 
   45000    1.1964651   -2.3851591    41.860328  0.077519124   0.10520179            1 
   46000    1.1827849   -2.3943197     43.30747  0.078455562   0.10532031            2 
   47000    1.2066396   -2.3831873    44.779463   0.07939621   0.10544471            2 
   48000    1.2161427   -2.3828789    46.079649   0.07999939   0.10558988            1 
   49000    1.1666295   -2.3891277    47.118203  0.080132998   0.10573584            2 
   50000     1.204623    -2.359698    48.223903   0.08037317   0.10580425            1 
   51000    1.2048464   -2.3950027     49.47311  0.080838414   0.10584764            2 
   52000    1.1842344   -2.3838611    50.538377  0.080990987   0.10581419            1 
   53000    1.1757195   -2.3630937    51.811923  0.081465287   0.10576379            2 
   54000     1.195927   -2.3962523    53.222232  0.082133073   0.10570382            2 
   55000    1.1696031   -2.3846575    54.195911  0.082115016   0.10565377            1 
   56000    1.1821021   -2.4222093    55.595425  0.082731287    0.1055572            1 
   57000    1.1853118   -2.4039002     56.02589  0.081909195   0.10541335            3 
   58000    1.1772892   -2.3925477    57.288439  0.082310975   0.10525938            1 
   59000     1.153417   -2.4136316    58.403236  0.082490445   0.10508151            1 
   60000    1.2093604   -2.3798904    59.800959  0.083056887   0.10487894            1 
   61000    1.1809156   -2.3817718     61.13951   0.08352392   0.10470863            3 
   62000    1.1821415   -2.3844777    61.946235  0.083261068   0.10455695            2 
   63000    1.1780166    -2.413338    63.385966   0.08384387   0.10441119            3 
   64000    1.1679323   -2.4206766    64.509718  0.083997028   0.10425551            1 
   65000    1.1481649   -2.3961562    65.544404  0.084031287   0.10410353            2 
   66000    1.1691745   -2.4218176    67.139792  0.084772464   0.10397545            2 
   67000    1.1907279   -2.4071482    68.723919  0.085477511   0.10386364            4 
   68000    1.1768661   -2.4030889    69.590403  0.085282356   0.10378752            1 
   69000    1.1600298   -2.4092369    70.533712  0.085185642   0.10369098            1 
   70000    1.1473891   -2.4002169    71.988375  0.085700446   0.10357974            1 
   71000    1.1527728   -2.3998839    73.210621  0.085927959   0.10350017            2 
   72000    1.1472852   -2.4179656    74.514349  0.086243458    0.1034001            1 
   73000    1.1550254   -2.4126313    75.201133  0.085846041   0.10333437            1 
   74000    1.1425858   -2.4258591     76.87495  0.086570889   0.10326241            1 
   75000    1.1782714   -2.4062624    78.000263  0.086666959   0.10319716            2 
   76000    1.1304749   -2.4268233    79.076003  0.086706143   0.10311892            4 
   77000    1.1499097   -2.4331105    80.397982  0.087010802   0.10304714            2 
   78000    1.1471446   -2.4356566    81.851649  0.087448342   0.10300107            2 
   79000    1.1626821   -2.4120782    82.872377  0.087418119   0.10295926            1 
   80000    1.1223832   -2.4191564     84.14188  0.087647791   0.10289904            2 
   81000    1.1345998   -2.4259173     85.44936  0.087910864   0.10285394            1 
   82000    1.1078837   -2.4412654    85.497388  0.086887588   0.10277147            2 
   83000    1.1360653   -2.4257838    87.089469  0.087439225   0.10267964            3 
   84000    1.1608709   -2.4454588    87.983584  0.087285301   0.10256193            2 
   85000    1.1703502   -2.4640083    89.141831  0.087393952   0.10243546            2 
   86000    1.1488621   -2.4224019    90.747045  0.087933183   0.10233792            1 
   87000    1.1268499   -2.4709714    92.642882  0.088738393   0.10227781            4 
   88000    1.1456328   -2.4149618    93.378512  0.088426621   0.10220943            2 
   89000    1.1102947   -2.4474026    94.470885  0.088455885   0.10213297            2 
   90000    1.1094918   -2.4449112     95.56039  0.088481842   0.10205741            2 
   91000    1.1287797   -2.4549307    95.914255  0.087833566   0.10195794            2 
   92000    1.1073978   -2.4681633    96.829114   0.08770753   0.10182538            2 
   93000    1.1303267   -2.4701801    98.769352  0.088503003   0.10170718            2 
   94000    1.1264872   -2.4365534    99.573906  0.088274739   0.10159206            1 
   95000     1.110317   -2.4415454    100.32354  0.088003108   0.10147189            2 
   96000    1.1250852   -2.4638198    101.86232  0.088422153   0.10133515            2 
   97000     1.117347   -2.4050185    102.69543  0.088226311   0.10120334            1 
   98000    1.1104429   -2.4730962    103.44993  0.087967623   0.10107119            1 
   99000    1.1004873   -2.4553485    104.65901  0.088096811   0.10093318            5 
  100000    1.1195305   -2.4477944    105.15631  0.087630255   0.10077521            4 
  101000    1.1003279   -2.4659447    106.43124  0.087814557   0.10062657            2 
  102000    1.1054919   -2.4683639    107.71598  0.088003247   0.10047252            3 
  103000    1.0933699   -2.4820548    108.38705  0.087691785   0.10031999            4 
  104000    1.0753527   -2.4842787     109.2762  0.087561061   0.10017463            2 
  105000    1.1548458   -2.4700528    110.89606  0.088012744   0.10005615            1 
  106000    1.1047721   -2.4621457     112.3808  0.088349686  0.099934219            2 
  107000     1.112546    -2.466298    114.07499  0.088843452  0.099826953            1 
  108000    1.0940777   -2.4465945     114.0397  0.087993593  0.099711033            1 
  109000    1.0815081   -2.4748363    114.81499  0.087779046  0.099594161            1 
  110000    1.1018672   -2.4776441    116.42977  0.088204367  0.099473845            5 
  111000    1.0854067   -2.4545402    116.68393  0.087600549  0.099333133            2 
  112000    1.0990889   -2.4803323    117.97055  0.087775707  0.099192457            4 
  113000    1.0895482   -2.4564798    118.65165  0.087501219   0.09903712            2 
  114000    1.0937848   -2.4977393    119.04456  0.087020876  0.098876411            3 
  115000    1.0720757   -2.4869666    120.42571  0.087265006  0.098704032            2 
  116000     1.084457   -2.4739052    121.26884  0.087118422  0.098529325            1 
  117000    1.0926775   -2.4970069    122.27682  0.087091752  0.098358622            2 
  118000    1.1010122   -2.5145843    123.49313   0.08721266  0.098198903            1 
  119000    1.0643976    -2.490911    124.90116  0.087465799  0.098046701            1 
  120000     1.071938    -2.483602    125.42047  0.087097549   0.09788654            1 
  121000    1.0882545   -2.5269522    125.60793  0.086506838  0.097705124            3 
  122000     1.068125   -2.5003863    127.35379  0.086990295  0.097536335            1 
  123000    1.0825752   -2.5164052    128.32908  0.086943822  0.097382122            1 
  124000    1.0547508   -2.5353684    129.59758   0.08709515  0.097228534            3 
  125000    1.0903266   -2.5342867    130.16232  0.086774882  0.097081083            1 
  126000    1.0687189   -2.5098452    131.50276  0.086972724  0.096934925            2 
  127000    1.0604316   -2.4900509    132.68226  0.087061848  0.096778459            2 
  128000    1.0657684   -2.4863797    134.01119  0.087246869  0.096629104            3 
  129000    1.0830684   -2.5432047    133.75205  0.086403135  0.096476307            2 
  130000     1.066266   -2.5436956    135.27002  0.086711552   0.09631817            2 
  131000    1.0620623   -2.5301106    135.83425  0.086408554  0.096152264            2 
  132000    1.0548333   -2.5190535    136.32021  0.086060739  0.095989572            1 
  133000    1.0477526   -2.5223329    137.71413  0.086287047   0.09583505            1 
  134000    1.0704468   -2.5056434    138.71934  0.086268248  0.095684902            1 
  135000    1.0514795   -2.5160048    139.94285  0.086384475  0.095534953            2 
  136000    1.0403989   -2.5404937    141.18602  0.086511042  0.095384709            4 
  137000     1.060169   -2.4888772    141.81121  0.086259862  0.095236177            2 
  138000    1.0696932   -2.5625046    142.51911  0.086062262  0.095079254            1 
  139000    1.0368316   -2.5180076    143.10662  0.085795337  0.094907971            1 
  140000    1.0487858   -2.4914615    144.45951  0.085987802  0.094740456            1 
  141000    1.0568079   -2.5290745    144.31484  0.085292457  0.094573221            3 
  142000    1.0456551   -2.5590117    145.99881  0.085680052   0.09440962            1 
  143000    1.0382363   -2.5458395    147.19391  0.085777334  0.094256661            4 
  144000    1.0292641   -2.5485427    148.59185  0.085990651  0.094107318            2 
  145000    1.0542757   -2.5217253    149.69502  0.086031621  0.093959639            2 
  146000    1.0297129    -2.551902    150.06084  0.085651166  0.093813812            2 
  147000    1.0259915   -2.5391913    150.90784   0.08554866  0.093669603            4 
  148000    1.0439219   -2.5286428    152.31674  0.085763929  0.093525856            3 
  149000    1.0212207   -2.5328172    152.15138   0.08509585  0.093389218            2 
  150000    1.0346755   -2.5605876    153.99898  0.085554986   0.09324542            4 
  151000    1.0015711   -2.5542284    155.54188  0.085839889  0.093114263            1 
  152000    1.0272418   -2.5715795    155.97681  0.085513599  0.092980399            2 
  153000    1.0126781   -2.5478625    156.84355   0.08542677   0.09284894            3 
  154000   0.99199911   -2.5478137    157.67466  0.085321784  0.092726071            2 
  155000    1.0456434   -2.5635642     158.2032  0.085055484  0.092595858            4 
  156000     1.019391   -2.5665364    158.52375  0.084681489   0.09244683            3 
  157000    1.0165264   -2.5496512    159.01309  0.084401854  0.092300112            1 
  158000    1.0078778   -2.5671293    160.68621   0.08475011  0.092147738            3 
  159000    1.0086729   -2.5645373    161.31309  0.084545644   0.09199716            4 
  160000    1.0260776   -2.5766962    161.36349  0.084043486  0.091842502            3 
  161000     1.012897   -2.5653704    162.61936  0.084171512  0.091689734            2 
  162000    1.0075861   -2.5757339    162.73073  0.083709223  0.091527222            1 
  163000    1.0342517   -2.5411174    164.09794  0.083894654  0.091356962            2 
  164000    1.0311232   -2.5841786    164.11968  0.083394145  0.091189472            1 
  165000   0.98961278   -2.5765167    165.33031  0.083500154  0.091022556            2 
  166000    1.0053437    -2.573273    165.97381  0.083320186  0.090855777            2 
  167000   0.98955768   -2.5725007    167.28572  0.083475906  0.090686753            1 
  168000   0.99340138   -2.6074677    166.97476  0.082824782  0.090523454            2 
  169000   0.98887816   -2.5603278     167.7924  0.082737872   0.09035755            7 
  170000   0.97031071   -2.5674396    169.59595  0.083135271  0.090189553            2 
  171000    1.0114336   -2.5808473    170.44344  0.083062106  0.090028248            2 
  172000     1.007434   -2.5957926    170.98873  0.082843377  0.089864407            1 
  173000    1.0180077   -2.6088438    171.85031  0.082779535  0.089705516            3 
  174000   0.98053087   -2.5979541    173.25424  0.082976169  0.089551701            2 
  175000    0.9828574   -2.5494771    173.66132  0.082695865  0.089393814            2 
  176000   0.98562512   -2.5964027    174.25502  0.082507113  0.089236124            3 
  177000   0.98447198   -2.5908739    175.27599  0.082521653  0.089077696            2 
  178000   0.98603329   -2.6071667     175.6689  0.082241993  0.088918495            2 
  179000   0.96853179   -2.5945481    176.49681  0.082167976  0.088762532            2 
  180000   0.99094105   -2.5939287    177.63521  0.082238524  0.088610013            2 
  181000   0.96992454   -2.6075796    177.90176  0.081906889  0.088461281            3 
  182000   0.96647406   -2.5984542    179.17492  0.082039797  0.088314493            1 
  183000   0.95838687   -2.6063848    180.21069  0.082063155  0.088168202            2 
  184000   0.98047778   -2.6165833    181.76916  0.082322987  0.088027068            1 
  185000   0.95655801   -2.6249398    182.02725  0.081994257  0.087882161            2 
  186000   0.96805487   -2.6330358    183.31842  0.082131907  0.087746197            4 
  187000   0.96085993   -2.6164409     183.6895  0.081858067  0.087603916            5 
  188000   0.98234845   -2.6153974    184.44726  0.081758538  0.087459215            3 
  189000   0.97507945   -2.6153028    184.54986  0.081371188  0.087312895            2 
  190000   0.95694512   -2.6366679     185.6965  0.081445834  0.087165691            3 
  191000   0.97145182   -2.6011647    185.60569  0.080979794  0.087018818            2 
  192000    0.9768561   -2.6370751    187.35323  0.081316507  0.086870596            2 
  193000   0.92873752   -2.6359149    187.66891  0.081031483  0.086721596            2 
  194000   0.95828734    -2.635848    188.79916  0.081099295  0.086580372            3 
  195000   0.96709253   -2.6221118    189.53408   0.08099747   0.08644114            2 
  196000   0.96478537   -2.6278777    189.67015  0.080642069  0.086300699            2 
  197000   0.96313355   -2.6392403    190.50517  0.080585941  0.086154182            2 
  198000   0.93827872   -2.6515042    191.31033  0.080517817  0.086006266            5 
  199000   0.93457669   -2.6541575    191.61523  0.080240885  0.085852192            4 
  200000   0.95408419   -2.6756856    192.57476  0.080239482  0.085698826            3 
  201000   0.96151031   -2.6602994    192.75038  0.079913092  0.085544939            4 
  202000   0.95042089   -2.6333686     194.0557  0.080055983  0.085391987            3 
  203000      0.95608   -2.6495221    194.54467  0.079862345  0.085239894            1 
  204000   0.92757601   -2.6748896    194.22775  0.079341403  0.085082508            3 
  205000   0.96014526   -2.6648721    194.56156  0.079090065   0.08492793            3 
  206000   0.94951912   -2.6609915    195.79905  0.079206737  0.084776228            2 
  207000   0.92951287   -2.6664271    196.72826  0.079198171  0.084624469            3 
  208000   0.92271003   -2.6546542    198.10969  0.079370871  0.084479426            2 
  209000   0.95263465    -2.685239    198.40027  0.079106965  0.084338947            3 
  210000   0.93433898   -2.6551734    199.80789  0.079288847  0.084197582            4 
  211000   0.93706497   -2.6919291    199.71749  0.078877365   0.08405879            3 
  212000   0.91327225   -2.6894696    201.11144  0.079053237  0.083919275            2 
  213000   0.91168182   -2.6713973    201.88337  0.078984104  0.083773041            2 
  214000   0.90336145   -2.6653137    202.25562  0.078759976  0.083627746            2 
  215000    0.9118271   -2.6634252    202.43316  0.078462466  0.083487826            5 
  216000   0.92977524   -2.6687287    203.81922  0.078633959  0.083349882            4 
  217000   0.91265098   -2.6652951       204.27  0.078444701  0.083211529            4 
  218000   0.91353913   -2.6719822    205.13892  0.078417018  0.083071101            3 
  219000   0.90153894   -2.6978315    206.16768   0.07845041  0.082930444            5 
  220000   0.93128916   -2.6855816    206.16039  0.078091055  0.082788438            4 
  221000   0.91224174   -2.6812269    207.38448  0.078199277  0.082648333            3 
  222000   0.91598927   -2.7026435    207.96291  0.078064156  0.082504879            2 
  223000   0.89792552   -2.6709456    208.51666  0.077921024  0.082363498            4 
  224000   0.90930588   -2.7004817    208.54855  0.077585027  0.082220023            2 
  225000   0.91550766    -2.685656     208.2179  0.077117741  0.082076472            3 
  226000   0.91502853   -2.6878037    210.43162   0.07759278  0.081930813            3 
  227000   0.92037505   -2.6676755    211.24585  0.077549873  0.081790588            6 
  228000   0.88707167   -2.6796724    211.70658  0.077378137   0.08165708            3 
  229000   0.91115992    -2.708438    211.69549  0.077036205  0.081516224            3 
  230000   0.90012745   -2.7020697    212.41331  0.076961345  0.081374501            4 
  231000   0.91106749   -2.7106545    211.91795  0.076449477   0.08122731            2 
  232000   0.89000792   -2.7277404    213.98175  0.076861261  0.081083707            5 
  233000   0.88765766   -2.7076814    214.24975  0.076627236  0.080940449            3 
  234000   0.89476697    -2.715673    214.76016   0.07648154   0.08080141            3 
  235000   0.89765862   -2.7230871    215.67777   0.07648148  0.080661531            2 
  236000   0.89197459   -2.7149772    215.91485  0.076241118  0.080520604            3 
  237000   0.91066699   -2.7341244    216.31897  0.076061524  0.080377742            4 
  238000   0.88896188   -2.7119393    217.31824  0.076091821  0.080233876            2 
  239000   0.91081212   -2.7272088    217.03308  0.075674015  0.080085216            2 
  240000   0.88075073   -2.7326964    217.94593   0.07567567  0.079935416            6 
  241000   0.87153324   -2.7389346    218.38327  0.075512888  0.079787491            2 
  242000   0.88354474   -2.7244053    218.70063  0.075310132  0.079637589            3 
  243000   0.86729657   -2.7396272    220.02472  0.075454294  0.079490215            3 
  244000   0.86646535   -2.7236713    220.53534  0.075319446  0.079344016            7 
  245000   0.87389141   -2.7288648    221.21109  0.075241868  0.079198159            4 
  246000    0.8798902   -2.7249867    221.18948  0.074928686  0.079052476            3 
  247000   0.87504796   -2.7443752      221.915  0.074870108  0.078908254            5 
  248000   0.87647822   -2.7331493    221.86404  0.074551089  0.078761152            3 
  249000   0.86375304   -2.7082335    221.98762  0.074293045  0.078613222            2 
  250000   0.87668234   -2.7415521    222.63398  0.074211328  0.078464169            4 
  251000    0.8699794   -2.7635873     224.0476  0.074384995  0.078316527            1 
  252000   0.86133946   -2.7498363     224.3138  0.074177843   0.07816794            2 
  253000   0.86604382   -2.7419398    225.22584   0.07418506  0.078021562            6 
  254000   0.85279159   -2.7370495    225.01807  0.073824824  0.077876576            4 
  255000   0.86800517   -2.7607064     226.7144  0.074089672  0.077733526            2 
  256000     0.839164   -2.7287438    227.74161  0.074134639  0.077593306            4 
  257000   0.86455602   -2.7344597    228.03775  0.073942201  0.077450655            6 
  258000   0.86793484   -2.7208366    227.45584  0.073467648  0.077310231            4 
  259000   0.84503749   -2.7598186    228.47215  0.073510986  0.077167556            3 
  260000   0.85494533   -2.7614062    228.70973  0.073304402  0.077025531            3 
  261000   0.86661995   -2.7446228    229.09683  0.073147134  0.076881061            4 
  262000   0.85188151   -2.7714621     228.8063   0.07277554  0.076734945            4 
  263000    0.8531756   -2.7795251    229.86495  0.072834267   0.07658654            3 
  264000   0.84487761   -2.7637298    229.44957  0.072427263  0.076439684            1 
  265000   0.86350503   -2.7681349    231.10697  0.072675146  0.076293124            4 
  266000   0.83749389   -2.7891549    232.00757  0.072684074  0.076149523            6 
  267000   0.85732438   -2.7517833    231.92422  0.072385836  0.076005064            6 
  268000   0.85302984   -2.7725478    232.61676  0.072331081  0.075860934            3 
  269000   0.82486878   -2.7902306    232.61802  0.072062584  0.075716677            3 
  270000   0.84749296   -2.7980796    233.24312  0.071988617  0.075573936            3 
  271000   0.83685744   -2.7943272    234.93633  0.072243643  0.075431497            3 
  272000   0.83442267   -2.7796571     234.2982  0.071782536  0.075289139            2 
  273000   0.84609807   -2.7743402    234.76221  0.071661235   0.07514791            4 
  274000   0.83998499   -2.7843307    236.55081  0.071943678  0.075005898            3 
  275000   0.82778404   -2.8046965    235.81176   0.07145811  0.074865067            3 
  276000   0.83605254   -2.8050806    236.15377  0.071302467  0.074720883            3 
  277000   0.84160931   -2.7818019    236.44486  0.071132628  0.074575032            5 
  278000   0.83948636   -2.7922718     236.8791  0.071006924  0.074428211            4 
  279000   0.81328131   -2.7755849     237.3168  0.070883155  0.074283677            1 
  280000   0.83041759   -2.7822651    238.68131  0.071036104  0.074140847            2 
  281000   0.81521681   -2.7871906    239.25547  0.070953579  0.073998807            2 
  282000   0.82582364   -2.8110178    239.35559  0.070731557  0.073857745            3 
  283000   0.83621999   -2.7950931    240.13102  0.070709958  0.073717713            2 
  284000   0.81060052   -2.8043122    239.82552  0.070371339  0.073578882            4 
  285000   0.79911397    -2.809691    240.20814  0.070236299  0.073439741            4 
  286000   0.79759552   -2.8221471    241.31391   0.07031291  0.073300133            4 
  287000   0.80071041   -2.8082728    242.14532  0.070309327  0.073160821            2 
  288000    0.8074752   -2.8192014     242.6052  0.070198265  0.073022727            4 
  289000   0.81726354   -2.8315801    242.78141  0.070006172  0.072883935            4 
  290000   0.81557496   -2.8547748    241.56634  0.069415616  0.072744024            3 
  291000   0.79747786   -2.8332342    243.12144  0.069622406  0.072600965            1 
  292000   0.78920054   -2.8264258    242.82872  0.069300434  0.072458783            4 
  293000   0.80920083   -2.8377068    242.64203  0.069010815  0.072314336            6 
  294000   0.78465185   -2.8104717    243.67434  0.069068691  0.072170174            7 
  295000   0.80610429   -2.8602717    243.72384  0.068848543  0.072027763            2 
  296000    0.8074141   -2.8401199    243.92908  0.068673727  0.071883819            4 
  297000   0.78351835    -2.850606    244.11621  0.068495007  0.071741232            5 
  298000    0.7805451   -2.8282747    245.39994  0.068624144  0.071596577            2 
  299000   0.79585912   -2.8495173    245.11316  0.068314706   0.07145346            9 
  300000    0.7724016   -2.8361114    246.08878  0.068357994  0.071310615            3 
  301000   0.79771956   -2.8475181    246.88082  0.068350172  0.071167803            7 
  302000   0.78124125   -2.8517718    246.55815  0.068034809  0.071025996            4 
  303000   0.79909397   -2.8699745    247.49392  0.068067636  0.070884012            2 
  304000   0.77872496   -2.8554784    247.25054  0.067777013     0.070741            3 
  305000   0.79105105   -2.8359842    248.51836   0.06790119  0.070598224            5 
  306000   0.79208594   -2.8707062    247.95173  0.067524981  0.070454729            3 
  307000   0.77272221   -2.8610011    248.94932   0.06757582  0.070311096            4 
  308000   0.77536845   -2.8680257    248.69936  0.067288788  0.070168743            4 
  309000   0.79218978   -2.8724033    249.71758  0.067345626  0.070028566            2 
  310000   0.75257439   -2.8776764    250.18619  0.067254353  0.069888077            3 
  311000   0.78595571   -2.8582014    250.47138  0.067114517  0.069748807            3 
  312000   0.76416408   -2.8697927    250.46464  0.066897608   0.06960684            2 
  313000   0.76795717   -2.8721193    251.02732  0.066833685  0.069463416            4 
  314000   0.76355802   -2.8636074    250.37064  0.066446559  0.069320567            3 
  315000   0.74802358    -2.866839    251.32184  0.066487259    0.0691773            5 
  316000   0.76006707   -2.8921112    251.07271  0.066211156   0.06903442            2 
  317000   0.76807093   -2.8939612    252.00608  0.066247656    0.0688928            4 
  318000   0.76635503   -2.8764797    251.98286  0.066033244  0.068750502            3 
  319000    0.7524471   -2.8908228     251.7477  0.065764813  0.068608358            4 
  320000   0.75768313   -2.8927928    253.70768  0.066069709  0.068467432            3 
  321000   0.76005351   -2.8902454    253.85696  0.065902638  0.068327153            5 
  322000   0.75173888   -2.8920665    254.49154    0.0658622  0.068189864            6 
  323000   0.74607015   -2.8927873    255.03821  0.065799332  0.068053004            3 
  324000   0.73621052   -2.8750612     255.1212  0.065617594  0.067915516            4 
  325000   0.74625603   -2.9160458    255.68111  0.065559259  0.067779112            5 
  326000   0.75066433   -2.8974268    255.04193  0.065194767  0.067643078            3 
  327000   0.75073406   -2.8960133    256.54443  0.065378296  0.067506949            6 
  328000   0.73745541   -2.9205195    256.21493  0.065095256  0.067370222           11 
  329000   0.74743244   -2.9221604    256.09643  0.064867384  0.067232904            4 
  330000   0.73154169    -2.888333    256.93437  0.064882416  0.067097311            4 
  331000   0.73966652   -2.9106222    257.20616  0.064754825  0.066961531            6 
  332000   0.73405184   -2.9463698     258.0344   0.06476767  0.066826885            3 
  333000   0.74287443   -2.9188956    257.92224  0.064545106   0.06669277            8 
  334000   0.73366633   -2.9195038    258.49886  0.064495722  0.066558963            4 
  335000   0.72211357   -2.9177544    259.48825  0.064549316  0.066426086            2 
  336000   0.73727516   -2.9497333    258.36534  0.064078704  0.066292251            3 
  337000   0.72444076   -2.8959766    260.47751  0.064410858  0.066159761            5 
  338000   0.72927455   -2.9243566    259.69273  0.064026807  0.066026383            3 
  339000   0.71677999   -2.9073778     260.3515  0.063999877  0.065892097            7 
  340000    0.7350816   -2.9430721    259.67335  0.063645428  0.065758035            4 
  341000   0.71818673   -2.9245263    260.93784    0.0637678  0.065621852            4 
  342000   0.71522439    -2.945529    260.54558  0.063485766  0.065487206            4 
  343000   0.72684288   -2.9742243    260.05156   0.06318065  0.065352315            7 
  344000     0.713317   -2.9461703    261.29397  0.063297958  0.065217786            4 
  345000    0.7227559   -2.9408952    261.93061  0.063268263  0.065083259            4 
  346000   0.72206974   -2.9653669    261.54265  0.062991967  0.064949286            8 
  347000   0.71153225   -2.9493354    262.47324  0.063033919   0.06481623            5 
  348000   0.73731699   -2.9505935    262.28141  0.062806852   0.06468417            7 
  349000   0.71490467   -2.9569832    261.90058  0.062535956  0.064552225           15 
  350000   0.70431014    -2.965454    263.13697  0.062651658  0.064421184            4 
  351000   0.71111434   -2.9674213    264.15436  0.062714709   0.06429039            9 
  352000   0.71423673   -2.9591544     263.3019  0.062334731  0.064160139            5 
  353000   0.71096608   -2.9842424    263.76642  0.062267806  0.064029115            3 
  354000   0.69557053   -2.9462001    263.76865  0.062092431  0.063897993            6 
  355000   0.68901464   -2.9761062    263.95746  0.061961844  0.063766688            4 
  356000   0.70292905   -2.9682924    264.56804   0.06193072  0.063636314            3 
  357000    0.6984068   -2.9761722    266.00674  0.062093077  0.063504533            4 
  358000   0.69121512   -2.9816526    264.74162  0.061625143  0.063373325            4 
  359000   0.69840505    -2.968485    264.51484  0.061400844  0.063239851           10 
  360000   0.67650436   -2.9753469    265.71356  0.061507769  0.063108263            4 
  361000   0.68889456   -2.9951786      265.391  0.061262928  0.062975834            5 
  362000   0.70186222   -2.9867844    265.12544   0.06103256  0.062844162            4 
  363000    0.6844153   -2.9785549    266.47289  0.061173757  0.062712373            4 
  364000   0.69804712    -3.001971    265.81876  0.060855943  0.062580651            9 
  365000   0.67949233   -3.0049862    266.78117  0.060908943  0.062450674            6 
  366000   0.67784279   -2.9842205    266.81368  0.060749926  0.062319594            4 
  367000   0.68437782   -2.9934114    267.50153  0.060740583  0.062189705            6 
  368000   0.67968527   -2.9964444    267.30492  0.060531005  0.062060431            5 
  369000   0.66525609   -2.9844102    268.53457  0.060644663  0.061932382            4 
  370000    0.6930068   -3.0130544    268.19893  0.060405165  0.061803845            5 
  371000   0.68538828   -2.9866018    267.95909  0.060188475  0.061676093            3 
  372000   0.68370776   -3.0111721    269.12329  0.060287474  0.061547373            3 
  373000   0.67011842   -3.0096492    268.76056  0.060044807  0.061418484            5 
  374000   0.67406514   -3.0320857    269.06663  0.059952457  0.061289295            3 
  375000   0.66242954   -3.0166739    269.37795  0.059861766   0.06116068           12 
  376000   0.67506545   -3.0298202    268.88701  0.059593752  0.061030783            3 
  377000   0.65587489   -3.0362987    269.22153  0.059509623  0.060900508            4 
  378000    0.6755348   -3.0290224    270.07308  0.059539922  0.060771006            6 
  379000   0.65701446   -3.0235943    269.90422  0.059345694  0.060642325            3 
  380000   0.65548787   -3.0192747    269.92147  0.059193305  0.060512594            3 
  381000   0.66175941   -3.0290738    268.75202  0.058782156  0.060382955            9 
  382000   0.64797699   -3.0366208    270.24143  0.058953192  0.060253256            7 
  383000   0.66168216   -3.0428735    270.14879   0.05877911   0.06012458            4 
  384000   0.64629313   -3.0321093    270.24072  0.058645988  0.059995657            6 
  385000   0.65666721   -3.0468924    271.78003  0.058826847  0.059867302            5 
  386000   0.63533355   -3.0370354    270.06958  0.058305177  0.059739027            4 
  387000   0.63457159    -3.035888     271.4428  0.058450216  0.059611123            8 
  388000   0.64509777   -3.0351182    271.18702  0.058244635  0.059484374            6 
  389000   0.64425706   -3.0423077    271.01315  0.058057659    0.0593564            8 
  390000   0.64773386   -3.0476845    271.59163    0.0580324  0.059228769            4 
  391000   0.65922487   -3.0703365     271.2368  0.057808354  0.059099489            9 
  392000   0.62944785   -3.0552104    272.73047  0.057978416  0.058971414            5 
  393000   0.64691547   -3.0663168    271.80984  0.057635675  0.058844266            5 
  394000    0.6327868   -3.0440899    272.41429  0.057617237  0.058718457            7 
  395000   0.63271426   -3.0661815    272.14023  0.057413551  0.058592105           19 
  396000   0.63461291   -3.0660296    273.63292  0.057582686  0.058466449           10 
  397000   0.63197424   -3.0754723    273.11645   0.05732923  0.058341394           14 
  398000   0.63654838   -3.0706727    272.85517   0.05713048  0.058216563            5 
  399000   0.62694025   -3.0844867    273.42883  0.057107108  0.058092852            5 
  400000   0.62800822   -3.0737783    274.01429  0.057086309  0.057968025            3 
  401000   0.63292268   -3.0791377    272.88777  0.056709845  0.057843777            9 
  402000   0.61968356   -3.1091759    273.55806  0.056707724  0.057717664           10 
  403000   0.61415733    -3.115977    273.74192   0.05660503  0.057591621            6 
  404000     0.618491    -3.072723    273.32673  0.056379275   0.05746648           13 
  405000   0.61620643   -3.1058588    274.29645    0.0564396  0.057342206            9 
  406000   0.63190384   -3.1013787    273.46694  0.056130323  0.057217608            7 
  407000   0.59543404   -3.0977242    274.52537  0.056209126  0.057093215            8 
  408000   0.62435474    -3.083064    274.55852  0.056078129  0.056969268            8 
  409000   0.62654663   -3.1074398    274.26101  0.055880401  0.056844773            4 
  410000   0.61955725    -3.084663    274.76106  0.055845744  0.056720363            6 
  411000   0.62239776   -3.0925648    275.33121  0.055825469  0.056595976            7 
  412000   0.61607856   -3.1217083    275.00453  0.055623893  0.056471871            4 
  413000   0.61136024   -3.1038836     275.0917  0.055506799   0.05634801            6 
  414000   0.61029012   -3.1122011    274.98902  0.055352056  0.056225338            9 
  415000   0.60002481   -3.1161322    275.95174  0.055411997  0.056102526            8 
  416000   0.61307135   -3.1123702    275.76736  0.055241859  0.055980337            9 
  417000   0.58546186    -3.109477    276.01515  0.055158903  0.055858276            7 
  418000   0.59589942   -3.1046981       276.49   0.05512161  0.055735635            7 
  419000   0.59173737    -3.107199    276.33128  0.054958489  0.055613295           13 
  420000   0.60082921   -3.1306454     276.5539  0.054871805  0.055491592            5 
  421000   0.58961449   -3.1209194    276.01726  0.054635246  0.055370207            9 
  422000   0.58975498   -3.1313252    276.03542  0.054509365  0.055247962            8 
  423000   0.60942034   -3.1455857     277.4323  0.054655693  0.055126454            6 
  424000   0.59405121   -3.1664096    276.89024  0.054420251  0.055005581           11 
  425000   0.59460595   -3.1499452    276.20731  0.054158296  0.054884924           10 
  426000   0.58440736   -3.1642717    277.23289  0.054231787  0.054764071            8 
  427000   0.58424226   -3.1609075    277.27417  0.054112835  0.054644138           10 
  428000   0.57275712   -3.1749471    277.58828  0.054047563  0.054524058           11 
  429000   0.57415731   -3.1518799    277.62445  0.053928603  0.054403825            6 
  430000   0.58475027   -3.1528501    277.71376  0.053820496  0.054284257            8 
  431000   0.58034559   -3.1350448    277.73648  0.053700016  0.054165023           10 
  432000   0.56427986   -3.1678813    277.71446  0.053571462  0.054045736            4 
  433000   0.57010771   -3.1567183    278.34183  0.053568482  0.053927048            5 
  434000   0.57112104   -3.1657027    278.24236  0.053425953  0.053808587            9 
  435000   0.56801159   -3.1751934    279.00988  0.053450169  0.053690925            6 
  436000   0.56716884   -3.1736235    278.23337   0.05317916  0.053573274           14 
  437000   0.56590521   -3.1686035    278.38534   0.05308645  0.053455416            7 
  438000   0.58011769   -3.1716435     278.8773  0.053058846  0.053337265           17 
  439000   0.56027553   -3.1836648    278.51201  0.052868643  0.053219139           21 
  440000   0.57369809    -3.173247    278.15835  0.052681506  0.053100159            9 
  441000   0.56113144   -3.1776848    278.85231  0.052693181  0.052982501            6 
  442000   0.57129108   -3.1819872    278.48759  0.052505202  0.052864003           11 
  443000   0.56368855   -3.1729586     278.4609  0.052381659  0.052746279           10 
  444000   0.56107841   -3.1864993    278.47863  0.052267009  0.052628757            6 
  445000   0.55681619   -3.1937921    278.73736  0.052198007  0.052511541            5 
  446000   0.55059623   -3.1972878    278.72006  0.052077739  0.052394046            8 
  447000   0.54829432   -3.2079162     278.5349  0.051926714  0.052276912            7 
  448000    0.5519484   -3.2006038    280.26986   0.05213353  0.052160049           13 
  449000   0.55872871   -3.2099009    279.63667  0.051899902  0.052044176           12 
  450000   0.55665397   -3.2006468    280.39464  0.051924933   0.05192806            9 
  451000   0.55370046   -3.2141222    279.83174   0.05170579  0.051812896           12 
  452000   0.54494144   -3.2162044    279.76891  0.051579814  0.051697832            8 
  453000   0.54629355   -3.2158874    279.95436  0.051500067  0.051582273            5 
  454000   0.54073018   -3.2256148    278.93084  0.051198759  0.051466278           12 
  455000   0.53910312   -3.2147306    280.14684  0.051308945  0.051350591           10 
  456000   0.54479634   -3.2411206    279.78847  0.051130933  0.051234508           10 
  457000   0.52274939   -3.2212484    279.59805  0.050984328  0.051118558            6 
  458000   0.52888869    -3.231951    278.65911  0.050702166  0.051002412           17 
  459000   0.52871685   -3.2469568    279.42235  0.050730274  0.050885904           10 
  460000   0.52840964    -3.226199     279.9835  0.050721649  0.050769462           13 
  461000   0.53068718   -3.2557943    278.96384  0.050427302  0.050653495            8 
  462000   0.52200664   -3.2426454    279.90549  0.050488003  0.050537072            9 
  463000   0.53941799   -3.2463216    279.96905  0.050390398  0.050421238           16 
  464000   0.53664192   -3.2325813    279.59484   0.05021459  0.050305807            8 
  465000   0.53178053   -3.2419251    279.53368  0.050095641  0.050191102           15 
  466000   0.52489411    -3.241039    280.16985  0.050101905  0.050075506           17 
  467000   0.52691676   -3.2597144    279.77954  0.049924972  0.049960703            9 
  468000   0.51142272   -3.2672435    280.10924  0.049877002  0.049845571           27 
  469000    0.5214847   -3.2571597    279.96388  0.049744825  0.049730963            7 
  470000   0.50678269   -3.2394547      280.042  0.049652836   0.04961654           13 
  471000   0.51385757    -3.248009    279.53568  0.049457835  0.049502223           17 
  472000    0.5231842   -3.2876576    279.44898  0.049337744  0.049388003           16 
  473000   0.51887909   -3.2512168    279.92621  0.049317515  0.049274014           15 
  474000   0.50950173   -3.2667856    280.35391  0.049288663  0.049159786           13 
  475000   0.51575605   -3.2561138    280.79661  0.049262564  0.049046096            7 
  476000   0.51818916   -3.2612124    280.49958  0.049107069  0.048932521            9 
  477000   0.49149159   -3.2728508    280.06691   0.04892853  0.048819865           12 
  478000   0.50182077   -3.2814568    280.04036   0.04882154  0.048706401           14 
  479000   0.50534823   -3.2691763    279.35614  0.048600581  0.048592936            9 
  480000   0.50375163   -3.2863993    280.17643  0.048641741   0.04847936           31 
  481000   0.49855922   -3.2938989    279.49013  0.048421713  0.048366309           19 
  482000   0.49724371   -3.2997933    280.18199   0.04844087  0.048253632           17 
  483000    0.5074866   -3.2971928    279.95175  0.048300855  0.048141528           29 
  484000   0.49296921   -3.2930612     280.5641  0.048306491  0.048029504           29 
  485000   0.48260736   -3.3122012    280.63972  0.048219883   0.04791765           17 
  486000   0.50092782   -3.3014963    280.42457  0.048083774  0.047805721           37 
  487000   0.48542502   -3.2923989    280.01607  0.047915139  0.047693931           34 
  488000   0.49130865    -3.306283    280.89225  0.047966572  0.047582058            7 
  489000   0.48204644   -3.2995466    280.20324  0.047751064  0.047470785           12 
  490000   0.48279711   -3.3044347     280.7295  0.047743112  0.047360262            9 
  491000   0.47664781   -3.3270728    279.74322  0.047478483  0.047249838           16 
  492000   0.47538206   -3.3262831    280.20538  0.047460261  0.047138888           11 
  493000   0.48537184   -3.3337913    281.53987  0.047589565  0.047028412           20 
  494000   0.46961718   -3.3259094    280.40911  0.047302481  0.046917914           15 
  495000   0.48154988   -3.3317885    280.72352  0.047259851  0.046807479           67 
  496000    0.4669668   -3.3113061    280.68176  0.047157553  0.046697342           15 
  497000   0.48423915   -3.3281561    280.03944   0.04695497  0.046587148           21 
  498000   0.46557327    -3.337984    280.54519  0.046945313  0.046477209           21 
  499000    0.4667297   -3.3315132    280.77898  0.046890277  0.046367598            6 
  500000   0.48171027   -3.3331361    280.28953  0.046714921  0.046258046           25 
  501000   0.46745345   -3.3366181    280.59928  0.046673201  0.046149172           18 
  502000   0.45450595   -3.3415595    280.45983  0.046557076  0.046040636           20 
  503000   0.46378239   -3.3444047    281.55241  0.046645528   0.04593292           20 
  504000   0.45193673   -3.3458804    281.27398  0.046506942  0.045825699            9 
  505000   0.45748921    -3.356661     280.6181  0.046306617  0.045718439           45 
  506000   0.46364442   -3.3688548     281.3886  0.046341996  0.045610848           20 
  507000   0.47201956   -3.3510264    280.67599  0.046133463   0.04550363           21 
  508000   0.46110041   -3.3615171     281.3417  0.046151854  0.045396614           27 
  509000   0.46298776   -3.3724568    280.71149  0.045958004   0.04528956           21 
  510000   0.44446463   -3.3629257    280.89798  0.045898362  0.045182524           22 
  511000   0.45626442   -3.3772969    280.93279  0.045814218  0.045075711           26 
  512000   0.45106369   -3.3812252    280.75584  0.045695937  0.044968717           15 
Loop time of 1199.79 on 48 procs for 500000 steps with 4000 atoms

Performance: 72012.349 tau/day, 416.738 timesteps/s
99.4% CPU use with 48 MPI tasks x no OpenMP threads

MPI task timing breakdown:
Section |  min time  |  avg time  |  max time  |%varavg| %total
---------------------------------------------------------------
Pair    | 76.294     | 81.772     | 87.063     |  28.0 |  6.82
Neigh   | 8.0894     | 8.4053     | 8.6705     |   4.8 |  0.70
Comm    | 76.565     | 82.058     | 88.079     |  28.9 |  6.84
Output  | 2.1729     | 2.1735     | 2.1816     |   0.1 |  0.18
Modify  | 1011.9     | 1014.9     | 1018.4     |   3.8 | 84.59
Other   |            | 10.47      |            |       |  0.87

Nlocal:        83.3333 ave          88 max          78 min
Histogram: 1 2 3 8 4 8 7 4 4 7
Nghost:        2162.85 ave        2186 max        2136 min
Histogram: 2 3 2 5 4 11 8 7 4 2
Neighs:        14283.7 ave       15587 max       13144 min
Histogram: 5 4 3 9 6 9 2 2 6 2
FullNghs:      28567.3 ave       30288 max       26687 min
Histogram: 2 1 8 4 11 3 7 4 3 5

Total # of neighbors = 1371230
Ave neighs/atom = 342.80750
Neighbor list builds = 27182
Dangerous builds = 0

#clear
#
#next RN
#
#jump SELF
Total wall time: 0:20:03
