
units lj                  # Use reduced LJ style units
atom_style atomic         # Uncharged point particles
atom_modify map hash      # Needed for indexing of clusters etc
                          # Used to be able to find where atoms are in relation to each other.

lattice fcc 1.0 spacing 1 1 1
Lattice spacing in x,y,z = 1.5874011 1.5874011 1.5874011
region box block 0 10 0 10 0 10 units lattice
create_box 2 box
Created orthogonal box = (0.0000000 0.0000000 0.0000000) to (15.874011 15.874011 15.874011)
  3 by 4 by 4 MPI processor grid
create_atoms 1 box
Created 4000 atoms
  using lattice units in orthogonal box = (0.0000000 0.0000000 0.0000000) to (15.874011 15.874011 15.874011)
  create_atoms CPU = 0.008 seconds
set type 1 type/fraction 2 0.57 78393
Setting atom values ...
  2292 settings made for type/fraction
mass 1 1.0
mass 2 1.0
pair_style lj/cut  3.5
pair_modify tail  yes
pair_coeff 1  1  1.0  1.0   # Intearaction between 1 and 1 set with epsilon = 1 and sigma = 1
pair_coeff 1  2  1.5  0.8
pair_coeff 2  2  0.5  0.88

write_data data.0
System init for write_data ...
Neighbor list info ...
  update every 1 steps, delay 10 steps, check yes
  max neighbors/atom: 2000, page size: 100000
  master list distance cutoff = 3.8
  ghost atom cutoff = 3.8
  binsize = 1.9, bins = 9 9 9
  1 neighbor lists, perpetual/occasional/extra = 1 0 0
  (1) pair lj/cut, perpetual
      attributes: half, newton on
      pair build: half/bin/atomonly/newton
      stencil: half/bin/3d
      bin: standard
WARNING: Not all mixed pair coeffs generated from mixing. Use write_data with 'pair ij' option to store all pair coeffs. (../write_data.cpp:312)


#############################
#   M E L T   S Y S T E M   #
#############################

velocity all create 2.4 3143649 mom yes dist gaussian # Assign velocities
                                                    # Temperature 2.4, random number seed, zero linear momentum
                                                                                # Gaussian distribution

timestep 0.002   # simulation timestep
thermo 1000       # output thermodynamic data every 1000 steps bf 100

# Define a fix  in this case with index 1 applied to all
# particles in the simulation. This fix is for simulations
# in the anisotropic NPT ensemble. Note that we use the MTK
# correction.
fix 1 all npt temp 2.4 2.4 0.1 iso 5.68 5.68 0.5 mtk yes tchain 5 pchain 5 # Use NPT ensemble
                                                                         # Set temperature and pressure and damping
                                                                         # Numbers of thermostats in chain and in barostat
run 10000          # run for 10000 steps
Per MPI rank memory allocation (min/avg/max) = 3.642 | 3.644 | 3.648 Mbytes
Step Temp E_pair E_mol TotEng Press Volume 
       0          2.4   -4.8904957            0   -1.2913957   -4.1230707         4000 
    1000     2.352867   -4.6173154            0   -1.0888973    5.7864688    3613.9692 
    2000    2.4281258   -4.6448324            0   -1.0035542     5.755064    3620.2619 
    3000    2.4386393   -4.6167423            0  -0.95969782    5.6012268    3634.2161 
    4000      2.40363    -4.648446            0   -1.0439024    5.8198715    3600.2134 
    5000    2.3851018   -4.6214277            0   -1.0446694    5.6234858    3619.8744 
    6000    2.4180339   -4.5993383            0  -0.97319416    5.8043743    3636.7619 
    7000    2.3701782   -4.6418318            0   -1.0874533    5.6389201    3621.1918 
    8000    2.3875298   -4.5979826            0   -1.0175832    5.8097642     3622.899 
    9000    2.3935365   -4.5392336            0  -0.94982649    5.8867105    3644.3336 
   10000    2.4132698   -4.6068013            0  -0.98780158    5.7400425    3626.8021 
Loop time of 2.63917 on 48 procs for 10000 steps with 4000 atoms

Performance: 654750.992 tau/day, 3789.068 timesteps/s
99.6% CPU use with 48 MPI tasks x no OpenMP threads

MPI task timing breakdown:
Section |  min time  |  avg time  |  max time  |%varavg| %total
---------------------------------------------------------------
Pair    | 1.1955     | 1.268      | 1.3472     |   2.5 | 48.04
Neigh   | 0.21255    | 0.22157    | 0.22784    |   0.6 |  8.40
Comm    | 0.82824    | 0.88722    | 0.98991    |   3.5 | 33.62
Output  | 0.00024442 | 0.00024944 | 0.00031167 |   0.0 |  0.01
Modify  | 0.21374    | 0.2447     | 0.26963    |   3.3 |  9.27
Other   |            | 0.01748    |            |       |  0.66

Nlocal:        83.3333 ave          92 max          75 min
Histogram: 3 3 6 4 9 7 5 7 3 1
Nghost:        1755.58 ave        1784 max        1725 min
Histogram: 3 4 4 7 3 9 6 3 4 5
Neighs:        10531.9 ave       11732 max        9392 min
Histogram: 2 6 1 10 7 6 8 2 3 3

Total # of neighbors = 505529
Ave neighs/atom = 126.38225
Neighbor list builds = 899
Dangerous builds = 168

# Equilibrate just above the melting temperature to avoid step fn in T

fix 1 all npt temp 1.25 1.25 0.1 iso 5.68 5.68 0.5 mtk yes tchain 5 pchain 5
run 2000
Per MPI rank memory allocation (min/avg/max) = 3.644 | 3.646 | 3.650 Mbytes
Step Temp E_pair E_mol TotEng Press Volume 
   10000    2.4132698   -4.6068013            0  -0.98780158    5.7400425    3626.8021 
   11000    1.2389879   -6.6832587            0   -4.8252415    5.5562277    2803.1558 
   12000    1.2708897   -6.7711305            0   -4.8652725    5.7707264    2778.3859 
Loop time of 0.667739 on 48 procs for 2000 steps with 4000 atoms

Performance: 517567.875 tau/day, 2995.184 timesteps/s
99.6% CPU use with 48 MPI tasks x no OpenMP threads

MPI task timing breakdown:
Section |  min time  |  avg time  |  max time  |%varavg| %total
---------------------------------------------------------------
Pair    | 0.30024    | 0.32344    | 0.38464    |   2.2 | 48.44
Neigh   | 0.040854   | 0.043282   | 0.051664   |   0.8 |  6.48
Comm    | 0.18479    | 0.2513     | 0.28185    |   3.0 | 37.63
Output  | 5.3202e-05 | 5.4468e-05 | 6.7715e-05 |   0.0 |  0.01
Modify  | 0.038006   | 0.04467    | 0.050732   |   1.9 |  6.69
Other   |            | 0.004988   |            |       |  0.75

Nlocal:        83.3333 ave          91 max          78 min
Histogram: 5 2 9 11 6 1 9 2 0 3
Nghost:        2103.94 ave        2129 max        2076 min
Histogram: 1 2 2 7 8 11 9 5 1 2
Neighs:        13760.1 ave       15678 max       12122 min
Histogram: 2 3 7 8 8 8 5 3 2 2

Total # of neighbors = 660485
Ave neighs/atom = 165.12125
Neighbor list builds = 142
Dangerous builds = 11

#############################
# L I N E A R  Q U E N C H  #
#############################

# Define solid atoms. This closely follows ten Wolde  Ruiz-Montero and Frenkel  Faraday Discuss  1996  104  93-110
# Compute components of the per-atom q6 vector
compute q6 all orientorder/atom degrees 1 6 components 6 nnn NULL cutoff 1.3 # compute the Q6 parameter.
                                                                             # Use all neighbours within 1.3 unit cell.

# get number of connections
compute coord_number all coord/atom orientorder q6 0.5

# An atom is solid if it has 8 or more connections (of a possible 14)
variable is_solid atom c_coord_number>=8
group solid dynamic all var is_solid    # Must be dynamic to update
dynamic group solid defined

# do clustering
compute cluster solid cluster/atom 1.3 # Create a cluster where all atoms within are solid and max 1.3 units from another member

# define chunks one chunk per cluster
compute clus_chunks solid chunk/atom c_cluster nchunk every compress yes  # Says which atoms are in which chunk

# count the size of each chunk
compute size_chunks solid property/chunk clus_chunks count


# Find the maximum entry in the vector of chunk sizes
variable max_n equal max(c_size_chunks)


# Thermo style which includes this variable
# thermo_style custom step temp pe vol v_max_n

thermo ${N}  # Print the thermo information every 100 steps
thermo 1000  

# Reset the npt fix at a lower temperature (below freezing)
fix 1  all npt temp  ${temp} ${temp}  0.1  iso  5.68  5.68  0.5  mtk yes tchain  5  pchain  5
fix 1  all npt temp  0.45 ${temp}  0.1  iso  5.68  5.68  0.5  mtk yes tchain  5  pchain  5
fix 1  all npt temp  0.45 0.45  0.1  iso  5.68  5.68  0.5  mtk yes tchain  5  pchain  5

dump dmp2 all dcd ${N} traj.dcd
dump dmp2 all dcd 1000 traj.dcd


compute msd all msd com yes
variable twopoint equal c_msd[4]/6/(step*dt+1.0e-6)
fix 9 all vector 10 c_msd[4]
variable fit equal slope(f_9)/6/(10*dt)
thermo_style custom step temp pe c_msd[4] v_twopoint v_fit v_max_n

fix 1 all npt temp 1.25 ${temp} 0.1 iso 5.68 5.68 0.5 mtk yes tchain 5 pchain 5
fix 1 all npt temp 1.25 0.45 0.1 iso 5.68 5.68 0.5 mtk yes tchain 5 pchain 5
run 500000 # 5000000  # Run for this many steps
Neighbor list info ...
  update every 1 steps, delay 10 steps, check yes
  max neighbors/atom: 2000, page size: 100000
  master list distance cutoff = 3.8
  ghost atom cutoff = 3.8
  binsize = 1.9, bins = 8 8 8
  4 neighbor lists, perpetual/occasional/extra = 1 3 0
  (1) pair lj/cut, perpetual
      attributes: half, newton on
      pair build: half/bin/atomonly/newton
      stencil: half/bin/3d
      bin: standard
  (2) compute orientorder/atom, occasional
      attributes: full, newton on
      pair build: full/bin/atomonly
      stencil: full/bin/3d
      bin: standard
  (3) compute coord/atom, occasional
      attributes: full, newton on
      pair build: full/bin/atomonly
      stencil: full/bin/3d
      bin: standard
  (4) compute cluster/atom, occasional
      attributes: full, newton on
      pair build: full/bin/atomonly
      stencil: full/bin/3d
      bin: standard
Per MPI rank memory allocation (min/avg/max) = 9.845 | 9.850 | 9.854 Mbytes
Step Temp PotEng c_msd[4] v_twopoint v_fit v_max_n 
   12000    1.2708897   -6.7711305 2.6312455e-30 1.8272538e-32 8.3333333e+20            2 
   13000    1.2270733    -6.796951   0.49679419  0.003184578  0.040527394            1 
   14000    1.2427262   -6.8100952   0.95820428 0.0057035967  0.039126441            2 
   15000    1.2563626    -6.817015    1.3601455 0.0075563634  0.037693481            1 
   16000    1.2511006   -6.8550861    1.7671647 0.0092039826  0.036063912            1 
   17000    1.2250063   -6.8426784    2.1816428  0.010694327  0.035661166            2 
   18000    1.2103624   -6.8583472    2.5538473  0.011823367  0.034916405            3 
   19000    1.2285846   -6.8814246    2.9819036  0.013078524  0.034587921            3 
   20000    1.2308329   -6.8678837    3.3363226  0.013901344  0.034076943            2 
   21000    1.2332057   -6.9118117     3.767242  0.014949373  0.033859757            2 
   22000    1.2369522   -6.8424994    4.1804714  0.015835118  0.033860626            3 
   23000    1.2553324   -6.7914975    4.5297205   0.01641203  0.033769385            2 
   24000    1.2205446   -6.8905778    4.8949278  0.016996277  0.033567653            3 
   25000     1.249402   -6.8912485    5.3424365  0.017808121   0.03345268            3 
   26000    1.2395681   -6.9206313    5.6711227  0.018176675  0.033405216            3 
   27000    1.2275969   -6.8738132    6.0683958  0.018729616  0.033267265            4 
   28000    1.2167614   -6.8639775    6.5318412  0.019440003  0.033165372            2 
   29000    1.2154023      -6.9084    6.9518718  0.019976643  0.033162211            2 
   30000    1.2145947   -6.8834475    7.4099731  0.020583258  0.033307327            2 
   31000    1.2263981   -6.9486961    7.9309457  0.021319746  0.033502704            3 
   32000    1.2440311   -6.9640386    8.4384672  0.021975175  0.033763025            1 
   33000    1.2068748   -6.9280757    8.8513167   0.02235181  0.034014745            2 
   34000     1.235619   -6.9025431    9.2017003  0.022553187  0.034199076            4 
   35000     1.227739    -6.893586    9.6522077  0.022981447  0.034295709            1 
   36000    1.2019993   -6.9340954    10.119784  0.023425425  0.034419874            1 
   37000    1.1856636   -6.9180061    10.680223  0.024054557  0.034607447            3 
   38000    1.1985362   -6.9098317    11.000916  0.024124816  0.034764912            1 
   39000    1.2200796   -6.9410353      11.3166   0.02418077  0.034827995            4 
   40000    1.2146703   -6.9692542    11.615478  0.024198912  0.034805387            2 
   41000    1.1778239   -6.9190537    12.067565  0.024527571  0.034761236            2 
   42000    1.1808019   -6.9706193    12.471569  0.024745176  0.034726896            2 
   43000    1.2035112   -6.9756943     12.84544  0.024894263  0.034672932            4 
   44000    1.1941516   -6.9750677    13.211336  0.025021469  0.034618899            2 
   45000    1.1623402   -6.9674489     13.57122  0.025131888  0.034561812            4 
   46000    1.1863377   -6.9804152    13.953434  0.025277959  0.034503516            2 
   47000    1.1987049   -7.0008122     14.33743  0.025420974  0.034427502            5 
   48000    1.1765867   -6.9541756    14.703965  0.025527717  0.034338408            3 
   49000     1.196927   -6.9590785    14.934198  0.025398296  0.034229257            2 
   50000     1.195898   -7.0129455    15.213443  0.025355738  0.034081427            4 
   51000    1.1899106   -7.0120091    15.469235  0.025276528  0.033914331            4 
   52000    1.1783619   -7.0555344    15.830179  0.025368876  0.033765229            2 
   53000    1.2159339   -7.0442318    16.191763  0.025458747  0.033628206            2 
   54000    1.1905557   -7.0206732    16.556947  0.025550844   0.03347952            3 
   55000    1.1834557   -7.0130287    16.764692  0.025401049  0.033312635            4 
   56000    1.2112399   -6.9849065    17.022066  0.025330454   0.03312126            3 
   57000    1.1801366   -7.0398123    17.272895   0.02525277  0.032936993            2 
   58000    1.1889472   -7.0300031    17.562296  0.025233184  0.032740786            3 
   59000    1.1528622   -7.0163773    17.864152  0.025231853  0.032535756            2 
   60000    1.1719659   -6.9969635    18.252873  0.025351212  0.032347162            4 
   61000    1.1692945   -7.0086555     18.62754  0.025447459  0.032184488            2 
   62000    1.2033456   -7.0158475    18.860893  0.025350662  0.032014393            4 
   63000     1.132492    -7.071886    19.077832  0.025235227  0.031836236            2 
   64000    1.1498123   -7.0534799    19.364039  0.025213592  0.031669035            2 
   65000     1.155414   -7.0425435    19.761086  0.025334725  0.031505217            2 
   66000    1.1822036   -7.0305064    20.143585  0.025433819  0.031363962            1 
   67000    1.1622279   -7.0436497     20.38933  0.025359863    0.0312247            2 
   68000     1.146819   -7.0768635    20.639313  0.025293276  0.031079374            5 
   69000    1.1236533   -7.0730541    21.005797   0.02536932    0.0309383            2 
   70000    1.1702094   -7.0403346     21.29429  0.025350345  0.030804461            5 
   71000    1.1900142   -7.0392351    21.517668  0.025255479  0.030670091            2 
   72000     1.148389   -7.0674338      21.8559  0.025296181  0.030539217            3 
   73000    1.1629009   -7.0782613    22.261005  0.025412106  0.030424129            1 
   74000    1.1787863   -7.0771807    22.646775  0.025503125  0.030317184            3 
   75000    1.1457685   -7.0727455    22.932964   0.02548107  0.030218428            3 
   76000    1.1691478   -7.1070722    23.155474  0.025389774  0.030119069            5 
   77000    1.1285953    -7.097147    23.456463  0.025385782   0.03001501            2 
   78000    1.1366064     -7.11825     23.54582   0.02515579  0.029901063            2 
   79000     1.157741   -7.1396864    23.854161  0.025162617  0.029783892            3 
   80000     1.138684   -7.1337145    24.157999  0.025164582  0.029663922           14 
   81000    1.1647535   -7.1289179    24.459674  0.025164274  0.029544539            4 
   82000    1.1382611   -7.1045339    24.817149   0.02522068  0.029431489            2 
   83000    1.1455405    -7.141032    25.021711  0.025122199  0.029329376            3 
   84000    1.1372502   -7.1352916    25.493384  0.025291055  0.029234796            1 
   85000    1.1319504   -7.1244292    25.650522  0.025147571  0.029139104            1 
   86000    1.1544343   -7.1420933    25.889644  0.025086864  0.029033871            3 
   87000    1.1228849   -7.1144684    26.157523  0.025055099  0.028932454            2 
   88000    1.1367937   -7.1497677    26.382089  0.024983038  0.028831153            1 
   89000    1.1171762   -7.1475473    26.501171   0.02481383  0.028724097            7 
   90000    1.1124553   -7.1484271    26.855031  0.024865769  0.028617796            5 
   91000    1.1431655   -7.1626154    26.913491  0.024646054      0.02851            7 
   92000    1.1140898   -7.1673731    27.242666  0.024676327  0.028400556            4 
   93000    1.1289306   -7.1937012     27.49268  0.024635018  0.028294335            3 
   94000    1.1153758   -7.1929416    27.698351  0.024555275  0.028188515            4 
   95000    1.1169923   -7.2333715    27.927105  0.024497461  0.028077994            5 
   96000    1.1054165   -7.1981984    28.256735  0.024528415  0.027973915            5 
   97000    1.1143348   -7.1891542    28.541859  0.024520497  0.027873111            2 
   98000    1.0814575   -7.1995777    28.843177  0.024526511  0.027772786            2 
   99000    1.1076354   -7.1645928     29.08193  0.024479739  0.027677803            2 
  100000    1.1228874   -7.1704726    29.478179  0.024565149  0.027589211            2 
  101000    1.0874474   -7.1867825    29.654987  0.024467811  0.027504898            3 
  102000    1.0904399   -7.2037564    29.909719  0.024436045   0.02741932            1 
  103000    1.1012192   -7.2070175     30.20481  0.024437549  0.027338569            4 
  104000    1.1085605   -7.2350967     30.53584   0.02446782  0.027258737            3 
  105000    1.1003709   -7.2378371     30.62847  0.024308309   0.02717673            2 
  106000    1.0900924   -7.2072506    30.980261  0.024355551  0.027095039            5 
  107000    1.1033689    -7.205238    31.124499  0.024240264    0.0270129            4 
  108000    1.0909859   -7.2124632    31.362352  0.024199346  0.026930111            4 
  109000    1.0754665   -7.2630368    31.367732  0.023981446  0.026841604            3 
  110000    1.0864179   -7.2676445     31.70821  0.024021371  0.026747979            1 
  111000    1.0985709    -7.282846    31.886792  0.023939033  0.026657381            3 
  112000    1.0881527   -7.2424427    32.225775  0.023977511  0.026568496            2 
  113000    1.0726411   -7.2638371    32.456663  0.023935592  0.026479945            7 
  114000    1.0756117   -7.2463036    32.695414  0.023900156   0.02639092            4 
  115000    1.0840676   -7.2581131    32.976295  0.023895866  0.026306327            3 
  116000    1.0629336   -7.2971929     33.14171    0.0238087  0.026225877            3 
  117000    1.0949806   -7.2488699    33.317625  0.023730502    0.0261421            4 
  118000    1.0571522    -7.284472    33.399214  0.023587015  0.026056166            4 
  119000    1.0808399   -7.3027958    33.622818   0.02354539  0.025969119            5 
  120000    1.0925192   -7.3087699    33.894654  0.023537954  0.025884155            4 
  121000    1.0893794   -7.3171614    34.143878  0.023515067  0.025801445            7 
  122000     1.056655   -7.3000663    34.413803  0.023506696  0.025717661            4 
  123000    1.0712752   -7.3269768    34.489023  0.023366547  0.025638126            7 
  124000    1.0812073   -7.2942008    34.841349  0.023414885  0.025555318            4 
  125000    1.0517188   -7.3323047    34.878606  0.023252404  0.025472274            6 
  126000    1.0366941   -7.3012623    35.007501  0.023153109  0.025384445            5 
  127000    1.0738671   -7.2975731    35.141619  0.023058805  0.025292797            6 
  128000    1.0597808   -7.2966496    35.291427  0.022976189  0.025202372            2 
  129000    1.0645997   -7.3211074    35.495437  0.022929869  0.025111096            2 
  130000    1.0451943   -7.3121896     35.69173  0.022879314  0.025022106            2 
  131000    1.0457261   -7.3488277    35.914176  0.022846168  0.024934129            4 
  132000    1.0474155   -7.3376253    35.922005  0.022678033   0.02484444            4 
  133000    1.0784118   -7.3188635    36.301696  0.022745424  0.024755444            5 
  134000    1.0569675   -7.3293992    36.428911  0.022654796   0.02466923            5 
  135000    1.0703857    -7.360765    36.507982  0.022535791  0.024583242            5 
  136000    1.0566567   -7.3921435    36.661347   0.02246406  0.024495947            7 
  137000    1.0113819    -7.334643    36.979983  0.022493907  0.024409327            7 
  138000    1.0483069   -7.3763091    37.137224   0.02242586  0.024322808            7 
  139000    1.0639945     -7.38615    37.204949  0.022305125  0.024237484            5 
  140000    1.0345721   -7.3878886    37.541201  0.022345953  0.024153465            7 
  141000     1.057022   -7.3770009    37.578319  0.022209408  0.024068887            3 
  142000    1.0391997   -7.3951287    37.785355  0.022174504   0.02398219            5 
  143000    1.0442652   -7.4076107    37.926376  0.022101618  0.023897072            9 
  144000    1.0314048   -7.3706854    38.176382  0.022092814  0.023813037            3 
  145000    1.0214626   -7.3928672    38.453109  0.022099488  0.023731733            3 
  146000    1.0625407   -7.4149188    38.605159  0.022034908  0.023652101            3 
  147000    1.0223293   -7.4037428     38.79982  0.021995363  0.023574203            4 
  148000    1.0491279   -7.4312639    38.940546  0.021925983  0.023494245            5 
  149000    1.0226614   -7.4418839    39.051512  0.021840891  0.023414266            2 
  150000    1.0232975   -7.3886172     39.35593  0.021864406  0.023337182            5 
  151000    1.0048803   -7.4504991    39.357692   0.02172058  0.023258263            6 
  152000    1.0431864   -7.4261248    39.521007  0.021667219  0.023177099            4 
  153000    1.0297178   -7.4779993    39.520817  0.021525499  0.023095073            6 
  154000    1.0096896   -7.4531837     39.68036  0.021472056  0.023012797            3 
  155000     1.019538   -7.4406434    39.731807  0.021361187  0.022929217            3 
  156000    1.0423008   -7.4877508    39.805958  0.021263866  0.022844975            5 
  157000    1.0250564   -7.4516021    40.085412  0.021276758  0.022760122            3 
  158000      1.03175   -7.5068323    40.213839  0.021209831  0.022678086            5 
  159000     0.995169   -7.4779389    40.428743  0.021189069  0.022597544            6 
  160000   0.98721959   -7.5002356    40.670798  0.021182707  0.022518041            5 
  161000    1.0252908   -7.4731775    40.736076  0.021084925  0.022438402            4 
  162000   0.98884772   -7.4827267    40.919883  0.021049322  0.022359702            3 
  163000    1.0176338   -7.4204328    41.211456  0.021069251  0.022283086            6 
  164000    1.0303697   -7.4731012    41.311967  0.020991853  0.022207828            8 
  165000     1.010496   -7.5393447    41.335721  0.020876627  0.022131143            6 
  166000   0.97557581   -7.4989845    41.521151  0.020843951  0.022054315            3 
  167000    1.0048967   -7.4938383    41.791781  0.020854182  0.021978909            7 
  168000   0.98389223   -7.5132102    41.823083  0.020745577  0.021907025            7 
  169000    1.0041949   -7.5524349    41.907038   0.02066422  0.021834742            6 
  170000    1.0039419   -7.4913191    42.261737  0.020716538   0.02176179            7 
  171000    1.0088986   -7.4995901    42.177582  0.020554377   0.02168849            5 
  172000    1.0032192   -7.5335584    42.468275  0.020575714  0.021615692            6 
  173000   0.98124066   -7.5460998    42.343422  0.020396639  0.021543121            3 
  174000   0.99467726   -7.5452357    42.606049  0.020405196  0.021469089            9 
  175000   0.99363806   -7.5509138    42.722659  0.020344123  0.021395872            3 
  176000    0.9994658   -7.5270497    42.757067  0.020244824  0.021323615            4 
  177000    1.0116407   -7.5575109    42.970515  0.020230939  0.021251055            6 
  178000   0.96584361    -7.553412    43.155405  0.020203841  0.021179719            6 
  179000   0.96682478   -7.5683549    43.184369  0.020104455  0.021106548            3 
  180000   0.97809678     -7.58756    43.176109  0.019988939  0.021032928            5 
  181000   0.97206178   -7.5821305    43.348649  0.019957941  0.020959363            3 
  182000   0.95739281   -7.5801313    43.364291  0.019855445  0.020884915            5 
  183000   0.96748078   -7.5996395     43.53054   0.01982265  0.020812063           11 
  184000   0.97261081   -7.5863088     43.78767  0.019831372  0.020741393           12 
  185000   0.98755927   -7.6089335    43.898801  0.019774235  0.020670893            6 
  186000   0.96115112   -7.6102178    44.027547  0.019725604  0.020601307            6 
  187000   0.94885178   -7.5921777    44.348313  0.019763063  0.020532769            6 
  188000   0.95757847   -7.6070862    44.246036  0.019612605  0.020464123            3 
  189000   0.98047709   -7.6407851    44.341393  0.019550879  0.020392744            3 
  190000   0.96826777   -7.6143976    44.649915  0.019583296  0.020322932            5 
  191000   0.96590997   -7.6291953    44.803914  0.019547956  0.020255507            5 
  192000   0.96944269   -7.6473484    44.774459  0.019433359  0.020187293            7 
  193000   0.95560019   -7.6598895    44.761626  0.019327127  0.020118784            4 
  194000    0.9482828   -7.6467618    45.041173  0.019347583  0.020051277            5 
  195000   0.96695143   -7.6662835    45.140728  0.019290909  0.019984597            5 
  196000   0.94670035   -7.6700308    45.329239  0.019272635  0.019917577            7 
  197000   0.94306983    -7.647173    45.434523  0.019219341  0.019851154            6 
  198000   0.96430851   -7.6676563    45.460554   0.01913323   0.01978581            3 
  199000   0.95489402    -7.633655    45.802512  0.019180281  0.019721397            6 
  200000   0.93934611   -7.6665622    45.861149  0.019108812  0.019658326            4 
  201000   0.94650831   -7.6561638    45.817975  0.018995844  0.019594905            6 
  202000   0.93898332   -7.7049171    46.057979  0.019000816   0.01953181            7 
  203000   0.93923617   -7.6388835     46.40812  0.019050952  0.019470197            5 
  204000   0.94285852   -7.6734729    46.265723  0.018899396  0.019408046            6 
  205000   0.96869046    -7.669392    46.336533  0.018835989  0.019345031            6 
  206000   0.93289071   -7.7039198    46.353718  0.018751504  0.019281484            5 
  207000   0.94291384   -7.7320259    46.301161  0.018639759  0.019217878            6 
  208000   0.94262717   -7.7062477    46.415632  0.018596006  0.019152793            5 
  209000   0.94668694   -7.7089373    46.488489   0.01853608  0.019088372            2 
  210000   0.95206458   -7.7172468    46.599652  0.018491926  0.019024231            8 
  211000    0.9193748   -7.7342446     46.77325  0.018472847  0.018960843            6 
  212000   0.93189827   -7.7083314    46.938974  0.018450854  0.018898001            5 
  213000   0.91086669   -7.7029641    47.131991  0.018439746  0.018836021           10 
  214000    0.9199866   -7.7683522    46.951934  0.018283463  0.018773877            3 
  215000     0.922221   -7.7639136    47.114491  0.018261431  0.018711412            4 
  216000   0.90914588   -7.7922733    47.263985  0.018234562  0.018648608            7 
  217000   0.93045366   -7.7713539     47.36141  0.018187945  0.018586388           13 
  218000   0.94037818   -7.7595382    47.518847  0.018164697  0.018524649           14 
  219000   0.92888597   -7.7319897    47.537947  0.018089021  0.018462962            3 
  220000   0.92055225   -7.7680298    47.486669  0.017987375   0.01840117            4 
  221000   0.92643696   -7.7395669    47.848026  0.018042242   0.01833965            6 
  222000   0.92043613   -7.7938456     47.63151  0.017879696  0.018277805            2 
  223000   0.90143935   -7.7813597     47.64973  0.017806327  0.018215192            6 
  224000   0.92260031   -7.8240782    47.717653  0.017752103  0.018153233           15 
  225000   0.91581062   -7.8295191    47.909131  0.017744123  0.018091028            9 
  226000   0.91377167    -7.803787    47.973159  0.017689218  0.018030545            6 
  227000   0.90095329   -7.8037567    48.157066  0.017678805  0.017969558            7 
  228000   0.91203327   -7.8263089    48.142025  0.017595769  0.017908994           13 
  229000    0.8893747   -7.8114574       48.386  0.017607715  0.017849379            7 
  230000    0.9015318   -7.7896665    48.304377  0.017501586  0.017789885            3 
  231000   0.89114911   -7.8000099     48.29776  0.017423434  0.017730044            5 
  232000   0.89700451   -7.7994738    48.520755  0.017428432  0.017670677            5 
  233000   0.89028122   -7.8577441    48.537595  0.017359655  0.017611753            8 
  234000   0.89194461   -7.8748635    48.598966  0.017307324  0.017551815            7 
  235000   0.90249313   -7.8688422    48.569569  0.017223251  0.017491841            7 
  236000   0.89594714   -7.8894752     48.52598   0.01713488   0.01743225           10 
  237000   0.87211651   -7.8725399    48.604632  0.017090236  0.017371409            4 
  238000     0.888317   -7.8380468    48.777851   0.01707908  0.017310444            8 
  239000   0.87727365   -7.8614354    48.838817  0.017028876  0.017250081            7 
  240000   0.88755354   -7.8673085    48.760733   0.01693081  0.017190009            6 
  241000   0.88132037   -7.9009351    48.645319   0.01682065   0.01712892            6 
  242000   0.88929817   -7.8954234    48.751221  0.016787611  0.017068068            6 
  243000   0.89705888   -7.8935555    48.864324  0.016757313   0.01700712            4 
  244000   0.86120168    -7.857664    49.102582  0.016770007  0.016946861            6 
  245000   0.90105444   -7.8775417    48.989305  0.016663029  0.016886632           11 
  246000   0.86735868   -7.9031183    48.951635  0.016582532  0.016826455            6 
  247000   0.88746875    -7.904249    49.044604  0.016546762  0.016766237           13 
  248000   0.86854469   -7.9097876    49.004801  0.016466667  0.016705879           16 
  249000   0.86361508   -7.9095608    49.039766  0.016412238  0.016645398            4 
  250000   0.88282982   -7.9370197    49.171299  0.016390433  0.016584811           10 
  251000   0.84757231   -7.9113333    49.191121  0.016331713  0.016525006            7 
  252000   0.86852278      -7.9177    49.292118  0.016300303  0.016465281           11 
  253000    0.8503231   -7.8944949    49.379429  0.016264634  0.016406172           18 
  254000   0.86736532   -7.9324757    49.420045  0.016213925  0.016347349            6 
  255000   0.84471791   -7.9225936    49.460603  0.016163596  0.016288543            5 
  256000   0.85408275   -7.9469001    49.394536  0.016078951  0.016229787           13 
  257000   0.84407707   -7.9084172    49.653903  0.016100487  0.016171688           12 
  258000   0.84576182   -7.9578482     49.59663  0.016019583  0.016114013            9 
  259000   0.85767867   -7.9554632    49.618649  0.015964816   0.01605599           28 
  260000   0.85292052   -7.9540833    49.888569  0.015989926   0.01599862           10 
  261000   0.85856403   -7.9500086    49.875367  0.015924447   0.01594168            6 
  262000   0.86111031   -7.9853171     49.80438  0.015841088  0.015885136            9 
  263000   0.87433296   -7.9975615    49.948269  0.015826448  0.015828723            9 
  264000   0.83330545   -7.9900541     49.86261   0.01573946   0.01577273           17 
  265000    0.8402236   -7.9904527     49.80232  0.015661107  0.015716533            8 
  266000   0.83208134   -7.9824061      50.0619  0.015683552  0.015660638           12 
  267000   0.83475985   -7.9975627    50.119835  0.015642895   0.01560497           14 
  268000   0.84854342   -8.0139772      50.0242  0.015554789  0.015548987           20 
  269000   0.83258662    -8.017356    50.191171   0.01554869   0.01549352           18 
  270000   0.81563014   -8.0460734    50.101807  0.015463521  0.015438083           17 
  271000   0.84439485   -8.0107004    50.360228  0.015485925  0.015383301           12 
  272000   0.82674223   -8.0426181    50.184406  0.015375124  0.015328525           15 
  273000   0.81691931     -8.08415    50.208563  0.015326179  0.015272905           10 
  274000   0.82068961   -8.0396399    50.163727  0.015256608  0.015217687           18 
  275000   0.84038658    -8.024378     50.38399  0.015267876  0.015162709           10 
  276000   0.82115015   -8.0762081    50.345304  0.015200877  0.015107899            9 
  277000    0.8324155   -8.0399243    50.355561  0.015149086  0.015053064           18 
  278000   0.83775542   -8.0620312    50.424671  0.015115309  0.014998383            8 
  279000   0.82728336    -8.086243    50.418937   0.01505942  0.014943879           14 
  280000   0.83212709     -8.05988    50.301632  0.014970724  0.014889278           12 
  281000   0.82929767    -8.041055      50.3086  0.014919514  0.014834711           18 
  282000    0.8075505   -8.0982138    50.472025  0.014914901  0.014780122           17 
  283000   0.81702141   -8.0827524    50.545958  0.014883969  0.014725966           20 
  284000   0.83140033    -8.094827    50.504268  0.014819327  0.014672244           14 
  285000   0.82378991   -8.1001823    50.447849  0.014750833   0.01461859           38 
  286000   0.81641367   -8.0831834    50.444597  0.014698309  0.014565078           30 
  287000   0.80368021   -8.0911879    50.638828  0.014703492  0.014511629           14 
  288000   0.81813763   -8.0720762    50.615746   0.01464576  0.014458564           20 
  289000   0.78792254    -8.089174    50.661456  0.014608263  0.014405839           30 
  290000    0.8200013   -8.0846594    50.599965   0.01454022  0.014353539           30 
  291000   0.80501298    -8.097333     50.77166  0.014539421  0.014301002           29 
  292000    0.8056704   -8.1138986    50.639709  0.014451972  0.014248795           19 
  293000   0.80502529   -8.1455869    50.700598  0.014419965  0.014196237           44 
  294000   0.80895201   -8.1187684    50.666033   0.01436112  0.014143816           58 
  295000    0.8116448   -8.1229808    50.566624  0.014284357  0.014091486           15 
  296000   0.77634371    -8.109665    50.770751  0.014293567   0.01403941           14 
  297000    0.7943086    -8.113898     50.66026  0.014214439  0.013987482           23 
  298000   0.79586783   -8.1233413    50.788339  0.014202556  0.013935874           22 
  299000   0.79081315   -8.1375454    50.605293  0.014104039  0.013884163           13 
  300000   0.79893604   -8.1310279    50.732238  0.014092288  0.013832717           21 
  301000   0.79340645   -8.1310285    50.907899  0.014094103  0.013781518           18 
  302000   0.77582986   -8.1527702     50.61255  0.013965935  0.013730297           13 
  303000   0.77940128    -8.175373    50.684267  0.013939567  0.013678749           14 
  304000    0.7859125   -8.1715725    50.737676  0.013908354  0.013627626           26 
  305000   0.77904205   -8.1792104    50.788347  0.013876597  0.013576603           26 
  306000   0.77798095   -8.1726954    50.768411   0.01382582  0.013525825           23 
  307000   0.77791932   -8.1888098    50.790522  0.013786787  0.013475148           62 
  308000    0.7923543   -8.1774411    50.711912  0.013720755  0.013424423           34 
  309000   0.75587785   -8.1897476    50.794027  0.013698497  0.013373672           48 
  310000   0.75890157    -8.204938     50.89272  0.013680839  0.013323449           30 
  311000    0.7798837   -8.2248013    50.957152  0.013654114  0.013273642           35 
  312000   0.76667888   -8.2097497    50.908853   0.01359745  0.013223935           19 
  313000   0.76573295   -8.2206392    50.815005  0.013529022  0.013174052           33 
  314000    0.7591544   -8.2371219    50.794144  0.013480399  0.013124371           30 
  315000   0.75860262   -8.2406263    50.791627  0.013436938  0.013074924           24 
  316000   0.75620967   -8.2376651    50.836755  0.013406317  0.013025517           68 
  317000   0.75017127    -8.246031    50.863203  0.013370979   0.01297647           77 
  318000    0.7365062   -8.2494053    50.809089  0.013314751  0.012927204           62 
  319000   0.75493297   -8.2719061     50.79999  0.013270635  0.012877959           63 
  320000   0.76071003   -8.2791092    50.740795  0.013213749  0.012828871          117 
  321000   0.73882076   -8.2860231     50.76817  0.013179691  0.012779909          116 
  322000   0.74562875    -8.268211    50.741377  0.013131826  0.012731282          151 
  323000   0.74817056   -8.2919557    50.857454  0.013121118  0.012682885          151 
  324000   0.74866389   -8.2815337    50.721526   0.01304566  0.012634387           84 
  325000   0.75359792    -8.262002    50.908835  0.013053547  0.012586072           80 
  326000   0.73717061   -8.3003581     50.84885  0.012998172  0.012538028          112 
  327000   0.74829495   -8.3146545    50.676786  0.012914573  0.012490056          104 
  328000   0.74615199   -8.3094577    50.795568  0.012905378   0.01244218          107 
  329000   0.76026255   -8.3191407    50.892721   0.01289076    0.0123947          137 
  330000   0.72851786   -8.3464591    50.745125  0.012814426   0.01234733          172 
  331000   0.73057323   -8.3267286    50.757274   0.01277877  0.012299783          156 
  332000   0.74090808   -8.3032441    50.691427  0.012723752  0.012252603          141 
  333000   0.72834238   -8.3565301    50.667641   0.01267959  0.012205251          157 
  334000   0.73772917   -8.3351468    50.773624   0.01266807  0.012157932          159 
  335000   0.72179197   -8.3467683    50.720137   0.01261695  0.012110984          142 
  336000   0.73462066   -8.3701925    50.723429  0.012580216  0.012064259          158 
  337000   0.71789192   -8.3412685    50.857972  0.012576155  0.012017882          138 
  338000   0.73978231   -8.3897126    50.724437  0.012506025  0.011971593          172 
  339000   0.71354753   -8.3669545     50.74581  0.012474388  0.011925384          154 
  340000    0.7353305   -8.3631238    50.767582  0.012443035  0.011879189          185 
  341000   0.72453799   -8.3502449    50.804429   0.01241555  0.011833389          163 
  342000   0.72067554   -8.3745474    50.745731  0.012364944  0.011787811          189 
  343000   0.71563745   -8.3773901    50.725763  0.012324043  0.011742326          189 
  344000   0.71862288   -8.3980166    50.758527  0.012296155  0.011696942          214 
  345000   0.70825601   -8.4308329    50.653881  0.012235237  0.011651741          196 
  346000   0.70944926   -8.4024672      50.8018  0.012235501  0.011606834          223 
  347000   0.71453869   -8.3953441    50.754488  0.012188878  0.011561947          203 
  348000   0.70722012   -8.4107806    50.795471  0.012163666  0.011517444          191 
  349000   0.71079687   -8.4054419    50.791431  0.012127849  0.011473015          175 
  350000   0.70625116   -8.4054503    50.918707  0.012123502  0.011428804          206 
  351000   0.68158127   -8.4274947    50.670191   0.01202996  0.011384835          203 
  352000   0.70672917   -8.3999183    50.679332  0.011997948  0.011340868          186 
  353000   0.70677642   -8.4212136    50.736703  0.011977503  0.011297087          204 
  354000    0.6930502   -8.4319698    50.667076  0.011927278  0.011253596          215 
  355000   0.69476508   -8.4529906    50.631399  0.011885305  0.011210265          208 
  356000   0.68919537   -8.4582892     50.64414  0.011854902  0.011166841          281 
  357000   0.68782733   -8.4164031    50.640052   0.01182074  0.011123625          234 
  358000   0.70406186   -8.4423742    50.708121  0.011803566  0.011080687          257 
  359000   0.68286956   -8.4760327    50.573108  0.011739347  0.011037732          278 
  360000   0.70311952   -8.4417526    50.730028  0.011743062  0.010994931          259 
  361000   0.69582873   -8.4722429    50.729398  0.011710387  0.010952337          248 
  362000   0.70504264   -8.4723839    50.537154  0.011633783  0.010909766          278 
  363000   0.68072382   -8.4694315    50.619115   0.01162055  0.010867489          276 
  364000   0.68289572   -8.4780248    50.491857  0.011559491  0.010825312          260 
  365000   0.68494006   -8.4825658    50.696243  0.011574485  0.010783339          567 
  366000   0.67509322   -8.4867012    50.611842  0.011523643  0.010741618          249 
  367000   0.68096534   -8.5113818    50.527124  0.011473007  0.010699936          304 
  368000   0.67482566   -8.4955064    50.588825  0.011455803  0.010658359          307 
  369000    0.6755364   -8.5240395    50.585489  0.011424004  0.010617095          276 
  370000   0.67275555   -8.5098643     50.57763  0.011391358  0.010576048          294 
  371000   0.65600658   -8.5067959    50.577011  0.011360514  0.010535171          284 
  372000    0.6816485   -8.5115778    50.621598  0.011339964  0.010494516          282 
  373000   0.67224672   -8.5190474     50.58528  0.011301448  0.010454028          414 
  374000    0.6712152   -8.5146827     50.52381  0.011257533  0.010413675          269 
  375000   0.66310891   -8.5402484    50.514056  0.011225346  0.010373297          313 
  376000   0.67894494   -8.5257985    50.629799  0.011221143  0.010333205          275 
  377000   0.67453715   -8.5252328    50.550864  0.011173931  0.010293284          309 
  378000   0.65776327   -8.5250934    50.516596  0.011136816  0.010253443          269 
  379000   0.66535168   -8.5544222    50.555736  0.011116037  0.010213739          426 
  380000   0.65252529   -8.5492731     50.44392  0.011062263  0.010174351          442 
  381000    0.6508418    -8.569315    50.402949  0.011024267  0.010135123          283 
  382000   0.65843693   -8.5467287    50.452295  0.011006173  0.010096075          339 
  383000   0.64984593   -8.5559069    50.462952  0.010979754  0.010057192          261 
  384000   0.65712932   -8.5582748      50.5333  0.010966428  0.010018544          280 
  385000   0.65507138   -8.5351819    50.429464  0.010915468 0.0099800222          394 
  386000   0.65482376   -8.5886555    50.494411  0.010901211 0.0099418528          329 
  387000   0.65118337   -8.5687523    50.549006  0.010884799 0.0099037056          298 
  388000    0.6574007   -8.5738856    50.485259  0.010843054 0.0098657101          305 
  389000   0.65339862   -8.5847083    50.530747  0.010824924 0.0098278531          602 
  390000   0.63367837   -8.5809416    50.429144  0.010775458 0.0097902741          259 
  391000   0.65890255   -8.6028696    50.427336  0.010747514 0.0097527666          443 
  392000   0.64886983   -8.6136638    50.373174  0.010708583 0.0097153403          667 
  393000   0.64075109   -8.6077333    50.471035  0.010702086 0.0096781124          283 
  394000   0.63673915    -8.587009    50.502186  0.010681511 0.0096409815          299 
  395000    0.6317706   -8.5966658      50.4826  0.010650338 0.0096041543          605 
  396000   0.63916834   -8.6007421    50.601099  0.010648379   0.00956751          632 
  397000   0.62286354   -8.6018128    50.479554  0.010596044 0.0095309967          308 
  398000   0.62509918   -8.6007354    50.470478   0.01056752 0.0094947134          622 
  399000    0.6406024   -8.6169519    50.425506  0.010531643 0.0094586591          354 
  400000   0.63116001   -8.6454327    50.412986  0.010502705  0.009422614          635 
  401000   0.63300519   -8.6276704    50.531685  0.010501181 0.0093867764          676 
  402000   0.64454785   -8.5983525     50.42563  0.010453074 0.0093510803          345 
  403000   0.61067611    -8.611989    50.605902  0.010464413 0.0093155909          401 
  404000   0.63047123   -8.6314499    50.404954  0.010397061 0.0092802596          684 
  405000   0.61436819   -8.6377837    50.299139  0.010349617 0.0092450717          706 
  406000   0.62501899   -8.6377211    50.411798  0.010347249 0.0092100208          735 
  407000   0.61066331   -8.6439405    50.328382  0.010304746 0.0091751084          738 
  408000    0.6222464   -8.6249019    50.339592  0.010281779   0.00914031          731 
  409000   0.61376671   -8.6458087    50.445044  0.010278126 0.0091057345          698 
  410000    0.6106742   -8.6863135    50.414843  0.010246919 0.0090712797          776 
  411000   0.62595929   -8.6685435     50.37722  0.010214359 0.0090368966          420 
  412000   0.60714261   -8.6491751    50.256832  0.010165217 0.0090027022          719 
  413000   0.61537413   -8.6848743    50.260844  0.010141413 0.0089686545          722 
  414000   0.60925698   -8.6765252    50.361767  0.010137232 0.0089347827          646 
  415000   0.60506475   -8.6826614     50.28899  0.010098191 0.0089010889          742 
  416000   0.59993602    -8.665256     50.25262  0.010066631 0.0088675775          684 
  417000   0.59913797   -8.6620582    50.231838  0.010038337   0.00883411          716 
  418000   0.61035703   -8.6911447    50.365024  0.010040874 0.0088008383          435 
  419000   0.60532816   -8.7064655    50.376872  0.010019267 0.0087677877          740 
  420000   0.59425878   -8.6859707    50.327889 0.0099856923 0.0087348762          732 
  421000   0.60651124   -8.6901424    50.339756 0.0099643223 0.0087021278          694 
  422000   0.60033635    -8.685982    50.304897 0.0099338265  0.008669478          723 
  423000   0.59874986   -8.6994612     50.24932 0.0098993932 0.0086370569          596 
  424000   0.60052135   -8.6943736    50.275994 0.0098812881 0.0086046762          627 
  425000    0.5777718   -8.7040978    50.255378 0.0098539957 0.0085724773          685 
  426000   0.58134263    -8.709289    50.329006 0.0098452672 0.0085403312          710 
  427000   0.57454991   -8.6945942    50.264413 0.0098096045 0.0085084323          438 
  428000   0.57948337   -8.7031923    50.249317 0.0097837456 0.0084766465          759 
  429000   0.58083908   -8.7124619    50.225047 0.0097562251 0.0084450686          731 
  430000   0.57548099   -8.7318003    50.162998 0.0097215112 0.0084135343          675 
  431000   0.58805156   -8.7107099    50.250002 0.0097157777  0.008382138          632 
  432000   0.57941746   -8.7191825    50.212658 0.0096860837 0.0083509347          643 
  433000    0.5697811   -8.7268476    50.293524 0.0096792772  0.008319797          559 
  434000   0.57031434   -8.6950497    50.199532  0.009638927 0.0082887998          602 
  435000   0.56716486   -8.7317507    50.200521  0.009616958  0.008257936          665 
  436000   0.56427101   -8.7244097    50.119732 0.0095794595 0.0082272078          755 
  437000    0.5628989   -8.7393661    50.172218 0.0095675472 0.0081966666          792 
  438000   0.56931742    -8.731221    50.142552 0.0095400594 0.0081662136          827 
  439000   0.56411166   -8.7395631     50.05673 0.0095020368 0.0081359171          770 
  440000   0.56577057   -8.7206262    50.190989 0.0095058691 0.0081057786          845 
  441000   0.55880641   -8.7556999    50.174843 0.0094812629 0.0080757243          644 
  442000   0.58015976   -8.7601521    50.154461 0.0094559692 0.0080458785          809 
  443000   0.56587836   -8.7499452    50.148266 0.0094334585 0.0080160814          666 
  444000    0.5521654    -8.755136    50.122101 0.0094073013 0.0079865095          688 
  445000   0.55803747   -8.7712897    50.133331 0.0093882642 0.0079569861          767 
  446000   0.55781206   -8.7518703    50.201785 0.0093800046 0.0079276598          806 
  447000   0.54775602   -8.7587163    50.107112 0.0093413705 0.0078984549          795 
  448000   0.54949232   -8.7717753    50.208851  0.009339444 0.0078694014          595 
  449000   0.54373637   -8.7766832    50.095683 0.0092976397 0.0078404754          697 
  450000   0.54709368   -8.7792692    49.988904 0.0092572044 0.0078116672          837 
  451000   0.54994202   -8.7614951    50.010297 0.0092406313  0.007782991          738 
  452000   0.55660344   -8.7726015    50.068465 0.0092309117 0.0077544161          778 
  453000   0.53298897   -8.7810618     50.08297 0.0092132027 0.0077259534          798 
  454000   0.54920217   -8.7781667    49.995856 0.0091769192 0.0076976589          804 
  455000    0.5470596    -8.793595    49.983995 0.0091545777 0.0076695261          777 
  456000   0.53739825   -8.7895572    50.071265 0.0091504505 0.0076415091          843 
  457000   0.53112901   -8.7960248     50.03172 0.0091232167 0.0076136604          745 
  458000   0.53780743   -8.7852367    50.041425 0.0091050628 0.0075859096          798 
  459000   0.54332669   -8.7969714    50.057535 0.0090881508 0.0075583021          776 
  460000   0.54056297   -8.8057221    50.084346 0.0090732511 0.0075307834          794 
  461000   0.52151576   -8.7989417    49.998061 0.0090379721 0.0075034146          811 
  462000   0.53443841   -8.8029826    49.925649 0.0090053479  0.007476122          716 
  463000   0.53140646   -8.8024142    49.967853  0.008993494 0.0074489842          802 
  464000   0.52045108   -8.7899789     50.01495   0.00898257 0.0074219727          852 
  465000   0.52346183   -8.8170688    49.901458 0.0089429135 0.0073950671          840 
  466000   0.52520855   -8.8067227    49.980776 0.0089379069 0.0073682857          811 
  467000   0.52429598   -8.8163026     49.96515 0.0089159797 0.0073416412          819 
  468000   0.52110564   -8.8166151     49.95708 0.0088954915 0.0073151683          831 
  469000   0.50696564   -8.7999809     50.02191 0.0088880438 0.0072888165          649 
  470000   0.51856376   -8.8188492    49.962825  0.008858657 0.0072625817          661 
  471000   0.51367591   -8.8466452    49.921718 0.0088325758 0.0072364628          810 
  472000   0.50427031    -8.821407    49.950426 0.0088189311 0.0072104789          796 
  473000   0.50770117   -8.8333337    49.885578 0.0087888615 0.0071845641          852 
  474000   0.50408668   -8.8324124    49.902657 0.0087733223 0.0071587686          650 
  475000   0.49816274   -8.8482404    49.943579 0.0087620314 0.0071331256          695 
  476000   0.50515255   -8.8454267    49.970865 0.0087484006 0.0071075481          676 
  477000    0.5032581    -8.827817    49.970003 0.0087299097 0.0070821673          857 
  478000   0.50695023   -8.8452411    49.921568 0.0087032023 0.0070568495          833 
  479000   0.50375058    -8.848358    49.897022 0.0086807623 0.0070316352          807 
  480000   0.51381361   -8.8513411    49.977019 0.0086765657 0.0070066872          716 
  481000   0.50978846   -8.8675479    49.913048 0.0086474443 0.0069817624          820 
  482000   0.50581468   -8.8482989    49.867558 0.0086216386 0.0069569972          856 
  483000   0.49925658   -8.8500402    49.928361  0.008614279 0.0069323031          765 
  484000   0.50101636   -8.8503022    49.903753 0.0085922439 0.0069077212          839 
  485000   0.49712298   -8.8670607    49.851222  0.008565502 0.0068832479          789 
  486000   0.48992129   -8.8596311    49.828505 0.0085439823 0.0068588582          842 
  487000   0.48815978   -8.8752028     49.87737 0.0085347998 0.0068345995          814 
  488000   0.48682789   -8.8691818    49.875981 0.0085170732 0.0068104633          751 
  489000   0.48100902   -8.8689808    49.811253 0.0084886253  0.006786454          852 
  490000   0.47683366   -8.8881868    49.891546 0.0084849567 0.0067625802          791 
  491000   0.49171569   -8.8627483    49.867614  0.008463614 0.0067388064          808 
  492000   0.48823223   -8.8808391    49.792852 0.0084337486 0.0067151317          782 
  493000   0.48494813   -8.8780738    49.837959 0.0084242663 0.0066915263          774 
  494000   0.47538888   -8.8813728    49.771534 0.0083960078 0.0066680732          835 
  495000   0.48035994   -8.8837421    49.816127 0.0083865533  0.006644748          848 
  496000   0.48339395   -8.8889032    49.773745 0.0083625244 0.0066214661          837 
  497000   0.47426022   -8.8980337    49.796918 0.0083495839 0.0065983197          561 
  498000    0.4793161   -8.9091469    49.877541 0.0083463088 0.0065752999          867 
  499000   0.46822802   -8.8903812    49.833759 0.0083222711 0.0065523624          870 
  500000   0.46644183   -8.9037481    49.801518  0.008300253 0.0065295335          854 
  501000   0.47079902   -8.9183916    49.746577 0.0082745471  0.006506794          901 
  502000   0.47166606   -8.8911745    49.770163 0.0082619792  0.006484133          864 
  503000   0.47166106   -8.9024174    49.745978 0.0082415471 0.0064616299          813 
  504000   0.46468344   -8.8912051    49.743057 0.0082247118 0.0064392458          893 
  505000   0.45845418   -8.9095514    49.671113 0.0081965534 0.0064169226          819 
  506000   0.46897159   -8.9022097    49.702653 0.0081855489  0.006394687          861 
  507000   0.46295842   -8.9044008    49.745483 0.0081764436  0.006372541          910 
  508000   0.46745149   -8.9024415    49.735328 0.0081586824 0.0063505212          789 
  509000   0.45399088   -8.9207086    49.810677 0.0081549897  0.006328594          826 
  510000   0.44839503   -8.9074806    49.862842 0.0081475231 0.0063067646          838 
  511000   0.44487671   -8.9341784    49.718009 0.0081079597 0.0062850327          811 
  512000    0.4645897   -8.9453319    49.667534 0.0080839085 0.0062633602          804 
Loop time of 1295.42 on 48 procs for 500000 steps with 4000 atoms

Performance: 66696.538 tau/day, 385.975 timesteps/s
99.4% CPU use with 48 MPI tasks x no OpenMP threads

MPI task timing breakdown:
Section |  min time  |  avg time  |  max time  |%varavg| %total
---------------------------------------------------------------
Pair    | 93.18      | 100.93     | 108.2      |  36.6 |  7.79
Neigh   | 9.0207     | 9.331      | 9.9561     |   6.4 |  0.72
Comm    | 81.502     | 90.066     | 97.56      |  38.4 |  6.95
Output  | 1.1242     | 1.125      | 1.1491     |   0.3 |  0.09
Modify  | 1079       | 1082.3     | 1086.6     |   5.7 | 83.55
Other   |            | 11.66      |            |       |  0.90

Nlocal:        83.3333 ave          90 max          75 min
Histogram: 1 1 5 1 6 8 16 4 5 1
Nghost:        2399.17 ave        2420 max        2382 min
Histogram: 1 2 9 6 8 12 5 2 2 1
Neighs:        16502.2 ave       18682 max       13835 min
Histogram: 1 5 3 7 5 4 7 6 6 4
FullNghs:      33003.9 ave       35447 max       29431 min
Histogram: 1 1 4 2 5 9 11 7 6 2

Total # of neighbors = 1584189
Ave neighs/atom = 396.04725
Neighbor list builds = 26620
Dangerous builds = 0

#clear
#
#next RN
#
#jump SELF
Total wall time: 0:21:39
