
units lj                  # Use reduced LJ style units
atom_style atomic         # Uncharged point particles
atom_modify map hash      # Needed for indexing of clusters etc
                          # Used to be able to find where atoms are in relation to each other.

lattice fcc 1.0 spacing 1 1 1
Lattice spacing in x,y,z = 1.5874011 1.5874011 1.5874011
region box block 0 10 0 10 0 10 units lattice
create_box 2 box
Created orthogonal box = (0.0000000 0.0000000 0.0000000) to (15.874011 15.874011 15.874011)
  3 by 4 by 4 MPI processor grid
create_atoms 1 box
Created 4000 atoms
  using lattice units in orthogonal box = (0.0000000 0.0000000 0.0000000) to (15.874011 15.874011 15.874011)
  create_atoms CPU = 0.015 seconds
set type 1 type/fraction 2 0.12 78393
Setting atom values ...
  508 settings made for type/fraction
mass 1 1.0
mass 2 1.0
pair_style lj/cut  3.5
pair_modify tail  yes
pair_coeff 1  1  1.0  1.0   # Intearaction between 1 and 1 set with epsilon = 1 and sigma = 1
pair_coeff 1  2  1.5  0.8
pair_coeff 2  2  0.5  0.88

write_data data.0
System init for write_data ...
Neighbor list info ...
  update every 1 steps, delay 10 steps, check yes
  max neighbors/atom: 2000, page size: 100000
  master list distance cutoff = 3.8
  ghost atom cutoff = 3.8
  binsize = 1.9, bins = 9 9 9
  1 neighbor lists, perpetual/occasional/extra = 1 0 0
  (1) pair lj/cut, perpetual
      attributes: half, newton on
      pair build: half/bin/atomonly/newton
      stencil: half/bin/3d
      bin: standard
WARNING: Not all mixed pair coeffs generated from mixing. Use write_data with 'pair ij' option to store all pair coeffs. (../write_data.cpp:312)


#############################
#   M E L T   S Y S T E M   #
#############################

velocity all create 2.4 3143649 mom yes dist gaussian # Assign velocities
                                                    # Temperature 2.4, random number seed, zero linear momentum
                                                                                # Gaussian distribution

timestep 0.002   # simulation timestep
thermo 1000       # output thermodynamic data every 1000 steps bf 100

# Define a fix  in this case with index 1 applied to all
# particles in the simulation. This fix is for simulations
# in the anisotropic NPT ensemble. Note that we use the MTK
# correction.
fix 1 all npt temp 2.4 2.4 0.1 iso 5.68 5.68 0.5 mtk yes tchain 5 pchain 5 # Use NPT ensemble
                                                                         # Set temperature and pressure and damping
                                                                         # Numbers of thermostats in chain and in barostat
run 10000          # run for 10000 steps
Per MPI rank memory allocation (min/avg/max) = 3.642 | 3.644 | 3.648 Mbytes
Step Temp E_pair E_mol TotEng Press Volume 
       0          2.4   -7.5560252            0   -3.9569252   -3.1663949         4000 
    1000    2.3979543   -4.6259859            0   -1.0299537    5.7087745    4776.1653 
    2000    2.4411747   -4.6954211            0   -1.0345744    5.7060907    4746.4635 
    3000    2.4003306   -4.7190337            0    -1.119438    5.4627627    4750.5147 
    4000    2.4243623   -4.6560577            0   -1.0204233    5.8294371    4745.2849 
    5000    2.3767128    -4.657981            0    -1.093803    5.3566486    4798.8964 
    6000    2.3771937   -4.6477465            0   -1.0828474    5.8669208    4734.0012 
    7000     2.417767   -4.7034355            0   -1.0776916    5.7066095    4737.1619 
    8000    2.4085727   -4.6878457            0   -1.0758898    5.7174602    4740.0832 
    9000    2.4266259   -4.6635498            0    -1.024521    5.5707004    4774.4256 
   10000    2.4017094   -4.6759829            0   -1.0743195    5.6136776    4753.6313 
Loop time of 2.20035 on 48 procs for 10000 steps with 4000 atoms

Performance: 785329.086 tau/day, 4544.729 timesteps/s
99.7% CPU use with 48 MPI tasks x no OpenMP threads

MPI task timing breakdown:
Section |  min time  |  avg time  |  max time  |%varavg| %total
---------------------------------------------------------------
Pair    | 0.88858    | 0.98071    | 1.0791     |   3.5 | 44.57
Neigh   | 0.18466    | 0.19872    | 0.21308    |   1.0 |  9.03
Comm    | 0.65909    | 0.76053    | 0.84736    |   5.0 | 34.56
Output  | 0.00023755 | 0.0002433  | 0.00030456 |   0.0 |  0.01
Modify  | 0.21025    | 0.2452     | 0.28011    |   4.0 | 11.14
Other   |            | 0.01495    |            |       |  0.68

Nlocal:        83.3333 ave          96 max          75 min
Histogram: 5 4 5 15 6 6 1 3 2 1
Nghost:        1462.90 ave        1499 max        1438 min
Histogram: 5 4 10 8 4 9 3 0 3 2
Neighs:        8020.06 ave        9775 max        7054 min
Histogram: 4 5 14 7 9 3 2 2 1 1

Total # of neighbors = 384963
Ave neighs/atom = 96.240750
Neighbor list builds = 906
Dangerous builds = 205

# Equilibrate just above the melting temperature to avoid step fn in T

fix 1 all npt temp 1.25 1.25 0.1 iso 5.68 5.68 0.5 mtk yes tchain 5 pchain 5
run 2000
Per MPI rank memory allocation (min/avg/max) = 3.642 | 3.644 | 3.648 Mbytes
Step Temp E_pair E_mol TotEng Press Volume 
   10000    2.4017094   -4.6759829            0   -1.0743195    5.6136776    4753.6313 
   11000    1.2559055   -6.2615542            0   -4.3781669    5.5725929    3926.0485 
   12000    1.2132905   -6.2866546            0   -4.4671739    5.5126522    3915.9049 
Loop time of 0.481187 on 48 procs for 2000 steps with 4000 atoms

Performance: 718223.288 tau/day, 4156.385 timesteps/s
99.6% CPU use with 48 MPI tasks x no OpenMP threads

MPI task timing breakdown:
Section |  min time  |  avg time  |  max time  |%varavg| %total
---------------------------------------------------------------
Pair    | 0.21085    | 0.22939    | 0.26439    |   2.1 | 47.67
Neigh   | 0.031323   | 0.032715   | 0.037495   |   0.7 |  6.80
Comm    | 0.13151    | 0.16526    | 0.1856     |   3.0 | 34.34
Output  | 5.0682e-05 | 5.219e-05  | 6.6772e-05 |   0.0 |  0.01
Modify  | 0.039629   | 0.049254   | 0.059076   |   2.7 | 10.24
Other   |            | 0.00452    |            |       |  0.94

Nlocal:        83.3333 ave          93 max          74 min
Histogram: 1 1 4 14 6 11 3 3 2 3
Nghost:        1668.85 ave        1699 max        1645 min
Histogram: 3 4 5 9 7 8 6 3 1 2
Neighs:        9751.46 ave       11058 max        8617 min
Histogram: 2 3 8 7 9 7 4 4 2 2

Total # of neighbors = 468070
Ave neighs/atom = 117.01750
Neighbor list builds = 140
Dangerous builds = 7

#############################
# L I N E A R  Q U E N C H  #
#############################

# Define solid atoms. This closely follows ten Wolde  Ruiz-Montero and Frenkel  Faraday Discuss  1996  104  93-110
# Compute components of the per-atom q6 vector
compute q6 all orientorder/atom degrees 1 6 components 6 nnn NULL cutoff 1.3 # compute the Q6 parameter.
                                                                             # Use all neighbours within 1.3 unit cell.

# get number of connections
compute coord_number all coord/atom orientorder q6 0.5

# An atom is solid if it has 8 or more connections (of a possible 14)
variable is_solid atom c_coord_number>=8
group solid dynamic all var is_solid    # Must be dynamic to update
dynamic group solid defined

# do clustering
compute cluster solid cluster/atom 1.3 # Create a cluster where all atoms within are solid and max 1.3 units from another member

# define chunks one chunk per cluster
compute clus_chunks solid chunk/atom c_cluster nchunk every compress yes  # Says which atoms are in which chunk

# count the size of each chunk
compute size_chunks solid property/chunk clus_chunks count


# Find the maximum entry in the vector of chunk sizes
variable max_n equal max(c_size_chunks)


# Thermo style which includes this variable
# thermo_style custom step temp pe vol v_max_n

thermo ${N}  # Print the thermo information every 100 steps
thermo 1000  

# Reset the npt fix at a lower temperature (below freezing)
fix 1  all npt temp  ${temp} ${temp}  0.1  iso  5.68  5.68  0.5  mtk yes tchain  5  pchain  5
fix 1  all npt temp  0.45 ${temp}  0.1  iso  5.68  5.68  0.5  mtk yes tchain  5  pchain  5
fix 1  all npt temp  0.45 0.45  0.1  iso  5.68  5.68  0.5  mtk yes tchain  5  pchain  5

dump dmp2 all dcd ${N} traj.dcd
dump dmp2 all dcd 1000 traj.dcd


compute msd all msd com yes
variable twopoint equal c_msd[4]/6/(step*dt+1.0e-6)
fix 9 all vector 10 c_msd[4]
variable fit equal slope(f_9)/6/(10*dt)
thermo_style custom step temp pe c_msd[4] v_twopoint v_fit v_max_n

fix 1 all npt temp 1.25 ${temp} 0.1 iso 5.68 5.68 0.5 mtk yes tchain 5 pchain 5
fix 1 all npt temp 1.25 0.45 0.1 iso 5.68 5.68 0.5 mtk yes tchain 5 pchain 5
run 5000000 # 5000000  # Run for this many steps
Neighbor list info ...
  update every 1 steps, delay 10 steps, check yes
  max neighbors/atom: 2000, page size: 100000
  master list distance cutoff = 3.8
  ghost atom cutoff = 3.8
  binsize = 1.9, bins = 9 9 9
  4 neighbor lists, perpetual/occasional/extra = 1 3 0
  (1) pair lj/cut, perpetual
      attributes: half, newton on
      pair build: half/bin/atomonly/newton
      stencil: half/bin/3d
      bin: standard
  (2) compute orientorder/atom, occasional
      attributes: full, newton on
      pair build: full/bin/atomonly
      stencil: full/bin/3d
      bin: standard
  (3) compute coord/atom, occasional
      attributes: full, newton on
      pair build: full/bin/atomonly
      stencil: full/bin/3d
      bin: standard
  (4) compute cluster/atom, occasional
      attributes: full, newton on
      pair build: full/bin/atomonly
      stencil: full/bin/3d
      bin: standard
Per MPI rank memory allocation (min/avg/max) = 9.751 | 9.760 | 9.765 Mbytes
Step Temp PotEng c_msd[4] v_twopoint v_fit v_max_n 
   12000    1.2132905   -6.2866546 4.2553129e-30 2.9550783e-32 8.3333333e+20            4 
   13000    1.2690776    -6.321312   0.54772241  0.003511041  0.044899535            2 
   14000    1.2341142   -6.2327345    1.0629584  0.006327133  0.043442963            2 
   15000    1.2481966   -6.2990329    1.6093609 0.0089408936  0.044107776            2 
   16000    1.2616432   -6.2833897      2.14814  0.011188229  0.044500083            2 
   17000    1.2513444   -6.3114341    2.6675412  0.013076182  0.044508206            1 
   18000    1.2436997   -6.2959388     3.177261  0.014709541  0.044165726            3 
   19000    1.2357292   -6.2932943     3.771301  0.016540794  0.044353807            2 
   20000    1.2314295   -6.2905058    4.2879257  0.017866357  0.044688336            1 
   21000    1.2365424   -6.2631919     4.846277  0.019231258  0.044761721            3 
   22000    1.2578018   -6.2670776     5.336044  0.020212287   0.04473921            2 
   23000    1.2546721   -6.2708746    5.7811029  0.020946025   0.04448179            2 
   24000      1.27405   -6.2589814    6.2742125   0.02178546  0.044125427            2 
   25000    1.2260773   -6.3230236    6.8116253  0.022705417  0.043873938            1 
   26000    1.2412588   -6.2841516    7.2477421  0.023229942  0.043645414            2 
   27000    1.2341839   -6.2469455    7.7833818  0.024022783  0.043410929            2 
   28000    1.2653232   -6.2834948    8.3992322  0.024997714   0.04334279            1 
   29000     1.246321   -6.2612098    8.9649594  0.025761377  0.043352256            2 
   30000    1.2692312   -6.2445566    9.5559207  0.026544224  0.043449978            2 
   31000    1.2274088   -6.2840908    10.191871  0.027397502  0.043665124            3 
   32000    1.2608964   -6.2472101    10.805386  0.028139025  0.043953492            2 
   33000     1.267264   -6.2785963    11.347181  0.028654498  0.044208872            2 
   34000    1.2460128   -6.3056321    11.927804  0.029234814  0.044426657            3 
   35000    1.2565021   -6.3221546    12.540638  0.029858661  0.044711246            2 
   36000    1.2262225   -6.2683889    13.251392  0.030674517  0.044966312            3 
   37000    1.2499893   -6.3347553    13.762026  0.030995555  0.045254942            2 
   38000    1.2364105   -6.2741496    14.306627  0.031374181  0.045459112            2 
   39000    1.2409712   -6.2962796    14.953063  0.031950989  0.045636134            5 
   40000     1.232878   -6.2602074    15.331876  0.031941407  0.045757751            3 
   41000    1.2552674   -6.2640459    15.835824  0.032186634  0.045801644            1 
   42000     1.269289   -6.2439614    16.293003  0.032327387  0.045823525            1 
   43000     1.226884   -6.2966854     16.75377  0.032468546  0.045799807            2 
   44000    1.2695294   -6.2824777    17.249695  0.032669876  0.045726445            3 
   45000    1.2702863   -6.2849169    17.864646  0.033082677  0.045669465            2 
   46000      1.23997   -6.2744962    18.354355  0.033250642  0.045630008            3 
   47000     1.250471   -6.2931892    19.022684  0.033728162   0.04559192            3 
   48000    1.2337933   -6.2871067    19.545043  0.033932367  0.045589303            2 
   49000    1.2454858   -6.3344667    20.003516  0.034019584  0.045570456            4 
   50000    1.2781149   -6.3243431    20.459417  0.034099029  0.045510181            2 
   51000    1.2729398   -6.2618032    20.759363  0.033920528  0.045411449            2 
   52000    1.2661736   -6.2696795    21.266296  0.034080602  0.045292071            3 
   53000     1.233653   -6.2837472    21.924055  0.034471785   0.04519838            2 
   54000    1.2388877   -6.2630719     22.55843  0.034812392   0.04515213            4 
   55000    1.2445858   -6.2557115    23.105607  0.035008495  0.045112577            2 
   56000    1.2499982   -6.2823659    23.704571  0.035274658  0.045078995            3 
   57000    1.2104555   -6.3350854    24.199992  0.035380105  0.045048986            3 
   58000    1.2558872   -6.2682195    24.471186   0.03515975  0.044995722            3 
   59000    1.2426051    -6.314355     25.07377   0.03541493  0.044941242            2 
   60000     1.240974   -6.2822378      25.7079  0.035705417  0.044902967            1 
   61000     1.271711   -6.2652682    26.170862  0.035752544  0.044861464            2 
   62000       1.2211    -6.273714    26.546781  0.035681157   0.04480487            2 
   63000    1.2320569   -6.3171992    27.018324  0.035738524  0.044738019            1 
   64000    1.2589618   -6.2823632    27.597077  0.035933693  0.044674903            1 
   65000    1.2304273   -6.2981592    28.234308  0.036197831  0.044628786            2 
   66000    1.2251569   -6.3360761    28.614657  0.036129617  0.044594936            2 
   67000    1.2524499   -6.3019209    29.195582  0.036312912  0.044548809            2 
   68000    1.2353255   -6.2754793    29.791223  0.036508851  0.044507533            2 
   69000    1.2270278   -6.2922707    30.407068  0.036723511  0.044480546            1 
   70000    1.2527488   -6.2680463    31.092495  0.037014874  0.044473265            2 
   71000    1.2337546   -6.2966673    31.555939  0.037037487  0.044476507            1 
   72000     1.237324   -6.2948851    31.882144  0.036900629   0.04446345            2 
   73000    1.2162005   -6.3034253    32.475485  0.037072471  0.044441267            2 
   74000    1.2495062   -6.2960648    32.996419  0.037158129  0.044416445            1 
   75000    1.2394332   -6.3016087    33.561681  0.037290757  0.044401764            1 
   76000    1.2441968   -6.2691578    34.213063  0.037514323  0.044390267            2 
   77000    1.2378759   -6.3049656    34.494084  0.037331259   0.04438115            2 
   78000    1.2250845   -6.3097816    35.220346  0.037628575  0.044367756            2 
   79000    1.2278606   -6.3040656    35.574912  0.037526278  0.044346435            2 
   80000     1.266198   -6.2920086    36.028877   0.03753008  0.044318929            4 
   81000    1.2194918   -6.3310787    36.579934  0.037633676  0.044297138            1 
   82000    1.2320722   -6.3366746    37.170479  0.037774877  0.044277546            1 
   83000     1.250622   -6.3105256    37.586524  0.037737474  0.044256392            2 
   84000    1.2512291   -6.2857284    38.123604  0.037821035    0.0442345            2 
   85000     1.218903    -6.333777    38.681181  0.037922726   0.04421043            3 
   86000     1.252933   -6.3196843    39.056925  0.037845857  0.044184586            2 
   87000    1.2744675   -6.3296922    39.557621  0.037890441  0.044158357            3 
   88000    1.2382714   -6.2344577    40.311803  0.038174055  0.044131353            2 
   89000    1.2372226   -6.3327591    40.646182  0.038058222  0.044110348            2 
   90000    1.2337066   -6.3111812    41.179801  0.038129445  0.044086725            2 
   91000    1.2602674   -6.2936864    41.898211  0.038368325  0.044076463            2 
   92000    1.2242396   -6.3060232    42.641816  0.038624833  0.044075372            2 
   93000    1.2293029   -6.3278858    42.946977  0.038482954  0.044074966            3 
   94000    1.2377615   -6.3393375    43.385653  0.038462458  0.044071184            2 
   95000    1.2487608   -6.3693993    43.865726  0.038478707  0.044064397            2 
   96000    1.2218789   -6.3200605     44.63858  0.038748767  0.044051958            1 
   97000     1.254304    -6.308475    45.212284  0.038842168  0.044055409            2 
   98000    1.2562446   -6.2994536    45.757918  0.038909794  0.044052994            2 
   99000    1.2376986   -6.2801568    46.267974  0.038946105  0.044055618            2 
  100000    1.2289403   -6.3314174    46.617065  0.038847554  0.044051953            2 
  101000    1.2519778   -6.2751422    46.978348  0.038761013  0.044041241            2 
  102000    1.2197762   -6.3190045    47.313992  0.038655222  0.044022117            1 
  103000    1.2346459   -6.3189272    47.850683  0.038714145   0.04400088            4 
  104000    1.2219094   -6.3177961    48.669025  0.038997616  0.043988605            2 
  105000    1.2382742   -6.2880794    49.392119  0.039200094  0.043989868            2 
  106000    1.2165423   -6.3381458    50.021533  0.039325105  0.043991932            2 
  107000    1.2617301   -6.2729803    50.342851  0.039207828  0.043989931            2 
  108000    1.2434476   -6.2772836    50.954795  0.039316971   0.04398668            2 
  109000     1.216447   -6.2745396    51.201115  0.039144583  0.043982881            3 
  110000    1.2316285   -6.2806191     51.60356  0.039093606  0.043974624            3 
  111000    1.2295796    -6.308288    52.228657  0.039210704  0.043960957            2 
  112000    1.2358593   -6.3251671    52.581275  0.039122972  0.043939582            3 
  113000     1.229972   -6.2860835    53.079534  0.039144199  0.043918683            1 
  114000    1.2257976   -6.3070992    53.663393  0.039227626  0.043903739            2 
  115000    1.2360887   -6.3102179    54.229467  0.039296715  0.043887591            2 
  116000    1.2355003    -6.296833    54.739165  0.039324113  0.043872972            2 
  117000    1.2619473   -6.3006722    55.567274   0.03957783  0.043867703            2 
  118000    1.2278774   -6.2917264    55.703389  0.039338552  0.043860859            2 
  119000    1.2431184   -6.2753303    56.574842  0.039618236  0.043860493            3 
  120000    1.2482976   -6.3396039      57.1907  0.039715764  0.043857812            2 
  121000    1.2223789    -6.311892    57.553243  0.039637219  0.043856861            1 
  122000    1.2320682    -6.330419    58.282135  0.039810202  0.043858239            4 
  123000    1.2494969   -6.3368592    58.711019  0.039777113  0.043856343            3 
  124000    1.2197475   -6.2472022    59.123909   0.03973381  0.043853813            2 
  125000    1.2369283   -6.3145474    59.147441  0.039431627  0.043844443            3 
  126000    1.2510876   -6.3095097    59.879879  0.039603094  0.043833328            5 
  127000     1.230871   -6.3056527    60.517919   0.03970992  0.043816688            4 
  128000    1.2069758   -6.3040136    60.979846  0.039700421  0.043801173            2 
  129000    1.2260004   -6.3391073    61.236646  0.039558557  0.043786455            1 
  130000    1.2152106   -6.3525554    61.700796  0.039551792  0.043769065            2 
  131000     1.222075   -6.3074337    62.284443  0.039621146  0.043748938            2 
  132000    1.2373602   -6.3184845    62.693592  0.039579288  0.043728296            2 
  133000    1.2140224   -6.2633197    63.174054  0.039582741  0.043709343            2 
  134000    1.2351047   -6.3141692    63.917444  0.039749654  0.043692899            5 
  135000    1.2425563   -6.2981548    64.140958  0.039593184  0.043672061            4 
  136000     1.239654   -6.3101672    64.488132  0.039514787  0.043647132            2 
  137000     1.230243   -6.3164112    65.021217  0.039550619  0.043618821            3 
  138000    1.2360459   -6.3114519    65.750796  0.039704587  0.043594356            2 
  139000    1.2333099   -6.3089394    65.829971  0.039466409  0.043571768            2 
  140000    1.2415115   -6.3106289    66.398042  0.039522644  0.043548332            1 
  141000    1.2497126   -6.3016646    66.818567  0.039490879  0.043523065            5 
  142000    1.2143856   -6.3369924    67.630415   0.03968921  0.043503069            4 
  143000    1.2065259   -6.3164135    68.155215  0.039717491  0.043483002            2 
  144000    1.2441359   -6.2953877    68.874067  0.039857678  0.043464693            1 
  145000    1.2144586   -6.3208542    68.919363  0.039608829  0.043444273            5 
  146000    1.2089602   -6.3588145    69.576987  0.039712892  0.043420824            2 
  147000     1.225998   -6.3030126     70.18728  0.039788707  0.043400663            3 
  148000    1.2029191   -6.3390269    70.447897  0.039666609  0.043383317            2 
  149000     1.255449   -6.3278207    71.311146  0.039883191  0.043364945            6 
  150000    1.2187279   -6.3215154    71.779605  0.039877558  0.043353702            4 
  151000     1.257707   -6.3361951    72.311948  0.039907256  0.043339057            3 
  152000    1.2230361   -6.2804568    72.501312  0.039748526  0.043322961            2 
  153000    1.2362203   -6.3337473    73.129737  0.039831011  0.043306536            5 
  154000    1.2133584   -6.2924029     73.38563  0.039710839  0.043288948            5 
  155000    1.2106212   -6.3147794    74.243837  0.039916041  0.043271478            2 
  156000    1.2331245   -6.3423766    74.881932  0.040001032  0.043255373            3 
  157000    1.2395292   -6.3194129    75.195051  0.039912447  0.043242714            3 
  158000     1.229142   -6.3360994    75.794869  0.039976197  0.043233897            2 
  159000    1.2122277   -6.3352082    76.720206  0.040209752  0.043228664            2 
  160000    1.2356145   -6.3344021    77.178463  0.040197116  0.043224689            2 
  161000    1.2244981   -6.3104873    77.706263  0.040220633  0.043219007            1 
  162000    1.2271962   -6.2896666    78.064431    0.0401566  0.043213701            1 
  163000    1.2416549   -6.3290895    78.647834  0.040208504  0.043207846            3 
  164000    1.2017577   -6.3447837    78.986858  0.040135599  0.043198756            2 
  165000    1.2343411   -6.3075759    79.422942  0.040112597  0.043189236            4 
  166000    1.2197971   -6.3446194    79.896935  0.040108903  0.043181027            2 
  167000    1.2430008   -6.3384657       80.499  0.040169161  0.043169665            3 
  168000    1.2279573   -6.3546261    80.840031  0.040099221  0.043161264            5 
  169000    1.2251038   -6.3421536      81.1689  0.040024113  0.043149999            1 
  170000     1.222628   -6.3203356     81.89128  0.040142784  0.043138381            2 
  171000    1.1783501    -6.330362    82.408951  0.040160307  0.043126893            1 
  172000    1.2280713   -6.3144176    82.932925   0.04018068  0.043116685            2 
  173000     1.224934   -6.3302868    83.332337  0.040140817  0.043107489            3 
  174000    1.2198594   -6.3481528    83.983952  0.040222199  0.043099323            2 
  175000    1.1995035   -6.3172957     84.39747  0.040189271  0.043091198            1 
  176000    1.2180467   -6.3312842    85.381269  0.040426737  0.043087452            2 
  177000    1.2155782   -6.3503145    85.762928  0.040378026  0.043082027            1 
  178000    1.2329119    -6.356722    86.260309   0.04038404  0.043077406            3 
  179000    1.2254213   -6.3177503    86.672786  0.040350459  0.043071833            2 
  180000    1.2139097   -6.3214922    87.383544  0.040455344  0.043068895            2 
  181000    1.2088591   -6.3625426    88.154884  0.040586963  0.043069482            3 
  182000    1.2302693    -6.303785    89.039303  0.040768911  0.043071234            2 
  183000    1.2289766   -6.3183722    89.160041  0.040601111  0.043071674            3 
  184000    1.2107487   -6.3460156    89.598391  0.040578981  0.043073302            2 
  185000    1.2272306   -6.3142137    90.096025  0.040583795   0.04307477            7 
  186000     1.236106     -6.31154    90.712439  0.040641774  0.043076299            3 
  187000    1.2334154   -6.3222653    91.079945  0.040588211  0.043077545            2 
  188000     1.208959   -6.3129648    91.859504  0.040717865  0.043076247            3 
  189000     1.224691   -6.3002133    92.224121  0.040663193  0.043077353            2 
  190000    1.2202986   -6.3071616    92.704002   0.04065965  0.043075459            1 
  191000    1.1899526   -6.3459489    92.835488   0.04050414  0.043071175            1 
  192000    1.2152588   -6.3460801    93.207488  0.040454639  0.043065624            3 
  193000    1.2348403   -6.3612556     93.57082  0.040401908  0.043057872            3 
  194000    1.2341009   -6.3350194    94.182787  0.040456523  0.043047341            2 
  195000    1.2292541   -6.3463242     94.72893  0.040482449  0.043038648            1 
  196000     1.196891   -6.3355999    94.975694  0.040380822  0.043030462            2 
  197000    1.2102854    -6.335819    95.723723  0.040492269   0.04301958            3 
  198000    1.2118822   -6.3513337    95.830746  0.040332805   0.04300816            4 
  199000    1.2080732   -6.3385215    96.349572  0.040347392  0.042995212            3 
  200000    1.2195479   -6.3387784    96.887403  0.040369751  0.042985373            3 
  201000    1.2002713   -6.3478224    97.467309  0.040409332  0.042974316            3 
  202000    1.2508087   -6.3213057    97.602074  0.040264882  0.042962753            1 
  203000    1.2013337   -6.3717967    98.095399  0.040269047  0.042950504            3 
  204000    1.1977907   -6.3133493    99.022561  0.040450392  0.042937363            3 
  205000    1.2304541   -6.3249978    99.372586   0.04039536  0.042923857            1 
  206000    1.2149642   -6.3190806    99.721557  0.040340435  0.042911122            3 
  207000    1.2264738   -6.3361966    100.43427  0.040432477  0.042899404            4 
  208000     1.199952   -6.3238597    101.05592  0.040487147  0.042887468            2 
  209000     1.225536   -6.3138306    101.54576   0.04048874  0.042875325            2 
  210000    1.2220863   -6.3434963    101.58273  0.040310606  0.042862052            2 
  211000    1.1928534   -6.2972735    102.24998  0.040383089  0.042846434            2 
  212000    1.2298367   -6.3490273    102.36114  0.040236298  0.042831487            4 
  213000    1.2180834   -6.3417718    103.01669   0.04030387   0.04281283            2 
  214000    1.2220833   -6.3523326    103.44726  0.040283199  0.042794262            3 
  215000    1.2385277   -6.3573359    103.54812  0.040134932  0.042776795            4 
  216000    1.2270596   -6.3304764    104.41686  0.040284282  0.042758061            2 
  217000     1.206842   -6.3763707    104.59763  0.040168061  0.042739993            4 
  218000     1.205973   -6.3741653    105.18092  0.040206773  0.042722385            2 
  219000    1.2341903   -6.3450269    105.71141  0.040225043  0.042707564            2 
  220000    1.2384355   -6.3338893    106.18818  0.040222794  0.042691311            1 
  221000    1.2131728   -6.3318969    106.92488  0.040318581  0.042675343            4 
  222000    1.2202879   -6.3522578     107.6107  0.040394405  0.042662756            4 
  223000    1.2141981   -6.3233407    108.10431  0.040397723  0.042653046            2 
  224000    1.2035457   -6.3884295    108.64607  0.040418926  0.042645343            2 
  225000    1.2155674   -6.3121478    109.82141  0.040674595  0.042640707            2 
  226000    1.2383854    -6.356715    110.19083  0.040630836  0.042637081            3 
  227000    1.2010438   -6.3699238    110.66812  0.040627064  0.042634588            7 
  228000    1.2166349   -6.3766279     110.7613   0.04048293  0.042630802            3 
  229000    1.2235785   -6.3757665     111.7561   0.04066816  0.042625159            3 
  230000    1.2009971   -6.3329281     111.9266  0.040553117  0.042622131            2 
  231000    1.2048059   -6.3474054    112.40744  0.040551025  0.042617554            8 
  232000    1.2338047   -6.3614386    113.24167  0.040675889  0.042614976            3 
  233000    1.2034468    -6.349365    113.77444  0.040691859  0.042612765            1 
  234000    1.2044421   -6.3516988    114.67776  0.040839657  0.042611055            2 
  235000    1.2232427   -6.3457973    114.93551  0.040757275  0.042611085            2 
  236000    1.2251349   -6.3665826    115.27714  0.040705206  0.042608572            1 
  237000    1.2261137   -6.3516166    115.54884  0.040628988   0.04260563            2 
  238000    1.2081112   -6.3084832    116.06998  0.040640749  0.042602077            1 
  239000    1.2113762   -6.3120339    116.94639  0.040776287  0.042598765            4 
  240000    1.2127057   -6.3565208    117.91065  0.040941196  0.042599944            1 
  241000    1.2137407   -6.3273927    118.08982  0.040833269   0.04260015            4 
  242000    1.2006173   -6.3400895    118.91351  0.040948179   0.04260052            6 
  243000    1.1832946   -6.3581431    119.58391  0.041009572  0.042601335            3 
  244000    1.2179618   -6.3509536    119.77931  0.040908233  0.042599741            2 
  245000    1.2057815   -6.3959299    119.62133  0.040687528  0.042597625            2 
  246000    1.2277504   -6.3821411    120.30598  0.040754059  0.042594378            2 
  247000    1.2335758   -6.3059749    120.75177  0.040739465  0.042591302            2 
  248000    1.1898729   -6.3668306     121.2862  0.040754771  0.042587622            3 
  249000    1.1950304   -6.3818913    122.16885  0.040886497  0.042585548            3 
  250000     1.212422   -6.3405759    122.79532  0.040931773  0.042583052            2 
  251000    1.1958004   -6.3679801    123.61963  0.041042372  0.042583081            3 
  252000    1.2072275   -6.3233517    124.23257  0.041082199  0.042587118            4 
  253000    1.2207677   -6.3584357    124.93776  0.041152094  0.042591595            2 
  254000    1.1952367   -6.3741123    125.21103  0.041079733  0.042596837            5 
  255000    1.1928273   -6.3135754    125.51506  0.041017994  0.042601803            2 
  256000    1.2247818   -6.3343643    126.50574  0.041180254  0.042606232            3 
  257000    1.1860015   -6.3540997    126.10982  0.040891641  0.042609178            3 
  258000    1.2246366   -6.3663234    127.50516  0.041183836  0.042613428            1 
  259000    1.2128397   -6.3389058    128.16594  0.041237434  0.042618532            2 
  260000    1.2011622   -6.3466448    128.45739   0.04117224  0.042625318            3 
  261000    1.2253157   -6.3556206    128.87845  0.041148931  0.042631275            2 
  262000     1.208186   -6.3815896    129.62502  0.041229331  0.042635412            2 
  263000    1.1812527   -6.3478667    130.18577  0.041250242  0.042640731            4 
  264000    1.2085421   -6.3554483    131.01333  0.041355218  0.042647658            8 
  265000    1.2545361   -6.3556819    131.62767  0.041392348  0.042653661            3 
  266000    1.1819484    -6.387051    131.15197  0.041087708  0.042659853            2 
  267000    1.2100049   -6.3585842    131.89383  0.041165365  0.042665058            2 
  268000    1.2152452   -6.3537862    132.48691  0.041196178  0.042668324            2 
  269000    1.2242451   -6.3881808    132.68532  0.041104499  0.042670717            3 
  270000    1.2118603   -6.3562063    132.99824  0.041048839  0.042673948            2 
  271000    1.2060084    -6.392331    133.97711  0.041198374  0.042676137            3 
  272000    1.2384664    -6.340266    134.98673  0.041356229  0.042679578            1 
  273000    1.2001997   -6.3602241    134.77538  0.041140225  0.042682128            2 
  274000    1.2082421   -6.3698844    135.26016  0.041137518  0.042685282            1 
  275000    1.2336874   -6.3611348    136.17744   0.04126589  0.042688636            2 
  276000    1.1860005   -6.3834483    136.62688  0.041252076  0.042693422            7 
  277000    1.2027359   -6.3376777     137.1652  0.041265101  0.042697572            1 
  278000    1.2541995   -6.3535775    137.56829  0.041237498  0.042700623            1 
  279000    1.2388401   -6.3586823    137.91595  0.041193533  0.042701884            2 
  280000    1.1948391   -6.3462314    138.48588  0.041216036  0.042703268            5 
  281000    1.2032753   -6.3742929    139.67594  0.041422283  0.042706062            3 
  282000    1.2118811    -6.360754    140.09588  0.041399491  0.042710571            3 
  283000    1.2012179   -6.3580692     140.0213  0.041231242  0.042714809            1 
  284000    1.2023598   -6.3158972    140.36526  0.041186988  0.042718372            5 
  285000    1.1965807   -6.3321199    141.74262   0.04144521  0.042720838            2 
  286000       1.1983   -6.3600559    141.50782  0.041231882  0.042723536            2 
  287000    1.2243917   -6.3834212    142.03314  0.041240748  0.042725274            1 
  288000    1.1805142   -6.3568174    142.19245  0.041143648  0.042725113            4 
  289000    1.2195777    -6.359744    142.53376  0.041099701  0.042723043            2 
  290000    1.1933337   -6.3547073    143.12765  0.041128635  0.042719575            1 
  291000     1.198129   -6.3571645    143.64469  0.041135364  0.042717753            3 
  292000    1.1946566   -6.3971228    143.55838  0.040969856  0.042713954            2 
  293000    1.2088116   -6.3456411    144.57783  0.041119974  0.042710682            2 
  294000    1.2188463   -6.3551721    145.08841  0.041124833  0.042708844            2 
  295000    1.1942825   -6.3437469    146.22888  0.041307595  0.042707775            2 
  296000    1.1912664   -6.3510944    146.53521  0.041254282  0.042707838            2 
  297000     1.219858   -6.3798762    147.13768  0.041284422  0.042709527            2 
  298000    1.1863567   -6.3515513    147.89023  0.041356329  0.042710119            3 
  299000    1.2207211   -6.3516687    148.25766  0.041320419  0.042710345            2 
  300000    1.1788136   -6.3948221    148.34728  0.041207578  0.042708552            2 
  301000    1.2112341   -6.3582269    148.79175  0.041193729  0.042706452            2 
  302000    1.1825979   -6.3768703    149.09366  0.041140634   0.04270444            3 
  303000     1.197103   -6.3536968    149.58958   0.04114125  0.042700735            2 
  304000    1.2152143   -6.3367331    150.38022  0.041222649   0.04269651            1 
  305000    1.1939216   -6.3678712    150.02392  0.040990141  0.042692932            4 
  306000    1.2228544   -6.3011211    150.70014  0.041040343  0.042687691            3 
  307000    1.1690615   -6.3496208    151.06024  0.041004407  0.042682442            3 
  308000     1.173383   -6.3366391     151.7563  0.041059604  0.042675568            2 
  309000    1.2268173   -6.3661237    151.63621  0.040894338  0.042668683            6 
  310000    1.2146822   -6.3419506    153.17058  0.041174887  0.042662363            2 
  311000    1.2138567   -6.3491005    152.91964  0.040975252  0.042656166            1 
  312000    1.2161396   -6.3763895    153.28069  0.040940356  0.042650569            5 
  313000    1.1918173   -6.3325285    153.55013  0.040881291  0.042644434            3 
  314000      1.19362    -6.365342     154.4837  0.040998859    0.0426372            3 
  315000    1.1963432   -6.3625546    155.67859  0.041184813  0.042631181            3 
  316000    1.1984141   -6.3647023    155.12731  0.040909101  0.042625319            2 
  317000    1.2262617   -6.3691521    155.80723  0.040958789  0.042619909            2 
  318000    1.2116576    -6.357145    156.41771  0.040989966   0.04261615            2 
  319000    1.1727524   -6.3904484    157.19857  0.041065458  0.042610887            5 
  320000    1.2209005   -6.4117642    157.32654  0.040970453  0.042606151            2 
  321000    1.2157544   -6.3820585    157.82555  0.040972365  0.042600621            2 
  322000    1.1908237   -6.3447456    158.72456  0.041077784  0.042594217            1 
  323000    1.1980342   -6.3719789    158.86007  0.040985571  0.042588587            4 
  324000    1.1934927   -6.3606421    159.47922  0.041018319  0.042581791            2 
  325000    1.2145689   -6.3751112    159.73683  0.040958161  0.042575526            4 
  326000    1.2251298   -6.3776334    160.04417  0.040911087  0.042568177            7 
  327000     1.165169   -6.3903032    160.87186  0.040996907  0.042560471            1 
  328000    1.2035356   -6.4083141    160.95941  0.040894159   0.04255341            2 
  329000    1.2108882   -6.3813121    161.93997   0.04101823  0.042547754            1 
  330000    1.2101538   -6.3832271    162.23475  0.040968371  0.042540804            1 
  331000    1.1729376   -6.3529289    162.19959  0.040835747  0.042533342            3 
  332000    1.2023088   -6.3208762    163.36334  0.041004853    0.0425259            3 
  333000     1.197614   -6.3826891    163.49735  0.040915254  0.042518289            3 
  334000    1.1729103    -6.373325    164.22608   0.04097457  0.042511276            3 
  335000    1.2068095   -6.3854206     164.2196  0.040850646  0.042504728            3 
  336000    1.1872932   -6.3632937    165.09418  0.040945977  0.042497041            1 
  337000    1.1722092    -6.379121    165.41452   0.04090369  0.042489874            2 
  338000    1.2018078   -6.3715613    165.55969  0.040818465  0.042481338            5 
  339000    1.2420416   -6.2991812    166.46883   0.04092154  0.042471671            2 
  340000    1.1802289   -6.3647378    166.36215  0.040775037  0.042463136            1 
  341000    1.2233234   -6.3657695    167.12177  0.040841098  0.042454445            2 
  342000    1.1829569    -6.356271    167.51003  0.040816283  0.042445879            1 
  343000     1.200766   -6.4167433    167.38102  0.040665943  0.042437387            3 
  344000    1.1994187   -6.3987376    168.23755   0.04075522   0.04242761            5 
  345000    1.1908171   -6.3740732    169.20293  0.040870273  0.042417972            3 
  346000    1.1886784   -6.3665574    169.58272  0.040843621  0.042409346            4 
  347000    1.1909332   -6.3806742    169.96561  0.040817871  0.042400295            2 
  348000    1.1927599   -6.3491098    170.54493  0.040839304  0.042389411            3 
  349000    1.1988129   -6.3823831    171.03972   0.04084043   0.04237977            3 
  350000      1.19457   -6.4034879    171.35372  0.040798505    0.0423721            2 
  351000    1.1807786    -6.338734    172.52354  0.040960004  0.042364791            3 
  352000    1.2252931     -6.41149    172.52046  0.040842912  0.042357755            3 
  353000    1.1984993   -6.3422832    172.74838  0.040781016  0.042351461            2 
  354000    1.1544383   -6.3709685    173.49196  0.040840858  0.042344319            2 
  355000    1.2027582   -6.3520929    174.32414  0.040921158  0.042339408            2 
  356000    1.1936049   -6.3787719     174.5201  0.040852082  0.042333896            3 
  357000    1.1984274   -6.3639515    175.78203  0.041032219  0.042327985            2 
  358000    1.1869148   -6.3928509    175.46932  0.040844813  0.042323481            2 
  359000    1.2242753   -6.3823255    176.49138  0.040968288  0.042318794            3 
  360000    1.1910316   -6.3297964    177.61044  0.041113527  0.042314327            2 
  361000     1.204783   -6.3710715    177.50733  0.040975839  0.042310144            4 
  362000    1.1939483    -6.420174    177.18865  0.040789283  0.042304193            2 
  363000    1.1864094   -6.3583987    178.75396  0.041036264  0.042298633            2 
  364000    1.2047555   -6.3600872    178.97463  0.040974046  0.042293139            4 
  365000    1.1957925   -6.3899466    179.33275   0.04094355  0.042287316            3 
  366000    1.2002273   -6.3711563    179.90818    0.0409627  0.042282628            1 
  367000    1.1847086   -6.4148556    179.35104  0.040724577  0.042277303            4 
  368000    1.1892961   -6.4133652    180.69912  0.040919185  0.042271719            3 
  369000     1.183197   -6.3522728    181.56362  0.041003528  0.042266544            5 
  370000    1.1702285   -6.3935944    181.81213  0.040948678  0.042262374            1 
  371000    1.1862294   -6.4249654    182.82061  0.041064828  0.042259359            3 
  372000    1.2115196    -6.355108    182.68675  0.040924451  0.042256511            2 
  373000    1.1837713   -6.3657501    183.55103  0.041007827  0.042252853            2 
  374000    1.1965995   -6.3872551    184.37721  0.041082265  0.042250626            2 
  375000    1.2107087   -6.3870277    185.35671  0.041190379  0.042247325            2 
  376000    1.1795407   -6.3730156    185.91378  0.041204296  0.042244855            2 
  377000    1.1999878   -6.3955144    186.26745  0.041173176  0.042243698            3 
  378000    1.2214325    -6.397248    187.85941  0.041415214  0.042244549            2 
  379000    1.1947703   -6.3871109    188.22353     0.041386  0.042245689            2 
  380000    1.1972625   -6.3945916    188.44556  0.041325781  0.042246279            1 
  381000    1.1929821   -6.4142848     188.2391  0.041172158  0.042246923            3 
  382000    1.1685687   -6.3672975    189.95357  0.041438388  0.042247246            4 
  383000    1.1869466   -6.3608842    189.38689  0.041206895  0.042246821            2 
  384000    1.1913454   -6.3828627    189.54598  0.041134109  0.042245501            2 
  385000    1.1670788   -6.4099859    189.41166  0.040998195  0.042242657            3 
  386000    1.2085562   -6.3707558    190.24745   0.04107242  0.042240053            4 
  387000    1.2004743   -6.3824602    190.78789  0.041082663  0.042237127            1 
  388000    1.1885969   -6.3876634    191.46022  0.041121181  0.042234393            3 
  389000    1.2085664   -6.4010676    191.72262  0.041071684  0.042231721            2 
  390000    1.1900058   -6.3736171     192.0652  0.041039573  0.042228627            3 
  391000    1.1999544   -6.3930726    192.92131  0.041117073  0.042225487            1 
  392000    1.1945891   -6.4339873    192.34764  0.040890229  0.042221993            2 
  393000     1.183936   -6.4132524    193.34906  0.040998527  0.042218689            3 
  394000    1.1901145   -6.3690967    193.79729  0.040989275  0.042215489            1 
  395000    1.1794243   -6.3874022    194.80018  0.041097084  0.042212779            3 
  396000    1.2019439   -6.4263548    195.06975  0.041050031  0.042210232            4 
  397000     1.208372    -6.391778    195.26367  0.040987336   0.04220657            5 
  398000    1.1766625   -6.3759804    196.39274  0.041120757  0.042203417            2 
  399000    1.1904791   -6.3563058     196.5982   0.04106061  0.042200507            4 
  400000    1.1794896   -6.3907356    197.25239  0.041094248  0.042197726            3 
  401000    1.1886783    -6.383501    197.77949  0.041101306  0.042195492            2 
  402000    1.1926861   -6.3624545    198.21392   0.04108912  0.042193966            2 
  403000    1.1884573   -6.4051594    199.06768  0.041163706  0.042192417            3 
  404000    1.2333529   -6.4183101    199.09058  0.041066538  0.042190877            3 
  405000    1.2221742   -6.4429649    200.05678  0.041163946  0.042189874            2 
  406000    1.1811969   -6.4020338     200.9387  0.041243577  0.042188434            4 
  407000    1.1693526   -6.3984782    200.93816  0.041142129  0.042186747            2 
  408000    1.2012538   -6.3559023    201.86707  0.041231019  0.042185669            5 
  409000    1.1976596   -6.3839278    202.42074   0.04124302  0.042184447            2 
  410000     1.197582   -6.3655385    202.32893  0.041123766  0.042183636            5 
  411000    1.1882547   -6.4264369    202.47503  0.041053331  0.042182273            3 
  412000    1.1858921    -6.387177    203.36557  0.041133813  0.042179557            2 
  413000    1.1870838   -6.3953885     203.7102  0.041103754  0.042176909            3 
  414000    1.1804186   -6.4141642    203.91998  0.041046696  0.042174114            4 
  415000    1.1880562   -6.3756235    204.05561  0.040975023  0.042170128            1 
  416000    1.1987652   -6.4297206     204.5316  0.040971875  0.042165728            2 
  417000    1.2104251   -6.3882214    205.02797  0.040972816  0.042162372            2 
  418000    1.2302265    -6.371432    206.92327  0.041252645  0.042158969            2 
  419000     1.179197   -6.4135968    206.06694  0.040983879  0.042154456            1 
  420000    1.2043041    -6.380741    206.59588  0.040991246  0.042149932            3 
  421000     1.186839   -6.4228704    206.56434  0.040887636  0.042145267            4 
  422000     1.185069   -6.3796029    207.28011   0.04093209  0.042139606            2 
  423000    1.1718524   -6.3856267    207.49573  0.040877804  0.042134033            2 
  424000    1.1621199   -6.3814381    208.00609    0.0408817  0.042128623            4 
  425000     1.175549   -6.3877553    208.72146  0.040925777  0.042121837            3 
  426000    1.2032275    -6.385435    209.15475  0.040914467  0.042116139            4 
  427000    1.1792272   -6.4163949    208.98817  0.040786139  0.042110157            5 
  428000     1.150272   -6.3803687    210.70366  0.041024857  0.042105123            2 
  429000    1.1822081   -6.3868513    210.89215   0.04096584   0.04209887            2 
  430000    1.1819027   -6.4094757    210.87332  0.040866923  0.042093035            2 
  431000    1.1794486    -6.434514    211.91831  0.040974152  0.042087888            3 
  432000     1.203424   -6.3992401    212.55872   0.04100284  0.042082778            2 
  433000    1.1885931   -6.4134478     212.2163  0.040842244  0.042077653            1 
  434000      1.19772   -6.4084396     213.1005  0.040917914  0.042071888            4 
  435000     1.160372   -6.4213015     213.6977  0.040938256  0.042065769            2 
  436000    1.1554903   -6.4352926     213.8417  0.040871884  0.042059383            4 
  437000    1.1602558   -6.4280569     213.4289  0.040699638  0.042052091            1 
  438000    1.1745237   -6.3872135    214.66232  0.040841385  0.042044823            2 
  439000    1.2142449   -6.3696822    214.65024  0.040746058  0.042037196            4 
  440000    1.1555827   -6.4193531     214.4686  0.040619052  0.042028717            1 
  441000    1.1654646   -6.4630005    214.61728  0.040555041  0.042020639            7 
  442000    1.1695404   -6.3773242    215.92349  0.040709557  0.042012514            2 
  443000    1.1846749   -6.3923562    216.20904  0.040671377   0.04200495            5 
  444000    1.1821851   -6.4414009     215.9536  0.040531831  0.041996013            2 
  445000    1.1465894   -6.3871842    216.89985   0.04061795  0.041987685            1 
  446000    1.1749816    -6.418198    217.72058  0.040680227  0.041979773            4 
  447000    1.1533571   -6.4439573    218.04858  0.040650369  0.041972058            5 
  448000    1.1768209   -6.4095778    218.82418  0.040703902  0.041963815            5 
  449000    1.1584817    -6.407458    220.07755  0.040845871  0.041956768            2 
  450000    1.1894903   -6.4140748    218.77278  0.040513478  0.041948886            2 
  451000    1.1895475    -6.422317    219.93731  0.040638822   0.04194079            2 
  452000    1.1832626   -6.4216203    220.73178  0.040695388  0.041933147            2 
  453000    1.1745809   -6.3591354    221.74698  0.040792307  0.041925786            4 
  454000    1.1776493   -6.3978001    221.91449  0.040733204  0.041918236            3 
  455000    1.1498928    -6.397574    222.24692  0.040704564  0.041910352            2 
  456000     1.164057   -6.3926022    222.29463  0.040624019  0.041902724            3 
  457000     1.189202    -6.429088    221.97803  0.040477394   0.04189438            1 
  458000    1.1794181   -6.4316743     222.3113  0.040449655  0.041884865            1 
  459000    1.1827398   -6.4205577    223.59495   0.04059458  0.041875951            3 
  460000    1.1754519   -6.4158889    223.27319  0.040448042  0.041866482            1 
  461000    1.2039334   -6.4314545    223.22825  0.040352177  0.041857274            3 
  462000    1.1935308   -6.4205928    224.65671  0.040522495  0.041848262            4 
  463000     1.157065   -6.3847669    224.60896  0.040426379   0.04183968            1 
  464000    1.1760622   -6.4330549    224.79689  0.040373005  0.041830566            2 
  465000    1.1944741   -6.4033483    225.92478  0.040488311  0.041821588            2 
  466000     1.198467   -6.4151851    226.48699  0.040501966  0.041812629            1 
  467000    1.1687755   -6.4118394    226.53882  0.040424487   0.04180351            2 
  468000    1.1740578   -6.4177388     228.0013  0.040598522   0.04179484            3 
  469000    1.1688432   -6.4179077    227.81748  0.040479296  0.041786241            2 
  470000    1.1723092   -6.3442525    228.91138  0.040587124  0.041777406            2 
  471000    1.1422962   -6.4246942    227.96344  0.040333234  0.041768606            2 
  472000    1.1645401   -6.4268958    229.50561  0.040520057    0.0417599            2 
  473000     1.171254   -6.4387918    230.38322  0.040589009  0.041751534            3 
  474000    1.1546125   -6.4264508    229.94116   0.04042566  0.041744027            8 
  475000     1.161528    -6.410936    231.48555    0.0406115  0.041736174            1 
  476000    1.1876816   -6.4112638    231.13773  0.040465289  0.041727815            2 
  477000    1.1714462   -6.3950404     231.7676  0.040490496  0.041719193            3 
  478000    1.1650239    -6.414103    232.52311  0.040537503   0.04171132            5 
  479000    1.1781291   -6.4186444    232.08026  0.040375828  0.041703643            2 
  480000    1.1921325   -6.4196148    233.08597  0.040466315  0.041695216            2 
  481000    1.1724805   -6.4154628    234.03091  0.040545896  0.041687799            7 
  482000    1.1584987   -6.4090316    234.27064  0.040503222  0.041679652            6 
  483000    1.1671137   -6.4110587    234.43023    0.0404469  0.041671232            2 
  484000    1.1952861     -6.43349    235.11097  0.040480539  0.041663187            2 
  485000    1.1632783   -6.3936189    236.39691  0.040618026  0.041656324            2 
  486000    1.1806132   -6.4351143    235.97578  0.040462239  0.041649273            3 
  487000    1.1888933   -6.4407595    236.35631  0.040444269  0.041641956            2 
  488000    1.1376559   -6.3670957    237.49776  0.040556311  0.041635776            2 
  489000    1.1904553   -6.4335048    237.92983  0.040547005  0.041629402            2 
  490000    1.1754194   -6.4379477    238.44389  0.040551682  0.041622566            4 
  491000    1.1880837    -6.414546    239.28161  0.040611271  0.041615242            2 
  492000    1.1794071   -6.4116223    238.37259  0.040374761  0.041608021            1 
  493000    1.1573393   -6.4147973    239.62456  0.040504489  0.041600607            6 
  494000    1.2004525   -6.3942919    239.27958  0.040364302  0.041593022            2 
  495000    1.1854585   -6.4336229    239.59153  0.040335274   0.04158501            2 
  496000     1.153765   -6.3947948    240.77093  0.040452105  0.041576775            3 
  497000      1.18392   -6.4207076    241.32438   0.04046351  0.041568707            2 
  498000    1.1878062    -6.441993    240.56412   0.04025504   0.04156066            3 
  499000     1.149917   -6.3800868    241.97412   0.04040984  0.041553055            5 
  500000    1.1560304   -6.4136005      243.128  0.040521334   0.04154529            1 
  501000    1.1830575   -6.4221648    242.87017  0.040397566  0.041537358            1 
  502000    1.1708637   -6.4091283    243.81486  0.040473914  0.041530031            5 
  503000    1.1738391   -6.4508795    243.95345  0.040416409  0.041522468            1 
  504000    1.1802394   -6.4169263    244.49824  0.040426296  0.041515489            4 
  505000    1.1819654   -6.4238765    244.35563  0.040322711  0.041508519            4 
  506000    1.1803241   -6.4310771     244.4449  0.040257724  0.041500625            2 
  507000    1.1649657    -6.401043     245.9387   0.04042385  0.041492171            2 
  508000    1.1623288   -6.3971438    246.15751  0.040380169  0.041483993            1 
  509000    1.1708778   -6.3951287    246.16164  0.040301512  0.041476469            1 
  510000      1.16444   -6.4026147    247.04667  0.040367103  0.041468158            3 
  511000    1.1823935    -6.413722    246.83398  0.040253421  0.041461003            1 
  512000    1.1864094   -6.4397032    247.91053  0.040350021  0.041453481            3 
  513000    1.1863518   -6.3950964    248.57979  0.040380083   0.04144481            2 
  514000    1.1751257   -6.4160851    247.96216  0.040201388  0.041436169            2 
  515000    1.1650817   -6.4421691    247.65126   0.04007302  0.041427037            3 
  516000    1.1754727   -6.4703208    248.69556  0.040164011  0.041417488            3 
  517000    1.1563989    -6.418215    249.63237  0.040237327  0.041408438            3 
  518000    1.1299673    -6.459873    249.35949  0.040115748   0.04139907            4 
  519000    1.1790879    -6.453454    249.68671  0.040090993   0.04138992            2 
  520000    1.1380789    -6.371079    250.96023  0.040217985  0.041380698            2 
  521000    1.1973105   -6.4298368    250.86072  0.040124875   0.04137144            3 
  522000    1.1585722   -6.4280981    251.90039  0.040213983  0.041362588            5 
  523000     1.182882    -6.477251    251.34765  0.040049021  0.041353894            3 
  524000    1.1313914   -6.4490397    251.69841  0.040028373  0.041344246            2 
  525000    1.1796863    -6.444922    252.75867  0.040120423  0.041334269            2 
  526000    1.1784511   -6.4103956    254.26908  0.040283441  0.041324841            3 
  527000    1.1694426   -6.3967066    253.13856  0.040028235  0.041316171            5 
  528000    1.1815844   -6.4174332    253.93549  0.040078203   0.04130696            2 
  529000    1.1750736   -6.4319005    255.00871  0.040171505  0.041297594            3 
  530000    1.1623661   -6.4258077     255.6813  0.040201462  0.041288725            4 
  531000    1.1381388   -6.4486059    256.00593    0.0401767  0.041280236            4 
  532000    1.1587053   -6.4146181    256.48634  0.040176432  0.041271615            1 
  533000    1.1742301   -6.4337229    256.50791  0.040104426  0.041263227            2 
  534000     1.158482   -6.4466076    257.83882  0.040237019  0.041255011            2 
  535000    1.1566525   -6.4303155    257.79801  0.040155454  0.041247082            4 
  536000    1.1662242   -6.4156025    258.16197  0.040137122  0.041238489            1 
  537000     1.161633   -6.4801423    256.74348  0.039842254  0.041229247            7 
  538000     1.183228   -6.4289839    257.79765  0.039931482  0.041220135            2 
  539000    1.1814106   -6.4357732    258.93626  0.040033435  0.041210761            1 
  540000    1.1421088   -6.4325542    259.77884  0.040089326  0.041201417            1 
  541000    1.1599075   -6.4146883    260.90698  0.040188999  0.041192406            3 
  542000    1.1545771   -6.4350843    260.48756  0.040050363  0.041183293            4 
  543000     1.172498    -6.419582    260.67162  0.040004853  0.041174092            2 
  544000    1.1384478   -6.4445228    260.46767  0.039900072  0.041164361            5 
  545000    1.1435766   -6.3981493    261.45348  0.039977596  0.041155036            4 
  546000    1.1760607   -6.4311628    261.62557  0.039930642  0.041144821            4 
  547000    1.1751165   -6.4146782    261.96307  0.039909061  0.041133956            3 
  548000    1.1665011   -6.4516838    262.57297  0.039928979  0.041123995            2 
  549000    1.1649968   -6.4379825    263.21504   0.03995371   0.04111396            1 
  550000    1.1523937   -6.4323691    264.10686  0.040016191  0.041104433            3 
  551000    1.1666497   -6.4642802    263.52115  0.039854983  0.041095014            3 
  552000    1.1678379   -6.3663585    265.84961  0.040134301  0.041086803            4 
  553000    1.1745444   -6.3958068    265.15908  0.039957668  0.041077649            2 
  554000    1.1687307   -6.4088749    265.91624  0.039999435  0.041068272            3 
  555000    1.1451343    -6.433778    266.77561  0.040056397  0.041058746            4 
  556000    1.1903317   -6.4775724    265.47574  0.039789529  0.041049162            3 
  557000    1.1619706   -6.4648352    266.40795  0.039857562  0.041039153            3 
  558000    1.1548015   -6.4623566    267.26886  0.039914704  0.041029377            2 
  559000    1.1643805   -6.4010438    268.55858  0.040035566  0.041020676            3 
  560000    1.1908391   -6.4439726    268.44063  0.039946523  0.041012518            2 
  561000    1.1848118   -6.4449752    268.99234   0.03995727  0.041004378            2 
  562000    1.1670626   -6.4556015    268.92686  0.039876463  0.040995964            5 
  563000    1.1828717   -6.4731609    269.11598  0.039833627  0.040986819            3 
  564000     1.150298   -6.4575153     270.1385  0.039914081   0.04097791            4 
  565000    1.1483841   -6.4314699    270.73431  0.039931314  0.040968899            6 
  566000    1.1460172   -6.4127307     271.9431  0.040038736  0.040960765            2 
  567000    1.1848814   -6.4438215    272.09809  0.039990901  0.040952694            3 
  568000    1.1590105   -6.4418769    271.13968  0.039779882  0.040943889            2 
  569000    1.1683407   -6.4336833     273.2013  0.040011907  0.040935808            4 
  570000    1.1563222   -6.4554418     273.2992  0.039956024  0.040927916            3 
  571000    1.1808747   -6.4486323    274.28362  0.040029717  0.040919894            3 
  572000    1.1420624   -6.4606092    274.36024  0.039970897  0.040911178            2 
  573000    1.1910496   -6.4880632      273.357  0.039755236  0.040902759            3 
  574000    1.1727292   -6.4143087    275.34197  0.039974154  0.040894856            3 
  575000    1.1764126   -6.4865096    274.40752  0.039769206  0.040886826            2 
  576000    1.1702876   -6.4716402     274.7397  0.039748221  0.040877694            2 
  577000    1.1493261   -6.4434319    275.90054  0.039846987  0.040868852            2 
  578000    1.1496767   -6.4767724    275.28649  0.039689517  0.040860226            2 
  579000    1.1569249   -6.4177256    277.46652  0.039934732  0.040851687            2 
  580000    1.1488033   -6.4685897    277.22202  0.039830749  0.040843886            1 
  581000     1.147574      -6.4281    277.92964  0.039863689  0.040835551            1 
  582000    1.1460155   -6.4276236     278.8759  0.039930684  0.040827631            3 
  583000    1.1415281   -6.4266357    279.72009  0.039982861  0.040820252            2 
  584000    1.1369914   -6.4455145     279.7711  0.039921675  0.040812102            2 
  585000    1.1518523   -6.4284763     280.5267  0.039961068  0.040804384            2 
  586000     1.148985   -6.4258596    281.66305  0.040054473  0.040796854            2 
  587000    1.1493156   -6.4881216    280.59026  0.039833938  0.040789619            2 
  588000    1.1473148   -6.4407013    281.79395  0.039936785  0.040781819            4 
  589000     1.145628   -6.4191337     281.8097  0.039871208  0.040774386            3 
  590000    1.1225001   -6.4708893    282.39329  0.039886058  0.040767502            2 
  591000    1.1503523   -6.4322103    283.20326  0.039932778  0.040760517            3 
  592000    1.1637059   -6.4320137    283.22654  0.039868601  0.040753437            2 
  593000    1.1771726   -6.4594894    282.84392  0.039747599  0.040745969            4 
  594000    1.1499927   -6.4903216    284.57792   0.03992395  0.040738705            3 
  595000    1.1415555   -6.4213624    285.13895  0.039935427  0.040730621            2 
  596000    1.1811809   -6.4722764    284.00959  0.039710514  0.040722381            2 
  597000    1.1285478   -6.4797666    284.54779  0.039719122  0.040713837            3 
  598000    1.1499958   -6.4573104    284.69536  0.039673266  0.040704539            3 
  599000    1.1379421    -6.472722    284.77148  0.039617624  0.040695356            2 
  600000    1.1806931   -6.4314823    284.84581  0.039561918  0.040685853            3 
  601000    1.1319729   -6.4514514    286.51745  0.039727877  0.040676573            4 
  602000     1.162717   -6.4492865    286.27478  0.039628292  0.040667567            3 
  603000    1.1575526    -6.425588    287.92464  0.039790581  0.040659131            2 
  604000     1.133793   -6.4417509    286.61253  0.039543671   0.04065054            2 
  605000    1.1535648   -6.4818772    287.25806  0.039567225  0.040641568            2 
  606000    1.1444212   -6.4490891    288.61594  0.039688661  0.040632435            2 
  607000    1.1475374   -6.4355837    289.65701  0.039766202  0.040624235            2 
  608000    1.1566424   -6.4658495    288.56594  0.039551253  0.040615846            2 
  609000    1.1653376   -6.4615893    289.15741  0.039567243   0.04060744            2 
  610000    1.1477046    -6.462864    290.15558  0.039638741  0.040599259            2 
  611000    1.1862773   -6.3983373    291.29177  0.039728828  0.040590993            2 
  612000    1.1368893   -6.4417991    291.21349  0.039653253  0.040582819            4 
  613000    1.1754427   -6.4369562    291.88158  0.039679388   0.04057496            5 
  614000    1.1627122   -6.4724998    291.69731  0.039589755  0.040566827            3 
  615000    1.1429992   -6.4643353    293.58741  0.039781492  0.040558736            5 
  616000    1.1544904   -6.4641155    293.23432  0.039669146  0.040550873            5 
  617000    1.1566412   -6.4691616    294.51885  0.039778343  0.040543217            6 
  618000    1.1563731   -6.4813318     293.6266  0.039593663  0.040535141            3 
  619000     1.175326   -6.4446893    293.65737   0.03953384  0.040526558            4 
  620000     1.173608   -6.4699242    293.94384  0.039508581  0.040518161            2 
  621000    1.1426502   -6.3821133    295.23346  0.039618017  0.040509742            3 
  622000    1.1532441   -6.4630893    295.56156  0.039598279  0.040501804            2 
  623000    1.1390315   -6.4919054    295.94702  0.039586278  0.040494488            3 
  624000    1.1714247   -6.4770529    296.64347  0.039615848  0.040486498            3 
  625000    1.1676395   -6.4706545    297.02218  0.039602957  0.040478388            3 
  626000    1.1443468   -6.4154083    298.45789  0.039730816  0.040470416            2 
  627000    1.1655633   -6.4450576    297.76222  0.039574989  0.040462977            3 
  628000    1.1440647   -6.4639969    297.88678  0.039528501  0.040454848            3 
  629000    1.1480396    -6.491475    298.59111  0.039558971  0.040447018            3 
  630000    1.1610819   -6.4634121    298.74138  0.039516055  0.040439148            3 
  631000    1.1542715   -6.4944915    299.92803  0.039610147  0.040431597            5 
  632000    1.1458236   -6.4556116    300.40779  0.039610731  0.040424463            3 
  633000    1.1477682   -6.4530765    300.77744  0.039596819  0.040416849            2 
  634000    1.1443955   -6.4338063     301.0159  0.039565708  0.040409226            2 
  635000    1.1547635   -6.4834841      300.817  0.039477296  0.040401211            3 
  636000    1.1519874   -6.4559859    302.62523  0.039652153  0.040393774            3 
  637000    1.1297864   -6.4828453    301.79269  0.039480991  0.040386721            4 
  638000    1.1670959    -6.469054    302.92755  0.039567339  0.040379425            3 
  639000    1.1594871   -6.4611563    303.39738   0.03956669  0.040372129            2 
  640000    1.1199347   -6.4817295    303.40076  0.039505308  0.040364596            3 
  641000    1.1345559   -6.4655548    304.39688  0.039573177  0.040357347            3 
  642000    1.1474478   -6.4413957    305.43505  0.039646294  0.040350496            3 
  643000     1.172884   -6.4336343    306.12198  0.039673663   0.04034418            3 
  644000    1.1320853   -6.4901171    305.61699  0.039546712  0.040337733            5 
  645000     1.155592   -6.4544519    306.49471  0.039598799  0.040331196            2 
  646000    1.1504769    -6.440577    306.69912   0.03956387  0.040324456            2 
  647000    1.1261784   -6.4871862    306.95601  0.039535808   0.04031737            5 
  648000    1.1463059   -6.4199466    307.50576  0.039545494  0.040310507            3 
  649000    1.1499174   -6.5101047    307.84876  0.039528603  0.040303483            2 
  650000    1.1349846   -6.4749459    309.35528  0.039660934    0.0402965            4 
  651000    1.1475258   -6.4553279    309.44506  0.039611502  0.040289812            5 
  652000    1.1456149   -6.4762199    308.96605  0.039489526  0.040283629            4 
  653000    1.1565542    -6.459398     309.9106  0.039549591   0.04027706            2 
  654000    1.1429552    -6.447317    310.00195  0.039500759  0.040269771            4 
  655000      1.12828   -6.4566623    311.63438   0.03964814  0.040262722            1 
  656000    1.1469991   -6.4784448    311.51406  0.039572416  0.040255265            3 
  657000    1.1324638    -6.470657    311.63285  0.039527252  0.040248406            2 
  658000    1.1542763   -6.4684067    311.68511  0.039473798   0.04024089            3 
  659000    1.1401291    -6.488537    312.06097  0.039461427  0.040233601            3 
  660000    1.1548842   -6.4223889    312.60907  0.039470842  0.040225848            1 
  661000    1.1253585   -6.4554831    312.50939  0.039398561   0.04021839            2 
  662000     1.138199   -6.5039293    313.26289  0.039433899  0.040210919            4 
  663000    1.1300856   -6.4556123     312.9787    0.0393387   0.04020361            2 
  664000     1.163407   -6.4973897    313.86424  0.039390592  0.040195834            2 
  665000    1.1318933   -6.4437333    314.74119  0.039441252  0.040188212            2 
  666000    1.1581639   -6.4448374    315.32374  0.039454923  0.040181583            2 
  667000    1.1236502   -6.4775374    317.18423  0.039628215  0.040174943            3 
  668000    1.1422292   -6.4608282    317.22161  0.039573554  0.040168659            2 
  669000    1.1527215   -6.4864968    317.41736  0.039538784  0.040162166            2 
  670000    1.1520357   -6.4804642    316.86237  0.039410742  0.040155645            4 
  671000    1.1300687   -6.4418907    318.91186   0.03960654  0.040148905            4 
  672000    1.1126965   -6.4533784    317.54073   0.03937757   0.04014193            2 
  673000    1.1280106   -6.5268619    317.20528  0.039277523  0.040134087            3 
  674000    1.1523758   -6.4404274    318.48378  0.039377322  0.040126125            2 
  675000    1.1566501   -6.4539693    318.96225  0.039378056  0.040118984            3 
  676000    1.1300095   -6.4665241    318.81032  0.039301074   0.04011166            5 
  677000     1.121014   -6.4921198     319.5816  0.039337961  0.040104433            2 
  678000    1.1534399   -6.4712701    320.25923  0.039363228  0.040097244            3 
  679000    1.1362131   -6.4289005    321.18698  0.039419118  0.040090269            4 
  680000    1.1145907   -6.4726212    319.07113  0.039101854  0.040082887            8 
  681000    1.1430899   -6.4349693    322.13722   0.03941963  0.040075511            2 
  682000    1.1458094   -6.4703135    320.91064  0.039211956  0.040067883            3 
  683000    1.1475069   -6.4827617     321.1667  0.039185785  0.040060274            2 
  684000    1.1262821   -6.5025063     321.1346  0.039124586  0.040052514            3 
  685000    1.1515771   -6.5373725    323.16742  0.039314771  0.040044747            5 
  686000    1.1680706   -6.4527321    323.51071  0.039299163  0.040036812            3 
  687000    1.1233208   -6.5201511    322.58465  0.039129628  0.040028477            2 
  688000    1.1379639   -6.5014654    323.25333  0.039153746  0.040019665            5 
  689000    1.1727039   -6.4693407    323.57862  0.039136263  0.040011278            3 
  690000    1.1498787   -6.4986589    323.49172  0.039069048  0.040002945            3 
  691000    1.1609332   -6.4641683    324.15829  0.039092896  0.039994359            2 
  692000    1.1491278   -6.4881548    324.50966  0.039078716  0.039985945            2 
  693000    1.1575655   -6.4752116    324.87506  0.039066265  0.039977195            3 
  694000    1.1401724   -6.5004005    325.43474  0.039077178  0.039968319            3 
  695000    1.1585939   -6.4918009    325.48785   0.03902732  0.039960014            3 
  696000    1.1178487   -6.4982001    326.86375  0.039135985  0.039951781            8 
  697000    1.1097952   -6.4671099    327.56628  0.039163831  0.039943356            2 
  698000    1.1426303   -6.4491243    328.61466  0.039232887  0.039935386            4 
  699000    1.1344965   -6.4552986     327.9201  0.039093955  0.039926803            2 
  700000     1.148258   -6.4494212     328.5734  0.039115881  0.039918158            2 
  701000    1.1558134   -6.5028653    327.29515  0.038908125  0.039909096            2 
  702000    1.1535082   -6.4735321    327.94012  0.038929264  0.039899817            5 
  703000    1.1699063   -6.4990073    328.34916  0.038922376   0.03989073            4 
  704000    1.1542798   -6.4978367    328.45419   0.03887952  0.039881156            1 
  705000    1.1419766   -6.4780348    329.15286  0.038906958  0.039871635            2 
  706000    1.1411655   -6.5007713    329.41157  0.038882386  0.039862631            1 
  707000    1.1113467   -6.4636754    331.23644  0.039042484  0.039853595            2 
  708000    1.1419957   -6.4316356    331.81979  0.039056001  0.039844452            5 
  709000    1.1512294   -6.4974322    330.54211  0.038850741  0.039835164            2 
  710000    1.1412864   -6.4692816    331.05491   0.03885621  0.039825544            2 
  711000    1.1425686   -6.4741352    331.14327  0.038811916  0.039816092            8 
  712000    1.1386517   -6.5133591    331.75585  0.038829103   0.03980707            3 
  713000     1.115437   -6.4985926    333.21825  0.038945565  0.039798144            2 
  714000    1.1465687   -6.4355598    333.20751  0.038889766  0.039789093            2 
  715000    1.1378043   -6.4750733    332.68131  0.038774046  0.039779793            3 
  716000    1.1495937   -6.4785335    333.28742  0.038790435  0.039770395            3 
  717000    1.1285151   -6.4936753    334.19034  0.038841277  0.039760646            2 
  718000    1.1584572   -6.5422188    333.96288   0.03876078  0.039750748            3 
  719000    1.1572777   -6.4936278    334.97059  0.038823667  0.039740718            3 
  720000    1.1682886   -6.4758959    334.65455  0.038733165  0.039731548            3 
  721000     1.124966   -6.4285499    335.50873  0.038778171  0.039722072            2 
  722000    1.1530665   -6.4993354    336.52981  0.038842315  0.039712306            3 
  723000    1.1473174    -6.462858    336.59002   0.03879553  0.039702661            6 
  724000    1.1448686   -6.5050425    336.82362  0.038768833  0.039692998            2 
  725000    1.1491324   -6.5072089     337.2828  0.038768138  0.039683694            2 
  726000     1.128077   -6.5144297    338.57383  0.038862928  0.039674689            3 
  727000    1.1614916   -6.4858498    338.43219  0.038793236  0.039665378            3 
  728000    1.1456034   -6.4946518    338.65225  0.038765139  0.039655894            4 
  729000    1.1245527   -6.4615114    338.83538  0.038732896  0.039646675            5 
  730000    1.1339809   -6.4834631    338.97752  0.038696064   0.03963774            4 
  731000    1.1312314   -6.4709549    340.50984  0.038817811  0.039628802            2 
  732000    1.1336349   -6.4714716    340.94612   0.03881445  0.039619896            3 
  733000    1.1651621     -6.49181    340.70317  0.038733876  0.039610717            2 
  734000    1.1387835   -6.4797873    340.84291   0.03869697   0.03960139            3 
  735000    1.1372114   -6.5214943    341.61687  0.038732072  0.039592261            2 
  736000    1.1386532   -6.5086492    342.79309  0.038812623  0.039583315            3 
  737000    1.1155732   -6.4536805    342.98784  0.038781981  0.039574718            1 
  738000    1.1127865   -6.4981925    342.62942  0.038688959  0.039565806            3 
  739000     1.127495   -6.4992154    343.09546  0.038689159  0.039557129            5 
  740000    1.1297672   -6.4903823    343.46811  0.038678841   0.03954862            8 
  741000    1.1203132   -6.5551434    344.28119  0.038718082   0.03953982            2 
  742000    1.1214055   -6.4915253    344.21192  0.038658122  0.039530729            4 
  743000    1.1324348   -6.4870185    344.67776   0.03865834  0.039522087            2 
  744000    1.1253412    -6.490467    344.64973   0.03860324  0.039513304            2 
  745000     1.141635   -6.5095788    344.49622  0.038534252  0.039503688            3 
  746000    1.1373814   -6.5371989    345.55779  0.038601183  0.039494306            4 
  747000    1.1558023   -6.5105954     347.4118  0.038756336  0.039485083            2 
  748000     1.123678   -6.5018819    346.00455  0.038547744  0.039476264            2 
  749000    1.1511132   -6.4741724    347.60153  0.038673958  0.039467455            3 
  750000    1.1276328   -6.5079796    348.23444  0.038692716  0.039458713            4 
  751000    1.1526426   -6.5060698    347.33604  0.038541505  0.039449965            3 
  752000    1.1252068   -6.5304729    348.45529  0.038614283  0.039441369            6 
  753000    1.1493177   -6.5262917    349.13381  0.038638094  0.039432684            5 
  754000    1.1184512   -6.5026781    348.64247  0.038532546  0.039423908            3 
  755000    1.1377352   -6.5241146    348.96614  0.038517234  0.039415301            6 
  756000    1.1408123   -6.5135214    350.44573  0.038629379  0.039406348            6 
  757000    1.1382262   -6.5482021    350.11265  0.038541683  0.039397631            2 
  758000    1.1126254   -6.4757277     351.4134  0.038633839  0.039389129            2 
  759000     1.099275   -6.4852258     352.5991   0.03871312  0.039380872            3 
  760000    1.1398495   -6.5008031    352.92561  0.038697983  0.039372724            3 
  761000     1.137027   -6.5065026    352.92253  0.038646794  0.039364558            3 
  762000    1.1378713    -6.474936     352.9731  0.038601607  0.039355893            1 
  763000    1.1174528   -6.4838094    354.24405  0.038689826   0.03934776            4 
  764000    1.1213301   -6.5207393    354.66186  0.038684758  0.039339033            4 
  765000    1.1331092   -6.5219056    353.54104  0.038512096  0.039330995            2 
  766000    1.1141551   -6.5272981    354.16734  0.038529955  0.039322791            3 
  767000    1.1300752   -6.5437899    354.66396  0.038533677  0.039314067            1 
  768000    1.1178105   -6.5479631    354.03962  0.038415757  0.039305376            7 
  769000    1.1228726   -6.4750067    355.59475  0.038534325  0.039296598            1 
  770000    1.1410802   -6.5440195    354.96521  0.038416148  0.039288123            1 
  771000    1.1214814   -6.5018295    355.68208  0.038443805  0.039279149            2 
  772000    1.1090809   -6.5223599    357.07293  0.038544142  0.039270411            5 
  773000    1.1343871   -6.5151632    356.86021  0.038471346  0.039261851            3 
  774000    1.1274037   -6.4864882    358.77809  0.038628132  0.039253135            2 
  775000    1.1317884   -6.4633887    358.55929  0.038554763  0.039244785            2 
  776000    1.1156226   -6.5026349    357.82994  0.038426755   0.03923687            3 
  777000    1.1312859   -6.5037396    359.63696  0.038571103  0.039228859            3 
  778000    1.1082731   -6.4927861    360.95625  0.038662837  0.039221425            3 
  779000    1.1148742   -6.5016866    360.19618  0.038531898  0.039213971            1 
  780000    1.1324143   -6.4668468    359.91971  0.038452961  0.039206052            4 
  781000    1.1045951   -6.4970483    361.94757  0.038620099  0.039198112            1 
  782000    1.1366986   -6.5376418    361.09467  0.038479824  0.039190384            2 
  783000    1.1148267   -6.4831117    363.06837  0.038640737  0.039182539            3 
  784000    1.1269638   -6.5229077    361.94597  0.038472148  0.039174903            3 
  785000     1.105431   -6.4806387    361.90296  0.038418573  0.039166969            2 
  786000    1.1567929   -6.5371407    362.73015  0.038457394  0.039158847            2 
  787000    1.1386757   -6.5175644    362.35199  0.038368487  0.039150268            4 
  788000    1.1529384   -6.4815461    362.87948  0.038375579   0.03914154            3 
  789000    1.1311967   -6.5291518    362.18105  0.038253174  0.039132642            3 
  790000    1.1511622   -6.4963593    363.42693  0.038336174  0.039123984            3 
  791000    1.1157672    -6.519861     362.7015  0.038211283  0.039114911            2 
  792000    1.1424297   -6.5206581    364.46823   0.03834893  0.039106062            7 
  793000    1.1183394   -6.5465962    365.51552  0.038410626  0.039097519            3 
  794000    1.1365112   -6.5271177    364.79929  0.038287079   0.03908888            7 
  795000    1.1291038   -6.5440534    366.35641  0.038402139  0.039080317            2 
  796000    1.1153203   -6.5209449    366.66037  0.038385718  0.039071629            1 
  797000    1.1124783   -6.4967174    367.19097  0.038393034  0.039063105            3 
  798000    1.1286485   -6.5444709    366.75483  0.038299376  0.039054522            2 
  799000    1.0955032   -6.5100317     367.0326  0.038280413  0.039045723            1 
  800000    1.1055293   -6.5172508    367.17358  0.038247248  0.039036709            4 
  801000    1.1223761   -6.4935373    368.37134   0.03832411  0.039027949            2 
  802000    1.1328031   -6.4773853    368.84007  0.038325028  0.039019065            2 
  803000    1.1368719   -6.5022435    367.72214  0.038161285  0.039010295            2 
  804000    1.1057814   -6.4601264    369.30013  0.038277376  0.039001412            1 
  805000    1.0891658   -6.5096494    369.54678   0.03825536  0.038992666            3 
  806000    1.1096986   -6.5406391    369.19696  0.038171729  0.038983965            3 
  807000    1.1432016   -6.5120625    370.21493  0.038229547  0.038975063            2 
  808000     1.125806   -6.5298589    371.10107  0.038273625  0.038966569            3 
  809000    1.1199555   -6.4924743    371.13175  0.038229476  0.038958225            2 
  810000    1.1484398   -6.5204191    371.02077  0.038170861  0.038949573            6 
  811000    1.1265856   -6.4974201    372.64504  0.038290695  0.038940915            2 
  812000     1.127336   -6.5204528    373.17115  0.038297531  0.038932273            4 
  813000    1.1253511   -6.4727634     372.7065  0.038202798  0.038924002            4 
  814000      1.12976   -6.5054644    373.13864  0.038200107    0.0389155            3 
  815000    1.1189772   -6.5270607    372.77722   0.03811628  0.038906977            3 
  816000    1.1208021   -6.4907206    373.30189  0.038123151  0.038898384            2 
  817000    1.1005353   -6.5227474    374.77961  0.038227214  0.038890039            2 
  818000    1.1262285   -6.5029634    374.99226  0.038202145  0.038881352            1 
  819000    1.1139674   -6.5021309    376.12041   0.03827029  0.038873264            4 
  820000    1.1170723   -6.5160689    375.35104  0.038145431  0.038864438            2 
  821000    1.0906523    -6.547538    375.19081  0.038082705  0.038855588            3 
  822000    1.1427809     -6.46673    375.38464  0.038056026  0.038847214            2 
  823000    1.1313949    -6.533514    376.65618  0.038138536  0.038838589            7 
  824000    1.1111982   -6.5382596    376.85753  0.038112615  0.038829796            4 
  825000    1.1214235   -6.5195405    376.52553  0.038032882  0.038821242            2 
  826000    1.1233922   -6.5269777    378.11712  0.038147409  0.038812809            2 
  827000    1.1148218   -6.4847681    377.87974  0.038077362  0.038804275            5 
  828000    1.1211892   -6.4899427    378.78193  0.038122174  0.038795628            5 
  829000    1.1081508   -6.5234851    379.60624  0.038159051   0.03878714            1 
  830000    1.1281801   -6.5148117    379.00722  0.038052934  0.038778632            2 
  831000    1.1233798   -6.5345558    379.85438  0.038092095  0.038770617            7 
  832000    1.1107079   -6.4991856    380.75507  0.038136526    0.0387622            4 
  833000    1.1346851   -6.5181653    381.99366  0.038214652  0.038754069            3 
  834000    1.1323671    -6.511627    382.46752  0.038216179  0.038746201            4 
  835000    1.0970869   -6.5248356    381.79394  0.038103187  0.038738148            4 
  836000    1.1122895    -6.505069    383.78937  0.038256516  0.038730303            2 
  837000    1.1154787   -6.5239842    382.94684  0.038126925  0.038722775            1 
  838000     1.119069   -6.5471139    382.80767  0.038067589  0.038715169            2 
  839000    1.1036222   -6.5357686    384.03406  0.038144027  0.038707676            3 
  840000    1.1181215   -6.5303824    384.73916  0.038168568  0.038699994            3 
  841000    1.1430842   -6.5281845    384.70107  0.038119409  0.038692318            4 
  842000    1.1292853   -6.4941165    385.02507  0.038106203  0.038684199            5 
  843000    1.1118407   -6.5419707    385.47718  0.038105692  0.038676322            3 
  844000    1.0981178   -6.5717972    384.93861  0.038007366   0.03866832            3 
  845000    1.1325669    -6.512213    385.86935  0.038054176  0.038660472            3 
  846000     1.096327   -6.5198006    387.49329  0.038169158   0.03865261            2 
  847000    1.0987417   -6.5224706     387.0957  0.038084977  0.038644625            3 
  848000    1.1007248   -6.4907576    386.82927  0.038013883  0.038637186            4 
  849000    1.1254046   -6.4868956    388.23753  0.038107335  0.038629783            3 
  850000    1.1288543   -6.5044951    388.58126  0.038096202  0.038622716            1 
  851000    1.0943017   -6.4944254    390.53306  0.038242563  0.038615657            2 
  852000    1.1076661   -6.5003339    390.05279  0.038150703   0.03860855            3 
  853000    1.1164226   -6.5392665    388.88473  0.037991865  0.038601167            2 
  854000    1.1075406   -6.5362214    388.50861  0.037910677  0.038593505            2 
  855000    1.1170136   -6.5001758    390.15062  0.038026376  0.038585862            5 
  856000    1.1118158   -6.5373605    389.75668  0.037943602  0.038577571            2 
  857000     1.105729   -6.5020151    390.16843  0.037939365  0.038569483            1 
  858000    1.1083079   -6.5292339    389.61492  0.037841387  0.038561275            4 
  859000    1.1462807   -6.5357067    390.92704  0.037924625  0.038552983            3 
  860000    1.0991735   -6.5308809    391.58779  0.037944553  0.038544731            1 
  861000    1.1369413    -6.535952    392.03329  0.037943602   0.03853615            2 
  862000    1.1032211   -6.5073566    392.13703  0.037909612  0.038527743            2 
  863000    1.1084465   -6.5025883    391.36152    0.0377908  0.038519166            2 
  864000    1.1194905   -6.5311315    392.53087  0.037859845  0.038511024            2 
  865000    1.1203664   -6.5400602    392.98739  0.037860057  0.038502778            5 
  866000    1.1184379   -6.5145916    393.67681   0.03788268  0.038494669            3 
  867000    1.0977543   -6.5204822    393.49743  0.037821744   0.03848689            2 
  868000    1.1031121    -6.535317    395.26048  0.037947435  0.038478679            3 
  869000    1.0811324   -6.5387344    393.15824  0.037702171  0.038470572            7 
  870000    1.0929596   -6.5260282    395.57451  0.037890278  0.038462562            3 
  871000    1.1159055   -6.5009463     395.6484  0.037853847  0.038454702            3 
  872000    1.0895492   -6.5193674    395.18299  0.037765959  0.038446808            2 
  873000    1.1244556   -6.5305904    397.04685  0.037900616  0.038439021            4 
  874000    1.1207761   -6.5276798    396.85595  0.037839049  0.038430854            2 
  875000    1.1229137   -6.5310465    396.46454  0.037758528  0.038422327            2 
  876000    1.1126309   -6.5357743    396.67713  0.037735648  0.038414037            2 
  877000    1.1289665   -6.5407157    397.80692  0.037799973  0.038405681            5 
  878000      1.10945   -6.5203863    398.29599   0.03780334  0.038397586            3 
  879000    1.1326029   -6.5467002    399.27861   0.03785349  0.038389359            9 
  880000    1.1066519   -6.5486171    398.05576  0.037694674  0.038381209            8 
  881000     1.102914   -6.5141659    399.76859  0.037813903  0.038373112            6 
  882000    1.1124739   -6.5802974    398.81885  0.037681297  0.038364805            2 
  883000    1.1043727   -6.5655596    398.12636  0.037573269  0.038355916            2 
  884000    1.1195748    -6.561227    398.00363  0.037519196  0.038346889            3 
  885000    1.0968597   -6.5580581    398.41037    0.0375151  0.038337407            2 
  886000    1.1001567    -6.529605    399.47651  0.037573035   0.03832819            2 
  887000     1.091789   -6.5344315    400.33674  0.037611494  0.038319211            3 
  888000    1.0982824   -6.5309396    399.97245  0.037534952  0.038310095            5 
  889000    1.1230954    -6.516534    400.25212  0.037518946  0.038300741            1 
  890000    1.1130518    -6.541682    400.89274  0.037536774   0.03829156            8 
  891000    1.1182141   -6.5654455    401.16601  0.037520203  0.038282627            4 
  892000    1.1006553   -6.5459229    403.55714  0.037701526   0.03827374            6 
  893000      1.12807   -6.5192723    402.53222  0.037563664  0.038264748            4 
  894000     1.118122   -6.5586822    403.64003   0.03762491  0.038255679            5 
  895000    1.1363435   -6.5272256    402.37334  0.037464929  0.038246713            2 
  896000    1.0971866   -6.5243034    403.57865  0.037535217  0.038237709            5 
  897000    1.0763334    -6.571599    404.24529  0.037555304  0.038228426            2 
  898000    1.1132507   -6.5569183    404.63009  0.037549192  0.038218942            2 
  899000    1.1169399    -6.558937    404.20623  0.037468134  0.038209631            2 
  900000    1.1129917   -6.5671658    403.82148  0.037390878  0.038200423            3 
  901000    1.1059726    -6.535901    404.50201   0.03741232  0.038191235            1 
  902000    1.1146021   -6.5388347    404.60379  0.037380246  0.038181846            4 
  903000    1.1460226   -6.5384443     405.1316   0.03738756    0.0381724            3 
  904000    1.1121415   -6.5419252    406.31965   0.03745572  0.038162791            2 
  905000    1.0959747   -6.5478308    405.78009  0.037364649  0.038153564            3 
  906000    1.0849984   -6.5528501    406.41686  0.037381978   0.03814414            2 
  907000    1.1192856   -6.5285457    408.32065  0.037515679  0.038134937            7 
  908000    1.1049769   -6.5218544    409.18272   0.03755348  0.038126228            3 
  909000    1.1134658   -6.5693068    408.97474    0.0374931  0.038117565            3 
  910000    1.1056966   -6.5233309     409.3535  0.037486584  0.038108972            5 
  911000    1.0872393   -6.5551386    409.88755  0.037494288  0.038100493            6 
  912000    1.1212384   -6.5184042    409.58018  0.037425089  0.038092005            1 
  913000    1.0966472   -6.5540696    409.24397  0.037353411  0.038083218            6 
  914000    1.0726947   -6.5356117    410.87749  0.037461478   0.03807441            2 
  915000    1.1163482   -6.5833432    409.88665  0.037330296   0.03806546            2 
  916000    1.1412972   -6.5338623    411.70056  0.037454563  0.038056828            2 
  917000    1.1196628   -6.5473638    411.91627  0.037433321   0.03804807            2 
  918000    1.0925122    -6.562565    412.16026  0.037414693  0.038039356            4 
  919000    1.0926065   -6.5262332    412.50666  0.037405391  0.038030677            2 
  920000    1.1067482   -6.5800167    410.70012  0.037201098  0.038021769            3 
  921000     1.090133   -6.5135653    413.50405  0.037414409  0.038013141            1 
  922000    1.1062667   -6.5178985    414.84732  0.037495239  0.038004971            3 
  923000    1.1010579   -6.5489659    414.84228   0.03745416  0.037996588            2 
  924000    1.1013171   -6.5653011    414.50174  0.037382913  0.037988378            6 
  925000    1.1065615   -6.5211773    414.39073  0.037332498  0.037980054            4 
  926000    1.0971881   -6.5427032    415.28811   0.03737294  0.037971911            3 
  927000    1.1167639   -6.5151138    416.27118  0.037420998  0.037963987            2 
  928000    1.1039404   -6.5199938    416.44736  0.037396494  0.037956077            2 
  929000    1.1165189    -6.549575    416.70923   0.03737973   0.03794772            3 
  930000    1.0860013   -6.5141497    417.56912  0.037416588  0.037939408            3 
  931000    1.1144155   -6.5513603    417.00063  0.037325513  0.037931076            5 
  932000    1.1060944   -6.5600265    416.49719  0.037240449  0.037922437            3 
  933000    1.0973258    -6.574613    417.44471  0.037285166  0.037913872            4 
  934000    1.0942362   -6.5771891    418.49984  0.037339386  0.037905521            3 
  935000    1.1193302   -6.5992257    417.36514  0.037198319  0.037896869            3 
  936000    1.1036577   -6.5732452    418.40915  0.037251527  0.037888204            3 
  937000      1.09391   -6.5410421    418.73399  0.037240661  0.037879552            4 
  938000    1.1153752   -6.5673316    419.07541  0.037231291  0.037870859            3 
  939000    1.0928572    -6.527522     418.8644  0.037172914  0.037862084            3 
  940000    1.1086916   -6.5813795    419.50683  0.037190321  0.037853456            3 
  941000    1.1099686   -6.5633519    419.61408  0.037160297  0.037844418            3 
  942000    1.1200348   -6.5688715    420.60913  0.037208876  0.037835489            1 
  943000    1.0904516   -6.5743349    420.15931  0.037129667  0.037826459           10 
  944000    1.0671636   -6.5529038     420.8871  0.037154582  0.037817315            3 
  945000     1.104661    -6.541287     420.6597  0.037095212  0.037808189            3 
  946000    1.1031665   -6.5324796     421.2643  0.037109258  0.037799457            4 
  947000    1.0966048   -6.5521389    420.97543  0.037044652  0.037790338            2 
  948000     1.114114   -6.5802536    422.84012   0.03716949   0.03778099            2 
  949000    1.1354726   -6.5695913    422.26292  0.037079638  0.037772009            3 
  950000    1.1308083    -6.566651     422.7291    0.0370815  0.037763055            3 
  951000     1.102505   -6.5500377    424.61036  0.037207358  0.037753988            4 
  952000    1.0613675   -6.5539486    423.58061  0.037078134   0.03774502            4 
  953000    1.0911255   -6.5840192    423.89204   0.03706646  0.037735849            2 
  954000     1.125801    -6.553505       423.85  0.037023934  0.037726537            3 
  955000    1.0941717    -6.580094    423.16189  0.036925122  0.037717063            7 
  956000    1.1200416   -6.5871361    424.86957  0.037035353  0.037707446            4 
  957000    1.0613189   -6.5917655    424.09298   0.03692903  0.037697709            3 
  958000    1.0934908   -6.5491805    425.21572  0.036988146  0.037688116            3 
  959000    1.0736878   -6.5331342    423.74092  0.036821421  0.037678489            3 
  960000    1.1054243   -6.5543716      425.345  0.036922309  0.037668715            2 
  961000    1.1051145   -6.5540223    425.85736  0.036928317   0.03765886            4 
  962000    1.0993663   -6.5617115    425.35704   0.03684659  0.037648897            3 
  963000    1.1032566   -6.5774992    425.22286  0.036796716  0.037639116            1 
  964000    1.0951686   -6.5832035    425.77445  0.036806228  0.037629578            7 
  965000    1.1107029    -6.591992    426.90181  0.036865441  0.037620055            1 
  966000     1.090972   -6.5612615    427.94656  0.036917405  0.037610215            2 
  967000    1.0994236   -6.5284661    427.51921    0.0368424   0.03760038            4 
  968000    1.0926784   -6.5585049     427.1747  0.036774681  0.037590367            2 
  969000    1.0753281    -6.557365    426.79932  0.036704448  0.037580092            4 
  970000    1.0949593   -6.5798537    428.13306  0.036781191  0.037570011            3 
  971000    1.0997076   -6.5704339    429.15753  0.036831234  0.037559998            3 
  972000    1.1023801   -6.5640057    428.42161  0.036730248  0.037550273            7 
  973000    1.0955347   -6.5769331    429.06145  0.036747297  0.037540144            5 
  974000    1.0937275   -6.5559364    428.76343  0.036684071  0.037530482            3 
  975000    1.1161647   -6.5430604    430.00369  0.036752452  0.037520444            4 
  976000     1.098469   -6.5336225    431.11619  0.036809784   0.03751073            6 
  977000    1.0978081   -6.5801553    430.61384   0.03672926  0.037500917            3 
  978000    1.0687959   -6.5849906    430.68368  0.036697655  0.037491185            5 
  979000    1.1134152   -6.5260806    432.21471  0.036790493  0.037481568            2 
  980000    1.0978827   -6.5696395    432.19957  0.036751664  0.037471834            7 
  981000    1.0945313    -6.544507    432.52306   0.03674168  0.037461906            7 
  982000    1.0860323   -6.5432136    432.26517   0.03668238  0.037452396            4 
  983000    1.0903588   -6.5688256    431.31657  0.036564646  0.037442545            2 
  984000    1.0946493   -6.5821816    434.12752  0.036765542  0.037432818           10 
  985000    1.0988472   -6.5845403    432.53533  0.036593514  0.037423017            3 
  986000      1.09776   -6.5494402    433.23484  0.036615521  0.037413125            2 
  987000    1.0908694   -6.5836294     434.2662  0.036665501  0.037403402            2 
  988000     1.122686   -6.5759313    434.93361  0.036684684  0.037393615            5 
  989000    1.0773012     -6.58675    435.13692  0.036664722  0.037383659            2 
  990000    1.0922948   -6.5778695    434.63059  0.036585066  0.037373687            4 
  991000    1.0946782   -6.5389745    435.44038  0.036616245  0.037363724            5 
  992000    1.0940414   -6.5626131    434.20332  0.036475413  0.037353623            3 
  993000    1.0650524   -6.5724166    435.54655  0.036551406  0.037343499            2 
  994000    1.0809744   -6.5604158    435.47485  0.036508623   0.03733338            3 
  995000    1.0615622   -6.5842539    435.03891   0.03643542  0.037323289            3 
  996000    1.0883475   -6.5887962    435.05928  0.036400542  0.037312864            2 
  997000    1.0906939   -6.5593659    437.68896  0.036583832  0.037302565            2 
  998000    1.1020712   -6.5478236    436.94901  0.036485388  0.037292275            4 
  999000     1.135144   -6.5679703     438.4106  0.036570787  0.037282021            3 
 1000000      1.07305   -6.6022305    436.40744  0.036367287  0.037271646            3 
 1001000    1.0802047   -6.5704722    437.82462  0.036448936  0.037261209           11 
 1002000    1.0840601   -6.5538854    437.53824  0.036388743  0.037250974            5 
 1003000    1.0647135   -6.5330697     438.1093  0.036399909    0.0372407            5 
 1004000    1.0862461   -6.5981803    437.14728  0.036283805  0.037230212            4 
 1005000    1.0844549   -6.5715296    438.76268  0.036381649  0.037219718            1 
 1006000     1.079167   -6.5738718    438.79171  0.036347888  0.037209068            4 
 1007000    1.0725796   -6.5814125    438.66477  0.036301289  0.037198341            3 
 1008000    1.1014219   -6.5423775    440.13877  0.036387134  0.037187713            2 
 1009000    1.0583723    -6.565619    440.01142  0.036340554  0.037177374            2 
 1010000    1.0762475   -6.5957043    439.85144  0.036291373  0.037166539            2 
 1011000    1.1143779   -6.5758606     439.6758  0.036240999  0.037155649            2 
 1012000    1.0990959   -6.5907025    440.30386  0.036256905  0.037144886            5 
 1013000    1.0576183   -6.5643419     439.9693  0.036193591  0.037134226            1 
 1014000    1.0816923   -6.5913094    439.87449  0.036150106  0.037123409            7 
 1015000    1.0730309    -6.601524    440.96472     0.036204  0.037112614            3 
 1016000     1.092132   -6.6046309    442.55153  0.036298518  0.037102125            3 
 1017000    1.0703565   -6.5959797    441.74284  0.036196562  0.037091317            1 
 1018000    1.0621986   -6.5762692    441.51943  0.036142717  0.037080716            3 
 1019000    1.0793375   -6.5731621    442.76148  0.036208822  0.037069934            4 
 1020000     1.097988   -6.5594532     442.9035  0.036184927  0.037059395            6 
 1021000    1.0786524   -6.5617867    444.71116  0.036297026  0.037049003            3 
 1022000    1.0909824   -6.5515555    444.62704  0.036254651  0.037038682            4 
 1023000    1.0977102   -6.5689801    445.65931    0.0363033  0.037028442            3 
 1024000    1.0997793   -6.5949886    444.53131  0.036176051  0.037018071            2 
 1025000    1.1126272     -6.58972    443.71057   0.03607403  0.037007764            2 
 1026000    1.0779317    -6.579008    446.56012  0.036270315  0.036997485            2 
 1027000    1.0810193   -6.5459552    447.27604   0.03629309  0.036987437            2 
 1028000    1.0901566   -6.5440398    446.57119  0.036200648  0.036977341            3 
 1029000    1.0897702   -6.5904524    447.22213  0.036218184  0.036967367            3 
 1030000    1.0738893   -6.6047038     446.9384  0.036160064   0.03695733            3 
 1031000    1.1013979   -6.5622835    448.53184  0.036253786  0.036947361            5 
 1032000    1.1158305   -6.5570646    451.42882  0.036452586  0.036937828            5 
 1033000    1.0896502   -6.5769778     448.9294  0.036215666  0.036928193            4 
 1034000    1.1148174    -6.596937    449.33126  0.036213029  0.036918285            4 
 1035000    1.0953424   -6.5771726    449.48614   0.03619051  0.036908487            3 
 1036000    1.0755578   -6.5855796    450.88037  0.036267726  0.036898969            2 
 1037000    1.0922342   -6.6374658    448.93133  0.036076127  0.036889169            2 
 1038000    1.0796634   -6.6050946    451.35858  0.036236238  0.036879538            4 
 1039000    1.0925615   -6.5830888    451.09874  0.036180521  0.036869956            4 
 1040000    1.0774913   -6.5855977    450.57317  0.036103619  0.036860537            6 
 1041000    1.0832785   -6.6211529    452.38926  0.036214318  0.036850739            3 
 1042000    1.1034092   -6.5752118    453.34521  0.036256015  0.036841357            4 
 1043000    1.1026953   -6.6214924    451.11946  0.036043421  0.036832053            2 
 1044000    1.0774242   -6.6045857    452.54889  0.036122996   0.03682277            3 
 1045000    1.0889363   -6.5582325    454.23788  0.036223117  0.036813448            7 
 1046000    1.0627967   -6.5917966    454.34494  0.036197016  0.036804174            5 
 1047000    1.0707405   -6.5930299    453.09362  0.036062848  0.036794711            4 
 1048000     1.064351   -6.5695589    454.19209  0.036115783  0.036785083            4 
 1049000    1.0516581   -6.5927011     454.3027  0.036090141   0.03677534            3 
 1050000    1.0823704   -6.5604054    454.13378  0.036042364  0.036765312            3 
 1051000    1.1000225    -6.614891    454.65804  0.036049639  0.036755569            2 
 1052000    1.0859343   -6.6376858    453.65954  0.035936275  0.036745419            3 
 1053000    1.0960087    -6.586909     454.2457  0.035948536  0.036735353            2 
 1054000    1.0741065    -6.567092      455.193  0.035989326  0.036725312            2 
 1055000    1.0818699    -6.583751    455.49261  0.035978879  0.036715487            3 
 1056000    1.0966405   -6.5643515    456.49243  0.036023708  0.036705641            1 
 1057000     1.070334   -6.5933241    456.84337  0.036017295   0.03669585            3 
 1058000    1.0845929    -6.560786    456.31571  0.035941691  0.036686134            4 
 1059000    1.0910346   -6.6019174    456.49462  0.035921831  0.036676344            3 
 1060000    1.0786811   -6.5875038    458.01248   0.03600727  0.036666461            4 
 1061000    1.0873808   -6.5602498    458.72641  0.036029407  0.036656763            3 
 1062000    1.1050563   -6.6294261    457.37432  0.035889385  0.036646809            2 
 1063000    1.0814285   -6.5895563    459.65004  0.036034026  0.036636867            3 
 1064000    1.0805281   -6.6046136    458.29987  0.035894413  0.036627212            2 
 1065000    1.0733304   -6.5702689    460.15619  0.036005962  0.036617523            3 
 1066000    1.0507868   -6.5771381     460.0301  0.035962328  0.036607924            2 
 1067000    1.1001335   -6.5425912    462.49564  0.036121184   0.03659873            3 
 1068000    1.0807207   -6.5995474    460.68364  0.035945977  0.036589522            5 
 1069000    1.0821526   -6.5620029    462.02511  0.036016924  0.036580077            6 
 1070000    1.0934393   -6.6076529    461.95704  0.035977962  0.036570545            4 
 1071000    1.0542627   -6.5474118    461.54948  0.035912658  0.036561238            2 
 1072000    1.0860756   -6.5858727    461.93896  0.035909434  0.036551761            2 
 1073000    1.0808776   -6.5767294    462.11937  0.035889979  0.036541934            4 
 1074000    1.0707171   -6.5973975    461.83255  0.035834307  0.036531987            3 
 1075000    1.0719077   -6.6071932    462.19744  0.035829259  0.036522137            1 
 1076000    1.0954499   -6.5688469    462.68378  0.035833626  0.036512407           10 
 1077000    1.0647764   -6.5792885    463.73453  0.035881657  0.036502623            1 
 1078000     1.074272   -6.5529425    463.64695  0.035841601  0.036492988            2 
 1079000    1.0701334   -6.6198493    463.90305  0.035828162  0.036483152            3 
 1080000    1.0778189   -6.6075058    464.24579  0.035821435  0.036473485            2 
 1081000    1.0699653   -6.5897357     464.7406  0.035826442  0.036463831            2 
 1082000    1.0810955    -6.644962    465.02675  0.035815369  0.036454271            5 
 1083000    1.0721178   -6.6022035    464.42131  0.035735712  0.036444707            5 
 1084000    1.0723713   -6.6016979    466.26071   0.03584415  0.036435165            7 
 1085000    1.0734524   -6.6343268    464.55724  0.035680279  0.036425427            2 
 1086000      1.08316   -6.5675014    466.45163  0.035792789  0.036415673            3 
 1087000    1.0623679   -6.5888175     466.6377  0.035774126  0.036405823            4 
 1088000     1.077379   -6.5806257    466.61656  0.035739626  0.036396088            3 
 1089000    1.0920979   -6.6316225    464.43577  0.035539927  0.036386061            3 
 1090000    1.0840779   -6.5828132    464.98019  0.035548945  0.036376022            5 
 1091000    1.0810127   -6.5777719    466.22237  0.035611241  0.036365734            2 
 1092000    1.0574753   -6.5530415    466.64387  0.035610796  0.036355649            5 
 1093000    1.0871637     -6.56842     465.8937   0.03552102  0.036345468            6 
 1094000    1.0918557   -6.6372861    467.74005  0.035629194  0.036335303            6 
 1095000    1.0812361   -6.6123146    467.41654  0.035572035  0.036325151            3 
 1096000    1.0586837   -6.6315835    468.54279  0.035625212  0.036315154            2 
 1097000    1.0752325   -6.5921834    469.96341  0.035700654  0.036305343            2 
 1098000    1.0613177   -6.6148693    469.74861  0.035651837  0.036295699            3 
 1099000    1.0767751   -6.6355384    470.05068  0.035642302  0.036286134            3 
 1100000    1.0432686   -6.5777003    470.35915  0.035633269   0.03627655            6 
 1101000    1.0773479   -6.6028924    470.44109  0.035607107  0.036266842            6 
 1102000    1.0700181   -6.5999365    471.27201  0.035637629  0.036257477            3 
 1103000    1.0551738   -6.5788747    472.44281  0.035693775  0.036248019            8 
 1104000    1.0839878    -6.629566    471.52483  0.035592152  0.036238516            2 
 1105000    1.0672611   -6.5943328    472.65944  0.035645509  0.036228885            2 
 1106000    1.0823314   -6.5800599    473.47028  0.035674373  0.036219379            2 
 1107000    1.0694433    -6.573983    471.41071  0.035487105  0.036210017            3 
 1108000    1.0863533   -6.6390131    471.94981  0.035495624  0.036200535            4 
 1109000    1.0688087   -6.5714877    474.02643  0.035619659  0.036191168            2 
 1110000    1.0602128   -6.6291287    473.89023  0.035577345  0.036181712            1 
 1111000    1.0755974   -6.6180679    474.91874  0.035622468  0.036172353            4 
 1112000    1.0762957   -6.6195435    475.74559  0.035652397   0.03616318            2 
 1113000    1.0846487   -6.6463525    474.96195  0.035561691  0.036153902            3 
 1114000    1.0968512   -6.6045602    476.24853  0.035626012  0.036144706            2 
 1115000     1.104173   -6.6262752    476.86579  0.035640194  0.036135615            1 
 1116000    1.0634532   -6.6230667    476.49419   0.03558051  0.036126613            4 
 1117000    1.0617238   -6.6137786     477.6424  0.035634318  0.036117446            3 
 1118000    1.0870548   -6.6345591     475.7403  0.035460666   0.03610833            1 
 1119000    1.0937763   -6.6176126    477.72399  0.035576705  0.036099505            3 
 1120000     1.068451   -6.6612216    477.62155  0.035537318  0.036090279            3 
 1121000    1.0770306   -6.5853918    479.95363  0.035678979  0.036081279            1 
 1122000    1.1046781   -6.5939022    478.56832   0.03554429  0.036072487            5 
 1123000    1.0770344     -6.61193    479.45989  0.035578799  0.036063592            2 
 1124000    1.0833911   -6.6570753    479.00975  0.035513771  0.036054729            3 
 1125000    1.0648304   -6.6299824    480.70244  0.035607588   0.03604586            2 
 1126000     1.052782   -6.6107434    479.55286  0.035490887  0.036036988            4 
 1127000    1.0530185   -6.6279374    480.18947  0.035506468  0.036028137            3 
 1128000    1.0751911   -6.6195012    481.79596  0.035593673  0.036019216            6 
 1129000    1.1073487   -6.6103155    480.72414  0.035483033  0.036010279            2 
 1130000    1.0390729   -6.6176117    482.59379  0.035589512  0.036001269            6 
 1131000    1.0855102   -6.5830101    481.54694  0.035480912  0.035992327            4 
 1132000    1.0871556   -6.6236429    481.12373  0.035418414  0.035983311            4 
 1133000    1.0752808   -6.6381126    481.30725  0.035400651  0.035974067            3 
 1134000    1.0805543   -6.5935246    482.97076  0.035491679  0.035964985            3 
 1135000    1.0668914   -6.6111397    483.38915  0.035491127  0.035956013            2 
 1136000    1.0609339   -6.6272264    483.06339  0.035435988  0.035947029            3 
 1137000    1.0661958   -6.6420975    481.10272   0.03526112  0.035938206            4 
 1138000     1.074217   -6.5958878     483.8093  0.035428332  0.035929178            2 
 1139000    1.0600311    -6.614512    484.88619  0.035476016  0.035920091            2 
 1140000    1.0678851   -6.6375173    485.01247  0.035454128  0.035911171            1 
 1141000    1.0697739   -6.6213902    484.38783  0.035377434  0.035902325            9 
 1142000    1.0525089   -6.5753312     487.3556  0.035563018  0.035893756            5 
 1143000    1.0578513   -6.6059611    486.66582  0.035481614  0.035885035            2 
 1144000    1.0815698   -6.6263723     487.4295  0.035506228  0.035876254            2 
 1145000    1.0425379   -6.5988427    486.64447  0.035418084  0.035867425            2 
 1146000    1.0850521   -6.6072067    485.65684  0.035315361  0.035858511            4 
 1147000    1.0668629   -6.6216193    486.25931  0.035328343   0.03584957            2 
 1148000    1.0622768   -6.6220453    487.21827   0.03536718  0.035840657            2 
 1149000    1.0474388   -6.6674811    486.88824  0.035312463  0.035831414            3 
 1150000     1.092428   -6.5863038    486.83067  0.035277585  0.035822125            5 
 1151000    1.0716614   -6.6511259    486.86771  0.035249617  0.035812851            5 
 1152000    1.0720795   -6.6326608    486.62374   0.03520137  0.035803603            2 
 1153000    1.0803036   -6.6394927     488.0388  0.035273114  0.035794281            3 
 1154000    1.0558856   -6.5876423    489.20246  0.035326578  0.035785484            6 
 1155000    1.0713845   -6.6058024    489.71219   0.03533277   0.03577642            1 
 1156000    1.0602812   -6.6219584    489.54319  0.035290022  0.035767404            3 
 1157000    1.0513302   -6.6007573    490.42024  0.035322691  0.035758695            4 
 1158000    1.0800567   -6.6230924    490.20902  0.035276988  0.035750108            2 
 1159000    1.0438899   -6.6275356    491.87444  0.035366296   0.03574138            4 
 1160000    1.0707302   -6.6088252    492.06499  0.035349496  0.035732617            3 
 1161000    1.0548884    -6.625367    491.39013  0.035270609  0.035724012            3 
 1162000    1.0497157   -6.5756268    491.74051  0.035265384  0.035715212            3 
 1163000    1.0620406   -6.6385439    490.13576  0.035120075  0.035706545            3 
 1164000    1.0492724   -6.6213324    491.76334  0.035206425  0.035697674            5 
 1165000    1.0770462   -6.6717507    492.96611   0.03526224  0.035688804            4 
 1166000    1.0419127   -6.6236971    493.35769  0.035259984  0.035679778            2 
 1167000     1.046189   -6.6093315    493.07745  0.035209758  0.035671041            5 
 1168000     1.070072   -6.6301247    492.80663   0.03516029  0.035662283            2 
 1169000    1.0524905   -6.6293537    495.13154  0.035295947  0.035653699            3 
 1170000    1.0818583   -6.6178355    494.24439  0.035202592  0.035645138            2 
 1171000    1.0775694   -6.6262696    495.62009  0.035270431  0.035636484            3 
 1172000    1.0894111   -6.6197501    494.68242  0.035173665  0.035627755           11 
 1173000    1.0636244   -6.6324548    495.05223  0.035169951   0.03561903            8 
 1174000    1.0260604   -6.6407818    493.91677  0.035059396  0.035610091            3 
 1175000    1.0629954   -6.6335943    495.94079  0.035173106  0.035601165            2 
 1176000    1.0498909   -6.6207569    497.08215  0.035224075  0.035592514            6 
 1177000     1.064432   -6.6299921     496.6855  0.035166065  0.035583823            6 
 1178000    1.0464032   -6.5972321    497.89993  0.035222123  0.035575095            4 
 1179000    1.0790222   -6.6043585    497.05278   0.03513237  0.035566405            3 
 1180000     1.044661   -6.6573681    496.85019   0.03508829  0.035557623            3 
 1181000    1.0601991   -6.6701987    497.99816  0.035139582  0.035548813            3 
 1182000    1.0477226   -6.6054747    498.23313  0.035126419  0.035539984            3 
 1183000    1.0658483   -6.6584824    497.57581  0.035050423  0.035531265            6 
 1184000    1.0584874   -6.6351857    497.36856  0.035006233  0.035522349            7 
 1185000     1.038691   -6.5961946     498.4887  0.035055464  0.035513478            3 
 1186000     1.066943   -6.6235405    498.36822  0.035017441  0.035504432            8 
 1187000    1.0702654   -6.6631908    497.48157  0.034925693  0.035495411            2 
 1188000    1.0369847   -6.6380112    499.16653  0.035014487  0.035486461            3 
 1189000    1.0564328   -6.6012785     498.7509  0.034955908  0.035477396            2 
 1190000    1.0471679   -6.6234312    499.09038  0.034950307  0.035468316            6 
 1191000    1.0700276   -6.6343424    500.04189  0.034987538  0.035459354            4 
 1192000    1.0508926   -6.6431939    500.72565  0.035005988   0.03545028            5 
 1193000    1.0369714   -6.6164374    501.50215  0.035030885  0.035441435            3 
 1194000    1.0439754    -6.604736    503.59281  0.035147461  0.035432659            3 
 1195000    1.0696777   -6.6201767    502.50309  0.035042056  0.035423926            2 
 1196000    1.0709425   -6.6286936    501.32719  0.034930824  0.035415198            3 
 1197000    1.0464553   -6.6431138    501.24248  0.034895745  0.035406317            3 
 1198000    1.0714938   -6.6256507    501.65147  0.034895066   0.03539737            2 
 1199000    1.0618306   -6.6466225    502.52842  0.034926913  0.035388511            5 
 1200000    1.0536055   -6.6768159    502.46062  0.034893099  0.035379578            3 
 1201000    1.0609884    -6.621245    503.46574  0.034933787  0.035370707            3 
 1202000    1.0631527   -6.6352868    502.95913  0.034869602  0.035361653            3 
 1203000    1.0621041   -6.6366088    504.67876  0.034959737  0.035352465            3 
 1204000    1.0421515   -6.6191105    505.19042  0.034966114  0.035343601            3 
 1205000    1.0387559   -6.6095788    505.11129  0.034931624  0.035334862            5 
 1206000    1.0531452   -6.6539331     504.6299  0.034869396  0.035325827            3 
 1207000    1.0542932   -6.6413833    504.05253  0.034800644  0.035316619            3 
 1208000    1.0683234   -6.6181281    504.83014  0.034825479  0.035307418            3 
 1209000     1.055523    -6.617661    505.11515  0.034816319  0.035298433            3 
 1210000    1.0523491   -6.6705821    505.08336  0.034785355  0.035289152           10 
 1211000    1.0425661   -6.6556135    505.68094  0.034797752  0.035279941            4 
 1212000    1.0808907   -6.6234246    505.86354  0.034781597  0.035270904            2 
 1213000    1.0607304   -6.6478358    506.74026  0.034813153  0.035261821            4 
 1214000    1.0540505   -6.6215268    506.79234  0.034788052  0.035252684            3 
 1215000    1.0725706   -6.6223335    507.58173  0.034813561  0.035243575            4 
 1216000    1.0681157   -6.6416744    506.48683  0.034709898   0.03523445            5 
 1217000    1.0505089      -6.6364    507.06991  0.034721303   0.03522529            3 
 1218000    1.0662138   -6.6670936    506.43835  0.034649586  0.035216289            3 
 1219000    1.0592816   -6.6446455     506.3313  0.034613843   0.03520708            2 
 1220000    1.0632094   -6.6391723    506.50083  0.034597051  0.035197728            3 
 1221000    1.0566745   -6.6496955    508.52427  0.034706816  0.035188374            2 
 1222000    1.0600965   -6.6153537     509.1981  0.034724366  0.035179173            5 
 1223000    1.0354628   -6.6535549    508.27157   0.03463284  0.035169803            4 
 1224000    1.0611699   -6.6477104    509.02928  0.034656133  0.035160237            6 
 1225000    1.0512815   -6.6471395    507.75754   0.03454133  0.035150763            2 
 1226000    1.0760887   -6.6628159    509.38167   0.03462355  0.035141126            2 
 1227000    1.0740875   -6.6572347    509.13449  0.034578545  0.035131458            4 
 1228000    1.0475513   -6.6309894     508.5819  0.034512887  0.035121781            5 
 1229000    1.0609356   -6.6409189     509.1278   0.03452182  0.035112251            2 
 1230000    1.0621886   -6.6198277     508.7798  0.034470176  0.035102543            5 
 1231000    1.0439469   -6.6404535    510.08813  0.034530742  0.035092956            2 
 1232000      1.04839   -6.6537751    509.06077  0.034433223  0.035083148            4 
 1233000    1.0732937   -6.6309561      510.364  0.034493377  0.035073372           10 
 1234000     1.039991   -6.6619638    509.95479   0.03443779  0.035063685            3 
 1235000    1.0483548   -6.6797101    511.10873  0.034487768  0.035053855            1 
 1236000    1.0651886     -6.64504    511.74233  0.034502584  0.035044075            5 
 1237000    1.0569006   -6.6388451    511.48866  0.034457603  0.035034354            2 
 1238000    1.0646051   -6.6225558    511.27965  0.034415701  0.035024649            1 
 1239000    1.0477798   -6.6244351    511.77323  0.034421121   0.03501492            2 
 1240000    1.0525944   -6.6458761    511.76983  0.034393134   0.03500532            4 
 1241000    1.0545268    -6.622241    513.81867     0.034503  0.034995591            2 
 1242000     1.072055   -6.6386607    512.56335  0.034390992  0.034986081            4 
 1243000    1.0574583   -6.6638135    512.28575  0.034344714  0.034976512            4 
 1244000    1.0455925   -6.6243047    512.10534   0.03430502  0.034966845            3 
 1245000    1.0642433   -6.6904101    512.58766  0.034309749  0.034957025            5 
 1246000    1.0425457   -6.6681728    513.79152  0.034362729  0.034947384            2 
 1247000    1.0581141   -6.6286235    511.95834  0.034212666  0.034937717            3 
 1248000    1.0275428    -6.654735    514.42517  0.034349971  0.034928031            3 
 1249000    1.0497018   -6.6071536    515.72394  0.034409123  0.034918209            2 
 1250000    1.0482822   -6.6580148    514.91609  0.034327739  0.034908495            4 
 1251000    1.0410985   -6.6635754    515.96498  0.034370169  0.034898708            6 
 1252000    1.0665535   -6.6888752    513.24199  0.034161474  0.034888806            3 
 1253000    1.0453508   -6.6546316    514.68981  0.034230501  0.034879005            4 
 1254000    1.0554564   -6.6560781    514.10771  0.034164521  0.034869043            6 
 1255000    1.0494172    -6.662193    514.66937  0.034174593  0.034859183            4 
 1256000    1.0543072   -6.6292693    516.64175  0.034278248  0.034849224            3 
 1257000    1.0453459   -6.6327108    515.78276  0.034194031   0.03483939            5 
 1258000    1.0525698   -6.6605009    515.43038  0.034143507  0.034829382            3 
 1259000    1.0292508   -6.6643271    515.45061  0.034117727  0.034819205            3 
 1260000    1.0362958    -6.640074    516.33072  0.034148857  0.034809029            1 
 1261000    1.0664289   -6.6252697    517.11362  0.034173514   0.03479918            4 
 1262000    1.0604945   -6.6407684    516.89627  0.034132083  0.034789272            7 
 1263000    1.0512541   -6.6372569     517.9447  0.034174235  0.034779303            3 
 1264000    1.0296719   -6.6662102    517.61732  0.034125615  0.034769394            7 
 1265000    1.0622654   -6.6664983     516.9074  0.034051871  0.034759286            5 
 1266000    1.0627574   -6.6583419    516.11964   0.03397312   0.03474927            3 
 1267000    1.0299476   -6.6683379    517.93582   0.03406576  0.034739159            4 
 1268000    1.0525626   -6.6469798    518.42585  0.034071099  0.034728998            2 
 1269000     1.055532   -6.6704961    517.49018  0.033982806  0.034719053            2 
 1270000     1.055259   -6.6171173    518.49891  0.034022238  0.034709238            2 
 1271000    1.0397769   -6.6714018    519.17664  0.034039906  0.034699304            6 
 1272000     1.028118   -6.6147336    520.89366  0.034125633  0.034689504            3 
 1273000    1.0303374     -6.66145     521.8095  0.034158779   0.03467989            4 
 1274000    1.0533064   -6.6601633    521.24793  0.034095234  0.034670192            3 
 1275000    1.0395111   -6.6730228     521.4971  0.034084778  0.034660425            3 
 1276000    1.0362104   -6.6361877     521.8599  0.034081759   0.03465057            4 
 1277000     1.048309   -6.6498203    521.18364   0.03401094  0.034640725            4 
 1278000    1.0700121   -6.6391062    521.08484  0.033977885  0.034630771            7 
 1279000    1.0515902   -6.6614983    521.94739  0.034007519  0.034620951            4 
 1280000    1.0563917   -6.6860859    521.20997   0.03393294  0.034610949            5 
 1281000     1.057891   -6.6733214    522.77109  0.034008008  0.034601045            4 
 1282000    1.0387851   -6.6731702    522.80839  0.033983905  0.034591155            4 
 1283000    1.0137549   -6.6731034    523.93687  0.034030714  0.034581269            5 
 1284000    1.0393257    -6.663825    523.92826  0.034003651  0.034571452            4 
 1285000    1.0513556   -6.6166372    525.47955  0.034077792   0.03456173            3 
 1286000    1.0534952   -6.6978908    525.41799  0.034047303  0.034552081            2 
 1287000    1.0770465   -6.6853096    524.78422  0.033979812  0.034542544            3 
 1288000    1.0330561   -6.6186069    527.27007  0.034114264  0.034533061            2 
 1289000    1.0209127    -6.644512    527.28418  0.034088711  0.034523645            2 
 1290000    1.0480598   -6.6803443     527.0617  0.034047914  0.034514194            5 
 1291000     1.044966   -6.6262144    528.35903  0.034105282  0.034504967            4 
 1292000    1.0226319   -6.6542526    526.81232  0.033979123  0.034495674            3 
 1293000    1.0417008   -6.6573325    526.47742   0.03393126  0.034486256            4 
 1294000    1.0505984   -6.6942339    527.72718  0.033985522  0.034476794            3 
 1295000    1.0486637   -6.6533926    527.20246  0.033925512  0.034467302            5 
 1296000    1.0445176   -6.6659383    527.76293  0.033935373  0.034457663            1 
 1297000    1.0374467   -6.6462914    530.25751  0.034069488   0.03444825            3 
 1298000    1.0282256   -6.6634399    528.82123  0.033951029  0.034438686            4 
 1299000    1.0612065   -6.6527919    527.09389   0.03381408  0.034429015            1 
 1300000    1.0507228   -6.6424847    529.21872  0.033924277  0.034419528            5 
 1301000    1.0287179   -6.6394259    528.92147  0.033879162  0.034409843            5 
 1302000    1.0308766    -6.677303    529.68708  0.033902143  0.034400174            3 
 1303000    1.0549367   -6.7072312    528.94938  0.033828945  0.034390527            2 
 1304000    1.0233675   -6.6562909    529.33791  0.033827832  0.034380616            4 
 1305000    1.0400382   -6.6522221    530.02562  0.033845825  0.034370602            1 
 1306000    1.0281298   -6.6437972    529.01101  0.033755169  0.034360686            3 
 1307000    1.0262204   -6.6554369    528.90028  0.033722283  0.034350656            4 
 1308000    1.0399134   -6.6824146    528.41162  0.033665368    0.0343406            2 
 1309000    1.0604061    -6.635402    529.18399   0.03368882  0.034330562            2 
 1310000    1.0490883   -6.6444087    529.42948   0.03367872  0.034320474            3 
 1311000    1.0228516   -6.6885904    528.91731  0.033620475  0.034310413            6 
 1312000    1.0469989   -6.6563824    528.56275  0.033572329  0.034300249            2 
 1313000    1.0431783   -6.6667639    529.87834  0.033630258  0.034290108            4 
 1314000    1.0306417   -6.6829059    529.44443  0.033577145  0.034279761            3 
 1315000    1.0257702   -6.6473915    532.01269  0.033714366  0.034269677            2 
 1316000    1.0344754   -6.6722822    531.06597  0.033628798  0.034259685            7 
 1317000    1.0607247   -6.6918775     530.7726    0.0335847  0.034249568            6 
 1318000    1.0405594   -6.6606599    530.26078  0.033526858  0.034239456            4 
 1319000    1.0659332   -6.7003384    531.35791  0.033570755  0.034229335            4 
 1320000    1.0433256   -6.6705358    531.87914  0.033578229  0.034219143            2 
 1321000    1.0428011    -6.664197     530.9119  0.033491793  0.034208966            1 
 1322000    1.0328141   -6.6570524    533.98577  0.033660222  0.034198965            5 
 1323000    1.0318233   -6.7044186    531.90922  0.033503982  0.034188906            3 
 1324000    1.0703265   -6.6507896    533.44243  0.033575178  0.034178834            3 
 1325000    1.0113373   -6.6470081    535.68361  0.033690793  0.034168787            3 
 1326000     1.027546   -6.6864825    534.42101  0.033586036  0.034158731            3 
 1327000    1.0292478   -6.6777708    534.13543  0.033542792  0.034148774            4 
 1328000    1.0404209   -6.7201347    533.04307  0.033448988  0.034138528            2 
 1329000    1.0318962   -6.6705202    535.17122  0.033557262  0.034128208            3 
 1330000    1.0583672   -6.6892283    533.70077  0.033439898  0.034118109            4 
 1331000    1.0163115    -6.659826    535.80205  0.033546334  0.034107968            4 
 1332000    1.0444781     -6.64666    535.86748  0.033525242   0.03409792            4 
 1333000    1.0360058   -6.6712746    534.23284  0.033397902  0.034087978            4 
 1334000     1.026133   -6.6799344    535.58455  0.033457306  0.034078038            2 
 1335000    1.0550173   -6.6922962    536.14397  0.033467164  0.034068125            2 
 1336000    1.0468769   -6.6557602    536.00642  0.033433534  0.034058174            4 
 1337000     1.059394   -6.6690648    538.01682  0.033533833  0.034048447            8 
 1338000    1.0602207   -6.6552396    538.90413  0.033564034  0.034038836            2 
 1339000    1.0293711   -6.6790457    538.51948  0.033515028   0.03402931            4 
 1340000    1.0421198   -6.6992028    539.87066  0.033574046  0.034019749            3 
 1341000     1.049534   -6.6639731    538.52437  0.033465347   0.03401029            3 
 1342000    1.0561508    -6.664345     538.9566   0.03346725  0.034000821            8 
 1343000    1.0482038   -6.6454819    540.29425  0.033525332  0.033991383            4 
 1344000    1.0302098   -6.7134783    538.55988   0.03339285   0.03398198            4 
 1345000    1.0337862     -6.70781    539.08034  0.033400269  0.033972369            9 
 1346000    1.0519672   -6.6910215     540.7095  0.033476319  0.033962826            5 
 1347000    1.0224244   -6.7188597    540.44897  0.033435348  0.033953163            3 
 1348000    1.0246895   -6.6608292    542.91366  0.033562912  0.033943851            4 
 1349000    1.0564644   -6.6617913    540.42179  0.033384099  0.033934489            3 
 1350000    1.0261366   -6.6516747    541.46949  0.033424043  0.033925007            4 
 1351000    1.0457836   -6.6421136    543.00379  0.033493942  0.033915637            2 
 1352000     1.037333   -6.6783514    541.86264  0.033398831  0.033906339           10 
 1353000    1.0414145   -6.6927423    540.78841  0.033307983  0.033896907            2 
 1354000    1.0527494   -6.6782403    542.91172  0.033414064  0.033887541            4 
 1355000    1.0294915   -6.6776601    543.75007  0.033440963  0.033878205            4 
 1356000    1.0460273    -6.694545    543.71014  0.033413848  0.033868699            6 
 1357000    1.0628006   -6.6692132     544.4767  0.033436299  0.033859369            7 
 1358000    1.0566079   -6.6491676    544.64614  0.033422075  0.033850122            3 
 1359000    1.0298655   -6.7090468    544.45257  0.033385613  0.033840831            3 
 1360000    1.0409288   -6.6834202    544.15089  0.033342579  0.033831544            5 
 1361000    1.0308278   -6.6480655    544.27997  0.033325984  0.033822382            4 
 1362000    1.0453439   -6.6664148    544.49397  0.033314609  0.033813113            2 
 1363000    1.0509874   -6.6824406    546.10994  0.033388967  0.033803601            3 
 1364000    1.0143676    -6.664526     545.8173  0.033346609  0.033794143            3 
 1365000    1.0262881   -6.6837863    546.97216  0.033392684  0.033784765            2 
 1366000    1.0297514   -6.6841529    544.56021  0.033221096  0.033775286            5 
 1367000    1.0356199   -6.6458939    547.38777  0.033369164  0.033765676            3 
 1368000    1.0412052   -6.7307791    546.08194  0.033265225  0.033756198            4 
 1369000    1.0105488   -6.6787091     548.7055  0.033400627  0.033746632            3 
 1370000    1.0267881   -6.6946022    546.69455  0.033253926   0.03373714            3 
 1371000    1.0281009   -6.6985166    546.65306   0.03322715  0.033727677            3 
 1372000    1.0478784   -6.6956411    547.57144  0.033258712  0.033718239            5 
 1373000    1.0270174   -6.7136783    548.31659  0.033279715  0.033708728            5 
 1374000    1.0479395   -6.6390806    549.88606  0.033350683  0.033699468            3 
 1375000    1.0517436   -6.7068348    547.16156  0.033161306  0.033690173            4 
 1376000    0.9944614   -6.6681799    549.67417  0.033289376  0.033680928            2 
 1377000    1.0387032   -6.6780756    550.93646  0.033341592  0.033671758            4 
 1378000    1.0414194   -6.6630139    550.03024  0.033262593   0.03366254            6 
 1379000    1.0600332   -6.6759392    548.82469  0.033165621  0.033653466            8 
 1380000    1.0386803   -6.6832876     550.2069  0.033225054  0.033644368            5 
 1381000    1.0215815   -6.6976768    551.55433  0.033282303   0.03363525            4 
 1382000    1.0335275   -6.6594486    552.11396  0.033291966  0.033626192            3 
 1383000    1.0239299   -6.6988146    552.36405  0.033282963   0.03361705            7 
 1384000    1.0454716   -6.6671876     551.5881  0.033212193   0.03360783            4 
 1385000     1.022865   -6.6720709    553.11288  0.033279957  0.033598762            3 
 1386000    1.0358521   -6.6817498    551.56155  0.033162671  0.033589606            5 
 1387000    1.0467223   -6.6876094    553.04075  0.033227635  0.033580421            2 
 1388000    1.0418336   -6.7040246    552.50401   0.03317147   0.03357111            3 
 1389000    1.0464559   -6.6947132    552.37771  0.033140011  0.033561784            6 
 1390000    1.0412164   -6.7248372    551.78139  0.033080419  0.033552409            4 
 1391000    1.0200648   -6.6906442    552.37492  0.033092195  0.033542933            4 
 1392000     1.028467   -6.6865967    552.73229  0.033089816  0.033533578            5 
 1393000    1.0222068   -6.6976926      552.735  0.033066224  0.033524182            4 
 1394000    1.0273994   -6.7143835    551.27176  0.032955031   0.03351476            3 
 1395000     1.045214   -6.7208777    552.14454  0.032983545   0.03350522            2 
 1396000    1.0019184   -6.6950077    552.46626  0.032979122  0.033495869            4 
 1397000    1.0203796   -6.6804712    553.55302  0.033020343  0.033486334            5 
 1398000    1.0330186   -6.7070887    553.02788  0.032965419  0.033476783            4 
 1399000    1.0176682   -6.6413694    555.63092   0.03309691  0.033467198            1 
 1400000    1.0239421   -6.6949838    553.58029  0.032951208  0.033457506            3 
 1401000    1.0157529   -6.7032426    551.96036  0.032831333  0.033447877            6 
 1402000    1.0236222   -6.7233765    553.61328  0.032906163  0.033438107            2 
 1403000    1.0595156   -6.6582274    554.49248   0.03293493  0.033428471            2 
 1404000    1.0378668   -6.6923241    554.73547  0.032925894  0.033418863            3 
 1405000    1.0193171   -6.6942828    554.30223  0.032876763  0.033409337            2 
 1406000    1.0151431   -6.7112672    554.87282  0.032887199  0.033399801            6 
 1407000        1.011   -6.6879733    556.49676  0.032960007  0.033390294            3 
 1408000    1.0497599   -6.7058531    554.83361  0.032838163  0.033380785            3 
 1409000    1.0353242   -6.7017566    556.65402  0.032922523  0.033371352            3 
 1410000     1.031163   -6.6666851    558.56124  0.033011894  0.033361887            5 
 1411000    1.0404424   -6.7045964    556.61219  0.032873387  0.033352505            7 
 1412000     1.021732   -6.6995232    556.91483  0.032867967  0.033343064            3 
 1413000    1.0194978   -6.7260307    556.75918  0.032835526  0.033333603            5 
 1414000    1.0367374   -6.6972616    556.04444  0.032770182  0.033324057            3 
 1415000    1.0284434   -6.6943944    558.79466  0.032908991  0.033314434            4 
 1416000    1.0180832   -6.7148291    557.81532  0.032828114   0.03330498            4 
 1417000    1.0098715   -6.7022352    558.25971  0.032831082  0.033295655            3 
 1418000    1.0105413   -6.6932341    559.65405  0.032889871  0.033286306            4 
 1419000    1.0183507   -6.6978204    560.61801  0.032923303  0.033276864            3 
 1420000    1.0191208   -6.6950637    558.88643    0.0327985  0.033267665            5 
 1421000     1.029388   -6.6868649    559.81008  0.032829585  0.033258214            4 
 1422000    1.0040817   -6.6759362    562.04145  0.032937262   0.03324889            7 
 1423000    1.0272031   -6.6882253    561.58919  0.032887631   0.03323974            7 
 1424000    1.0066744   -6.6773934    560.13717  0.032779563  0.033230489            3 
 1425000    1.0244761   -6.7024464    561.90732  0.032860077  0.033221073            3 
 1426000    1.0270521   -6.6839257    562.67062   0.03288164  0.033211718            6 
 1427000    1.0465363   -6.6831841    560.95751  0.032758556  0.033202456            3 
 1428000    1.0340584   -6.7387465    560.35856  0.032700663  0.033193036            9 
 1429000     1.008359   -6.7089578    560.35689  0.032677682   0.03318365            3 
 1430000    1.0270386   -6.7007283    561.87097  0.032743064   0.03317419            4 
 1431000    1.0136615   -6.6925457    561.34365  0.032689474  0.033164786            5 
 1432000    1.0369485   -6.7170568    563.98849  0.032820559  0.033155463            4 
 1433000    1.0000598   -6.7304321    563.66818  0.032779029  0.033146197            4 
 1434000    1.0320545   -6.7020026     565.5795  0.032867242  0.033137009            5 
 1435000     1.010969   -6.6940517    565.18524  0.032821443  0.033127892            4 
 1436000    1.0273349   -6.6869501    565.09011  0.032793066  0.033118905            3 
 1437000     1.006569   -6.7109659    564.67208  0.032746003  0.033109893            2 
 1438000    1.0323711   -6.7089081    566.88401  0.032851415  0.033100835            4 
 1439000    1.0271295   -6.7255947    565.30819  0.032737329  0.033091594            2 
 1440000    1.0154088   -6.6934296    565.85561  0.032746274  0.033082485            5 
 1441000     1.030205   -6.6816235    566.99163  0.032789245  0.033073414            5 
 1442000    1.0087262   -6.7201778    565.86487  0.032701391  0.033064315            8 
 1443000     1.016118   -6.6899909    565.99585  0.032686293  0.033055305            3 
 1444000   0.99265323   -6.7296551    565.36463  0.032627229  0.033046208            6 
 1445000    1.0096963   -6.6935568    568.03066    0.0327584  0.033037099            2 
 1446000    1.0282175   -6.7312473    567.36545   0.03269741  0.033028023            3 
 1447000    1.0226523   -6.7263537    566.76266  0.032640098  0.033019021            2 
 1448000    1.0397982   -6.6905311     568.8794  0.032739376   0.03300993            4 
 1449000    1.0352433   -6.6730704    568.90111   0.03271803  0.033001082            4 
 1450000    1.0217487   -6.7083686    568.64247  0.032680602  0.032992257            6 
 1451000    1.0120847   -6.7142082    567.81022  0.032610281  0.032983433            7 
 1452000    1.0261958    -6.736066    569.19372  0.032667224  0.032974466            4 
 1453000   0.99837772   -6.7304784    568.19658  0.032587553  0.032965616            3 
 1454000    1.0143957   -6.7261245    570.92405  0.032721461  0.032956727            3 
 1455000    1.0016656   -6.7179746    569.19423  0.032599898  0.032947784            3 
 1456000    1.0176441   -6.6923928    569.37831  0.032588044  0.032938685            3 
 1457000    1.0225522   -6.7041934    571.62254  0.032694037  0.032929662            2 
 1458000    1.0131217   -6.7064818    569.80825  0.032567916  0.032920578            4 
 1459000    1.0088112   -6.7062798    570.08609  0.032561463  0.032911375            4 
 1460000    1.0023344   -6.6959926    570.15675  0.032543194  0.032902303            5 
 1461000    1.0377071   -6.7032383    570.52909  0.032542157  0.032893098            4 
 1462000    1.0196116   -6.6980986    571.48036   0.03257412  0.032883975            4 
 1463000    1.0054628   -6.6957064    570.18725  0.032478198   0.03287477            5 
 1464000    1.0128397   -6.7222758    570.90889  0.032497091  0.032865465            4 
 1465000   0.99941553   -6.7201243    571.23612  0.032493522  0.032856264            4 
 1466000    1.0287336   -6.7202056    571.66375  0.032495666  0.032847042            3 
 1467000    1.0258765   -6.7451817     570.7449  0.032421319  0.032837926            5 
 1468000    1.0169512   -6.6673435    574.20494  0.032595648  0.032828807            3 
 1469000    1.0113714   -6.7468883    571.42935  0.032416006  0.032819682            3 
 1470000    1.0091803    -6.715822    573.08078  0.032487573  0.032810563            4 
 1471000    1.0384083      -6.7256    573.56204  0.032492751  0.032801417            4 
 1472000   0.98720982   -6.7522729    572.21984  0.032394692  0.032792213            8 
 1473000     1.015655    -6.700959    571.87677  0.032353291  0.032783022            3 
 1474000    1.0165113   -6.6755685    575.08812  0.032512897  0.032773894            6 
 1475000    1.0172454   -6.7385995     573.6899  0.032411859  0.032764772            4 
 1476000    1.0270106   -6.7161409    573.03179  0.032352743  0.032755653            6 
 1477000    1.0317753   -6.7425716    573.35175  0.032348891  0.032746572            4 
 1478000    1.0013625   -6.7386706    573.82785  0.032353848   0.03273751            2 
 1479000    1.0199776   -6.7354341    574.79246  0.032386323   0.03272826            3 
 1480000    1.0323182   -6.7082918    574.81731  0.032365839  0.032719183            4 
 1481000    1.0170475   -6.7545138    573.93734  0.032294471  0.032709969            2 
 1482000    1.0170969   -6.6818825    577.27201   0.03246019  0.032700786            5 
 1483000    1.0267376   -6.7375325    574.39725  0.032276761  0.032691554            2 
 1484000    1.0047086   -6.7246728    574.66577   0.03227009  0.032682279            2 
 1485000    1.0364024   -6.7274143     575.4025  0.032289703  0.032673089            3 
 1486000    1.0223963   -6.7139728    574.96455  0.032243414  0.032663802            3 
 1487000    1.0108818   -6.7191927    574.77462  0.032211086  0.032654563            6 
 1488000    1.0385683   -6.7185624    575.26471  0.032216886  0.032645321            3 
 1489000    1.0122671   -6.7566141     575.5881  0.032213348  0.032636009            5 
 1490000    1.0217555   -6.7325924    576.26352  0.032229503  0.032626495            4 
 1491000    1.0068535   -6.7152202    577.48436  0.032276121  0.032617203            3 
 1492000    1.0161087    -6.724454    577.29097  0.032243687  0.032607988            6 
 1493000     1.011071   -6.7407779    576.25555  0.032164297  0.032598681            5 
 1494000    1.0123295   -6.7159052    576.78347  0.032172215  0.032589431            4 
 1495000    1.0381806   -6.7074564    577.49536  0.032190377  0.032580173            6 
 1496000   0.99115599   -6.7266621    577.49804  0.032169008  0.032570916            4 
 1497000    1.0147748   -6.7293412    579.18263  0.032241296  0.032561699            4 
 1498000    1.0063947   -6.7307808    578.09242  0.032159125  0.032552403            6 
 1499000    1.0124113   -6.7197912     577.4804  0.032103647  0.032543066            2 
 1500000    1.0440381   -6.6883007    578.50511  0.032139173   0.03253367            4 
 1501000   0.99991385    -6.709512     578.7823   0.03213315   0.03252434            3 
 1502000    1.0407566   -6.7137696    579.16194   0.03213282  0.032515101            6 
 1503000    1.0069468   -6.6693968     580.6935  0.032196357  0.032505915            9 
 1504000    1.0363273   -6.7571723    578.49807  0.032053306  0.032496612            4 
 1505000    1.0164833   -6.6912433    581.12002  0.032177188  0.032487348            3 
 1506000    1.0064835   -6.7322256    580.59216  0.032126614  0.032478245            5 
 1507000    1.0026944   -6.7408106    579.48496   0.03204407  0.032468938            3 
 1508000    1.0387925   -6.7396001    581.13545  0.032114028  0.032459691            4 
 1509000   0.98813507   -6.7094923    581.46733  0.032111074  0.032450555            5 
 1510000   0.99728693   -6.7217315    580.69396  0.032047128  0.032441369            5 
 1511000    1.0177964   -6.7451185    580.61213  0.032021406  0.032432212            2 
 1512000   0.97911973   -6.7552492    580.90389  0.032016308  0.032423055            2 
 1513000     0.985489   -6.6974051    583.14427  0.032118543  0.032413841            3 
 1514000    1.0233179   -6.7345652    582.96005  0.032087189  0.032404721            4 
 1515000    1.0175255    -6.713215    582.35942  0.032032971  0.032395541            4 
 1516000    1.0031315    -6.721296    582.57528  0.032023707  0.032386436            5 
 1517000   0.99914872   -6.7683282    582.64432   0.03200639  0.032377168            4 
 1518000    1.0206508   -6.7322569    583.40334  0.032026973  0.032367806            2 
 1519000    1.0271743   -6.7230945    583.27999  0.031999121  0.032358576            5 
 1520000    1.0158195   -6.6879361    584.81194  0.032062058  0.032349343            1 
 1521000   0.99502279   -6.7234727    583.67955  0.031978937  0.032340231            4 
 1522000    1.0120768   -6.7540243    584.63777   0.03201039  0.032331017            3 
 1523000    0.9912503   -6.7439388    584.45736  0.031979501  0.032321804            3 
 1524000   0.99706965   -6.7228884    584.91751  0.031983678  0.032312664            4 
 1525000    1.0160349   -6.7218765    585.91226  0.032017063  0.032303583            4 
 1526000    1.0008113   -6.7257674    585.60785  0.031979459  0.032294515            6 
 1527000    1.0159554   -6.7054804    586.39258  0.032001341  0.032285385            5 
 1528000   0.98241057   -6.7357852    585.00462  0.031904702  0.032276403            4 
 1529000   0.99641613   -6.7342677    587.88157  0.032040635  0.032267271            2 
 1530000   0.99765079   -6.7536833    586.19076  0.031927602  0.032258331            2 
 1531000    1.0127772   -6.7407363    586.86211  0.031943289  0.032249211            7 
 1532000    1.0087652   -6.7076045    587.84464  0.031975883  0.032240053            2 
 1533000    1.0022361   -6.7308268    586.59421  0.031887052  0.032230859            3 
 1534000   0.99432038   -6.7333109    587.85802  0.031934921  0.032221611            3 
 1535000   0.99701267    -6.779083    585.11953  0.031765447  0.032212386            8 
 1536000   0.98547069    -6.726504    588.60647  0.031933945  0.032203084            5 
 1537000   0.99108849   -6.7356011    588.68027  0.031917169  0.032193832            4 
 1538000    1.0053952   -6.7322661    587.38455  0.031826211  0.032184586            2 
 1539000   0.99865272   -6.7422731    587.19386  0.031795206  0.032175397            2 
 1540000    1.0236405   -6.7038852     589.8621  0.031918945  0.032166298           10 
 1541000    1.0150204   -6.7477653    587.25418  0.031757202  0.032157188            4 
 1542000    1.0075918   -6.7524134    589.86083  0.031877477  0.032148087            2 
 1543000    1.0034438   -6.7176368    590.38396   0.03188507  0.032139203            3 
 1544000    1.0044816   -6.7508266    589.21957  0.031801574  0.032130196            2 
 1545000   0.99422501    -6.750167    590.10664  0.031828837  0.032121206            5 
 1546000    1.0265588   -6.7556198    588.30284   0.03171102  0.032112105            3 
 1547000    1.0001721   -6.7546413    590.74473  0.031822061  0.032102953            6 
 1548000    1.0060898   -6.6908946    591.45722  0.031839859  0.032093827            3 
 1549000   0.98738191   -6.7158805    589.95441  0.031738455  0.032084656            3 
 1550000    1.0215626   -6.7628288    589.93552  0.031716963  0.032075402            5 
 1551000    1.0023619   -6.7435178    589.87896  0.031693475  0.032066182            4 
 1552000   0.99930989   -6.7341661    590.49296  0.031706022  0.032056988            3 
 1553000    1.0005853   -6.7567075    592.67811   0.03180286  0.032047893            4 
 1554000    1.0287493   -6.7290697     592.4036  0.031767675  0.032038908            5 
 1555000    1.0120028   -6.6937341    594.65139  0.031867706  0.032030047            3 
 1556000    0.9950246   -6.7646388    593.22993  0.031771097  0.032021069            3 
 1557000   0.97673036   -6.7303685    593.61985  0.031771561  0.032012133            4 
 1558000   0.99350278   -6.7726309    592.75592  0.031704959  0.032003295            7 
 1559000    1.0081538    -6.739677    594.87189  0.031797728  0.031994451            5 
 1560000   0.99244913   -6.7704612    593.17161  0.031686518  0.031985777            6 
 1561000    1.0038128   -6.7077172    595.86824  0.031810177  0.031977165            4 
 1562000   0.99639054   -6.7583667    595.24866  0.031756757  0.031968519            4 
 1563000   0.99949153   -6.7539178    596.25724  0.031790213  0.031959816            4 
 1564000    1.0025025   -6.7633145    595.48996  0.031729005  0.031951186            2 
 1565000   0.99999211   -6.7380475    596.13168  0.031742901  0.031942548            8 
 1566000    1.0269317   -6.7293969    597.48882   0.03179485  0.031933997            4 
 1567000   0.99096058   -6.7555759    595.97009  0.031693793  0.031925276            6 
 1568000   0.99270357   -6.7371753    596.62089  0.031708168  0.031916504            4 
 1569000   0.99570092    -6.714241    594.87171  0.031595056  0.031907676            3 
 1570000   0.98514851   -6.7328524    596.76507  0.031675428   0.03189897            2 
 1571000    1.0242332   -6.7201699     595.9474  0.031611893  0.031890212            3 
 1572000    1.0129107   -6.7537925    595.84883  0.031586558  0.031881264            6 
 1573000    1.0042615   -6.7493616    600.21822  0.031797956  0.031872449            2 
 1574000     1.003746   -6.7339473    597.19392  0.031617637   0.03186363            5 
 1575000    1.0033361   -6.7151018    598.02989  0.031641793  0.031854877            5 
 1576000   0.99166268   -6.7211017    600.13685  0.031733124  0.031846242            2 
 1577000    1.0034973   -6.7451134    599.48903  0.031678769  0.031837541            2 
 1578000    1.0029728    -6.764941    599.17869  0.031642305  0.031828894            3 
 1579000    1.0070093   -6.7619758    599.33843  0.031630696  0.031820235            5 
 1580000    1.0080422   -6.7569019    599.14912  0.031600692   0.03181169            8 
 1581000    1.0113254   -6.7693404     599.5136  0.031599916  0.031803045           10 
 1582000   0.99138513   -6.7087713    599.81586  0.031595863  0.031794336            3 
 1583000    1.0006529   -6.7302669    600.31882  0.031602381  0.031785812            3 
 1584000    1.0337872   -6.7356782    600.44412  0.031589021  0.031777217            3 
 1585000    1.0222062   -6.7790707    599.67806  0.031528815   0.03176844            4 
 1586000    1.0079653   -6.7470611    600.11697  0.031531997  0.031759612            3 
 1587000   0.98523527   -6.7394605    599.66259  0.031488269  0.031750865            2 
 1588000      1.01118   -6.7497588      600.083  0.031490502  0.031742126            7 
 1589000   0.97817668   -6.7836511    600.25689  0.031479803  0.031733223            3 
 1590000    1.0087779   -6.7619061    601.19312  0.031509073  0.031724407            6 
 1591000   0.99520512   -6.7403925     601.5969  0.031510418  0.031715749            2 
 1592000    1.0055841   -6.7751622    602.19686   0.03152203  0.031706951            3 
 1593000   0.99706438   -6.7695073    600.36317  0.031406318  0.031698155            2 
 1594000    1.0035817   -6.7647657    602.35215  0.031490597  0.031689309            6 
 1595000   0.98550131   -6.7659701     601.9688  0.031450826  0.031680524            3 
 1596000    1.0015694   -6.7694769    601.53149  0.031408286  0.031671725            6 
 1597000    0.9996618   -6.7679282    602.45113  0.031436607  0.031663023            4 
 1598000    1.0197271   -6.7543285      602.896  0.031440133  0.031654378            4 
 1599000    1.0061868   -6.7615137    604.46535  0.031502259  0.031645718            2 
 1600000   0.99985315   -6.7458421    603.61702  0.031438387  0.031637145            2 
 1601000   0.99308078   -6.7637463    603.20571  0.031397341  0.031628566            7 
 1602000    1.0013841   -6.7857294    603.73376   0.03140521  0.031619973            3 
 1603000   0.98887463   -6.7747064    604.34641  0.031417468  0.031611313            4 
 1604000   0.99255358    -6.768912    606.20586  0.031494486  0.031602876            5 
 1605000    1.0241935    -6.788948    607.53204   0.03154372  0.031594404            4 
 1606000    0.9951714   -6.7660446    605.65698  0.031426784  0.031585999            4 
 1607000    1.0053112   -6.7575707     606.1274  0.031431622  0.031577562            3 
 1608000   0.99930016   -6.7632945    606.35935  0.031424095  0.031568989            4 
 1609000     1.014766   -6.7367002    607.23922  0.031450136  0.031560399            5 
 1610000   0.97301904   -6.7603413    606.09502  0.031371378  0.031551799            2 
 1611000   0.99333525   -6.7526026    606.92658  0.031394919  0.031543215            5 
 1612000    1.0017303   -6.7469395     605.4796  0.031300641   0.03153456            5 
 1613000   0.97845437   -6.7972278    606.19956  0.031318431  0.031525961            2 
 1614000   0.98909065   -6.7531216    607.10837  0.031345951  0.031517304            3 
 1615000   0.98137955   -6.7373101    606.48288  0.031294266  0.031508618            3 
 1616000    1.0110092   -6.7494656    607.06764  0.031305056  0.031499878            4 
 1617000   0.99668678   -6.7782432    605.55837  0.031207914   0.03149111            5 
 1618000    1.0200646   -6.7786054    607.25241  0.031275876  0.031482475            2 
 1619000    1.0028756   -6.7364992    608.24374  0.031307584  0.031473859            7 
 1620000    1.0107805   -6.7803578    607.22348  0.031235775  0.031465199            5 
 1621000    1.0023219   -6.7674592    610.13667  0.031366269  0.031456558            3 
 1622000   0.98652629   -6.7605317    607.71489  0.031222508  0.031447967            2 
 1623000   0.99216905    -6.791251    607.90079  0.031212815   0.03143933            4 
 1624000   0.99403349   -6.7541746     608.9246  0.031246131   0.03143073            3 
 1625000   0.98497963   -6.7180415    609.95447  0.031279716  0.031422219            8 
 1626000   0.97834497   -6.7602164    610.26792  0.031276544  0.031413643            8 
 1627000   0.98807827   -6.7861615    608.67153  0.031175555   0.03140502            4 
 1628000   0.99978357   -6.7852908    608.66184  0.031155909  0.031396565            7 
 1629000    1.0003741    -6.730636     610.7594  0.031244086  0.031388092            7 
 1630000   0.99022491   -6.7871052    610.70757  0.031222268  0.031379704            7 
 1631000   0.97865077   -6.7796358    612.08834  0.031273674  0.031371115            3 
 1632000   0.99529375   -6.7427902    612.37497  0.031269147   0.03136272            2 
 1633000    1.0047831   -6.7583806    612.74335  0.031268797  0.031354405            5 
 1634000   0.98517651   -6.7456756    613.71485  0.031299207  0.031346025            4 
 1635000     0.991417   -6.7638581    612.35849  0.031210932   0.03133781            3 
 1636000   0.97710272   -6.7702719    612.68184  0.031208325  0.031329524            2 
 1637000   0.99148947   -6.7319785    613.98967  0.031255838  0.031321198            2 
 1638000    1.0058243   -6.7553852    614.07132   0.03124091  0.031312828            7 
 1639000   0.99484411   -6.7500542    613.04477  0.031169655  0.031304477            2 
 1640000   0.99025078   -6.7669112    613.77948  0.031187981  0.031296038            3 
 1641000   0.97643917    -6.780296    612.79679  0.031119073  0.031287549            2 
 1642000    1.0042122   -6.7797761    612.92506  0.031106631  0.031279115            6 
 1643000   0.99218558   -6.7887648    614.29684  0.031157276   0.03127061            4 
 1644000   0.99177122   -6.8018579     614.3334  0.031140176  0.031262243            8 
 1645000   0.99523913   -6.7582764    615.05113  0.031157605  0.031254031            2 
 1646000   0.98302592   -6.7844766    615.69592   0.03117132  0.031245761            5 
 1647000   0.98630329   -6.7940598    614.70307  0.031102159  0.031237462            3 
 1648000    1.0072393   -6.7578752    615.00116   0.03109836  0.031229115            2 
 1649000   0.97524275   -6.7574357    616.39156  0.031149766  0.031220835            2 
 1650000     0.978586   -6.8194469    616.16605  0.031119497  0.031212558            7 
 1651000    1.0005481   -6.8008757    615.38001  0.031060974  0.031204155            4 
 1652000   0.98122445   -6.7893594    617.09004  0.031128432  0.031195864            3 
 1653000    1.0069716   -6.7758301    617.70836  0.031140772  0.031187592            3 
 1654000   0.99761361   -6.7833753    618.21726  0.031147585   0.03117945            3 
 1655000   0.98261328   -6.7624992    617.12385  0.031073709    0.0311712            5 
 1656000   0.99357978   -6.8100321    616.56359  0.031026751  0.031162978            3 
 1657000   0.98139326   -6.7800698    617.86875  0.031073665  0.031154808            4 
 1658000   0.97295108   -6.7241644    618.83638  0.031103558  0.031146789            5 
 1659000   0.96504437    -6.774209     617.2687  0.031006063  0.031138753            3 
 1660000   0.99240804   -6.7785824    617.80746  0.031014431  0.031130577            2 
 1661000   0.98034119   -6.7674552    619.03394  0.031057292  0.031122399            2 
 1662000    1.0020135   -6.7591002    621.30689  0.031152572  0.031114232            2 
 1663000   0.96493598    -6.794216    617.89847  0.030963042  0.031106108            2 
 1664000     0.982384   -6.7782453    619.09586    0.0310044  0.031098004            4 
 1665000   0.98570273   -6.7828158    619.95339  0.031028698  0.031090022            3 
 1666000   0.99975275   -6.7458815    621.76743  0.031100812  0.031082042            2 
 1667000   0.98757523   -6.7697846    621.28622    0.0310581  0.031074071            5 
 1668000    0.9717261   -6.7928991    622.60415  0.031105323  0.031066059            9 
 1669000   0.98732716    -6.751223     622.2816  0.031070581  0.031058136            3 
 1670000   0.98585653   -6.7786345    621.57911  0.031016922  0.031050214            3 
 1671000   0.97928882   -6.7739654     622.8804  0.031063256  0.031042209            6 
 1672000   0.98641726   -6.8108961    621.14111   0.03095799  0.031034196            6 
 1673000    1.0044411   -6.8062992    621.91553   0.03097806  0.031026236            7 
 1674000   0.99445807    -6.777241    623.64875  0.031045836  0.031018227            3 
 1675000   0.98340328     -6.77264    624.19969  0.031054711  0.031010189            5 
 1676000   0.98072805   -6.7637552    623.64844  0.031008773  0.031002209            3 
 1677000   0.99849246   -6.7602726    624.78969  0.031046993  0.030994302            3 
 1678000   0.97957181   -6.7855583    623.34473  0.030956731  0.030986354            6 
 1679000    0.9728304   -6.7905613    624.68058  0.031004595  0.030978378            6 
 1680000   0.97027729   -6.7739375    625.07723  0.031005815  0.030970416            3 
 1681000   0.97595737   -6.7840691    623.19015  0.030893821  0.030962454            3 
 1682000   0.98833616   -6.7784992    626.10744  0.031019988  0.030954594            4 
 1683000   0.97001913   -6.7917109    625.27291  0.030960235  0.030946708            3 
 1684000    0.9837938   -6.8116466    625.64073  0.030960052  0.030938877            3 
 1685000   0.97226101   -6.7636023    626.08392  0.030963596  0.030931045            8 
 1686000   0.99358298   -6.8125206    625.45666  0.030914228  0.030923216            1 
 1687000   0.96491514   -6.7742841    626.78567  0.030961553  0.030915255            4 
 1688000   0.99151729    -6.816901    626.12313  0.030910502  0.030907428            3 
 1689000   0.98648466   -6.8208502     626.2232  0.030897138  0.030899708            6 
 1690000   0.95863149   -6.7911364    627.43124  0.030938424  0.030891857            3 
 1691000   0.98634051   -6.8021747    627.22237  0.030909835  0.030884113            2 
 1692000   0.98179908   -6.8276691    628.46546  0.030952791  0.030876158            4 
 1693000   0.98458817   -6.7939242    628.08471  0.030915766  0.030868324            3 
 1694000    0.9816557   -6.8033112    627.46482  0.030867022  0.030860461            5 
 1695000   0.96676888   -6.8025558    627.05821   0.03082882  0.030852598            4 
 1696000   0.98481025    -6.784599    628.56694  0.030884775   0.03084475            4 
 1697000   0.97684254   -6.8047481    628.59462  0.030867934  0.030836987            5 
 1698000   0.96727432   -6.7691092    629.40219  0.030889389  0.030829116            3 
 1699000   0.97314463   -6.7781702     628.8707  0.030845139  0.030821236            6 
 1700000   0.98268494   -6.8046686    627.36863  0.030753364   0.03081343            5 
 1701000    0.9804193   -6.7918814    629.58385   0.03084381  0.030805629            4 
 1702000   0.97099575    -6.756929    631.47704  0.030918382  0.030797856            3 
 1703000   0.96052804   -6.7824837    630.54882  0.030854806  0.030790255            2 
 1704000    1.0070513   -6.7667389    631.72058  0.030894003  0.030782697            3 
 1705000   0.98269733   -6.7825135    631.62816  0.030871367  0.030775009            5 
 1706000   0.98537342    -6.794177     630.9455  0.030819925  0.030767345            2 
 1707000   0.97915927   -6.7945163     629.8689  0.030749311  0.030759714            5 
 1708000   0.97919246   -6.8192121    632.27475   0.03084869  0.030752025            3 
 1709000   0.97604094   -6.7831093    631.90752  0.030812732  0.030744398            2 
 1710000   0.98371094   -6.7846819    632.95784  0.030845898  0.030736549            2 
 1711000   0.97163028   -6.7620497    634.49548  0.030902761  0.030728882            3 
 1712000   0.97858248   -6.7727705    633.62344  0.030842262  0.030721288            3 
 1713000   0.96778729   -6.7866283    632.22551  0.030756252  0.030713452            4 
 1714000   0.96263895   -6.7696356    631.92028  0.030723468  0.030705696            2 
 1715000   0.97781015   -6.7833706    631.52002  0.030686104  0.030697771            5 
 1716000   0.96906785    -6.821828    632.01616  0.030692315  0.030689842            2 
 1717000    1.0068356   -6.8098215    631.60489  0.030654479  0.030681866            8 
 1718000   0.97639776     -6.80312     631.1872  0.030616376  0.030673812            3 
 1719000   0.98127404   -6.7863616    632.52934  0.030663629  0.030665873            5 
 1720000   0.97174101   -6.7766727    634.29185  0.030731194  0.030658061            4 
 1721000   0.97644614   -6.8155492    634.24964  0.030711294  0.030650271            3 
 1722000   0.98741105   -6.7865834    635.21725  0.030740285   0.03064253            2 
 1723000    0.9906398   -6.8005744    632.69039  0.030600232   0.03063467            2 
 1724000   0.93800244   -6.7805708    635.40023  0.030713468  0.030626873            5 
 1725000   0.98098077   -6.7644739    634.72345  0.030662969  0.030619108            3 
 1726000   0.97097683   -6.8120294    635.49292  0.030682354  0.030611184            3 
 1727000   0.98832955   -6.8290338    634.50978  0.030617148    0.0306033            9 
 1728000   0.97260914   -6.8098816    635.49097  0.030646748   0.03059536            3 
 1729000   0.97597783   -6.8099298     634.9979  0.030605258  0.030587544            3 
 1730000   0.96113313   -6.8021126    637.66051  0.030715824  0.030579778            3 
 1731000   0.95664933   -6.7979765    636.27142  0.030631206  0.030572068            2 
 1732000    1.0092825   -6.8101277    637.03982  0.030650492  0.030564441            3 
 1733000   0.97243069   -6.8092725    636.80217  0.030621378  0.030556822            5 
 1734000   0.97764466   -6.8047936    637.14455  0.030620172  0.030549205            4 
 1735000   0.98227832   -6.8229529    638.47474  0.030666414   0.03054163            5 
 1736000   0.98620039   -6.8123583    638.45814  0.030647952  0.030534017            5 
 1737000   0.95916864   -6.8100506    638.20164  0.030618002  0.030526493            3 
 1738000   0.96324251   -6.8059982    638.19386  0.030600013  0.030518987            5 
 1739000   0.97428921   -6.7923915    641.22289  0.030727568  0.030511396            7 
 1740000   0.96041918   -6.8070018    639.30397  0.030618006  0.030503995            5 
 1741000   0.96339495   -6.8351124    639.26541  0.030598574  0.030496525            5 
 1742000   0.96284399   -6.8092628    641.02651  0.030665256  0.030489128            6 
 1743000   0.94407903   -6.7711605    640.62017  0.030628235  0.030481682            5 
 1744000   0.96635118   -6.7978695    640.26915    0.0305939  0.030474231            2 
 1745000   0.97956937   -6.8288936    640.08407  0.030567529   0.03046688            3 
 1746000   0.99057609   -6.7824068    642.52062  0.030666314  0.030459457            3 
 1747000   0.97421927   -6.7986409    642.48104  0.030646873  0.030452038            4 
 1748000   0.97070644   -6.8008084    642.80492   0.03064478  0.030444545            7 
 1749000   0.98347744   -6.8060212    641.92102  0.030585145   0.03043718            4 
 1750000   0.96404638    -6.812917     641.3208  0.030539086  0.030429821            3 
 1751000   0.93917277   -6.7849868    644.66808  0.030680948  0.030422464            2 
 1752000   0.98053061   -6.7909626    643.28766  0.030597777   0.03041513            2 
 1753000    0.9565414   -6.7865669    643.02931  0.030568041  0.030407752            5 
 1754000     0.974759   -6.8235862    641.36016  0.030471311  0.030400393            4 
 1755000    0.9798013   -6.7794331    643.80133  0.030569863   0.03039298            3 
 1756000   0.99002826   -6.8025312    642.95327  0.030512209  0.030385576            3 
 1757000   0.96078841    -6.785895    646.02636  0.030640598  0.030378214            4 
 1758000   0.97158078   -6.7817568    645.58302  0.030602153   0.03037094            5 
 1759000    0.9457788   -6.8441786    644.54039   0.03053536  0.030363654            5 
 1760000   0.96306103    -6.837095    645.77959  0.030576685  0.030356288            4 
 1761000   0.96756683   -6.8148315    643.44329  0.030448764  0.030348848            4 
 1762000   0.98373674    -6.815863     644.3819  0.030475875  0.030341457            2 
 1763000    0.9800156   -6.7916859    645.25636  0.030499922  0.030334108            3 
 1764000   0.96791634     -6.81249    643.21402   0.03038615  0.030326664            3 
 1765000     0.947191   -6.7996729    645.60322  0.030481738  0.030319238            4 
 1766000   0.96989366   -6.7839576    645.39429  0.030454619  0.030311881            3 
 1767000   0.94533717   -6.8392321     644.9298  0.030415478  0.030304495           14 
 1768000   0.97340086   -6.8279206    646.92799  0.030492458  0.030297185            3 
 1769000   0.97321962   -6.8078207    646.18157  0.030440059  0.030289833            4 
 1770000   0.96149826   -6.8376231    646.64023  0.030444455  0.030282481            6 
 1771000   0.96046336   -6.7873078    647.36462   0.03046135  0.030275076            5 
 1772000    0.9696631   -6.8323616    646.20455  0.030389605  0.030267711           11 
 1773000   0.96673307   -6.8137823    647.36293   0.03042691  0.030260432            3 
 1774000   0.96806201   -6.8092051     646.4931  0.030368898  0.030253191            3 
 1775000   0.97643649   -6.7983205    648.40186  0.030441402  0.030245912            2 
 1776000   0.98289386   -6.8145197    648.12153  0.030411108  0.030238538            4 
 1777000   0.97575566    -6.786453    647.11853  0.030346958  0.030231181           16 
 1778000   0.97427405   -6.8275413    647.30862  0.030338799  0.030223664            3 
 1779000   0.97644693   -6.8349713    649.17347    0.0304091  0.030216186            8 
 1780000   0.98306924   -6.7872063    648.73972   0.03037171  0.030208826            2 
 1781000   0.94829204   -6.7931109    648.48245  0.030342619  0.030201497            3 
 1782000   0.96495968   -6.8049638    648.78275  0.030339635  0.030194063            2 
 1783000   0.97434188   -6.8154448     648.9586  0.030330838  0.030186647            4 
 1784000   0.97469063   -6.8342371    648.31173  0.030283619  0.030179262            2 
 1785000   0.96788397   -6.8186126    648.28634  0.030265469  0.030171743            4 
 1786000   0.96166608    -6.827342    649.49664  0.030304994  0.030164279            7 
 1787000   0.97005132   -6.8091457    648.50941  0.030241998  0.030156686            4 
 1788000   0.96646506   -6.8281645    647.62379  0.030183808  0.030149141            6 
 1789000   0.96997028   -6.8359345    648.59057   0.03021197  0.030141492            2 
 1790000   0.97687488   -6.8011851    649.25899   0.03022621  0.030133915            5 
 1791000   0.99963295    -6.847962    649.34006  0.030213105  0.030126253           10 
 1792000   0.97057378   -6.8236852    649.93787  0.030224045  0.030118576            3 
 1793000    0.9619112   -6.8220702     650.8344  0.030248857  0.030110986            3 
 1794000   0.97780695   -6.8459398    649.83061  0.030185368  0.030103291           10 
 1795000   0.97864837   -6.8533628    648.46771  0.030105279  0.030095649            3 
 1796000   0.94454808   -6.7904053    651.34594  0.030222065  0.030087866            9 
 1797000   0.97025493   -6.8159954    651.66896  0.030220226  0.030080279            3 
 1798000    0.9506158   -6.8394335    649.68934  0.030111668  0.030072655            6 
 1799000   0.95628552   -6.8071262    651.86208  0.030195575  0.030065019            5 
 1800000    0.9696405   -6.8316403    650.49127  0.030115336  0.030057472            7 
 1801000   0.97780882   -6.8278443      652.798  0.030205349  0.030049804            6 
 1802000   0.96669296   -6.8266428     652.0709  0.030154962  0.030042267            6 
 1803000   0.96046808   -6.8489061    651.02438  0.030089868  0.030034656            4 
 1804000   0.97153899   -6.8417408    652.87178  0.030158526  0.030026997            9 
 1805000   0.98412781   -6.7997442     653.4925  0.030170476  0.030019545            3 
 1806000   0.95246433   -6.7957806    653.05963  0.030133796  0.030012066            4 
 1807000   0.98061471   -6.8268566     652.2827   0.03008129  0.030004476            5 
 1808000    0.9479939    -6.849543    652.71767  0.030084701  0.029996991            7 
 1809000   0.96632381   -6.8831718    653.67764  0.030112292  0.029989531            7 
 1810000   0.95788481   -6.7899025    654.73074  0.030144141   0.02998217            3 
 1811000   0.97930361   -6.8325116    655.81027  0.030177171  0.029974913            4 
 1812000   0.94844666    -6.805208    655.74719  0.030157615  0.029967559            2 
 1813000    0.9859627   -6.7878298    657.28608  0.030211715  0.029960262            2 
 1814000   0.95764184   -6.8410836    657.32124  0.030196676   0.02995299            6 
 1815000   0.96900458   -6.8025397    657.49253  0.030187903  0.029945671            2 
 1816000     0.978454   -6.8018997    655.97368  0.030101582  0.029938312            4 
 1817000   0.96823515   -6.8213927    656.31323  0.030100588  0.029930939           13 
 1818000   0.97060738   -6.8322273    658.00684  0.030161663  0.029923603            5 
 1819000   0.98337241   -6.8427586    656.14084  0.030059595  0.029916233            5 
 1820000   0.95727462   -6.8176703    658.83838  0.030166593  0.029908914            2 
 1821000    0.9713572   -6.8475367    656.41115  0.030038951  0.029901605            4 
 1822000   0.96600231   -6.8413065    655.62078  0.029986315  0.029894346            5 
 1823000   0.93474535   -6.8425669    657.34394  0.030048635  0.029887073            7 
 1824000   0.97788511   -6.8398021     657.2485    0.0300278  0.029879799            4 
 1825000   0.96039269   -6.8214755    657.61123   0.03002791  0.029872542            7 
 1826000   0.96266526   -6.8277523     659.1556  0.030081946  0.029865223            5 
 1827000   0.96175532    -6.813628    657.36788  0.029983939  0.029858007            3 
 1828000   0.95022771   -6.8277249    660.07214  0.030090816  0.029850759            2 
 1829000   0.94404264   -6.8272566    660.80034  0.030107542  0.029843525            4 
 1830000    0.9623399   -6.8062491    661.75909  0.030134749  0.029836429            4 
 1831000   0.95861789   -6.8254654    659.07772  0.029996255  0.029829244            4 
 1832000   0.96648757   -6.8224743    662.53759  0.030137263  0.029822062            5 
 1833000   0.95717704   -6.8140027    661.61843  0.030079034  0.029814974            7 
 1834000   0.94276234   -6.8208644     661.7642  0.030069257  0.029807941            3 
 1835000   0.94521264   -6.8423234    662.65074  0.030093131  0.029800947            6 
 1836000   0.96037884   -6.8371924    663.27593  0.030105117  0.029794042            4 
 1837000   0.96017216   -6.8363868     662.1935  0.030039625  0.029787111            8 
 1838000   0.94963129   -6.8062015    663.62472  0.030088172  0.029780197            3 
 1839000   0.96773805   -6.8200534    665.66893  0.030164443  0.029773421            6 
 1840000   0.97137151   -6.8433277    665.22853  0.030128104  0.029766763            4 
 1841000   0.96396104   -6.8234954    665.42102  0.030120452  0.029759992            2 
 1842000   0.97422984   -6.8346929     665.0457   0.03008712  0.029753201            5 
 1843000   0.96752816   -6.8168061     666.6743  0.030144434  0.029746394            3 
 1844000   0.97293016    -6.814398    663.89243  0.030002369  0.029739551            2 
 1845000   0.95573508   -6.8672714    665.25546  0.030047672  0.029732732            6 
 1846000   0.94412476    -6.823826    665.42751  0.030039161    0.0297259            7 
 1847000   0.96134876   -6.8452176    664.55354  0.029983466  0.029719102            3 
 1848000   0.94158136   -6.8517633    665.91685  0.030028718  0.029712251            3 
 1849000   0.94609703   -6.8339199    665.15906  0.029978324  0.029705482            5 
 1850000   0.98432951   -6.8338335    667.07815  0.030048565  0.029698809           12 
 1851000   0.97188634   -6.8503774    667.29266  0.030041989  0.029692043            5 
 1852000   0.97358055    -6.848617    668.26482  0.030069511  0.029685301            5 
 1853000    0.9594627   -6.8372379    668.91951  0.030082727   0.02967863            3 
 1854000   0.96731203   -6.8570514    668.53483   0.03004921  0.029671911            4 
 1855000   0.95945464    -6.843289    667.94309  0.030006428  0.029665237            6 
 1856000   0.97276702   -6.8238528    668.61754  0.030020543  0.029658612            4 
 1857000   0.95365974   -6.8433118    669.19661  0.030030363  0.029651921            8 
 1858000   0.95342468   -6.8617969    668.18436    0.0299688  0.029645234            4 
 1859000   0.97273962   -6.8491878    669.62355  0.030017193  0.029638538            2 
 1860000   0.97231928   -6.8411529     669.9128  0.030014014  0.029631983            9 
 1861000   0.96727848   -6.8155985    669.59432  0.029983625   0.02962539            2 
 1862000   0.95906285   -6.8457819     670.7206  0.030017929  0.029618811            5 
 1863000   0.96651504   -6.8443597    671.94376  0.030056529  0.029612088            8 
 1864000   0.93868298   -6.8520823    670.06931  0.029956604  0.029605463            5 
 1865000   0.95240047    -6.850852    670.69188  0.029968359  0.029598822            3 
 1866000   0.94926014   -6.8151055    670.76447  0.029955541  0.029592303            6 
 1867000   0.96334092   -6.8760883    671.70028  0.029981266  0.029585759            2 
 1868000   0.97065131   -6.8342233    670.56573  0.029914602  0.029579213            4 
 1869000   0.96241832   -6.8265443    672.46842  0.029983432  0.029572687            5 
 1870000   0.95108202   -6.8239407    670.95535  0.029899971  0.029566127            3 
 1871000   0.92046554   -6.8238669    672.80347  0.029966304  0.029559601            3 
 1872000   0.94942485   -6.8674217    672.45299  0.029934695  0.029553013            3 
 1873000   0.96624511   -6.8706818    674.84096  0.030024958   0.02954636            4 
 1874000   0.95176247   -6.8284202    673.96718  0.029970081  0.029539829            3 
 1875000   0.94089493   -6.8422928    673.64873  0.029939943  0.029533283            7 
 1876000   0.93298087   -6.8307905    673.91197  0.029935677  0.029526808            6 
 1877000    0.9534198   -6.8183727    675.35799  0.029983928  0.029520299            4 
 1878000   0.95983289   -6.8821142    674.81755  0.029943981  0.029513721            3 
 1879000   0.95553677   -6.8648071    674.23072  0.029902019   0.02950727            3 
 1880000    0.9541045   -6.8427223    675.06528  0.029923106  0.029500814            2 
 1881000   0.96866453   -6.8646142    675.11849  0.029909556  0.029494296            9 
 1882000   0.96389669   -6.8435602    676.70452  0.029963891  0.029487749            5 
 1883000   0.95985494   -6.8603918    675.80767  0.029908288  0.029481216            5 
 1884000   0.95561119   -6.8627626    676.50712  0.029923351  0.029474651            3 
 1885000   0.94578532   -6.8540546    675.33884  0.029855828  0.029468131            4 
 1886000   0.93830389   -6.8278323    676.96881  0.029912019  0.029461681            5 
 1887000   0.94548201   -6.8588696    677.11544  0.029902643  0.029455113            6 
 1888000   0.95361995   -6.8549887    677.85795  0.029919578  0.029448684            4 
 1889000   0.94096194   -6.8249393    678.26018  0.029921483   0.02944222            2 
 1890000   0.94854402   -6.8646983    675.80877  0.029797565  0.029435635            7 
 1891000   0.93777187   -6.8659728    678.09818  0.029882698   0.02942908            4 
 1892000   0.95668466   -6.8420053      675.513  0.029753039  0.029422512            5 
 1893000   0.96375894   -6.8488809    678.95385  0.029888794   0.02941594            5 
 1894000   0.94387055   -6.8853998    676.15164   0.02974972  0.029409287            2 
 1895000   0.94071633   -6.8544135    677.66771  0.029800691  0.029402626            4 
 1896000   0.95764648    -6.873806    676.85865  0.029749413  0.029396005            3 
 1897000   0.94301042   -6.8519805    678.12945  0.029789556  0.029389505            5 
 1898000   0.92227681    -6.838851     676.2814   0.02969272   0.02938287            3 
 1899000    0.9276723   -6.8571668    677.44929  0.029728335   0.02937622            4 
 1900000    0.9418384   -6.8457621     678.9725  0.029779495  0.029369549            3 
 1901000   0.96792168   -6.8687164    677.56295   0.02970204  0.029362864            5 
 1902000   0.96755238   -6.8639616    678.22837  0.029715579  0.029356128            4 
 1903000   0.96806061    -6.857071    678.48035  0.029710998  0.029349544            6 
 1904000   0.94438745   -6.8486432    679.65282   0.02974671  0.029342893            6 
 1905000   0.94542426   -6.8387206    680.66693  0.029775456  0.029336217            2 
 1906000   0.91983079   -6.8818458    677.95703  0.029641353  0.029329496            6 
 1907000   0.95690454   -6.8506777    679.42826  0.029690101  0.029322812            3 
 1908000   0.95214987   -6.8555234    679.79828  0.029690701  0.029316215            8 
 1909000   0.95294546   -6.8488407    679.85602  0.029677668  0.029309545            6 
 1910000   0.94060206   -6.8682305    681.40371  0.029729656  0.029302903            5 
 1911000   0.93515713   -6.8489664    680.30929  0.029666374  0.029296308            5 
 1912000   0.95469821   -6.8682406    680.82947   0.02967353  0.029289691            4 
 1913000   0.94653797   -6.8478328    679.63032  0.029605782  0.029283041            3 
 1914000   0.95100349    -6.885273    680.99261  0.029649626   0.02927641            3 
 1915000   0.94786499   -6.8614037    682.87542  0.029716076  0.029269845            2 
 1916000   0.93754798   -6.9026545    684.06957  0.029752504  0.029263286            3 
 1917000   0.94084486   -6.8565822    682.09983  0.029651357  0.029256763            2 
 1918000   0.92697379   -6.8651027     684.0922  0.029722463  0.029250241            4 
 1919000   0.92558399   -6.8370628    682.44028  0.029635239  0.029243787            3 
 1920000   0.94541221   -6.8612244    683.58842  0.029669636  0.029237378            2 
 1921000   0.94814091   -6.8708587    682.04726  0.029587336  0.029230862            6 
 1922000   0.94990717   -6.8402871    682.92802  0.029610129  0.029224351            5 
 1923000   0.94820011   -6.8901454    680.93389  0.029508316  0.029217824            5 
 1924000   0.95608061   -6.8745876     684.1237  0.029631137  0.029211232            3 
 1925000   0.96164712   -6.8500056    685.60734  0.029679972  0.029204768            2 
 1926000   0.94478546   -6.8524804    684.38088  0.029611495  0.029198373            2 
 1927000   0.94503278   -6.8593661     685.6945  0.029652936  0.029191943            2 
 1928000   0.96457135   -6.8424841    682.88139  0.029515966  0.029185407            5 
 1929000   0.94626573   -6.8464319    685.49408  0.029613534  0.029178918            5 
 1930000   0.94126222   -6.8568789    684.53734   0.02955688  0.029172505            3 
 1931000   0.93181071   -6.8586103    684.95941  0.029559788  0.029166074            2 
 1932000   0.95841703   -6.8565515    686.00372  0.029589533  0.029159637            6 
 1933000   0.95185644   -6.8812391    686.53105  0.029596958  0.029153192            6 
 1934000   0.93042617   -6.8725644    687.17617  0.029609453   0.02914671            5 
 1935000   0.96017103   -6.8654241    687.34215  0.029601298  0.029140358            5 
 1936000   0.93393333   -6.8522964    688.87091  0.029651813  0.029134024            3 
 1937000   0.94582413   -6.8491204    687.61928  0.029582657  0.029127662            2 
 1938000   0.94632293   -6.8412343    689.32298  0.029640651  0.029121383            8 
 1939000   0.95275724   -6.8984447    687.86228  0.029562587  0.029115021            4 
 1940000   0.93963303    -6.872127    688.98335  0.029595505  0.029108637            5 
 1941000   0.95422201   -6.8369591     687.6062  0.029521132   0.02910224            3 
 1942000   0.94278003   -6.8601868    689.71328  0.029596348  0.029095903            4 
 1943000   0.93263917   -6.8367229     689.3254  0.029564479  0.029089476            4 
 1944000    0.9275116   -6.9084453    687.22194  0.029459102  0.029083045            7 
 1945000   0.93715802   -6.8626974    688.91976  0.029516699  0.029076573            3 
 1946000   0.95618819    -6.883449    686.74849  0.029408551  0.029070006            5 
 1947000   0.94372034   -6.8582849    687.42812  0.029422536  0.029063464            3 
 1948000   0.92965882   -6.8885193       688.56  0.029455852  0.029056891            6 
 1949000   0.92238098    -6.897797    688.50561  0.029438413  0.029050338            4 
 1950000   0.92600471   -6.8940513    687.93373  0.029398877  0.029043782            5 
 1951000   0.93057707   -6.8886483    688.93294  0.029426488  0.029037197            4 
 1952000   0.95620646   -6.8838383    688.20241  0.029380226   0.02903059            5 
 1953000   0.92588571   -6.8814206    689.67469  0.029428004  0.029024012            4 
 1954000   0.92955669   -6.8795607    686.70951  0.029286486  0.029017397            7 
 1955000   0.94089384    -6.862349    690.98883  0.029453914  0.029010795            2 
 1956000    0.9334475   -6.8708077    690.74403  0.029428427  0.029004174            4 
 1957000   0.93345431   -6.8623329     688.4214  0.029314486  0.028997501            5 
 1958000   0.93547047   -6.8697545    690.35517  0.029381817  0.028990794            9 
 1959000   0.91760474   -6.8817464    688.95617  0.029307307  0.028983993            6 
 1960000   0.95308695   -6.8355921    690.76706  0.029369348  0.028977258            5 
 1961000    0.9206857   -6.8929472    691.33998  0.029378717  0.028970512            5 
 1962000   0.95584262   -6.8635187    690.57922  0.029331431  0.028963795            6 
 1963000    0.9279596   -6.8775914    689.93064  0.029288956  0.028957066            4 
 1964000   0.91876466   -6.8788752    689.12385   0.02923981  0.028950338            6 
 1965000   0.93439714   -6.8580645    689.39373  0.029236375  0.028943558            6 
 1966000   0.94032264   -6.8594867    691.40423  0.029306724  0.028936923            6 
 1967000   0.94440204    -6.867143    692.39173  0.029333661  0.028930216            3 
 1968000   0.92274208   -6.8544889    693.91148  0.029383108   0.02892354            3 
 1969000   0.93188251     -6.87982    690.45734  0.029221997  0.028916828            5 
 1970000   0.92130516   -6.8637198    692.39267   0.02928903  0.028910139            7 
 1971000   0.95306778   -6.8672827    692.22611  0.029267128  0.028903472            3 
 1972000   0.93286921    -6.884255    691.87712  0.029237539  0.028896753            5 
 1973000   0.93469553   -6.8776895    691.74345  0.029217074  0.028889972            4 
 1974000   0.92469016   -6.8350393    694.65877  0.029325345  0.028883317            4 
 1975000   0.92822634   -6.8887538    693.26025  0.029251487  0.028876684            5 
 1976000   0.92659046   -6.8839122    692.52531   0.02920569   0.02886996            8 
 1977000   0.95428237    -6.857373    692.48448  0.029189196  0.028863257            3 
 1978000   0.91487251   -6.8957397    692.47167  0.029173899  0.028856503            5 
 1979000   0.92721092   -6.8841398    693.55024  0.029204575   0.02884978            3 
 1980000   0.94078832   -6.8905411    694.06529  0.029211502  0.028843196            5 
 1981000   0.93885601   -6.8852187    692.85873  0.029146001  0.028836449            4 
 1982000   0.93671052   -6.8876545    695.67484  0.029249699  0.028829747            5 
 1983000   0.93363714   -6.8666824    694.96342  0.029205052  0.028823066            2 
 1984000   0.93153189   -6.8992008     693.2324  0.029117624  0.028816374            4 
 1985000   0.94469496   -6.8711575    693.97513  0.029134136  0.028809585            9 
 1986000    0.9230212    -6.881625    695.11711  0.029167385  0.028802905            5 
 1987000   0.94214558   -6.8477196    694.26289   0.02911688  0.028796189            2 
 1988000   0.91559392   -6.8761328    695.27272  0.029144564  0.028789535            7 
 1989000   0.93848462   -6.8993839    695.05893  0.029120954  0.028782825            3 
 1990000    0.9263642   -6.8830597    693.88463  0.029057145  0.028776048            4 
 1991000   0.92538233   -6.8750448    694.52751  0.029069459  0.028769298           11 
 1992000   0.92736169   -6.8698222    696.71997  0.029146585  0.028762508            5 
 1993000   0.94651745   -6.8778187    697.48511  0.029163953  0.028755819            5 
 1994000   0.92304812    -6.896018    694.11671  0.029008555  0.028749127            5 
 1995000   0.94302635   -6.8887759    693.77577  0.028979773  0.028742431           17 
 1996000   0.93041236    -6.855136    695.49976  0.029037231  0.028735709           10 
 1997000   0.91605851   -6.8864983    696.40999  0.029060674  0.028728996            3 
 1998000   0.95111602    -6.886387    696.61774  0.029054794  0.028722247            2 
 1999000   0.93942129   -6.8934916    696.69539  0.029043496  0.028715473            7 
 2000000   0.92917901   -6.8984719    696.07097  0.029002957  0.028708644           10 
 2001000    0.9145525   -6.8792421     697.8883  0.029064147  0.028701819            5 
 2002000   0.93735451    -6.887078    697.63856  0.029039234  0.028695019            8 
 2003000   0.93132647   -6.8938619    695.32925  0.028928659   0.02868822            6 
 2004000   0.91171336   -6.8777239    697.87106  0.029019921  0.028681349            4 
 2005000    0.9165353   -6.8834105    697.01949  0.028970054  0.028674633            4 
 2006000   0.91853852   -6.8949455    698.26665  0.029007421  0.028667908            7 
 2007000   0.92411962   -6.8546687    698.25084  0.028992312   0.02866121            5 
 2008000   0.92067521   -6.8859368    697.97297  0.028966342  0.028654444            5 
 2009000   0.92029121   -6.8859723    698.26534  0.028964051   0.02864767            3 
 2010000   0.93071928   -6.9029737    698.82741  0.028972944  0.028640867            5 
 2011000   0.92706327   -6.9132553    697.33306  0.028896613  0.028634013            6 
 2012000   0.92607081    -6.922662    698.67498   0.02893783  0.028627243            4 
 2013000    0.9117431   -6.8681081    700.81652  0.029012109  0.028620416            3 
 2014000   0.92197305   -6.8894208    697.92569   0.02887809  0.028613651            5 
 2015000   0.93596841   -6.8825795    699.88266  0.028944692   0.02860695            7 
 2016000   0.92587548   -6.8728121    700.16106  0.028941843  0.028600163            4 
 2017000   0.92883597   -6.9036532     699.5614  0.028902718  0.028593366            4 
 2018000   0.92505061   -6.8797621    699.48746  0.028885343   0.02858649            4 
 2019000   0.94628899   -6.9189208     698.3709  0.028824951  0.028579678            7 
 2020000   0.93856972   -6.8881901    697.68171  0.028782249  0.028572903            3 
 2021000    0.9247383   -6.9067955    701.77323  0.028936716  0.028566026            5 
 2022000   0.91990449   -6.9086973    700.28774  0.028861183  0.028559167            4 
 2023000   0.91253895   -6.8922913    698.42518  0.028770192  0.028552306            6 
 2024000   0.92857135   -6.9200806    698.75354  0.028769497   0.02854545            3 
 2025000   0.96445691   -6.9060511    701.34793  0.028862055  0.028538605            4 
 2026000   0.95065164   -6.9046812    699.19736  0.028759352  0.028531764            6 
 2027000   0.92726179   -6.9154714    700.59609  0.028802668  0.028524937            4 
 2028000   0.94087012   -6.8586701    702.18987  0.028853956  0.028518174            2 
 2029000   0.92416738     -6.95087    700.91439   0.02878735  0.028511423            6 
 2030000    0.9479723   -6.8834764    702.43399  0.028835549  0.028504764            9 
 2031000   0.92650362   -6.9011838    704.43628  0.028903507  0.028498085            5 
 2032000   0.92023281   -6.9251637    702.06275  0.028791943  0.028491428            5 
 2033000   0.93385201   -6.9047098    701.73409  0.028764309  0.028484684            7 
 2034000    0.9310458   -6.8583188    702.90074  0.028797965  0.028477914            6 
 2035000   0.91316814   -6.8809221    704.64358  0.028855183  0.028471252            2 
 2036000   0.93877438   -6.8988615     703.1633  0.028780423  0.028464575            3 
 2037000   0.92994557   -6.9350078    703.03202  0.028760924  0.028457873            6 
 2038000   0.94312866   -6.8837688    703.90614  0.028782554  0.028451112            3 
 2039000   0.92756537   -6.8908467     705.2975  0.028825303  0.028444337            6 
 2040000   0.92236282    -6.901194    704.59698  0.028782557  0.028437599            3 
 2041000   0.91602619   -6.8989938    704.43926  0.028762014  0.028430842            5 
 2042000   0.93638413     -6.91397    706.07601  0.028814725  0.028424113            4 
 2043000   0.92685108   -6.9080817    704.38994  0.028731846  0.028417348            2 
 2044000   0.92646755   -6.8687753    704.20375  0.028710198  0.028410682            9 
 2045000    0.9219217    -6.900035    705.73707  0.028758642  0.028404059            4 
 2046000   0.92850937   -6.8724915    705.33074  0.028728036  0.028397468            5 
 2047000   0.91611553   -6.9193587    704.92154  0.028697343  0.028390871           12 
 2048000   0.92714626   -6.8906792    706.78742  0.028759254  0.028384283            2 
 2049000   0.93940669   -6.8932702    706.51251  0.028734037  0.028377575            4 
 2050000   0.92294444    -6.937917    705.14206  0.028664311  0.028370856            5 
 2051000   0.93277228   -6.9120989    706.32786  0.028698515  0.028364156            6 
 2052000   0.92811544   -6.9336765    705.40246  0.028646949  0.028357418            6 
 2053000   0.93392368   -6.8958315    706.26097  0.028667843  0.028350741            4 
 2054000   0.91706882   -6.9196144    706.50525  0.028663796  0.028343948            8 
 2055000   0.93838291   -6.9085095     706.3085  0.028641869  0.028337248            6 
 2056000    0.9147564   -6.9181743     707.9208  0.028693288  0.028330543            4 
 2057000   0.92033206   -6.8953613    706.70507  0.028630087  0.028323848            6 
 2058000   0.93614006   -6.9323657    706.88301  0.028623381  0.028317112            1 
 2059000   0.92369329   -6.8763292    707.65696  0.028640803  0.028310453            6 
 2060000   0.90071873   -6.8918129    706.14193  0.028565612  0.028303708            5 
 2061000   0.91070701   -6.8913211    706.67179  0.028573176  0.028296909            4 
 2062000   0.91663156   -6.9249117    706.72156   0.02856133   0.02829016            2 
 2063000   0.92769602   -6.8847451    708.06724  0.028601844   0.02828347            2 
 2064000   0.92103666   -6.8827145    709.24254  0.028635439  0.028276848            3 
 2065000   0.93375274   -6.8763106    708.56918  0.028594398   0.02827023            3 
 2066000   0.93870493   -6.8972151    709.14326  0.028603713  0.028263617            4 
 2067000   0.91783046   -6.8970169    709.17325  0.028591084  0.028256965            6 
 2068000   0.91408789   -6.9062977      709.629  0.028595624   0.02825027            6 
 2069000   0.90972974   -6.9324304    707.73085  0.028505351  0.028243527            8 
 2070000   0.91062804   -6.9198485    709.22649  0.028551791  0.028236858            8 
 2071000   0.93143237   -6.9026213    711.79808  0.028641481  0.028230175            2 
 2072000   0.90835865   -6.9214916    710.50015  0.028575456   0.02822341            4 
 2073000   0.92151035   -6.9034966    711.24333  0.028591547   0.02821671            9 
 2074000   0.90616603   -6.9193551    712.45979  0.028626639  0.028210004            4 
 2075000   0.93516566   -6.9079033    709.38888  0.028489513   0.02820328            6 
 2076000   0.91269791   -6.8895367    708.29748   0.02843198  0.028196584            4 
 2077000   0.90230073   -6.9202022    710.67837  0.028513817  0.028189781            4 
 2078000   0.92374908   -6.8875464    711.92415  0.028550054  0.028183017            2 
 2079000   0.94104597   -6.9374745    709.63688   0.02844464  0.028176271            5 
 2080000   0.90831572   -6.9231248    710.67754  0.028472658   0.02816941            6 
 2081000   0.91518701   -6.9305096    710.05112  0.028433891  0.028162553            3 
 2082000   0.91451141   -6.8953044    709.65584  0.028404413  0.028155715            7 
 2083000   0.90685683   -6.9250269    710.56788  0.028427264  0.028148856            3 
 2084000   0.92522335   -6.9283416    711.69042   0.02845851   0.02814203            4 
 2085000   0.91425518   -6.9064929    710.59274  0.028400989  0.028135099            5 
 2086000   0.90207539   -6.9008735    711.59114  0.028427259  0.028128162            8 
 2087000   0.92080042   -6.8735897    712.17244  0.028436849  0.028121317            4 
 2088000   0.91816213   -6.9164848     712.8826  0.028451572  0.028114493            5 
 2089000    0.9296725   -6.9362205    709.42532  0.028300037  0.028107635            9 
 2090000   0.92437641   -6.9048812    710.08288  0.028312714   0.02810073            4 
 2091000   0.92304099   -6.9259559     712.3622  0.028390013  0.028093876            2 
 2092000   0.90712022   -6.9176807    711.92366  0.028358973  0.028087037            4 
 2093000    0.9101561   -6.9191714    711.39763   0.02832448  0.028080194            3 
 2094000   0.93147371   -6.9243792    710.79508  0.028286974  0.028073314            5 
 2095000   0.90832677   -6.8945873    711.80801  0.028313763  0.028066453            2 
 2096000   0.91678616    -6.917884    713.06847  0.028350369  0.028059615            7 
 2097000   0.89795805    -6.930267    715.06162  0.028416056  0.028052776            2 
 2098000   0.91261719   -6.9173044    711.57902  0.028264181  0.028045933            4 
 2099000   0.91015584   -6.9226947    711.53913  0.028249132  0.028039126           12 
 2100000   0.91898964   -6.9166354    712.84905  0.028287661  0.028032321            4 
 2101000   0.91941089   -6.9192571    714.24452  0.028329546  0.028025581            3 
 2102000    0.9203757   -6.8589568    715.08254  0.028349292  0.028018779            2 
 2103000   0.91522096   -6.9097634    713.32463  0.028266153  0.028012028            4 
 2104000   0.90723295   -6.9120736    715.01243  0.028319567  0.028005249            9 
 2105000   0.92302875    -6.900297    716.64777  0.028370854  0.027998575            4 
 2106000   0.89120485   -6.8774038    715.42594  0.028309035  0.027991908            4 
 2107000   0.93825165   -6.9095767    715.32204   0.02829149  0.027985178            5 
 2108000   0.91432401   -6.9159269    714.94487  0.028263159  0.027978411            5 
 2109000   0.91945806   -6.8981527    715.42332  0.028268663  0.027971562            4 
 2110000   0.92287913   -6.9038843     714.1015  0.028203061  0.027964753            3 
 2111000   0.92370479   -6.9037703    713.66284  0.028172385  0.027957918            4 
 2112000   0.90023959   -6.9230447    716.92734  0.028287853  0.027951136            3 
 2113000   0.91227668   -6.9283283    716.19325  0.028245514  0.027944389            5 
 2114000   0.90685775    -6.908804    716.79919  0.028256039  0.027937647            7 
 2115000   0.91537679   -6.9583325    716.11532  0.028215734   0.02793084            6 
 2116000   0.89600627   -6.9224279    715.14887  0.028164338  0.027923974            9 
 2117000   0.90350482   -6.9467593    717.60363  0.028247663  0.027917167            5 
 2118000   0.92593501   -6.9453328    716.43539  0.028188361  0.027910358            9 
 2119000   0.90468564   -6.9288484    715.53745  0.028139745  0.027903518            2 
 2120000   0.92405475   -6.9470022    718.27615  0.028234125  0.027896686            6 
 2121000    0.9441665   -6.9298567    717.00356  0.028170814  0.027889827            7 
 2122000   0.92846603   -6.8956346    718.07809  0.028199737  0.027883044            6 
 2123000    0.8864892   -6.8861112    717.54813  0.028165651  0.027876235            8 
 2124000   0.93409008   -6.8723135    717.99875   0.02817007  0.027869422            8 
 2125000   0.94373135   -6.9240733    715.96497  0.028077058   0.02786258            3 
 2126000    0.9020172   -6.8946103     718.0955  0.028147362  0.027855758            2 
 2127000   0.91001207   -6.9337759    718.14599  0.028136107  0.027848959            3 
 2128000   0.92755865   -6.9260752    718.42817  0.028133935   0.02784212            5 
 2129000   0.92059467   -6.9041533    719.39789  0.028158677  0.027835308            4 
 2130000   0.91411375    -6.936928    719.38233  0.028144848  0.027828521            6 
 2131000   0.90263741   -6.8941268    716.52765  0.028020008  0.027821708            4 
 2132000   0.91303045   -6.9258551    717.89226  0.028060204   0.02781484            3 
 2133000   0.91798008   -6.9069532    718.17535  0.028058109  0.027807985            6 
 2134000   0.91601784   -6.9345691    717.50867  0.028018926  0.027801118            5 
 2135000   0.90589028   -6.9407103    717.08127   0.02798912  0.027794212            2 
 2136000    0.9235313   -6.9403419      717.899   0.02800792  0.027787314            2 
 2137000   0.90373779   -6.9385175    718.26245  0.028008986  0.027780383            7 
 2138000   0.91903768   -6.9418521    719.54624  0.028045925  0.027773535            3 
 2139000   0.89332216   -6.9245179    718.90911  0.028007991  0.027766699           11 
 2140000   0.92016334   -6.9140475    719.54187  0.028019543  0.027759862            6 
 2141000   0.91634891   -6.9402547    718.93298  0.027982756  0.027752986            7 
 2142000   0.91408453    -6.945208    719.16145  0.027978581  0.027746102            4 
 2143000   0.90849808   -6.9442534    720.66729  0.028024082  0.027739288            3 
 2144000    0.9040285   -6.9410588     719.7977  0.027977212  0.027732491            5 
 2145000   0.92628971   -6.9073948    719.97171  0.027970929  0.027725669            4 
 2146000   0.90667316   -6.9487899    719.76579  0.027949899  0.027718811            5 
 2147000   0.92865105   -6.9302949    718.99645   0.02790702  0.027711912            4 
 2148000   0.90593593   -6.9394904    720.68854  0.027959673  0.027705055            3 
 2149000   0.91452431   -6.9160792    722.37238  0.028011958  0.027698282            6 
 2150000   0.90754003   -6.9160838     721.4973  0.027965012  0.027691445            5 
 2151000   0.91939821   -6.9484567    722.42565  0.027987977   0.02768456            8 
 2152000   0.93068731   -6.9366986    720.44531  0.027898285  0.027677608            9 
 2153000   0.92420322   -6.9426976    720.28465  0.027879109  0.027670673           10 
 2154000   0.91551722   -6.9472902    721.15912  0.027899997  0.027663716            6 
 2155000   0.92852909    -6.944076    721.03344   0.02788219  0.027656708            4 
 2156000   0.89158288   -6.9526361    720.49069  0.027848279  0.027649677            5 
 2157000    0.9206837   -6.9743781    721.35136   0.02786862  0.027642628            7 
 2158000   0.89796175    -6.953653    722.06225  0.027883157  0.027635657            4 
 2159000   0.90731906   -6.9349127    721.12931  0.027834233  0.027628675            6 
 2160000   0.88442906   -6.9484603     723.4126  0.027909437  0.027621742            4 
 2161000   0.92136516   -6.9545318    722.68925  0.027868628  0.027614832            3 
 2162000   0.88279113   -6.9491347    722.78349   0.02785937   0.02760797            4 
 2163000   0.90201299   -6.9404192     723.8923  0.027889209  0.027601106            7 
 2164000   0.91724832   -6.9524169      722.829  0.027835374  0.027594334            6 
 2165000   0.89369347   -6.9298087     723.7683  0.027858672  0.027587575            6 
 2166000   0.90157795   -6.9146742     725.6881  0.027919671  0.027580837            3 
 2167000   0.90568638   -6.9309511    724.52895  0.027862212  0.027574063            6 
 2168000   0.90878499   -6.9514959    723.72473  0.027818448  0.027567247           12 
 2169000   0.91488888   -6.9100899    726.40746  0.027908693  0.027560439            6 
 2170000   0.91815675   -6.9633469    725.29261  0.027853019  0.027553614            6 
 2171000   0.90252732   -6.9287504    724.99797  0.027828879  0.027546767            7 
 2172000   0.90612415    -6.949344    726.95039  0.027890976  0.027539908            4 
 2173000   0.89706468   -6.9439741    725.97598  0.027840772  0.027533116            7 
 2174000   0.91634911   -6.9279848    726.13053   0.02783389  0.027526328            6 
 2175000   0.88809454   -6.9825225    724.97645  0.027776876   0.02751952            8 
 2176000   0.90152987   -6.9347099    725.67336    0.0277908  0.027512734            3 
 2177000   0.89947497   -6.9521443     726.1425  0.027795992  0.027505982            3 
 2178000   0.89906256   -6.9438096    727.03157  0.027817247  0.027499213            7 
 2179000   0.90717792   -6.9636075    724.70632  0.027715555  0.027492362            6 
 2180000   0.91127745   -6.9444828    726.70405  0.027779207  0.027485585            6 
 2181000   0.89786097   -6.9281427    727.61806  0.027801393  0.027478783            9 
 2182000   0.89918789   -6.9481983    729.05976  0.027843712  0.027471983            4 
 2183000   0.90288716   -6.9520729    726.99575  0.027752166  0.027465208            5 
 2184000   0.92311545   -6.9205911    726.33836  0.027714376  0.027458381            4 
 2185000   0.90714841   -6.9277475    728.59085  0.027787599  0.027451539            4 
 2186000    0.9100362   -6.9606059     727.8223  0.027745589  0.027444738            5 
 2187000   0.90712742   -6.9596288    728.89571  0.027773804  0.027437945            5 
 2188000   0.90842768   -6.9422057    728.29328  0.027738166  0.027431109           10 
 2189000   0.90424562   -6.9174961    727.59574   0.02769894   0.02742425            3 
 2190000   0.90754435   -6.9663001    727.07827  0.027666601  0.027417415           13 
 2191000   0.90671141    -6.927584    726.31087  0.027624786  0.027410554            4 
 2192000   0.89281778   -6.9401238    728.80862   0.02770714  0.027403725            7 
 2193000   0.91003926   -6.9765242    729.51699  0.027721424  0.027396902            3 
 2194000   0.90602583   -6.9348095    728.04112  0.027652732  0.027390044            5 
 2195000   0.88447995   -6.9948113    727.00823   0.02760092  0.027383181            7 
 2196000   0.90283173   -6.9605489    727.50034  0.027607026   0.02737634           14 
 2197000   0.92130545   -6.9234167     730.4805  0.027707499  0.027369515            8 
 2198000   0.89210305    -6.943958    727.19852  0.027570462  0.027362707            7 
 2199000   0.89846811   -6.9366148    728.96546  0.027624885  0.027355932            4 
 2200000   0.90750253   -6.9411234    730.60854  0.027674566  0.027349202            5 
 2201000   0.91557595   -6.9676718    727.97246  0.027562186  0.027342394            4 
 2202000   0.93093377   -6.9792497    727.63312  0.027536827  0.027335508            6 
 2203000   0.89897019   -6.9376739      731.015  0.027652254  0.027328722            5 
 2204000   0.91262085   -6.9371783    732.25382  0.027686548  0.027321939            4 
 2205000   0.90259181   -6.9284783    730.29684  0.027600032  0.027315195            7 
 2206000   0.90880982   -6.9512192    729.07973  0.027541543  0.027308445            6 
 2207000   0.90407205   -6.9560757    731.23847  0.027610575  0.027301697            4 
 2208000   0.89574438   -6.9828723    730.44957  0.027568296   0.02729489            4 
 2209000   0.89351279   -6.9495915     732.0964  0.027617942  0.027288077            8 
 2210000   0.88218642   -6.9285607    731.10482  0.027568055  0.027281358            8 
 2211000   0.89095534    -6.955274    730.27032  0.027524134  0.027274587            2 
 2212000   0.91536344   -6.9765998    730.19055  0.027508686  0.027267759            8 
 2213000   0.92524593   -6.9676684    730.20957  0.027496971   0.02726096            7 
 2214000   0.89772765   -6.9390037    732.49021  0.027570393  0.027254178            4 
 2215000   0.89334419   -6.9559573    731.61163  0.027524892  0.027247403            4 
 2216000   0.87764273   -6.9757428    731.65655   0.02751416  0.027240572            5 
 2217000   0.88797523   -6.9363461    732.01996   0.02751541  0.027233805            4 
 2218000    0.9076706   -6.9425369    731.09015   0.02746807  0.027227087            4 
 2219000   0.91188305    -6.957475    732.50738  0.027508915  0.027220375            5 
 2220000   0.88732811   -6.9664152    734.28159  0.027563123  0.027213728            5 
 2221000   0.89916101   -6.9698689     732.5914  0.027487295  0.027207015            9 
 2222000   0.89101208   -6.9472327    733.20953  0.027498107  0.027200306            3 
 2223000   0.87606503   -6.9293458    734.11997  0.027519867  0.027193584            4 
 2224000   0.90608859   -6.9297902    733.08877  0.027468854  0.027186914            6 
 2225000   0.90449024   -6.9295813    736.51408  0.027584797  0.027180229            7 
 2226000   0.89651223   -6.9660848    733.25173  0.027450274  0.027173535            8 
 2227000   0.90834257   -7.0025527    733.66737  0.027453501  0.027166772            4 
 2228000   0.90358224   -6.9629912    732.46196  0.027396093  0.027160056            7 
 2229000   0.89068724   -6.9286063    733.49985  0.027422605  0.027153301            5 
 2230000   0.91312737   -6.9708568    734.63015  0.027452547  0.027146621            5 
 2231000   0.87993974   -6.9391121    736.56892  0.027512659  0.027139926            4 
 2232000    0.8948902   -6.9841723    733.95525   0.02740275  0.027133178            5 
 2233000   0.88795808    -6.929804     736.5815  0.027488487  0.027126437            3 
 2234000    0.9055695   -6.9555689    735.88685   0.02745027  0.027119767            4 
 2235000   0.88685561   -6.9414954    736.78721  0.027471559  0.027113115            3 
 2236000   0.88296558   -6.9478186    737.70111  0.027493333   0.02710646            5 
 2237000   0.91082789   -6.9225626    738.06994  0.027494783  0.027099799            4 
 2238000   0.88562598   -6.9343766    737.04139  0.027444198  0.027093126            4 
 2239000   0.89397833   -6.9597577    737.31103  0.027441977  0.027086408           11 
 2240000   0.89352655   -6.9824842    735.43714  0.027360013  0.027079662            4 
 2241000   0.91010751   -6.9467064    735.71149  0.027358006   0.02707292            9 
 2242000    0.8842756   -6.9718825    737.32983  0.027405956  0.027066234            6 
 2243000    0.8860654   -6.9721398    738.26738   0.02742857  0.027059544            4 
 2244000   0.88071258   -6.9602862    739.12142  0.027448062  0.027052847            4 
 2245000   0.88602504   -6.9800506    734.82741  0.027276444  0.027046159            5 
 2246000    0.8863685   -6.9475751    739.43216   0.02743515  0.027039452            8 
 2247000   0.89878352   -6.9514425    738.13648  0.027374888  0.027032778            5 
 2248000   0.90350385   -6.9576701    736.15293   0.02728918  0.027026161            9 
 2249000   0.88347948   -6.9572048    738.43546  0.027361622  0.027019538            2 
 2250000   0.88772425   -6.9794749    738.39963  0.027348134  0.027012899            3 
 2251000   0.89666248   -6.9797157    739.41382  0.027373531  0.027006318            6 
 2252000   0.86953979   -6.9253593    741.68742  0.027445508  0.026999733            3 
 2253000   0.90021882   -6.9773501    738.02992  0.027298044  0.026993107            3 
 2254000   0.88150953   -6.9747301       740.23  0.027367273  0.026986515            4 
 2255000   0.91067754   -6.9666996    739.96396  0.027345305  0.026979907            5 
 2256000    0.8977713   -6.9358434    739.18395  0.027304372  0.026973338            5 
 2257000   0.89859116   -6.9691483    741.17875  0.027365926  0.026966744            3 
 2258000   0.87771608   -6.9311275    740.27917  0.027320607  0.026960179            3 
 2259000   0.90585515   -6.9561747    742.46774  0.027389248  0.026953643            5 
 2260000   0.89936647   -7.0011221    740.36839  0.027299719  0.026947057            4 
 2261000   0.88372178   -6.9612798    741.22486  0.027319212  0.026940492            5 
 2262000   0.90180674   -6.9488321    740.09204  0.027265401  0.026933914            4 
 2263000   0.90813268   -6.9945703    741.35918  0.027300014  0.026927266            4 
 2264000    0.8981297   -6.9746992     740.4268  0.027253637  0.026920646            6 
 2265000   0.91058241   -6.9698806    740.44368  0.027242225   0.02691406            6 
 2266000   0.87674197   -6.9763175    740.57582  0.027235062  0.026907382            5 
 2267000   0.88130347   -6.9878543    740.69521  0.027227437  0.026900713            6 
 2268000   0.90127603     -6.96711    741.93667  0.027261047  0.026894028            3 
 2269000   0.87037595   -6.9700351    740.90973  0.027211317  0.026887373            4 
 2270000   0.89752828   -6.9686383    742.09953  0.027243008  0.026880731            8 
 2271000   0.86945395   -6.9375319    741.48392  0.027208422  0.026874122            7 
 2272000   0.89269186     -6.97195    742.20962  0.027223064   0.02686758            3 
 2273000   0.88512367   -6.9651455    742.52122  0.027222511  0.026861007            4 
 2274000   0.90107226   -6.9506644    743.56996  0.027248972  0.026854507           15 
 2275000   0.87838319   -6.9396302    743.19929  0.027223417  0.026848014            5 
 2276000   0.89107933   -6.9529119    743.24525  0.027213139  0.026841468            8 
 2277000   0.88001217   -7.0023596     742.2859  0.027166077  0.026834914            6 
 2278000    0.9161938   -6.9981636    741.48384  0.027124811  0.026828313            5 
 2279000   0.89277306   -6.9426598    743.50491  0.027186811  0.026821735            6 
 2280000   0.88285267    -6.964748    742.92802  0.027153802  0.026815186            7 
 2281000   0.88086077   -6.9775197    742.95802  0.027142993  0.026808583            3 
 2282000   0.87755629    -6.971813    745.41412   0.02722079  0.026801982            5 
 2283000   0.89678453   -6.9909391    740.78609  0.027039936  0.026795384            4 
 2284000   0.87150504   -6.9716952    744.70785  0.027171185  0.026788797            6 
 2285000   0.89994899   -6.9818088    743.00483  0.027097186  0.026782181            5 
 2286000    0.8868562   -7.0015541    743.38894  0.027099334  0.026775515            3 
 2287000   0.89522061   -6.9755023    745.25773   0.02715558  0.026768882            5 
 2288000   0.87859809   -6.9917137    744.35626  0.027110878  0.026762253            4 
 2289000   0.89588872   -6.9852079    743.73219  0.027076314  0.026755641            3 
 2290000   0.88504386   -6.9998697    744.09697  0.027077764  0.026748999            6 
 2291000   0.87487971   -6.9928509    745.36187  0.027111955  0.026742348           23 
 2292000    0.8826451   -6.9989105    743.37211  0.027027782  0.026735746            3 
 2293000   0.89034331   -6.9654243    746.54165  0.027131184  0.026729231            2 
 2294000   0.87857873   -6.9659607    745.05163  0.027065229  0.026722735           11 
 2295000    0.8834686   -7.0022421    745.77337  0.027079643  0.026716173            6 
 2296000   0.87511746   -7.0074658    745.83293   0.02707001  0.026709637            5 
 2297000   0.86935293   -6.9634326    746.27541  0.027074278  0.026703075            2 
 2298000   0.89029591   -7.0068535    746.10363  0.027056267  0.026696563            2 
 2299000   0.91241728   -7.0008258    746.97567  0.027076108  0.026689973            4 
 2300000    0.8811285   -6.9759431    746.91561   0.02706216   0.02668342            3 
 2301000   0.87670173   -7.0088254    746.22585  0.027025418  0.026676881           14 
 2302000   0.88084987   -6.9521111    746.10891  0.027009445  0.026670302            2 
 2303000   0.87699792   -6.9442129    747.54325  0.027049618  0.026663728            4 
 2304000   0.90125894   -7.0019259    746.99093  0.027017901  0.026657188            5 
 2305000   0.88418002   -6.9844914    748.91039  0.027075575  0.026650678            7 
 2306000   0.86152672   -6.9976411     747.0375  0.026996151  0.026644131            5 
 2307000   0.88791913   -6.9905177    745.70039   0.02693615  0.026637527           17 
 2308000   0.87874348   -6.9685895    747.16664  0.026977421  0.026630924            9 
 2309000   0.87338677   -6.9823959    747.24472  0.026968555  0.026624373            4 
 2310000   0.87734438   -6.9925047    747.63174  0.026970842  0.026617751           10 
 2311000   0.87367909   -6.9669751    748.26575  0.026982033  0.026611081            4 
 2312000   0.86685076   -6.9997597    747.56923  0.026945258  0.026604431           10 
 2313000   0.88193706   -6.9812427    747.32562  0.026924831  0.026597732            4 
 2314000   0.89849048   -7.0031355    747.44815  0.026917608  0.026591024            3 
 2315000   0.91101595   -6.9873872    748.93113  0.026959364  0.026584399            5 
 2316000   0.89438451   -7.0072872     748.1394  0.026919236  0.026577798            5 
 2317000    0.8884858   -6.9798955    750.06216  0.026976772  0.026571211            7 
 2318000   0.87995639   -7.0046186      750.055  0.026964876  0.026564613            3 
 2319000    0.8714838   -6.9820074    747.51884  0.026862112  0.026557958           11 
 2320000   0.89297249   -6.9810038    748.24588  0.026876648  0.026551274            5 
 2321000   0.91000202   -6.9812322    747.82394  0.026849919  0.026544656            3 
 2322000   0.88695978   -6.9527646    750.61947  0.026938683  0.026538034            6 
 2323000   0.88441904   -6.9868901    750.26081   0.02691422  0.026531481            7 
 2324000   0.87024419   -6.9801652    751.00516   0.02692933  0.026524893            4 
 2325000   0.85100312    -7.007914    749.21891  0.026853724  0.026518267            9 
 2326000    0.8791222   -6.9798309    749.35036  0.026846889  0.026511657            5 
 2327000   0.87946435   -6.9814694    751.50483  0.026912506  0.026505127            3 
 2328000   0.90536135    -6.995626     750.0193   0.02684777  0.026498575            5 
 2329000   0.88396713   -7.0089043    750.45538  0.026851846  0.026491974            3 
 2330000   0.88412173   -7.0137765    750.46831  0.026840784  0.026485316            5 
 2331000   0.85429926   -7.0234443    749.67162  0.026800787  0.026478676            4 
 2332000   0.88383696   -7.0217456    749.15405  0.026770799  0.026472057            5 
 2333000    0.8730359   -6.9845508    749.24718  0.026762651  0.026465416            4 
 2334000   0.88123852   -6.9876175    749.39903  0.026756606   0.02645876           14 
 2335000   0.88620963   -6.9806855    749.95415  0.026764959  0.026452168            9 
 2336000    0.8805994    -6.983714    751.65289  0.026814102  0.026445563            3 
 2337000   0.86967977   -6.9810484    751.37651  0.026792773   0.02643892            5 
 2338000    0.8716734   -6.9773242    752.25588  0.026812656  0.026432321            8 
 2339000   0.87705165   -6.9953383    752.07679  0.026794812  0.026425745            7 
 2340000   0.88498696   -6.9914521    752.90524  0.026812865  0.026419146            4 
 2341000   0.86889248    -6.986158    750.31278  0.026709126  0.026412502            5 
 2342000   0.86622537   -6.9966507    751.08997  0.026725376  0.026405806           11 
 2343000   0.88090145   -7.0041078     751.6998  0.026735659  0.026399087            4 
 2344000   0.87842888   -7.0083347     750.0377  0.026665163  0.026392415            7 
 2345000   0.88632606   -6.9686026    751.96173  0.026722165  0.026385745            5 
 2346000    0.9006163    -7.018038    751.00441  0.026676769  0.026379113            5 
 2347000   0.86915816   -7.0379632    750.75333  0.026656488  0.026372467            4 
 2348000   0.87150384   -7.0107047    751.78694  0.026681819  0.026365759            6 
 2349000   0.88765498   -7.0471041    750.81491  0.026635976  0.026359026            8 
 2350000   0.88630307   -6.9961811    753.26863  0.026711653  0.026352331            7 
 2351000   0.87845148   -7.0263457    750.83206  0.026613925  0.026345612            5 
 2352000   0.85242155   -7.0015862    752.01035  0.026644358  0.026338945            8 
 2353000   0.90010034   -7.0033385     753.4214  0.026683007  0.026332294            4 
 2354000    0.8739356   -6.9683886    754.51256    0.0267103  0.026325676            5 
 2355000   0.85758448   -6.9805609    753.19866  0.026652465  0.026319086            9 
 2356000   0.84606066   -6.9973407    752.78837   0.02662664  0.026312455            5 
 2357000   0.87778227   -6.9851707    754.36538    0.0266711  0.026305891           10 
 2358000   0.87932744   -7.0042474    754.04338  0.026648409  0.026299269            6 
 2359000   0.88513853   -6.9759051    752.82867  0.026594202  0.026292636            3 
 2360000   0.86844557   -6.9798577    753.51384  0.026607127   0.02628608            3 
 2361000   0.84690335   -7.0010765    752.40434  0.026556697  0.026279453           10 
 2362000   0.86814616   -7.0097327    754.50445  0.026619547  0.026272778            9 
 2363000   0.89396034     -6.99728    753.93958  0.026588361  0.026266145            4 
 2364000   0.87726703   -7.0096709    754.82968  0.026608491  0.026259517           15 
 2365000   0.88132806   -7.0001799    755.56369  0.026623104  0.026252899            2 
 2366000   0.88740174   -7.0240466    755.74278  0.026618159  0.026246259            8 
 2367000   0.86465715   -6.9746236    755.22004   0.02658851  0.026239637            4 
 2368000   0.88185833    -7.004092    756.56928  0.026624764  0.026233016           11 
 2369000   0.87709033   -6.9974086    755.46024  0.026574512   0.02622642            4 
 2370000   0.88464759   -7.0327083    754.60896  0.026533367  0.026219711           11 
 2371000   0.90998427   -7.0016859    754.74587  0.026526988  0.026213067            5 
 2372000   0.88200327    -6.976769    757.17415  0.026601115  0.026206477            2 
 2373000   0.87566539   -7.0062668    756.36107  0.026561352  0.026199883            5 
 2374000   0.86813949   -7.0027468    757.61153  0.026594058  0.026193266            5 
 2375000   0.89204875   -6.9997616    756.94829  0.026559589  0.026186688            6 
 2376000   0.85746039   -6.9767928    756.31834  0.026526317  0.026180116            3 
 2377000   0.86246922   -6.9896521    757.05712  0.026541057  0.026173562            8 
 2378000   0.87322389   -7.0219974    757.04706  0.026529544  0.026166964            4 
 2379000   0.88832641   -7.0137883    756.91935  0.026513919  0.026160348            7 
 2380000   0.88015718   -7.0235161    756.75392  0.026496986  0.026153755            5 
 2381000   0.86929705   -6.9902633    757.73278  0.026520117   0.02614718            5 
 2382000   0.85613506   -7.0456512    757.84445   0.02651289  0.026140653            7 
 2383000   0.87596443   -7.0274462    757.49022  0.026489377  0.026134004            9 
 2384000   0.88847705   -7.0231709    758.60125  0.026517102  0.026127433            5 
 2385000   0.88519188   -7.0480571    757.50383  0.026467639  0.026120819            3 
 2386000   0.87126464   -7.0000308    758.05776  0.026475893  0.026114234           16 
 2387000   0.88148685   -7.0314864    756.93043  0.026425444  0.026107671            4 
 2388000   0.89109101   -7.0150884    757.59657  0.026437625  0.026101089            8 
 2389000   0.86812593   -7.0211649    757.92945   0.02643817  0.026094516            6 
 2390000   0.86016794   -7.0107094    758.35065  0.026441794  0.026087936            5 
 2391000   0.86039567   -6.9957025    758.42472  0.026433316  0.026081338            9 
 2392000   0.86754255   -7.0029533    758.01699  0.026408061  0.026074823            4 
 2393000   0.85822076   -7.0084422    757.58888  0.026382117  0.026068294            5 
 2394000   0.86598352   -7.0502831    758.06718  0.026387746  0.026061623            7 
 2395000   0.86827368   -6.9754938    759.35929  0.026421687  0.026055003            4 
 2396000   0.85814946   -7.0451732    756.66053  0.026316796  0.026048338            7 
 2397000   0.86356742    -7.014132    758.25035  0.026361088  0.026041696            6 
 2398000   0.85732471   -7.0009037    759.44661  0.026391667  0.026035033            7 
 2399000   0.87039089   -7.0202322    757.44433  0.026311113  0.026028331            3 
 2400000   0.88109076   -7.0246763    756.35013  0.026262157  0.026021597            6 
 2401000   0.87064809   -7.0118656    757.42272  0.026288446  0.026014845           12 
 2402000   0.86376698   -7.0198126    757.77831  0.026289839   0.02600816            6 
 2403000   0.87171109   -7.0297271    757.38775  0.026265354  0.026001488            4 
 2404000   0.87365938   -7.0325777    759.98071  0.026344312   0.02599479           13 
 2405000   0.85865829   -7.0362828    756.62514  0.026217087  0.025988104            4 
 2406000   0.87190364    -7.002921    760.07911  0.026325821  0.025981459            5 
 2407000   0.87906474   -7.0098607    759.02378  0.026278347  0.025974842            6 
 2408000   0.87092128   -7.0368733    759.62151   0.02628812  0.025968179           11 
 2409000   0.86935477   -7.0325153    760.17729  0.026296433  0.025961528            4 
 2410000   0.85930888   -7.0224805    759.45291  0.026260474  0.025954844            4 
 2411000   0.88501537   -7.0398334    757.61777  0.026186153  0.025948133            4 
 2412000   0.86514101   -7.0336117    757.87718  0.026184259  0.025941332            6 
 2413000   0.85633144   -7.0187636     760.5208  0.026264705  0.025934572            3 
 2414000   0.86583267   -6.9777292    760.63196  0.026257662  0.025927825            3 
 2415000   0.85629863   -6.9957698    761.52478  0.026277597  0.025921128            6 
 2416000   0.85659187   -7.0081934     759.2178  0.026187148  0.025914402            6 
 2417000   0.86461537   -7.0271243    761.16392  0.026243412  0.025907663            4 
 2418000   0.87240958   -7.0207491    759.07767  0.026160659  0.025900949            5 
 2419000   0.85865588   -6.9908632    761.90318  0.026247181  0.025894277            6 
 2420000   0.88200861   -7.0488659    760.15766  0.026176228   0.02588759            5 
 2421000   0.85896688   -7.0198009    759.94892  0.026158231  0.025880877           10 
 2422000   0.84606908   -7.0060056    759.42211  0.026129305  0.025874179            5 
 2423000   0.85256218   -7.0494842    759.80288  0.026131616  0.025867463            7 
 2424000   0.88137137   -7.0274141    761.25849  0.026170878  0.025860683            6 
 2425000   0.85791973   -7.0487661    760.21613  0.026124266   0.02585392            5 
 2426000   0.85585707   -7.0140932    759.50138  0.026088946  0.025847086            6 
 2427000    0.8626484   -7.0397735    759.22877  0.026068836  0.025840267           10 
 2428000   0.85146057   -6.9976921    762.67188  0.026176272  0.025833485            4 
 2429000   0.86763902   -7.0261257    759.77766  0.026066202  0.025826752            5 
 2430000   0.86483666   -7.0196658    761.14467  0.026102355  0.025819934            3 
 2431000   0.85841833   -7.0334971    761.45125  0.026102127   0.02581314            3 
 2432000   0.87663594   -7.0541733    761.81928  0.026104005  0.025806346            4 
 2433000   0.86359987   -7.0407228    761.80938  0.026092937  0.025799552            3 
 2434000   0.87051604   -7.0270807    761.85998  0.026083949  0.025792783            8 
 2435000   0.87657741   -7.0129925    761.90061  0.026074627  0.025786071           10 
 2436000   0.85709373   -7.0106958    761.30676  0.026043608  0.025779382           10 
 2437000     0.851148   -7.0247007    762.63785  0.026078438  0.025772688            4 
 2438000   0.85505596   -7.0261621    762.72431  0.026070697  0.025765959            2 
 2439000   0.86382138   -7.0431573    761.95443  0.026033703  0.025759228            7 
 2440000   0.88189379   -7.0220606     763.2766   0.02606819  0.025752514            4 
 2441000    0.8670535   -7.0414228    762.00849  0.026014218  0.025745849           11 
 2442000   0.87610328   -7.0260953    763.67928  0.026060581  0.025739158            4 
 2443000   0.84850344   -7.0324097    763.16983  0.026032536  0.025732487            7 
 2444000   0.85880613   -7.0251001    761.03774  0.025949186  0.025725781            9 
 2445000   0.84949941     -7.03937    762.83204  0.025999729  0.025719075            6 
 2446000    0.8694154    -7.050072    764.32112  0.026039831  0.025712327            5 
 2447000   0.85074523   -7.0429314    761.63518  0.025937719  0.025705595            5 
 2448000    0.8592104   -7.0215517    762.69473  0.025963192  0.025698832            3 
 2449000   0.85229388   -7.0530427    761.67564  0.025917913   0.02569207            5 
 2450000   0.85472144   -7.0315028    763.12271  0.025956555  0.025685288            8 
 2451000   0.87625243   -7.0386527    764.66186  0.025998295   0.02567854            3 
 2452000   0.86787984   -7.0632591    762.60552  0.025917806  0.025671746           15 
 2453000   0.88129388    -7.044673    764.33399   0.02596596  0.025664983            6 
 2454000   0.87104025   -7.0305197    764.81128  0.025971587  0.025658309            6 
 2455000   0.85477358   -7.0348119    764.54877  0.025952097  0.025651604            9 
 2456000   0.84275772   -7.0085819    765.64636  0.025978772   0.02564491            4 
 2457000   0.86256844   -7.0515423    764.82451  0.025940324  0.025638235            5 
 2458000   0.87825928   -7.0180202    764.74687  0.025927138  0.025631556            4 
 2459000   0.83968351   -7.0478781    766.66588  0.025981628  0.025624923            7 
 2460000   0.85718768   -7.0500744    766.68861  0.025971836   0.02561829           13 
 2461000   0.84778587    -7.061801    765.70901  0.025928112  0.025611632            4 
 2462000    0.8545334   -7.0394595    767.26197  0.025970145  0.025604973            5 
 2463000   0.86012604   -7.0503831    765.95164  0.025915267  0.025598352            3 
 2464000   0.84168645   -7.0308372    766.39449  0.025919727   0.02559166            6 
 2465000   0.85123384   -7.0409219    764.87217  0.025857747  0.025584998            5 
 2466000   0.85488302   -7.0410638    764.19168  0.025824266   0.02557835           10 
 2467000   0.86213007   -7.0113686     767.7177  0.025932904  0.025571682            3 
 2468000   0.83617121   -7.0452132    766.53028  0.025882303  0.025565073            4 
 2469000   0.85652205    -7.020691    766.55686  0.025872717  0.025558401            4 
 2470000   0.84932298   -7.0181984    768.55009   0.02592949  0.025551799            3 
 2471000    0.8702372   -7.0506128    769.67075   0.02595679  0.025545201            5 
 2472000   0.86265308   -7.0291003    768.33855  0.025901381  0.025538571            6 
 2473000   0.86539877   -7.0425768    765.73164  0.025803061  0.025531959            8 
 2474000   0.84584854   -7.0514093    766.76436  0.025827417  0.025525268            5 
 2475000    0.8414399   -7.0290166    767.34627  0.025836575  0.025518616            6 
 2476000   0.85978779    -7.056958    767.10611  0.025818057  0.025511965            6 
 2477000   0.84378473   -7.0481821    767.49775   0.02582081  0.025505316            8 
 2478000   0.87574829   -7.0634708    768.04872  0.025828919  0.025498694            5 
 2479000   0.86719337   -7.0432243    766.79208  0.025776256  0.025492088            6 
 2480000   0.85745919   -7.0191718    768.35773  0.025818472  0.025485468            3 
 2481000   0.85164789   -7.0522177     767.9324  0.025793779   0.02547889            5 
 2482000   0.85721323   -7.0470949    768.36737  0.025797991  0.025472321            4 
 2483000    0.8637163   -7.0405578    768.49936  0.025792031  0.025465752            5 
 2484000   0.84937495   -7.0672918    768.88845  0.025794701  0.025459154            3 
 2485000   0.84974681   -7.0511941    768.48572  0.025770815  0.025452554            4 
 2486000   0.85688497   -7.0251531    769.12821  0.025781986  0.025445996            4 
 2487000   0.84826726   -7.0678394    770.71218  0.025824694  0.025439457            5 
 2488000   0.85371919   -7.0354394    771.31673  0.025834563  0.025432916            4 
 2489000   0.85296018   -7.0415764    769.98345  0.025779545  0.025426391           18 
 2490000   0.86423094    -7.050098    769.97241  0.025768822  0.025419846            9 
 2491000   0.84684066   -7.0550891    771.22316   0.02580032  0.025413361            3 
 2492000   0.86056834   -7.0258704    770.69999  0.025772472  0.025406838            6 
 2493000   0.85413142   -7.0319271    770.81963  0.025766133  0.025400405            7 
 2494000   0.83697382   -7.0166686    771.34759  0.025773443   0.02539393            4 
 2495000   0.83377864   -7.0218964    772.10904  0.025788545  0.025387454           13 
 2496000   0.84497839   -7.0490767    771.29422  0.025751009   0.02538096            8 
 2497000    0.8579212   -7.0516079    771.41139  0.025744606  0.025374444            7 
 2498000    0.8577445   -7.0115837    773.02411  0.025788101  0.025367952            4 
 2499000   0.85074357   -7.0730897     773.2573  0.025785557  0.025361487            7 
 2500000   0.85992849   -7.0577849    772.65551  0.025755184  0.025354989            6 
 2501000   0.85717759   -7.0591666    770.85223    0.0256848  0.025348495            5 
 2502000    0.8478919   -7.0560933    772.95772  0.025744662  0.025342015            5 
 2503000   0.84776457   -7.0140155    772.23122  0.025710189  0.025335549            4 
 2504000   0.84541786   -7.0434763    773.59099  0.025745174  0.025329058           11 
 2505000   0.84230853   -7.0267348    772.04404  0.025683434  0.025322536           10 
 2506000   0.83289814    -7.048438    773.12788  0.025709227  0.025316055            4 
 2507000   0.84375073   -7.0446004    773.12442  0.025698857  0.025309606           19 
 2508000   0.85107723   -7.0467034    773.11916  0.025688436  0.025303132           10 
 2509000   0.85111215   -7.0647044     772.0972  0.025644254  0.025296638           13 
 2510000    0.8473666   -7.0755482    772.68672   0.02565361  0.025290143            5 
 2511000   0.83374106   -7.0422306    773.13422  0.025658245  0.025283645            5 
 2512000   0.85469891   -7.0546447    773.25081  0.025651898  0.025277157            5 
 2513000   0.85305903   -7.0215301    772.38118  0.025612853  0.025270694            8 
 2514000   0.83641869   -7.0553902    773.62961  0.025644047  0.025264202            6 
 2515000   0.86596055   -7.0571798    772.71895  0.025603676   0.02525777            9 
 2516000   0.85898686   -7.0449202    774.58424  0.025655281  0.025251272            5 
 2517000    0.8676234   -7.0596247    773.47064  0.025608219   0.02524478            3 
 2518000   0.86948898   -7.0364557    776.15254  0.025686806  0.025238314            4 
 2519000   0.85052577   -7.0575692    775.08523    0.0256413  0.025231879            3 
 2520000   0.85727803   -7.0736403    774.17229  0.025600935  0.025225407            4 
 2521000   0.84768556    -7.045366    775.10767    0.0256217  0.025218946           11 
 2522000   0.85915214   -7.0666108     773.5612  0.025560441  0.025212478            3 
 2523000   0.83706647    -7.066784    774.52731  0.025582221  0.025206045            4 
 2524000   0.84244309   -7.0438735    774.36816   0.02556683  0.025199541            7 
 2525000   0.85313447    -7.068982    774.44315   0.02555918   0.02519302            3 
 2526000   0.85449967   -7.0854298    774.76372  0.025559637  0.025186494           13 
 2527000   0.86504407   -7.0449863    773.69821  0.025514385  0.025179957            5 
 2528000   0.85266876   -7.0637486    773.96594  0.025513118  0.025173411            4 
 2529000   0.86105903   -7.0058395    773.19155  0.025477513  0.025166919            3 
 2530000   0.86924997   -7.0602429    773.52202  0.025478328  0.025160416            4 
 2531000   0.84040387   -7.0729026    773.60275  0.025470919  0.025153901            3 
 2532000   0.84878689   -7.0595646    774.37634   0.02548632  0.025147349            5 
 2533000   0.85778394   -7.0663032    775.36436  0.025508763  0.025140827            5 
 2534000   0.84559363   -7.0596693    775.27033  0.025495604  0.025134377            6 
 2535000    0.8423857   -7.0627812    774.76072  0.025468794  0.025127906           13 
 2536000   0.84319263   -7.0639934    776.69844  0.025522425  0.025121474            7 
 2537000   0.85573002   -7.0490582    774.95966  0.025455251  0.025115007           18 
 2538000   0.85116598   -7.0560877    776.80867  0.025505932  0.025108547            3 
 2539000    0.8374612   -7.0320695    776.74262  0.025493719  0.025102103            5 
 2540000   0.86511618   -7.0804555    775.02952  0.025427478  0.025095651            4 
 2541000   0.83724844   -7.0659402    775.49886  0.025432863  0.025089166            4 
 2542000   0.84644058   -7.0489893    776.58707  0.025458532  0.025082695            5 
 2543000   0.85412937   -7.0520642    776.20041  0.025435851  0.025076242            5 
 2544000   0.84569121   -7.0413266    776.58067  0.025438308  0.025069778            5 
 2545000   0.82787934   -7.0691766    778.24351  0.025482761  0.025063304           12 
 2546000   0.85195858   -7.0644992    778.56845  0.025483387  0.025056812            8 
 2547000   0.84784108    -7.073448    777.34243  0.025433269  0.025050321            4 
 2548000   0.82898683   -7.0718355    777.34651  0.025423421  0.025043846            8 
 2549000    0.8634986   -7.0779341    779.00929  0.025467807  0.025037432            4 
 2550000   0.84057567   -7.0781159    777.93291  0.025422644  0.025030992            5 
 2551000    0.8273586   -7.0558312    777.52946  0.025399499  0.025024547            5 
 2552000    0.8337226   -7.0830013    779.58279  0.025456596  0.025018104            3 
 2553000   0.86368879     -7.05997    779.12244  0.025431598  0.025011687            4 
 2554000   0.83694068   -7.0524195    779.89035  0.025446697  0.025005294            3 
 2555000   0.82951992   -7.0761993    779.07228  0.025410055  0.024998882            2 
 2556000   0.85440511   -7.0550189    779.34026   0.02540885  0.024992479            3 
 2557000   0.84285771    -7.055227    779.06919  0.025390079  0.024986107            6 
 2558000   0.86654934   -7.0773829    778.69149  0.025367849  0.024979711            6 
 2559000   0.84516438    -7.082164    779.85407  0.025395795  0.024973304            4 
 2560000   0.83242859   -7.0623905    778.35097  0.025336946  0.024966918           12 
 2561000   0.82104246   -7.0701081    780.02629  0.025381566  0.024960543            5 
 2562000   0.83263511   -7.0883624    780.10135  0.025374101  0.024954102            8 
 2563000    0.8398879   -7.0824615    779.23083  0.025335897  0.024947635            5 
 2564000   0.84407173   -7.0710773    779.08629  0.025321317  0.024941178            6 
 2565000    0.8413214   -7.0675176    779.03636  0.025309823  0.024934734            5 
 2566000   0.83923314   -7.0695932    779.53516  0.025316159   0.02492824            6 
 2567000   0.83362303   -7.0786619    778.49103  0.025272401  0.024921775            8 
 2568000   0.83544163   -7.0942878    779.44887  0.025293642  0.024915284            4 
 2569000   0.84956561   -7.0803286    777.62816  0.025224736  0.024908812           11 
 2570000   0.85517286   -7.1031735    778.97673  0.025258649  0.024902311            6 
 2571000   0.83595426    -7.091216    780.35919  0.025293634   0.02489586            5 
 2572000   0.83604548   -7.0786673    780.54981  0.025289976  0.024889453            4 
 2573000   0.82853782   -7.0947634    781.23627   0.02530238  0.024883034            6 
 2574000   0.82283916   -7.0645603    780.55464  0.025270482  0.024876627           13 
 2575000   0.82956535   -7.0770606    780.79674  0.025268503  0.024870191            7 
 2576000   0.82487704   -7.0708159    780.33516  0.025243762   0.02486375            8 
 2577000   0.84522909    -7.076279    780.14636  0.025227861  0.024857327            6 
 2578000   0.83872998    -7.098908     782.0716  0.025280308  0.024850923            4 
 2579000   0.83001888   -7.0692162     781.5559  0.025253842  0.024844564            3 
 2580000   0.82849631   -7.0844079    781.23036  0.025233539  0.024838225            7 
 2581000   0.85424095   -7.0670359    781.74088  0.025240245  0.024831854            3 
 2582000   0.85414898   -7.0788977    781.90441  0.025235748  0.024825474            7 
 2583000   0.85896947   -7.1177827    781.14268  0.025201403  0.024819086            7 
 2584000   0.85097011    -7.087108    781.63502  0.025207528  0.024812696            5 
 2585000   0.83435884   -7.0847774     782.7791  0.025234658  0.024806338            3 
 2586000   0.82826675   -7.0852048    780.88064  0.025163723  0.024799969            2 
 2587000   0.84191134   -7.0781212    782.88929  0.025218699  0.024793537            6 
 2588000   0.83526359   -7.0666457    782.88983  0.025208972  0.024787151            4 
 2589000   0.84362211   -7.1131453    781.39665  0.025151173  0.024780789            4 
 2590000   0.84120667   -7.0848686    781.00059  0.025128719  0.024774407            4 
 2591000   0.84047965     -7.09061    781.42504  0.025132672   0.02476801            4 
 2592000   0.82942708   -7.0717678    781.23326   0.02511681  0.024761605            7 
 2593000   0.83317992   -7.0720323    785.13564  0.025232538  0.024755139            8 
 2594000   0.83570895   -7.0961503    781.78467  0.025115159  0.024748733            5 
 2595000   0.82707274   -7.0832969    782.80425  0.025138222  0.024742317            6 
 2596000   0.83589686   -7.1061181    781.68329  0.025092555  0.024735867            9 
 2597000   0.83337576   -7.1027329    783.69069  0.025147308  0.024729437           11 
 2598000   0.83458167   -7.0965866    781.08504  0.025054049  0.024722968            7 
 2599000   0.83399304   -7.1033653    781.85728   0.02506917  0.024716468            6 
 2600000   0.84196968   -7.1022252    781.29929  0.025041644  0.024709943            9 
 2601000   0.81826282   -7.0883171     782.4832  0.025069948  0.024703431           11 
 2602000   0.83938757   -7.0908309    782.65036  0.025065666  0.024696958            7 
 2603000   0.84575477   -7.0766142    785.27838  0.025140171  0.024690511            6 
 2604000   0.82806821   -7.0888887    781.77153   0.02501829  0.024684064            5 
 2605000   0.80684297   -7.0802837    784.19613  0.025086248  0.024677603           11 
 2606000   0.80973585   -7.0914851    784.08643  0.025073114  0.024671117            2 
 2607000   0.81465368   -7.1007623    782.85478  0.025024127  0.024664634            7 
 2608000   0.83760044   -7.0627393    784.59704  0.025070202  0.024658162            9 
 2609000   0.81910651   -7.0771766    784.12957  0.025045661  0.024651712            5 
 2610000   0.81677023   -7.0717288    785.48421  0.025079317  0.024645309            4 
 2611000   0.84972333   -7.0555464    783.76274  0.025014769  0.024638934           10 
 2612000   0.82980791   -7.1001261     784.1305  0.025016925  0.024632521            6 
 2613000   0.84166091   -7.1058187    785.91143  0.025064148  0.024626097            4 
 2614000   0.83814347   -7.0899383    783.58748  0.024980473  0.024619662            9 
 2615000   0.85134308   -7.0580237    784.09506  0.024987096  0.024613223            5 
 2616000   0.82151764   -7.0920616     787.1098  0.025073579  0.024606806            8 
 2617000   0.83057217   -7.0714684     784.3834  0.024977181  0.024600406            4 
 2618000    0.8447433   -7.0762723    785.03321  0.024988325  0.024594013            8 
 2619000   0.82482192   -7.0759835    782.81914  0.024908335  0.024587671            6 
 2620000   0.84017939    -7.095257     783.2973  0.024914036  0.024581265            4 
 2621000   0.84241373   -7.0773336    786.31166  0.025000371  0.024574818            9 
 2622000   0.83454986    -7.077299    784.44799  0.024931604   0.02456839            5 
 2623000   0.84028235   -7.0765791    786.32511  0.024981736  0.024562023            5 
 2624000   0.83435346    -7.086204    785.90614  0.024958909  0.024555669            9 
 2625000   0.84136137   -7.1187015    785.63468  0.024940783  0.024549229           11 
 2626000   0.83655234   -7.1085685     783.5086  0.024863817  0.024542765            7 
 2627000   0.81765269   -7.0880777    785.94081  0.024931506  0.024536307            3 
 2628000   0.82885663   -7.1184885     783.9805  0.024859859  0.024529826            4 
 2629000   0.84479707   -7.0916752    785.42824  0.024896293  0.024523358           13 
 2630000   0.83965433   -7.1027491     787.1494  0.024941363  0.024516935            4 
 2631000    0.8331441    -7.129443    785.27713  0.024872581  0.024510506           12 
 2632000   0.84624644   -7.0737503    787.79522  0.024942858   0.02450407            3 
 2633000   0.83243052   -7.0761515    785.63683  0.024865073  0.024497679           10 
 2634000   0.81612582   -7.0678802    787.58871  0.024917385  0.024491304           12 
 2635000   0.82982732   -7.0953397    787.05313  0.024890991  0.024484859            6 
 2636000   0.81702227   -7.1175215    786.42653  0.024861739  0.024478409            4 
 2637000   0.81925884   -7.0806467    787.22302  0.024877481  0.024471972            4 
 2638000   0.82617284   -7.0664721    788.00856  0.024892866  0.024465561            3 
 2639000   0.82907965   -7.0988193    787.36421  0.024863086  0.024459146            7 
 2640000   0.83315954   -7.0967102    785.94023  0.024808719  0.024452736            5 
 2641000   0.82759537   -7.0626385    788.15309   0.02486915  0.024446352            6 
 2642000   0.82814098    -7.106467    787.74003  0.024846708  0.024439976            4 
 2643000   0.82942619   -7.0996698    787.45873  0.024828438   0.02443357            9 
 2644000   0.80076283   -7.0889082    786.94777  0.024802943  0.024427175            8 
 2645000   0.82835548   -7.0871387     788.4657   0.02484139  0.024420781            5 
 2646000   0.82915762   -7.0835735    788.63274  0.024837262  0.024414417            5 
 2647000   0.83422264   -7.0953836    787.16311  0.024781611  0.024408049            4 
 2648000   0.82703575   -7.0752134    790.14523  0.024866101  0.024401677            8 
 2649000   0.83518324   -7.0971959     787.6504  0.024778231  0.024395341           11 
 2650000   0.82913664   -7.1229707    788.69096  0.024801603  0.024388956           13 
 2651000   0.83016297   -7.1177567    788.00087  0.024770554  0.024382543            7 
 2652000   0.83759276   -7.1213346     789.0679  0.024794743  0.024376123           10 
 2653000   0.81384667   -7.0782088    789.01651  0.024783783  0.024369731           12 
 2654000   0.81422273   -7.0679432    790.12502  0.024809251  0.024363368            9 
 2655000   0.82012582   -7.0813123    789.33623  0.024775148  0.024357027            4 
 2656000   0.82635791   -7.1229548    789.26278  0.024763516  0.024350672            4 
 2657000   0.82112308   -7.0918404    788.63259  0.024734431  0.024344342            7 
 2658000   0.83112819   -7.1041258    789.05854   0.02473848   0.02433799            6 
 2659000   0.84136783   -7.0878608    790.33825  0.024769282  0.024331645            5 
 2660000   0.83947291   -7.0895532    788.93045  0.024715866  0.024325312            3 
 2661000   0.83013897   -7.0798666    792.56173  0.024820297  0.024318965            4 
 2662000   0.83741855   -7.0957069    787.88895  0.024664693  0.024312591            3 
 2663000   0.82784478   -7.1146398    790.00048  0.024721507  0.024306194            8 
 2664000   0.83136596   -7.0979963     789.8916  0.024708821  0.024299823            4 
 2665000   0.83540882   -7.1180375    789.19133  0.024677653  0.024293426            6 
 2666000   0.83522786   -7.1203918    788.71336  0.024653456  0.024287019            9 
 2667000   0.81861341   -7.1085513    789.84169  0.024679468  0.024280589            8 
 2668000   0.84702256   -7.1453398    789.27438  0.024652498  0.024274187           11 
 2669000   0.82426941   -7.1114444    790.64522  0.024686063  0.024267757           12 
 2670000   0.82134509   -7.1189912    788.71795  0.024616665  0.024261338            4 
 2671000   0.81724401   -7.1129927    790.00574  0.024647627  0.024254944            4 
 2672000   0.82737165   -7.0944081    788.31346  0.024585624  0.024248573            4 
 2673000   0.81236651   -7.0946074    790.42265  0.024642183  0.024242208            5 
 2674000    0.8258473   -7.1106219    788.11489  0.024561047  0.024235812            5 
 2675000   0.82265672   -7.0978372    790.59993  0.024629281  0.024229411           10 
 2676000   0.82174935   -7.0996723    789.44477  0.024584105  0.024223017            7 
 2677000   0.84673908   -7.1100464     788.2443  0.024537551  0.024216563            4 
 2678000   0.85498793   -7.1183005    789.88157  0.024579337   0.02421014           14 
 2679000   0.81747834   -7.1088245    790.15282    0.0245786  0.024203689            6 
 2680000   0.83373726   -7.1416566    790.06667   0.02456675  0.024197238            4 
 2681000   0.81788859   -7.1309772    789.84925  0.024550828  0.024190861            7 
 2682000   0.81777529   -7.0940667    791.00414  0.024577558  0.024184449            8 
 2683000   0.81765131   -7.1358047    789.41461  0.024519028  0.024178043            6 
 2684000   0.80768456   -7.0842606    791.52644  0.024575461  0.024171635            3 
 2685000   0.82342969   -7.1229937    791.20774  0.024556416  0.024165268            4 
 2686000   0.81133134   -7.1335539    793.88413  0.024630309  0.024158895           11 
 2687000   0.80198848   -7.1032143    792.23879  0.024570115  0.024152534            6 
 2688000    0.8107262   -7.1202189    792.20568  0.024559948  0.024146194            6 
 2689000   0.82295334   -7.1048472    789.91026  0.024479678  0.024139836            3 
 2690000   0.83189397   -7.1306006    792.73008  0.024557933  0.024133443            4 
 2691000   0.81362374   -7.1225867    794.36816  0.024599534  0.024127114            7 
 2692000   0.81276525   -7.1308322    791.84724  0.024512359  0.024120779           15 
 2693000   0.81736282   -7.1128968    793.24987   0.02454666  0.024114477            8 
 2694000   0.82602168   -7.1296423    793.16582  0.024534949  0.024108202            9 
 2695000   0.83864405   -7.1407541    793.56204  0.024538096  0.024101921            8 
 2696000   0.82557005   -7.1282675    792.64201  0.024500557  0.024095626            7 
 2697000   0.81184857   -7.1097126    793.49393  0.024517795  0.024089317            7 
 2698000   0.81865759   -7.1221358    793.09996  0.024496539  0.024082971           18 
 2699000   0.82079677   -7.0876202    793.55756  0.024501592  0.024076655           15 
 2700000   0.81867154   -7.1310749    793.31835  0.024485134  0.024070322            9 
 2701000   0.83901992   -7.1286355    793.04659  0.024467684  0.024063989           13 
 2702000   0.82301138   -7.1173536    793.48791   0.02447224  0.024057642           10 
 2703000    0.8085698   -7.1025556    793.85917  0.024474632   0.02405134            3 
 2704000   0.83273265   -7.1181827    793.99491  0.024469764  0.024045041           10 
 2705000   0.80837823   -7.1222298     794.0768  0.024463241  0.024038739            7 
 2706000    0.8153469   -7.1064966    791.67248  0.024380158   0.02403241            4 
 2707000    0.8312665   -7.1227529    794.80976  0.024467731  0.024026089           11 
 2708000   0.81585101   -7.1033809    794.55564  0.024450875  0.024019727            8 
 2709000   0.81539936   -7.1594893    794.19156   0.02443065  0.024013338            7 
 2710000   0.79335636   -7.1056793     795.7866  0.024470683   0.02400703            5 
 2711000   0.81260889   -7.1051568    796.44834  0.024481997  0.024000732            5 
 2712000   0.80331211   -7.1229271    796.00299  0.024459286  0.023994457            6 
 2713000   0.84951104   -7.1144775    798.12599  0.024515481  0.023988227           16 
 2714000   0.81425711   -7.1211295    795.14875  0.024415032  0.023981996            6 
 2715000   0.82480556   -7.1106826    798.56299  0.024510834  0.023975843            3 
 2716000   0.82273353   -7.1260456    797.54088  0.024470449  0.023969616            7 
 2717000   0.84938047   -7.1486183    795.01872  0.024384085  0.023963355            7 
 2718000   0.82283282   -7.1297111    795.86996  0.024401213   0.02395708            5 
 2719000   0.80205738    -7.127925    794.24034  0.024342293  0.023950815            6 
 2720000   0.81141028   -7.1403549    797.18511  0.024423564   0.02394453           16 
 2721000   0.81315426   -7.1410463    796.95266  0.024407469  0.023938273            5 
 2722000   0.79389496   -7.0798615    798.32009  0.024440365  0.023932048            6 
 2723000   0.81421563   -7.1090889    796.21235  0.024366885  0.023925802            6 
 2724000   0.80542449   -7.1098929    796.23364  0.024358591  0.023919581           11 
 2725000   0.82557812   -7.1254622    794.63852  0.024300872  0.023913304            8 
 2726000   0.82885523   -7.1259966    796.19869  0.024339652  0.023907012            9 
 2727000   0.82509093   -7.1007162    796.70341   0.02434615  0.023900724            4 
 2728000   0.83742916    -7.141215    795.17466  0.024290526  0.023894463            5 
 2729000   0.80486662   -7.0866402    797.67785  0.024358063   0.02388822            7 
 2730000   0.81543923   -7.1075855    798.32351   0.02436885  0.023882013           11 
 2731000   0.80927749   -7.0916981    796.46706  0.024303279  0.023875736            5 
 2732000   0.81104089   -7.1426246    794.71902  0.024241063  0.023869452            9 
 2733000    0.8137963   -7.1438679    796.72524  0.024293366  0.023863106            8 
 2734000   0.84208495   -7.1454509    796.56245  0.024279519  0.023856778           11 
 2735000    0.7921255   -7.1269264    795.85709   0.02424915   0.02385046            5 
 2736000    0.8110651   -7.1048569    796.96309  0.024273973  0.023844157            2 
 2737000   0.81789853   -7.1138537    797.28754  0.024274983  0.023837836            5 
 2738000   0.79935854   -7.1250736    796.36452  0.024238024  0.023831536            5 
 2739000   0.81103357   -7.1179647     797.4768  0.024263016  0.023825195            7 
 2740000   0.80566291   -7.1406644    798.25814  0.024277924  0.023818868            8 
 2741000   0.78741294   -7.1194253    798.18699  0.024266903  0.023812552            4 
 2742000   0.81321421    -7.132805    797.78084   0.02424571  0.023806283            5 
 2743000   0.81242157   -7.1479579    795.31763  0.024162038  0.023799968            4 
 2744000   0.79630747   -7.1302127    796.18662  0.024179623  0.023793649            5 
 2745000   0.81573258   -7.1755219    796.45457  0.024178949  0.023787323            5 
 2746000   0.80542439   -7.1331631    797.18983  0.024192457  0.023781006            4 
 2747000   0.82040232   -7.1324535    798.71209  0.024229829  0.023774688            2 
 2748000   0.80937637   -7.1524206    798.07152  0.024201587  0.023768358            4 
 2749000   0.80449343   -7.1155766    799.28305  0.024229509  0.023762004            7 
 2750000   0.81411786   -7.1218299    797.13224  0.024155523  0.023755689            7 
 2751000   0.81832403   -7.1428575    795.91377  0.024109832  0.023749357            5 
 2752000   0.82564589   -7.1454824    798.27778  0.024172656  0.023743035           12 
 2753000   0.80806088   -7.1227786    797.23933  0.024132441  0.023736714            3 
 2754000    0.8256441   -7.1531622    796.90144  0.024113454  0.023730419            7 
 2755000   0.80010222   -7.1200098    800.19142  0.024204217  0.023724125            4 
 2756000   0.81990821   -7.1220875    798.65971  0.024149121  0.023717876            6 
 2757000   0.81055112   -7.1483984     800.2462  0.024188315  0.023711628            4 
 2758000   0.79713884   -7.1477728    798.18585  0.024117291  0.023705334            5 
 2759000   0.77598625   -7.1352457    799.53935  0.024149431  0.023699013            5 
 2760000   0.81208318   -7.1358398    800.88517  0.024181316  0.023692732            6 
 2761000   0.79609543   -7.1319691    798.54561  0.024101944  0.023686455            5 
 2762000   0.80712102   -7.1381167    800.46968   0.02415127  0.023680178            8 
 2763000   0.79615509   -7.1397504    800.66476  0.024148412  0.023673883            3 
 2764000    0.8008139   -7.1374003    800.87458  0.024146002  0.023667568            3 
 2765000    0.8218382   -7.1227511    798.87532  0.024077014  0.023661265           10 
 2766000   0.81016226   -7.1516382    798.85149  0.024067591  0.023654963            7 
 2767000   0.80649916   -7.1499477    799.17677   0.02406869  0.023648647            8 
 2768000   0.79838475   -7.1429289    799.24699  0.024062108  0.023642331            9 
 2769000   0.78649179   -7.1401448    799.10733  0.024049215   0.02363604            9 
 2770000   0.80237529   -7.1134439    800.43396  0.024080444  0.023629789            5 
 2771000   0.81237101   -7.1349603    800.04104  0.024059937  0.023623504            6 
 2772000   0.80592433   -7.1290675    799.61462  0.024038438  0.023617199            5 
 2773000   0.79435191   -7.1201998    800.18512  0.024046914  0.023610918            7 
 2774000   0.81553525   -7.1446297    801.34448  0.024073074   0.02360464            9 
 2775000   0.78870517   -7.1409032    799.69843  0.024014968   0.02359838            9 
 2776000   0.81068618   -7.1489657    800.94002  0.024043588   0.02359212            9 
 2777000   0.80168475    -7.149504    801.92981  0.024064632  0.023585837            9 
 2778000   0.80480527   -7.1354847    801.18369  0.024033588  0.023579584           13 
 2779000    0.8177603    -7.126503    801.30952  0.024028713  0.023573327            6 
 2780000   0.80677373   -7.1761146    800.58637  0.023998392  0.023567099            4 
 2781000   0.81516168   -7.1359537    802.34688  0.024042517  0.023560872            5 
 2782000   0.80522805   -7.1527506    801.97806  0.024022827  0.023554661            6 
 2783000   0.79937263   -7.1177994    802.58815  0.024032463   0.02354847           10 
 2784000   0.79979552   -7.1379929    800.71188  0.023967669   0.02354229           12 
 2785000   0.79543124   -7.1357901    803.69968  0.024048464  0.023536107            3 
 2786000   0.81552298   -7.1188349     803.7038  0.024039956  0.023529944           12 
 2787000   0.81311521   -7.1251114    802.95771  0.024009021  0.023523776           14 
 2788000   0.81258479    -7.162071    802.00755  0.023972009  0.023517615            7 
 2789000   0.82548038   -7.1427869    803.63788  0.024012127  0.023511398           17 
 2790000   0.80503141   -7.1676613    803.56265  0.024001274  0.023505223            6 
 2791000   0.78792301    -7.146903    803.24132   0.02398308  0.023499043            7 
 2792000   0.79332992   -7.1369227    801.50836  0.023922766  0.023492863           18 
 2793000   0.80646831   -7.1514122    801.63847  0.023918083  0.023486632           15 
 2794000    0.8086763   -7.1693552     800.8804  0.023886913  0.023480352            4 
 2795000   0.78725425   -7.1544426    802.74573  0.023933981  0.023474088            6 
 2796000   0.78952689   -7.1523208    800.46314   0.02385739  0.023467819           11 
 2797000   0.81365572   -7.1309704    803.29351  0.023933188  0.023461546            5 
 2798000   0.79736845   -7.1886753    799.60293  0.023814717  0.023455279            8 
 2799000    0.7987524    -7.168585    803.17697  0.023912617  0.023449012            8 
 2800000   0.80292572   -7.1616234    802.93133  0.023896766   0.02344277            5 
 2801000   0.81483792   -7.1504233    803.70524  0.023911259  0.023436544            7 
 2802000   0.81572162   -7.1197449    802.83131  0.023876734  0.023430311            4 
 2803000   0.79125612   -7.1426694    804.02172  0.023903607   0.02342411            6 
 2804000   0.79343262   -7.1494531    803.87616  0.023890756  0.023417909            7 
 2805000   0.80999541    -7.144454    803.32394  0.023865833  0.023411699           21 
 2806000   0.82021637   -7.1373645    802.31566  0.023827384  0.023405485            6 
 2807000   0.78787373   -7.1238329     806.0085  0.023928527  0.023399281            6 
 2808000   0.81171563   -7.1386299    804.49491  0.023875087  0.023393069            5 
 2809000   0.81084012   -7.1592018    803.93507  0.023849978  0.023386845           12 
 2810000   0.79806167    -7.122872    802.25877  0.023791778  0.023380609            7 
 2811000   0.80956526   -7.1232054    805.13035  0.023868444  0.023374423            8 
 2812000   0.79393196   -7.1385746    803.81609  0.023821008  0.023368248           16 
 2813000   0.79436476   -7.1292362     806.3006  0.023886142  0.023362078            7 
 2814000   0.78939872   -7.1388645    804.80761   0.02383344  0.023355905            3 
 2815000   0.79964503   -7.1382501    804.35545  0.023811588  0.023349749            5 
 2816000   0.78499946   -7.1696595    802.96318  0.023761931  0.023343541            5 
 2817000   0.81213022   -7.1901572    805.06253    0.0238156  0.023337334           10 
 2818000   0.79056189   -7.1390819    806.19438  0.023840619  0.023331124            3 
 2819000   0.81800143   -7.1714559    806.06737  0.023828407  0.023324943            4 
 2820000   0.79512672    -7.132814    806.03115  0.023818888  0.023318746           10 
 2821000   0.80546642   -7.1526768    804.55378  0.023766802  0.023312504            9 
 2822000   0.81948775   -7.1482233     804.9664  0.023770565  0.023306277            5 
 2823000   0.79319419   -7.1566834    804.87298  0.023759387  0.023300082            7 
 2824000   0.79726865   -7.1509309    806.31149  0.023793422  0.023293909            8 
 2825000   0.81892954   -7.1395939    806.63347  0.023794498  0.023287724            6 
 2826000   0.78077544   -7.1402751    805.87902   0.02376383  0.023281586            6 
 2827000   0.79107822   -7.1404394    806.87376  0.023784747  0.023275424            3 
 2828000   0.79153343   -7.1404607    806.80699  0.023774369  0.023269279            4 
 2829000   0.80311535   -7.1538038    805.17541  0.023717904   0.02326316            5 
 2830000   0.78615953   -7.1211938    807.74936  0.023785317  0.023257064            4 
 2831000   0.79958757   -7.1501455    806.57536  0.023742357  0.023250912            5 
 2832000   0.79602329   -7.1421896    804.87407  0.023683912  0.023244759            4 
 2833000   0.79341433   -7.1600094    806.29516  0.023717354  0.023238598            5 
 2834000   0.79006465   -7.1805868    806.73292  0.023721857  0.023232425            8 
 2835000   0.81716176    -7.147197    807.16484  0.023726186  0.023226261            7 
 2836000   0.81482579   -7.1413102    808.39637  0.023754007  0.023220125            7 
 2837000   0.79233758   -7.1622434    806.46766  0.023688981  0.023213967            6 
 2838000   0.79365304   -7.1845793    804.73376  0.023629721  0.023207772            5 
 2839000   0.78990119   -7.1807724    807.28024  0.023696144  0.023201588            6 
 2840000   0.80469436   -7.1629704    804.79679  0.023614929  0.023195402           10 
 2841000   0.79172586   -7.2043901    805.65463  0.023631779  0.023189233           13 
 2842000    0.7924688   -7.1428935    807.11856   0.02366639  0.023183063           10 
 2843000   0.79281087   -7.1648368    806.30585  0.023634243  0.023176924           13 
 2844000   0.80089698   -7.1663182    807.08412  0.023648738  0.023170753           15 
 2845000    0.7982779   -7.1565398     807.2105  0.023644127  0.023164551            7 
 2846000   0.80470056   -7.1635534    806.79805  0.023623742  0.023158364            8 
 2847000   0.78360979    -7.186093    808.44279  0.023663587  0.023152174            7 
 2848000   0.78228058   -7.1836758    806.39067  0.023595233  0.023145996            4 
 2849000   0.80458789   -7.1938038    808.74235  0.023655737  0.023139799            3 
 2850000   0.80930593    -7.159357    806.43735   0.02358004  0.023133605           14 
 2851000   0.80926479   -7.1852511    805.97536  0.023558265  0.023127393            4 
 2852000    0.8066645   -7.1415054    808.16479  0.023613978  0.023121196            4 
 2853000   0.79859711   -7.1831541    805.32021  0.023522614  0.023114995           10 
 2854000   0.78349509   -7.1853786    806.91845  0.023561039  0.023108764            5 
 2855000   0.78189455   -7.1670672    806.90155  0.023552293  0.023102554            4 
 2856000   0.78555736   -7.1775865    807.22779  0.023553565   0.02309634            7 
 2857000   0.80258948     -7.19127    806.09068  0.023512154  0.023090107            3 
 2858000   0.83578857   -7.1500576    808.04064  0.023560784  0.023083926            2 
 2859000   0.78441023   -7.1760093    807.89255  0.023548226  0.023077762            6 
 2860000   0.78626159   -7.1496198    806.51105  0.023499739  0.023071606            9 
 2861000   0.77971986   -7.1424558    806.66767  0.023496087  0.023065461           18 
 2862000   0.80118788   -7.1899395    808.01067  0.023526982  0.023059316           10 
 2863000   0.80049922   -7.2067274    807.46245  0.023502807  0.023053126            9 
 2864000   0.79636668   -7.1856253    807.94258  0.023508571  0.023046928           18 
 2865000   0.78761346   -7.1565243     807.9989  0.023502004  0.023040781           14 
 2866000   0.79112913   -7.1595811    808.49094   0.02350811  0.023034631            7 
 2867000   0.81139421   -7.1740336    806.67618  0.023447163  0.023028448           10 
 2868000   0.78521975   -7.1810539    807.94705  0.023475914  0.023022264            8 
 2869000    0.8185553   -7.1686741    808.45618  0.023482519  0.023016075            5 
 2870000   0.77181924   -7.1394527    810.23867  0.023526094   0.02300993            5 
 2871000   0.80250935   -7.1697349    811.57966  0.023556823  0.023003794            5 
 2872000   0.79833064   -7.1612856    808.50061   0.02345928  0.022997659           12 
 2873000   0.79009251   -7.1853412    807.31561  0.023416742  0.022991485            2 
 2874000   0.77603898   -7.1818578    809.51911  0.023472486  0.022985345            6 
 2875000   0.78606223   -7.1695211    808.87516  0.023445657  0.022979185            5 
 2876000   0.78705021   -7.1842784    809.17342  0.023446147  0.022973043            7 
 2877000   0.77863877   -7.1948456    809.32283  0.023442325  0.022966897           11 
 2878000    0.7861585   -7.2082759    808.30951  0.023404839  0.022960748            7 
 2879000    0.7872841   -7.1921073    807.71839  0.023379599  0.022954594            7 
 2880000    0.7885365   -7.2065531    810.70009  0.023457757  0.022948442           10 
 2881000   0.78569499   -7.1931639    810.05986  0.023431096  0.022942292           12 
 2882000   0.77293492    -7.180112    811.52599  0.023465359   0.02293618            7 
 2883000   0.80016571   -7.1806077    810.59094  0.023430193  0.022930068            3 
 2884000   0.80346222   -7.1682456    809.09194  0.023378755  0.022923974            6 
 2885000    0.7765149   -7.1735139    811.60352  0.023443198  0.022917867            8 
 2886000   0.78498505    -7.193289    808.91235  0.023357367  0.022911765           15 
 2887000    0.7934457   -7.2108453    812.56705   0.02345477  0.022905628            4 
 2888000   0.78985332   -7.1764934    810.51074  0.023387314  0.022899511            6 
 2889000   0.79879319   -7.1892605    812.21229    0.0234283  0.022893426            6 
 2890000   0.78271902   -7.1771863    810.13223  0.023360214  0.022887348            6 
 2891000   0.78640007   -7.2104746    812.01929  0.023406529  0.022881259           11 
 2892000   0.78465117    -7.178898    812.92787  0.023424616  0.022875169            6 
 2893000   0.79653237   -7.1644643    810.60481  0.023349603  0.022869096           23 
 2894000   0.79348441   -7.1725093    810.76431  0.023346127  0.022862959           10 
 2895000   0.79451199    -7.179889    811.47895  0.023358634  0.022856872            5 
 2896000    0.7875007   -7.1886599    811.14567  0.023340978  0.022850806            7 
 2897000   0.79353668   -7.2037182     812.5155  0.023372325  0.022844743           20 
 2898000   0.79479442   -7.1814675     812.4389  0.023362057  0.022838668           15 
 2899000   0.79594149   -7.2076451     812.4312  0.023353777  0.022832603            6 
 2900000   0.77987511   -7.1922925    811.87443  0.023329725  0.022826521            9 
 2901000    0.7862626   -7.2056342    812.48203  0.023339137  0.022820464            8 
 2902000   0.76009442   -7.1821404    812.22129  0.023323607  0.022814419            5 
 2903000   0.78651759   -7.1848585      813.548  0.023353657  0.022808397            7 
 2904000   0.77832627   -7.1963634    812.64637  0.023319742  0.022802376            6 
 2905000   0.78828298   -7.2003574    811.75789  0.023286227  0.022796348           10 
 2906000   0.77484555    -7.205066    811.85931  0.023281123  0.022790285            7 
 2907000   0.79281624   -7.2096369    812.78761  0.023299725  0.022784227            5 
 2908000   0.79244303   -7.2055656    810.76358  0.023233711  0.022778148            9 
 2909000   0.80287931   -7.2163611    810.54798  0.023219548  0.022772101           11 
 2910000   0.79143605   -7.1836605     813.3608  0.023292119  0.022766004           12 
 2911000   0.78364368   -7.2198641    811.22426  0.023222955  0.022759917            5 
 2912000   0.77346795   -7.2388485    815.05488  0.023324602  0.022753861            4 
 2913000    0.7714253   -7.2034451    813.97353   0.02328566  0.022747801            8 
 2914000   0.77462356   -7.2094578    813.06498  0.023251687  0.022741749            8 
 2915000   0.78307689   -7.1854902    813.28483  0.023249995  0.022735685           11 
 2916000   0.79252198    -7.206941    814.09792  0.023265258   0.02272965           10 
 2917000   0.79198961   -7.1642715     815.1571  0.023287541  0.022723618            4 
 2918000   0.78268643   -7.1969337    814.67725  0.023265857  0.022717611           10 
 2919000   0.78905749   -7.2132357    816.41388  0.023307465  0.022711602            8 
 2920000    0.7880194   -7.1808505    816.20184  0.023293431  0.022705593            3 
 2921000   0.79284888   -7.2120442    814.06049  0.023224366  0.022699572            5 
 2922000   0.78331087   -7.1828224    816.32126  0.023280894  0.022693566           10 
 2923000   0.76804016    -7.205515    814.22456  0.023213153  0.022687562            6 
 2924000   0.79348819   -7.2003758    813.54396  0.023185817  0.022681569            6 
 2925000   0.78312329   -7.1851624    814.96487  0.023218372  0.022675576           13 
 2926000   0.80111798   -7.2112755    814.82174  0.023206361  0.022669572            8 
 2927000   0.77139017   -7.2012944    814.22766  0.023181519  0.022663533           14 
 2928000    0.7738233    -7.192684    815.53623  0.023210844  0.022657539           12 
 2929000   0.76801092   -7.1951835    815.94513  0.023214554  0.022651541            7 
 2930000   0.75660156   -7.1850064    815.50503  0.023194114  0.022645506            8 
 2931000   0.78927922   -7.2218011    815.20063  0.023177546  0.022639501            7 
 2932000   0.76632406   -7.1976842    813.80871  0.023130079  0.022633452           18 
 2933000   0.76688875   -7.2007867    815.59456  0.023172933   0.02262742            7 
 2934000   0.78528025   -7.1788998    814.55216  0.023135428  0.022621409           17 
 2935000   0.78305025   -7.2022946    814.14837  0.023116081  0.022615416           10 
 2936000   0.78820702   -7.1867354    815.41838  0.023144255  0.022609395           12 
 2937000    0.7850323   -7.1872634    814.67429  0.023115262  0.022603346            8 
 2938000   0.78161482    -7.200944    814.24322  0.023095167  0.022597288            8 
 2939000   0.78164189   -7.1926737    814.39718  0.023091675  0.022591215           12 
 2940000   0.76384369   -7.1954461    817.22857  0.023164075  0.022585192            5 
 2941000   0.77418557   -7.2031471    816.55135   0.02313701  0.022579179            7 
 2942000   0.76943721   -7.2018195    815.90299   0.02311078   0.02257315           18 
 2943000   0.77801891   -7.1879901    815.32513  0.023086565   0.02256712           22 
 2944000   0.79148528   -7.1964081    817.14561  0.023130254   0.02256113           19 
 2945000   0.78672188   -7.1847097    816.66242  0.023108727  0.022555135           17 
 2946000   0.78187679   -7.2210388    817.86463   0.02313489  0.022549126           10 
 2947000   0.77633904   -7.1719919    817.70029  0.023122393  0.022543147            9 
 2948000   0.77218789   -7.2185881    816.12296  0.023069962   0.02253714            4 
 2949000   0.77704077   -7.2310766    816.23799  0.023065389  0.022531104            7 
 2950000   0.79123443   -7.1984449    816.91131  0.023076591  0.022525096            6 
 2951000   0.76114825   -7.1786633    816.91216  0.023068795  0.022519075            8 
 2952000   0.79908346    -7.182318    816.65194  0.023053634  0.022513067            5 
 2953000   0.79237325   -7.2180751    818.07658  0.023086031  0.022507057           13 
 2954000   0.78062847   -7.1961215     818.2606  0.023083407  0.022501031            9 
 2955000   0.78605107   -7.1964071    818.87768  0.023092997  0.022495026            7 
 2956000   0.78852659   -7.2035126    816.66162  0.023022712  0.022489021            6 
 2957000   0.78792054   -7.2194062    816.73774  0.023017071  0.022483013            5 
 2958000   0.77583578   -7.2350108    815.72245  0.022980686  0.022476978            8 
 2959000   0.77439237   -7.2028182    818.84577  0.023060881  0.022470974            8 
 2960000   0.78577098   -7.2252406    817.60396  0.023018129  0.022464966           17 
 2961000   0.77084781   -7.1861253    817.63843  0.023011326  0.022458937            8 
 2962000   0.77059625   -7.1871218    819.54042  0.023057068  0.022452951           14 
 2963000   0.77317326   -7.1963014    818.72719  0.023026414  0.022446975            9 
 2964000   0.77018238   -7.2034191    816.60031  0.022958848  0.022440997            4 
 2965000   0.77068173   -7.1776406    817.49408  0.022976225   0.02243502            8 
 2966000    0.7641522   -7.1950698    817.88434  0.022979443  0.022429028            8 
 2967000   0.77468771   -7.2107493    817.35149  0.022956732  0.022423047            9 
 2968000    0.7803383   -7.1915838    818.00386  0.022967314   0.02241706           10 
 2969000    0.7450966   -7.2032309    818.12717   0.02296304  0.022411051           10 
 2970000   0.76173524   -7.2379351    817.14211  0.022927669  0.022405064            9 
 2971000   0.75716607   -7.2038053    815.56369  0.022875679  0.022399072            8 
 2972000   0.78656702   -7.1879238    816.04105  0.022881366  0.022393063           11 
 2973000   0.79255376   -7.2084137    819.05493  0.022958149  0.022387048           10 
 2974000    0.7708511   -7.1885044    821.50191  0.023018996  0.022381052            6 
 2975000   0.77759729   -7.2271127    817.58364  0.022901503  0.022375031            8 
 2976000   0.78138302   -7.2071222    815.62862  0.022839063  0.022368995            9 
 2977000   0.77600206   -7.1861466    818.12834  0.022901364  0.022362991            3 
 2978000   0.77432065   -7.2236107    817.81696  0.022884961   0.02235697            5 
 2979000    0.7670086   -7.2257132    817.19851  0.022859978   0.02235095            5 
 2980000   0.77628909   -7.2236448    817.83442   0.02287009  0.022344909            9 
 2981000   0.77833878    -7.192199    817.52204  0.022853686   0.02233888            5 
 2982000   0.77220314   -7.2452137    817.83634  0.022854805  0.022332825            6 
 2983000   0.76406694   -7.2231913     817.2608  0.022831065  0.022326799           19 
 2984000   0.76915034   -7.2166345    817.47092  0.022829282  0.022320758            7 
 2985000   0.77133121   -7.2251569    817.74506  0.022829287  0.022314747           14 
 2986000   0.76412522   -7.2250894    817.91777  0.022826461  0.022308763           12 
 2987000    0.7691232   -7.1877777    817.65565  0.022811507  0.022302775            5 
 2988000   0.77900122     -7.22364    819.93135   0.02286734  0.022296797            7 
 2989000    0.7832159   -7.1800304    819.13307  0.022837434  0.022290795            9 
 2990000   0.77301038   -7.2116213    818.41083  0.022809666  0.022284809            9 
 2991000   0.76576825   -7.2155188     820.1762  0.022851226  0.022278818           11 
 2992000   0.77941874   -7.1855668    817.99971  0.022782969  0.022272807            7 
 2993000   0.78380692   -7.2018389    818.63231   0.02279297   0.02226683           12 
 2994000   0.79031401   -7.2316196    818.57511  0.022783765  0.022260815           11 
 2995000   0.78365934   -7.2381474    818.23247  0.022766624  0.022254764           14 
 2996000   0.77352926   -7.2147022    820.41074  0.022819613  0.022248739           13 
 2997000   0.77535342   -7.2285141    821.17162  0.022833156  0.022242718            4 
 2998000   0.77374335   -7.2147229    820.60372  0.022809754  0.022236725            4 
 2999000    0.7735182   -7.2418296    819.75357  0.022778525  0.022230719           10 
 3000000    0.7671355   -7.2172683    819.28464  0.022757907  0.022224719            6 
 3001000   0.75902717   -7.2240026    820.80968  0.022792671  0.022218708            7 
 3002000   0.77041382   -7.2178847    818.45493  0.022719713  0.022212697            6 
 3003000   0.76050451   -7.2474222    819.03852  0.022728342  0.022206664           12 
 3004000   0.76156579   -7.2159493    819.84751  0.022743218  0.022200621            7 
 3005000   0.75556921    -7.238757    817.93615  0.022682644   0.02219457            7 
 3006000   0.78406764   -7.2564007    817.65854  0.022667402  0.022188525            7 
 3007000   0.77409172   -7.2328498    818.17415  0.022674153  0.022182477           11 
 3008000   0.78552286   -7.2249812    819.12841  0.022693052  0.022176451            7 
 3009000   0.78216928   -7.2229399    819.34709  0.022691567   0.02217043            9 
 3010000   0.76610532   -7.2213382    819.02683  0.022675162  0.022164441           11 
 3011000   0.76144484   -7.2267675    819.20336  0.022672516  0.022158438            6 
 3012000   0.75301068   -7.1950413    820.07802  0.022689188  0.022152447            7 
 3013000   0.76211043   -7.2180191    818.99826  0.022651794  0.022146394            8 
 3014000   0.76757265   -7.2449134    820.70174  0.022691378  0.022140362            5 
 3015000   0.75182965   -7.2150818    819.27676  0.022644465  0.022134298            7 
 3016000   0.76605209   -7.2378923    818.73968  0.022622117  0.022128262           22 
 3017000   0.76113429    -7.236013    821.26348   0.02268433   0.02212224            7 
 3018000   0.74455517   -7.2444701    819.79922  0.022636382  0.022116204            5 
 3019000   0.76141182   -7.2222773    822.35378  0.022699398   0.02211019           13 
 3020000   0.76547057   -7.2317465    820.94501  0.022653008  0.022104185            6 
 3021000   0.78146801   -7.2241068    820.24543  0.022626212  0.022098167            9 
 3022000    0.7814753   -7.2160819    820.13917  0.022615795  0.022092136            5 
 3023000   0.76629598   -7.2327869     820.5908  0.022620763  0.022086117            8 
 3024000   0.76846403    -7.209025    819.65689  0.022587547  0.022080096           11 
 3025000   0.77433455   -7.2184307    819.18448  0.022567066  0.022074057           13 
 3026000   0.77024961   -7.2360487    820.23545  0.022588551  0.022068028           14 
 3027000    0.7589522   -7.2106323    820.14479  0.022578592  0.022061998           11 
 3028000   0.77256454   -7.2295709    820.30612  0.022575576  0.022055954            5 
 3029000   0.76586809   -7.2105962    822.22056  0.022620792  0.022049944            9 
 3030000   0.75022235   -7.2216202    819.75265  0.022545452  0.022043947           11 
 3031000   0.75758067   -7.2273973    820.66615  0.022563129  0.022037917            5 
 3032000   0.77176105   -7.2266737    820.36876  0.022547514  0.022031884            7 
 3033000   0.76577859   -7.2295205    820.47393   0.02254297  0.022025831            7 
 3034000    0.7571534   -7.2215984    821.50193  0.022563775  0.022019785            3 
 3035000   0.76647187   -7.2082028    820.42203  0.022526689  0.022013737           13 
 3036000   0.76885697   -7.2198448    821.50346  0.022548953  0.022007695            9 
 3037000   0.78082524   -7.1952078    820.61383  0.022517117  0.022001665           12 
 3038000   0.77050227   -7.2143205    818.80222  0.022460013  0.021995633           11 
 3039000   0.77344437   -7.2229405    819.73428   0.02247818  0.021989612           19 
 3040000   0.76743301   -7.2658196    817.76967  0.022416932  0.021983567           10 
 3041000   0.77017186   -7.2215706    820.31315   0.02247926  0.021977498            8 
 3042000    0.7838501   -7.2138455    820.07102  0.022465237  0.021971458            6 
 3043000   0.77282192   -7.2404803    818.44106  0.022413218  0.021965378           10 
 3044000   0.78589612   -7.2550639    817.16269  0.022370858   0.02195925           12 
 3045000    0.7555898   -7.2640519    817.60882   0.02237572  0.021953126            8 
 3046000   0.77290684   -7.2477749    821.13069  0.022464727  0.021947022           13 
 3047000   0.75624991   -7.2521307    820.54253  0.022441268  0.021940935            8 
 3048000   0.76387428    -7.211699    821.07837  0.022448556  0.021934884            8 
 3049000   0.75242042   -7.2219153    821.09781  0.022441724  0.021928862            7 
 3050000   0.75410529   -7.2315901    820.22646  0.022410559  0.021922813            7 
 3051000   0.78301851    -7.252636    820.35494  0.022406723  0.021916755            8 
 3052000   0.77336595   -7.2654493    819.45476  0.022374802  0.021910683           14 
 3053000   0.76375818   -7.2306826    821.45136  0.022421972  0.021904619           11 
 3054000   0.76663612   -7.2356939    820.35262  0.022384649  0.021898563           10 
 3055000   0.76088077   -7.2368276    820.42663  0.022379341  0.021892502            5 
 3056000   0.77014832   -7.2512585    820.17071  0.022365039  0.021886441            7 
 3057000    0.7596612   -7.2344825    820.98979  0.022380051  0.021880385            8 
 3058000    0.7471799   -7.2532532    822.40805  0.022411381  0.021874318           15 
 3059000   0.75374592   -7.2456999    822.55318  0.022408008  0.021868237            8 
 3060000   0.76939726   -7.2481489    820.53601  0.022345752  0.021862184            6 
 3061000   0.76929437   -7.2480156    821.34443   0.02236046  0.021856096            7 
 3062000   0.77522896    -7.221842    822.24047  0.022377544  0.021850038            7 
 3063000   0.75748359   -7.2409219    820.70164  0.022328372  0.021843997            4 
 3064000   0.74115374   -7.2435346      822.423  0.022367901  0.021837925            4 
 3065000   0.76868188   -7.2666379    822.99785  0.022376233  0.021831863            9 
 3066000   0.75458803   -7.2675047    820.07733  0.022289556  0.021825806            4 
 3067000   0.76011002   -7.2146169    822.32792  0.022343439  0.021819761            6 
 3068000   0.75215034   -7.2301473    822.35046  0.022336768  0.021813694            7 
 3069000   0.76117132   -7.2244475    821.95501  0.022318752  0.021807608            5 
 3070000   0.76373479    -7.260538    821.36838  0.022295559  0.021801538            7 
 3071000   0.75066476   -7.2472038     818.9735  0.022223312  0.021795431            7 
 3072000   0.75273402    -7.268899    821.25715  0.022278026  0.021789354           12 
 3073000   0.74474122   -7.2303074    822.68229  0.022309423  0.021783279            7 
 3074000    0.7668601   -7.2327584    822.64365  0.022301118  0.021777241           12 
 3075000   0.77532549   -7.2387136    822.66749  0.022294512  0.021771199           12 
 3076000   0.75686113   -7.2425684    823.05329  0.022297716  0.021765156           10 
 3077000   0.75410117   -7.2509803    822.91722  0.022286784  0.021759101            5 
 3078000   0.75301257   -7.2459801     820.8404  0.022223316  0.021753053            9 
 3079000    0.7595799   -7.2564954    820.81409  0.022215386  0.021746935            5 
 3080000   0.75054504   -7.2727781    820.50779  0.022199886  0.021740817            7 
 3081000   0.76915598   -7.2377541    822.03593  0.022234013  0.021734738           12 
 3082000   0.76645005   -7.2478734    822.17185  0.022230474  0.021728684            9 
 3083000   0.75443376   -7.2613834    821.69509  0.022210377  0.021722626            8 
 3084000   0.76261443   -7.2564798    823.41285  0.022249591  0.021716618            7 
 3085000   0.76036128   -7.2266112    823.33677  0.022240323  0.021710579            7 
 3086000     0.759708   -7.2401236    824.05787  0.022252589  0.021704597            3 
 3087000   0.75821996   -7.2458638    822.85839     0.022213  0.021698601            6 
 3088000    0.7671117   -7.2274671    820.47822  0.022141575  0.021692592            8 
 3089000   0.75612041   -7.2698674    821.50286   0.02216205  0.021686549            6 
 3090000   0.74827245   -7.2287958    821.86217  0.022164568  0.021680482            3 
 3091000   0.76421288    -7.277353    820.76814  0.022127902  0.021674412            7 
 3092000     0.745077   -7.2248688    822.62891  0.022170896  0.021668363            4 
 3093000   0.76483433   -7.2448852     823.5392  0.022188253  0.021662338            9 
 3094000    0.7621875   -7.2573294    823.10992  0.022169519  0.021656313            6 
 3095000   0.74994328    -7.266888    821.03765   0.02210656  0.021650244            5 
 3096000    0.7686376   -7.2549646    820.90082  0.022095737  0.021644151            8 
 3097000   0.75534528   -7.2462545    822.80264  0.022139776  0.021638057           13 
 3098000   0.76026707   -7.2404424    821.88728  0.022108007  0.021632019           20 
 3099000   0.76173751   -7.2227588    823.25483  0.022137647  0.021625978           13 
 3100000   0.74976053   -7.2665629    823.38389  0.022133976  0.021619942            7 
 3101000   0.75409509   -7.2472394    823.52713  0.022130687  0.021613898           11 
 3102000   0.77065848   -7.2492227    823.01384  0.022109764  0.021607901            5 
 3103000    0.7520389   -7.2423059    823.99532  0.022128997  0.021601876            7 
 3104000   0.74113588   -7.2598775    823.28541  0.022102808  0.021595885            3 
 3105000   0.75916102   -7.2482274    825.10081  0.022144412  0.021589871            5 
 3106000   0.77268492   -7.2559274    823.55042  0.022095686  0.021583818           11 
 3107000   0.74918029   -7.2613888    824.81008   0.02212236   0.02157777           20 
 3108000   0.77161083   -7.2502334    822.23732   0.02204626  0.021571715           18 
 3109000   0.75936716   -7.2784036    821.21395  0.022011739  0.021565652            4 
 3110000   0.75409465   -7.2588366    823.32445  0.022061213  0.021559602            8 
 3111000   0.76464241   -7.2490592    823.77852  0.022066284  0.021553579            4 
 3112000   0.76285612   -7.2520006    824.38883  0.022075536   0.02154757            5 
 3113000   0.74627357   -7.2820587    822.77303  0.022025191  0.021541552            6 
 3114000   0.74203182   -7.2402268     822.1826  0.022002317  0.021535506           12 
 3115000   0.76499285   -7.2463989    822.65351  0.022007852  0.021529477            4 
 3116000   0.74627289   -7.2877828    821.89655  0.021980545  0.021523443            7 
 3117000   0.75563027   -7.2834513    822.72023  0.021995515   0.02151739            8 
 3118000   0.75161757    -7.277805    824.67341  0.022040662  0.021511313           10 
 3119000   0.74802693   -7.2669882    823.13498  0.021992492   0.02150525           12 
 3120000   0.74287457    -7.260929    825.15584  0.022039419  0.021499208           10 
 3121000   0.74339145   -7.3003747    823.26695  0.021981922  0.021493159            8 
 3122000   0.74335841   -7.2687723    823.87652  0.021991152  0.021487115           11 
 3123000    0.7579509   -7.2655771    823.83002  0.021982869  0.021481092            6 
 3124000   0.75403252   -7.2624888    824.16782  0.021984844  0.021475089           12 
 3125000   0.76450335    -7.278133    824.53487  0.021987596  0.021469093            7 
 3126000    0.7614516    -7.246825    822.70947  0.021931901  0.021463107            7 
 3127000   0.75286626   -7.2745058    823.29366  0.021940456  0.021457095            8 
 3128000   0.74607574    -7.267737    823.84708  0.021948185  0.021451068            6 
 3129000   0.74614354   -7.2701896    825.08641  0.021974177  0.021445036            5 
 3130000   0.74262912   -7.2994858    822.96974  0.021910803  0.021438995            3 
 3131000   0.74881615   -7.2715777    823.00749  0.021904809  0.021432952            5 
 3132000   0.77197108   -7.2575853    824.72078  0.021943401  0.021426927            8 
 3133000   0.75627041   -7.2516897    825.29905  0.021951778  0.021420954            7 
 3134000   0.75645876   -7.2083605    826.94127   0.02198844  0.021414983            9 
 3135000   0.75916302   -7.2227659    825.08657  0.021932126  0.021409033           10 
 3136000   0.73857296   -7.2465212    827.27177    0.0219832  0.021403094            6 
 3137000   0.76065219   -7.2541706    823.54636  0.021877228  0.021397126            8 
 3138000   0.75275895   -7.2424767    824.71362  0.021901254  0.021391162            8 
 3139000   0.75018036   -7.2270922    824.20322  0.021880727  0.021385204           16 
 3140000   0.74023372   -7.2816877    824.44063  0.021880059  0.021379228           12 
 3141000   0.76157865   -7.2763691    826.22033   0.02192031  0.021373243            8 
 3142000   0.72351938   -7.2698598    824.96681  0.021880087  0.021367247            9 
 3143000    0.7482259   -7.2548716    824.43795  0.021859104  0.021361251            8 
 3144000   0.74989257   -7.2736496    824.84057  0.021862823  0.021355238           11 
 3145000   0.73984941    -7.269863    824.67538  0.021851494  0.021349216           11 
 3146000   0.75552043   -7.2652347    824.73654  0.021846168  0.021343209            4 
 3147000   0.72519152   -7.2760131    826.57984  0.021888037  0.021337226            3 
 3148000   0.75345412   -7.2625951    826.73639  0.021885228  0.021331259           15 
 3149000   0.75137949   -7.2678187    826.25351    0.0218655  0.021325305           12 
 3150000    0.7506869   -7.2706994    826.37359  0.021861735  0.021319366            6 
 3151000    0.7650721   -7.2663467    824.64231  0.021809011  0.021313414            9 
 3152000   0.75881107   -7.2820101    825.51216  0.021825089  0.021307443            5 
 3153000    0.7362782   -7.2589695    825.20706  0.021810103  0.021301498            5 
 3154000   0.74649691   -7.2476382    828.15541  0.021881088  0.021295552           20 
 3155000    0.7348217   -7.2748231    826.17525   0.02182185  0.021289581           18 
 3156000   0.75173725   -7.2807005    828.53007  0.021877114  0.021283635            6 
 3157000   0.73303739   -7.2670467    827.89484  0.021853417  0.021277702           21 
 3158000   0.74462812    -7.303198    826.60418  0.021812439   0.02127178           10 
 3159000   0.74912588   -7.2829757    827.99921  0.021842334  0.021265841           14 
 3160000   0.73813661   -7.2975495    826.65472  0.021799966  0.021259908           19 
 3161000   0.74881908   -7.2627444    826.02886   0.02177657  0.021253963           11 
 3162000   0.75877872   -7.2872763    825.02299  0.021743174  0.021248016           14 
 3163000   0.73365553   -7.2704578    827.53389  0.021802453  0.021242081           11 
 3164000   0.76041384   -7.2677312    827.46875  0.021793846  0.021236174            6 
 3165000   0.74597569   -7.2685107    827.82806  0.021796421  0.021230265            6 
 3166000   0.75360467    -7.259953    828.76505  0.021814199  0.021224366           11 
 3167000   0.74886007   -7.2576434    827.09582  0.021763389  0.021218481           10 
 3168000   0.75843254    -7.262408    828.71621  0.021799143  0.021212596            5 
 3169000   0.74511787   -7.2759243    828.29171  0.021781101  0.021206721           11 
 3170000   0.74346578   -7.2733596    826.57188  0.021729019  0.021200818            9 
 3171000   0.74993998   -7.2791795    829.12964  0.021789384  0.021194925           11 
 3172000   0.73336553   -7.2701998    829.01464  0.021779494  0.021189029           10 
 3173000   0.75520622   -7.2779217    829.17609   0.02177687  0.021183128            8 
 3174000   0.75698086   -7.2742255    828.89801  0.021762708  0.021177232           16 
 3175000   0.75080137   -7.3038502     827.1022  0.021708719  0.021171338            9 
 3176000   0.75239681   -7.2859583    826.24426  0.021679373   0.02116545           18 
 3177000   0.73726579   -7.2917818    827.45185  0.021704224  0.021159536            8 
 3178000   0.72436463   -7.2829404    827.06882  0.021687351  0.021153615           19 
 3179000   0.74717183   -7.2851804    827.48175  0.021691353  0.021147677           15 
 3180000   0.75080507   -7.2521067    828.61424   0.02171421  0.021141766            7 
 3181000   0.75383902   -7.2829545    830.02969  0.021744464  0.021135882            8 
 3182000   0.74713194   -7.2638466    827.70265  0.021676688   0.02112998           15 
 3183000   0.74378251   -7.2787936    826.50114  0.021638421  0.021124098            6 
 3184000   0.74966724   -7.2813437    829.17981  0.021701733  0.021118209            8 
 3185000   0.75780848   -7.2839482    827.58923  0.021653303  0.021112299            6 
 3186000   0.74725978    -7.266403    828.53787  0.021671319  0.021106422            6 
 3187000   0.72741071   -7.2754831    828.78019  0.021670855  0.021100548            6 
 3188000   0.73908926   -7.2569078    829.64995  0.021686793  0.021094653           15 
 3189000   0.74322919     -7.28392    825.72399  0.021577401   0.02108873           19 
 3190000   0.75151838   -7.2876018    826.23943  0.021584102  0.021082801           14 
 3191000   0.75055451   -7.3102569    828.55633  0.021637844  0.021076862           10 
 3192000   0.74971198   -7.3083512    827.03116  0.021591248  0.021070899           12 
 3193000   0.73150968   -7.3056657    825.70538  0.021549885  0.021064908            6 
 3194000   0.74008573   -7.2858243    826.05271    0.0215522  0.021058953           10 
 3195000   0.74897255    -7.276882    826.88542  0.021567173  0.021052986            8 
 3196000   0.73182947   -7.2985396     826.4082  0.021547982  0.021047044           10 
 3197000   0.73102059   -7.2866301    828.70967  0.021601232  0.021041102           17 
 3198000   0.73155045   -7.3007475    829.24577  0.021608447  0.021035154           15 
 3199000   0.74594665    -7.261235    828.42307  0.021580261  0.021029233            7 
 3200000   0.73671258    -7.293431     828.6679  0.021579893  0.021023308            6 
 3201000   0.73300652   -7.2886017    828.33609  0.021564513  0.021017384            7 
 3202000   0.74120723   -7.2763887    829.62059  0.021591208  0.021011492            4 
 3203000   0.74608282    -7.266443     828.1836  0.021547081  0.021005597            6 
 3204000   0.73765969   -7.2536519    829.22325  0.021567396  0.020999708           16 
 3205000    0.7322663    -7.252526     829.4744  0.021567197  0.020993831           16 
 3206000   0.73198761    -7.268829    830.08553  0.021576355  0.020987963           13 
 3207000   0.72672731   -7.3109776    830.50504  0.021580528   0.02098208            5 
 3208000   0.74281017   -7.2838584    829.69742  0.021552822  0.020976189            8 
 3209000   0.73219708   -7.2890374    828.61279  0.021517939   0.02097029            7 
 3210000   0.73658223   -7.2939007    829.86623  0.021543775    0.0209644            7 
 3211000   0.73413673   -7.3091377    826.79929  0.021457471   0.02095849            7 
 3212000   0.74048908   -7.2918986    829.45513  0.021519695  0.020952561           10 
 3213000   0.72754076   -7.2597727    829.10315  0.021503868  0.020946654            5 
 3214000   0.73332844   -7.2519894    827.81196  0.021463699  0.020940751            6 
 3215000   0.73647265   -7.3065041    828.87789  0.021484652  0.020934808           11 
 3216000   0.74467348   -7.3064523    828.63609  0.021471706  0.020928866           17 
 3217000   0.72338073   -7.3117356    826.61407  0.021412653  0.020922937            6 
 3218000   0.74745023   -7.3161498    827.16091   0.02142016  0.020917006           21 
 3219000   0.74045128   -7.2773991    827.81266  0.021430379  0.020911059           10 
 3220000   0.74485169   -7.2928489    829.49856  0.021467354    0.0209051           15 
 3221000   0.74217739   -7.3120595    829.09856  0.021450341  0.020899178           10 
 3222000   0.75965836    -7.302559    829.03835  0.021442126  0.020893275            6 
 3223000   0.73701086    -7.291694    828.49347  0.021421384  0.020887378           17 
 3224000   0.73739063   -7.2922985    827.26725  0.021383045  0.020881469           11 
 3225000   0.74521934   -7.2840576    831.28173  0.021480148  0.020875562            8 
 3226000   0.72666095   -7.2968374    827.72227  0.021381542  0.020869662            9 
 3227000   0.72849489   -7.2743865    829.07347   0.02140981  0.020863737            7 
 3228000   0.74898617   -7.2897392    829.26645  0.021408159  0.020857861           12 
 3229000   0.73684846   -7.2863892    829.70626   0.02141288  0.020851974           10 
 3230000   0.72650881   -7.2916043    828.86196  0.021384467  0.020846104           22 
 3231000   0.75372745   -7.2888164    828.86458  0.021377916  0.020840238           23 
 3232000   0.74113626   -7.2953974    829.07492  0.021376725  0.020834368            7 
 3233000   0.72789843   -7.3089018    829.34706  0.021377128  0.020828477            7 
 3234000   0.75323079   -7.2799549    831.33719  0.021421799  0.020822629            6 
 3235000   0.71904907   -7.2784589    830.57262  0.021395482  0.020816763            6 
 3236000   0.74226951   -7.2921128    830.47837  0.021386443  0.020810873            6 
 3237000   0.72038751   -7.2905572    829.76527  0.021361479  0.020804997            6 
 3238000   0.71924887   -7.2870691    829.86289  0.021357394  0.020799139           23 
 3239000    0.7225092   -7.2789801    829.89942   0.02135174   0.02079331            8 
 3240000   0.73239712   -7.3044455    830.06124  0.021349312  0.020787469           16 
 3241000   0.73625826     -7.29478    832.25171  0.021399046   0.02078163           12 
 3242000   0.71482305   -7.2942369    831.50848  0.021373342   0.02077578            6 
 3243000   0.74395511   -7.2877732    831.74332  0.021372785   0.02076994           12 
 3244000   0.73168749   -7.3260692     829.4698  0.021307794   0.02076407           10 
 3245000   0.73987747   -7.2985921    830.37952   0.02132459  0.020758201           18 
 3246000   0.73765606   -7.2990298    828.93628  0.021280968  0.020752327            8 
 3247000   0.73459658   -7.2951679    830.06118  0.021303285  0.020746435            5 
 3248000   0.74364037   -7.2912704    830.69846  0.021313076   0.02074057           13 
 3249000   0.72262915   -7.3381816    829.46352  0.021274841  0.020734704            7 
 3250000   0.72520614   -7.3055535    831.49256  0.021320322  0.020728828           11 
 3251000   0.70260589   -7.2895393    831.17002  0.021305496   0.02072297            7 
 3252000   0.72530088   -7.3055404    830.28983   0.02127639  0.020717107           10 
 3253000    0.7213234   -7.3032832        832.2  0.021318783  0.020711264           14 
 3254000   0.72100852   -7.2928102    831.38068  0.021291249   0.02070542            4 
 3255000   0.70279824    -7.266194    830.56036  0.021263706  0.020699571           11 
 3256000   0.74647506   -7.2654377    831.26132  0.021275116  0.020693737            3 
 3257000   0.74509536   -7.2752404    829.86677  0.021232903  0.020687911            3 
 3258000   0.73237714   -7.3041504    831.63928  0.021271723  0.020682062            7 
 3259000   0.73873188   -7.3114253    830.35762  0.021232423  0.020676229            9 
 3260000   0.72929489   -7.3340582    831.86132  0.021264349  0.020670413            9 
 3261000    0.7275447   -7.2815655    832.39794  0.021271541  0.020664595            7 
 3262000   0.73514331   -7.3084204    831.40888  0.021239753  0.020658754           11 
 3263000   0.74611826   -7.3177391    831.61911  0.021238612  0.020652927           21 
 3264000   0.73895759   -7.2793818    831.24289    0.0212225  0.020647084            8 
 3265000   0.73485809   -7.2902383    830.51176  0.021197339  0.020641268           10 
 3266000   0.74483992    -7.297693    831.07548  0.021205233  0.020635465           17 
 3267000   0.73773715   -7.3437682    831.83529  0.021218123  0.020629637           18 
 3268000    0.7223215   -7.3196551    833.76779  0.021260908  0.020623827           15 
 3269000    0.7295028   -7.3091594    832.62729  0.021225331  0.020618025           16 
 3270000   0.73541623   -7.3096364    830.91985  0.021175328  0.020612195           15 
 3271000   0.73704459   -7.2957495    832.83056  0.021217532  0.020606359            8 
 3272000   0.73385833   -7.3355475    831.24144  0.021170575  0.020600543           12 
 3273000    0.7319456   -7.3221967    831.45498  0.021169543  0.020594726            9 
 3274000   0.72910773   -7.3315966    832.14699  0.021180691  0.020588898            9 
 3275000   0.72860271   -7.3523199    829.93295  0.021117887  0.020583035           19 
 3276000   0.73158066   -7.2934463    831.06017  0.021140114  0.020577172            8 
 3277000   0.72678196   -7.2986055    830.44028  0.021117899  0.020571329            5 
 3278000   0.72820856   -7.3388848    830.24882   0.02110659   0.02056547            9 
 3279000   0.74404305   -7.3173733    831.83562   0.02114048  0.020559629            8 
 3280000   0.71508939   -7.3157618    832.42976   0.02114913  0.020553797            9 
 3281000   0.73450855   -7.3333876    830.23452  0.021086928  0.020547942            7 
 3282000   0.74531478   -7.3066799    832.26443  0.021132044  0.020542082           14 
 3283000   0.70047553   -7.3195069    829.51764  0.021055885  0.020536208           10 
 3284000   0.73913661   -7.3253153    831.64593   0.02110348  0.020530325           15 
 3285000   0.73527881   -7.3187385    832.98959  0.021131141  0.020524461           13 
 3286000   0.72072568   -7.3476624    830.08971  0.021051169  0.020518594           33 
 3287000   0.72568276   -7.3240562    829.60979  0.021032598  0.020512726           10 
 3288000   0.73520214   -7.3350135    829.97167  0.021035373  0.020506848           22 
 3289000     0.738909    -7.307517    831.32642  0.021063302  0.020501008           20 
 3290000   0.73221619   -7.3199885    831.96653  0.021073114  0.020495181           28 
 3291000    0.7470426   -7.3135953    832.34345  0.021076255  0.020489339            9 
 3292000   0.73282295   -7.3204042    831.48463  0.021048112  0.020483515           11 
 3293000   0.72093737   -7.3222879    832.53768  0.021068369   0.02047768            7 
 3294000   0.73024735   -7.3029105    831.60385  0.021038349  0.020471868            5 
 3295000   0.71590626   -7.3089512     832.0405  0.021043007  0.020466062           23 
 3296000   0.71442901   -7.3283996    830.33926   0.02099361  0.020460251           22 
 3297000    0.7116053   -7.3378799    833.89115  0.021077018  0.020454424           24 
 3298000   0.74356905   -7.3238939    832.48122  0.021035001  0.020448574           22 
 3299000    0.7075279   -7.3294939    831.42419  0.021001925  0.020442717           28 
 3300000   0.71548903   -7.3235242    832.36869  0.021019411  0.020436865           21 
 3301000   0.74609107   -7.3190942    833.13827  0.021032472  0.020431034           14 
 3302000   0.72322078   -7.3396301    832.23423  0.021003287  0.020425199            7 
 3303000   0.73035873   -7.3151315    830.20886  0.020945828   0.02041934            6 
 3304000   0.72769049   -7.3155338    833.03089  0.021010666  0.020413479           16 
 3305000   0.74115879   -7.3312054    831.66181  0.020969788  0.020407628           24 
 3306000   0.71359618   -7.3345609    832.96966  0.020996412  0.020401789           11 
 3307000   0.71465177   -7.3369744    833.26999  0.020997631  0.020395952           12 
 3308000   0.73119704   -7.3212553    831.30639  0.020941817  0.020390137           21 
 3309000   0.72875258   -7.3121099    833.26411  0.020984792  0.020384309           14 
 3310000   0.71925149   -7.3184047    831.44697  0.020932703  0.020378465           19 
 3311000   0.71248609   -7.3342075    829.92872  0.020888169  0.020372603            9 
 3312000   0.71391615   -7.3320348    830.26791  0.020890396  0.020366739            7 
 3313000    0.7291883   -7.3340527    830.42435  0.020888026  0.020360884            6 
 3314000   0.72311333   -7.3154825     831.5841  0.020910886  0.020355006            9 
 3315000   0.70976395   -7.3549831    830.71683  0.020882776  0.020349118            8 
 3316000   0.72075129   -7.3415732      829.271  0.020840144  0.020343226            5 
 3317000   0.72226289   -7.3383176    830.51488  0.020865111  0.020337357           13 
 3318000   0.73229109    -7.315759    832.29081  0.020903426  0.020331488           16 
 3319000   0.70763276   -7.3282201     831.0422  0.020865778   0.02032562           11 
 3320000   0.73219898   -7.2979011    832.21556  0.020888945  0.020319749            8 
 3321000   0.71808909   -7.3306176    832.57578  0.020891694  0.020313889           13 
 3322000   0.73231931   -7.3437155      831.969  0.020870184  0.020308022           10 
 3323000   0.70343313   -7.3368013    832.18522  0.020869325  0.020302147           11 
 3324000   0.73370716   -7.3232198    831.55913  0.020847351  0.020296269            7 
 3325000   0.71888214   -7.3496078     834.0995  0.020904749  0.020290405            7 
 3326000   0.71351756   -7.3346527    831.98782  0.020845556  0.020284545           14 
 3327000   0.71512309    -7.306186    832.08628  0.020841756  0.020278692            7 
 3328000    0.7115212   -7.3479296     831.6484  0.020824529  0.020272831            8 
 3329000   0.71839086   -7.3237316    831.71325  0.020819897  0.020266966            7 
 3330000    0.7262205   -7.2980684    832.48097  0.020832857  0.020261118            4 
 3331000   0.73536236   -7.3170353    833.09954  0.020842078  0.020255288            7 
 3332000   0.71487379   -7.3106724    832.28829  0.020815533  0.020249447            7 
 3333000   0.71529942   -7.3107076    831.30605   0.02078473  0.020243603            7 
 3334000   0.71943068   -7.3372313    832.02219  0.020796395  0.020237769           11 
 3335000   0.72271843   -7.3410982    832.19677  0.020794522   0.02023194           17 
 3336000   0.72831743   -7.3087191    832.92108  0.020806382  0.020226089           17 
 3337000   0.73083954   -7.3136368    832.62404  0.020792729  0.020220242           13 
 3338000   0.73231559   -7.3283376    833.38517  0.020805502  0.020214411            9 
 3339000   0.72686429   -7.3164915     834.1346  0.020817974  0.020208586           10 
 3340000   0.71946061   -7.3229255    833.60625  0.020798559  0.020202761           10 
 3341000   0.70836635   -7.3468271    832.36334  0.020761332  0.020196955           29 
 3342000   0.71973657   -7.3101626    833.17643  0.020775395  0.020191156           17 
 3343000   0.71876049   -7.3212251    834.60797  0.020804865  0.020185363           17 
 3344000   0.71822604   -7.3501774    834.41157  0.020793749   0.02017955            8 
 3345000    0.7104258   -7.3297165    830.97179  0.020701838  0.020173715           13 
 3346000   0.71756815   -7.3290967    834.60849  0.020786225  0.020167882           22 
 3347000   0.71827984   -7.3216367    832.94501  0.020738597  0.020162081           24 
 3348000   0.71673456   -7.3621178    832.84994  0.020730036  0.020156271           40 
 3349000   0.72171797   -7.3438214    832.23172  0.020708463  0.020150445            6 
 3350000   0.71423638   -7.3586672    831.10399  0.020674229  0.020144627           21 
 3351000   0.72578375   -7.3541331    831.97231  0.020689652  0.020138796           21 
 3352000   0.72183202    -7.338239    833.94025  0.020732405  0.020132958           17 
 3353000   0.71356453   -7.3387862     832.8339  0.020698725   0.02012715           17 
 3354000    0.7066248   -7.3437219     832.7745  0.020691078  0.020121335           25 
 3355000   0.71473201   -7.3444236    832.30813  0.020673327  0.020115512           17 
 3356000   0.73590947   -7.3437636    832.03792  0.020660457  0.020109697            8 
 3357000   0.71486722    -7.339362    832.88597  0.020675354  0.020103905           10 
 3358000   0.71557303   -7.3198525    835.79807  0.020741465  0.020098121           12 
 3359000   0.70312813   -7.3265943    833.23326   0.02067166  0.020092331           10 
 3360000   0.69679222   -7.3422469    834.03769  0.020685459  0.020086518            7 
 3361000   0.70499801   -7.3351147    834.24293  0.020684393  0.020080725           26 
 3362000   0.70924829   -7.3331488    834.30971  0.020679896  0.020074951            9 
 3363000    0.7139598   -7.3227405    835.44385   0.02070185  0.020069157            7 
 3364000     0.728823   -7.3287863    835.80898  0.020704741  0.020063378            5 
 3365000   0.71176107   -7.3415432    835.04641  0.020679703  0.020057574            5 
 3366000   0.72084717   -7.3222112    833.98127  0.020647189  0.020051762            8 
 3367000   0.72595231   -7.3047474    832.42585   0.02060256  0.020045941           13 
 3368000   0.72384551   -7.3490114    832.45867  0.020597255  0.020040129            8 
 3369000   0.71183888    -7.344426     833.5578  0.020618329  0.020034319           11 
 3370000   0.71710188   -7.3716887    833.70932  0.020615957  0.020028482           11 
 3371000   0.70096942   -7.3691924    833.40257  0.020602259  0.020022676           14 
 3372000   0.71138359   -7.3583452    833.53414    0.0205994   0.02001685           12 
 3373000   0.70258368   -7.3472179    833.41743   0.02059041  0.020011038            9 
 3374000   0.70439681   -7.3512021    834.34566  0.020607233  0.020005223            8 
 3375000    0.7098086   -7.3415083    833.04974  0.020569129  0.019999403            8 
 3376000   0.71665838   -7.3823736    833.70526  0.020579218   0.01999359            7 
 3377000   0.71984007   -7.3354083    833.77492  0.020574843  0.019987768           17 
 3378000   0.69582984   -7.3633488    833.22111   0.02055509  0.019981976           19 
 3379000   0.71717684   -7.3608271    832.86509  0.020540226  0.019976163           14 
 3380000   0.69694507    -7.357968    833.80991  0.020557444  0.019970339           24 
 3381000   0.71707199   -7.3605621    833.46961  0.020542976  0.019964523           12 
 3382000    0.7172301   -7.3475113    833.75317  0.020543888  0.019958731           11 
 3383000   0.71447419   -7.3542002    833.11983  0.020522215  0.019952929            9 
 3384000   0.71244858   -7.3717311    833.11061  0.020515923  0.019947093           11 
 3385000   0.72130243   -7.3667684    833.11789  0.020510042  0.019941274            8 
 3386000   0.71106602   -7.3597966    834.46422  0.020537119  0.019935434            7 
 3387000   0.70538633   -7.3621178    833.80419  0.020514816  0.019929608            8 
 3388000   0.71159281   -7.3447319    833.62431  0.020504337  0.019923799           13 
 3389000   0.71638066   -7.3433121    833.16299  0.020486943  0.019917971            6 
 3390000   0.71942979   -7.3623095    833.46511  0.020488326  0.019912129            5 
 3391000   0.71089621   -7.3529995    831.37175   0.02043084  0.019906291            8 
 3392000   0.70709862   -7.3528058    834.92316  0.020512067  0.019900469            5 
 3393000   0.69391616   -7.3482289    835.16293   0.02051191  0.019894645            8 
 3394000   0.69887837   -7.3385325    832.31598  0.020435965  0.019888804            8 
 3395000   0.72815495    -7.362114    831.79937  0.020417265  0.019882963            8 
 3396000   0.70516782   -7.3573096    832.01197   0.02041647  0.019877098           10 
 3397000   0.73138641   -7.3634803    833.76999  0.020453586  0.019871253            7 
 3398000   0.71006497   -7.3711836    833.50077  0.020440965  0.019865435            8 
 3399000   0.70524062   -7.3016156    833.42722  0.020433147  0.019859626            9 
 3400000   0.70691683   -7.3628281    833.99911  0.020441155  0.019853817            6 
 3401000   0.71795889   -7.3450938    833.55669  0.020424304  0.019848008            7 
 3402000    0.7042884   -7.3538441    831.23632  0.020361462  0.019842183            6 
 3403000   0.69078765    -7.341389    832.45556  0.020385335  0.019836364           10 
 3404000   0.70765367   -7.3391204    833.89077  0.020414482  0.019830578           11 
 3405000   0.70246023   -7.3631722    833.66203  0.020402889  0.019824783            8 
 3406000   0.69804388   -7.3446151    834.71108  0.020422565  0.019818978            8 
 3407000   0.69725248   -7.3522756    833.48949  0.020386691  0.019813181            6 
 3408000   0.71252236   -7.3653835    831.67846  0.020336425  0.019807379            4 
 3409000    0.7248071   -7.3681941    832.93202  0.020361103   0.01980158           12 
 3410000   0.71193321   -7.3550415     833.7511  0.020375149  0.019795768           13 
 3411000     0.690751    -7.369045    832.79238  0.020345753  0.019789954           14 
 3412000   0.71774616   -7.3437368     832.4798  0.020332156  0.019784159           11 
 3413000   0.71170309    -7.369151    834.72772  0.020381085  0.019778365            9 
 3414000   0.71505514   -7.3617453    834.39928  0.020367098  0.019772592            8 
 3415000   0.71486078   -7.3531923     834.8472  0.020372064  0.019766818           14 
 3416000   0.71126086   -7.3422651    836.08507  0.020396299  0.019761053            7 
 3417000   0.71119021   -7.3480061    835.80761  0.020383563  0.019755275           13 
 3418000   0.70380128   -7.3618488    835.31742  0.020365648  0.019749498            9 
 3419000   0.69499335   -7.3636792    833.59328  0.020317668  0.019743725           15 
 3420000   0.70826372   -7.3458418    835.14858  0.020349624  0.019737967            9 
 3421000   0.70119025   -7.3530217    834.07201  0.020317451  0.019732205           16 
 3422000   0.69842955   -7.3578746    834.11507  0.020312563  0.019726456           10 
 3423000   0.68449985   -7.3564057    835.25945  0.020334489  0.019720723            9 
 3424000   0.70958645   -7.3492242    834.31926  0.020305667   0.01971497           19 
 3425000   0.72387803   -7.3549227    833.93517  0.020290393  0.019709218           21 
 3426000   0.70533439   -7.3674501    834.51445  0.020298561  0.019703455            7 
 3427000   0.69227858    -7.331453    834.26176  0.020286494  0.019697691            7 
 3428000    0.6944012   -7.3776591    834.56174  0.020287868  0.019691927            6 
 3429000   0.72586439   -7.3738926    836.92196  0.020339311  0.019686153           12 
 3430000   0.71871478   -7.3815138    834.58234  0.020276539  0.019680406           10 
 3431000   0.69388127   -7.3723837    833.92925  0.020254767  0.019674653            6 
 3432000   0.72677222   -7.3649671    834.70393  0.020267675  0.019668898            6 
 3433000   0.70337537   -7.3563841    836.68449  0.020309848  0.019663166            6 
 3434000   0.71020265   -7.3494459    836.74227  0.020305336  0.019657429           17 
 3435000   0.70728365   -7.3888563    833.90848  0.020230676  0.019651685            7 
 3436000   0.71055445   -7.3891857    834.68666  0.020243662  0.019645922            5 
 3437000   0.69516522   -7.3702288    835.61733  0.020260337  0.019640151            8 
 3438000   0.70691109    -7.376484    837.36566  0.020296821  0.019634414            6 
 3439000   0.70713483   -7.3632514     835.1359  0.020236888   0.01962869           15 
 3440000   0.68825063   -7.3621077    836.26943  0.020258465  0.019622966           16 
 3441000   0.69561534   -7.3452172    837.00363  0.020270358  0.019617247            6 
 3442000   0.70057765   -7.3775135    836.68982  0.020256872  0.019611536            8 
 3443000    0.7052589   -7.3819089    834.96599  0.020209265  0.019605815           12 
 3444000    0.6941101   -7.3865365    833.87336  0.020176959  0.019600103           15 
 3445000    0.7151749   -7.3731876    836.53278  0.020235432  0.019594395           14 
 3446000   0.70642519   -7.3794411    834.94189  0.020191088   0.01958869            8 
 3447000   0.70218527   -7.3690229    835.65583  0.020202491  0.019582977           14 
 3448000   0.70828532    -7.361461    835.67989  0.020197213  0.019577273           13 
 3449000    0.6987806   -7.4002056    836.66153  0.020215075   0.01957156           10 
 3450000   0.69912749   -7.3623431    835.71279  0.020186299  0.019565838            9 
 3451000   0.70952324   -7.3690076    834.51183   0.02015145  0.019560103           22 
 3452000    0.6942733   -7.3787516     834.4455  0.020144011   0.01955439           14 
 3453000   0.70999465   -7.3820132    834.44432  0.020138149  0.019548663           17 
 3454000   0.69683108   -7.3787785    834.50717  0.020133834  0.019542931           10 
 3455000   0.71877273   -7.3582096    836.18926  0.020168578  0.019537208           13 
 3456000   0.70159497   -7.3800821    835.14478  0.020137557  0.019531486           11 
 3457000   0.72892605   -7.3815574    833.90204  0.020101775  0.019525758           25 
 3458000   0.70941168   -7.3997027    836.28457  0.020153378  0.019520033           37 
 3459000   0.70128015   -7.3884427    836.61058  0.020155406  0.019514311           17 
 3460000   0.71252282   -7.4057321    835.41976    0.0201209  0.019508609           14 
 3461000   0.70469095   -7.3852064    835.77741  0.020123698   0.01950291           12 
 3462000   0.68415673   -7.3763854    837.54848  0.020160516  0.019497204            8 
 3463000   0.69880045   -7.3589915     835.5388  0.020106334  0.019491514           33 
 3464000   0.69333845   -7.3590775    838.29755  0.020166897  0.019485834            9 
 3465000   0.68890402   -7.3958511      837.745  0.020147787  0.019480159            7 
 3466000   0.70579474   -7.3731196    836.26661  0.020106429  0.019474486           10 
 3467000   0.69465607   -7.3777838    836.19574  0.020098927  0.019468803            7 
 3468000   0.71530929   -7.3860363    836.48467  0.020100074  0.019463123           11 
 3469000    0.6976823   -7.3746828    835.59959  0.020073018  0.019457433           12 
 3470000   0.69543856   -7.3777529    834.42884  0.020039117  0.019451746           18 
 3471000   0.68567801   -7.3655946    835.89738  0.020068601  0.019446057           12 
 3472000   0.70092936   -7.3809046    836.01042  0.020065534  0.019440375           15 
 3473000   0.70090962   -7.3782837    836.07091  0.020061208  0.019434688           14 
 3474000   0.71925155     -7.40011    836.40832  0.020063527  0.019429011           13 
 3475000   0.70479781   -7.3956032     834.8657   0.02002076  0.019423338           22 
 3476000   0.69511633   -7.3805764    837.92648  0.020088379  0.019417654           18 
 3477000   0.69121914   -7.3800197    834.55919  0.020001898  0.019411979            8 
 3478000   0.69606356   -7.3802176    836.30962  0.020038087   0.01940631           12 
 3479000    0.7132289   -7.3864032    837.26747  0.020055271  0.019400626            8 
 3480000   0.69325294   -7.3873954    837.05947  0.020044528  0.019394961            7 
 3481000   0.68983144    -7.375897    835.08398  0.019991477  0.019389283           12 
 3482000   0.70957608   -7.3659128    836.54708  0.020020751   0.01938361            9 
 3483000   0.69048369   -7.4266746    836.15006  0.020005504  0.019377925           14 
 3484000   0.69060526    -7.397482    836.60968  0.020010756  0.019372236           15 
 3485000   0.68625771   -7.3909126    834.27672  0.019949228  0.019366543            7 
 3486000   0.69528483   -7.3891378    836.26419  0.019991016  0.019360856           16 
 3487000   0.70464711   -7.4006543    835.01113  0.019955337  0.019355182            8 
 3488000   0.68823951   -7.3676389    838.20301  0.020025875  0.019349504           14 
 3489000   0.68806822   -7.3897078    837.06539  0.019992963  0.019343852           20 
 3490000   0.70555295   -7.3612915    834.02355  0.019914602  0.019338181            6 
 3491000   0.68907603   -7.4007803     836.8429  0.019976198  0.019332504           26 
 3492000     0.689636   -7.3838005    837.70997   0.01999117  0.019326829            9 
 3493000   0.69105355   -7.3827196    837.36224   0.01997715  0.019321146           10 
 3494000   0.69500725   -7.4098995    834.53281   0.01990395  0.019315475            7 
 3495000    0.6956185   -7.3905039    836.36326  0.019941899  0.019309788            8 
 3496000   0.68789875   -7.3960725     836.7586  0.019945619  0.019304085           10 
 3497000   0.69273244   -7.3818913    837.59996  0.019959965  0.019298402           19 
 3498000   0.68205287   -7.3995642    837.33987  0.019948062  0.019292739           11 
 3499000   0.68691796   -7.3760209    838.36689  0.019966821  0.019287072           15 
 3500000   0.68659266    -7.398636    837.69431  0.019945103  0.019281399           20 
 3501000   0.68726343   -7.3912454    837.35386  0.019931302  0.019275742           10 
 3502000   0.70196563   -7.3756076     837.3653  0.019925883  0.019270095           14 
 3503000   0.68898901    -7.404934    835.87772  0.019884806  0.019264438           12 
 3504000   0.70180106   -7.3834889    835.79609   0.01987719  0.019258777           29 
 3505000   0.68919106   -7.4047314    837.69202  0.019916596  0.019253118           15 
 3506000   0.69234828   -7.3874804    836.70387  0.019887428  0.019247473           12 
 3507000   0.68607582   -7.4113667    836.79305  0.019883876   0.01924181           20 
 3508000   0.68453997   -7.4079468    835.60918  0.019850085  0.019236143            8 
 3509000   0.69753913   -7.3884678    836.50935  0.019865806  0.019230465           20 
 3510000   0.67617892   -7.4048777    837.95872  0.019894557  0.019224811            8 
 3511000   0.69789158   -7.4231087    836.28378  0.019849135  0.019219145            8 
 3512000   0.69766403   -7.3971893    836.84294  0.019856752  0.019213476           16 
 3513000   0.69596313   -7.4002152    839.12069  0.019905131  0.019207824           10 
 3514000   0.69489361   -7.3970805    837.17302  0.019853278  0.019202178           19 
 3515000   0.67916745   -7.3974484     835.3831  0.019805194  0.019196514           20 
 3516000   0.68803235   -7.3875057    835.08711  0.019792546  0.019190871           12 
 3517000   0.70905846     -7.38234    837.03274  0.019833019  0.019185219           10 
 3518000   0.68057096    -7.409912     836.8161   0.01982225  0.019179585           11 
 3519000    0.6901186   -7.3895034    838.29721  0.019851691  0.019173958           14 
 3520000   0.69545141   -7.3897843    838.81641  0.019858343  0.019168338           13 
 3521000   0.68875757   -7.3910141    839.06982  0.019858701  0.019162722            9 
 3522000   0.69297084    -7.398455    837.95237  0.019826623  0.019157101           12 
 3523000   0.70446009   -7.3819533    837.71621  0.019815409  0.019151488            9 
 3524000    0.6897352   -7.3929632     838.2456  0.019822304  0.019145878           11 
 3525000   0.67850969   -7.3926266    839.49417  0.019846198  0.019140287            9 
 3526000   0.69156165   -7.3994421    839.41412  0.019838678  0.019134691           12 
 3527000   0.69282518    -7.398074    838.37271  0.019808447    0.0191291           11 
 3528000   0.69326213   -7.3822614    838.47161  0.019805168  0.019123498            5 
 3529000    0.6913559   -7.4294441     837.9637  0.019787562  0.019117896           11 
 3530000   0.66942052   -7.3835163    838.01288  0.019783118  0.019112306           13 
 3531000   0.68659622   -7.4135169    839.15985  0.019804584  0.019106713           10 
 3532000   0.70259006   -7.3984992    837.99603  0.019771518  0.019101124            7 
 3533000   0.69941914   -7.3923568    838.91868  0.019787685  0.019095536           13 
 3534000   0.69229458   -7.3988355    836.34861  0.019721482  0.019089948           11 
 3535000   0.69255491   -7.4076465    838.71177  0.019771612  0.019084353           10 
 3536000    0.6784549   -7.4030586      838.543  0.019762043  0.019078776            5 
 3537000   0.68041217   -7.3963937    839.33452  0.019775104  0.019073199           13 
 3538000   0.68488205   -7.3964708    839.92181  0.019783348  0.019067633           13 
 3539000   0.68184111   -7.4058152    838.69659  0.019748907  0.019062067           11 
 3540000   0.69504274     -7.41874    840.45425  0.019784705  0.019056502           15 
 3541000   0.69571713   -7.4038067    838.65402  0.019736751  0.019050947           16 
 3542000    0.6751955   -7.4120647    839.85738   0.01975949  0.019045395            6 
 3543000   0.68090316   -7.4145882    839.91343  0.019755232  0.019039839            8 
 3544000   0.67555078   -7.3947224    838.38969  0.019713828  0.019034299           22 
 3545000   0.69267874   -7.4135836    839.02467  0.019723194  0.019028765            8 
 3546000   0.67646225   -7.4048703    839.98525  0.019740206  0.019023244           15 
 3547000   0.68513928   -7.3904328    840.79781  0.019753731  0.019017709           12 
 3548000   0.67931382   -7.3778165    840.92691  0.019751196  0.019012206           11 
 3549000   0.68200516   -7.3814438    840.36627  0.019732466  0.019006713            8 
 3550000   0.68907211   -7.3895371      840.376  0.019727136  0.019001201            7 
 3551000   0.68505665   -7.4007966    840.37427   0.01972154  0.018995697           12 
 3552000   0.67842483   -7.3936422    839.65986  0.019699227  0.018990185            9 
 3553000   0.69485947   -7.3979689    838.85805  0.019674877  0.018984659           10 
 3554000   0.68081216   -7.4107054    839.71613  0.019689461  0.018979117           18 
 3555000   0.69034495   -7.4310722    838.28646  0.019650409  0.018973563           15 
 3556000   0.68692477   -7.4275044     839.7108  0.019678262  0.018968008           15 
 3557000    0.6936852   -7.4288453    838.54211   0.01964535  0.018962459           17 
 3558000    0.6826819   -7.4370671    839.02661  0.019651176  0.018956909           15 
 3559000   0.69441992   -7.4120898    841.81356   0.01971091   0.01895137           14 
 3560000   0.66793606   -7.4138132    837.90223  0.019613816  0.018945813           19 
 3561000   0.69030564   -7.4097382    839.01034   0.01963424  0.018940266           31 
 3562000   0.66796989   -7.4282157    839.09375  0.019630679  0.018934715           11 
 3563000   0.68944411   -7.4194141    840.37656  0.019655173   0.01892916           35 
 3564000   0.70018369   -7.4332115    838.51908  0.019606226  0.018923624           11 
 3565000   0.68180938   -7.4040417    840.49819  0.019646989    0.0189181           18 
 3566000   0.67773017   -7.4148136    840.07696  0.019631636  0.018912562           13 
 3567000   0.67050593   -7.4282046     840.2105  0.019629252  0.018907009           27 
 3568000   0.68645857   -7.4267273    839.31366  0.019602804  0.018901477           15 
 3569000   0.68795515   -7.4092823    839.96401  0.019612497  0.018895942           25 
 3570000   0.68595421   -7.4112776    839.95283  0.019606742  0.018890409           27 
 3571000   0.68228413    -7.413702     838.8271  0.019574981  0.018884881           12 
 3572000   0.68574668   -7.4123997    840.33334  0.019604641  0.018879346            7 
 3573000   0.67329878   -7.4186376    840.54704  0.019604138  0.018873826           14 
 3574000    0.6726822   -7.3969457    839.96268  0.019585028  0.018868334            6 
 3575000    0.6884594    -7.415718    841.36572  0.019612255  0.018862855           15 
 3576000   0.68039591   -7.4054232    839.66527  0.019567144  0.018857359           16 
 3577000   0.68794843   -7.4170947    839.58492  0.019559802  0.018851844           17 
 3578000   0.68316007   -7.3978619    840.32304  0.019571526   0.01884635           21 
 3579000   0.68670951   -7.4160315    839.84953  0.019555032  0.018840842           12 
 3580000   0.67273708   -7.4240393    840.59005  0.019566807  0.018835335           13 
 3581000   0.67019202   -7.4321048    841.28544  0.019577526  0.018829847           15 
 3582000   0.67228201   -7.4008541    840.03865  0.019543054  0.018824361           12 
 3583000    0.6834953   -7.4091923    840.50231  0.019548384  0.018818886           21 
 3584000   0.67616898   -7.4051976    840.09449  0.019533447   0.01881341           12 
 3585000   0.68359575   -7.3989183     838.9521  0.019501443  0.018807921           20 
 3586000   0.65470098   -7.4239183    840.89789  0.019541223   0.01880242           27 
 3587000    0.6840174   -7.4143337    840.74755  0.019532282   0.01879692           22 
 3588000   0.67669138   -7.4168714    841.20042  0.019537357  0.018791449           27 
 3589000   0.68706787   -7.4085604    840.54081  0.019516597   0.01878597           17 
 3590000   0.67279663   -7.3989609    840.88308  0.019519106  0.018780479           16 
 3591000   0.67394697   -7.4176262    839.79688  0.019488464  0.018774994            8 
 3592000    0.6717617   -7.4448879    840.77145  0.019505648  0.018769521           24 
 3593000   0.69040648   -7.4207743    842.36505   0.01953718  0.018764052           14 
 3594000   0.67058531   -7.4035339     841.0708  0.019501734  0.018758568           37 
 3595000   0.67016138   -7.4362947    840.37422  0.019480163  0.018753084           16 
 3596000   0.66952874   -7.4440299    840.70622  0.019482439  0.018747608           14 
 3597000   0.67800109   -7.3982209    840.59216   0.01947438  0.018742124           12 
 3598000   0.68472012   -7.4121743    839.56465   0.01944517  0.018736643           14 
 3599000   0.66876013   -7.3957058    839.14868  0.019430135  0.018731188           10 
 3600000    0.6856634   -7.4271908    842.25436  0.019496629  0.018725731            7 
 3601000   0.67298649   -7.4253045    839.96657  0.019438271  0.018720264           14 
 3602000   0.66136191   -7.4360432    841.02494   0.01945736  0.018714805           11 
 3603000   0.66658713   -7.4341263    839.87853  0.019425445  0.018709344           10 
 3604000    0.6868561   -7.4571117    841.86442  0.019465973  0.018703878           17 
 3605000   0.66713157   -7.4233769    840.96737  0.019439837  0.018698417           16 
 3606000   0.68264623   -7.4261443    841.04656  0.019436277  0.018692943           19 
 3607000   0.66347137   -7.4530376    840.94624   0.01942857  0.018687458           12 
 3608000   0.68196635   -7.4306196    842.75065  0.019464862  0.018681988           22 
 3609000   0.66827652   -7.4390117    841.31711  0.019426367  0.018676517           13 
 3610000   0.67169917   -7.4407602    840.71576  0.019407104   0.01867103           21 
 3611000   0.66449289    -7.414364    844.01953  0.019477973  0.018665559           36 
 3612000   0.67415968   -7.4499287    841.49796  0.019414405  0.018660098           32 
 3613000   0.68301687   -7.4261681    839.42414  0.019361199  0.018654609           37 
 3614000    0.6609203   -7.4295107     840.8545  0.019388824  0.018649131           20 
 3615000   0.69086018   -7.4166674    841.76217  0.019404384  0.018643668           16 
 3616000   0.66327388   -7.4128718     841.1451  0.019384797  0.018638208           20 
 3617000   0.67406557   -7.4500763    837.46361  0.019294618  0.018632729           27 
 3618000     0.671513   -7.4566399     840.4304  0.019357619   0.01862725           14 
 3619000   0.67361944   -7.4569431     839.7501  0.019336606  0.018621779           13 
 3620000   0.67128481   -7.4381878    840.62355  0.019351371   0.01861633           18 
 3621000   0.66360682   -7.4494104    841.66631  0.019370025  0.018610874           12 
 3622000   0.66803555   -7.4157106    840.97038  0.019348665  0.018605421           18 
 3623000    0.6794932   -7.4187502    841.31423  0.019351233  0.018599965           23 
 3624000   0.66817379   -7.4187457    841.82266  0.019357585   0.01859451           42 
 3625000   0.66807447   -7.4219151    840.82045  0.019329206   0.01858905           21 
 3626000   0.65682434   -7.4401351    840.34915  0.019313044  0.018583597           60 
 3627000   0.67648151   -7.4266412    841.64879  0.019337579  0.018578142           23 
 3628000   0.68232607   -7.4324458    839.88034  0.019291629  0.018572684           26 
 3629000   0.68146244     -7.42899    841.47202  0.019322863   0.01856723           29 
 3630000   0.66981696   -7.4427939    842.06075  0.019331055   0.01856178           20 
 3631000   0.66724515   -7.4473752     841.0195  0.019301834  0.018556318           26 
 3632000   0.67126999   -7.4291476    840.20614  0.019277857  0.018550873           15 
 3633000   0.66626383   -7.4348093    840.99773  0.019290709  0.018545427           14 
 3634000   0.65819185   -7.4425462    840.63089  0.019276988  0.018539984           21 
 3635000    0.6784226   -7.4349497    840.36988  0.019265701  0.018534541           12 
 3636000   0.66271719   -7.4390157    842.31162  0.019304905  0.018529098           16 
 3637000   0.67805348   -7.4308686    842.48185  0.019303498  0.018523663           14 
 3638000   0.67160058   -7.4440488    840.71306  0.019257675  0.018518227           11 
 3639000   0.65443521   -7.4494495    842.87147  0.019301811  0.018512792           14 
 3640000   0.68151784   -7.4463765     841.4363  0.019263652  0.018507365           18 
 3641000   0.65343854   -7.4548129    842.45494  0.019281675  0.018501937           23 
 3642000   0.68091308   -7.4541266    841.45278   0.01925345  0.018496512           15 
 3643000    0.6741996   -7.4392399    840.90715  0.019235684  0.018491074           13 
 3644000   0.66322142   -7.4515461    842.27455  0.019261676   0.01848566           35 
 3645000   0.65569092    -7.425103    842.97238  0.019272345  0.018480238           10 
 3646000   0.67946991   -7.4513625     841.4956  0.019233306  0.018474825           14 
 3647000   0.65233649   -7.4387903    841.22981  0.019221959  0.018469409           11 
 3648000   0.66682541   -7.4547968    842.61252  0.019248276  0.018463985           13 
 3649000   0.65932001   -7.4443055    841.15776  0.019209778  0.018458559           15 
 3650000   0.67282974   -7.4346772      840.326  0.019185525  0.018453128           20 
 3651000   0.66661786   -7.4495269    841.05261  0.019196855  0.018447678           17 
 3652000    0.6645136   -7.4264903     841.2002  0.019194966  0.018442239           25 
 3653000   0.67736586   -7.4474182    840.70923  0.019178511  0.018436805           14 
 3654000   0.66513548   -7.4438888    841.80475  0.019198247  0.018431367           25 
 3655000   0.66125465   -7.4621514    840.82329  0.019170618  0.018425929           18 
 3656000   0.65980118   -7.4276392    840.68962  0.019162327  0.018420503           12 
 3657000   0.67029246   -7.4512486    841.23435    0.0191695  0.018415076           41 
 3658000   0.67349515   -7.4858754     841.8531  0.019178356  0.018409637           28 
 3659000   0.65441672   -7.4667576    840.79956   0.01914912  0.018404191           23 
 3660000   0.66574035   -7.4280964    841.22895  0.019153665  0.018398744           21 
 3661000   0.67396359   -7.4477289    840.29156  0.019127095  0.018393306           14 
 3662000   0.66732477    -7.441573    841.05146  0.019139165  0.018387876           27 
 3663000    0.6788957   -7.4672625    839.77693  0.019104944  0.018382438           18 
 3664000    0.6578042   -7.4313556    842.70717  0.019166375  0.018377005           30 
 3665000   0.66456165   -7.4372009    840.60077  0.019113251  0.018371588           33 
 3666000   0.65549161   -7.4572946    842.10353  0.019142197  0.018366161           17 
 3667000   0.65250284   -7.4374738    840.82417  0.019107903  0.018360718           28 
 3668000   0.66487049   -7.4690756    840.81662  0.019102522  0.018355279           52 
 3669000   0.65833352   -7.4698767    841.21152  0.019106285   0.01834984           36 
 3670000   0.67116549   -7.4548425     841.9526  0.019117906  0.018344393           35 
 3671000   0.65315931   -7.4144077    840.89873  0.019088775  0.018338973           29 
 3672000   0.67103923   -7.4444613    840.70834  0.019079256  0.018333553           20 
 3673000   0.65299264   -7.4605585    839.73836  0.019052055  0.018328134           20 
 3674000   0.64594958   -7.4653326    840.90771  0.019073392  0.018322703           20 
 3675000   0.66273017   -7.4575705    839.21606  0.019029843  0.018317278            9 
 3676000   0.67882308   -7.4469717    839.60479  0.019033478  0.018311846           19 
 3677000   0.66070065   -7.4541627    840.85235  0.019056576  0.018306422           22 
 3678000   0.66896633   -7.4561401    841.23759  0.019060123  0.018301019           13 
 3679000   0.65463048   -7.4473158    843.42569  0.019104505  0.018295609           24 
 3680000   0.66473257   -7.4448031    842.27942  0.019073356  0.018290199           27 
 3681000   0.66172287   -7.4231899    841.55827  0.019051849  0.018284808           11 
 3682000   0.67396833   -7.4407509    839.68558  0.019004291  0.018279423           16 
 3683000   0.66298833   -7.4313343    840.39207  0.019015116  0.018274037           22 
 3684000   0.67185194   -7.4412532    842.13266  0.019049327  0.018268655            6 
 3685000   0.66051615   -7.4448808    842.40089  0.019050224  0.018263272           13 
 3686000   0.66709786   -7.4487134    842.27145  0.019042129  0.018257892           11 
 3687000   0.65724444   -7.4604696    841.33905   0.01901589  0.018252519           16 
 3688000   0.66469133   -7.4503832    839.80555  0.018976083  0.018247144            7 
 3689000   0.66729972   -7.4530281    841.18876  0.019002186  0.018241766            7 
 3690000   0.65584649   -7.4549374    841.84206   0.01901179  0.018236398           10 
 3691000   0.65690572   -7.4535284    842.30397  0.019017068  0.018231015           19 
 3692000   0.64937493   -7.4368465    841.22557  0.018987576  0.018225634           17 
 3693000   0.67328915   -7.4584033    842.22475  0.019004981  0.018220252           15 
 3694000   0.65612463   -7.4442957    843.57277  0.019030246  0.018214865           10 
 3695000   0.66354615   -7.4544945    841.77863  0.018984633   0.01820949           17 
 3696000   0.66445981   -7.4760462    842.73228  0.019000998  0.018204101            9 
 3697000   0.66796272   -7.4451334    841.15384  0.018960279  0.018198708           25 
 3698000   0.66991554   -7.4761786    841.03904  0.018952565  0.018193315           36 
 3699000   0.66831012   -7.4472574    842.04445  0.018970092  0.018187939           21 
 3700000   0.64629121    -7.466417    840.20144  0.018923456  0.018182557           13 
 3701000   0.65585001    -7.495123    841.85713  0.018955623  0.018177182           14 
 3702000   0.65355711   -7.4789486    841.21254  0.018935993    0.0181718           18 
 3703000   0.64406899   -7.4468579    841.70039  0.018941858   0.01816642           48 
 3704000   0.64750181   -7.4568056    840.80255  0.018916544  0.018161057           24 
 3705000   0.65457398   -7.4589256    841.44565  0.018925903  0.018155689           18 
 3706000   0.65972593   -7.4615399     842.0044   0.01893336  0.018150319           23 
 3707000   0.66679054   -7.4900497    841.11316  0.018908218  0.018144956           44 
 3708000   0.67142285   -7.4728047    842.15503  0.018926533  0.018139598           12 
 3709000   0.65476199   -7.4513852    843.54473  0.018952654  0.018134234           19 
 3710000    0.6498178   -7.4714089    842.24789  0.018918416  0.018128861           24 
 3711000   0.66212278   -7.4877899    842.77937  0.018925253  0.018123484           19 
 3712000   0.65604867   -7.4623049    840.50261  0.018869042  0.018118116           15 
 3713000   0.65948859   -7.4782274    843.03005  0.018920685  0.018112751           10 
 3714000   0.64785773   -7.4929604    841.43282  0.018879753  0.018107373           10 
 3715000   0.65594242   -7.4877279    842.03278  0.018888129  0.018102006           13 
 3716000   0.65276888   -7.4926617    841.32943  0.018867273  0.018096633           15 
 3717000   0.66359259   -7.4774314    841.43928   0.01886466  0.018091259           23 
 3718000   0.66182495   -7.4708713    842.45341  0.018882316  0.018085904            9 
 3719000    0.6412227   -7.5008769    841.42642  0.018854227  0.018080526           15 
 3720000   0.64589115   -7.4836167    842.33999  0.018869623   0.01807514            8 
 3721000   0.63614277   -7.4761607    841.42446  0.018844049  0.018069757           11 
 3722000   0.64927384   -7.4921323    842.74338  0.018868516  0.018064367           17 
 3723000   0.65276837   -7.4883319    842.01752    0.0188472  0.018058989           21 
 3724000   0.65402497   -7.4770223    842.12508  0.018844546  0.018053612           14 
 3725000   0.65670785   -7.4773571    841.85118   0.01883336  0.018048238           23 
 3726000   0.66463693    -7.474437    841.96031  0.018830746  0.018042863           13 
 3727000   0.64958591   -7.4947557    840.72539  0.018798081   0.01803749           12 
 3728000   0.66013078   -7.5012275    839.48221   0.01876525  0.018032111           17 
 3729000   0.65783884   -7.4600401    840.14935  0.018775126  0.018026742           25 
 3730000   0.65228981   -7.4763644    840.61525  0.018780502  0.018021371           13 
 3731000    0.6540225   -7.4659017    839.78753  0.018756981  0.018015978           15 
 3732000   0.66026143   -7.4825267    841.72162  0.018795142   0.01801059           12 
 3733000   0.65585202    -7.473968    841.13484  0.018777008  0.018005217           15 
 3734000    0.6543092   -7.4867314    840.92296   0.01876725  0.017999845           31 
 3735000   0.64263298   -7.4878796    842.87195  0.018805711  0.017994481           11 
 3736000   0.64113295   -7.4853343    841.64462  0.018773301  0.017989116           17 
 3737000   0.66261938   -7.5112515    840.56079  0.018744108  0.017983754           27 
 3738000    0.6488402   -7.4579712     840.6245  0.018740514  0.017978387           18 
 3739000   0.65738719   -7.4966821    841.38874  0.018752535  0.017973029           16 
 3740000    0.6670748   -7.4706741    841.89613  0.018758826  0.017967683           17 
 3741000   0.63842933   -7.4861693    841.26736  0.018739806   0.01796233           32 
 3742000   0.64832191   -7.4906631    842.58247  0.018764085  0.017956972           19 
 3743000   0.64759885   -7.4879728    840.20292  0.018706094   0.01795161           25 
 3744000   0.65533579    -7.484604    840.02459  0.018697129  0.017946258           14 
 3745000   0.65031517   -7.4861354    841.95108  0.018735004  0.017940916           19 
 3746000   0.66827251   -7.4653153    841.19732  0.018713235  0.017935577            9 
 3747000   0.64736003   -7.4802584    841.10194  0.018706119  0.017930237           23 
 3748000   0.65376257   -7.4810109     841.4595  0.018709078  0.017924893           11 
 3749000   0.65442889    -7.487535    841.79127  0.018711462  0.017919553           11 
 3750000   0.64877965   -7.4830482    842.57136  0.018723808  0.017914224           17 
 3751000   0.64436113   -7.4739377    841.57023  0.018696575  0.017908881           25 
 3752000   0.65734702   -7.4932499    842.16495  0.018704801  0.017903557           20 
 3753000   0.64293262   -7.4883112    842.08832  0.018698115  0.017898222           13 
 3754000   0.65529674   -7.4727866    841.62127  0.018682767  0.017892893            9 
 3755000   0.65668285   -7.4973847    843.97776  0.018730088  0.017887563           19 
 3756000   0.65887195   -7.4779067    842.44293  0.018691048   0.01788223           24 
 3757000       0.6315   -7.5114542    841.27624  0.018660195    0.0178769           35 
 3758000   0.66904246   -7.4772385    840.19744  0.018631307  0.017871554           18 
 3759000   0.64316757   -7.4874274    841.77504  0.018661325  0.017866239           25 
 3760000    0.6419762   -7.4934781    842.61613  0.018675003  0.017860914           26 
 3761000   0.66097598   -7.4954677    841.79691  0.018651886  0.017855572           20 
 3762000    0.6523875   -7.4744601    841.32513  0.018636477   0.01785026           24 
 3763000   0.64631297    -7.500806    841.87712  0.018643749  0.017844947           22 
 3764000   0.64500055   -7.4848046    842.31055  0.018648392  0.017839637           24 
 3765000   0.65936104   -7.4991975    842.45185  0.018646566  0.017834321           18 
 3766000   0.64703816   -7.4541207    842.33083  0.018638937  0.017829002           22 
 3767000   0.64726362    -7.474796    842.32424  0.018633843  0.017823693           17 
 3768000   0.65902141   -7.4892393    843.44055  0.018653586  0.017818391           18 
 3769000   0.65750623   -7.4852437    842.84216  0.018635406  0.017813087           21 
 3770000   0.64414489   -7.4801426    840.57213  0.018580286  0.017807781           25 
 3771000   0.64265675   -7.4840307    841.95947  0.018606017  0.017802467           19 
 3772000   0.63188328   -7.4824866    841.77175  0.018596937  0.017797158           19 
 3773000   0.65786775   -7.4931505    840.74222  0.018569269  0.017791853           28 
 3774000   0.64814856   -7.5163759    842.10825  0.018594512  0.017786535           34 
 3775000   0.65668043   -7.4705819    842.18265  0.018591229  0.017781232           27 
 3776000   0.65340132   -7.4653552    842.09065  0.018584274  0.017775919           16 
 3777000   0.65851939   -7.4778758    840.81703  0.018551254  0.017770615           27 
 3778000   0.66200024   -7.4702391    841.51663  0.018561775  0.017765312           20 
 3779000   0.64412643   -7.4883169    842.25405  0.018573125  0.017760015           23 
 3780000   0.64520473   -7.4779042    842.09519  0.018564709  0.017754703           14 
 3781000   0.65144142   -7.5049275    840.83613  0.018532049  0.017749388           24 
 3782000   0.64339623   -7.5105646    842.53784  0.018564645  0.017744085           26 
 3783000   0.64708768   -7.5000359    844.10347  0.018594226  0.017738787           19 
 3784000   0.65249275   -7.5017042    842.54059  0.018554893  0.017733496           14 
 3785000   0.64186436    -7.509757    844.34169  0.018589645  0.017728198           19 
 3786000   0.65994709   -7.5120377    842.22306  0.018538102  0.017722906           18 
 3787000   0.64881286   -7.4913469    842.15381  0.018531683  0.017717616           10 
 3788000   0.63283309   -7.5220704     841.9577  0.018522477  0.017712331           16 
 3789000   0.64617248   -7.4885707    843.53103  0.018552191  0.017707053           19 
 3790000   0.64761955   -7.5124234    840.62902  0.018483488  0.017701775           19 
 3791000   0.64359214   -7.4900602    841.56309  0.018499145  0.017696507           33 
 3792000   0.65240588   -7.4823868    842.88689  0.018523358  0.017691234           30 
 3793000   0.65060568   -7.5033801    843.87239  0.018540126  0.017685956           25 
 3794000   0.64521916   -7.5042454    842.44211  0.018503824  0.017680681           45 
 3795000   0.65332251   -7.5214755    841.64222  0.018481384  0.017675396           24 
 3796000   0.64709897   -7.5053892    841.15017  0.018465713  0.017670121           25 
 3797000   0.63891474   -7.5058566      841.542  0.018469449  0.017664849           43 
 3798000   0.64445514   -7.5137301    843.53056  0.018508218  0.017659561           19 
 3799000   0.63180303   -7.5046776    842.31522  0.018476687  0.017654272           18 
 3800000   0.63827521   -7.5202318    843.36915  0.018494937  0.017648985           19 
 3801000   0.65858109   -7.5139757    842.03658  0.018460856  0.017643708           29 
 3802000   0.63751586   -7.4796116    844.42727  0.018508401  0.017638438           28 
 3803000    0.6479131   -7.5187487    842.19034  0.018454517  0.017633162           21 
 3804000   0.65273589   -7.4923496    841.92309  0.018443811  0.017627896           17 
 3805000    0.6447604   -7.5240579    842.62882   0.01845442  0.017622636           25 
 3806000   0.64425117   -7.5050068    841.88714  0.018433332  0.017617365           30 
 3807000   0.64430797   -7.5161216    841.54069  0.018420906  0.017612103           22 
 3808000   0.64219838   -7.5099831    841.59958  0.018417358   0.01760684           22 
 3809000   0.65276335    -7.496171    842.57278  0.018433814  0.017601579           22 
 3810000   0.64588314   -7.5019418    842.72402  0.018432284  0.017596339           15 
 3811000   0.65855619   -7.4937588    840.25814  0.018373527  0.017591075           18 
 3812000   0.64537892   -7.5203186    842.80175  0.018424312  0.017585821           11 
 3813000   0.63484592   -7.5064021    843.30575  0.018430495  0.017580571           29 
 3814000   0.65849557   -7.5294874    842.94578  0.018417798  0.017575307            8 
 3815000   0.62903987   -7.4993968    842.40105  0.018401072  0.017570044            9 
 3816000    0.6494422   -7.5063537    840.96786  0.018364951  0.017564788           14 
 3817000   0.64656317   -7.5158689    843.87514  0.018423612  0.017559533           11 
 3818000   0.64038916   -7.5197242    841.56749  0.018368419  0.017554267           12 
 3819000   0.64414322   -7.5193622     842.0798  0.018374788  0.017549012            8 
 3820000   0.63410425   -7.5043894    840.99709  0.018346359  0.017543766           14 
 3821000   0.63940479   -7.5152293    840.27054  0.018325712  0.017538503           17 
 3822000   0.64027076   -7.5320246     842.4399  0.018368217   0.01753324           19 
 3823000   0.63387261   -7.5044662    841.71543   0.01834762  0.017527987           14 
 3824000   0.62113854   -7.5120006    840.63542  0.018319287  0.017522742           17 
 3825000   0.63225715   -7.5082196    842.72266  0.018359971  0.017517501           13 
 3826000   0.64284597   -7.5000116    842.74892  0.018355744   0.01751225           27 
 3827000   0.64766129   -7.5249609    842.00168  0.018334676     0.017507           21 
 3828000   0.63514651   -7.5040761    843.40423  0.018360419  0.017501735           17 
 3829000   0.63865861   -7.4929241    842.05404  0.018326239  0.017496488           15 
 3830000   0.64221592   -7.4957425    841.19573  0.018302779  0.017491239           24 
 3831000   0.63135768    -7.500511    842.96211  0.018336424  0.017485986           19 
 3832000   0.62731594   -7.5083131    842.56558  0.018323016  0.017480753           21 
 3833000   0.63476257   -7.5091794    841.64615  0.018298247  0.017475518           13 
 3834000   0.63738758   -7.5174107    841.40244  0.018288177  0.017470274           22 
 3835000   0.62628571   -7.5230326     843.1314  0.018320978  0.017465026           27 
 3836000   0.65348872   -7.5142193    842.85703  0.018310241  0.017459778           11 
 3837000   0.63828694   -7.5061573    841.76237  0.018281695  0.017454522           24 
 3838000   0.63649408   -7.5304961    841.32195  0.018267369   0.01744926           14 
 3839000   0.62259219   -7.5153955    841.87435  0.018274602  0.017443998           13 
 3840000   0.64184987   -7.5208779    841.37375  0.018258979  0.017438753           24 
 3841000    0.6449799   -7.5258256    841.24394  0.018251409  0.017433496           42 
 3842000    0.6388908   -7.5321778    841.79974  0.018258714  0.017428244           18 
 3843000   0.63040542   -7.5173165    841.12137  0.018239253  0.017422981           17 
 3844000   0.63916536   -7.5360231    841.61133  0.018245129  0.017417736           17 
 3845000   0.62850309   -7.5056343     841.9789  0.018248351  0.017412498           35 
 3846000   0.62591516   -7.5160821    841.36645  0.018230336  0.017407258           21 
 3847000   0.63680726    -7.495763    842.52384  0.018250668  0.017402035           35 
 3848000   0.62776948   -7.4968847     841.4522  0.018222717  0.017396819           16 
 3849000   0.63420168   -7.4951552    841.33716  0.018215492  0.017391596           16 
 3850000   0.63365327   -7.5115778    842.49025   0.01823572  0.017386375           19 
 3851000    0.6396872   -7.5148522    842.10572  0.018222663  0.017381151           23 
 3852000   0.64636086   -7.5239933    841.03273   0.01819472  0.017375925           20 
 3853000   0.64571365   -7.4934154    843.62879  0.018246146   0.01737072           14 
 3854000   0.63862151   -7.5147023    843.50338    0.0182387  0.017365513           13 
 3855000   0.62624323   -7.5487493    842.94476  0.018221893  0.017360297           15 
 3856000   0.63729877   -7.5415248    842.47212  0.018206953  0.017355073           15 
 3857000   0.63614958   -7.5343167     841.8001  0.018187713  0.017349848           19 
 3858000   0.63241671    -7.520804    841.09292  0.018167723  0.017344624           23 
 3859000    0.6315954   -7.5360992    839.83865   0.01813593  0.017339383            8 
 3860000   0.62815308   -7.5242013    841.18999  0.018160406   0.01733415            6 
 3861000   0.63337983   -7.5386326    842.00901  0.018173379  0.017328928           11 
 3862000   0.64166907   -7.5323324    842.52653   0.01817984  0.017323708            9 
 3863000   0.64348823   -7.5364253    841.88184  0.018161227  0.017318485            7 
 3864000   0.64346256   -7.5150938    842.58186  0.018171624  0.017313266            8 
 3865000   0.62306131   -7.5231665    841.94809  0.018153258  0.017308055            9 
 3866000   0.62966292   -7.5391742    843.05578  0.018172439  0.017302841           11 
 3867000   0.64228036   -7.5182797     841.4343  0.018132797  0.017297609           13 
 3868000   0.63406976   -7.5349355    841.60953  0.018131884  0.017292394           12 
 3869000   0.63647805   -7.5393462    842.01715  0.018135977  0.017287181            9 
 3870000   0.63278641   -7.5120148    840.32334  0.018094818  0.017281963           12 
 3871000   0.63045308   -7.5368803    842.43132  0.018135523  0.017276745           19 
 3872000   0.64528601   -7.5435937    841.37363  0.018108076  0.017271527           13 
 3873000   0.64165835   -7.5235912    842.30092  0.018123352  0.017266306            9 
 3874000   0.62895108   -7.5446462     842.2901  0.018118441  0.017261099           15 
 3875000   0.64149595   -7.5107266    843.18679  0.018133049  0.017255885           13 
 3876000   0.63653158   -7.5444243    842.35163  0.018110415  0.017250678           12 
 3877000   0.61907911     -7.50726    842.84553   0.01811636   0.01724546           12 
 3878000   0.63041687   -7.5402104    840.81198   0.01806799  0.017240246           11 
 3879000   0.61948394   -7.5365485    840.55676  0.018057849  0.017235028           48 
 3880000    0.6361158   -7.5285071    841.47859  0.018072994  0.017229815           12 
 3881000   0.63551664   -7.5546541     842.0039  0.018079617  0.017224599           17 
 3882000   0.62644287   -7.5433232    842.21291  0.018079446  0.017219392           14 
 3883000   0.63023721   -7.5312043    841.67722  0.018063294  0.017214185           29 
 3884000   0.63758123   -7.5337721    841.88402   0.01806308  0.017208997           24 
 3885000   0.62511016   -7.5520615    840.51147  0.018028989  0.017203795           18 
 3886000   0.62626117    -7.551534    840.72485  0.018028925  0.017198589           16 
 3887000   0.64274691   -7.5342726    841.32523  0.018037159  0.017193381           11 
 3888000   0.62649542   -7.5361612    841.40913  0.018034318  0.017188173           15 
 3889000   0.62457432   -7.5343828    841.33803  0.018028157  0.017182977           11 
 3890000   0.62698866   -7.5467016    841.89616  0.018035479  0.017177785            6 
 3891000   0.63562283    -7.530068    842.19713   0.01803729  0.017172597           15 
 3892000   0.61712951   -7.5462843    842.65818  0.018042527  0.017167411           15 
 3893000   0.62311312   -7.5213903    842.69104  0.018038596  0.017162223           15 
 3894000   0.62885751   -7.5362366     842.2558  0.018024649  0.017157031           24 
 3895000   0.62245591   -7.5175445    842.47056  0.018024616  0.017151842           28 
 3896000   0.62431058   -7.5218533    843.78752  0.018048159  0.017146663           26 
 3897000    0.6167955   -7.5492223    842.73985  0.018021124  0.017141486           17 
 3898000   0.63371641    -7.531967     841.6767  0.017993772  0.017136314           33 
 3899000    0.6259434   -7.5460546     841.2888  0.017980867  0.017131139           19 
 3900000    0.6173089   -7.5317989    840.38836  0.017957016  0.017125961           15 
 3901000   0.62733171   -7.5132082    839.26716  0.017928462  0.017120783           13 
 3902000   0.63420767    -7.551464    840.48433  0.017949862  0.017115613           27 
 3903000   0.62016677    -7.542539    841.87666   0.01797499  0.017110434           12 
 3904000   0.62467391   -7.5290373    841.71632  0.017966964  0.017105261           21 
 3905000   0.62023279    -7.529278    843.45813  0.017999533  0.017100086           15 
 3906000    0.6226283   -7.5524768    841.72185  0.017957882  0.017094913           19 
 3907000    0.6186671    -7.533575    841.89869  0.017957058  0.017089744            7 
 3908000   0.62815845   -7.5545141    839.78474  0.017907385  0.017084568           10 
 3909000   0.62177547   -7.5435075    840.49927  0.017918037   0.01707939           20 
 3910000   0.63130924   -7.5414027    841.44523  0.017933615  0.017074213           15 
 3911000   0.63689068   -7.5554251    841.19014  0.017923594  0.017069026           20 
 3912000   0.61710985   -7.5654355    839.01803  0.017872743  0.017063831           28 
 3913000   0.63355882   -7.5399528    840.45951  0.017898874  0.017058642           24 
 3914000   0.64148903   -7.5586411    841.11351  0.017908225  0.017053459           15 
 3915000   0.63309297   -7.5391903    841.00185  0.017901274  0.017048274            8 
 3916000   0.63013308    -7.547565    841.07745  0.017898311  0.017043093           18 
 3917000   0.62436744   -7.5456686    840.88835  0.017889719  0.017037919           28 
 3918000    0.6237863   -7.5540655    840.40471  0.017874866  0.017032738           28 
 3919000   0.63027497   -7.5405737    841.22625  0.017887774  0.017027572           16 
 3920000    0.6239345   -7.5278513    842.04278  0.017900569  0.017022413           51 
 3921000   0.62476204   -7.5511108    843.60935  0.017929298  0.017017255           16 
 3922000   0.62201087   -7.5453587    841.40196  0.017877825  0.017012088           24 
 3923000   0.63215096   -7.5464484     840.0439   0.01784442   0.01700692           15 
 3924000   0.63028612   -7.5350016    841.10632  0.017862435   0.01700175           12 
 3925000    0.6266893   -7.5286389    841.11406  0.017858048  0.016996582           31 
 3926000   0.61888392   -7.5531201    840.79769  0.017846784  0.016991414           31 
 3927000   0.62895937   -7.5484384    840.82745  0.017842871   0.01698625           39 
 3928000   0.63200653    -7.541927    840.21408  0.017825316  0.016981079           17 
 3929000   0.61869881   -7.5494768    842.55227  0.017870371   0.01697591           23 
 3930000   0.63267511   -7.5334528    841.89098  0.017851802  0.016970749           21 
 3931000   0.63031628   -7.5508158     842.2931  0.017855785  0.016965576           53 
 3932000   0.61699214    -7.536131    840.84082  0.017820465   0.01696041           62 
 3933000   0.62196686   -7.5869292    842.18745  0.017844467  0.016955242           35 
 3934000   0.62072977   -7.5736461    842.23862  0.017841015  0.016950084           78 
 3935000   0.63420842   -7.5423791    842.23262  0.017836354  0.016944934           56 
 3936000   0.62250855   -7.5415755    842.10572  0.017829135  0.016939775           64 
 3937000    0.6258011   -7.5554374    841.17029  0.017804807  0.016934618           52 
 3938000   0.63016635   -7.5528849    842.28747  0.017823926  0.016929471           18 
 3939000   0.62468038   -7.5454125    842.55099  0.017824976  0.016924337           36 
 3940000    0.6375863   -7.5670058    841.81519   0.01780489  0.016919184           22 
 3941000   0.63045905   -7.5544426    841.83941  0.017800884  0.016914031           29 
 3942000   0.61857777   -7.5677295    841.61843  0.017791697  0.016908884           34 
 3943000   0.63247166   -7.5501952    842.18961  0.017799256  0.016903734           25 
 3944000   0.62461775   -7.5615414    842.15132  0.017793934  0.016898586           46 
 3945000   0.63042252   -7.5546425    841.75171  0.017780982  0.016893441           31 
 3946000   0.61371534   -7.5346109    842.29933  0.017788041  0.016888299           35 
 3947000   0.61087565   -7.5435773    841.78543  0.017772685  0.016883162           31 
 3948000   0.61649596   -7.5707387    840.35809  0.017738055  0.016878018           38 
 3949000   0.60970439    -7.546083    841.43833  0.017756359  0.016872876           24 
 3950000   0.62162044   -7.5525044     840.3839  0.017729618  0.016867739           25 
 3951000   0.61472201   -7.5261769    841.87522  0.017756585  0.016862615           27 
 3952000   0.61704741    -7.548343    841.70487    0.0177485  0.016857487           30 
 3953000   0.60921374   -7.5494506    843.37238  0.017779163  0.016852358           35 
 3954000   0.62327663   -7.5433725    842.20756  0.017750117  0.016847242           65 
 3955000   0.62748202   -7.5479491    841.45759  0.017729827  0.016842118           61 
 3956000   0.61208327   -7.5560213    842.39054  0.017744998  0.016836998           79 
 3957000   0.61508356    -7.544588    842.63405  0.017745642  0.016831877           42 
 3958000   0.61782187   -7.5662556    842.36391   0.01773547  0.016826763           71 
 3959000   0.62356347   -7.5369264    841.58676  0.017714632  0.016821648           49 
 3960000   0.61691585   -7.5346226    839.03001  0.017656355  0.016816531           47 
 3961000    0.6164368   -7.5579734    840.83702  0.017689915  0.016811419           63 
 3962000   0.61832274    -7.551275    841.05896  0.017690118  0.016806303           49 
 3963000   0.61478936   -7.5741934    840.64243  0.017676895  0.016801197           44 
 3964000   0.61962239   -7.5522723    842.34379  0.017708203  0.016796094           64 
 3965000    0.6177545   -7.5487258    841.52646  0.017686559  0.016790991           30 
 3966000   0.60320186   -7.5550006    841.61825  0.017684028  0.016785888           46 
 3967000   0.60832748   -7.5510087     841.4531  0.017676101  0.016780785           32 
 3968000   0.61765225   -7.5511492    842.97192  0.017703543  0.016775683           31 
 3969000   0.61613359   -7.5541756    842.76202  0.017694676   0.01677058           25 
 3970000   0.61660901   -7.5518491    840.53162  0.017643401  0.016765468           35 
 3971000    0.6234277   -7.5508711    841.16814  0.017652316  0.016760366           49 
 3972000   0.61345536   -7.5578093    841.13598  0.017647197  0.016755266           31 
 3973000   0.60703907   -7.5560601    841.60866  0.017652669  0.016750166           64 
 3974000   0.62002074   -7.5654993    840.10001  0.017616591  0.016745072           84 
 3975000    0.5976297   -7.5820181    841.62493  0.017644129   0.01673998           30 
 3976000   0.61385267   -7.5857644    841.22789  0.017631369  0.016734886           35 
 3977000   0.61562477   -7.5627461     841.0813  0.017623864  0.016729802           31 
 3978000   0.61648748    -7.560801    841.67097  0.017631787  0.016724718           24 
 3979000   0.61069617   -7.5576191    844.26442  0.017681671  0.016719643           46 
 3980000   0.61588404    -7.557352    842.21725  0.017634365  0.016714577           52 
 3981000   0.59609697    -7.563918    841.33515   0.01761147  0.016709504           59 
 3982000   0.62025928   -7.5855472    842.00105  0.017620983  0.016704416           36 
 3983000   0.61517158   -7.5614507    841.56444  0.017607424  0.016699331           60 
 3984000   0.61702812   -7.5591145    842.44472  0.017621417  0.016694246           46 
 3985000   0.61873631   -7.5778287    841.90713  0.017605753  0.016689156           24 
 3986000   0.59980894   -7.5626271    841.26068  0.017587822  0.016684066           15 
 3987000   0.61858022   -7.5684989    842.68561  0.017613193  0.016678971           25 
 3988000   0.61209862   -7.5877989    842.67368  0.017608527  0.016673891           59 
 3989000   0.62401859   -7.5635051    840.99045  0.017568949   0.01666881           35 
 3990000   0.60621084   -7.5687624    841.26201  0.017570217  0.016663724           68 
 3991000   0.61510782   -7.5515161    840.95257  0.017559354  0.016658641           18 
 3992000   0.61470901   -7.5954821    842.56486  0.017588612  0.016653561           34 
 3993000   0.61273374   -7.5837706    840.54689  0.017542092  0.016648473           21 
 3994000   0.60682606   -7.5473299    840.80795  0.017543147  0.016643386           26 
 3995000    0.6137006   -7.5627525    840.81693  0.017538943  0.016638306           37 
 3996000   0.62580803   -7.5764539    841.40711  0.017546862  0.016633224           44 
 3997000   0.60817618   -7.5770958    841.25732  0.017539349  0.016628139           46 
 3998000   0.62432647   -7.5739465     842.1915  0.017554433   0.01662306           41 
 3999000   0.60627323   -7.5712799    840.69889   0.01751894  0.016617981           32 
 4000000   0.59756605   -7.5905778    839.83663  0.017496597   0.01661291           31 
 4001000   0.62784638   -7.5729118    841.91936  0.017535603  0.016607832           42 
 4002000   0.60021993   -7.5670527    841.64995  0.017525611  0.016602755           21 
 4003000   0.61722209   -7.5640155    839.85687  0.017483905  0.016597681           62 
 4004000   0.61783261   -7.5695643    840.70948  0.017497284  0.016592612           22 
 4005000   0.62338269   -7.5883406    840.04514  0.017479091   0.01658754           33 
 4006000   0.60185651   -7.5864299    839.75589  0.017468711  0.016582459           35 
 4007000   0.61525433   -7.5843337    840.98319  0.017489876  0.016577391           40 
 4008000    0.6185175   -7.5649438    840.45096  0.017474446  0.016572325           29 
 4009000   0.60321719    -7.588629    839.16182  0.017443291  0.016567263           34 
 4010000   0.61113511   -7.5589421     842.0088  0.017498105  0.016562194           21 
 4011000   0.61470077   -7.5653011    841.22727  0.017477505  0.016557122           22 
 4012000   0.60637866   -7.5568986    841.13017  0.017471132  0.016552054           29 
 4013000   0.60014373   -7.5577086    841.89813  0.017482726  0.016546984           10 
 4014000   0.61748889   -7.5769484    840.56743  0.017450744  0.016541922           26 
 4015000   0.61842559   -7.5789271    840.90257  0.017453353  0.016536861           24 
 4016000   0.60840066    -7.590915    840.81993  0.017447293  0.016531806           15 
 4017000   0.61005744   -7.6007444      841.624   0.01745963  0.016526753           39 
 4018000   0.61261166   -7.5521324    840.80785  0.017438358  0.016521688           24 
 4019000   0.62110831   -7.6025624    839.81406  0.017413413  0.016516621           19 
 4020000   0.59783984    -7.598666    838.54008  0.017382672  0.016511557           17 
 4021000    0.6167389   -7.5966974    839.73309  0.017403073  0.016506494           19 
 4022000   0.61940631   -7.5906966    839.96772  0.017403608   0.01650143           21 
 4023000   0.61215471   -7.6003509    842.44492  0.017450595  0.016496371           27 
 4024000   0.60016543   -7.5730213    840.61939  0.017408453  0.016491323           15 
 4025000   0.60412434   -7.5847081    841.03363  0.017412705  0.016486279           23 
 4026000   0.61040461   -7.5692808     840.5423   0.01739821  0.016481226           17 
 4027000   0.60797357   -7.5835991      840.249   0.01738782   0.01647617           14 
 4028000   0.62137778   -7.5627011    840.51226  0.017388949  0.016471125           16 
 4029000   0.62148193   -7.5755771    840.30111  0.017380266  0.016466076           20 
 4030000    0.6144814   -7.5895889    839.69679  0.017363457  0.016461031           46 
 4031000   0.60856059   -7.5755289    840.22304  0.017370029  0.016455986           19 
 4032000   0.59567068    -7.558672    840.80964  0.017377845  0.016450941           17 
 4033000   0.60119667   -7.5779381    840.26506  0.017362283  0.016445895           34 
 4034000   0.59568987    -7.587725    840.64683  0.017365866  0.016440864           16 
 4035000   0.62329214   -7.5912398      840.336  0.017355142  0.016435827           19 
 4036000   0.61066463   -7.5894979    840.91421  0.017362781  0.016430803           33 
 4037000   0.61477229   -7.5772317    839.76493  0.017334756  0.016425773           36 
 4038000   0.60664629   -7.5907185    841.47753  0.017365807  0.016420743           39 
 4039000   0.59137762   -7.5914989    841.12207  0.017354173   0.01641571           24 
 4040000   0.60962546   -7.5765991    840.80116  0.017343258  0.016410676           39 
 4041000   0.60191882   -7.5853662    841.22213  0.017347648  0.016405638           25 
 4042000   0.60559432   -7.5988917    841.83394  0.017355969  0.016400605           22 
 4043000   0.60292207   -7.5474029    839.04565  0.017294205  0.016395572           44 
 4044000    0.6055309   -7.5836386    839.76632  0.017304779  0.016390541           34 
 4045000    0.6109646   -7.5902827     839.2847  0.017290579  0.016385508           38 
 4046000   0.60476519   -7.5833666    840.05122  0.017302093  0.016380471           70 
 4047000   0.61009744    -7.593585    839.23599  0.017281031  0.016375442           22 
 4048000   0.60411813   -7.6163178    840.61652  0.017305182   0.01637041           29 
 4049000   0.60333989   -7.5753773    840.62897  0.017301164  0.016365379           35 
 4050000    0.6073824   -7.5910946    840.19874   0.01728804  0.016360354           31 
 4051000   0.60138723   -7.5982662     840.8935  0.017298064  0.016355325           28 
 4052000   0.60228802   -7.5967629    840.18845  0.017279295    0.0163503           17 
 4053000   0.59603321   -7.5776768    838.28187  0.017235831  0.016345271           28 
 4054000   0.60270864    -7.618609    839.10742  0.017248549  0.016340247           22 
 4055000   0.60368584   -7.5950281    839.45302  0.017251398  0.016335223           18 
 4056000   0.61285286   -7.6011635    839.80354  0.017254346  0.016330203           20 
 4057000   0.60232033   -7.5953853     841.4985  0.017284909  0.016325179           45 
 4058000    0.6004078   -7.5918254    841.98116  0.017290561  0.016320157           21 
 4059000    0.5890353   -7.5874945    840.73819  0.017260782  0.016315143           65 
 4060000   0.58953742   -7.5921692    841.22065  0.017266434   0.01631014           22 
 4061000   0.61165207   -7.5928318    840.85452  0.017254669  0.016305135           57 
 4062000    0.5950493   -7.5888807    839.88006   0.01723043  0.016300121           21 
 4063000   0.59885763   -7.5942861    840.70033  0.017243013  0.016295109           18 
 4064000   0.61049887   -7.5909487    841.06186  0.017246183  0.016290097           13 
 4065000   0.58705638   -7.6001976     838.9324  0.017198286  0.016285084           18 
 4066000   0.59756556   -7.5967608    839.34615  0.017202536  0.016280075           29 
 4067000   0.59833429   -7.5863017    841.20804  0.017236457  0.016275083           34 
 4068000   0.60312037   -7.6104085    841.25479  0.017233177  0.016270088           37 
 4069000   0.58546375   -7.5778022    841.78408  0.017239782  0.016265088           22 
 4070000   0.60870413   -7.5917073    839.78966   0.01719471  0.016260095           21 
 4071000   0.60764491   -7.6043334    839.19985  0.017178413  0.016255102           27 
 4072000   0.61326271   -7.5992509    839.63769  0.017183155   0.01625011           25 
 4073000   0.60279659    -7.606143    840.36537  0.017193825  0.016245125           17 
 4074000   0.59877324   -7.5882176    842.20345  0.017227202  0.016240144           22 
 4075000   0.61294234   -7.5918263    840.04267  0.017178787  0.016235167           17 
 4076000   0.59535089   -7.6006323    840.68734  0.017187752  0.016230193           28 
 4077000   0.59700023   -7.5762432    841.93743  0.017209088  0.016225221           27 
 4078000   0.60804243   -7.5926676    840.61289  0.017177801  0.016220244           19 
 4079000   0.60979202   -7.6104383    839.76923  0.017156354  0.016215271           33 
 4080000   0.58638219   -7.5829725    841.31701  0.017183762  0.016210296           14 
 4081000    0.5959719   -7.6217332    840.74048  0.017167779  0.016205321           21 
 4082000   0.59532901   -7.5954224    840.39883  0.017156599  0.016200347           20 
 4083000   0.60272172   -7.5892536     841.8071  0.017181139  0.016195382           11 
 4084000   0.60015013   -7.5983527    840.99973  0.017160458  0.016190428           21 
 4085000   0.59561726   -7.5961164    841.72937  0.017171142  0.016185459           19 
 4086000   0.61388075   -7.5912735    838.69348  0.017105023  0.016180493            8 
 4087000    0.5923373   -7.5742446    840.24456  0.017132464  0.016175528           14 
 4088000   0.59485033   -7.6037217    840.22242  0.017127822  0.016170567           13 
 4089000   0.59922398   -7.6020289    840.67574  0.017132872  0.016165599           10 
 4090000   0.60295437   -7.6014995    839.42376  0.017103174  0.016160628           15 
 4091000   0.60324153   -7.6121307    840.22909  0.017115397  0.016155657           15 
 4092000    0.6110125   -7.6298812    839.47449  0.017095847  0.016150683           12 
 4093000   0.60041035   -7.6121198    840.91243  0.017120947  0.016145716            9 
 4094000   0.58712974   -7.5969557    841.90636  0.017136997  0.016140757           26 
 4095000   0.58783168   -7.6327788     841.4871   0.01712428  0.016135789           27 
 4096000   0.58130234   -7.6101704     839.4299  0.017078245  0.016130818           19 
 4097000   0.59111366   -7.6086598    839.85282  0.017082679  0.016125855           26 
 4098000   0.61916948    -7.623495    841.79587  0.017118022  0.016120896           19 
 4099000   0.59366329   -7.6203348    841.22988   0.01710234  0.016115936           13 
 4100000   0.59871638   -7.6157587    839.94139   0.01707198  0.016110982           10 
 4101000   0.58607306   -7.6173942    840.77683  0.017084793  0.016106041           10 
 4102000   0.59173759   -7.6349925    841.48013  0.017094916  0.016101093           17 
 4103000   0.58580981   -7.6073948    839.74243  0.017055456  0.016096151           19 
 4104000   0.59466938   -7.6040371     840.7825  0.017072419  0.016091204           22 
 4105000   0.59931487   -7.6122547    840.41267  0.017060752  0.016086281           16 
 4106000   0.60195345   -7.6047548    840.17652  0.017051805   0.01608135           40 
 4107000   0.59829707   -7.5939954    841.67802  0.017078119  0.016076418           22 
 4108000   0.59581362   -7.6033904    840.27164  0.017045432  0.016071491           17 
 4109000   0.59662774   -7.6139014    840.80216  0.017052044  0.016066557           18 
 4110000    0.6027605   -7.5962115    840.84039   0.01704867  0.016061632           10 
 4111000   0.60143414   -7.6117344    839.28972  0.017013089    0.0160567           18 
 4112000   0.60563203   -7.5968209    839.85775  0.017020463  0.016051772           20 
 4113000   0.59971579   -7.6330038    841.75718   0.01705481  0.016046854           17 
 4114000   0.59216946   -7.6136861    840.67426  0.017028728  0.016041931            8 
 4115000   0.59765335   -7.6043188    843.15167   0.01707476  0.016037012           13 
 4116000   0.60228725   -7.6020683    839.91037  0.017004988  0.016032092           17 
 4117000   0.59627985   -7.6153122    840.91062  0.017021104   0.01602718           24 
 4118000   0.59336111   -7.6161086    838.76421  0.016973535  0.016022262           17 
 4119000   0.59746835   -7.6149527    841.18407  0.017018372  0.016017349           21 
 4120000   0.58559769   -7.6050277    839.74195  0.016985072  0.016012444           15 
 4121000   0.59602777   -7.6228679     841.4002  0.017014483   0.01600753           13 
 4122000   0.59490554   -7.6076119    841.38412   0.01701003   0.01600262           17 
 4123000   0.59253639   -7.6226839     839.8086   0.01697406  0.015997707           17 
 4124000   0.58147035   -7.6208151    840.21801  0.016978217  0.015992796           19 
 4125000   0.59422479   -7.6237892     840.6796  0.016983426  0.015987883           17 
 4126000   0.59047326   -7.6018531    839.63329  0.016958178  0.015982981           24 
 4127000   0.59269142   -7.6345474    841.50906  0.016991944   0.01597807           11 
 4128000   0.59370372   -7.6307299    838.70159  0.016931153  0.015973156           28 
 4129000    0.5896875   -7.6174121    840.37961  0.016960919   0.01596825           13 
 4130000   0.58469863   -7.6336523    842.72025   0.01700404  0.015963348           20 
 4131000   0.58391453   -7.6173246    840.86815  0.016962563  0.015958449           25 
 4132000   0.58517153   -7.6298399    839.98529  0.016940652  0.015953548           22 
 4133000    0.6086543   -7.6311936    841.57152  0.016968536  0.015948648           13 
 4134000   0.59446613   -7.6127694    839.59501  0.016924589  0.015943745           18 
 4135000   0.59935896   -7.6164878    839.54497  0.016919488  0.015938845           15 
 4136000   0.59045497   -7.6429014    841.57008  0.016956199  0.015933945           19 
 4137000   0.58069167   -7.6246964    839.94323   0.01691933  0.015929045           19 
 4138000   0.59337173   -7.6246057    840.47987  0.016926049  0.015924147           29 
 4139000   0.59674247    -7.631336    839.42066  0.016900633  0.015919255           24 
 4140000   0.58390925    -7.626229    839.33441  0.016894815  0.015914359           22 
 4141000   0.59008388   -7.6106046    840.82109  0.016920653  0.015909468           26 
 4142000   0.57611822   -7.6220186    840.97827   0.01691973  0.015904582           39 
 4143000   0.60067209   -7.6256925    840.13129   0.01689861    0.0158997           35 
 4144000   0.59502525   -7.6322922    842.69741  0.016946135  0.015894819           34 
 4145000   0.58837809   -7.6399555    840.67971  0.016901482  0.015889938           56 
 4146000   0.59407798   -7.6312061    840.12719    0.0168863  0.015885049           15 
 4147000   0.59454094   -7.6221607    839.22646  0.016864128  0.015880167           34 
 4148000    0.5772416   -7.6210974    839.80257  0.016871636  0.015875285           35 
 4149000    0.5895027   -7.6228866    841.19407  0.016895518  0.015870397           39 
 4150000   0.58341487    -7.651916    840.48425  0.016877194  0.015865522           26 
 4151000   0.59014504   -7.6260593    841.33762   0.01689026  0.015860649           38 
 4152000   0.59112065   -7.6390753    839.65583  0.016852437  0.015855774           37 
 4153000   0.58877758   -7.6129684    840.16932  0.016858683    0.0158509           36 
 4154000   0.58419929   -7.6517827    839.32851  0.016837757  0.015846027           31 
 4155000   0.58564034   -7.6386523    838.41326  0.016815348  0.015841143           41 
 4156000   0.58937981    -7.638169     841.0043  0.016863256  0.015836266           43 
 4157000    0.5688654   -7.6391655     841.0122  0.016859358  0.015831383           29 
 4158000    0.5794206   -7.6302179    839.85245   0.01683206  0.015826507           34 
 4159000    0.5860122   -7.6512767    839.20622  0.016815064  0.015821628           47 
 4160000   0.57841408   -7.6677595    839.78024  0.016822521  0.015816751           58 
 4161000   0.58866031   -7.6571109    840.55554  0.016834005  0.015811885           39 
 4162000   0.58139008   -7.6305322    839.69503  0.016812731  0.015807009           60 
 4163000   0.58607152   -7.6332803    840.68034  0.016828416  0.015802139           37 
 4164000   0.58179248   -7.6421704    839.69784  0.016804712  0.015797268           62 
 4165000   0.58800937   -7.6343946     839.2778  0.016792273  0.015792397           21 
 4166000   0.60134583   -7.6428615    839.83847  0.016799457  0.015787524           37 
 4167000   0.58610314   -7.6467641    838.74969  0.016773652  0.015782646           32 
 4168000   0.58767267   -7.6586026    840.38189  0.016802261  0.015777778           34 
 4169000   0.58947887   -7.6531873    839.78485  0.016786297  0.015772909           60 
 4170000   0.58345366   -7.6337043    840.60475  0.016798656   0.01576804           37 
 4171000   0.59458411   -7.6438476     838.5644  0.016753864  0.015763175           39 
 4172000   0.57766497   -7.6488903    839.72012  0.016772933  0.015758307           45 
 4173000    0.5784138   -7.6601711    839.29847  0.016760493   0.01575344           37 
 4174000   0.57885653   -7.6454925    840.81854  0.016786826   0.01574858           46 
 4175000   0.59457082   -7.6463138    839.39379  0.016754367  0.015743724           52 
 4176000   0.56912997   -7.6417185    840.12363  0.016764919  0.015738866           34 
 4177000   0.58025518   -7.6573988    839.39443  0.016746358  0.015734012           60 
 4178000   0.59253252   -7.6584021    839.30286  0.016740523  0.015729161          143 
 4179000   0.58048808    -7.670693    840.57511  0.016761887  0.015724301           66 
 4180000   0.57910131   -7.6602757    840.52789  0.016756936  0.015719451           39 
 4181000   0.58479584   -7.6211213    839.72587  0.016736942  0.015714602           34 
 4182000   0.58449144   -7.6272147     841.4518  0.016767332  0.015709747           63 
 4183000   0.57984023   -7.6519159    840.11835  0.016736759  0.015704895           59 
 4184000   0.58005274   -7.6527691    839.28227  0.016716106  0.015700039           23 
 4185000   0.57002297   -7.6469722    839.40008  0.016714458  0.015695195           37 
 4186000   0.58679561   -7.6602665     841.5629  0.016753522  0.015690352           74 
 4187000   0.57957936    -7.640694    839.63475  0.016711145  0.015685505           52 
 4188000   0.58334474   -7.6546985    840.30471  0.016720485  0.015680669           28 
 4189000   0.58117253   -7.6472698    840.25971  0.016715599  0.015675834           59 
 4190000   0.57194489   -7.6741858    839.43497  0.016695206  0.015670989           43 
 4191000   0.57517386   -7.6283675    839.64538  0.016695406  0.015666152           39 
 4192000   0.58318771   -7.6409834    839.72232  0.016692953  0.015661311           30 
 4193000   0.59254491   -7.6660421    839.41954  0.016682954  0.015656475           59 
 4194000   0.58124675   -7.6755707    839.26104  0.016675827   0.01565165           61 
 4195000   0.57747769   -7.6440909    839.82931  0.016683141  0.015646825           62 
 4196000   0.57375749   -7.6322141     837.7685  0.016638237  0.015642002           85 
 4197000   0.57937243   -7.6655915     838.9333    0.0166574  0.015637175           81 
 4198000   0.57759587   -7.6281412     838.9778  0.016654315  0.015632353           89 
 4199000   0.56534075   -7.6340584    838.90065  0.016648818  0.015627531           57 
 4200000   0.58700887   -7.6420832    839.44206  0.016655596  0.015622709           30 
 4201000   0.57389942   -7.6419265    839.52628  0.016653302  0.015617891           73 
 4202000   0.59037931   -7.6368832    839.45008  0.016647828  0.015613077           34 
 4203000    0.5801073   -7.6453392    839.09529  0.016636833  0.015608265          144 
 4204000   0.57502279   -7.6480772    839.79538  0.016646753  0.015603449           65 
 4205000   0.58326015   -7.6582193    840.65447  0.016659819  0.015598637           56 
 4206000   0.58820875   -7.6423317    839.07867  0.016624637  0.015593821          108 
 4207000   0.57314774   -7.6534293    838.41399  0.016607519  0.015589009           64 
 4208000   0.58565009   -7.6555983    839.16423   0.01661843   0.01558419           53 
 4209000   0.57859191   -7.6480307    839.53934  0.016621908  0.015579383           84 
 4210000   0.56806099   -7.6489894    840.00716   0.01662722  0.015574584           34 
 4211000   0.57517669   -7.6157006    839.35689  0.016610403  0.015569785           77 
 4212000   0.56541688   -7.6602048    840.45506  0.016628186   0.01556498           57 
 4213000   0.57810134   -7.6486975    838.22571  0.016580143   0.01556018           91 
 4214000    0.5832806   -7.6498335    840.17165   0.01661469  0.015555384           86 
 4215000   0.57261472   -7.6421015     839.8455    0.0166043  0.015550584           81 
 4216000   0.56661179   -7.6538274    840.88656  0.016620939  0.015545789           88 
 4217000   0.58498702    -7.658292     839.3894  0.016587412  0.015540994          114 
 4218000   0.58914841   -7.6512122    840.88234  0.016612975  0.015536196           96 
 4219000   0.57835715   -7.6420345    839.00883  0.016572032  0.015531401           94 
 4220000   0.58444564   -7.6492138     840.0529  0.016588722  0.015526604          101 
 4221000   0.59274952   -7.6519754    839.98792   0.01658351  0.015521816           47 
 4222000   0.57961416   -7.6563916    839.58451  0.016571619  0.015517033          107 
 4223000   0.58625705   -7.6469768     839.2592  0.016561276   0.01551225          113 
 4224000   0.56229591   -7.6581505    838.32592  0.016538943  0.015507467           88 
 4225000   0.57618959   -7.6683175    839.37064  0.016555634  0.015502684           63 
 4226000   0.57873832   -7.6604114     838.5006   0.01653456  0.015497905           95 
 4227000   0.58631798   -7.6601317    840.01172  0.016560439  0.015493124          131 
 4228000   0.56429089   -7.6517399    839.52182  0.016546866  0.015488342          103 
 4229000   0.55984809   -7.6580999    840.30024  0.016558293   0.01548356           63 
 4230000    0.5692156   -7.6547187    840.29561  0.016554287   0.01547878           91 
 4231000   0.57598089   -7.6589203    838.34355  0.016511927     0.015474           69 
 4232000   0.57446917   -7.6632024    839.07822  0.016522492  0.015469224           90 
 4233000   0.57352824   -7.6576866    839.93276  0.016535411  0.015464447           68 
 4234000   0.57904895   -7.6473864    840.60861  0.016544808   0.01545968           56 
 4235000   0.57215587   -7.6466574    839.37681  0.016516663   0.01545491           39 
 4236000   0.57042854   -7.6491131    840.38061  0.016532511  0.015450137           70 
 4237000   0.56728121    -7.661854    840.08384  0.016522772  0.015445372           52 
 4238000   0.56860107   -7.6570631    839.36177  0.016504675  0.015440605           63 
 4239000   0.57733609   -7.6481928    838.54516  0.016484728  0.015435843           51 
 4240000    0.5754882   -7.6673431    838.90146  0.016487843  0.015431081           27 
 4241000     0.563861   -7.6543867     839.1085  0.016488024   0.01542632           86 
 4242000   0.57437816   -7.6475587     838.3226  0.016468698   0.01542157          116 
 4243000   0.57288499   -7.6500979    839.49247  0.016487793  0.015416812           65 
 4244000   0.57484026   -7.6583576    839.87824  0.016491483  0.015412055           63 
 4245000   0.57806131   -7.6644695    840.10518  0.016492053  0.015407295           74 
 4246000   0.58831744   -7.6507814    838.89352  0.016464388  0.015402543           51 
 4247000   0.57725458   -7.6719778    838.93669  0.016461359  0.015397792           43 
 4248000   0.57842145    -7.661788    839.47732  0.016468089  0.015393046           86 
 4249000   0.57521165   -7.6561609    839.15113  0.016457816  0.015388303           85 
 4250000   0.57475187   -7.6529295    838.11896  0.016433705  0.015383548           97 
 4251000   0.58326782   -7.6659185    839.71842  0.016461194  0.015378794           66 
 4252000   0.58180633   -7.6643565    838.25694  0.016428679   0.01537404           79 
 4253000   0.56641338   -7.6494093     839.2517  0.016444308   0.01536929          139 
 4254000   0.56431271   -7.6807712    837.99933  0.016415909  0.015364533           51 
 4255000   0.57627141   -7.6512649    839.77524  0.016446832   0.01535979           76 
 4256000   0.58288881   -7.6480062    838.91737   0.01642617  0.015355042           86 
 4257000   0.56595159   -7.6654839    837.57588  0.016396051  0.015350292           97 
 4258000   0.56403794   -7.6819014     839.0603  0.016421252  0.015345545          134 
 4259000   0.58513039   -7.6614369    838.96125  0.016415458  0.015340805          166 
 4260000   0.56117511   -7.6727859    840.09904  0.016433862  0.015336067           66 
 4261000    0.5639626   -7.6467605    840.08489  0.016429729  0.015331333           53 
 4262000   0.56762151   -7.6613244    838.49293  0.016394747  0.015326604           81 
 4263000   0.57849643   -7.6764385     838.9301  0.016399447  0.015321879          101 
 4264000   0.56900506   -7.6697824    839.04163   0.01639778  0.015317152           73 
 4265000   0.58032073   -7.6744982    839.70048  0.016406809  0.015312426          109 
 4266000   0.56412423   -7.6343874    840.44609  0.016417528  0.015307704           95 
 4267000   0.57868865   -7.6728661    838.44985  0.016374694  0.015302984           89 
 4268000   0.56073598   -7.6704455    839.82154   0.01639764  0.015298268          128 
 4269000   0.56516366   -7.6678321    838.78282  0.016373523  0.015293547           87 
 4270000   0.56345886   -7.6735237    839.88888  0.016391274  0.015288828           43 
 4271000   0.57481539   -7.6681172     838.5035  0.016360405  0.015284102          124 
 4272000   0.57681294   -7.6740873    837.91813  0.016345157  0.015279372          100 
 4273000   0.58370718   -7.6840733      839.523   0.01637263  0.015274649          131 
 4274000   0.56608661   -7.6741862     840.8742  0.016395145   0.01526993           30 
 4275000    0.5660443   -7.6664637    839.99775  0.016374225  0.015265212           85 
 4276000   0.55629861   -7.6662646     839.9011  0.016368512  0.015260503           76 
 4277000   0.57303818   -7.6758509    840.35739  0.016373575  0.015255791          109 
 4278000    0.5756707   -7.6775508    839.64784  0.016355926  0.015251078           82 
 4279000   0.57480137   -7.6816132    838.87312  0.016337016  0.015246369          122 
 4280000   0.56353923   -7.6753391    840.06486  0.016356403  0.015241658           77 
 4281000   0.56451798   -7.6684546    840.39817   0.01635907   0.01523695           76 
 4282000   0.56514049   -7.6741062    840.48715  0.016356982  0.015232243          115 
 4283000   0.56892974   -7.6753531    839.72303  0.016338295   0.01522754          110 
 4284000   0.57528001   -7.6797094    840.84904  0.016356385  0.015222838          120 
 4285000   0.56233543   -7.6647091    839.32731  0.016322974  0.015218136          138 
 4286000   0.55868688   -7.6872832    837.89184  0.016291255  0.015213438          139 
 4287000   0.56599913   -7.6934317      839.192  0.016312728  0.015208736           37 
 4288000   0.56039436   -7.6649034    840.93917  0.016342879  0.015204043           98 
 4289000   0.55278615   -7.6652414     838.5563   0.01629277  0.015199347          143 
 4290000   0.55778542   -7.6830076    838.82224  0.016294138  0.015194653          124 
 4291000   0.57156322   -7.6741072    839.95033  0.016312249  0.015189961           92 
 4292000   0.55868033   -7.6683969    839.10433  0.016292022  0.015185267          104 
 4293000   0.55734969   -7.6831435    839.30566  0.016292136  0.015180571          132 
 4294000   0.55496971   -7.6614973    839.19335  0.016286162  0.015175881          102 
 4295000   0.56313481   -7.6742193    837.39016  0.016247384  0.015171194           58 
 4296000   0.55706786   -7.6762375    838.61888  0.016267436  0.015166502          127 
 4297000   0.56330007   -7.6744812    839.71366  0.016284882  0.015161812           76 
 4298000   0.57731316   -7.6817608    838.82071   0.01626378  0.015157136           73 
 4299000   0.54711749   -7.6795123    838.96832  0.016262858  0.015152451           96 
 4300000   0.57794681   -7.6785517    837.63245  0.016233187  0.015147768          135 
 4301000   0.56400925   -7.6813113     840.9744  0.016294164  0.015143094           71 
 4302000   0.55412285   -7.6623297    839.70286  0.016265746  0.015138417           48 
 4303000   0.57409601   -7.6751056    839.66287  0.016261191  0.015133747          103 
 4304000   0.56699464   -7.6702384    838.80076  0.016240721  0.015129081           75 
 4305000   0.56731838   -7.6806912    839.94951  0.016259185  0.015124412          122 
 4306000   0.57356102   -7.6815744    838.70188  0.016231264   0.01511974          125 
 4307000    0.5736201   -7.6789057    840.05459  0.016253668   0.01511507          172 
 4308000      0.55927   -7.6758135    839.37174  0.016236686  0.015110399           86 
 4309000   0.55324995   -7.6811208    839.32312  0.016231978  0.015105729           59 
 4310000   0.56976473   -7.6729702    838.71576  0.016216469  0.015101059          114 
 4311000   0.55572843   -7.6618025    838.66816  0.016211787  0.015096392          152 
 4312000   0.56643335   -7.6623165     839.6338  0.016226689  0.015091729           68 
 4313000   0.55747785   -7.6874945    839.53637  0.016221044  0.015087066           47 
 4314000   0.55526416   -7.6632189    839.30792  0.016212871  0.015082402           41 
 4315000   0.56211917   -7.6599095    838.57014  0.016194866  0.015077737           98 
 4316000   0.56099101   -7.7015031    838.25264  0.016184983  0.015073075          122 
 4317000   0.55398687   -7.6824756     838.7848  0.016191506  0.015068414          145 
 4318000   0.56710292   -7.6986388    839.30773  0.016197849  0.015063751           81 
 4319000   0.55551193   -7.6783638    839.89853  0.016205498  0.015059086           63 
 4320000   0.57424752   -7.7033324    838.48578  0.016174494   0.01505443           88 
 4321000   0.55278415   -7.6901211    838.21675  0.016165562  0.015049776          105 
 4322000   0.56137088   -7.6971873    839.84961  0.016193306  0.015045127           97 
 4323000   0.56062434   -7.6957051    837.90356  0.016152046  0.015040473           33 
 4324000   0.55726276   -7.6814277    837.46563  0.016139871  0.015035825          113 
 4325000   0.56289203   -7.6841828    838.75008  0.016160888  0.015031169           43 
 4326000   0.55585137    -7.686141    838.63113  0.016154861  0.015026521           45 
 4327000   0.55766579   -7.6718056    838.26823  0.016144138  0.015021872           36 
 4328000   0.56649336   -7.6966784    838.00123  0.016135267  0.015017227           32 
 4329000    0.5656156   -7.6947376     837.9427  0.016130413  0.015012579           48 
 4330000   0.57261055   -7.6758346     838.2396  0.016132402  0.015007935           45 
 4331000   0.55094769   -7.6789823    839.67832   0.01615636  0.015003295           44 
 4332000   0.55709717   -7.6689077    839.07787  0.016141079  0.014998665           33 
 4333000    0.5716375    -7.696768    838.76888  0.016131412  0.014994028           55 
 4334000   0.56925267   -7.6973729    839.57576  0.016143204  0.014989396           31 
 4335000   0.55183936   -7.6934846    839.10253  0.016130383  0.014984763           33 
 4336000   0.56980092   -7.6971901    838.22056  0.016109712  0.014980128           32 
 4337000   0.56196194   -7.7027471    839.63073  0.016133094  0.014975489           33 
 4338000   0.55993907   -7.6972233    837.73645  0.016092986  0.014970858           48 
 4339000   0.56161629   -7.6799804    838.13515  0.016096934  0.014966229           55 
 4340000   0.54620795   -7.6834234    838.87021  0.016107339  0.014961602           49 
 4341000   0.56285544   -7.6955741    838.69214   0.01610021  0.014956977           27 
 4342000   0.55469137   -7.7007151    838.74006  0.016097422  0.014952354           52 
 4343000   0.55411096    -7.677623    838.22444  0.016083822  0.014947734           48 
 4344000   0.56118785    -7.687991    839.10071  0.016096929  0.014943118           51 
 4345000   0.55381269   -7.7010089    838.90321  0.016089436  0.014938503           40 
 4346000   0.55539149   -7.6792438     837.7239  0.016063121  0.014933897           64 
 4347000   0.56001277   -7.6821164    839.41523  0.016091849  0.014929286           43 
 4348000   0.54823852   -7.6946893    838.60092  0.016072541  0.014924676           35 
 4349000   0.54996057   -7.6753369    838.78007  0.016072278  0.014920065           65 
 4350000    0.5594934   -7.6609569    840.52472  0.016102006  0.014915461           42 
 4351000   0.55873398   -7.6935416    838.15026  0.016052828  0.014910853           22 
 4352000   0.56878211     -7.68663    839.13057  0.016067911   0.01490625           27 
 4353000   0.55511172   -7.6961679    840.18307  0.016084368   0.01490164           67 
 4354000   0.54862959    -7.689756    837.02596  0.016020249  0.014897028           67 
 4355000    0.5403015   -7.6859331    838.23416  0.016039689  0.014892423           66 
 4356000   0.54774978   -7.6944953    838.40643  0.016039303  0.014887812           40 
 4357000   0.56011144   -7.7232901    838.01483  0.016028132  0.014883203           67 
 4358000   0.55095008   -7.6869627    839.05861  0.016044413  0.014878602           52 
 4359000   0.55275624    -7.704052     839.1356  0.016042204     0.014874           65 
 4360000   0.56056889   -7.6830882    838.77474  0.016031627  0.014869399           40 
 4361000   0.55422719   -7.6866666     838.4092  0.016020966  0.014864803           47 
 4362000   0.55001765   -7.6851729    839.07165  0.016029949  0.014860213           39 
 4363000   0.54466569     -7.68551    840.59701  0.016055409  0.014855628           28 
 4364000   0.55452122   -7.6875339     839.2098  0.016025241   0.01485104           39 
 4365000   0.54926729   -7.7025811    838.18402  0.016001986  0.014846454           21 
 4366000   0.54084139    -7.675889    838.13564  0.015997397  0.014841869           55 
 4367000   0.56039982   -7.6920594    837.51952  0.015981977  0.014837279           44 
 4368000   0.55492175    -7.680682    839.36324  0.016013493  0.014832692           54 
 4369000   0.54739187   -7.6931063    839.29477  0.016008522  0.014828106           34 
 4370000   0.54718119   -7.6794164    838.08894  0.015981864  0.014823515           68 
 4371000   0.55630847   -7.6986908    838.24107  0.015981108  0.014818929          104 
 4372000   0.54096892   -7.6829277    838.70348  0.015986266  0.014814349           35 
 4373000   0.55708004    -7.681199     837.9584  0.015968412  0.014809769           58 
 4374000   0.56380262   -7.6742266    838.36033  0.015972419   0.01480519           60 
 4375000   0.55437787   -7.6961513    838.78896  0.015976933  0.014800614           29 
 4376000   0.55747914   -7.6961752    838.83901  0.015974235  0.014796047           54 
 4377000   0.56042205   -7.6844797    838.62106  0.015966435  0.014791478           32 
 4378000     0.559755   -7.7024665    838.97361  0.015969499  0.014786913           67 
 4379000    0.5490305   -7.6895114    837.15948  0.015931329  0.014782347           56 
 4380000   0.56143123   -7.7015066    837.51252  0.015934409  0.014777781           33 
 4381000   0.55311671   -7.6764895    836.92428  0.015919582  0.014773212           55 
 4382000   0.56570457   -7.7060319    839.34999   0.01596208  0.014768646           55 
 4383000   0.55131615   -7.6929538    838.31263  0.015938714  0.014764083           65 
 4384000   0.55127629   -7.6867816    837.07299  0.015911515  0.014759523           65 
 4385000   0.53850441   -7.6846512    838.15961  0.015928537  0.014754969           57 
 4386000   0.54122819   -7.6947166    838.48098  0.015931011  0.014750404           49 
 4387000   0.56353694   -7.6876607    838.25229  0.015923036  0.014745838           42 
 4388000   0.54175369   -7.7057101    839.10442   0.01593559  0.014741278           59 
 4389000   0.55152649   -7.6829666    839.80594  0.015945279   0.01473672           32 
 4390000   0.54800731   -7.7000432    837.20007   0.01589218  0.014732172           35 
 4391000   0.55062109   -7.7098823    837.30577  0.015890567  0.014727621           88 
 4392000   0.54208887   -7.7031499     837.6962  0.015894357  0.014723067          157 
 4393000   0.54545125   -7.6939649     836.4149  0.015866433  0.014718512           53 
 4394000    0.5384073   -7.6928876    837.82788   0.01588962  0.014713963           36 
 4395000   0.55449826   -7.7095043    838.29686  0.015894897  0.014709416           51 
 4396000   0.55746487   -7.6783983    839.18901  0.015908193  0.014704874           38 
 4397000   0.55878024   -7.6959014    838.74146  0.015896093  0.014700336           62 
 4398000   0.56221648   -7.6956964    839.62611  0.015909241  0.014695801           75 
 4399000   0.54435895   -7.6947963    839.82772  0.015909444  0.014691268           33 
 4400000   0.54939099   -7.6968417    837.93944  0.015870065  0.014686735           60 
 4401000   0.54388965   -7.6987272    837.29965  0.015854345  0.014682203          104 
 4402000   0.54523095   -7.7029191    837.62793  0.015856958  0.014677661           90 
 4403000   0.54292963   -7.7067168    837.84667  0.015857496  0.014673124           94 
 4404000   0.55016366   -7.7211209    838.83915  0.015872675  0.014668588           73 
 4405000   0.54867827   -7.7120619    838.26264  0.015858166  0.014664049           67 
 4406000   0.54326313   -7.7062075    837.86494  0.015847045   0.01465951           74 
 4407000   0.54595267   -7.7075279    837.19023   0.01583069  0.014654979           98 
 4408000   0.54923891   -7.7034583    838.04141  0.015843191  0.014650445           89 
 4409000   0.55082621   -7.6897854    838.47589  0.015847809  0.014645918           56 
 4410000   0.54381228   -7.6981599    836.96101   0.01581559   0.01464139           35 
 4411000   0.56530692   -7.6905663    837.14686  0.015815515  0.014636866           47 
 4412000   0.55545227    -7.722499    839.06142  0.015848093  0.014632345           45 
 4413000   0.54571339   -7.7078175    837.61664  0.015817219  0.014627824          112 
 4414000   0.55129159   -7.7037786     838.4507  0.015829382  0.014623303           55 
 4415000   0.53696368   -7.7116232    839.64005  0.015848246  0.014618791           47 
 4416000   0.53840772   -7.7179557    838.82951  0.015829361  0.014614272           84 
 4417000   0.54738197   -7.7056803    838.18509   0.01581362  0.014609753           82 
 4418000   0.54875254   -7.7018253    838.13801  0.015809152  0.014605235           60 
 4419000    0.5423962   -7.7188284    837.93344  0.015801717  0.014600714           42 
 4420000   0.55550878   -7.7086907    837.52379  0.015790418  0.014596195           48 
 4421000    0.5515142   -7.7138938    838.24278  0.015800399  0.014591678           33 
 4422000   0.54388944   -7.7109669      838.974  0.015810606  0.014587163           92 
 4423000    0.5481229    -7.687836    837.51867  0.015779612  0.014582652           18 
 4424000   0.53962568   -7.7061593    837.71197  0.015779686   0.01457814           61 
 4425000   0.53714767   -7.7191708    838.64205  0.015793636   0.01457363           54 
 4426000   0.54509621   -7.7009294    837.68011  0.015771956  0.014569124           55 
 4427000   0.54327175   -7.7119525     837.8212  0.015771049  0.014564619           64 
 4428000   0.53078141   -7.7088119    839.57918  0.015800572  0.014560113          118 
 4429000   0.55403365   -7.7107754    837.16817   0.01575164  0.014555606           56 
 4430000   0.54352694   -7.7007612    837.86312  0.015761157  0.014551097           50 
 4431000   0.55209087   -7.7135679    838.50791  0.015769727  0.014546593           52 
 4432000   0.53605374   -7.7169378    837.15879  0.015740802  0.014542098           29 
 4433000   0.54537381   -7.7125424    837.96181  0.015752346  0.014537599           67 
 4434000   0.53571713   -7.7077974    837.79413  0.015745642  0.014533106           26 
 4435000   0.54485134   -7.7212843    837.20081  0.015730943  0.014528613           35 
 4436000   0.54457349   -7.7146503     837.3399   0.01573001  0.014524122           66 
 4437000    0.5343608    -7.720314    836.97513  0.015719614  0.014519626           61 
 4438000   0.52903735   -7.6998987    837.47925  0.015725538  0.014515137          154 
 4439000   0.53568462   -7.7079641    837.14517  0.015715724  0.014510653           56 
 4440000   0.53657126   -7.7064995    838.66915  0.015740787  0.014506162           60 
 4441000   0.54123384   -7.7126116    836.90105  0.015704065  0.014501674           46 
 4442000   0.52375105    -7.712217    837.86435  0.015718602  0.014497186           84 
 4443000   0.53221205    -7.716269    838.10664  0.015719608  0.014492702           88 
 4444000   0.53088863   -7.7166973    838.34933  0.015720622  0.014488217           75 
 4445000   0.53040955   -7.7009781     836.7611   0.01568731  0.014483739           65 
 4446000   0.54757179   -7.7155296    838.07819  0.015708468  0.014479257          173 
 4447000    0.5455964   -7.7176142    837.04012  0.015685483  0.014474783           61 
 4448000   0.55495537    -7.715106    836.72528  0.015676058  0.014470305           80 
 4449000   0.53848554   -7.7054761    837.56003   0.01568817  0.014465832           29 
 4450000   0.54646508   -7.7302878    839.03082  0.015712188  0.014461357           54 
 4451000   0.54857476   -7.7192583     837.8589  0.015686716   0.01445688           54 
 4452000   0.52190616   -7.7065014     837.3205  0.015673115  0.014452413           38 
 4453000   0.54560944   -7.7418271    838.13048  0.015684753  0.014447946           45 
 4454000    0.5350089   -7.7151833    835.86534  0.015638852  0.014443476           38 
 4455000   0.55522446   -7.7181219    836.83249  0.015653432  0.014439011           27 
 4456000   0.53775563   -7.7034252    837.13326  0.015655544  0.014434549           50 
 4457000   0.54553488   -7.7147117    837.34028  0.015655902  0.014430082           51 
 4458000    0.5402961   -7.7083297    836.23205  0.015631674  0.014425613           61 
 4459000    0.5337801   -7.7177045    837.24163  0.015647037  0.014421148           82 
 4460000   0.55806042   -7.7255266    837.73781  0.015652799  0.014416686           44 
 4461000   0.53143259   -7.7192154    837.57662  0.015646279  0.014412227           70 
 4462000   0.53262305   -7.7136163    838.19865   0.01565439  0.014407767           37 
 4463000   0.53014393   -7.7161094     838.1135  0.015649292  0.014403307           59 
 4464000   0.53166275   -7.7315697    836.65653  0.015618588  0.014398852           84 
 4465000   0.54531552   -7.7234856    836.40246  0.015610348  0.014394395           37 
 4466000   0.54117998   -7.7142416    837.75191  0.015632033   0.01438994           47 
 4467000   0.54230541   -7.7181354    836.46909  0.015604602  0.014385486           60 
 4468000   0.53355861   -7.7127038    835.30926  0.015579477   0.01438103           47 
 4469000   0.53075114   -7.7289981    838.18208  0.015629561  0.014376577           46 
 4470000   0.53224524   -7.7253165    837.85141  0.015619899  0.014372125           46 
 4471000   0.53855131   -7.7299915    835.78804  0.015577948  0.014367673           76 
 4472000   0.53636626   -7.7182258    835.75029  0.015573761  0.014363219           82 
 4473000   0.53188144   -7.7300198    836.63545   0.01558677   0.01435877           90 
 4474000   0.52681186   -7.7350291    836.37774  0.015578486   0.01435432           91 
 4475000   0.54121987   -7.7226387    838.57771  0.015615972  0.014349865           41 
 4476000   0.53767292   -7.7293115    837.66326  0.015595458  0.014345418           56 
 4477000   0.53193999    -7.738183    836.96237  0.015578929  0.014340969           79 
 4478000    0.5397993   -7.7317521    836.51106  0.015567051  0.014336524           62 
 4479000   0.54318551   -7.7084716    836.46345   0.01556269  0.014332083           88 
 4480000   0.54372334   -7.7340761    836.52588  0.015560377  0.014327644           68 
 4481000   0.52914717   -7.7164619    836.76893  0.015561425  0.014323207           93 
 4482000   0.54221429    -7.736017    836.44984   0.01555202  0.014318771           88 
 4483000   0.53310131   -7.7312128    837.63064    0.0155705  0.014314334           78 
 4484000   0.53964805    -7.733143    838.04065  0.015574648  0.014309905           69 
 4485000   0.53137238   -7.7292913    837.06262  0.015553003  0.014305477          119 
 4486000   0.53617112   -7.7292973    837.42557  0.015556278  0.014301049           82 
 4487000   0.53395992   -7.7345454    837.83956    0.0155605  0.014296614           62 
 4488000   0.53711494   -7.7612736    838.20424  0.015563804   0.01429218           54 
 4489000    0.5312051   -7.7374744    837.87565  0.015554237  0.014287752          121 
 4490000   0.53093705   -7.7239782    835.89796  0.015514067  0.014283324           89 
 4491000   0.53303027   -7.7222683    836.96092  0.015530337   0.01427891           49 
 4492000    0.5322618   -7.7179725    835.93458  0.015507839   0.01427449           48 
 4493000    0.5374998   -7.7285834    838.05576   0.01554373  0.014270073           30 
 4494000   0.53069898   -7.7373794    837.10086  0.015522564  0.014265665           32 
 4495000    0.5221662   -7.7321467    837.55387   0.01552751  0.014261255           36 
 4496000   0.53295417   -7.7186934    838.24389  0.015536846  0.014256854           95 
 4497000   0.52427035   -7.7299045    835.77043  0.015487555  0.014252446           90 
 4498000   0.53745239   -7.7330195    837.36602  0.015513673  0.014248037           87 
 4499000   0.54067646   -7.7394812    836.57811  0.015495631  0.014243629          126 
 4500000   0.53075501   -7.7233133    838.31599   0.01552437  0.014239222           76 
 4501000   0.53598748   -7.7493986    838.69119  0.015527868  0.014234814          102 
 4502000   0.52454358   -7.7302908    837.91473  0.015510046  0.014230412          135 
 4503000   0.52103429   -7.7238178     837.2734  0.015494733  0.014226008           71 
 4504000    0.5351041    -7.745798    836.53968  0.015477718  0.014221601           61 
 4505000   0.52632584   -7.7415945    837.04314  0.015483595  0.014217199          128 
 4506000   0.53085761   -7.7437891    836.24535  0.015465404  0.014212796           87 
 4507000   0.54257791    -7.745273    836.74558  0.015471222  0.014208394          122 
 4508000   0.54436303   -7.7279507    835.73874  0.015449178  0.014203995           33 
 4509000   0.53271043   -7.7383561    837.21064  0.015472955  0.014199596           94 
 4510000   0.53412223   -7.7411318    837.70243  0.015478611  0.014195201          115 
 4511000   0.52502723   -7.7086429    835.90997  0.015442067  0.014190808           57 
 4512000   0.53147177   -7.7269932    836.74752  0.015454114  0.014186414           65 
 4513000   0.54604816   -7.7231468    837.37067  0.015462196  0.014182021           55 
 4514000   0.53580446   -7.7519007    837.61285  0.015463241  0.014177631           37 
 4515000   0.53008664   -7.7342464    837.81881  0.015463618  0.014173242           72 
 4516000   0.52931813   -7.7489376    836.12359  0.015428912  0.014168854           63 
 4517000   0.53043085   -7.7409501    837.16825  0.015444769   0.01416447           44 
 4518000   0.52990701   -7.7548601    837.96476  0.015456042  0.014160089           49 
 4519000   0.53559548   -7.7349843    835.87615  0.015414106    0.0141557           60 
 4520000   0.53269782   -7.7388379    837.05467  0.015432424  0.014151316           58 
 4521000   0.52953071   -7.7287583    835.86525  0.015407086  0.014146933           38 
 4522000   0.52583079   -7.7502623     838.2911  0.015448384   0.01414255           50 
 4523000   0.52698942   -7.7542418    836.58868  0.015413602  0.014138173           78 
 4524000   0.52848752   -7.7342411    836.10939  0.015401367  0.014133794           42 
 4525000   0.53136148   -7.7296094    836.53125  0.015405732  0.014129413           69 
 4526000   0.53200848   -7.7306686    836.07997  0.015394019  0.014125036           53 
 4527000   0.54202371   -7.7325956    834.94785  0.015369779  0.014120656           52 
 4528000   0.52552597   -7.7660401    836.31375  0.015391522  0.014116277           35 
 4529000   0.52810608   -7.7532477    836.22711   0.01538653  0.014111901           45 
 4530000   0.52522117   -7.7419683    836.11682  0.015381104   0.01410753          116 
 4531000   0.53797497   -7.7467948    835.89369  0.015373606   0.01410316          109 
 4532000   0.53409475   -7.7441418    836.33116  0.015378258  0.014098788           54 
 4533000   0.53074933   -7.7410927    836.14887  0.015371514  0.014094427           36 
 4534000   0.52378971   -7.7511024    836.36099  0.015372022  0.014090059           64 
 4535000   0.51918582    -7.737696    836.27444  0.015367042  0.014085691           41 
 4536000   0.53718812   -7.7695677    836.35728  0.015365176  0.014081327           82 
 4537000   0.52445737   -7.7487089    836.00488  0.015355317  0.014076964           41 
 4538000   0.53214398   -7.7492046    837.03134  0.015370783  0.014072604           70 
 4539000    0.5131311   -7.7672846     837.3136  0.015372578  0.014068244           57 
 4540000   0.53084517   -7.7489987      836.685  0.015357654  0.014063885           56 
 4541000   0.52547257   -7.7467393    835.67219  0.015335686  0.014059525           52 
 4542000   0.53039543   -7.7397253    836.15961  0.015341252  0.014055163           51 
 4543000   0.52640108   -7.7471228    837.24286  0.015357746  0.014050805           33 
 4544000   0.52490291   -7.7453799    835.77485  0.015327444  0.014046447           82 
 4545000   0.53161882   -7.7458487    834.73918  0.015305082  0.014042092           60 
 4546000    0.5256094   -7.7513199    834.68132  0.015300655  0.014037739           48 
 4547000    0.5129494   -7.7631576    836.91794  0.015338281  0.014033384           35 
 4548000   0.52638057   -7.7417712    836.49401   0.01532714  0.014029034           35 
 4549000   0.52917793   -7.7530365    835.46159  0.015304858  0.014024685           71 
 4550000   0.53241364   -7.7653443    835.85036  0.015308615  0.014020335           87 
 4551000   0.50354296    -7.767433    836.75433  0.015321803  0.014015987           58 
 4552000   0.51474291   -7.7609078    835.07095   0.01528762  0.014011639           44 
 4553000   0.52590745   -7.7677965    837.18027  0.015322869  0.014007286           82 
 4554000   0.51667853   -7.7439043    834.69058  0.015273946   0.01400294           74 
 4555000   0.51989336   -7.7535038    834.37914  0.015264895  0.013998599           38 
 4556000   0.53434894   -7.7570796    835.90352  0.015289426  0.013994258           39 
 4557000   0.51537164   -7.7711586    836.40037  0.015295157  0.013989916           29 
 4558000    0.5156074   -7.7542799     837.9077   0.01531936  0.013985575           37 
 4559000   0.52315879   -7.7641342    836.24451  0.015285598  0.013981235           34 
 4560000   0.52362885   -7.7478165    835.14642  0.015262179  0.013976894           58 
 4561000   0.51197665   -7.7486977    834.65451  0.015249845  0.013972562           38 
 4562000   0.51251119   -7.7553226    835.49023  0.015261768  0.013968229           59 
 4563000   0.51885675    -7.755702    835.80076  0.015264094    0.0139639           64 
 4564000   0.51971097   -7.7530597    836.52891  0.015274045  0.013959571           43 
 4565000   0.51860009   -7.7543139    836.97114  0.015278772  0.013955242           58 
 4566000   0.52036141   -7.7714534     836.3355  0.015263825  0.013950914           51 
 4567000   0.52033095   -7.7423474    834.94423  0.015235097  0.013946591           48 
 4568000   0.53748827   -7.7604845    836.35929  0.015257576  0.013942265          111 
 4569000   0.52773217   -7.7639091    834.63696  0.015222823  0.013937943           42 
 4570000   0.51324012   -7.7630272    835.27942  0.015231208  0.013933617           42 
 4571000   0.51920704   -7.7642691    834.95443  0.015221951  0.013929299          131 
 4572000   0.52680374   -7.7593304     835.7324  0.015232801  0.013924979           87 
 4573000   0.52871407   -7.7817525    835.49438  0.015225133   0.01392066           84 
 4574000    0.5221442   -7.7452635    835.39346  0.015219965  0.013916346           76 
 4575000   0.51906845    -7.740446    835.33824  0.015215633   0.01391203           77 
 4576000   0.52872866   -7.7843337    837.92097  0.015259342  0.013907716           49 
 4577000   0.52081712   -7.7500908     835.4705  0.015211392  0.013903405           46 
 4578000   0.50921755   -7.7491539    833.48161  0.015171866  0.013899095           96 
 4579000   0.52756708   -7.7656919    835.77204  0.015210236  0.013894789           52 
 4580000   0.51952426   -7.7548363     835.4434  0.015200935   0.01389048          111 
 4581000   0.51979397   -7.7653875    836.59858  0.015218631  0.013886175           84 
 4582000   0.51806395   -7.7732149    837.03777  0.015223297  0.013881873           56 
 4583000   0.52236624   -7.7688995    835.15677  0.015185773  0.013877569           74 
 4584000   0.52268555   -7.7659684    835.48084  0.015188352  0.013873265           96 
 4585000    0.5187699   -7.7861129    835.82469  0.015191288  0.013868961           34 
 4586000   0.51786758    -7.765645    835.74498  0.015186527  0.013864661          108 
 4587000   0.50825781   -7.7626903    836.45993  0.015196205  0.013860361           59 
 4588000   0.52519672   -7.7750015     835.1834  0.015169707  0.013856066          115 
 4589000   0.52436831   -7.7562727    836.47469  0.015189851  0.013851773           96 
 4590000   0.51485711   -7.7695566    835.38688  0.015166792  0.013847479           33 
 4591000    0.5167996   -7.7554343    834.86734  0.015154057  0.013843188           29 
 4592000   0.50581226   -7.7554293    835.47284  0.015161746    0.0138389           47 
 4593000   0.51823206   -7.7695572    834.57117  0.015142085  0.013834609           39 
 4594000   0.52030249    -7.758428    835.13472  0.015149012  0.013830324          101 
 4595000   0.51864445   -7.7535531    835.37391  0.015150053  0.013826041           41 
 4596000   0.53000351   -7.7710982     836.1773  0.015161323  0.013821759           54 
 4597000   0.52216781   -7.7554168    836.44216  0.015162826  0.013817478           64 
 4598000   0.51149132   -7.7699171    834.38956  0.015122328  0.013813195           63 
 4599000   0.50729348   -7.7764115    833.96828  0.015111406  0.013808913           59 
 4600000   0.51433568   -7.7715374    835.10625  0.015128736  0.013804634           68 
 4601000   0.51767118   -7.7549335    835.35644   0.01512998  0.013800359           97 
 4602000   0.51081604   -7.7474932    835.49576  0.015129215  0.013796087          135 
 4603000   0.51889882   -7.7681487    834.60323   0.01510977  0.013791811           64 
 4604000   0.51892326   -7.7476535    834.88554  0.015111598  0.013787541           57 
 4605000   0.51504888   -7.7650392    834.79979  0.015106764  0.013783269           53 
 4606000   0.50044479   -7.7682232    835.54339  0.015116938  0.013778999           35 
 4607000   0.51524626   -7.7609642    833.95896  0.015084997  0.013774729          100 
 4608000   0.51549144   -7.7641761     835.9025  0.015116871  0.013770462           57 
 4609000   0.51107414   -7.7653822    836.69106  0.015127849  0.013766195           49 
 4610000   0.51618801   -7.7438069    835.46537  0.015102411  0.013761928           52 
 4611000   0.51792028   -7.7868329    835.83046  0.015105734  0.013757665           45 
 4612000   0.51202874   -7.7642124    836.30589  0.015111049  0.013753404           72 
 4613000   0.51959916   -7.7636254    835.60131  0.015095045  0.013749148           44 
 4614000   0.51380943   -7.7558947    834.37098  0.015069553   0.01374489           41 
 4615000    0.5216141    -7.772856    835.91166  0.015094107  0.013740632           57 
 4616000   0.51348998    -7.779241    834.48538  0.015065089  0.013736373           73 
 4617000   0.51614808   -7.7689516    834.98669  0.015070874   0.01373212           66 
 4618000    0.5057269   -7.7806698    836.27425  0.015090845  0.013727869           76 
 4619000   0.51488698   -7.7516746    835.02702  0.015065076  0.013723617           66 
 4620000   0.52409824   -7.7581695    835.02915  0.015061853  0.013719369           71 
 4621000    0.5232685   -7.7889134    835.99008  0.015075923  0.013715122           48 
 4622000   0.50591026   -7.7592648    835.47008  0.015063286  0.013710873           41 
 4623000   0.49573169   -7.7614214     836.2901  0.015074809  0.013706631           40 
 4624000   0.50048501   -7.7552856    835.05898  0.015049362  0.013702386           47 
 4625000   0.50756633   -7.7797327    834.12201  0.015029225  0.013698143           49 
 4626000   0.50311948   -7.7851142    835.64651  0.015053439  0.013693905           54 
 4627000   0.50626927    -7.759967    835.31536  0.015044222  0.013689666          130 
 4628000   0.50801937   -7.7854419    834.86574  0.015032875  0.013685433           38 
 4629000   0.51229224   -7.7650082    835.65446  0.015043826  0.013681198           33 
 4630000   0.50797845   -7.7622368    835.92976  0.015045532  0.013676964           64 
 4631000   0.52037334   -7.7611607    835.77462  0.015039491  0.013672734           66 
 4632000   0.50241383   -7.7583489    834.32718  0.015010204  0.013668506           46 
 4633000   0.51754671   -7.7692944    835.23804  0.015023348  0.013664278           63 
 4634000   0.49604549   -7.7715457    836.52606  0.015043268  0.013660053           90 
 4635000   0.50947638    -7.779785    834.22409  0.014998635  0.013655825           41 
 4636000   0.51283465   -7.7814231    836.64928  0.015038993  0.013651598           64 
 4637000   0.50418751   -7.7608759    834.67181  0.015000212  0.013647371           62 
 4638000   0.49956789   -7.7687655    836.56994  0.015031083   0.01364315           76 
 4639000   0.51932801   -7.7833556    834.51237  0.014990881  0.013638925           46 
 4640000   0.50500314   -7.7793826    835.43447  0.015004211  0.013634704           56 
 4641000   0.51986278   -7.7726731    835.73544  0.015006382  0.013630486          115 
 4642000   0.50743934   -7.7893152    834.28583  0.014977126  0.013626266           32 
 4643000    0.5112335    -7.775757    835.32216  0.014992501  0.013622048           50 
 4644000   0.50670752    -7.780052     834.5425  0.014975282  0.013617836           53 
 4645000   0.50756915    -7.774381    834.10301  0.014964173   0.01361362          103 
 4646000    0.5036171   -7.7671706    836.04341  0.014995756   0.01360941           53 
 4647000   0.51490792   -7.7646107    834.60805  0.014966789  0.013605199           59 
 4648000   0.50614364   -7.7636994    834.41386  0.014960088  0.013600993           38 
 4649000   0.51210195   -7.7776833     834.6504   0.01496111  0.013596784           43 
 4650000   0.51574287   -7.7770861    834.83003  0.014961112  0.013592575           53 
 4651000   0.50928666   -7.7769193    835.17739  0.014964119  0.013588366           47 
 4652000   0.50066378   -7.7879595    835.26542  0.014962479  0.013584161           70 
 4653000   0.51420978   -7.7791376    835.53053  0.014964011  0.013579957           45 
 4654000   0.50736549   -7.7869967    835.21959  0.014955228  0.013575754           46 
 4655000    0.5115908   -7.7755488    835.42976  0.014955778  0.013571552          102 
 4656000   0.50520996   -7.7799368    834.91358  0.014943327  0.013567352           33 
 4657000   0.50164491   -7.7723099    834.68809  0.014936083  0.013563149           50 
 4658000    0.5010449   -7.7717883     834.4836  0.014929218  0.013558953           57 
 4659000   0.51986423   -7.7753951    835.31066  0.014940807  0.013554753           53 
 4660000   0.51895723   -7.7703545    834.74446  0.014927476  0.013550557           86 
 4661000   0.49997895   -7.7665936    835.02416  0.014929274   0.01354636           55 
 4662000   0.51976632   -7.7826412    836.34667  0.014949712  0.013542173           54 
 4663000   0.51578191    -7.801804    835.67191  0.014934447  0.013537984           54 
 4664000   0.50725219   -7.7934912    833.78112  0.014897461  0.013533795           59 
 4665000   0.50861586   -7.7848843    834.73243  0.014911262  0.013529609           54 
 4666000   0.51542321    -7.778916    834.02936  0.014895509  0.013525422           52 
 4667000   0.51455675   -7.7721154     834.9785  0.014909265  0.013521235           53 
 4668000   0.50329745    -7.785363    835.40438  0.014913674   0.01351705           90 
 4669000    0.5003744   -7.7836643    835.64479  0.014914771  0.013512873           48 
 4670000   0.51083094   -7.7816832    833.85911  0.014879713  0.013508692           42 
 4671000   0.50194852   -7.7770619     834.2374  0.014883276  0.013504512           88 
 4672000   0.49948163   -7.7811238    835.27129  0.014898532  0.013500334           63 
 4673000   0.48793551    -7.778093    834.33594  0.014878664  0.013496154           56 
 4674000   0.50198728    -7.769283    835.31821  0.014892993  0.013491984           83 
 4675000   0.51188368   -7.7771791    834.40867  0.014873595  0.013487816           92 
 4676000   0.51640383   -7.7843969     835.1637   0.01488387   0.01348365           50 
 4677000   0.51592423   -7.7936647    836.08685  0.014897136  0.013479488           39 
 4678000   0.50031791   -7.7697588     834.3924  0.014863767  0.013475322           50 
 4679000   0.50557098   -7.7921199    835.14852  0.014874056  0.013471154           58 
 4680000   0.50721046   -7.7839936    834.32068  0.014856137  0.013466985           94 
 4681000   0.49457641   -7.7916896    833.93201  0.014846044  0.013462819           59 
 4682000   0.49869659    -7.797134    834.19813   0.01484761  0.013458654           57 
 4683000   0.49161545   -7.7895087     834.6076  0.014851726  0.013454493           48 
 4684000   0.50836208   -7.7695531    833.41745  0.014827381  0.013450333           59 
 4685000   0.50482256   -7.7834714    835.44967  0.014860364  0.013446175          124 
 4686000   0.50852891   -7.7805403    834.85775  0.014846666  0.013442014           95 
 4687000   0.50535879   -7.7834389    834.56442  0.014838284  0.013437853           70 
 4688000   0.49768254   -7.7917829    834.27533   0.01482998  0.013433699           59 
 4689000    0.5097446    -7.789246     833.7784  0.014817985  0.013429547           57 
 4690000    0.5047774   -7.7788562    834.89708  0.014834703  0.013425388           48 
 4691000   0.49528557   -7.7948026    834.86563  0.014830982  0.013421234           47 
 4692000   0.49181157   -7.7824841     833.2515  0.014799153  0.013417082           98 
 4693000   0.50099608   -7.7822253    834.88474  0.014825001  0.013412932          104 
 4694000   0.50785096   -7.7932149     833.4772  0.014796854  0.013408781           68 
 4695000   0.50169951   -7.8021415    833.81701  0.014799734  0.013404631           67 
 4696000   0.50234953   -7.8006642    833.97429  0.014799373  0.013400485          113 
 4697000   0.50547487   -7.7902765    834.36651  0.014803181  0.013396339           63 
 4698000   0.50611501   -7.7880075    833.38569  0.014782633  0.013392196           97 
 4699000   0.50330519   -7.7867659    834.57537  0.014800585  0.013388056           68 
 4700000   0.50514927    -7.793396    835.71192  0.014817587  0.013383918           48 
 4701000    0.4985414    -7.783796    833.73178  0.014779334  0.013379777           63 
 4702000   0.50692827    -7.803788    833.84113  0.014778129   0.01337564           65 
 4703000   0.49788209   -7.7926531    834.42723  0.014785372  0.013371502           68 
 4704000   0.50887903   -7.7866196    834.08534  0.014776172   0.01336737           58 
 4705000   0.50821564   -7.7850072    833.72489  0.014766647  0.013363233           53 
 4706000   0.50449138   -7.7801098    834.94891  0.014785184  0.013359104           48 
 4707000   0.48385439   -7.8033408    834.04333   0.01476601  0.013354976           65 
 4708000   0.49258787   -7.7979747     833.2223  0.014748341  0.013350844           52 
 4709000   0.49195853   -7.7843803    834.15318  0.014761683  0.013346718           64 
 4710000   0.49881251   -7.7921536    833.56307  0.014748108  0.013342592           93 
 4711000   0.50072048   -7.7815736    834.82135  0.014767235  0.013338471           54 
 4712000   0.48920403    -7.802569    834.56432  0.014759556  0.013334352           41 
 4713000   0.50114244    -7.804391    834.93947  0.014763057  0.013330231           69 
 4714000   0.50228611    -7.781853    833.44386  0.014733486  0.013326111           60 
 4715000   0.49449679   -7.7859205    834.04476  0.014740982  0.013321993           41 
 4716000   0.50272296   -7.7987594    834.00084   0.01473708  0.013317878          104 
 4717000   0.49737033   -7.7866003    833.31484  0.014721837  0.013313761           52 
 4718000    0.4892231   -7.7922929    836.15492   0.01476888  0.013309649          117 
 4719000   0.49951282   -7.8033396    833.95346  0.014726875  0.013305534           56 
 4720000   0.49049547   -7.7952089    833.43964  0.014714683   0.01330142           53 
 4721000   0.49384044   -7.8182105    834.04027  0.014722168  0.013297305          117 
 4722000   0.50177532   -7.7913789    834.70769  0.014730829  0.013293197           74 
 4723000   0.49879374   -7.7972616    834.92982  0.014731629  0.013289087           59 
 4724000   0.49985394   -7.7899499    834.01829  0.014712431  0.013284979           63 
 4725000   0.50221152   -7.8036356    833.05295  0.014692292  0.013280872          129 
 4726000   0.48938127      -7.7874    833.80126  0.014702378  0.013276771           57 
 4727000   0.50894163   -7.7924608    832.92381  0.014683799  0.013272667           63 
 4728000   0.50452318   -7.7874595    833.90908  0.014698059  0.013268571           89 
 4729000    0.4956722   -7.7933913    833.81271  0.014693253  0.013264474           48 
 4730000   0.50345207   -7.8069607    833.57311  0.014685925  0.013260374           49 
 4731000   0.50372004    -7.806087    833.94529  0.014689377  0.013256279          137 
 4732000   0.49921411   -7.7959842     833.9361  0.014686111  0.013252182           63 
 4733000   0.49401746   -7.8082455    834.08196  0.014685576  0.013248088           73 
 4734000   0.49503477   -7.8030568    833.10811  0.014665331  0.013243994           64 
 4735000   0.49461053   -7.8036656    833.79778  0.014674371  0.013239903           62 
 4736000   0.49847873   -7.7910425    834.41164  0.014682074  0.013235813          116 
 4737000   0.49561588   -7.8026189    834.73894  0.014684733  0.013231722           62 
 4738000   0.49268159   -7.7916916    832.83918   0.01464822  0.013227632           74 
 4739000   0.49056337    -7.793741    834.21966  0.014669404   0.01322354           55 
 4740000    0.4994452   -7.8004105    833.45657  0.014652893  0.013219454           50 
 4741000   0.49975625   -7.7856081    834.11311  0.014661343  0.013215365           74 
 4742000   0.48787328   -7.7927359    833.43318  0.014646302  0.013211281           66 
 4743000   0.48326077   -7.8012033    834.13815    0.0146556  0.013207199           56 
 4744000   0.50358156   -7.8046121    833.21066  0.014636219  0.013203113           50 
 4745000   0.48869215    -7.797008    833.17404  0.014632491   0.01319903           57 
 4746000   0.49770628   -7.8001647    832.88927  0.014624408  0.013194948           89 
 4747000   0.48399502   -7.7786723    834.24303  0.014645092  0.013190868           58 
 4748000   0.49295306   -7.8017341    832.75324   0.01461586  0.013186788           96 
 4749000   0.48992517   -7.7927732    833.51609  0.014626169  0.013182713           55 
 4750000   0.48906371   -7.8111775     834.4638  0.014639716   0.01317864           52 
 4751000   0.49019565   -7.7909517    834.17649  0.014631595  0.013174566           62 
 4752000   0.48089163   -7.8029245    834.66933  0.014637159  0.013170496          141 
 4753000   0.49555137   -7.8087463    833.20902  0.014608476  0.013166422           57 
 4754000   0.49971376    -7.808924    833.32794  0.014607487  0.013162353           71 
 4755000   0.49395536   -7.7999523     832.9697  0.014598137  0.013158283          116 
 4756000   0.48727285   -7.7923729    833.23703  0.014599752  0.013154218           56 
 4757000   0.49497217   -7.7961447     832.1519  0.014577673  0.013150155           44 
 4758000   0.49008032   -7.8151536    833.20116  0.014592987  0.013146093           45 
 4759000   0.49448485   -7.8097046    833.47805  0.014594769  0.013142032           69 
 4760000   0.49204634   -7.8122197    833.81972  0.014597684  0.013137973           98 
 4761000   0.48674907   -7.8146119    832.30996  0.014568192  0.013133913           44 
 4762000    0.4975301   -7.8034162    833.78505  0.014590947  0.013129855           73 
 4763000     0.490003   -7.8007231    832.37778  0.014563262  0.013125797           48 
 4764000   0.50163481    -7.802767    834.01476  0.014588839  0.013121746           68 
 4765000   0.50109196   -7.8170239    833.50681  0.014576894  0.013117695          121 
 4766000   0.49397324   -7.7981169    834.17691  0.014585552  0.013113646           53 
 4767000   0.48794371   -7.8000091     834.1871  0.014582671  0.013109599          111 
 4768000   0.49183073   -7.8049515    832.77721  0.014554971  0.013105552           63 
 4769000     0.494685   -7.8050632    833.74774  0.014568878  0.013101509           74 
 4770000   0.49625599   -7.8139725    831.97797  0.014534905  0.013097465           64 
 4771000   0.49432879   -7.7941588    833.53564  0.014559066  0.013093426           61 
 4772000   0.48649188   -7.8182103    833.25899  0.014551184  0.013089384           52 
 4773000   0.49212885   -7.8054588    833.91788  0.014559639  0.013085348           66 
 4774000   0.49425951   -7.8049126    834.22633  0.014561973  0.013081307           65 
 4775000   0.48644381   -7.8289964    833.60183  0.014548025   0.01307727           97 
 4776000   0.48304995   -7.8126609    833.06057  0.014535535  0.013073234           48 
 4777000   0.48863043   -7.8052875    833.99003  0.014548706  0.013069199           82 
 4778000   0.48218088   -7.8127419     833.6719  0.014540113  0.013065165           61 
 4779000   0.48343836   -7.7878965     832.1134  0.014509894   0.01306113           51 
 4780000   0.48667162   -7.8094984    834.48681  0.014548236  0.013057101          128 
 4781000   0.47771721   -7.8022614    834.89524  0.014552312  0.013053071           47 
 4782000   0.48627377   -7.8108055    832.79878  0.014512735   0.01304904           58 
 4783000   0.48463704   -7.8091214    833.15139  0.014515844  0.013045013           62 
 4784000    0.4940999   -7.8191357    832.82188   0.01450707  0.013040988           49 
 4785000   0.49039444   -7.8078197    834.08815  0.014526091   0.01303696           75 
 4786000   0.49693893   -7.7995899    833.26384  0.014508703  0.013032937          136 
 4787000   0.48284019   -7.8041722    833.56379  0.014510894  0.013028916           71 
 4788000   0.48268769   -7.8122634    833.59191  0.014508353  0.013024894           71 
 4789000   0.47743277     -7.81199    833.56097  0.014504785  0.013020874           57 
 4790000   0.48557246   -7.8292014    832.85098  0.014489405  0.013016856           67 
 4791000   0.49228287   -7.8177618    834.12845    0.0145086  0.013012842          134 
 4792000   0.48666766   -7.8219776    833.85521  0.014500821  0.013008829           77 
 4793000   0.48163617   -7.8238308    831.95248  0.014464714  0.013004819          100 
 4794000   0.48868587   -7.7957845    833.51454   0.01448885  0.013000806           50 
 4795000   0.48996996   -7.7977224    833.55478  0.014486527  0.012996796           59 
 4796000   0.47558992   -7.8106455     833.6297  0.014484808  0.012992787           58 
 4797000   0.47277683   -7.8161475     834.3648  0.014494559  0.012988779          102 
 4798000   0.48224305   -7.8098453    834.44724   0.01449297  0.012984775           57 
 4799000   0.49104401   -7.8019569    833.50996  0.014473674  0.012980771           76 
 4800000   0.48810498   -7.8208241    832.84986  0.014459199  0.012976766          108 
 4801000   0.48028417   -7.8160068    832.40982  0.014448549  0.012972763           91 
 4802000   0.48030457   -7.8181347    833.15946   0.01445855  0.012968762          129 
 4803000   0.47432279   -7.8115103    833.35347  0.014458905  0.012964761          113 
 4804000   0.48641777   -7.8220703    833.82342  0.014464048  0.012960762           74 
 4805000   0.48960482   -7.8338163    833.46361  0.014454797  0.012956766          125 
 4806000   0.48453982    -7.813248    832.42998  0.014433867   0.01295277          122 
 4807000   0.48897853   -7.8142679    832.01468  0.014423665  0.012948776          110 
 4808000   0.47462336   -7.8133821    833.64234  0.014448876  0.012944783          141 
 4809000   0.48409711   -7.8031571    833.64253  0.014445875  0.012940793           53 
 4810000   0.48641081   -7.8282767    833.86292   0.01444669  0.012936803          128 
 4811000   0.48462515   -7.8031671    831.99673  0.014411362  0.012932816          125 
 4812000   0.47721264   -7.8236069    831.84537  0.014405746   0.01292883          173 
 4813000   0.48526399   -7.8223212    832.99376  0.014422636  0.012924842           70 
 4814000   0.48678395   -7.8149185    832.86917  0.014417483  0.012920864           67 
 4815000   0.48348908   -7.8223644    834.91305  0.014449862  0.012916885           54 
 4816000   0.48432591   -7.8197284     833.2584  0.014418231  0.012912906          139 
 4817000   0.47826104   -7.8086845    832.99579  0.014410695  0.012908928           49 
 4818000   0.49155702    -7.827669    833.51632  0.014416707  0.012904952           56 
 4819000   0.48146972   -7.8141787    832.04245  0.014388228  0.012900977           64 
 4820000   0.47654261   -7.8224173    833.10049  0.014403535  0.012897003          129 
 4821000   0.47099861     -7.82574    832.85473    0.0143963  0.012893031           77 
 4822000   0.49343164   -7.8062659    832.69756  0.014390598  0.012889061          124 
 4823000    0.4761461   -7.8348852    833.03041  0.014393365  0.012885092           75 
 4824000   0.47819575    -7.816646    831.72628  0.014367853  0.012881122          119 
 4825000   0.47873566   -7.8217244    833.63092  0.014397771  0.012877155           93 
 4826000   0.47345094   -7.8048479    833.25303  0.014388262  0.012873191           81 
 4827000   0.47183344   -7.8141636     832.2857  0.014368581  0.012869225           93 
 4828000   0.47233195   -7.8149014    832.89074  0.014376048  0.012865261           72 
 4829000   0.48631623   -7.8396102    833.55749  0.014384577  0.012861298           92 
 4830000   0.47314748   -7.8126486    832.38164  0.014361312  0.012857339           81 
 4831000   0.47929722   -7.8228659    832.85779  0.014366553  0.012853383          110 
 4832000   0.47081867   -7.8031759    833.63273  0.014376944  0.012849429          133 
 4833000   0.48164985   -7.8089181    832.59946  0.014356153  0.012845476           73 
 4834000    0.4766976   -7.8108788    833.11739  0.014362112  0.012841523           98 
 4835000   0.47323599   -7.8314641    832.75899  0.014352964  0.012837573           57 
 4836000   0.48770249   -7.8322756     833.6366  0.014365119  0.012833619           83 
 4837000   0.48417587   -7.8315007    834.11619  0.014370412   0.01282967           52 
 4838000   0.48147829   -7.8102546    833.57541  0.014358127  0.012825724           56 
 4839000   0.47656109   -7.8282696    831.44558  0.014318481  0.012821779          178 
 4840000   0.48686427   -7.8104917    832.87149  0.014340074  0.012817837           56 
 4841000   0.46900166    -7.837085    832.48215   0.01433041  0.012813898           79 
 4842000   0.48219712   -7.8247276    832.91082  0.014334827  0.012809956          101 
 4843000   0.47658931   -7.8361864    832.94829  0.014332512  0.012806017           81 
 4844000   0.47233108    -7.834982    832.29841  0.014318373  0.012802079           58 
 4845000   0.47612676   -7.8245842    833.20942  0.014331087  0.012798145          115 
 4846000   0.48122786    -7.831381    832.95547  0.014323763  0.012794211           55 
 4847000   0.46723688   -7.8302614    833.35664  0.014327705  0.012790276           57 
 4848000   0.48037576   -7.8201268    834.66533  0.014347245  0.012786341          158 
 4849000   0.46993339   -7.8158103    832.08016  0.014299858  0.012782411          119 
 4850000   0.47840447   -7.8220005    833.28394  0.014317593   0.01277848           77 
 4851000   0.46668714   -7.8239369    831.88827  0.014290666  0.012774555           80 
 4852000   0.47903983     -7.82616    832.10833  0.014291501  0.012770628           54 
 4853000   0.48535147   -7.8133435    833.94161  0.014320036  0.012766707           61 
 4854000   0.47696059   -7.8188993    832.87084  0.014298703  0.012762788           86 
 4855000   0.46363012   -7.8257287    832.57025  0.014290598  0.012758863          144 
 4856000   0.46925419   -7.8259892    831.76977  0.014273918  0.012754937          117 
 4857000   0.46915574   -7.8327023    832.52578  0.014283951  0.012751016           71 
 4858000   0.47507211   -7.8319392    832.81377  0.014285951  0.012747097          129 
 4859000   0.47150437    -7.827263    832.69475  0.014280969  0.012743181          124 
 4860000   0.47981454   -7.8086934     832.1738  0.014269098  0.012739262          133 
 4861000   0.46658566    -7.838517    831.66374  0.014257419  0.012735345           57 
 4862000   0.47773785   -7.8380312    831.26911  0.014247722  0.012731427           47 
 4863000   0.47530452   -7.8320667    832.08598   0.01425879  0.012727511           76 
 4864000   0.47284532   -7.8293204     831.6452  0.014248307  0.012723593          136 
 4865000   0.47315661   -7.8372365    832.46495   0.01425942  0.012719682           82 
 4866000   0.47966224   -7.8102483    832.16021  0.014251271  0.012715769           77 
 4867000   0.47378398   -7.8218664    832.38756  0.014252236  0.012711857           52 
 4868000   0.47161323   -7.8392866     832.5221  0.014251611  0.012707946           68 
 4869000   0.47705116   -7.8330752    833.12921  0.014259075  0.012704038           50 
 4870000    0.4801534   -7.8343822    832.55733  0.014246361  0.012700132           56 
 4871000   0.47388987   -7.8185139    832.32072  0.014239388  0.012696225          121 
 4872000   0.47894636   -7.8312638     832.4477  0.014238637  0.012692321           61 
 4873000   0.47462217   -7.8397955    831.06118  0.014212005  0.012688418          145 
 4874000   0.47841448   -7.8395288    832.38273  0.014231684   0.01268452          157 
 4875000   0.47879335   -7.8122645    832.44968  0.014229909  0.012680622          117 
 4876000   0.47457094   -7.8320627    831.57674  0.014212072  0.012676726          108 
 4877000   0.47390742   -7.8305423    831.37538  0.014205717  0.012672829          101 
 4878000   0.47511249   -7.8240071    832.26722  0.014218041  0.012668931           54 
 4879000    0.4683685   -7.8508779    832.26813  0.014215142  0.012665037          105 
 4880000   0.46235868   -7.8338103      832.443  0.014215215  0.012661144           56 
 4881000   0.47163923   -7.8461498     832.8758  0.014219692  0.012657251          120 
 4882000   0.46824297   -7.8197176    832.22028   0.01420559  0.012653362           66 
 4883000   0.47404476   -7.8340509    831.75142  0.014194679  0.012649474           86 
 4884000   0.47685178   -7.8244494    831.85886  0.014193606  0.012645588           41 
 4885000   0.46864553   -7.8418594    830.58052  0.014168893  0.012641699          118 
 4886000   0.47394326   -7.8406896    832.85561  0.014204796  0.012637813           99 
 4887000   0.46734127   -7.8476061    831.36128  0.014176408  0.012633927          112 
 4888000   0.46148194   -7.8359115    831.90869  0.014182841  0.012630043          110 
 4889000   0.47399918   -7.8488197    832.49548  0.014189941  0.012626164           79 
 4890000   0.47966821   -7.8102759    830.92339  0.014160249  0.012622285           71 
 4891000   0.47611704   -7.8288508    832.10768  0.014177531  0.012618407           99 
 4892000   0.47926567   -7.8435846    832.01644  0.014173079  0.012614528           51 
 4893000   0.47802834   -7.8372437    830.21638  0.014139526  0.012610651           65 
 4894000   0.47525181   -7.8476741    831.98649  0.014166777  0.012606776          100 
 4895000    0.4646872   -7.8451509    831.46943  0.014155081  0.012602903           46 
 4896000   0.47412469   -7.8408693    831.26112  0.014148644   0.01259903          110 
 4897000   0.46950799   -7.8466938    831.88859  0.014156432  0.012595158           94 
 4898000   0.46155561   -7.8329729    832.48322  0.014163659  0.012591289           50 
 4899000   0.46592082   -7.8319635    831.89008  0.014150678   0.01258742           58 
 4900000   0.47671855   -7.8399397     831.7396  0.014145231  0.012583553           58 
 4901000   0.47307925   -7.8328441    832.20644  0.014150283  0.012579684           52 
 4902000    0.4675271   -7.8501018    831.52178  0.014135757   0.01257582           43 
 4903000   0.46002664   -7.8510958    831.23925  0.014128072  0.012571957           77 
 4904000    0.4661508   -7.8508541    832.38471  0.014144656  0.012568094           56 
 4905000   0.46418928   -7.8531434     832.1724  0.014138165  0.012564233           85 
 4906000   0.45327266   -7.8400231    832.73558   0.01414485  0.012560373           59 
 4907000   0.46759624   -7.8341876    832.33419   0.01413515  0.012556516           42 
 4908000   0.46684992   -7.8276498    832.23209  0.014130537  0.012552663          132 
 4909000    0.4710743   -7.8298052    830.78765  0.014103138  0.012548806           67 
 4910000   0.45841309   -7.8430497      832.098  0.014122505   0.01254495           51 
 4911000   0.46500133   -7.8464357    830.87044  0.014098799    0.0125411           72 
 4912000   0.46590656   -7.8439241    832.91473  0.014130611  0.012537248           45 
 4913000   0.46637044    -7.828669    831.70549  0.014107224    0.0125334           64 
 4914000   0.46432901   -7.8440437     832.7833  0.014122631  0.012529555           68 
 4915000   0.46056485   -7.8410978    830.56066  0.014082073  0.012525706           71 
 4916000   0.46753191   -7.8499503     831.2979  0.014091706  0.012521861          110 
 4917000    0.4614978   -7.8621731    831.32906  0.014089368  0.012518015          178 
 4918000   0.45842587    -7.851845    832.62447  0.014108453  0.012514167           68 
 4919000   0.46021517   -7.8520214    831.74996   0.01409077  0.012510326           59 
 4920000   0.46339741   -7.8419036    833.76709  0.014122071  0.012506487           62 
 4921000   0.46167955   -7.8454003    830.43551  0.014062784  0.012502652          163 
 4922000   0.46764295   -7.8540065    831.55355  0.014078856  0.012498816           93 
 4923000   0.46020554   -7.8444477    832.99247  0.014100353  0.012494982           48 
 4924000    0.4711218   -7.8517673     831.2113  0.014067345  0.012491151          129 
 4925000   0.45375525   -7.8497026    832.37534  0.014084185  0.012487316           73 
 4926000   0.46630789   -7.8497961    831.04566  0.014058832  0.012483485           68 
 4927000   0.45339749   -7.8356861    831.53676  0.014064285  0.012479653           64 
 4928000   0.45266258    -7.850789    832.32052  0.014074684  0.012475828           66 
 4929000   0.46156019   -7.8471879    831.76554  0.014062446     0.012472           51 
 4930000   0.46522211   -7.8512603    831.17862  0.014049672  0.012468175           69 
 4931000   0.45415431   -7.8290413    832.35145  0.014066644  0.012464348           45 
 4932000   0.44448748   -7.8437149    831.45174   0.01404859  0.012460525          140 
 4933000   0.46650229   -7.8530779    831.41494   0.01404512  0.012456702           75 
 4934000   0.46757428   -7.8594139    832.12465   0.01405426  0.012452882          119 
 4935000   0.46136311   -7.8572794    830.29081  0.014020446  0.012449059          146 
 4936000   0.46073612   -7.8481344    831.78267  0.014042792  0.012445243           60 
 4937000   0.45462463   -7.8414371    832.24051  0.014047676  0.012441427          157 
 4938000   0.46170349   -7.8476733    831.55673  0.014033292  0.012437615          189 
 4939000   0.46000752   -7.8434775    831.37251  0.014027342  0.012433802           86 
 4940000   0.46717906   -7.8578757    832.18574  0.014038221  0.012429986          184 
 4941000   0.46525121   -7.8582341    831.21151  0.014018949  0.012426175           86 
 4942000   0.47085773     -7.85851     830.9953  0.014012466  0.012422363           86 
 4943000   0.45909115   -7.8468833    831.92598  0.014025322  0.012418555           77 
 4944000   0.45971141   -7.8414244    831.31393  0.014012168  0.012414747          120 
 4945000   0.45573756   -7.8477643    832.01969  0.014021228  0.012410943           64 
 4946000   0.45454588   -7.8479336    831.36624  0.014007384  0.012407137           53 
 4947000     0.455558   -7.8615297    832.29933   0.01402027  0.012403332          125 
 4948000   0.46245605   -7.8509643    831.72711    0.0140078  0.012399529           65 
 4949000   0.46097421    -7.870671    832.04241  0.014010278  0.012395726          108 
 4950000   0.45783451   -7.8547127    831.26596  0.013994376  0.012391925          115 
 4951000   0.46273559   -7.8335087    829.82505  0.013967297  0.012388125           73 
 4952000   0.45015671   -7.8646902    830.86064  0.013981904  0.012384328           72 
 4953000   0.46403223   -7.8575957    831.63077  0.013992038  0.012380529          140 
 4954000   0.45555226   -7.8615198    832.55725  0.014004798  0.012376736           82 
 4955000   0.45376431   -7.8450567    831.08633  0.013977234  0.012372945           65 
 4956000   0.44729974   -7.8526908      831.948  0.013988902  0.012369151          131 
 4957000   0.46938315   -7.8599393    832.09939  0.013988625  0.012365362           81 
 4958000   0.44878344   -7.8562429    830.87844  0.013965282  0.012361573           50 
 4959000   0.46585843   -7.8413553    830.66673  0.013958909  0.012357783          131 
 4960000   0.46774157   -7.8631536    830.68974  0.013956481  0.012353999          230 
 4961000   0.46198934   -7.8525006    831.70853  0.013970781  0.012350211          139 
 4962000   0.46203992   -7.8751816    831.58773  0.013965937  0.012346425           50 
 4963000   0.45879737     -7.85891    831.86749   0.01396782  0.012342645          119 
 4964000   0.46416334   -7.8517904    831.01476  0.013950691  0.012338867           52 
 4965000   0.45316335   -7.8500536    831.16067   0.01395033  0.012335087          126 
 4966000   0.44973403   -7.8492527    831.50669  0.013953327  0.012331308          108 
 4967000   0.46083581    -7.862065    830.54042  0.013934307   0.01232753          117 
 4968000   0.45725538   -7.8564365    831.73925  0.013951611  0.012323753          149 
 4969000   0.46253721   -7.8590261    832.64011  0.013963911  0.012319978           71 
 4970000   0.45611902    -7.846053    830.75028  0.013929414  0.012316206           54 
 4971000   0.45310084   -7.8569656    831.38042  0.013937176  0.012312433           79 
 4972000   0.45871655   -7.8610675    830.84422  0.013925386  0.012308664           51 
 4973000   0.45341334   -7.8508512    829.85468  0.013906004  0.012304896           72 
 4974000    0.4490758    -7.852119    831.64462  0.013933196  0.012301129          111 
 4975000   0.45440358   -7.8566552    831.56115  0.013928997  0.012297362          119 
 4976000    0.4633767   -7.8679998    831.83533   0.01393079  0.012293597           63 
 4977000   0.45243864   -7.8560353     831.9467  0.013929856  0.012289833          115 
 4978000   0.45967521   -7.8582223    831.68128  0.013922614  0.012286071           54 
 4979000   0.46255486   -7.8580114     830.3033  0.013896755  0.012282309           84 
 4980000    0.4443432   -7.8634662    830.95354  0.013904845  0.012278546          113 
 4981000   0.44537019   -7.8634993    831.19673  0.013906122  0.012274788          123 
 4982000   0.45219536    -7.850522    830.23799  0.013887294  0.012271029           85 
 4983000   0.44784425   -7.8513458    831.47046  0.013905118  0.012267274           63 
 4984000   0.45707027   -7.8604685    830.84494   0.01389187  0.012263518          155 
 4985000   0.45704235   -7.8534208    831.59758  0.013901665  0.012259768           88 
 4986000   0.45342476   -7.8462144    829.45541  0.013863074  0.012256019           57 
 4987000   0.46777713   -7.8516132    830.91578  0.013884696   0.01225227           84 
 4988000   0.45502183   -7.8697431    831.69493   0.01389493  0.012248523          111 
 4989000   0.46709369   -7.8628636    831.07064  0.013881717  0.012244777           64 
 4990000    0.4622111   -7.8579385    831.48238  0.013885811  0.012241036           61 
 4991000   0.44766115   -7.8725139    830.68532  0.013869721  0.012237293           62 
 4992000   0.44203942   -7.8517842    831.49528  0.013880463  0.012233552           70 
 4993000   0.45510199   -7.8643672    830.01299  0.013852944  0.012229815           45 
 4994000   0.45754803   -7.8565769    831.30948  0.013871804  0.012226076          111 
 4995000   0.45464727   -7.8540702    831.67194  0.013875074   0.01222234           56 
 4996000     0.448329   -7.8619469    830.79852  0.013857728  0.012218603          101 
 4997000   0.45886645   -7.8666364    830.30024  0.013846645  0.012214871           67 
 4998000   0.45478278   -7.8544089    829.63321  0.013832753  0.012211136          137 
 4999000   0.45564362   -7.8591952    830.61158  0.013846296  0.012207402           61 
 5000000    0.4537088   -7.8608771    830.87145  0.013847857  0.012203669          110 
 5001000   0.45056551   -7.8772239     830.5304  0.013839405  0.012199939          112 
 5002000   0.45390354   -7.8682246    830.02416  0.013828205  0.012196209           52 
 5003000   0.44264634   -7.8668599    830.62281  0.013835412  0.012192482           52 
 5004000    0.4561598   -7.8605934    831.06219  0.013839965  0.012188757          119 
 5005000    0.4561262   -7.8746407    831.67687  0.013847434   0.01218503           54 
 5006000   0.45921568   -7.8529785    830.79794  0.013830036  0.012181305           77 
 5007000   0.45044978   -7.8662849    830.38491    0.0138204  0.012177581           94 
 5008000   0.46315866   -7.8679459    831.18926  0.013831025  0.012173862          109 
 5009000   0.46351373    -7.871124    830.63938  0.013819115  0.012170142           80 
 5010000   0.45100689   -7.8543629    831.00599  0.013822455  0.012166424           68 
 5011000   0.45159724   -7.8553053    830.19744   0.01380625   0.01216271           63 
 5012000   0.44733514   -7.8489269    831.55696    0.0138261  0.012158997          109 
Loop time of 10927.9 on 48 procs for 5000000 steps with 4000 atoms

Performance: 79063.578 tau/day, 457.544 timesteps/s
99.4% CPU use with 48 MPI tasks x no OpenMP threads

MPI task timing breakdown:
Section |  min time  |  avg time  |  max time  |%varavg| %total
---------------------------------------------------------------
Pair    | 736.29     | 769.64     | 795.83     |  51.5 |  7.04
Neigh   | 70.016     | 71.151     | 72.752     |   8.0 |  0.65
Comm    | 626.94     | 656.85     | 689.26     |  63.7 |  6.01
Output  | 13.322     | 13.327     | 13.407     |   0.3 |  0.12
Modify  | 9268.5     | 9303.7     | 9334.5     |  18.0 | 85.14
Other   |            | 113.2      |            |       |  1.04

Nlocal:        83.3333 ave          92 max          78 min
Histogram: 2 4 15 6 6 10 2 1 1 1
Nghost:        1832.15 ave        1865 max        1811 min
Histogram: 5 8 9 3 8 7 3 2 2 1
Neighs:        11355.5 ave       12692 max       10130 min
Histogram: 2 4 5 6 10 7 5 6 0 3
FullNghs:      22710.6 ave       25456 max       21242 min
Histogram: 4 11 8 6 8 3 5 2 0 1

Total # of neighbors = 1090108
Ave neighs/atom = 272.52700
Neighbor list builds = 269300
Dangerous builds = 2

#clear
#
#next RN
#
#jump SELF
Total wall time: 3:02:10
