
units lj                  # Use reduced LJ style units
atom_style atomic         # Uncharged point particles
atom_modify map hash      # Needed for indexing of clusters etc
                          # Used to be able to find where atoms are in relation to each other.

lattice fcc 1.0 spacing 1 1 1
Lattice spacing in x,y,z = 1.5874011 1.5874011 1.5874011
region box block 0 10 0 10 0 10 units lattice
create_box 2 box
Created orthogonal box = (0.0000000 0.0000000 0.0000000) to (15.874011 15.874011 15.874011)
  3 by 4 by 4 MPI processor grid
create_atoms 1 box
Created 4000 atoms
  using lattice units in orthogonal box = (0.0000000 0.0000000 0.0000000) to (15.874011 15.874011 15.874011)
  create_atoms CPU = 0.003 seconds
set type 1 type/fraction 2 0.36 78393
Setting atom values ...
  1453 settings made for type/fraction
mass 1 1.0
mass 2 1.0
pair_style lj/cut  3.5
pair_modify tail  yes
pair_coeff 1  1  1.0  1.0   # Intearaction between 1 and 1 set with epsilon = 1 and sigma = 1
pair_coeff 1  2  1.5  0.8
pair_coeff 2  2  0.5  0.88

write_data data.0
System init for write_data ...
Neighbor list info ...
  update every 1 steps, delay 10 steps, check yes
  max neighbors/atom: 2000, page size: 100000
  master list distance cutoff = 3.8
  ghost atom cutoff = 3.8
  binsize = 1.9, bins = 9 9 9
  1 neighbor lists, perpetual/occasional/extra = 1 0 0
  (1) pair lj/cut, perpetual
      attributes: half, newton on
      pair build: half/bin/atomonly/newton
      stencil: half/bin/3d
      bin: standard
WARNING: Not all mixed pair coeffs generated from mixing. Use write_data with 'pair ij' option to store all pair coeffs. (../write_data.cpp:312)


#############################
#   M E L T   S Y S T E M   #
#############################

velocity all create 2.4 9622624 mom yes dist gaussian # Assign velocities
                                                    # Temperature 2.4, random number seed, zero linear momentum
                                                                                # Gaussian distribution

timestep 0.002   # simulation timestep
thermo 1000       # output thermodynamic data every 1000 steps bf 100

# Define a fix  in this case with index 1 applied to all
# particles in the simulation. This fix is for simulations
# in the anisotropic NPT ensemble. Note that we use the MTK
# correction.
fix 1 all npt temp 2.4 2.4 0.1 iso 5.68 5.68 0.5 mtk yes tchain 5 pchain 5 # Use NPT ensemble
                                                                         # Set temperature and pressure and damping
                                                                         # Numbers of thermostats in chain and in barostat
run 10000          # run for 10000 steps
Per MPI rank memory allocation (min/avg/max) = 3.642 | 3.644 | 3.648 Mbytes
Step Temp E_pair E_mol TotEng Press Volume 
       0          2.4   -6.0964775            0   -2.4973775   -4.1129651         4000 
    1000    2.4374005   -5.0841666            0   -1.4289798    5.3573915    3999.7443 
    2000    2.4160279    -5.012317            0   -1.3891812    5.5212507    4012.0148 
    3000    2.3940511   -5.0344413            0   -1.4442624    5.6651446    3993.0924 
    4000    2.3923392   -5.0327941            0   -1.4451824    5.7623474    3989.1192 
    5000    2.3458089   -5.0219597            0   -1.5041261    5.9414553    3970.3439 
    6000    2.4206396   -5.0092361            0   -1.3791845      5.63586    4001.1888 
    7000    2.3525045   -4.9763676            0    -1.448493    5.4715112    4036.7703 
    8000    2.4105894   -4.9440466            0   -1.3290665     6.031321    4004.2525 
    9000     2.428669    -5.019694            0   -1.3776013    6.1309103    3966.5411 
   10000    2.4188205   -5.0807913            0   -1.4534676    5.6081052    3978.3091 
Loop time of 2.42707 on 48 procs for 10000 steps with 4000 atoms

Performance: 711970.293 tau/day, 4120.198 timesteps/s
99.6% CPU use with 48 MPI tasks x no OpenMP threads

MPI task timing breakdown:
Section |  min time  |  avg time  |  max time  |%varavg| %total
---------------------------------------------------------------
Pair    | 1.0642     | 1.144      | 1.2237     |   3.3 | 47.14
Neigh   | 0.19958    | 0.21206    | 0.2193     |   0.9 |  8.74
Comm    | 0.72806    | 0.81684    | 0.90064    |   4.2 | 33.66
Output  | 0.00023509 | 0.00024209 | 0.00031157 |   0.0 |  0.01
Modify  | 0.21254    | 0.23883    | 0.25116    |   2.1 |  9.84
Other   |            | 0.01506    |            |       |  0.62

Nlocal:        83.3333 ave          97 max          74 min
Histogram: 3 5 7 10 8 6 6 1 1 1
Nghost:        1649.35 ave        1678 max        1616 min
Histogram: 1 1 5 5 8 11 5 5 3 4
Neighs:        9592.75 ave       11315 max        8252 min
Histogram: 2 3 8 10 5 10 5 3 0 2

Total # of neighbors = 460452
Ave neighs/atom = 115.11300
Neighbor list builds = 900
Dangerous builds = 177

# Equilibrate just above the melting temperature to avoid step fn in T

fix 1 all npt temp 1.25 1.25 0.1 iso 5.68 5.68 0.5 mtk yes tchain 5 pchain 5
run 2000
Per MPI rank memory allocation (min/avg/max) = 3.643 | 3.645 | 3.649 Mbytes
Step Temp E_pair E_mol TotEng Press Volume 
   10000    2.4188205   -5.0807913            0   -1.4534676    5.6081052    3978.3091 
   11000    1.2507092   -6.9769587            0   -5.1013639    5.9697498    3173.2822 
   12000    1.2612774   -6.9997429            0   -5.1082998    5.4966046    3189.6708 
Loop time of 0.576002 on 48 procs for 2000 steps with 4000 atoms

Performance: 599997.627 tau/day, 3472.208 timesteps/s
99.6% CPU use with 48 MPI tasks x no OpenMP threads

MPI task timing breakdown:
Section |  min time  |  avg time  |  max time  |%varavg| %total
---------------------------------------------------------------
Pair    | 0.2529     | 0.28082    | 0.3032     |   2.2 | 48.75
Neigh   | 0.038166   | 0.040242   | 0.043746   |   0.7 |  6.99
Comm    | 0.17988    | 0.20739    | 0.23607    |   2.8 | 36.00
Output  | 5.5273e-05 | 5.6231e-05 | 6.9014e-05 |   0.0 |  0.01
Modify  | 0.039296   | 0.042845   | 0.045972   |   1.0 |  7.44
Other   |            | 0.004651   |            |       |  0.81

Nlocal:        83.3333 ave          91 max          77 min
Histogram: 5 2 7 5 5 11 6 3 3 1
Nghost:        1920.29 ave        1942 max        1900 min
Histogram: 3 2 3 8 6 15 6 2 2 1
Neighs:        12005.2 ave       13587 max       10697 min
Histogram: 2 2 11 7 5 9 5 3 3 1

Total # of neighbors = 576250
Ave neighs/atom = 144.06250
Neighbor list builds = 142
Dangerous builds = 10

#############################
# L I N E A R  Q U E N C H  #
#############################

# Define solid atoms. This closely follows ten Wolde  Ruiz-Montero and Frenkel  Faraday Discuss  1996  104  93-110
# Compute components of the per-atom q6 vector
compute q6 all orientorder/atom degrees 1 6 components 6 nnn NULL cutoff 1.3 # compute the Q6 parameter.
                                                                             # Use all neighbours within 1.3 unit cell.

# get number of connections
compute coord_number all coord/atom orientorder q6 0.5

# An atom is solid if it has 8 or more connections (of a possible 14)
variable is_solid atom c_coord_number>=8
group solid dynamic all var is_solid    # Must be dynamic to update
dynamic group solid defined

# do clustering
compute cluster solid cluster/atom 1.3 # Create a cluster where all atoms within are solid and max 1.3 units from another member

# define chunks one chunk per cluster
compute clus_chunks solid chunk/atom c_cluster nchunk every compress yes  # Says which atoms are in which chunk

# count the size of each chunk
compute size_chunks solid property/chunk clus_chunks count


# Find the maximum entry in the vector of chunk sizes
variable max_n equal max(c_size_chunks)


# Thermo style which includes this variable
# thermo_style custom step temp pe vol v_max_n

thermo ${N}  # Print the thermo information every 100 steps
thermo 1000  

# Reset the npt fix at a lower temperature (below freezing)
fix 1  all npt temp  ${temp} ${temp}  0.1  iso  5.68  5.68  0.5  mtk yes tchain  5  pchain  5
fix 1  all npt temp  0.45 ${temp}  0.1  iso  5.68  5.68  0.5  mtk yes tchain  5  pchain  5
fix 1  all npt temp  0.45 0.45  0.1  iso  5.68  5.68  0.5  mtk yes tchain  5  pchain  5

dump dmp2 all dcd ${N} traj.dcd
dump dmp2 all dcd 1000 traj.dcd


compute msd all msd com yes
variable twopoint equal c_msd[4]/6/(step*dt+1.0e-6)
fix 9 all vector 10 c_msd[4]
variable fit equal slope(f_9)/6/(10*dt)
thermo_style custom step temp pe c_msd[4] v_twopoint v_fit v_max_n

fix 1 all npt temp 1.25 ${temp} 0.1 iso 5.68 5.68 0.5 mtk yes tchain 5 pchain 5
fix 1 all npt temp 1.25 0.45 0.1 iso 5.68 5.68 0.5 mtk yes tchain 5 pchain 5
run 2000000 # 5000000  # Run for this many steps
Neighbor list info ...
  update every 1 steps, delay 10 steps, check yes
  max neighbors/atom: 2000, page size: 100000
  master list distance cutoff = 3.8
  ghost atom cutoff = 3.8
  binsize = 1.9, bins = 8 8 8
  4 neighbor lists, perpetual/occasional/extra = 1 3 0
  (1) pair lj/cut, perpetual
      attributes: half, newton on
      pair build: half/bin/atomonly/newton
      stencil: half/bin/3d
      bin: standard
  (2) compute orientorder/atom, occasional
      attributes: full, newton on
      pair build: full/bin/atomonly
      stencil: full/bin/3d
      bin: standard
  (3) compute coord/atom, occasional
      attributes: full, newton on
      pair build: full/bin/atomonly
      stencil: full/bin/3d
      bin: standard
  (4) compute cluster/atom, occasional
      attributes: full, newton on
      pair build: full/bin/atomonly
      stencil: full/bin/3d
      bin: standard
Per MPI rank memory allocation (min/avg/max) = 9.819 | 9.823 | 9.827 Mbytes
Step Temp PotEng c_msd[4] v_twopoint v_fit v_max_n 
   12000    1.2612774   -6.9997429 1.8202965e-30 1.2640948e-32 8.3333333e+20            1 
   13000    1.2672225   -7.0140958    0.4974532 0.0031888025  0.040322267            2 
   14000    1.2504606   -7.0372298    0.9340605 0.0055598837  0.038338839            4 
   15000    1.2551717   -7.0123528    1.3438788 0.0074659931  0.036570708            1 
   16000    1.2662632   -7.0081137    1.7937586 0.0093424926   0.03607514            1 
   17000    1.2495855   -7.0348381    2.2441552   0.01100076  0.036314149            2 
   18000     1.227261   -7.0351766     2.657779  0.012304532   0.03633694            2 
   19000    1.2519141   -7.0793534    3.1002125  0.013597423  0.036285556            3 
   20000    1.2392588   -6.9869817    3.5882296  0.014950956  0.036409062            1 
   21000    1.2545773   -6.9554051    4.0702942  0.016151961   0.03673728            1 
   22000    1.2219619   -6.9723444     4.503492  0.017058681  0.036965755            3 
   23000    1.2265216   -7.0199809    5.0416652  0.018266902  0.037313299            3 
   24000    1.2371779   -7.0505143    5.5284547  0.019196023  0.037741682            2 
   25000    1.2233313    -7.090927    5.9061253  0.019687084   0.03797162            2 
   26000    1.2486255   -7.0497873    6.4213947  0.020581393  0.038005751            2 
   27000    1.2556927   -6.9974703     6.880032  0.021234666  0.038134397            1 
   28000    1.2415531   -7.0351038     7.353576  0.021885642  0.038240519            1 
   29000    1.2315147   -7.0238498    7.8909902  0.022675259  0.038400978            1 
   30000    1.2597388   -7.0308948    8.2554947  0.022931929  0.038507583            1 
   31000    1.2260065   -7.0775361    8.5809226  0.023066996  0.038421628            2 
   32000    1.2306482   -7.0571307    9.0190909  0.023487216  0.038208222            1 
   33000    1.2401301   -7.0638581    9.4356726  0.023827456  0.038032115            4 
   34000    1.2349355   -7.0312549    9.7456434   0.02388638  0.037812985            1 
   35000    1.2328666   -7.0437616    10.131375  0.024122321  0.037551678            1 
   36000    1.1989621   -7.0727854     10.62931  0.024604885  0.037340712            1 
   37000    1.2512899   -7.0406603    11.017635  0.024814493  0.037158622            2 
   38000    1.2412665   -7.0792037    11.416863   0.02503698  0.037001242            2 
   39000    1.2225453   -7.0802675    11.832148  0.025282366  0.036817637            3 
   40000    1.2387464   -7.0618914     12.26009  0.025541853  0.036693179            2 
   41000    1.2399851   -7.0710207    12.816461  0.026049717   0.03663263            2 
   42000    1.2501556   -7.0664462    13.342551  0.026473316  0.036649419            1 
   43000    1.2477817   -7.1338662    13.683588  0.026518581   0.03664073            1 
   44000    1.2286734   -7.0160675    14.173482  0.026843715  0.036608861            1 
   45000    1.2701092   -7.0436948    14.636094  0.027103877  0.036613353            1 
   46000    1.2503096   -7.0948866    15.125009  0.027400378  0.036635911            2 
   47000      1.22552   -7.0751872    15.440535  0.027376835  0.036625667            1 
   48000    1.2143579    -7.059344    15.934286  0.027663691  0.036603362            2 
   49000    1.2330554   -7.1014209      16.4051  0.027899829  0.036618433            2 
   50000    1.2414169   -7.0547435    16.715298   0.02785883  0.036607703            1 
   51000    1.2149452   -7.1133862    17.188647  0.028086025  0.036587913            2 
   52000    1.2526093   -7.0229183    17.627807  0.028249691  0.036575391            1 
   53000    1.2227233   -7.0521196    18.017758  0.028329807  0.036543761            4 
   54000    1.2232883   -7.0757859    18.306886  0.028251367  0.036493472            2 
   55000    1.2272402   -7.0713295    18.636475  0.028237082  0.036429282            4 
   56000     1.221117   -7.0596544    18.963597  0.028219638  0.036336254            1 
   57000    1.2298134   -7.0782307    19.436818    0.0284164  0.036234795            1 
   58000    1.2397278   -7.0590362    19.985467  0.028714751  0.036165139            1 
   59000    1.2428959   -7.0898937    20.398038  0.028810788  0.036111935            1 
   60000    1.2300202   -7.0503099    20.870086  0.028986231  0.036077515            1 
   61000    1.2545843   -7.0263047    21.317183  0.029121834  0.036059648            1 
   62000    1.2265477   -7.0972261    21.701055  0.029168085  0.036030638            1 
   63000    1.2204658   -7.0549138    22.092114  0.029222373  0.035998881            1 
   64000    1.2315158    -7.079098    22.405901  0.029174351  0.035954323            1 
   65000    1.2185843   -7.1121352    22.811151  0.029245065  0.035901576            2 
   66000    1.2362933   -7.0869986    22.983489  0.029019557  0.035847513            2 
   67000    1.2493642   -7.0623022    23.340282  0.029030201  0.035780226            2 
   68000    1.2251792   -7.0652307    23.836007  0.029210792   0.03569974            1 
   69000    1.2283551   -7.0934146    24.208183  0.029236936  0.035631084            1 
   70000    1.1990954   -7.0782663    24.806506  0.029531554  0.035579692            2 
   71000    1.2540136   -7.0874788    25.122803  0.029486858  0.035522681            2 
   72000    1.2259118   -7.0782147    25.519488  0.029536444  0.035473226            1 
   73000    1.2321959   -7.1082556    25.858204  0.029518498  0.035420157            1 
   74000     1.226025   -7.0946853    26.323718  0.029643826  0.035361392            1 
   75000    1.2228029   -7.0511897    26.761799  0.029735332  0.035312808            3 
   76000    1.2167375   -7.1223334    27.175796  0.029798022  0.035268599            1 
   77000     1.210426   -7.0702542    27.745836   0.03002796  0.035238156            1 
   78000    1.2160621   -7.0935637    28.132603    0.0300562  0.035223566            2 
   79000    1.2367392   -7.0333731    28.619228  0.030189059  0.035208825            1 
   80000    1.2185692   -7.1171572    29.082795  0.030294577  0.035194387            3 
   81000    1.2184048    -7.061936    29.586461  0.030438745  0.035181884            3 
   82000     1.215691   -7.0896657    29.985703  0.030473276  0.035181236            2 
   83000    1.2387964   -7.0987968    30.455601  0.030577912  0.035187467            2 
   84000     1.238115   -7.0403906    30.963744  0.030717999  0.035189937            2 
   85000    1.2061551   -7.0762015    31.318871  0.030704775  0.035195401            1 
   86000    1.2077749   -7.0563853    31.724487  0.030740782  0.035204866            1 
   87000    1.2280995   -7.0781261    32.227773  0.030869514  0.035214238            2 
   88000    1.2232691   -7.0738972    32.879721    0.0311361  0.035230158            1 
   89000    1.2088452   -7.0866848     33.18662  0.031073614  0.035249993            1 
   90000    1.2231963   -7.1175949    33.685494  0.031190272  0.035265638            3 
   91000    1.1860828   -7.1015531    34.237805  0.031353301   0.03529602            1 
   92000    1.2046436   -7.0728882    34.647196  0.031383329  0.035323122            1 
   93000    1.2150119   -7.0646941    35.062293  0.031417825  0.035347315            1 
   94000    1.2269084   -7.1037161    35.584182   0.03154626  0.035375861            1 
   95000     1.225433   -7.1137333    35.998178  0.031577349  0.035410786            3 
   96000    1.2124279   -7.1152296    36.465592  0.031654159  0.035445419            2 
   97000    1.2198345   -7.0849142      37.0473  0.031827577  0.035475467            2 
   98000    1.2180041   -7.1276986    37.404972  0.031806949  0.035511945            1 
   99000    1.2036373    -7.125687    38.198715  0.032153801  0.035555493            2 
  100000    1.2034715   -7.1091225    38.531326  0.032109438  0.035599336            1 
  101000    1.1993859   -7.1200944    38.891077  0.032088347  0.035639882            2 
  102000    1.2021605    -7.081173       39.227  0.032048202  0.035676055            3 
  103000    1.2052715   -7.0843803    39.731878  0.032145532  0.035704594            1 
  104000     1.214485    -7.095939    40.021102   0.03206819  0.035724722            4 
  105000    1.2245924   -7.0882651    40.469222   0.03211843  0.035744138            1 
  106000     1.223075   -7.1334951    40.842821  0.032109136  0.035767488            2 
  107000    1.1891861   -7.0907409    41.399013  0.032242222  0.035787938            2 
  108000    1.2034913   -7.1235047    41.816866    0.0322661  0.035808521            2 
  109000    1.1898633   -7.1358383    42.244343  0.032296898  0.035827836            1 
  110000    1.2123782   -7.1424966    42.436992  0.032149236  0.035848963            1 
  111000    1.2042999   -7.1271529    43.130824  0.032380498  0.035868587            3 
  112000    1.2126605   -7.0892241    43.534641  0.032391846  0.035888598            1 
  113000    1.2026694   -7.1190211    43.852405  0.032339532  0.035901512            2 
  114000    1.1953468   -7.1000226    44.471035  0.032508066  0.035915968            1 
  115000    1.2022557   -7.0915944    44.872753  0.032516488  0.035929268            1 
  116000    1.1985124   -7.1330873    45.129781  0.032420819   0.03593817            2 
  117000    1.2009807   -7.1195871    45.614888  0.032489236     0.035943            1 
  118000    1.2205879   -7.0973488    45.927428  0.032434624   0.03594414            2 
  119000    1.1942805   -7.1315883    46.377756   0.03247742  0.035945706            1 
  120000    1.2092025   -7.0960494     46.89296  0.032564555  0.035945242            1 
  121000    1.1947975   -7.1430368    47.247197  0.032539392  0.035947826            1 
  122000    1.1926821   -7.1654408    47.603919  0.032516338  0.035954479            1 
  123000    1.2004736   -7.1412158    48.195094  0.032652502  0.035957436            2 
  124000    1.2061659   -7.1376312    48.437827  0.032552303  0.035960253            1 
  125000    1.2022557   -7.0908899    49.104809  0.032736539   0.03596405            3 
  126000    1.1936802   -7.1210143    49.512825  0.032746577  0.035972108            1 
  127000    1.1955258    -7.078738    49.987009  0.032799875  0.035978815            1 
  128000    1.1731466   -7.1210184    50.070883  0.032598231  0.035980668            1 
  129000    1.2065118   -7.1272608    50.610057  0.032693835  0.035977372            2 
  130000    1.2117657   -7.1593679     51.05302  0.032726294  0.035972502            2 
  131000     1.224696   -7.0969677    51.754709  0.032922843   0.03597406            3 
  132000    1.2339818   -7.1323785    51.880761  0.032753005  0.035974035            2 
  133000    1.2212006   -7.1494878    52.635934  0.032979908  0.035975518            2 
  134000    1.1998867   -7.1214141    53.018973  0.032971998  0.035979258            1 
  135000    1.2001718    -7.132089    53.271668  0.032883745  0.035985077            2 
  136000    1.2013004   -7.1405122    53.954942  0.033060626  0.035987597            1 
  137000    1.2090982   -7.1577161    54.340056  0.033053562  0.035992885            1 
  138000    1.2055405   -7.1315603    54.904129  0.033154667  0.035999965            4 
  139000    1.1816958   -7.1658355    55.270429  0.033135748  0.036007246            1 
  140000    1.2028003   -7.1550213    55.721829  0.033167755  0.036011879            2 
  141000    1.1827083   -7.1115899    56.306758  0.033278226  0.036019899            2 
  142000    1.1998029   -7.1276744    56.825989  0.033348585  0.036032421            1 
  143000    1.1853282   -7.1584626    57.260059  0.033368333  0.036045487            1 
  144000    1.2088479   -7.1463793    57.686155  0.033383191  0.036055108            2 
  145000    1.1877202   -7.1642128    57.888834  0.033269445  0.036066538            1 
  146000    1.1713249   -7.1300189    58.520273  0.033401982  0.036078382            2 
  147000    1.1897047   -7.1349703    58.909562  0.033395443  0.036090887            1 
  148000    1.1864417   -7.1151615    59.561474  0.033536866  0.036102429            2 
  149000    1.2133612   -7.1229039    59.796783  0.033443391  0.036114804            1 
  150000    1.1940617    -7.144274    60.133459  0.033407477  0.036122366            1 
  151000    1.1912472   -7.1535134    60.685687  0.033490997  0.036125631            4 
  152000    1.1923908   -7.1085391    61.137242  0.033518225  0.036132453            4 
  153000    1.1690557    -7.116202    61.352701  0.033416504  0.036136214            2 
  154000    1.1854224   -7.1539826     61.74047  0.033409345  0.036138518            1 
  155000    1.1891421   -7.1703057    62.076585  0.033374508  0.036137504            1 
  156000     1.216433   -7.1591112    62.165519  0.033208076  0.036137811            2 
  157000    1.2051683   -7.1881924    62.554676  0.033203119  0.036136118            3 
  158000     1.220056   -7.1595226    63.434931  0.033457242   0.03613562            1 
  159000    1.1682558   -7.1999159    63.926644   0.03350453  0.036136357            3 
  160000     1.197466   -7.1462061    64.522669  0.033605557   0.03613852            1 
  161000    1.1927948   -7.1969482    65.080723  0.033685675  0.036145401            2 
  162000    1.1834609   -7.1793271    65.138496  0.033507457  0.036153481            2 
  163000    1.1863755   -7.1396533    65.567852  0.033521397  0.036155716            3 
  164000    1.1817606   -7.1682271    65.955379  0.033513912  0.036156258            2 
  165000    1.1767081    -7.148142     66.23986  0.033454475  0.036153375            1 
  166000    1.1766549   -7.1652562     66.58865  0.033428037  0.036148577            3 
  167000    1.1863839   -7.1686986    66.771003  0.033318864  0.036142198            2 
  168000    1.1571166   -7.2011559    67.032432  0.033250214   0.03612955            1 
  169000    1.1924727   -7.1343053     67.43352  0.033251242  0.036115738            3 
  170000    1.1800047   -7.1640341    67.611421  0.033142853  0.036099597            2 
  171000    1.1658649   -7.2030977    67.960972  0.033119382  0.036084072            1 
  172000    1.1831317   -7.1773536    68.523867  0.033199548  0.036069069            2 
  173000    1.1894893   -7.2027369    68.797982  0.033139683  0.036055391            1 
  174000    1.1906882    -7.202954    69.478446  0.033275118  0.036041643            3 
  175000     1.211813    -7.229438    69.438361  0.033065886  0.036025396            1 
  176000    1.1761806   -7.2056174    69.892443  0.033093013  0.036004512            2 
  177000    1.2010256   -7.1291847    70.334682  0.033114257  0.035983858            1 
  178000    1.1856882   -7.1453359    70.753392  0.033124247  0.035961458            2 
  179000    1.1915309   -7.1952925      70.9425  0.033027235   0.03593987            2 
  180000     1.190977   -7.1963375    71.409735  0.033060063  0.035917735            1 
  181000     1.169514   -7.1855726     71.67215  0.032998227  0.035894472            3 
  182000    1.1755578   -7.1895167     71.75165   0.03285332  0.035869975            2 
  183000    1.1705419   -7.1463422    72.542087  0.033033737  0.035845498            1 
  184000     1.167957   -7.1924573    72.858751  0.032997623  0.035822286            1 
  185000    1.1821075   -7.1943096    73.171028  0.032959922   0.03579777            1 
  186000    1.1737488   -7.2027346    73.605109  0.032977199  0.035775115            2 
  187000    1.2007471   -7.1739431      74.0053  0.032979189  0.035752382       -1e+20 
  188000    1.2067253   -7.1850534    74.053606   0.03282518  0.035727275            1 
  189000    1.1646961   -7.2116087    74.305172  0.032762422  0.035704116            1 
  190000    1.1755509   -7.2114745    75.244366  0.033001915  0.035682285            1 
  191000    1.1775953   -7.1682125    75.979679  0.033149947  0.035663012            2 
  192000    1.1741332   -7.1830529     75.72217  0.032865525  0.035640602            1 
  193000     1.176331   -7.1870879    76.255497  0.032925517  0.035615421            1 
  194000    1.1862603   -7.2043646    76.430976  0.032831175  0.035588131            2 
  195000    1.1662472   -7.1643489    76.589243  0.032730446  0.035558781            1 
  196000    1.1685011   -7.1832502    77.218102  0.032830825  0.035529681            1 
  197000    1.1693869   -7.1915064    77.285874   0.03269284  0.035498027            2 
  198000    1.1807909   -7.2477843    77.535208  0.032632663  0.035466761            1 
  199000    1.1552456   -7.2436582    77.976265  0.032653377  0.035438131            1 
  200000    1.1733139   -7.2108634    78.412424  0.032671843  0.035411005            1 
  201000    1.2044879   -7.1611799    79.444249  0.032937085  0.035387097            2 
  202000    1.1867779    -7.201807    79.830073  0.032933198  0.035367839            2 
  203000     1.189405   -7.2141628     80.39415  0.033002524  0.035351603            3 
  204000    1.1709534      -7.2144     80.68169  0.032958207  0.035334192            2 
  205000    1.1946619   -7.2408059     81.04741  0.032946102  0.035318129            1 
  206000    1.1786675   -7.1687771    82.092298  0.033208858  0.035304295       -1e+20 
  207000    1.1721174   -7.1789621    82.264922  0.033117923  0.035292248            2 
  208000    1.1738069   -7.2111554    82.500658  0.033053148  0.035278072            2 
  209000    1.1602744   -7.1968713     83.13932  0.033149649   0.03526573            2 
  210000     1.172205   -7.2403812    83.094097  0.032973848  0.035250764            2 
  211000    1.1627128   -7.1644509    83.513978  0.032983404  0.035233914            3 
  212000    1.1838146   -7.2291076    83.664796  0.032887105  0.035218801            3 
  213000    1.1651018    -7.196457    84.167082  0.032929218  0.035201769            1 
  214000    1.1640756   -7.1870412    84.742886  0.032999566  0.035185734            2 
  215000    1.1506273   -7.1871372    85.116223  0.032990784  0.035170242            2 
  216000    1.1643771   -7.2223749    85.545628  0.033003714  0.035153655            1 
  217000    1.1770191   -7.2083317    85.823073  0.032958169  0.035136664            1 
  218000    1.1654636   -7.2068506    86.520739  0.033073677  0.035120831            1 
  219000    1.1727701   -7.2219591    87.009902   0.03310879  0.035106436            3 
  220000    1.1610357   -7.1932004    86.886537  0.032911567  0.035090338            1 
  221000     1.168636   -7.2139549    87.099466  0.032842936  0.035070494            1 
  222000    1.1678461   -7.2419294    87.186676  0.032727731  0.035049617            1 
  223000     1.178527   -7.2750748    87.622927  0.032743994  0.035026882            2 
  224000     1.154601   -7.2293677    87.696815  0.032625303  0.035003651            2 
  225000    1.1803737    -7.204841     88.12958  0.032640585  0.034980468            2 
  226000    1.1698593   -7.2596987    88.177104  0.032513681  0.034955861            1 
  227000    1.2015303   -7.1996443    89.066796  0.032697062  0.034933465            4 
  228000    1.1576825   -7.2053584    89.555127  0.032732137  0.034911437            2 
  229000    1.1493392   -7.1773059    89.847746  0.032695686   0.03488932            2 
  230000    1.1545248   -7.2321055     89.90692  0.032574971  0.034868019            1 
  231000    1.1613368   -7.2420712    90.349319  0.032593549  0.034846935            1 
  232000    1.1432391   -7.2085402    91.075377  0.032713857  0.034827083            2 
  233000    1.1533112   -7.2438317    91.087906  0.032577935  0.034806052            2 
  234000    1.1595039   -7.2508542     91.53146  0.032596674   0.03478424            1 
  235000    1.1705026   -7.2323094    91.903664  0.032589952  0.034761199            1 
  236000    1.1730826   -7.2189005    91.986322  0.032481046  0.034737158            2 
  237000    1.1275746   -7.2231131    92.257876  0.032439478  0.034712956            1 
  238000    1.1646279   -7.2595837    92.343247   0.03233307  0.034686188            2 
  239000    1.1469269   -7.2102252    92.592442  0.032284673  0.034658953            1 
  240000    1.1537394   -7.2087564    93.218293  0.032367463  0.034631611            3 
  241000     1.171779   -7.1978278    93.264728  0.032249214  0.034601994            2 
  242000    1.1559928   -7.2465227    93.519926  0.032203831  0.034571321            2 
  243000    1.1441537   -7.2591484    93.637726  0.032111703  0.034540279            2 
  244000    1.1535797   -7.2146085    94.522474  0.032282266  0.034510816            3 
  245000    1.1761457   -7.2484819    94.513038  0.032147292  0.034482685            1 
  246000     1.141843   -7.2368773     95.23369  0.032260735   0.03445532            2 
  247000    1.1541852   -7.2239847    95.341996  0.032166665  0.034428681            1 
  248000    1.1103228   -7.2661738    95.242403  0.032003496  0.034398824            1 
  249000    1.1596096   -7.2807792    95.658006  0.032014058  0.034367153            1 
  250000    1.1707665   -7.1841942    96.691072  0.032230357   0.03433626            1 
  251000     1.144533   -7.2325854    96.275351  0.031963928  0.034305228            3 
  252000    1.1553031   -7.2195988    96.990458  0.032073564  0.034273519            1 
  253000    1.1352761   -7.2585865    96.619099  0.031824473  0.034242085       -1e+20 
  254000    1.1469479   -7.2269879    97.206033  0.031891743  0.034210527            1 
  255000    1.1621928   -7.2428609    97.724422  0.031936086   0.03417891            1 
  256000      1.13505   -7.2601369    98.152643   0.03195073  0.034148185            6 
  257000    1.1342895   -7.2450232    98.181758  0.031835849  0.034115801            2 
  258000    1.1700912     -7.21113    98.558985  0.031834297  0.034083193            2 
  259000    1.1465618   -7.2327809    98.901415  0.031821562  0.034051652            1 
  260000    1.1441903   -7.2003934    99.838856  0.031999633  0.034022586            1 
  261000     1.108417   -7.2341833    99.986526  0.031924178  0.033995263            3 
  262000    1.1434534   -7.2377944    100.35916  0.031920852  0.033966663            2 
  263000    1.1423403   -7.2548459    100.17318  0.031740553  0.033937055            2 
  264000    1.1434863   -7.2324954    100.82706  0.031826722  0.033907116            1 
  265000    1.1478185   -7.1938899    101.01121  0.031764531  0.033876292            2 
  266000    1.1428068   -7.2481338    101.25981  0.031722998  0.033847008            1 
  267000    1.1315331   -7.2532085    101.66111  0.031729434  0.033818174            1 
  268000    1.1643291   -7.2263458    102.61751  0.031908429  0.033790798            1 
  269000    1.1479081   -7.2594041    102.32756  0.031699987  0.033762913            1 
  270000    1.1594438   -7.2218958    103.19336  0.031849803  0.033735603            1 
  271000    1.1626585   -7.2463083    103.30349  0.031766141  0.033708318            2 
  272000    1.1527292   -7.2543571    103.76517    0.0317908  0.033681146            1 
  273000    1.1212689   -7.2404093    103.70876  0.031657132  0.033655122            1 
  274000    1.1557896   -7.2540199    104.37111  0.031743039  0.033628358            2 
  275000    1.1197206   -7.2699886    104.90289  0.031788754  0.033603066            3 
  276000    1.1298354   -7.2397037    105.04462   0.03171637   0.03357883            1 
  277000    1.1667077   -7.2499666    106.03051  0.031898468  0.033555594            1 
  278000    1.1504593   -7.2317648    106.27054  0.031855678  0.033532499            2 
  279000    1.1406126    -7.281306    106.39773   0.03177949  0.033508383            1 
  280000    1.1348348   -7.2591777    106.80777  0.031788028  0.033485595            2 
  281000    1.1440006   -7.2607108    106.94662  0.031716079  0.033461844            2 
  282000      1.15183   -7.2561588    107.43294  0.031747322  0.033437761            3 
  283000    1.1477943   -7.2126393    107.71217  0.031717366  0.033414064            2 
  284000    1.1542236   -7.2146895    108.09217  0.031717187  0.033389852            1 
  285000    1.1620461   -7.2779655    108.05807  0.031595927  0.033365178            1 
  286000    1.1597037   -7.2193538    108.49777  0.031613568  0.033341348            1 
  287000    1.1191497   -7.2559883    109.00332  0.031650208  0.033318639            2 
  288000    1.1495812   -7.2366121     109.4312  0.031664121  0.033294663            1 
  289000    1.1185975   -7.2939536     109.3586  0.031533622  0.033272135            2 
  290000    1.1578606   -7.2296255    109.92433   0.03158745  0.033249848            2 
  291000    1.1318636   -7.2727092    110.66162   0.03169004  0.033228149            2 
  292000    1.1717494   -7.2880063    110.76391  0.031610704  0.033206297            2 
  293000    1.1352611   -7.2724317    111.32554  0.031662553  0.033184087            2 
  294000    1.1577577   -7.2635304    111.54196  0.031616202  0.033162942            2 
  295000    1.1441381   -7.2480295    111.77551  0.031575004  0.033140216            3 
  296000    1.1198681   -7.2728341    111.92264  0.031509751  0.033117844            2 
  297000    1.1178983   -7.2665682    112.15449  0.031468711  0.033093965            3 
  298000    1.1213645   -7.2631617    112.53047  0.031468253  0.033068783            1 
  299000    1.1269914   -7.3119707    112.16835  0.031262083  0.033044084            3 
  300000    1.1171219   -7.2985864    112.93251  0.031370143  0.033019877            1 
  301000    1.1295668   -7.3154986    112.93795  0.031267427  0.032995278            1 
  302000    1.1465424   -7.2668027    113.56012  0.031335574  0.032969429            1 
  303000    1.1283167   -7.2844719    113.64725  0.031256119  0.032944506            4 
  304000    1.1342584   -7.2412087    114.00657  0.031251801  0.032919737            3 
  305000    1.1587784   -7.2978288    114.42336  0.031263214  0.032894925            3 
  306000     1.125174   -7.3101015    114.35131  0.031141426  0.032869365            3 
  307000    1.1247471   -7.2888673    115.20305  0.031271185  0.032844008            4 
  308000    1.1409381   -7.2839449    115.39086   0.03122047  0.032819649            1 
  309000    1.1366273   -7.2878301    115.74113  0.031213897   0.03279468            2 
  310000    1.0940086   -7.2623884    116.13793  0.031219874  0.032769452            2 
  311000    1.1089465   -7.2649283    116.18916  0.031133215  0.032743762            1 
  312000    1.1387707     -7.29647    116.01819  0.030987763  0.032716903            1 
  313000    1.1479877   -7.3082116    116.33167  0.030972224  0.032690027            2 
  314000    1.1481721   -7.2968364    117.00936  0.031053439  0.032663482            4 
  315000    1.1394408   -7.2984253    117.37532  0.031051671  0.032639112            1 
  316000    1.0976764   -7.3270513    117.18189  0.030902398  0.032613246            1 
  317000    1.1333698   -7.3220971    118.06103  0.031036022  0.032586794            1 
  318000    1.1337878   -7.2821394    118.59237  0.031077665  0.032562477            1 
  319000    1.1332903   -7.2769882    118.67689  0.031002322  0.032536192            3 
  320000    1.1282192   -7.2407597    118.70265  0.030912148  0.032510501            2 
  321000    1.1384258   -7.3199811    118.86021  0.030856754  0.032484202            2 
  322000    1.1527894   -7.2889495    119.66872  0.030970166  0.032458789            1 
  323000     1.112178   -7.2968189    119.63999  0.030866872  0.032434075            1 
  324000    1.1519229   -7.3188858    120.01458  0.030867948  0.032408747            1 
  325000    1.0961777    -7.301019    120.31844  0.030850881  0.032383355            1 
  326000     1.110702   -7.3214546    120.58754  0.030825036  0.032358025            1 
  327000    1.1396098   -7.3229509    120.84055  0.030795247  0.032332475            5 
  328000    1.1226317   -7.3387457    120.50165  0.030615257  0.032306342            2 
  329000    1.1530935   -7.3440672    120.82823  0.030604921   0.03227919            2 
  330000    1.1307075   -7.3243481    121.06019  0.030570756  0.032252254            2 
  331000     1.148335   -7.2914487     122.0502  0.030727643  0.032225128            1 
  332000     1.126959   -7.2953295    122.18615  0.030669213  0.032198245            3 
  333000    1.1268345    -7.298381    122.00119   0.03053083  0.032171441            1 
  334000    1.1014827   -7.3351474    121.90779  0.030416114  0.032143085            1 
  335000    1.1297863   -7.3146659    122.37377  0.030441237  0.032114241            1 
  336000    1.0943256   -7.3206617     122.7628  0.030447123  0.032085302            1 
  337000    1.1303916   -7.3177791    123.20021  0.030464938  0.032057031            1 
  338000    1.0954937    -7.360465    123.36658  0.030415824  0.032027625            2 
  339000     1.134173   -7.3466329    123.34511  0.030320825   0.03199821            2 
  340000    1.1409447    -7.331489    123.54493  0.030280621  0.031968406            2 
  341000    1.0979268   -7.3353507    123.62673   0.03021181  0.031938161            1 
  342000     1.113747   -7.3461884    124.03916  0.030223966  0.031908684            1 
  343000    1.1279536   -7.3301607    124.29887  0.030198948  0.031878936            1 
  344000    1.1016256   -7.3313412    124.98948  0.030278459  0.031849186            2 
  345000    1.0983212   -7.3236662    125.37069  0.030282774  0.031820665            2 
  346000    1.1062401   -7.3340865    125.41977  0.030207074  0.031792212            1 
  347000      1.12602    -7.338381    125.66667  0.030179315  0.031763338            2 
  348000    1.0889279   -7.3241715    126.37063  0.030261166  0.031736058            3 
  349000    1.1246651   -7.2821794    126.58821  0.030226412  0.031708722            1 
  350000    1.1353113   -7.3272573    127.01877  0.030242565  0.031681017            2 
  351000    1.1027068   -7.3172916    127.07466  0.030169672  0.031653176            1 
  352000    1.1105692   -7.3451347    127.65948  0.030222414   0.03162532            1 
  353000    1.1236439   -7.2952653    127.58179  0.030118459  0.031597745            1 
  354000    1.1218727    -7.328216     127.7459  0.030072009  0.031570117            2 
  355000    1.1475061   -7.2907322    127.94635  0.030034355  0.031542362            3 
  356000    1.1177093   -7.3404472    128.37971  0.030051431   0.03151473            1 
  357000    1.1062479   -7.3434749    128.60584  0.030020038  0.031486419            1 
  358000    1.1366566   -7.3321397    128.54485  0.029921986  0.031458384            1 
  359000    1.1127209   -7.3647814    128.83248  0.029905403  0.031430042            2 
  360000    1.0986521   -7.3354332    129.32503  0.029936351  0.031401862            3 
  361000    1.1005914   -7.3411085     129.4446  0.029881024  0.031372797            2 
  362000    1.0962069   -7.2937352     129.6126  0.029837154  0.031343629            3 
  363000    1.1044788   -7.3758348    129.41742  0.029710151  0.031314438            5 
  364000    1.1123417   -7.3072952    130.30652  0.029832079  0.031284782            2 
  365000    1.0868279   -7.3371379     130.2262  0.029732009  0.031255531            2 
  366000    1.1054009   -7.3871502    130.12078  0.029626772   0.03122436            1 
  367000    1.1163227   -7.3646688    129.99793   0.02951815  0.031193574            1 
  368000    1.1091625   -7.3138837    131.00084  0.029665045  0.031162561            2 
  369000    1.1104684   -7.3436318    131.33558  0.029660249  0.031132662            2 
  370000    1.1097422   -7.3551925    131.01419  0.029507701  0.031103096            2 
  371000    1.1007758   -7.3653192    131.45161  0.029526417  0.031073323            1 
  372000     1.115629    -7.294482     131.9567  0.029560193  0.031043465            2 
  373000    1.0999629    -7.375853    131.72897  0.029430065   0.03101334            2 
  374000    1.1021109   -7.3434245    132.75079  0.029579053  0.030983151            4 
  375000    1.0872003   -7.3889667    132.82834   0.02951741  0.030953307            3 
  376000    1.1023702   -7.3516461    133.15533  0.029511377  0.030923707            4 
  377000    1.0756817   -7.3890462    132.98637  0.029395749  0.030893984            2 
  378000    1.0912449   -7.3540022    133.64332  0.029462813  0.030863952            2 
  379000    1.1366003   -7.3543912    133.65134  0.029386838  0.030835091            1 
  380000    1.0887061   -7.3697401    133.92319  0.029369121  0.030807178            1 
  381000    1.0956904   -7.4365963    133.90559  0.029288186  0.030778453            1 
  382000    1.0880154   -7.3485468    134.41988  0.029323708  0.030750168            1 
  383000    1.1162578   -7.3866173    135.28219  0.029434767   0.03072271            1 
  384000    1.1016014    -7.387067    135.43264  0.029390765  0.030695416            3 
  385000    1.1118936   -7.3349321    135.66508  0.029364735  0.030667966            1 
  386000    1.0863453   -7.3606166    135.71671  0.029299807  0.030640181            1 
  387000     1.112668   -7.3108916    136.11825  0.029310562  0.030612895            3 
  388000    1.1102074   -7.3705395    136.73418  0.029367306   0.03058594            2 
  389000    1.1113031   -7.3482551    137.46788  0.029448988  0.030560019            1 
  390000     1.132964   -7.3595559    137.68967  0.029420869  0.030534587            2 
  391000    1.1053194   -7.3490772    138.03143  0.029418462   0.03051044            5 
  392000    1.0741326    -7.375442    137.89396  0.029314193  0.030485478            2 
  393000    1.1150459    -7.347877     138.4851  0.029364949  0.030460708            1 
  394000    1.1019656   -7.3759295    138.40873  0.029274267  0.030435463            2 
  395000    1.0835534   -7.3499016    139.20324  0.029367773  0.030410333            1 
  396000    1.1090779   -7.3809547    139.25916  0.029305379  0.030386046            2 
  397000    1.0824366    -7.398181    139.80964  0.029347112  0.030362081            2 
  398000    1.0903564   -7.3585937    140.20642  0.029356452   0.03033872            2 
  399000    1.1036435   -7.3830841    140.01989   0.02924392  0.030315194            2 
  400000    1.0919741   -7.3849949    140.47464   0.02926555  0.030291886            2 
  401000    1.1161621   -7.3657383    140.86118  0.029272897  0.030268338            1 
  402000    1.0988767   -7.3795718    140.92067  0.029212412  0.030244864            2 
  403000    1.0824846   -7.3506884    141.51324  0.029262456  0.030221338            2 
  404000    1.1093576     -7.38234    141.25611  0.029136986  0.030198254            1 
  405000    1.0848943   -7.3883756    141.80105  0.029177171  0.030174446            3 
  406000    1.0998025    -7.411205    141.14595  0.028970843  0.030150323            1 
  407000    1.0873698   -7.3760555    142.19604  0.029114669  0.030125353            1 
  408000    1.1005461   -7.3849298    142.11436  0.029026626  0.030101109            1 
  409000    1.0841374   -7.3801461    142.57691    0.0290499  0.030076261            2 
  410000    1.1232697   -7.3763698    142.74577  0.029013368   0.03005134            1 
  411000    1.0791282   -7.3863358    143.59358  0.029114675  0.030027444            2 
  412000    1.1039022   -7.4191654    143.28224  0.028981035   0.03000364            2 
  413000     1.077387   -7.3886585    143.55883  0.028966674  0.029979428            1 
  414000    1.0928997   -7.3346392    144.12489  0.029010646  0.029955463            1 
  415000    1.0709442   -7.3769778    143.89664  0.028894907  0.029930941       -1e+20 
  416000    1.0884692   -7.4277893     143.9275  0.028831631  0.029906847            1 
  417000     1.077258    -7.396402    144.51905  0.028880705  0.029882418            1 
  418000    1.0882535   -7.3895859    144.54951  0.028817686  0.029857564            1 
  419000    1.0793971   -7.4113761    144.80806  0.028800329  0.029834367            2 
  420000    1.0889677   -7.3885296     145.1992  0.028809366   0.02981005            2 
  421000    1.0675896   -7.3737317    145.13359  0.028727947  0.029786017            1 
  422000    1.0970747   -7.3924895    145.70993  0.028773683  0.029762091            1 
  423000    1.0948245   -7.3737804    146.13343  0.028789093  0.029738126            3 
  424000    1.0710692   -7.4236414    146.26665  0.028747376  0.029714549            1 
  425000    1.0905982   -7.3915934    147.09757  0.028842661  0.029691415            2 
  426000    1.0690211   -7.3853349    146.85362  0.028727235  0.029667857            2 
  427000    1.0751992   -7.4323239    147.19938  0.028727436  0.029644386            1 
  428000    1.1064677   -7.4015178    147.39106  0.028697636  0.029620858            3 
  429000    1.0736455   -7.4264209    146.75571  0.028507325    0.0295968            3 
  430000    1.0766732   -7.4305248    147.01451  0.028491184  0.029572123            3 
  431000    1.0870512   -7.3922566    147.99806  0.028615248  0.029547623            1 
  432000    1.0977081    -7.388815     147.6962   0.02849078  0.029522509            3 
  433000     1.079156   -7.4092304     147.4146  0.028370785   0.02949663            5 
  434000    1.0909808   -7.4335456     147.8098  0.028381298  0.029470213            2 
  435000    1.0838305   -7.4227455    148.38261  0.028425787  0.029444903            2 
  436000    1.0896203   -7.4074531     148.8449  0.028448949  0.029420043            1 
  437000    1.0758674   -7.3988554    148.90144   0.02839463  0.029394469            1 
  438000    1.0988734   -7.3941965    148.84857  0.028319743  0.029368893            2 
  439000      1.05847    -7.421935    148.92885  0.028270472  0.029342505            1 
  440000    1.0831666   -7.4299202    148.85546  0.028192321  0.029315704            1 
  441000    1.0763146    -7.422273    149.22751  0.028198698  0.029289136            3 
  442000    1.0795754   -7.3856827    149.46574  0.028179815   0.02926249            1 
  443000    1.0609402   -7.3830252     149.5699  0.028135797  0.029235564            3 
  444000     1.082879   -7.4301615    149.89652   0.02813373  0.029208206            2 
  445000    1.0773574    -7.449773    149.83811   0.02805957  0.029181556            2 
  446000    1.0671081   -7.4187391    150.64249  0.028146953  0.029154767            1 
  447000    1.0667066   -7.4322747    150.39215  0.028037313  0.029128359            2 
  448000    1.0671236   -7.4045698    151.42161  0.028166222  0.029102569            1 
  449000    1.1057496   -7.4430169    150.75933  0.027980574  0.029076928            2 
  450000    1.0759255   -7.3858229    151.56276  0.028067178  0.029051036            2 
  451000    1.0679301   -7.4095211    152.07506  0.028099604  0.029025188            1 
  452000    1.0555138   -7.3999834    152.34793  0.028087745  0.029000297            2 
  453000    1.0924946   -7.4399053    152.07348  0.027975253  0.028974608            2 
  454000    1.0693974   -7.4103781    152.91536  0.028068165  0.028949094            2 
  455000    1.0765851   -7.4189453    153.06412  0.028033722  0.028924123            1 
  456000    1.0584163   -7.3625196    153.81808  0.028110029  0.028899949            1 
  457000    1.0578407   -7.4122548    154.07157  0.028094743   0.02887625            1 
  458000    1.0652102    -7.434908    153.69099  0.027964154  0.028852796            1 
  459000    1.0871704   -7.4105849     154.4202   0.02803562  0.028829677            2 
  460000    1.0788667   -7.4170909    154.20652  0.027935965  0.028806285            2 
  461000    1.0694308   -7.4142577    154.66027  0.027957389  0.028782653            5 
  462000    1.0630729   -7.4181685    155.22783  0.027999247  0.028759127            2 
  463000     1.078512   -7.4503816    155.18154  0.027930442  0.028736189            2 
  464000    1.0346761   -7.4328173    155.92153  0.028003148  0.028713186            2 
  465000    1.0723718   -7.4172085     156.2399  0.027999982  0.028690311            3 
  466000    1.0741117   -7.4624239    156.13491   0.02792112  0.028667005            7 
  467000    1.0622378   -7.4007421    156.30477  0.027891644   0.02864451            2 
  468000    1.0787772   -7.4546883    156.46788  0.027861089  0.028621778            2 
  469000    1.0892256   -7.4635575    156.90877  0.027880024  0.028599031            3 
  470000    1.0371497    -7.417764    157.69133  0.027959456  0.028576967            4 
  471000    1.0616203   -7.4129105    157.24261  0.027820702  0.028554079            1 
  472000    1.0814692   -7.4299554    157.46176  0.027800453  0.028531772            2 
  473000    1.0469501   -7.4754908    157.92511  0.027823311  0.028509396            2 
  474000    1.0713598   -7.4355611    158.16085  0.027806056  0.028487314            4 
  475000    1.0619622   -7.4432913    158.62427  0.027828819  0.028465834            2 
  476000    1.0657511   -7.4735553    159.33646  0.027895038  0.028445266            1 
  477000    1.0819017   -7.4274724    159.60122  0.027882813  0.028424422            3 
  478000    1.0820867   -7.4020085    159.98918  0.027892117  0.028403978            1 
  479000    1.0584286   -7.4733183    159.36185  0.027724748  0.028383554            1 
  480000    1.0568375   -7.4358986    160.06683  0.027789381  0.028362782            3 
  481000    1.0544614   -7.4326342    160.30588  0.027773021  0.028342156            3 
  482000    1.0420444   -7.4472986    160.76558   0.02779488  0.028321938            1 
  483000     1.047128   -7.4342938    160.63822  0.027715358  0.028301656            2 
  484000    1.0635349   -7.4589276    160.90478  0.027703991  0.028280716            1 
  485000    1.0603314   -7.4726388    161.02529  0.027667576  0.028259991            1 
  486000    1.0556667   -7.4660928    161.50301  0.027692561  0.028239373            2 
  487000    1.0547732   -7.4483443    161.68806  0.027667362  0.028219023            2 
  488000    1.0562091   -7.4082998    161.77448  0.027625424  0.028199281            2 
  489000    1.0564676   -7.4344985    162.22292  0.027645351  0.028178418            1 
  490000    1.0777365   -7.4791314    161.86458   0.02752799  0.028157393            2 
  491000    1.0507564   -7.4270325    162.59009  0.027595059  0.028136422            2 
  492000    1.0850695   -7.4994864    161.98595  0.027436645  0.028115767            1 
  493000    1.0422159    -7.434764    162.47861  0.027464267  0.028094814            1 
  494000    1.0641326   -7.4926035    162.85216  0.027471687  0.028073577            2 
  495000    1.0703843   -7.4926907    162.85825  0.027417214  0.028052016            1 
  496000    1.0472836   -7.4935979    163.30295  0.027436652  0.028030708            1 
  497000    1.0388371   -7.4590519    162.94093  0.027320746  0.028009134            1 
  498000    1.0643175   -7.4726082    162.94051  0.027265816  0.027987438            2 
  499000    1.0601544   -7.4800619    163.83175  0.027360011  0.027965726            3 
  500000     1.060826    -7.509254    164.01921  0.027336535  0.027943889            2 
  501000    1.0824161    -7.461301    164.52456  0.027366029  0.027922254            2 
  502000    1.0735911   -7.5146911    163.71484  0.027177099  0.027900302            2 
  503000    1.0764732   -7.5000313    164.63747  0.027275923  0.027878468            2 
  504000    1.0621516   -7.5091832    164.96373  0.027275749  0.027857253            1 
  505000    1.0607156   -7.5184305    165.16734  0.027255336  0.027835922            1 
  506000    1.0335971   -7.5298379    165.47464  0.027252082  0.027814473            2 
  507000    1.0587268   -7.5025061    165.57532  0.027214879  0.027792811            1 
  508000    1.0538055   -7.4591695    166.15051  0.027255661  0.027771564            1 
  509000    1.0421028   -7.4468512    166.40956  0.027244525  0.027750447            2 
  510000    1.0494041   -7.4393702    166.34082  0.027179872   0.02772927            2 
  511000    1.0423239   -7.5112579    166.40303  0.027136828  0.027707717            1 
  512000    1.0557754   -7.4586333    166.83368   0.02715392  0.027686074       -1e+20 
  513000    1.0404962   -7.5011218    166.64059  0.027069621  0.027664701            1 
  514000    1.0400824   -7.5200232    166.98261  0.027072407  0.027643458            1 
  515000    1.0496554   -7.4772025    167.46324  0.027097612  0.027622806            2 
  516000    1.0375465   -7.4854854    167.89891  0.027115456  0.027601844            2 
  517000    1.0537799   -7.5218462    168.12843  0.027100005  0.027581041            2 
  518000    1.0400357   -7.5277158    167.56857  0.026957621  0.027559887            1 
  519000    1.0360082   -7.5047259     168.4695  0.027050337  0.027539148            1 
  520000    1.0265896   -7.4843488     169.0153  0.027085786   0.02751879            1 
  521000    1.0455446   -7.4888823    168.98363  0.027028731  0.027498435            2 
  522000    1.0516505   -7.4949873    169.39811  0.027043121  0.027478057            2 
  523000    1.0227261   -7.4935967     169.7543  0.027048167  0.027457947            1 
  524000    1.0562582   -7.4834626    169.46387  0.026950361  0.027437432            4 
  525000    1.0438633   -7.4527825    170.07363  0.026995814  0.027416992            2 
  526000    1.0524974   -7.4964295    170.29568  0.026979671  0.027396951            4 
  527000    1.0544857   -7.5144806    169.91725  0.026868635  0.027376544            2 
  528000    1.0414863    -7.472797    170.79136  0.026955707  0.027356538            2 
  529000    1.0303076    -7.504849    171.08848  0.026951556  0.027337031            2 
  530000     1.069586   -7.4953243    170.91862  0.026873997  0.027317587            1 
  531000    1.0535749   -7.4802288    171.65989  0.026939719  0.027298118            2 
  532000    1.0494904   -7.4996989    171.61153  0.026881505  0.027278866            2 
  533000    1.0327664   -7.4810596    171.85575  0.026869254  0.027259164            1 
  534000    1.0479184   -7.4960297    171.94903  0.026833494  0.027238869            2 
  535000    1.0363906   -7.5076209    171.75975  0.026753856  0.027218971            1 
  536000    1.0675572   -7.5134733      171.557  0.026672419  0.027198265            1 
  537000    1.0257542   -7.5228015    172.05853  0.026700579   0.02717694            1 
  538000     1.022846   -7.4906641    171.95523  0.026634949  0.027156159            2 
  539000    1.0262506   -7.5207632    171.94107  0.026583345  0.027135146            2 
  540000    1.0378718   -7.5003498    173.00285   0.02669797  0.027114723            2 
  541000    1.0285572   -7.4968654     172.8508    0.0266252  0.027094365            1 
  542000    1.0402479   -7.5348691     172.9948  0.026598216  0.027073742            3 
  543000    1.0386722   -7.5221731    173.67162  0.026653103  0.027053487            2 
  544000    1.0247015   -7.5302857    173.68886  0.026606749  0.027032986            2 
  545000    1.0341201   -7.4711413    173.75878  0.026568621  0.027012585            3 
  546000    1.0220764   -7.4884132    174.69189  0.026662377  0.026992409            2 
  547000    1.0362286   -7.5406515    174.01538   0.02651057  0.026972192            1 
  548000    1.0237173   -7.5189645    174.18974  0.026488707    0.0269517            2 
  549000     1.051955   -7.4849378    175.21989  0.026596826  0.026931514            2 
  550000    1.0436269   -7.5185843    174.58784  0.026452703  0.026911158            3 
  551000    1.0312231   -7.5147072    174.49899  0.026391257  0.026890504            1 
  552000    1.0338964   -7.5408308    174.54768  0.026350798  0.026869593            4 
  553000     1.032711   -7.5218658    175.15839  0.026395177  0.026849165            1 
  554000    1.0529309   -7.5452982    174.89258  0.026307549   0.02682852            1 
  555000    1.0397577   -7.5393563    175.28291  0.026318755  0.026807886            1 
  556000    1.0400467   -7.5182623    175.57436  0.026315102  0.026786785           10 
  557000    1.0380774   -7.5496894    175.82747  0.026305725  0.026766064            2 
  558000    1.0313334    -7.570405    176.03658  0.026289812  0.026745581            2 
  559000    1.0263094   -7.5350915    176.53117  0.026316513  0.026725416            2 
  560000    1.0445363   -7.5101453    176.76881  0.026304882  0.026705265            1 
  561000    1.0187648   -7.5019221    176.76074  0.026256795  0.026685154            1 
  562000    1.0212363   -7.5358098    176.81568   0.02621822  0.026664806            1 
  563000    1.0326156   -7.5250422    177.03545  0.026204182  0.026644296            5 
  564000    1.0631566   -7.5147783    177.24691  0.026188965  0.026623665            1 
  565000    1.0394077   -7.5390649    177.50827  0.026181161  0.026603215            3 
  566000    1.0255881   -7.4983231    178.19623  0.026236194  0.026582977            1 
  567000    1.0232457   -7.5362441    177.69866  0.026116794  0.026562642            2 
  568000    1.0390704   -7.5603709    178.08204   0.02612706   0.02654262            2 
  569000    1.0176968   -7.5528159    177.99994  0.026069119  0.026522189            2 
  570000    1.0353073   -7.5309506    178.44599  0.026088595  0.026501806            1 
  571000    1.0354007    -7.548434    178.35323  0.026029368  0.026481309            2 
  572000    1.0264044   -7.5594707    178.70105  0.026034535  0.026460389            2 
  573000   0.99856814   -7.5569192    178.49263  0.025958788  0.026439648            2 
  574000    1.0070034   -7.5493559    178.73186  0.025948295  0.026418745            2 
  575000    1.0254961   -7.5325674    178.98941  0.025940494  0.026398355            2 
  576000     1.015651     -7.54918    178.56698  0.025834343  0.026377454            3 
  577000    1.0478577   -7.5174432    179.58614  0.025936762  0.026356808            1 
  578000    1.0191758   -7.5226873    180.02699  0.025955449  0.026336408            2 
  579000    1.0166056   -7.5210862    180.30109  0.025950071  0.026315943            3 
  580000    1.0121258    -7.523717    180.12927  0.025880642  0.026295801            1 
  581000    1.0323155   -7.5461366    179.88956  0.025801716   0.02627513            3 
  582000    1.0238521    -7.565937    179.71723  0.025732708  0.026254198            3 
  583000    1.0083807   -7.5357761    181.16055  0.025894876  0.026233675            2 
  584000   0.99343834   -7.5444754    181.29101  0.025869152  0.026213675            4 
  585000    1.0433689    -7.521939    181.24054  0.025817741  0.026193626            1 
  586000    1.0309358   -7.5427399    182.11359  0.025897837  0.026173547            2 
  587000    1.0119336    -7.517354    182.28822   0.02587851   0.02615296            3 
  588000    1.0262855   -7.5610183    181.45777  0.025716804  0.026132923            2 
  589000    1.0172864   -7.5319057    182.04872  0.025756751  0.026113055            3 
  590000    1.0232309   -7.5851174    181.90332  0.025692559  0.026092785            2 
  591000    1.0150908    -7.569058    182.24363  0.025697071  0.026072756            3 
  592000    1.0278275   -7.5723124    181.95408  0.025612905   0.02605277            2 
  593000     1.007894   -7.5768928    182.58656  0.025658595  0.026032763            3 
  594000    1.0150667   -7.5685892    182.86839  0.025654936  0.026012937            3 
  595000    1.0084657   -7.5609761    182.96131  0.025624833  0.025992795            1 
  596000    1.0068526   -7.5439259    183.06156  0.025595855  0.025972863            2 
  597000    1.0240432   -7.5552286    183.52369  0.025617489  0.025953035            2 
  598000    1.0135674    -7.596551    183.96523   0.02563618  0.025933289            1 
  599000    1.0269355   -7.5737442    183.89159  0.025583137  0.025913419            2 
  600000   0.99587117   -7.5947564      183.373  0.025468473   0.02589344            3 
  601000    1.0185924   -7.5593478    184.35943  0.025562872  0.025873536            1 
  602000    1.0174676   -7.5953913    184.08743  0.025482756   0.02585359            1 
  603000    1.0049938   -7.5870584    184.15064  0.025449232  0.025833657            2 
  604000    1.0175824   -7.5849018    184.83972  0.025502169  0.025813975            4 
  605000    1.0285492   -7.5808013    184.91244  0.025470033  0.025794124            1 
  606000    1.0216149   -7.5743393    185.55954  0.025516988  0.025774511            2 
  607000   0.99243004    -7.582064    186.10699  0.025550109  0.025755359            2 
  608000    1.0240162   -7.5740041    185.97805  0.025490412  0.025736112            1 
  609000    1.0043295   -7.5702589    185.90674  0.025438799  0.025717213            2 
  610000   0.99528093   -7.5357174    186.31091   0.02545231  0.025698195            1 
  611000     1.007903   -7.5646855    186.70331  0.025464172  0.025679155            2 
  612000    1.0342997   -7.5770782    186.74823   0.02542868  0.025659865            2 
  613000    1.0113579    -7.585187    186.57821  0.025364085    0.0256405            4 
  614000   0.99606435   -7.5716946    187.32694  0.025424395  0.025621349            1 
  615000    1.0108864   -7.5808597     187.4178  0.025395366  0.025602631            2 
  616000    1.0244294   -7.5593944    187.89651  0.025418901  0.025583713            2 
  617000    1.0077542   -7.5235581    187.80398  0.025365205  0.025565092            1 
  618000   0.98611833   -7.5613552    187.00551  0.025216493  0.025545812            2 
  619000    1.0045741    -7.594364    187.34579  0.025221566  0.025526522            3 
  620000    1.0191975   -7.5648531    187.81005  0.025243286  0.025507274            1 
  621000   0.99451097   -7.5620658    188.31619  0.025270557  0.025488228            2 
  622000   0.99623187   -7.5653905    188.02847  0.025191382  0.025469444            4 
  623000    1.0170299   -7.5601318    188.47554  0.025210746  0.025450282            1 
  624000    1.0026393   -7.5984179    188.30014   0.02514692  0.025431089            2 
  625000    1.0159558   -7.6092633    188.36491  0.025115321  0.025411785            4 
  626000    1.0179385   -7.6055235    188.46536  0.025088573  0.025392321            1 
  627000    1.0070722   -7.5868281    188.94968  0.025112929  0.025372636            2 
  628000   0.99069562   -7.5885635    189.10214  0.025093172  0.025353172            2 
  629000    1.0063859   -7.6109681    189.17822  0.025063357  0.025333433            1 
  630000   0.99849411   -7.5936568    189.32613  0.025043139  0.025314061            1 
  631000    1.0171132   -7.6156058    189.58979  0.025038272  0.025294734            2 
  632000   0.99706746   -7.6080587    189.77125  0.025022581  0.025275184            1 
  633000    1.0108506    -7.607444    189.78734  0.024985168  0.025255851            2 
  634000    1.0171919   -7.5983494    189.75691   0.02494176  0.025236657            2 
  635000    1.0189801   -7.5979629    190.59241  0.025012128   0.02521745            2 
  636000   0.98080661   -7.6010897    190.87778  0.025010192    0.0251986            4 
  637000   0.99350508   -7.5908528    191.08311   0.02499779  0.025179545            2 
  638000    1.0163894   -7.5833771    191.28817  0.024985393   0.02516087            1 
  639000   0.97596386   -7.6181951    191.51812   0.02497628  0.025142458            3 
  640000    1.0269908   -7.6090603    191.95822   0.02499456  0.025123968            2 
  641000   0.99970779   -7.6157247    192.02844  0.024964696  0.025105595            1 
  642000   0.98040205   -7.6293549    192.01941  0.024924638  0.025087183            2 
  643000      1.00974   -7.5908704    192.88949  0.024998638  0.025068882            2 
  644000   0.98508049   -7.5721021    192.88845  0.024959686  0.025050868            2 
  645000   0.98933136   -7.6310483    192.54769  0.024876962  0.025032704            2 
  646000    1.0180027   -7.6261272    192.44448  0.024825139  0.025014504            1 
  647000    1.0049554   -7.6147483    193.40661  0.024910691  0.024996546            3 
  648000   0.99489179   -7.6121263    193.26446  0.024853969  0.024978643            2 
  649000    1.0003912     -7.61026    193.27407  0.024816907  0.024960519            1 
  650000   0.98715184   -7.6167026    193.51132  0.024809144  0.024942561            4 
  651000    1.0099958   -7.6444728    193.47368  0.024766216  0.024924738            2 
  652000    1.0033279   -7.6136796    193.79535  0.024769344  0.024906607            3 
  653000   0.99731422   -7.5975011    194.03073  0.024761451  0.024888583            1 
  654000   0.99495043   -7.6248207    194.02239  0.024722527   0.02487084            2 
  655000    1.0121457   -7.6336766    194.44993  0.024739176  0.024852835            2 
  656000   0.99002324   -7.6503963    194.00466  0.024644901  0.024834823            1 
  657000   0.99938924   -7.6016094    195.29658  0.024771255  0.024816733            1 
  658000   0.98542659   -7.6127394    195.07412  0.024705436  0.024799064            5 
  659000   0.97967069   -7.6365189      195.288  0.024694992  0.024781461            1 
  660000   0.99088595    -7.596034    195.14003  0.024638892  0.024763752            2 
  661000    0.9931139   -7.6116145    196.17923  0.024732631  0.024746355            2 
  662000    0.9827757   -7.6226051    196.71513   0.02476273  0.024728887            1 
  663000   0.99562994   -7.6659548    195.83419  0.024614654  0.024711395            2 
  664000   0.99692025   -7.6300605    196.63851  0.024678527  0.024693918            2 
  665000   0.98355408   -7.6308182    196.56378  0.024632053  0.024676664            4 
  666000   0.98167621   -7.6073558    196.90753   0.02463808  0.024659447            2 
  667000   0.98660209   -7.6089684    197.39237  0.024661715  0.024642213            2 
  668000   0.98239097   -7.6026536    197.28327  0.024611187   0.02462481            2 
  669000   0.99829827   -7.6447047    197.36542  0.024584631  0.024607834            2 
  670000   0.97898932   -7.6522848    197.38951  0.024550935   0.02459057            3 
  671000   0.97441265   -7.6187508    197.90565  0.024578447  0.024573506            2 
  672000   0.97264931   -7.6265219     197.8758  0.024538169  0.024556448            2 
  673000   0.99489327   -7.6017944    198.10067  0.024529553  0.024539314            1 
  674000    0.9907339   -7.6170352    198.78703   0.02457802  0.024522369            1 
  675000    0.9787134   -7.6206014    198.87941  0.024553013  0.024505497            2 
  676000   0.98583161   -7.6565837    198.59757  0.024481949  0.024489059            1 
  677000   0.98268264   -7.6629059    199.03958  0.024500195  0.024472298            1 
  678000   0.98147565   -7.6426063    198.85965  0.024441943  0.024455895            2 
  679000   0.96849634   -7.6906386    199.34678  0.024465731  0.024439052            1 
  680000   0.97518285   -7.6863405     199.8142  0.024487034  0.024422563            2 
  681000     1.000383   -7.6732705    200.15542  0.024492832  0.024406136            6 
  682000     1.000813   -7.7066161    199.67648  0.024398397  0.024389523            1 
  683000   0.99182531   -7.6987833    199.86834  0.024386083  0.024373002            1 
  684000   0.95817975   -7.6708063    200.01455  0.024368244  0.024356265            2 
  685000   0.97522786   -7.6310385    201.06728  0.024460739   0.02433999            2 
  686000   0.98032471   -7.6149866    201.23685  0.024445681  0.024323679            1 
  687000   0.95628867   -7.6590567    201.11696  0.024395555  0.024307245            1 
  688000   0.98589475   -7.6481314    200.92262  0.024336557  0.024290729            2 
  689000   0.98004369   -7.6360609    201.74558  0.024400771  0.024274398            1 
  690000   0.93723006   -7.6573258    201.62807  0.024351216  0.024258155            2 
  691000   0.97675352   -7.6593337    200.95908  0.024235297  0.024241782            2 
  692000   0.96117854   -7.6626835    201.91054  0.024314853  0.024225445            2 
  693000   0.97504107   -7.6424778     202.0094  0.024291655  0.024208991            1 
  694000   0.97971489   -7.6889973    201.77143  0.024228077  0.024192423            2 
  695000   0.97282758    -7.645843    202.44089  0.024273488  0.024175697            2 
  696000   0.97704244   -7.6418943    202.47372  0.024242543  0.024159161            1 
  697000   0.98814497   -7.6889366    202.60262  0.024223173  0.024142756            2 
  698000   0.98848431    -7.657155    202.58886  0.024186827  0.024126107            3 
  699000   0.98018369    -7.645047    203.00614  0.024201972  0.024109574            2 
  700000    1.0005311   -7.6399515    203.29181  0.024201406  0.024093145            2 
  701000   0.97584477   -7.6901969    202.71758  0.024098619  0.024076645            2 
  702000   0.96984959   -7.6832378    203.18866  0.024120211  0.024059979            1 
  703000   0.97358125   -7.6323086    203.69292  0.024145676   0.02404365            3 
  704000   0.97849943   -7.6713858    202.91038  0.024018748  0.024027485            1 
  705000   0.98533447   -7.6928302    203.35598   0.02403735  0.024011115            4 
  706000   0.96322274   -7.6468637     204.1794  0.024100495  0.023994826            4 
  707000   0.95365685   -7.7167362     203.7411  0.024014746   0.02397848            2 
  708000   0.97919985   -7.6547606    204.65057  0.024087874  0.023962194            2 
  709000   0.98360856   -7.7044595    203.88292  0.023963672  0.023945822            2 
  710000   0.97982377   -7.6677375    204.04944  0.023949465  0.023929367            2 
  711000   0.98092734   -7.6430155    204.67276  0.023988838  0.023913091            4 
  712000   0.97546829    -7.683452    205.15482  0.024011566  0.023896967            1 
  713000    0.9673433   -7.7204075    205.01755  0.023961846  0.023880521            1 
  714000   0.95388841   -7.6616554    205.39742  0.023972622  0.023864147            2 
  715000   0.95384871   -7.6206946     206.0672  0.024017156   0.02384789            2 
  716000   0.99243315   -7.6493737    205.75461  0.023947231  0.023831672            2 
  717000   0.96482937   -7.6459191    206.36027  0.023984225  0.023815363            2 
  718000   0.97085782   -7.6773947    206.29459  0.023943198  0.023799143            3 
  719000   0.94975432   -7.6732376    207.09342  0.024002483  0.023783231            2 
  720000   0.95708605   -7.6794902    206.30031  0.023877351  0.023767536            2 
  721000   0.95165609   -7.6617639    206.68089  0.023888222  0.023751891            3 
  722000   0.96463115   -7.6758167    206.44583  0.023828004  0.023736217            2 
  723000   0.95946661   -7.7029179    206.71454  0.023826019  0.023720356            1 
  724000   0.98233287   -7.7220088    206.76766  0.023799224   0.02370439            3 
  725000   0.96177232   -7.7096296    207.05031  0.023798886  0.023688297            2 
  726000   0.98072826   -7.7127201    207.09181  0.023770869  0.023672274            1 
  727000   0.97986864   -7.7282614    207.31332  0.023763563  0.023656286            4 
  728000   0.96619815   -7.6918147    207.54492  0.023757432  0.023640247            2 
  729000   0.96111718   -7.6635625    207.99338  0.023776106   0.02362424            2 
  730000   0.94894735   -7.6676858    208.18834  0.023765792  0.023608365            2 
  731000   0.96922364    -7.690553    207.87762  0.023697859  0.023592257            4 
  732000   0.95183327   -7.6770235    208.51156  0.023737655  0.023576344            1 
  733000   0.96225001   -7.7103715    208.97711  0.023758198  0.023560593            2 
  734000   0.96091849    -7.719226    208.31497  0.023650655  0.023544745            2 
  735000   0.94991551   -7.6893485     209.0146    0.0236978  0.023528925            1 
  736000   0.95451348   -7.7010055    209.84071  0.023759139  0.023513208            3 
  737000   0.96291404   -7.7108097    209.10383  0.023643581  0.023497591            3 
  738000   0.95718995    -7.659915    210.13377  0.023727842  0.023482235            2 
  739000   0.96321069   -7.6589562     209.3735  0.023610002  0.023466808            1 
  740000   0.94363535   -7.7352799    209.90588   0.02363805  0.023451489            3 
  741000   0.97705622    -7.712287     209.9444  0.023610481  0.023435943            2 
  742000   0.98006785   -7.6651326     210.6762  0.023660849  0.023420646            6 
  743000   0.94771027   -7.7262604    209.95328  0.023547922  0.023405321            2 
  744000   0.96843855   -7.7146191    210.25976  0.023550601  0.023389767            2 
  745000   0.96180915     -7.70611    210.51345  0.023547366  0.023374301            1 
  746000   0.95575419   -7.7110892    210.68758  0.023535253  0.023358772            1 
  747000   0.98304821   -7.7178883    210.94001  0.023531906  0.023343267            1 
  748000     0.953541   -7.7075276    211.62704  0.023576988  0.023327858            4 
  749000    0.9440918   -7.7224099    211.16804  0.023494441  0.023312286            5 
  750000   0.97515285   -7.6818032    210.82306  0.023424784  0.023296655            2 
  751000   0.96380759   -7.6645661    211.45393  0.023463596  0.023280989            2 
  752000   0.95114602   -7.7147014    210.95234  0.023376811  0.023265082            5 
  753000   0.96468154   -7.6910316    211.54065  0.023410873  0.023249292            1 
  754000   0.94470677   -7.6944894    211.54302  0.023380086  0.023233476            2 
  755000   0.95804596    -7.720601    211.43272  0.023336945  0.023217441            3 
  756000    0.9606654   -7.7362141    211.40834  0.023303389  0.023201174            4 
  757000   0.96724047   -7.7445731    211.57025  0.023290428  0.023185097            1 
  758000   0.94312663   -7.6735975    212.38461  0.023349232   0.02316929            2 
  759000   0.93172719   -7.7229086    212.05188  0.023281937  0.023153508            2 
  760000   0.96984452   -7.7198871    212.19267   0.02326674  0.023137528            2 
  761000   0.94695768   -7.7041795    212.36535  0.023255075  0.023121212            3 
  762000   0.94018667   -7.6980938    212.60606  0.023250881  0.023105237            5 
  763000   0.95169869   -7.7386129    212.26856  0.023183547  0.023089017            3 
  764000   0.92708372   -7.6928761    213.23983  0.023259144  0.023073125            1 
  765000   0.94566492   -7.7075711    213.36889  0.023242798  0.023057415            2 
  766000   0.96173199    -7.754579    212.92315  0.023163963  0.023041671            1 
  767000    0.9594571   -7.7493051    213.10944  0.023154003   0.02302596            2 
  768000   0.94905166   -7.7127146    213.78099  0.023196722  0.023010314            2 
  769000   0.93706863    -7.746064     213.8068  0.023169354  0.022994583            1 
  770000   0.95542641   -7.7588923    213.61065  0.023118036  0.022978722            2 
  771000   0.93042822   -7.6999127    214.22071  0.023153989  0.022962995            3 
  772000   0.94435337   -7.7174912    213.94708   0.02309446  0.022947359            1 
  773000   0.94029376   -7.7455912    214.12644   0.02308392  0.022931574            1 
  774000   0.96388832   -7.7486822    214.00984  0.023041542  0.022915948            1 
  775000    0.9400193   -7.7177735     214.1919  0.023031387  0.022900143            1 
  776000    0.9323586   -7.7362766    214.23327   0.02300615  0.022884282            1 
  777000   0.95342988   -7.7348809    214.26977  0.022980456  0.022868192            2 
  778000   0.93914417   -7.7142768    214.81791   0.02300963  0.022852054            3 
  779000   0.94584199   -7.7205816    214.11579  0.022904984  0.022836034            2 
  780000   0.95802176   -7.7832852    214.58424  0.022925666  0.022820075            4 
  781000   0.93107806   -7.7426052    214.59756  0.022897733  0.022804119            2 
  782000   0.92766259   -7.7706853    215.20926  0.022933638  0.022787988            3 
  783000   0.94018717    -7.770106    215.05513  0.022887945  0.022771792            2 
  784000   0.95358177   -7.7203936    215.17577  0.022871574  0.022755654            2 
  785000   0.92476983    -7.779358    214.93531  0.022816911  0.022739609            2 
  786000   0.93814341   -7.7123966    215.58216  0.022856463  0.022723756            2 
  787000   0.93988773   -7.7596724    215.31861  0.022799514  0.022707661            1 
  788000   0.95054656   -7.7745617    215.44701  0.022784159  0.022691358            2 
  789000   0.94138661   -7.7374776    216.24302  0.022839356  0.022675313            1 
  790000   0.95322475    -7.742735    216.25373  0.022811575  0.022659327            1 
  791000   0.93395588   -7.7646114    215.99207  0.022755169  0.022643283            2 
  792000   0.93164107   -7.7434817    216.40607  0.022769999  0.022627174            2 
  793000   0.92744778   -7.7618947    216.36287  0.022736745  0.022611233            2 
  794000   0.95480801   -7.7551006    216.14424  0.022685163   0.02259523            4 
  795000   0.94754388   -7.7937343    216.47527  0.022691328  0.022579183            2 
  796000   0.94631283   -7.7381215    217.18911  0.022737554  0.022563071            6 
  797000   0.92122581   -7.7653192    217.04642  0.022694105  0.022546973            1 
  798000   0.92219463   -7.7977205    217.06327  0.022667426  0.022530882            2 
  799000   0.94688571   -7.7591918    217.91116  0.022727488  0.022515068            1 
  800000    0.9319513   -7.7722159    217.06985  0.022611442  0.022499236            1 
  801000   0.94439065   -7.7524875    216.94113  0.022569822  0.022483307            2 
  802000   0.92008698   -7.7297748    218.14885  0.022667171  0.022467533            2 
  803000   0.92955296   -7.7591971    217.24471  0.022545113  0.022451515            2 
  804000   0.93733749   -7.7721953    217.45235  0.022538594  0.022435413            1 
  805000   0.92730563   -7.7892458    217.74684  0.022541081  0.022419502            2 
  806000   0.94831581   -7.7585802    217.70448  0.022508734  0.022403745            2 
  807000   0.95669022   -7.7727906     217.5567  0.022465582  0.022388031            5 
  808000   0.94667413   -7.7506308    217.81768  0.022464695  0.022372103            1 
  809000   0.94696122   -7.7762827    218.26502  0.022483005  0.022356105            1 
  810000   0.92025395   -7.7578024    218.34932  0.022463921  0.022339999            1 
  811000     0.948556    -7.758281    218.07427   0.02240796    0.0223238            2 
  812000   0.91485836   -7.7458607    218.22219  0.022395545   0.02230759            2 
  813000   0.93690734   -7.7573365    218.48458  0.022394893  0.022291404            1 
  814000   0.94255611    -7.790787    218.86472  0.022406298  0.022275318            1 
  815000   0.91695063   -7.7710763    219.12335  0.022405251   0.02225917            2 
  816000   0.93592256    -7.801044    218.46119   0.02231017   0.02224278            5 
  817000   0.91557426   -7.8040641    218.38272  0.022274859  0.022226457            1 
  818000   0.94245656   -7.7938842    218.96666  0.022307117   0.02221004            1 
  819000   0.95825113   -7.8153239    218.51332  0.022233752  0.022193664            3 
  820000   0.93045653   -7.7962986    219.26501  0.022283029  0.022177361            2 
  821000   0.92705101   -7.7660084    219.47582  0.022277286  0.022161092            2 
  822000   0.91550643   -7.7763601    219.68777  0.022271671  0.022144873            3 
  823000   0.92396294   -7.7660505    219.71195  0.022247058  0.022128544            4 
  824000   0.93073041   -7.7782941    220.08246   0.02225753   0.02211237            3 
  825000   0.91227724   -7.7876758    219.81694  0.022203732  0.022096206            1 
  826000    0.9237498   -7.7737771    219.82989  0.022178157  0.022080047            2 
  827000   0.94932015    -7.761482    220.29597  0.022198304    0.0220639            1 
  828000   0.91295445   -7.8274515    219.31431  0.022072696  0.022047678            1 
  829000    0.9427509   -7.8138357    220.03403  0.022118419  0.022031333            5 
  830000   0.93922422   -7.8406486    219.85093  0.022073387  0.022015161            2 
  831000   0.89498905   -7.7874238    220.57356   0.02211929  0.021998973            2 
  832000   0.92760523   -7.8071175    220.95152  0.022130561  0.021983033            2 
  833000    0.9308651   -7.7896919    220.69087  0.022077918   0.02196699            1 
  834000   0.91106771   -7.8028632    220.35816  0.022018202  0.021950822            3 
  835000   0.90626524   -7.8198178    220.89582  0.022045491  0.021934488            3 
  836000   0.91611567    -7.774166    221.20803  0.022050242  0.021917898            2 
  837000   0.94003016   -7.8015849    220.76004  0.021979295  0.021901446            1 
  838000   0.92695905    -7.790283    220.93789  0.021970753  0.021885002            2 
  839000   0.91759678   -7.8228999    221.27597  0.021978145  0.021868589            4 
  840000   0.92316612   -7.7914279    221.65612  0.021989694  0.021852283            3 
  841000   0.92656041    -7.772426    221.17597   0.02191597  0.021836085            3 
  842000   0.91792405    -7.832761    221.42286  0.021914376  0.021819921            1 
  843000   0.95183149   -7.8174303    221.85656  0.021931254  0.021803735            4 
  844000   0.94982581   -7.8024564    222.43969  0.021962844  0.021787728            2 
  845000   0.89844681   -7.7669008    222.15049  0.021908333  0.021771797            1 
  846000   0.91449615   -7.7945386    222.43319  0.021910283  0.021755795            1 
  847000   0.91634723   -7.7877651    222.54577  0.021895491  0.021739693            2 
  848000   0.91208494   -7.8196517    222.55568  0.021870645  0.021723734            1 
  849000   0.88191611   -7.7960262    222.34819  0.021824518  0.021707906            1 
  850000   0.89613502   -7.8276032    222.87521  0.021850511  0.021691883            5 
  851000   0.89725482   -7.8409081    222.81806  0.021819239  0.021675893            1 
  852000    0.9059254    -7.820361    222.86521   0.02179824  0.021659821            2 
  853000   0.92230563   -7.8290569    223.46436  0.021831219   0.02164376            2 
  854000   0.91049929   -7.8155856    222.93156  0.021753665  0.021627784            2 
  855000   0.90938728   -7.7979562    223.23107  0.021757414   0.02161182            2 
  856000   0.90173716   -7.8228077    222.72736  0.021682959  0.021595845            3 
  857000   0.90499344   -7.8094011    223.13853   0.02169764  0.021579967            1 
  858000   0.88257572   -7.8369703    223.53394  0.021710756  0.021564104            2 
  859000   0.93454317   -7.8280085    224.07489   0.02173796  0.021548201            1 
  860000   0.91131194    -7.843032    223.08614  0.021616874  0.021532239            2 
  861000   0.91724513   -7.8183346    223.81185  0.021662006  0.021516166            1 
  862000   0.89249232   -7.8172989    223.97989  0.021653122  0.021500113            2 
  863000   0.92320319   -7.7615878    224.97858  0.021724467  0.021484237            2 
  864000   0.90764804   -7.8282702    224.27122  0.021631098  0.021468339            1 
  865000   0.88408905   -7.8299059    224.14741  0.021594163   0.02145228            1 
  866000   0.90610587   -7.8401709    224.36489  0.021590155  0.021436339            1 
  867000   0.92005359   -7.8381992    224.38493  0.021567179  0.021420517            1 
  868000   0.89784763    -7.834009    224.81027  0.021583168  0.021404543            1 
  869000   0.90210723   -7.8448776    224.40268  0.021519244  0.021388556            2 
  870000   0.92285389   -7.8706935    224.79178  0.021531779  0.021372705            3 
  871000   0.90860426   -7.8295611    225.15044  0.021541374  0.021356931            1 
  872000   0.89864558   -7.8336794    225.30487  0.021531429  0.021341215            3 
  873000   0.91650039   -7.8635573    224.93808  0.021471753  0.021325499            2 
  874000   0.92700614   -7.8780359    224.88325  0.021441958  0.021309739            1 
  875000    0.9174819    -7.815063    225.78371   0.02150321  0.021293959            2 
  876000   0.92475965   -7.8332399    225.89119  0.021488888  0.021278318            4 
  877000   0.89464515   -7.8658584    225.19086   0.02139784  0.021262556            2 
  878000   0.91900805   -7.8739013    225.79457  0.021430768  0.021246668            3 
  879000   0.88664384    -7.865825    226.01509  0.021427293  0.021230757            1 
  880000    0.8908823   -7.8330527    225.77476  0.021380186  0.021214972            3 
  881000   0.90356585   -7.8317979    225.94617  0.021372131  0.021199164            2 
  882000   0.93433112   -7.8589044    226.06484  0.021359112  0.021183429            1 
  883000   0.87811666   -7.8464115     226.5655  0.021382173  0.021167836            1 
  884000   0.89202895   -7.8514488    226.33195  0.021335968  0.021152314            1 
  885000   0.90790805    -7.885052     226.4292  0.021321017  0.021136856            2 
  886000   0.90056331   -7.8732808    226.22267  0.021277527  0.021121236            5 
  887000   0.89900297    -7.879072    226.69743  0.021298143  0.021105655            2 
  888000   0.89987033   -7.8720158    226.90884  0.021293998  0.021090045            4 
  889000   0.90135717   -7.8288936    227.12552  0.021290356  0.021074406            2 
  890000   0.88142012   -7.8926909    226.86549  0.021242087  0.021058803            1 
  891000   0.90576832    -7.877568    227.91726  0.021316617  0.021043316            2 
  892000   0.90194259   -7.8997418    227.15617  0.021221616  0.021027891            3 
  893000   0.90967643   -7.9154206    227.52723  0.021232478  0.021012483            1 
  894000   0.88213283   -7.8940192    227.57423  0.021213109  0.020997227            3 
  895000   0.90142353   -7.8793969    227.96987  0.021226245  0.020981935            2 
  896000   0.91450623   -7.8675995    228.15028  0.021219334  0.020966778            2 
  897000   0.88917006    -7.878687    228.42916  0.021221587  0.020951624            5 
  898000   0.90215826   -7.8495227    228.12166  0.021169419  0.020936606            2 
  899000   0.88855398   -7.8507841    228.73677   0.02120289  0.020921465            1 
  900000   0.90461638    -7.836123     228.4388  0.021151741  0.020906297            2 
  901000   0.90758216   -7.8721607    228.13503  0.021100169  0.020891293            3 
  902000   0.88700117    -7.896518    228.78654  0.021136968  0.020876284            3 
  903000   0.89807185   -7.8556988    228.45181   0.02108267  0.020861334            4 
  904000   0.88496043      -7.8649    229.10108  0.021119199  0.020846283            2 
  905000   0.89563838   -7.8332184    229.60887  0.021142621  0.020831393            2 
  906000   0.88045731   -7.8889983    229.12486  0.021074766   0.02081639            3 
  907000   0.90752666   -7.8613745    229.41731    0.0210784  0.020801261            2 
  908000   0.87745165   -7.8780028    229.12282  0.021028159  0.020786184            2 
  909000   0.90577421    -7.839531    229.65205  0.021053543  0.020771137            2 
  910000    0.9021786   -7.9069082    229.74865  0.021039254  0.020755993            4 
  911000   0.88010134   -7.8911032    229.68454  0.021010295  0.020740859            3 
  912000   0.87193909    -7.904055    229.97651  0.021013935  0.020725846            3 
  913000    0.8642434   -7.8917021    230.10944  0.021003052  0.020710766            3 
  914000   0.87116153   -7.9128913    229.47088  0.020921853  0.020695625            2 
  915000   0.90738076   -7.9164168    229.55238   0.02090641  0.020680387            4 
  916000   0.88260486   -7.8752662    230.37524  0.020958446  0.020665226            4 
  917000   0.88306166   -7.8646396    230.09146  0.020909802  0.020650109            1 
  918000   0.89629824   -7.8899645    230.87774    0.0209584  0.020635148            2 
  919000   0.89484326   -7.8789915    230.81932  0.020930297  0.020620232            2 
  920000   0.89235536   -7.9251469    230.99201  0.020923189  0.020605286            2 
  921000   0.87838366   -7.8869448    230.99313  0.020900573  0.020590404            2 
  922000   0.88402499   -7.8961364    230.88848  0.020868445  0.020575529            2 
  923000    0.8857119    -7.882032     231.3058  0.020883513  0.020560773            2 
  924000   0.87556489   -7.9190183    230.86529  0.020821184  0.020546044            2 
  925000    0.8933396   -7.8896019    231.27642  0.020835714  0.020531307            2 
  926000   0.89718373   -7.9329257    231.07012  0.020794647  0.020516552            2 
  927000   0.86703669   -7.8754459    231.23819  0.020787323  0.020501784            4 
  928000    0.8851258   -7.9007291    231.51824  0.020790072  0.020487067            2 
  929000   0.87672475   -7.8874905    231.75725  0.020789132  0.020472356            2 
  930000   0.89612874   -7.8990163    231.55116  0.020748312  0.020457743            2 
  931000   0.89419104   -7.9134192    232.90662  0.020847353  0.020443126            2 
  932000    0.8770557   -7.8968847    231.97144  0.020741366  0.020428591            2 
  933000   0.87903977   -7.8899564    232.52428  0.020768514  0.020414019            2 
  934000   0.88462119   -7.9218854    232.54814  0.020748407  0.020399437            1 
  935000   0.87029574    -7.920255    232.88856  0.020756557  0.020384958            2 
  936000   0.87907742   -7.9081347     233.1017  0.020753356  0.020370527            2 
  937000   0.86483979   -7.9269895    233.06151  0.020727633  0.020356152            1 
  938000   0.88210613   -7.9066213    233.51133  0.020745498  0.020341756            1 
  939000   0.87958541   -7.9141488    233.13198  0.020689739  0.020327484            1 
  940000    0.8737504   -7.9043104    233.37289  0.020689086  0.020313253            2 
  941000   0.87939678    -7.881633    233.83885  0.020708364  0.020298994            2 
  942000   0.87171351   -7.8923773    234.02397  0.020702758  0.020284774            1 
  943000   0.88591151    -7.912875     233.6552  0.020648215   0.02027058            2 
  944000   0.90154997    -7.888751    234.16843  0.020671648   0.02025636            2 
  945000   0.87899804   -7.9181762    233.84733  0.020621458  0.020242113            3 
  946000   0.86165837   -7.9010877    233.78693  0.020594338  0.020227871            4 
  947000   0.88096222   -7.9260512    233.86455  0.020579422  0.020213587            1 
  948000   0.86397538   -7.9070035    234.34678  0.020600103  0.020199323            3 
  949000   0.87685336   -7.9088224    234.11728  0.020558244   0.02018499            1 
  950000   0.87662787   -7.9220045    234.24783  0.020548055  0.020170656            2 
  951000   0.88034687   -7.9100158    234.13893  0.020516906  0.020156468            1 
  952000   0.88512787   -7.9346875    234.33673  0.020512669  0.020142158            2 
  953000   0.87760247    -7.931896    234.54512  0.020509367  0.020127884            5 
  954000   0.88211518   -7.9343548    235.15325   0.02054099  0.020113744            1 
  955000   0.87952869   -7.9261462    235.38814  0.020539977  0.020099816            5 
  956000   0.85496473   -7.9472022    235.65612  0.020541851  0.020085954            3 
  957000   0.86822883   -7.8914949    235.94679  0.020545698  0.020072128            2 
  958000   0.85557886   -7.9058777     236.0052  0.020529332  0.020058342            2 
  959000   0.85830731   -7.9413581    235.86825  0.020496024  0.020044531            2 
  960000   0.86548533   -7.9175804    236.19754  0.020503259  0.020030786            2 
  961000    0.8672109   -7.9515809    235.62114  0.020431941  0.020016872            4 
  962000   0.87247494    -7.898998     236.0248  0.020445669  0.020002965            2 
  963000   0.86404667   -7.9388137    235.34413  0.020365536  0.019989022            2 
  964000   0.86575877   -7.9136399     235.8288  0.020386307  0.019975021            3 
  965000   0.86175552   -7.9049968    236.07849  0.020386744  0.019960946            2 
  966000   0.88355981   -7.9245413    236.58086  0.020408977  0.019946945            5 
  967000    0.8899082   -7.9341748    236.61384  0.020390714  0.019933054            3 
  968000   0.87587987   -7.9716816    236.24082  0.020337536  0.019918991            3 
  969000   0.88400163   -7.9400287    235.95051  0.020291581  0.019904845            1 
  970000   0.88773619    -7.940217    236.48386  0.020316483  0.019890813            2 
  971000   0.85998025   -7.9629532    236.50447  0.020297329   0.01987679            2 
  972000   0.86160008   -7.9672968    236.47836  0.020274208  0.019862752            1 
  973000   0.87965147   -7.9293986    236.29969  0.020238069  0.019848814            3 
  974000   0.85634276   -7.9317496     236.7614  0.020256793  0.019834877            1 
  975000   0.87416243   -7.9500061    237.03536  0.020259433  0.019820994            4 
  976000   0.86007472   -7.9217069    237.18305  0.020251285  0.019807278            2 
  977000   0.85098039   -7.9459703    237.29036   0.02023971  0.019793632            5 
  978000   0.87272429   -7.9287185    237.87578  0.020268897  0.019780023            2 
  979000   0.86777055   -7.9855733    237.41446  0.020208926  0.019766363            2 
  980000   0.86224165   -7.9937244    237.65631   0.02020887   0.01975271            3 
  981000   0.84284843   -7.9473366     238.5544   0.02026456  0.019738996            2 
  982000   0.86692267   -7.9585255    238.43696  0.020233958  0.019725398            3 
  983000   0.87162078   -7.9308142     237.9686  0.020173669  0.019711938            3 
  984000   0.84209331   -7.9750197    237.91787  0.020148871  0.019698385            2 
  985000    0.8817704   -7.9580327    238.89546  0.020211122  0.019684777            4 
  986000   0.86049891   -7.9763247    238.51576  0.020158533   0.01967124            2 
  987000   0.86483346    -7.968774      238.086  0.020101823  0.019657614            2 
  988000   0.86872447   -7.9690678    237.65124  0.020044807  0.019643889            3 
  989000   0.86124776   -7.9230344    238.78386  0.020119974   0.01963027            4 
  990000   0.85361189   -7.9725867    238.08451  0.020040783  0.019616789            1 
  991000   0.86250949   -7.9649261    238.53733  0.020058639  0.019603308            1 
  992000   0.86150692   -7.9617462    239.21349  0.020095219  0.019589805            3 
  993000   0.84318549   -7.9413385    239.02938  0.020059532  0.019576286            4 
  994000   0.86505326   -7.9647046    238.75309  0.020016188  0.019562789            2 
  995000   0.86434872   -7.9391288    239.85441  0.020088309  0.019549263            1 
  996000   0.83516556   -7.9581567    238.91471  0.019989518  0.019535861            1 
  997000   0.84867455   -7.9840726    238.78293  0.019958453  0.019522318            4 
  998000   0.84842387   -7.9831174    239.03224  0.019959271  0.019508656            3 
  999000   0.85156466   -7.9881869    239.16998  0.019950783  0.019494947            2 
 1000000   0.84771931   -7.9679135    239.40524  0.019950437  0.019481338            2 
 1001000   0.86051125   -7.9494762    239.29917  0.019921676  0.019467669            2 
 1002000   0.85494039   -7.9658322    239.55412  0.019922997  0.019453957            2 
 1003000   0.85845121   -7.9452896    239.39887  0.019890235  0.019440242            2 
 1004000   0.85874781   -7.9918816    239.36367  0.019867502  0.019426404            1 
 1005000   0.85753814   -7.9492259    239.94547  0.019895976  0.019412699            2 
 1006000   0.84574124   -7.9502855    239.53644  0.019842316  0.019399008            4 
 1007000   0.84995543   -7.9671715     239.7623  0.019841302  0.019385177            3 
 1008000   0.83625022   -7.9748593    239.45363  0.019796101  0.019371328            2 
 1009000   0.85218243   -7.9630302    239.95137  0.019817589  0.019357445            2 
 1010000    0.8700052   -7.9414345    239.71557  0.019778513  0.019343689            3 
 1011000   0.85614359   -7.9690244    239.63465  0.019752279   0.01932997            4 
 1012000   0.86401479   -7.9641213    240.15331   0.01977547  0.019316197            2 
 1013000   0.85565445   -8.0039941    239.81602  0.019728201  0.019302458            5 
 1014000   0.84890334    -7.986724    239.46688  0.019680053  0.019288702            1 
 1015000   0.83337636   -8.0122635    239.71695  0.019681195  0.019274929            1 
 1016000   0.86923106   -7.9785293    239.84557  0.019672372  0.019261251            4 
 1017000    0.8579966   -7.9966891    239.79701   0.01964905  0.019247414            6 
 1018000   0.86317255   -8.0044961    240.15325   0.01965891  0.019233689            3 
 1019000   0.85120939   -7.9887799    240.66408  0.019681393  0.019219864            2 
 1020000   0.84021275   -8.0065179    240.07914  0.019614309  0.019206051            1 
 1021000   0.84441468   -7.9991402    241.02389  0.019672208    0.0191922            1 
 1022000   0.85107942   -8.0205243    239.83835  0.019556291  0.019178359            1 
 1023000    0.8354893    -8.023359    240.30797   0.01957543  0.019164454            3 
 1024000   0.85407138   -8.0139358    241.01919  0.019614192  0.019150569            2 
 1025000   0.83759024   -8.0035533    240.87378  0.019583234  0.019136679            1 
 1026000   0.83414304    -8.013384    241.12156  0.019584272  0.019122805            1 
 1027000   0.83370966   -7.9955495    240.80734  0.019539706  0.019108993            2 
 1028000   0.84709167    -8.018476    241.01829  0.019537799  0.019095114            3 
 1029000   0.84752933   -7.9988837    241.38978  0.019548897  0.019081459            2 
 1030000   0.84887704   -7.9889957     241.8584  0.019567831  0.019067784            2 
 1031000   0.82311355   -8.0078676    241.12099  0.019489249  0.019054157            4 
 1032000   0.83449344   -8.0268929    241.12148  0.019470404  0.019040447            2 
 1033000   0.84039935   -8.0017377    241.69047  0.019497457  0.019026739            1 
 1034000   0.86177884   -7.9758426    242.04777  0.019507396  0.019013173            1 
 1035000   0.86967665   -7.9961029    242.32436  0.019510818  0.018999609            7 
 1036000   0.83216823   -8.0220053    242.00543  0.019466331  0.018986109            5 
 1037000   0.82267364   -8.0054354    242.49678  0.019487045  0.018972576            1 
 1038000   0.84860132   -8.0424181    241.58183  0.019394816   0.01895897            2 
 1039000   0.83164439   -8.0362249    242.35456  0.019438126  0.018945431            2 
 1040000   0.81693603   -8.0093063    242.29757  0.019414869   0.01893193            3 
 1041000   0.83356144   -8.0005688    242.26711  0.019393781  0.018918477            3 
 1042000   0.85204804   -8.0118137    242.27805  0.019376044  0.018905043            2 
 1043000   0.82834216   -8.0071986    242.40475   0.01936759  0.018891538            1 
 1044000   0.83629749    -8.045703     242.0492  0.019320658  0.018878065            4 
 1045000   0.85138429   -7.9937573    242.73521  0.019356875  0.018864567            1 
 1046000   0.85538747   -8.0294123    242.57399  0.019325525  0.018851075            1 
 1047000   0.83667642   -8.0167742    243.01674  0.019342307   0.01883757            2 
 1048000   0.84003392   -8.0169006    243.35499  0.019350747  0.018824127            3 
 1049000   0.84035817   -8.0338541    242.38007  0.019254851  0.018810647            3 
 1050000   0.84867682   -8.0398996    243.01243  0.019286701  0.018797108            1 
 1051000   0.83846805   -7.9997709    244.10092  0.019354656  0.018783745            1 
 1052000    0.8335686   -7.9936952    243.61012   0.01929738  0.018770454            2 
 1053000   0.83284893   -8.0333591    243.46942  0.019267919  0.018757067            2 
 1054000   0.85099649   -8.0561714    243.39035  0.019243386  0.018743582            3 
 1055000   0.82073894   -8.0356799    243.61927  0.019243229   0.01873007            1 
 1056000   0.83590615   -8.0269412    243.64249  0.019226838    0.0187167            3 
 1057000   0.82842079   -8.0527486    243.47804  0.019195683  0.018703399            1 
 1058000    0.8409451   -8.0321934    243.49001  0.019178482  0.018690105            4 
 1059000   0.82214648   -8.0231929    243.73644  0.019179764  0.018676905            4 
 1060000   0.85264252    -8.054813    244.02926   0.01918469  0.018663798            3 
 1061000   0.84630865   -8.0204827    244.29001  0.019187089  0.018650616            1 
 1062000   0.83436108   -8.0151272    244.56592  0.019190671   0.01863745            2 
 1063000   0.82584548   -8.0038224    245.00406  0.019206966  0.018624242            7 
 1064000   0.82665685   -7.9999784     244.4041  0.019141925  0.018611233            5 
 1065000   0.82194598    -8.048615    244.20205  0.019108141  0.018598082            2 
 1066000   0.82827609   -8.0235985    244.41801  0.019107099  0.018584923            2 
 1067000   0.82438957   -8.0221484    244.59896  0.019103324  0.018571665            2 
 1068000   0.82182104   -8.0655992    243.87431  0.019028894  0.018558386            2 
 1069000   0.81324191   -8.0192948    244.64904  0.019071488  0.018545025            2 
 1070000   0.82260782   -8.0609025    244.42789   0.01903644  0.018531693            1 
 1071000   0.81600683   -8.0205302    244.50739  0.019024851  0.018518428            2 
 1072000   0.82664973   -8.0364814    244.45512  0.019003041  0.018505142            2 
 1073000   0.81882007   -8.0164669    245.19903  0.019043106  0.018491941            2 
 1074000   0.84052549   -8.0366627    244.28823  0.018954704    0.0184787            2 
 1075000   0.84605558   -8.0201969    245.07912  0.018998381  0.018465497            5 
 1076000   0.81693514   -8.0461792    245.08775  0.018981394  0.018452268            4 
 1077000   0.84053445   -8.0353947    244.92913  0.018951496  0.018438987            3 
 1078000    0.8322097     -8.04056    245.48761  0.018977088  0.018425769            5 
 1079000    0.8400291   -8.0296408    245.21787  0.018938668  0.018412584            1 
 1080000   0.81159246   -8.0873852    244.16089  0.018839575   0.01839935            5 
 1081000   0.83990807   -8.0109583    245.05284  0.018890907  0.018386076            1 
 1082000   0.83220155   -8.0514894    244.67157  0.018844082  0.018372875            3 
 1083000   0.83368744   -8.0680943    244.61919  0.018822652  0.018359555            2 
 1084000   0.82570859   -8.0608769    245.19646  0.018849666  0.018346229            3 
 1085000   0.82272464   -8.0423287    245.91505  0.018887485  0.018332978            3 
 1086000   0.80573339   -8.0426895    245.69691  0.018853354  0.018319784            2 
 1087000   0.82072702   -8.0560083    245.50921   0.01882162  0.018306473            5 
 1088000   0.82293727   -8.0495633    245.33273  0.018790803  0.018293099            2 
 1089000   0.81340285    -8.048334     245.2482   0.01876708  0.018279779            5 
 1090000   0.83597144   -8.0429049    245.90558  0.018800121  0.018266566            2 
 1091000   0.81720812   -8.0493491    245.32527  0.018738563  0.018253355            2 
 1092000   0.81595401   -8.0545824    245.83981  0.018760669  0.018240028            4 
 1093000   0.83638611   -8.0712433    245.86691  0.018745571   0.01822677            2 
 1094000   0.82909613   -8.0647128    245.65996  0.018712672  0.018213524            1 
 1095000   0.81708949   -8.0816167    245.58817  0.018690119  0.018200228            4 
 1096000    0.8288817   -8.0564711    245.97236  0.018702278  0.018186946            1 
 1097000   0.82016227   -8.0784692    245.30346  0.018634417  0.018173648            1 
 1098000   0.80555767   -8.0784486    245.11803  0.018603372  0.018160267            2 
 1099000   0.81123677   -8.0865376    245.51223  0.018616335  0.018146897            1 
 1100000   0.82326465   -8.1112091    245.73327  0.018616157  0.018133535            6 
 1101000   0.80658091   -8.0572332    246.04227  0.018622636  0.018120243            1 
 1102000   0.80677353   -8.0876907    246.29921  0.018625167  0.018107096            2 
 1103000   0.81735001   -8.0624089    246.12762  0.018595318  0.018093891            3 
 1104000   0.80463908   -8.0322389    246.52664  0.018608593  0.018080706            2 
 1105000   0.79825986   -8.0634804    246.54792  0.018593357  0.018067568            1 
 1106000   0.79131182   -8.0738319    246.48765  0.018572005  0.018054399            2 
 1107000   0.81062918   -8.0884915    246.45016  0.018552406  0.018041236            2 
 1108000   0.82981849   -8.0821136    246.75623  0.018558682  0.018028134            4 
 1109000   0.80454173   -8.0968065    246.44331  0.018518433  0.018015002            1 
 1110000    0.8257316   -8.0945359    246.73287  0.018523489  0.018001882            2 
 1111000   0.80585802   -8.0707866    246.71026   0.01850512   0.01798877            2 
 1112000   0.81007448   -8.0896176    247.08891  0.018516854  0.017975645            3 
 1113000   0.80898137   -8.0486952    247.44494  0.018526875  0.017962595            1 
 1114000   0.80345432   -8.0733712    247.25911  0.018496343  0.017949643            2 
 1115000   0.78861988   -8.0915303    246.76809  0.018443056  0.017936533            2 
 1116000   0.80111584   -8.1221636     246.6049  0.018414344  0.017923352            2 
 1117000   0.80577948   -8.1236449    246.99662  0.018427083  0.017910108            3 
 1118000    0.7961422   -8.0892161     246.8793  0.018401856  0.017897013            3 
 1119000   0.81065796   -8.1600285    246.47347  0.018355188  0.017883788            3 
 1120000   0.79899308   -8.0900669    246.55995  0.018345234  0.017870576            1 
 1121000   0.79952618   -8.1246343    247.05575  0.018365726  0.017857373            3 
 1122000   0.80023072   -8.1159061    247.35444  0.018371542  0.017844276            1 
 1123000   0.80674527   -8.0869793    247.87048  0.018393476  0.017831251            3 
 1124000   0.81532268   -8.0805581    247.52882  0.018351781  0.017818266            2 
 1125000   0.80211138     -8.12546    247.76072  0.018352646   0.01780518            1 
 1126000   0.80451776   -8.0852123     247.3661  0.018307142  0.017792153            2 
 1127000   0.81095057   -8.0860847    248.01252  0.018338695  0.017779185            2 
 1128000   0.80044084   -8.1176649    247.80689  0.018307246  0.017766273            3 
 1129000   0.78335469   -8.1208702    247.55524  0.018272456  0.017753298            2 
 1130000   0.81057326   -8.1299515    247.46711  0.018249787  0.017740192            4 
 1131000   0.79988841   -8.1181272    248.01131  0.018273748  0.017727126            3 
 1132000   0.79672133   -8.1384736    247.15191   0.01819434  0.017714048            1 
 1133000   0.80926527   -8.1312058     247.9286  0.018235408  0.017700977            1 
 1134000   0.78291861   -8.1259311    247.82127   0.01821144  0.017687915            3 
 1135000   0.79178426   -8.1422865    247.93607  0.018203823  0.017674828            1 
 1136000   0.79938787   -8.1231033    247.72086  0.018172012  0.017661783            4 
 1137000   0.80716827   -8.1437194    247.67596  0.018152738   0.01764875            4 
 1138000   0.80137713   -8.1365724    247.09375  0.018094152  0.017635712            2 
 1139000     0.810004   -8.1194239    247.86616  0.018134779  0.017622634            3 
 1140000   0.79681693   -8.1451717    247.96113  0.018125813  0.017609424            1 
 1141000    0.7989193   -8.1512502    247.75449  0.018094836  0.017596288            1 
 1142000   0.79357366   -8.1445128    248.11814  0.018105527   0.01758313       -1e+20 
 1143000   0.78751357   -8.1056672    247.95562  0.018077837  0.017570002            1 
 1144000   0.79085179   -8.1097504    248.28197  0.018085808  0.017556869            6 
 1145000    0.7976613   -8.1099731    247.53646  0.018015754  0.017543716            3 
 1146000   0.80076361   -8.1431289    248.41502  0.018063919  0.017530554            3 
 1147000   0.78998165   -8.1372158    248.16251  0.018029825  0.017517422            2 
 1148000   0.79894086    -8.136691    247.87723  0.017993411  0.017504246            2 
 1149000   0.78910522   -8.1585864    247.75273  0.017968721   0.01749096            2 
 1150000   0.82079479   -8.1696861    247.34962  0.017923886  0.017477624            3 
 1151000    0.8018084   -8.1481925    247.31138  0.017905545  0.017464276            1 
 1152000   0.78397695   -8.1536619    247.92331  0.017934267  0.017451018            3 
 1153000   0.81721016   -8.1600755    248.14089  0.017934438  0.017437694            3 
 1154000    0.7968353    -8.162876    247.62578    0.0178817  0.017424418            4 
 1155000    0.7876309    -8.152257    247.61078  0.017865136  0.017411084            1 
 1156000   0.79511931   -8.1637095    248.48812  0.017912927  0.017397734            5 
 1157000   0.79330554   -8.1651838    248.25307  0.017880515  0.017384405            1 
 1158000   0.78386055   -8.1347294    248.25029  0.017864874  0.017371057            4 
 1159000   0.79118193   -8.1238559    248.40126  0.017860315  0.017357893            1 
 1160000   0.78038523   -8.1525564    248.21343  0.017831425  0.017344709            2 
 1161000   0.79033237   -8.1825899    247.81621  0.017787555  0.017331468            3 
 1162000   0.79822624   -8.1719957    248.04991  0.017789006  0.017318241            1 
 1163000    0.7884809    -8.150321    247.97896  0.017768627   0.01730507            4 
 1164000   0.79247105   -8.1333094    248.25656  0.017773236  0.017291834            1 
 1165000    0.7944102   -8.1527424    248.55737  0.017779497  0.017278651            3 
 1166000    0.7799586   -8.1313558    248.93611  0.017791317  0.017265542            1 
 1167000   0.78315406   -8.1988195    248.44599  0.017741073   0.01725237            2 
 1168000     0.773025   -8.1247635    248.69015  0.017743304  0.017239299            3 
 1169000   0.78875306   -8.1507509    248.84854  0.017739417  0.017226251            2 
 1170000   0.78452818   -8.1628141    249.10519  0.017742535  0.017213222            4 
 1171000   0.77969315   -8.1446444    248.84181   0.01770864  0.017200209            1 
 1172000   0.78366816   -8.1445967    249.41293  0.017734139   0.01718721            2 
 1173000   0.79515311   -8.1430978    248.94454  0.017685745  0.017174139            3 
 1174000   0.79493978   -8.1631118    248.50114  0.017639206  0.017160947            2 
 1175000   0.79252334   -8.1643526    249.00393  0.017659853  0.017147766            2 
 1176000   0.76550248   -8.1805534     249.0495  0.017648065  0.017134588            3 
 1177000   0.77393051   -8.1695321    249.10135  0.017636742  0.017121403            1 
 1178000   0.79097768   -8.1641414    249.04591  0.017617849  0.017108305            4 
 1179000    0.7826622   -8.1201694    248.99989  0.017599653  0.017095179            1 
 1180000   0.77611077   -8.1366793    249.72776  0.017636142  0.017082134            3 
 1181000   0.76662116   -8.1452441    248.98054  0.017568483  0.017069045            2 
 1182000   0.78440604   -8.1465851    248.56645  0.017524426  0.017055943            1 
 1183000   0.78314526     -8.15167    248.83196  0.017528315  0.017042807            2 
 1184000   0.77901794   -8.1709279    249.26654  0.017544098  0.017029622            2 
 1185000   0.78126163   -8.1784709    248.59374  0.017481979  0.017016445            2 
 1186000   0.79076528   -8.1715918    248.80957  0.017482404  0.017003254            2 
 1187000   0.78627007   -8.1706471    249.04529  0.017484224  0.016990059            2 
 1188000   0.79084282   -8.1834945    249.57232  0.017506476  0.016976868            3 
 1189000   0.77812387   -8.1829497     249.5441  0.017489774  0.016963705            1 
 1190000   0.77896175   -8.1513825    249.78701  0.017492087  0.016950591            1 
 1191000   0.78212655   -8.1892689    249.05419  0.017426126  0.016937488            2 
 1192000   0.77836127   -8.1816613    249.44101  0.017438549   0.01692437            1 
 1193000   0.76531447   -8.1763177    249.40452  0.017421383  0.016911217            1 
 1194000   0.76503766   -8.1821356    249.18493  0.017391466  0.016898007            1 
 1195000   0.78938733   -8.1493795    248.93113  0.017359214  0.016884827            4 
 1196000   0.76382493   -8.1792404    249.91053  0.017412941  0.016871659            1 
 1197000   0.77771848    -8.147685    248.98057  0.017333652   0.01685852            1 
 1198000   0.78879825   -8.1581389     249.6598   0.01736643  0.016845426            3 
 1199000    0.7823014   -8.1598953    249.58731  0.017346908  0.016832367            1 
 1200000   0.77340043   -8.1612246    249.06084  0.017295892  0.016819248            2 
 1201000   0.77901088   -8.1830561    249.40434  0.017305325  0.016806144            1 
 1202000   0.78683767   -8.1833751    249.47502  0.017295828  0.016793076            2 
 1203000   0.76676175   -8.1877449    249.94374   0.01731392  0.016780015            3 
 1204000   0.78839774   -8.1688013    249.91933   0.01729785  0.016766965            2 
 1205000   0.76170106   -8.1749128    249.38516  0.017246553   0.01675399            1 
 1206000   0.77599839   -8.1910366    249.72821  0.017255957   0.01674096            2 
 1207000   0.77315744   -8.1959951    250.07238  0.017265422  0.016727945            2 
 1208000   0.77168875    -8.182936    250.00753  0.017246656  0.016714911            1 
 1209000   0.76061384   -8.1827058     249.7283  0.017213144  0.016701948            5 
 1210000   0.76695512   -8.1705095    249.90218  0.017210894  0.016688924            3 
 1211000   0.77048408   -8.1735988    249.50761   0.01716953  0.016675895            2 
 1212000   0.76415317   -8.1905482     249.8953   0.01718202  0.016662867            3 
 1213000   0.76134667   -8.1650897    250.58835  0.017215468    0.0166499            2 
 1214000   0.78009892   -8.1646018    250.30013  0.017181503  0.016636942            6 
 1215000   0.78759622    -8.187015    250.72075  0.017196211  0.016624018            1 
 1216000   0.75533519   -8.1847076     250.1092  0.017140159  0.016611092            4 
 1217000   0.78047367   -8.1882922    250.41157  0.017146779  0.016598135            1 
 1218000   0.76077584   -8.2069405    249.70336  0.017084247  0.016585202            1 
 1219000   0.76388759    -8.179917    250.10483  0.017097678  0.016572211            1 
 1220000   0.76864948    -8.207317     249.7187  0.017057288  0.016559252            2 
 1221000   0.76674884   -8.1900955    250.87522  0.017122251  0.016546339            1 
 1222000   0.77709047    -8.213588    250.55132  0.017086151  0.016533433            6 
 1223000   0.77374432   -8.1823554    251.07059  0.017107562  0.016520578            3 
 1224000   0.74757387   -8.2202326    250.27277  0.017039268  0.016507775            2 
 1225000   0.76260774   -8.1962838    250.49602  0.017040546  0.016494943            4 
 1226000   0.75565297   -8.2148456    250.81664  0.017048439    0.0164821            4 
 1227000   0.75965816   -8.2105188     250.5033  0.017013264  0.016469245            4 
 1228000   0.75073734   -8.1961007       250.55  0.017002579   0.01645637            3 
 1229000   0.77579116    -8.218678    250.33921  0.016974452  0.016443445            6 
 1230000   0.75614346   -8.1991644    249.89205  0.016930356  0.016430554            2 
 1231000   0.76906181      -8.2018    250.40777  0.016951515  0.016417617            2 
 1232000   0.76595923   -8.1855395    250.37757  0.016935712  0.016404738            1 
 1233000   0.75944149   -8.2026875    250.09116  0.016902619  0.016391837            3 
 1234000   0.77472761   -8.1840812    250.71699  0.016931185  0.016378955            1 
 1235000    0.7611584   -8.1901216    250.36017  0.016893399  0.016366151            1 
 1236000    0.7625556   -8.2216927    250.47698  0.016887607  0.016353287            4 
 1237000   0.75586874   -8.1993947     250.6208  0.016883643  0.016340412            6 
 1238000   0.75645572   -8.2196204     250.3888  0.016854389  0.016327604            1 
 1239000   0.75785124   -8.2178684    250.49147  0.016847691  0.016314769            1 
 1240000    0.7516595   -8.2317666    250.55722  0.016838523  0.016301939            4 
 1241000   0.75112877   -8.2098946    250.55644  0.016824902  0.016289087            4 
 1242000   0.75143248   -8.2478134    250.64471  0.016817278  0.016276241            3 
 1243000   0.74737036   -8.2286513    250.60264  0.016800928   0.01626339            3 
 1244000   0.75037204   -8.2398625    250.76677  0.016798417  0.016250473            3 
 1245000   0.75157457   -8.2532743    250.52047  0.016768438  0.016237534            2 
 1246000   0.75965044   -8.2429654      250.257   0.01673736  0.016224622            2 
 1247000   0.76396663   -8.2682129    250.08507  0.016712448  0.016211689            4 
 1248000   0.75737163   -8.2142214    250.44846  0.016723321  0.016198776            2 
 1249000   0.76405646    -8.232351    250.17335  0.016691577  0.016185884            1 
 1250000   0.76420146   -8.2425654    250.43903  0.016695935  0.016173016            2 
 1251000   0.73302013    -8.246173    250.40767    0.0166805  0.016160126            1 
 1252000    0.7511565   -8.2250809    250.89114  0.016699357   0.01614729            2 
 1253000   0.75015242   -8.2247115    250.97182  0.016691395  0.016134443            2 
 1254000   0.74926684   -8.2429205    251.08822   0.01668582  0.016121606            3 
 1255000   0.75812806   -8.2646314     250.8733  0.016658254  0.016108753            1 
 1256000   0.75921663   -8.2242683    250.58779  0.016626048   0.01609594            5 
 1257000   0.75344309   -8.2569195    251.13769  0.016649277  0.016083118            1 
 1258000   0.74531137    -8.237482    250.62586  0.016602137  0.016070306            1 
 1259000   0.75537637   -8.2545913    250.98012  0.016612399  0.016057443            1 
 1260000   0.74856761   -8.2406126    251.28115  0.016619124  0.016044594            3 
 1261000   0.74772633   -8.2440862    250.64863  0.016564144  0.016031776            2 
 1262000   0.74988262   -8.2886023    250.69235  0.016553906  0.016018911            3 
 1263000   0.74105113   -8.2861763    250.60142  0.016534799  0.016006031            4 
 1264000   0.73817293    -8.281063    250.74899  0.016531447  0.015993152            2 
 1265000   0.75278075     -8.26105    250.49983  0.016501965  0.015980354            3 
 1266000   0.74608026    -8.276386    250.51487  0.016489921  0.015967524            2 
 1267000   0.74917694   -8.2661913    250.71546  0.016490098  0.015954727            3 
 1268000   0.75575964   -8.2707563    250.57696  0.016467991  0.015941945            1 
 1269000   0.76029108   -8.2482322    250.37355  0.016441657  0.015929154            2 
 1270000   0.75742115   -8.2779154    250.71668  0.016451226   0.01591637            4 
 1271000   0.73219642    -8.259832    250.73138  0.016439246  0.015903618            3 
 1272000   0.75504141   -8.2703608    250.24026  0.016394147  0.015890846            4 
 1273000   0.73012732   -8.2535064    250.76274  0.016415471  0.015878085            2 
 1274000   0.74184993   -8.2689995    251.05916  0.016421975  0.015865335            1 
 1275000   0.73322945   -8.2440846    251.77245  0.016455716  0.015852679            2 
 1276000   0.75181981   -8.2653364    251.15244  0.016402327  0.015840015            2 
 1277000   0.75726453    -8.269836    251.07804  0.016384628  0.015827329            2 
 1278000    0.7318968   -8.2666855    251.38691  0.016391948    0.0158147            3 
 1279000    0.7346143   -8.2777682    251.05076   0.01635723  0.015802069            1 
 1280000   0.74411492   -8.2658646    251.45179  0.016370559  0.015789432            1 
 1281000   0.74483039   -8.2914762    251.26881  0.016345876  0.015776778            1 
 1282000   0.73674568   -8.2978379    250.78091  0.016301411  0.015764076            2 
 1283000   0.74765514   -8.2670669    251.01274  0.016303763  0.015751432            4 
 1284000   0.72975392    -8.252685    251.08901  0.016296016  0.015738792            3 
 1285000   0.74960063   -8.2466227     251.0439  0.016280408  0.015726179            2 
 1286000   0.73976589   -8.2976091    251.45321  0.016294272   0.01571356            1 
 1287000   0.73984622   -8.2682347    251.54548  0.016287586  0.015700964            1 
 1288000   0.74595993   -8.2935462    250.67896  0.016218876  0.015688329            3 
 1289000   0.75234621   -8.2712219    251.42815  0.016254729  0.015675666            1 
 1290000   0.75187419   -8.2812645    251.11007  0.016221581  0.015663004            1 
 1291000   0.74584754   -8.2851219    250.79786  0.016188863  0.015650316            1 
 1292000   0.73691515   -8.2874425    251.31969   0.01620999  0.015637586            1 
 1293000   0.72795676   -8.2968717    250.48053   0.01614337  0.015624869            4 
 1294000   0.73210159   -8.3147099    250.62977  0.016140506  0.015612154            1 
 1295000   0.75206869    -8.301228    251.02068  0.016153197  0.015599448            1 
 1296000   0.74510404   -8.2923348    251.24199  0.016154964  0.015586758            1 
 1297000   0.73640871   -8.3103033    251.33972  0.016148787  0.015574088            1 
 1298000   0.72293114    -8.293761    250.79398  0.016101309  0.015561427            3 
 1299000   0.73495175   -8.2848425    251.11322  0.016109393  0.015548777            2 
 1300000   0.72655372    -8.311709    251.33305  0.016111093  0.015536197            1 
 1301000   0.73684612   -8.2819422    251.03454  0.016079589  0.015523586            1 
 1302000    0.7362717   -8.2975996    251.26199  0.016081797   0.01551099            1 
 1303000    0.7365657   -8.2799896    251.18644  0.016064623  0.015498403            1 
 1304000   0.72898708   -8.2869568    251.25809  0.016056882  0.015485831            6 
 1305000   0.74095724   -8.3075437    251.36873  0.016051643  0.015473201            4 
 1306000   0.71164979   -8.3130004    251.11674  0.016023273  0.015460584            2 
 1307000   0.71322272   -8.3303883    251.19249  0.016015843  0.015447955            1 
 1308000   0.73683258   -8.3120604    250.99868  0.015991251  0.015435356            1 
 1309000   0.73105603   -8.3021807    251.19154  0.015991313  0.015422773            2 
 1310000   0.71576358   -8.3281115    251.24223   0.01598233    0.0154102            4 
 1311000   0.72423042   -8.3406838    250.92822  0.015950179  0.015397612            4 
 1312000   0.72459474   -8.3087762    251.51542  0.015975319  0.015385025            3 
 1313000    0.7394564   -8.3186704    251.30684  0.015949914  0.015372449            7 
 1314000   0.73543082   -8.3063501    251.08884   0.01592395  0.015359881            6 
 1315000   0.74640553    -8.318836    251.50834  0.015938424  0.015347285            1 
 1316000   0.73175405   -8.3346122    251.45877  0.015923174  0.015334723            6 
 1317000   0.73301255   -8.3405362    251.59084  0.015919441  0.015322105            5 
 1318000   0.72323092    -8.358568    251.21983  0.015883904  0.015309509            4 
 1319000   0.74049035   -8.3354494    251.31471  0.015877856  0.015296933            1 
 1320000   0.74167203   -8.3478559    251.09103  0.015851706  0.015284358            4 
 1321000   0.72944454   -8.3410006    251.05388  0.015837363  0.015271797            4 
 1322000   0.73125878    -8.349906    251.17032  0.015832723  0.015259248            3 
 1323000   0.72824391   -8.3869243    251.06102  0.015813871  0.015246699            3 
 1324000   0.71346124   -8.3481886    251.09703  0.015804194  0.015234096            1 
 1325000   0.73151591    -8.354582    251.18752  0.015797958  0.015221551            1 
 1326000   0.72358942   -8.3352491    251.05347  0.015777619  0.015209001            2 
 1327000   0.73192226   -8.3753215    250.85349  0.015753171  0.015196439            2 
 1328000   0.70808529   -8.3520378    250.99024   0.01574989  0.015183932           12 
 1329000   0.73978486   -8.3424192    251.01352  0.015739498  0.015171389            2 
 1330000   0.72191738   -8.3449872    250.89457  0.015720211   0.01515882            2 
 1331000    0.7200154   -8.3668603    251.20468  0.015727816   0.01514626            4 
 1332000   0.71287282   -8.3512973    250.55156  0.015675148  0.015133673            2 
 1333000   0.72931481   -8.3504804    250.85623  0.015682435   0.01512109            3 
 1334000   0.72079502   -8.3640083    250.83899  0.015669602  0.015108554            2 
 1335000   0.71153419   -8.3657102    250.96563  0.015665769  0.015096011            2 
 1336000   0.70701372   -8.3647155    250.75788  0.015641085  0.015083475            2 
 1337000   0.73665953   -8.3674308      251.201  0.015657006  0.015070967            3 
 1338000   0.72102807    -8.344973    251.53028  0.015665812  0.015058488            5 
 1339000   0.71693548   -8.3485355    250.86585  0.015612761  0.015046042            1 
 1340000   0.72024367   -8.3170232     250.6996  0.015590771  0.015033573            3 
 1341000     0.732329   -8.3472858    251.06152  0.015601635  0.015021099            3 
 1342000   0.72384139   -8.3647799    251.13734  0.015594718  0.015008597            2 
 1343000   0.71967268   -8.3626765    251.30154  0.015593295  0.014996116            3 
 1344000   0.69153853    -8.339335     251.4864  0.015593155  0.014983652            4 
 1345000   0.70779667   -8.3547743    251.33387  0.015572111  0.014971169            2 
 1346000   0.73875224   -8.3838507    251.34406  0.015561173  0.014958718            1 
 1347000   0.71759778   -8.3622584    251.28793  0.015546148  0.014946242            2 
 1348000   0.71783907   -8.3591884     251.3144  0.015536251   0.01493381            3 
 1349000   0.71795356   -8.3775586    251.57083  0.015540575  0.014921362            2 
 1350000   0.71571052   -8.3573522    250.85257  0.015484726  0.014908962            2 
 1351000   0.70792454   -8.3585216    250.87341   0.01547455  0.014896562            3 
 1352000   0.70430346   -8.3746498    250.83484  0.015460727  0.014884097            1 
 1353000   0.71369077   -8.3623006     250.8943  0.015452962  0.014871674            2 
 1354000   0.70616715    -8.369999    251.13453  0.015456335  0.014859269            3 
 1355000   0.72271962   -8.3721479    251.19669  0.015448751  0.014846872            3 
 1356000   0.69969221   -8.3531749    251.17604  0.015436089  0.014834536            2 
 1357000   0.72805483    -8.352116    251.08336  0.015419022  0.014822207            2 
 1358000    0.7207435   -8.3469673    251.40446  0.015427372  0.014809856            1 
 1359000   0.71522611    -8.343176    250.74296  0.015375458   0.01479754            1 
 1360000   0.72791168   -8.3748666    250.73955  0.015363943  0.014785204            2 
 1361000   0.70344842   -8.3336352    251.28613  0.015386121    0.0147729            3 
 1362000   0.70711471   -8.3663301    251.11661  0.015364453  0.014760546            3 
 1363000   0.72708531    -8.358331    251.65792  0.015386276  0.014748191            2 
 1364000   0.69641599   -8.3525088    251.22521  0.015348559   0.01473587            1 
 1365000   0.70805779   -8.3897015    251.54632  0.015356918  0.014723522            2 
 1366000   0.71681675    -8.376901     251.4204  0.015337994  0.014711205            2 
 1367000   0.71890239   -8.3758384    250.84143   0.01529148   0.01469883            3 
 1368000   0.71205392   -8.3783613    251.29221  0.015307762   0.01468645            1 
 1369000   0.71222528   -8.4014477     251.1493  0.015287881  0.014674105            2 
 1370000   0.70375941   -8.3567299    251.27402  0.015284308  0.014661779            1 
 1371000   0.71398205   -8.3919001    251.15056  0.015265655   0.01464948            1 
 1372000   0.71025891   -8.3728272    250.94298  0.015241921  0.014637226            1 
 1373000   0.72568314    -8.385841    251.32682  0.015254116   0.01462497            3 
 1374000   0.70102782   -8.3782411    251.26001  0.015238962  0.014612699            1 
 1375000   0.71854308   -8.3637173    251.38935  0.015235718  0.014600435            1 
 1376000   0.70473228   -8.3755311    250.98246  0.015200003  0.014588168            4 
 1377000    0.7060132   -8.3891433    250.35756  0.015151148  0.014575917            2 
 1378000   0.69867085   -8.3875537    251.07874  0.015183765  0.014563637            3 
 1379000   0.70850069   -8.4065889    250.84635  0.015158711    0.0145514            2 
 1380000    0.7051843   -8.3847827    251.59397  0.015192872   0.01453917            1 
 1381000   0.69630113   -8.3775403    251.37546  0.015168686  0.014526958            4 
 1382000   0.69950688   -8.3849794    251.63429  0.015173317  0.014514732            4 
 1383000   0.70269502   -8.4000877    251.23185  0.015138096  0.014502552            3 
 1384000   0.71225643    -8.366492    251.65429  0.015152594  0.014490358            4 
 1385000   0.69446974   -8.4105567    250.93058  0.015098109  0.014478153            2 
 1386000   0.69443771   -8.3744686    251.14535  0.015100129   0.01446592            2 
 1387000   0.71681485   -8.4081834    250.97837   0.01507921  0.014453722            4 
 1388000   0.70930279   -8.3777398    250.57858  0.015044343  0.014441558            3 
 1389000   0.69965119   -8.3940269    250.95199  0.015055915   0.01442941            2 
 1390000   0.71077667    -8.371289    251.29611  0.015065714  0.014417261            1 
 1391000   0.68853075   -8.3969569    251.25048   0.01505215   0.01440512            1 
 1392000   0.68717757   -8.4024753    250.97866  0.015025063  0.014392964            2 
 1393000   0.69196329   -8.3820117    251.33374  0.015035519  0.014380865            1 
 1394000   0.70688653   -8.4234465     250.7529  0.014990011   0.01436877            3 
 1395000   0.71802055   -8.4005782    251.01777  0.014995088   0.01435669            1 
 1396000   0.71350401   -8.3790209    251.00663  0.014983682    0.0143446            2 
 1397000   0.69676013    -8.397425    251.15998  0.014982104  0.014332521            2 
 1398000   0.69343689   -8.4028239    251.46318   0.01498946  0.014320494            1 
 1399000   0.67601843   -8.4069809    251.38334   0.01497399   0.01430847            3 
 1400000   0.70274999   -8.4187844    251.12935  0.014948176  0.014296403            2 
 1401000   0.68741597   -8.3892013     251.0361  0.014931959  0.014284353            1 
 1402000   0.71151888   -8.3871226    251.43547  0.014945047  0.014272272            2 
 1403000   0.66948017   -8.4339257    250.61598   0.01488572  0.014260204            1 
 1404000   0.68372616    -8.394509    251.12597  0.014905388  0.014248133            1 
 1405000   0.69326599   -8.4039138    250.89127  0.014880858  0.014236107            4 
 1406000   0.68417083   -8.4129409    251.34055  0.014896903  0.014224066            3 
 1407000   0.68959941    -8.404761    251.00604  0.014866503  0.014212098            2 
 1408000   0.70428002   -8.3825596    251.69576  0.014896766  0.014200127            2 
 1409000   0.69850007   -8.3989024    251.55482  0.014877858  0.014188188            3 
 1410000   0.70031603   -8.4304446    251.29888   0.01485218  0.014176258            4 
 1411000   0.67595236    -8.389438    251.56274  0.014857237  0.014164318            3 
 1412000   0.67745191    -8.409692    250.96325  0.014811335  0.014152405            2 
 1413000   0.70635559   -8.3646571     252.1187  0.014868996  0.014140525            1 
 1414000    0.6896104   -8.3916362    251.46666  0.014820053  0.014128608            1 
 1415000   0.69577321   -8.4401505      251.437  0.014807833  0.014116668            2 
 1416000   0.68186225   -8.4254832    251.22227  0.014784738  0.014104702            2 
 1417000    0.6977573   -8.4325492    251.11482  0.014767985  0.014092732            1 
 1418000   0.68940557   -8.4299844    251.46013  0.014777864  0.014080803            3 
 1419000   0.68953983   -8.4139616    250.87143  0.014732877  0.014068895            2 
 1420000   0.69328425   -8.4477549    250.64375   0.01470914  0.014057002            6 
 1421000   0.68764059   -8.4255923    250.72087  0.014703312  0.014045066            5 
 1422000   0.69145864    -8.415478    251.35494   0.01473013   0.01403318            9 
 1423000   0.69813307   -8.4087461     251.3641  0.014720315  0.014021289            4 
 1424000   0.67906024   -8.4181896    251.15498   0.01469774  0.014009421            4 
 1425000   0.68552114   -8.4060008    251.42924  0.014703465  0.013997543            5 
 1426000   0.67209181      -8.4291    251.36989  0.014689685  0.013985686            3 
 1427000   0.68153667   -8.4071935    251.06313  0.014661477  0.013973843            4 
 1428000     0.673279   -8.4297461    251.23702  0.014661358  0.013961995            4 
 1429000   0.69358718   -8.4554919    251.00507  0.014637571  0.013950149            3 
 1430000    0.6724141   -8.4306976     251.1884  0.014638018  0.013938314            1 
 1431000   0.67457269   -8.4446904    250.91627  0.014611942  0.013926473            3 
 1432000   0.69201609   -8.4272496    251.00861  0.014607112  0.013914633            1 
 1433000   0.68353071    -8.429693    250.44253  0.014563999  0.013902763            2 
 1434000   0.66881249   -8.4372698    251.07358  0.014590515  0.013890932            1 
 1435000   0.68758283   -8.4153814    251.27085  0.014591803  0.013879102            4 
 1436000   0.67781261   -8.4335804    250.60752  0.014543148   0.01386727            4 
 1437000   0.67542143   -8.4502289    250.65306  0.014535668   0.01385546            2 
 1438000   0.67329947   -8.4351637    251.40296  0.014569017  0.013843672            1 
 1439000   0.67659714    -8.451846    250.94909  0.014532609  0.013831865            1 
 1440000   0.67773071   -8.4513419    250.73101  0.014509896  0.013820079            2 
 1441000   0.65984648   -8.4216247    251.01415  0.014516201  0.013808275            2 
 1442000   0.68954285   -8.4504314    250.97454  0.014503845  0.013796513            4 
 1443000   0.66782293   -8.4419875    251.60398  0.014530144  0.013784778            7 
 1444000    0.6661913   -8.4284265    251.01593  0.014486145  0.013773046            1 
 1445000   0.67332392   -8.4390913    250.55362  0.014449459  0.013761284            4 
 1446000   0.67803518   -8.4423075    251.39064  0.014487704  0.013749595            3 
 1447000   0.67886114   -8.4169618    250.99358  0.014454825  0.013737907            2 
 1448000   0.68128981   -8.4367483    250.66606  0.014425993  0.013726211            3 
 1449000   0.68704861    -8.438489    250.63552  0.014414281  0.013714511            4 
 1450000   0.67700498   -8.4088134    251.51523  0.014454898  0.013702829            4 
 1451000   0.67297283   -8.4564865    251.31763  0.014433587   0.01369118            1 
 1452000   0.68072429   -8.4639616    251.00744  0.014405845  0.013679509            3 
 1453000   0.64979531   -8.4314494    251.47502  0.014422747  0.013667863            3 
 1454000   0.67607131   -8.4594285    251.22007  0.014398216  0.013656208            2 
 1455000   0.65600586   -8.4882527     251.2399  0.014389456  0.013644577            5 
 1456000   0.68034695   -8.4620371    251.24953  0.014380124   0.01363292            4 
 1457000   0.66758541   -8.4592783    251.26675   0.01437124  0.013621288            2 
 1458000   0.67792557   -8.4533265    251.20207  0.014357685   0.01360969            7 
 1459000   0.68778505   -8.4754567    250.71588  0.014320075  0.013598053            3 
 1460000   0.67067675   -8.4424842    251.14396  0.014334701  0.013586413            4 
 1461000   0.66988481   -8.4760399    250.91203  0.014311661  0.013574798            1 
 1462000   0.67554351   -8.4867969    251.21301  0.014319027  0.013563201            2 
 1463000   0.67905359   -8.4715964    251.42181  0.014321133  0.013551587            2 
 1464000   0.68243918   -8.4886422    250.49574  0.014258637  0.013540007            2 
 1465000   0.67214493   -8.4722247    251.04853  0.014280349  0.013528435            1 
 1466000   0.65483815    -8.478883    250.55768  0.014242706  0.013516836            1 
 1467000    0.6775583   -8.4733589    251.37038  0.014279162  0.013505242            2 
 1468000   0.67444004   -8.5007014    250.88621  0.014241951  0.013493655            2 
 1469000   0.67874516   -8.4759541    250.95711  0.014236278  0.013482067            3 
 1470000   0.66518035   -8.4680287    251.26147  0.014243848   0.01347049            2 
 1471000   0.66925478   -8.4605574    251.23623  0.014232735  0.013458925            1 
 1472000    0.6692168   -8.4951197    250.99406  0.014209356  0.013447355            1 
 1473000   0.67124994   -8.4804292    251.03483  0.014202016   0.01343577            1 
 1474000   0.66922748   -8.4775781    250.85405   0.01418216   0.01342422            3 
 1475000   0.66966401   -8.4851456    251.36413  0.014201363   0.01341269            3 
 1476000   0.66933303    -8.499586    250.71756  0.014155237  0.013401163            2 
 1477000   0.65822573   -8.4900091    250.83405  0.014152226  0.013389611            4 
 1478000   0.64870218   -8.4956215    250.77306  0.014139212  0.013378085            4 
 1479000   0.67259557   -8.4921668    250.56684  0.014118033  0.013366576            2 
 1480000   0.67557773   -8.5017417    250.58442  0.014109483  0.013355112            3 
 1481000   0.66953188   -8.4781157    251.11379  0.014129743   0.01334362            2 
 1482000   0.65878146   -8.5140563    250.27832   0.01407323  0.013332117            2 
 1483000     0.652324   -8.4936436    250.73704  0.014089517  0.013320651            3 
 1484000   0.65733536   -8.4956102    250.73936  0.014080153  0.013309199            2 
 1485000   0.66155368   -8.5132503    250.68978  0.014067889  0.013297757            1 
 1486000   0.65087136   -8.4973462    249.83401  0.014010431  0.013286319            1 
 1487000   0.64094247   -8.4951352     251.0638  0.014069928  0.013274889            4 
 1488000   0.64454305   -8.5049558    250.88819  0.014050638  0.013263461            1 
 1489000    0.6463508   -8.5267845    250.51236  0.014020168  0.013252055            1 
 1490000   0.64932142   -8.4997342    250.49577  0.014009831  0.013240637            1 
 1491000   0.66171382   -8.5059834    250.17621  0.013982574  0.013229253            2 
 1492000   0.65258233   -8.5227271    250.59953  0.013996846  0.013217871            2 
 1493000   0.66034357   -8.4890746    251.14304  0.014017807  0.013206527            2 
 1494000   0.64722732   -8.5048792    250.81598  0.013990182   0.01319518            2 
 1495000   0.65060282   -8.4920425    251.02277  0.013992351  0.013183846            3 
 1496000   0.65302482   -8.5010715    250.98195  0.013980724  0.013172548            3 
 1497000   0.65210108   -8.5175453    251.36001   0.01399243  0.013161241            4 
 1498000   0.64179035   -8.5196642    250.94589  0.013960052  0.013149966            2 
 1499000   0.65371362   -8.5354026    250.76552  0.013940711  0.013138663            1 
 1500000   0.65448827   -8.4969893    250.88888  0.013938271  0.013127365            3 
 1501000   0.65259419   -8.5256053     250.6688  0.013916767  0.013116066            2 
 1502000   0.65968564    -8.525964    250.57064  0.013902055  0.013104769            2 
 1503000   0.65569059   -8.5119133    250.69734   0.01389983  0.013093471            2 
 1504000   0.65275926   -8.5249343    250.32744  0.013870093  0.013082163            3 
 1505000   0.66067858   -8.5005028    250.81676  0.013887971  0.013070873            1 
 1506000   0.66188916    -8.521317      250.685  0.013871458   0.01305962            1 
 1507000   0.65972763   -8.5251163     250.7025  0.013863222  0.013048347            1 
 1508000   0.66003818   -8.5113866    250.60909  0.013848867  0.013037075            1 
 1509000   0.66434718   -8.5103133    250.24177  0.013819404  0.013025839            2 
 1510000   0.65408305   -8.5159675    251.01188  0.013852753  0.013014633            3 
 1511000   0.64305944   -8.5072094    250.88156  0.013836398   0.01300343            3 
 1512000   0.65011395   -8.5128551    250.62708  0.013813221  0.012992241            1 
 1513000   0.64133579   -8.5103608    250.43464  0.013793492  0.012981035            1 
 1514000   0.65422843   -8.5283679    250.47324  0.013786506  0.012969849            3 
 1515000   0.64813992   -8.5226299    250.75189  0.013792733  0.012958692            2 
 1516000   0.65544663    -8.533177    250.72486  0.013782149  0.012947536            2 
 1517000    0.6602494   -8.5247615    250.96499  0.013786255  0.012936382            3 
 1518000   0.65046584   -8.5408095    250.47136  0.013750075   0.01292527            1 
 1519000   0.64647659   -8.5267382    250.78209   0.01375807  0.012914142            2 
 1520000   0.64996389   -8.5521711    250.67064  0.013742908  0.012903003            2 
 1521000   0.64809816   -8.5282323    250.65381  0.013732951  0.012891885            3 
 1522000    0.6483098     -8.52445    250.65767  0.013724139  0.012880761            3 
 1523000   0.64028968   -8.5102169    250.38773  0.013700357  0.012869667            2 
 1524000   0.64392663   -8.5170785    250.40289  0.013692196  0.012858604            2 
 1525000   0.63760916   -8.5206364    250.51096  0.013689123  0.012847527            1 
 1526000   0.63178769    -8.527821    250.24792  0.013665789  0.012836468            1 
 1527000   0.64520083   -8.5329681    250.88112  0.013691395  0.012825421            1 
 1528000   0.63601037   -8.5432786    250.82554  0.013679403  0.012814383            1 
 1529000   0.65045322   -8.5340645    250.19585  0.013636137  0.012803343            2 
 1530000   0.66313714   -8.5325699    250.67772  0.013653471   0.01279232            3 
 1531000    0.6561575   -8.5433987    250.89616  0.013656442  0.012781308            1 
 1532000   0.62162429   -8.5260631    250.16244  0.013607618  0.012770302            1 
 1533000   0.63569634   -8.5349361     250.6141  0.013623293    0.0127593            1 
 1534000   0.63577841   -8.5365426    250.82271  0.013625745  0.012748323            2 
 1535000   0.64272388   -8.5322898    250.60605  0.013605106  0.012737358            4 
 1536000   0.63976613   -8.5506302    250.72797  0.013602863  0.012726409            7 
 1537000   0.64491297   -8.5371113    250.94465  0.013605761  0.012715473            2 
 1538000   0.64123716   -8.5422969    250.65649  0.013581301  0.012704526            5 
 1539000   0.63397666   -8.5498982    250.57251  0.013567929  0.012693581            2 
 1540000   0.63850611   -8.5418676    250.62413  0.013561912  0.012682645            2 
 1541000   0.64317179   -8.5558777    250.17287  0.013528708  0.012671722            2 
 1542000   0.64227086   -8.5487507    250.81529  0.013554653    0.0126608            2 
 1543000   0.64064354   -8.5532924      250.627  0.013535699  0.012649907            1 
 1544000   0.63346476   -8.5243245    250.20942  0.013504394  0.012639044            4 
 1545000   0.62442452   -8.5735943    250.73223  0.013523853  0.012628173            3 
 1546000   0.63486928   -8.5448867    250.57778   0.01350678  0.012617301            3 
 1547000   0.62973879   -8.5584255    250.42376  0.013489752  0.012606453            3 
 1548000    0.6390578   -8.5432459    250.56351  0.013488561  0.012595583            3 
 1549000   0.63694922   -8.5631019     250.7633  0.013490602  0.012584723            1 
 1550000   0.62669712   -8.5365287    250.84584  0.013486336  0.012573891            2 
 1551000     0.623962   -8.5491087    250.31962  0.013449367  0.012563085            4 
 1552000   0.64683614   -8.5686909    250.19141  0.013433817  0.012552265            1 
 1553000    0.6278294   -8.5831335    250.24398  0.013427988  0.012541433            1 
 1554000   0.62822567   -8.5722873    250.26518  0.013420484  0.012530611            2 
 1555000   0.63447071   -8.5558366    250.01619  0.013398509  0.012519818            3 
 1556000    0.6260143   -8.5464207    250.79289  0.013431496  0.012509017            1 
 1557000   0.62828498   -8.5757114    250.65405  0.013415438   0.01249823            4 
 1558000   0.63223706   -8.5469629    250.23057  0.013384177  0.012487439            2 
 1559000   0.62405796   -8.5615169    250.50339  0.013390175  0.012476666            4 
 1560000   0.64987528   -8.5516468     250.4181  0.013377035  0.012465896            2 
 1561000   0.64178382   -8.5693819    250.28497  0.013361358  0.012455131            1 
 1562000   0.63409267   -8.5762961    250.25401  0.013351153  0.012444379            2 
 1563000     0.642573   -8.5704977     251.0099  0.013382912  0.012433632            2 
 1564000   0.63787545    -8.563789    250.13574  0.013327778  0.012422915            2 
 1565000   0.62610307   -8.5558797     250.3202  0.013329084  0.012412183            1 
 1566000   0.61998742   -8.5684269    250.30157  0.013319581  0.012401451            1 
 1567000   0.63057364   -8.5638283    250.08564  0.013299598  0.012390754            4 
 1568000    0.6170935   -8.5956474    250.28361  0.013301638  0.012380051            2 
 1569000   0.62328466   -8.5895949    249.91172  0.013273407  0.012369364            2 
 1570000   0.63668301    -8.586671    250.19966  0.013280237  0.012358688            2 
 1571000   0.62192349   -8.5634276      250.608  0.013293444  0.012348015            1 
 1572000   0.62742761   -8.5814484    250.12065  0.013259152  0.012337354            4 
 1573000   0.62341549   -8.5907586     250.2117  0.013255547  0.012326682            3 
 1574000   0.64020117   -8.5721234    249.98973  0.013235373  0.012316047            1 
 1575000    0.6348188   -8.5674182    250.46639   0.01325219  0.012305411            2 
 1576000   0.61509287   -8.5724961    250.38519  0.013239488  0.012294781            3 
 1577000   0.61933408   -8.5929118     250.1232  0.013217248   0.01228417            2 
 1578000   0.62614415   -8.5729433    249.70884   0.01318699   0.01227356            2 
 1579000   0.62514278   -8.5714344    249.98378  0.013193149  0.012262963            2 
 1580000   0.63021267   -8.6150774    249.89246  0.013179982  0.012252374            1 
 1581000   0.61517757   -8.5674003    250.47163  0.013202173  0.012241801            1 
 1582000   0.61526332   -8.5785568    250.48107  0.013194325  0.012231247            3 
 1583000   0.63349712   -8.5821616    250.27159  0.013174962  0.012220706            1 
 1584000   0.62259427   -8.5905123     250.5049   0.01317892  0.012210167            9 
 1585000   0.62531794   -8.6101881    250.05509  0.013146955  0.012199618            5 
 1586000   0.62843379   -8.6097691    250.02674  0.013137176  0.012189086            1 
 1587000   0.61947188   -8.5783861    249.85341  0.013119797   0.01217857            1 
 1588000   0.61326726   -8.5962131    249.75848  0.013106553  0.012168066            2 
 1589000   0.61933415   -8.5784903    250.14614  0.013118635  0.012157547            1 
 1590000   0.62442821   -8.6041088    250.26121  0.013116415  0.012147057            2 
 1591000   0.61668651   -8.5860267    249.67714  0.013077579  0.012136576            2 
 1592000   0.61578526   -8.6038864    249.90059  0.013081061  0.012126103            2 
 1593000   0.61581621    -8.605176    249.79275  0.013067208  0.012115638            1 
 1594000   0.61473597   -8.5925871    250.34234  0.013087742  0.012105196            4 
 1595000   0.61214847    -8.593249     250.0051  0.013061917  0.012094737            3 
 1596000   0.63104416   -8.6061753     250.3763  0.013073115  0.012084297            2 
 1597000   0.61696331   -8.5849825    250.14999   0.01305312  0.012073849            1 
 1598000   0.61271641   -8.5865038    250.60294  0.013068572  0.012063414            1 
 1599000   0.61915239   -8.6017938    249.99321  0.013028623  0.012053009            2 
 1600000    0.6152121   -8.6005895    250.83609   0.01306438  0.012042631            2 
 1601000   0.61101009     -8.61903     250.1846  0.013022309  0.012032253            2 
 1602000   0.63063831   -8.6152498    249.91256  0.013000029  0.012021868            1 
 1603000   0.60652643   -8.6208288    250.20304   0.01300702  0.012011505            2 
 1604000   0.59706365   -8.6026241    250.06038  0.012991499  0.012001141            4 
 1605000   0.61263338    -8.630636    249.99798  0.012980165  0.011990772            3 
 1606000   0.59834929   -8.6007073     250.3936  0.012992611  0.011980448            2 
 1607000   0.60924668   -8.6057642    250.14035  0.012971394  0.011970123            2 
 1608000   0.61240974   -8.5884792    249.72156  0.012941623    0.0119598            2 
 1609000   0.60325582   -8.6098448     249.9876  0.012947359  0.011949495            1 
 1610000   0.60846681    -8.604632    249.70116  0.012924491  0.011939195            2 
 1611000   0.61878254   -8.6180819    250.21451  0.012943023  0.011928918            1 
 1612000   0.61070116   -8.5941189    250.41315  0.012945262   0.01191864            2 
 1613000   0.60119102   -8.5964289    250.46058  0.012939687  0.011908369            2 
 1614000    0.6054554   -8.6065169    250.09589   0.01291284  0.011898122            1 
 1615000   0.60780586   -8.6016304    250.30383  0.012915574  0.011887869            4 
 1616000   0.60426763   -8.6206223    249.90675  0.012887105  0.011877625            1 
 1617000     0.603964   -8.6300482    249.85604  0.012876522   0.01186737            4 
 1618000   0.61100123   -8.6176468    250.00845  0.012876414   0.01185714            3 
 1619000   0.60609251   -8.6340007    249.41059  0.012837687  0.011846917            3 
 1620000     0.613661   -8.6141074    249.69166  0.012844221  0.011836691            2 
 1621000   0.59598162   -8.6327451    249.95789  0.012849984  0.011826489            2 
 1622000   0.61255544   -8.6356096    249.74101  0.012830919  0.011816272            2 
 1623000   0.60085455   -8.6444353    249.89138  0.012830734  0.011806065            1 
 1624000   0.59978294   -8.6304583    249.86797  0.012821632  0.011795864            2 
 1625000   0.60611969   -8.6445687    249.73474   0.01280691  0.011785671            2 
 1626000   0.59805947   -8.6422178    249.47489  0.012785716  0.011775493            3 
 1627000    0.6053442   -8.6213812    249.51617  0.012779972  0.011765321            3 
 1628000   0.61151113   -8.6520028    249.59519  0.012776167   0.01175516            1 
 1629000   0.60668029   -8.6340367    249.93532  0.012785723  0.011745027            6 
 1630000   0.59880475   -8.6154001    250.10291  0.012786447  0.011734902            2 
 1631000   0.60039528   -8.6176318    250.05319  0.012776067  0.011724778            4 
 1632000   0.59886976   -8.6316529    249.64295  0.012747291  0.011714667            6 
 1633000   0.60104032    -8.650341    249.47406  0.012730867  0.011704545            2 
 1634000   0.59584699   -8.6671658    249.52956  0.012725906  0.011694436            2 
 1635000   0.59187863   -8.6586347    249.83634  0.012733759  0.011684337            3 
 1636000   0.60003923   -8.6094704    249.38741  0.012703108  0.011674266            2 
 1637000   0.60815322   -8.6454184     249.6918  0.012710843  0.011664207            2 
 1638000   0.59550318   -8.6535907    249.67206  0.012702079  0.011654148            3 
 1639000   0.60225855   -8.6526212    249.29262  0.012675037  0.011644078            3 
 1640000   0.59537972   -8.6360236    249.14266  0.012659688  0.011634029            2 
 1641000   0.59564047    -8.632823    249.78166  0.012684423  0.011624009            4 
 1642000   0.58513797   -8.6436464    249.92873  0.012684162  0.011613986            2 
 1643000   0.59523923   -8.6479748    249.51304  0.012655358  0.011603977            3 
 1644000    0.6114862   -8.6484138    249.91101  0.012667833  0.011593979            2 
 1645000   0.59744158   -8.6523401    249.48207  0.012638403  0.011583981            6 
 1646000   0.60532665   -8.6505189    250.23129  0.012668656   0.01157399            2 
 1647000   0.58607255   -8.6411803    249.74066  0.012636139  0.011564011            4 
 1648000   0.59933399   -8.6372307    249.68926  0.012625873  0.011554044            2 
 1649000   0.60421499   -8.6546186    249.84646   0.01262616  0.011544092            3 
 1650000   0.60121598   -8.6441733    249.25763  0.012588769  0.011534133            2 
 1651000   0.60453477    -8.655981    249.51136  0.012593951  0.011524193            1 
 1652000   0.58665732   -8.6568954    249.53166  0.012587352  0.011514266            3 
 1653000   0.59647957   -8.6504865    249.56075  0.012581203  0.011504343            4 
 1654000   0.61082874   -8.6463133    250.17808    0.0126047  0.011494444            2 
 1655000   0.58998613   -8.6412921    249.42732  0.012559281  0.011484551            2 
 1656000    0.5806351   -8.6639953    249.09331  0.012534889  0.011474647            2 
 1657000   0.59241353   -8.6284772    249.84484   0.01256512  0.011464769            1 
 1658000   0.60273402    -8.665333    249.59962  0.012545216  0.011454901            2 
 1659000   0.59594813   -8.6259003    249.44482  0.012529879  0.011445047            2 
 1660000   0.58521827    -8.660149    249.48741  0.012524468  0.011435206            2 
 1661000   0.59615288   -8.6411088    249.87216  0.012536231  0.011425362            2 
 1662000   0.57998927   -8.6418943    249.28643   0.01249932  0.011415536            2 
 1663000   0.59491915   -8.6640165    249.74288  0.012514676  0.011405733            2 
 1664000   0.58830788   -8.6407065    249.78133  0.012509081  0.011395936            7 
 1665000   0.57496488   -8.6442305    249.64639  0.012494814  0.011386151            5 
 1666000   0.58617015   -8.6698258    249.19422  0.012464697  0.011376363            3 
 1667000    0.5918436   -8.6704716    249.41953  0.012468483  0.011366573            4 
 1668000   0.57379097   -8.6574863    249.77387   0.01247871    0.0113568            5 
 1669000   0.58619452   -8.6618121    249.55917  0.012460514  0.011347047            2 
 1670000   0.57743913   -8.6355342    249.33944  0.012442088   0.01133729            4 
 1671000   0.58456754   -8.6498364    249.58019  0.012446648  0.011327557            3 
 1672000   0.58610779   -8.6642729    249.45693  0.012433061  0.011317824            3 
 1673000   0.57126149    -8.656673    249.52649  0.012429094  0.011308089            4 
 1674000   0.58478902   -8.6325888    249.84821  0.012437685  0.011298361            2 
 1675000   0.57806485   -8.6558687    249.93683  0.012434668   0.01128864            4 
 1676000   0.57968319    -8.652257    250.06825  0.012433783  0.011278939            5 
 1677000   0.58918231   -8.6470823    249.75225  0.012410666  0.011269242            3 
 1678000   0.58743279    -8.691458    249.05815    0.0123688  0.011259568            1 
 1679000    0.5658288   -8.6695893    249.63554   0.01239009  0.011249899            2 
 1680000   0.58015061   -8.6577048    249.45243  0.012373633  0.011240231            3 
 1681000   0.58860338   -8.6602685     249.7373  0.012380394  0.011230577            2 
 1682000   0.58289397   -8.6887173    249.23374  0.012348085  0.011220909            1 
 1683000   0.58161997      -8.6681    249.57875  0.012357831  0.011211244            5 
 1684000   0.59026978   -8.6813587    249.03712   0.01232369  0.011201606            3 
 1685000   0.58638438   -8.6860913    249.28853   0.01232881  0.011191984            1 
 1686000   0.57069567   -8.6812472    249.02939  0.012308689   0.01118236            1 
 1687000   0.57081843   -8.6725666    249.23676  0.012311636  0.011172744            3 
 1688000   0.56762764   -8.6632041    249.54277  0.012319449  0.011163132            3 
 1689000   0.58186609   -8.6784325    249.13882  0.012292225  0.011153554            3 
 1690000   0.58159913   -8.6714069    249.39751  0.012297707  0.011143965            3 
 1691000     0.579858   -8.6635504    249.37649  0.012289399  0.011134391            4 
 1692000   0.57754799   -8.6913224    249.26059  0.012276428   0.01112484            3 
 1693000   0.56453072   -8.6615885    249.22295  0.012267324  0.011115286            3 
 1694000   0.56349827   -8.7016748    249.13925  0.012255965  0.011105742            4 
 1695000   0.57292453   -8.6793037    248.96465   0.01224015  0.011096205            5 
 1696000   0.57056107   -8.6781845    249.05207  0.012237228  0.011086669            3 
 1697000   0.57741603   -8.7053367    249.16618  0.012235621  0.011077154            2 
 1698000   0.58037493   -8.6809331    249.33661  0.012236779  0.011067643            3 
 1699000   0.57244208   -8.6662582    249.48795     0.012237  0.011058145            4 
 1700000   0.57059261   -8.6676863    248.97504  0.012204659  0.011048655            1 
 1701000   0.56330275   -8.6447993    249.64301  0.012230208  0.011039187            4 
 1702000   0.57850352   -8.6715296    249.35302  0.012208824  0.011029718            2 
 1703000   0.56645449       -8.685    248.94105  0.012181496  0.011020244            2 
 1704000    0.5679197   -8.7056102    249.06392  0.012180356   0.01101077            2 
 1705000   0.56976573   -8.6906331    248.80758  0.012160683  0.011001315            3 
 1706000   0.56998717   -8.7043393    248.88926  0.012157545  0.010991863            1 
 1707000   0.58329913   -8.7019885    249.01222  0.012156425  0.010982429            2 
 1708000   0.57978992   -8.6891213    248.91291  0.012144463  0.010973005            3 
 1709000   0.56301232   -8.6949023     248.7694  0.012130359  0.010963583            2 
 1710000   0.57183032   -8.7005802    248.91785    0.0121305  0.010954169            3 
 1711000   0.57441281   -8.6734456    248.98844  0.012126848  0.010944754            3 
 1712000   0.56817505   -8.6862925     249.2224  0.012131153   0.01093536            3 
 1713000   0.56469352   -8.6874242    249.40677   0.01213304  0.010925979            4 
 1714000   0.56716158   -8.7064009    248.97643  0.012105039  0.010916606            4 
 1715000   0.56387298   -8.6806521    249.37388  0.012117292  0.010907236            2 
 1716000    0.5715602   -8.6794919    249.22352  0.012102929  0.010897881            5 
 1717000   0.57111512   -8.6881261    248.85433  0.012077962  0.010888526            3 
 1718000   0.56478876   -8.6934871    248.79911  0.012068253  0.010879201            1 
 1719000   0.57230928   -8.6886617    248.91565  0.012066882  0.010869878            2 
 1720000    0.5731482   -8.7145809     249.0132  0.012064593  0.010860564            5 
 1721000   0.56218524    -8.685436    248.72301  0.012043531  0.010851252            1 
 1722000      0.57181   -8.6906157    249.16855  0.012058098  0.010841949            1 
 1723000   0.57308137   -8.6927536    249.20816  0.012053016   0.01083266            2 
 1724000   0.56791022   -8.7012204    248.84242  0.012028346  0.010823376            4 
 1725000   0.55536773   -8.6833796    249.36918   0.01204682  0.010814094            1 
 1726000   0.55954458   -8.6933267    249.07051  0.012025421  0.010804821            2 
 1727000   0.55263635   -8.6916332     248.7103  0.012001076  0.010795574            3 
 1728000   0.56745193   -8.7042332    248.81705  0.011999279  0.010786313            2 
 1729000   0.56376394   -8.6998904     248.8734  0.011995055  0.010777071            2 
 1730000   0.57292849   -8.7102605    248.69585  0.011979569  0.010767835            2 
 1731000   0.56073751   -8.7037449     248.6994  0.011972819  0.010758598            2 
 1732000   0.56973456   -8.7109218    248.73365  0.011967554  0.010749381            2 
 1733000    0.5664841   -8.7099232    248.79788  0.011963737  0.010740175            1 
 1734000   0.56876723   -8.7392043    248.33582  0.011934632  0.010730975            2 
 1735000   0.56530756   -8.7140077    248.59546  0.011940224  0.010721786            1 
 1736000   0.56278988   -8.7140853    249.08642  0.011956913  0.010712596            2 
 1737000   0.55312298   -8.7201538    248.90611  0.011941379  0.010703431            1 
 1738000    0.5644154   -8.7089527    248.98435   0.01193826  0.010694261            3 
 1739000   0.55426235   -8.7041786    248.52134  0.011909208  0.010685112            1 
 1740000   0.55988318   -8.7015942    248.97826  0.011924246  0.010675964            2 
 1741000   0.56106535   -8.7249689    249.18438  0.011927263  0.010666818            1 
 1742000   0.54968947   -8.7244609    248.62051  0.011893442  0.010657676            1 
 1743000   0.56303496   -8.7156111    248.71865  0.011891311  0.010648529            2 
 1744000   0.56410883   -8.6984381    248.73096   0.01188508  0.010639413            2 
 1745000   0.55875782   -8.7193652    248.93561  0.011888043  0.010630301            2 
 1746000   0.56287073   -8.7246004    248.79626  0.011874583  0.010621182            2 
 1747000   0.55776466   -8.7112239    248.61696  0.011859233  0.010612085            4 
 1748000   0.56803035   -8.7291441    248.35419  0.011839921  0.010602996            2 
 1749000   0.57410701   -8.7119991    248.75107  0.011852061  0.010593903            3 
 1750000   0.55494183   -8.7241974    248.21215  0.011819626  0.010584828            1 
 1751000   0.54472185   -8.7158953    248.67311  0.011834814   0.01057577            1 
 1752000   0.55718204   -8.7338408     248.7998  0.011834085  0.010566713            1 
 1753000   0.55139936    -8.715244    248.60364  0.011818009  0.010557664            4 
 1754000   0.54446493   -8.7237258      248.475   0.01180516  0.010548615            1 
 1755000    0.5524762    -8.732469    248.33743  0.011791901  0.010539596            2 
 1756000   0.54522255   -8.7291446    248.70551  0.011802653  0.010530574            2 
 1757000   0.54170214   -8.7113029    248.67343  0.011794414  0.010521558            1 
 1758000   0.54728741   -8.7414753    248.75433   0.01179154  0.010512557            2 
 1759000   0.55580769   -8.7438001    248.17016  0.011757161  0.010503565            2 
 1760000   0.55026849    -8.737362    248.79382   0.01178001  0.010494588            3 
 1761000   0.55028894   -8.7181595    248.62898   0.01176552  0.010485609            1 
 1762000   0.54303809   -8.7181131    248.40277  0.011748145  0.010476635            2 
 1763000   0.55236531   -8.7348303    248.67682  0.011754435  0.010467678            2 
 1764000    0.5615665    -8.739249    249.01441  0.011763719  0.010458726            2 
 1765000    0.5528078   -8.7223278    248.84792  0.011749193  0.010449785            3 
 1766000   0.54922757   -8.7383869    248.41185  0.011721964  0.010440862            1 
 1767000   0.55921197    -8.735788    248.57569  0.011723057  0.010431937            2 
 1768000   0.54482483   -8.7365694    248.60918  0.011718005  0.010423027            2 
 1769000   0.53106771    -8.718102    248.92513  0.011726264  0.010414114            1 
 1770000   0.54827596   -8.7472682    248.35652  0.011692868   0.01040522            1 
 1771000   0.54116673    -8.737416    248.44877  0.011690607  0.010396321            4 
 1772000   0.55239856   -8.7356609    248.42957  0.011683106  0.010387442            2 
 1773000   0.54955774   -8.7331948    248.30481  0.011670653   0.01037858            1 
 1774000   0.54812274   -8.7409108    248.50842  0.011673639   0.01036972            3 
 1775000   0.54394731   -8.7456797    248.48098  0.011665774  0.010360871            1 
 1776000   0.54991845    -8.743508     247.9985  0.011636566  0.010352029            3 
 1777000   0.54449421   -8.7606357     248.4365  0.011650558  0.010343191            3 
 1778000   0.54070834   -8.7431191    248.48407  0.011646235  0.010334367            2 
 1779000   0.54089604   -8.7533263    248.53466  0.011642058  0.010325544            2 
 1780000   0.54413294   -8.7314388    248.61948  0.011639489   0.01031674            5 
 1781000    0.5481752   -8.7277335    248.48056  0.011626453  0.010307935            1 
 1782000   0.54717672   -8.7350562    248.38087  0.011615267   0.01029915            2 
 1783000   0.54761619   -8.7439322    248.22475  0.011601456  0.010290371            2 
 1784000   0.53609604   -8.7381833    248.35261  0.011600925  0.010281589            2 
 1785000   0.53955895   -8.7458143    248.09554  0.011582425  0.010272825            1 
 1786000   0.52763784   -8.7572603     248.3299  0.011586875  0.010264058            2 
 1787000   0.53665202   -8.7379387    248.13747  0.011571417    0.0102553            2 
 1788000     0.535387   -8.7525563    248.50055  0.011581868  0.010246553            3 
 1789000   0.53709274   -8.7555681    248.74911  0.011586972  0.010237818            2 
 1790000   0.53169813   -8.7603369     248.0396  0.011547467  0.010229091            2 
 1791000   0.54890031   -8.7514909    248.52443  0.011563578  0.010220375            4 
 1792000   0.53335082   -8.7438712    248.26864  0.011545231  0.010211668            2 
 1793000   0.52815376   -8.7558217    248.21336  0.011536223  0.010202968            4 
 1794000   0.55202622   -8.7420876    248.16927  0.011527744  0.010194286            4 
 1795000   0.53052933   -8.7352647    248.01774  0.011514287  0.010185602            4 
 1796000   0.52643092   -8.7581926    248.16692  0.011514798  0.010176926            1 
 1797000   0.51674103   -8.7536905    247.86096  0.011494201  0.010168254            3 
 1798000   0.53627266   -8.7526531    248.01963  0.011495162  0.010159592            1 
 1799000   0.52790716   -8.7538733    247.93323  0.011484771  0.010150941            2 
 1800000   0.54197443   -8.7683238    248.16404  0.011489076  0.010142299            3 
 1801000   0.54331053   -8.7650076    248.33558  0.011490634  0.010133669            2 
 1802000   0.53040149   -8.7550114    248.45536  0.011489797  0.010125051            1 
 1803000   0.54065772   -8.7559878    248.11878  0.011467867  0.010116441            1 
 1804000   0.53236716   -8.7755588    248.11796  0.011461473   0.01010784            2 
 1805000    0.5211402   -8.7630015    247.74819  0.011438051   0.01009924            1 
 1806000   0.54280657   -8.7572368    247.88363  0.011437967  0.010090656            1 
 1807000   0.53852664   -8.7663797    248.30241  0.011450951   0.01008208            2 
 1808000   0.53219026   -8.7611352    248.07718  0.011434236  0.010073516            2 
 1809000   0.53212905    -8.767263    247.91107  0.011420263  0.010064961            1 
 1810000   0.53392119   -8.7634953    247.87208  0.011412158  0.010056406            4 
 1811000   0.52573106   -8.7720768    248.17274  0.011419691  0.010047859            1 
 1812000   0.52513394   -8.7806904    248.12122   0.01141102  0.010039324            1 
 1813000   0.53302106   -8.7873669    247.84752  0.011392146  0.010030791            5 
 1814000   0.52354948   -8.7652237    248.31194    0.0114072  0.010022268            1 
 1815000   0.52933807   -8.7487088    248.20956  0.011396215  0.010013762            2 
 1816000   0.52725818    -8.767327    248.12095  0.011385873  0.010005266            1 
 1817000   0.52149586   -8.7728696    248.34211   0.01138975 0.0099967832            2 
 1818000   0.52642039   -8.7665687    247.99767  0.011367696 0.0099883044            4 
 1819000   0.53093896   -8.7622062    248.30361  0.011375463 0.0099798286            3 
 1820000   0.52271591   -8.7606887    248.04407  0.011357329 0.0099713678            1 
 1821000   0.52068675   -8.7783098    247.78404  0.011339193 0.0099629078            1 
 1822000   0.52049066   -8.7753214    248.37269  0.011359892 0.0099544628            5 
 1823000   0.52805718   -8.7741721    248.36879  0.011353483 0.0099460157            3 
 1824000   0.53306831   -8.7930092     248.2101  0.011340008 0.0099375921            2 
 1825000   0.53280619   -8.7670612    248.07626  0.011327683 0.0099291767            3 
 1826000   0.53082888   -8.7802025    247.71036  0.011304781 0.0099207653            2 
 1827000   0.52176598    -8.773604    247.97657  0.011310736 0.0099123526            2 
 1828000   0.52886587   -8.7854461    248.45385  0.011326306 0.0099039562            1 
 1829000   0.52385912   -8.7703459    248.37816  0.011316665  0.009895573            2 
 1830000   0.52729405   -8.7731835    248.07454  0.011296655 0.0098871982            2 
 1831000   0.51821191   -8.7727865      248.068  0.011290187 0.0098788283            1 
 1832000   0.52286202   -8.7731651    248.14098  0.011287345 0.0098704735            1 
 1833000   0.53018501   -8.7933149    247.73997  0.011262956 0.0098621205            2 
 1834000   0.51800571   -8.7630181    247.72192  0.011255994 0.0098537729            4 
 1835000   0.51853142   -8.7776433    248.11816  0.011267855 0.0098454387            2 
 1836000   0.52935985   -8.7825969    247.63465  0.011239771 0.0098371175            1 
 1837000   0.52270751   -8.7830422    247.78164  0.011240321 0.0098288044            6 
 1838000   0.52562219   -8.7744171    248.03358  0.011245628 0.0098205018            1 
 1839000    0.5272405   -8.7882796     247.9294  0.011234792 0.0098122091            1 
 1840000   0.51502601   -8.7816633    248.11216  0.011236964 0.0098039247            2 
 1841000   0.51326518   -8.7910865    247.78323  0.011215971   0.00979564            2 
 1842000   0.51969163   -8.7830523    248.29218  0.011232907  0.009787366            1 
 1843000   0.52787442   -8.7859211    247.94662  0.011211187 0.0097791079            2 
 1844000   0.52235438   -8.7908963    247.99515  0.011207301 0.0097708578            1 
 1845000   0.52520553    -8.792787    247.94571  0.011198993 0.0097626195            1 
 1846000   0.51778144   -8.7794135    247.99629   0.01119521 0.0097543814            1 
 1847000   0.51293948   -8.7873233    247.65913  0.011173936  0.009746159            2 
 1848000   0.51075127   -8.7878426    248.05703  0.011185833  0.009737941            2 
 1849000   0.50791833   -8.7738317    247.72665  0.011164893 0.0097297345            2 
 1850000   0.53108708   -8.7609191    247.77357  0.011160971 0.0097215248            3 
 1851000   0.51156579   -8.8088048    247.91581  0.011161346 0.0097133362            1 
 1852000   0.51151311   -8.7789974    248.03527  0.011160694 0.0097051348            1 
 1853000    0.5061065   -8.7743488     247.5927  0.011134768 0.0096969539            1 
 1854000   0.52028693   -8.7943132    247.91242  0.011143133 0.0096887795            1 
 1855000   0.51128275   -8.7936794    248.05975  0.011143744 0.0096806122            1 
 1856000   0.50537351   -8.7828649    247.71471  0.011122248 0.0096724546            2 
 1857000   0.50211907   -8.8008561    247.91456  0.011125227 0.0096643059            3 
 1858000   0.51064818   -8.7918815     247.9234  0.011119636 0.0096561683            2 
 1859000   0.51240528   -8.8096719    247.65545  0.011101643 0.0096480323            1 
 1860000   0.50931056   -8.8013451    247.98449  0.011110416    0.0096399            2 
 1861000   0.51104527   -8.8140537    247.37083  0.011076967 0.0096317793            2 
 1862000    0.5137104   -8.7899179    247.61651  0.011082014 0.0096236637            3 
 1863000   0.50905317    -8.784009    248.34141   0.01110849 0.0096155554            2 
 1864000   0.51718811   -8.7879662    247.87501   0.01108168 0.0096074672            1 
 1865000   0.50894081   -8.7982541    247.70419  0.011068105 0.0095993864            2 
 1866000   0.51158147   -8.8005092    247.33027  0.011045475 0.0095913114            3 
 1867000   0.50587761   -8.8075941    247.67395  0.011054899  0.009583242            2 
 1868000   0.49937919   -8.8128679    247.22536  0.011028968  0.009575184            2 
 1869000   0.51585468    -8.802397    247.59018  0.011039334 0.0095671296            3 
 1870000    0.4971629   -8.7985909    248.02736  0.011052912 0.0095590832            2 
 1871000   0.51595443   -8.7954926    247.40712   0.01101938 0.0095510495            1 
 1872000   0.51776556   -8.7950404    247.42602  0.011014335 0.0095430253            2 
 1873000   0.50828901   -8.8126726    247.35059  0.011005098 0.0095350071            2 
 1874000   0.51254213   -8.7844663    248.22063  0.011037915 0.0095270052            2 
 1875000   0.50896412   -8.8037812    247.36572  0.010994032 0.0095190092            2 
 1876000   0.50376759   -8.8051101    247.48449  0.010993447 0.0095110242            2 
 1877000   0.51407027   -8.8139883    247.57707  0.010991701 0.0095030402            2 
 1878000      0.49926   -8.8205506    247.49287  0.010982112 0.0094950612            3 
 1879000   0.49590538    -8.803618    247.61992  0.010981902  0.009487096            2 
 1880000   0.50589598   -8.8093373    247.87901  0.010987545 0.0094791361            2 
 1881000   0.50452698   -8.7833289    247.59937  0.010969314 0.0094711848            4 
 1882000   0.50830438   -8.8060167    247.73235  0.010969374 0.0094632553            5 
 1883000   0.50746511   -8.8008211    247.15008   0.01093778 0.0094553187            5 
 1884000   0.50866991   -8.8155697    247.56444  0.010950303 0.0094473918            1 
 1885000   0.49345182    -8.810821     248.1044  0.010968364 0.0094394822            3 
 1886000   0.49949203   -8.8240504    247.53502  0.010937391  0.009431566            2 
 1887000   0.50074295   -8.8081106    247.57973  0.010933569 0.0094236699            3 
 1888000   0.49390269   -8.8050619     248.2373  0.010956802 0.0094157793            2 
 1889000   0.50339716   -8.8204942    247.63128  0.010924267 0.0094078923            2 
 1890000   0.50418418   -8.8150504    247.46724  0.010911254 0.0094000107            2 
 1891000   0.48689241   -8.8123905    247.74606  0.010917771 0.0093921442            2 
 1892000   0.49672167   -8.8112258    247.47522  0.010900071 0.0093842824            4 
 1893000   0.48295897   -8.8239372    247.62733  0.010901009 0.0093764344            2 
 1894000   0.49597151   -8.8065333    247.44107  0.010887059 0.0093685951            1 
 1895000   0.50974383    -8.822104    247.56107   0.01088659 0.0093607611            4 
 1896000   0.48690694   -8.8063949    247.31337  0.010869962 0.0093529396            3 
 1897000   0.49777794   -8.8218079    247.62985  0.010878134 0.0093451214            4 
 1898000   0.50724764     -8.81031    247.54146  0.010868522 0.0093373097            3 
 1899000   0.50680622   -8.8326488    247.20779  0.010848156 0.0093295172            2 
 1900000   0.50751985   -8.8252012    247.33191  0.010847891 0.0093217233            1 
 1901000   0.49380635   -8.8096966    247.24619  0.010838427 0.0093139367            1 
 1902000   0.49496569   -8.8131777       247.64  0.010849982 0.0093061606            1 
 1903000   0.49677852   -8.8238465     247.5394  0.010839876 0.0092983875            1 
 1904000   0.50343318   -8.8128301     247.6754  0.010840135 0.0092906303            2 
 1905000   0.48843934   -8.8287195     247.4249  0.010823487 0.0092828809            2 
 1906000   0.49814363   -8.8156108    247.29924  0.010812314 0.0092751295            3 
 1907000   0.49795181   -8.8151834    247.18315  0.010801571 0.0092673851            2 
 1908000   0.48539656   -8.8209999    247.68003  0.010817611 0.0092596445            2 
 1909000   0.48682724   -8.8350566    247.46206   0.01080243 0.0092519157            1 
 1910000    0.4885536   -8.8183202     247.1768  0.010784328  0.009244199            1 
 1911000   0.49762451   -8.8256182    247.46513  0.010791258 0.0092364949            4 
 1912000   0.48744134   -8.8073431    247.23618  0.010775636 0.0092287981            3 
 1913000   0.48538766   -8.8358754     247.2987  0.010772726 0.0092211141            1 
 1914000    0.4860626   -8.8297172     247.4352  0.010773041 0.0092134287            1 
 1915000   0.49134569   -8.8196996    247.50776  0.010770573 0.0092057576            1 
 1916000   0.49329118   -8.8178359    247.56113  0.010767273 0.0091980872            1 
 1917000   0.48268494   -8.8334606    247.16863  0.010744593 0.0091904314            1 
 1918000   0.49206701   -8.8336049    247.38234  0.010748277 0.0091827869            1 
 1919000   0.48912396   -8.8427972    247.18839  0.010734253 0.0091751486            1 
 1920000   0.49253636   -8.8349673    247.55456  0.010744556 0.0091675223            2 
 1921000    0.4911333   -8.8327053    247.03905    0.0107166 0.0091598942            1 
 1922000   0.48118033   -8.8085214    246.77112  0.010699407 0.0091522767            2 
 1923000   0.49143126   -8.8471149    247.33135  0.010718121 0.0091446649            3 
 1924000   0.47655176    -8.831416    247.18239  0.010706098 0.0091370597            2 
 1925000   0.48420735   -8.8509663    247.41895  0.010710777  0.009129467            3 
 1926000   0.48701386   -8.8388434    247.20558  0.010695984 0.0091218781            1 
 1927000   0.48017215   -8.8385528    247.59473  0.010707262 0.0091142943            4 
 1928000   0.49192861   -8.8481362    247.48594  0.010697007  0.009106726            2 
 1929000   0.48351943   -8.8249433    247.14296  0.010676644 0.0090991674            2 
 1930000   0.50047266   -8.8506471    247.38087  0.010681385 0.0090916133            1 
 1931000   0.48723604   -8.8366061    247.29551  0.010672169 0.0090840564            1 
 1932000   0.48070436   -8.8405875    247.34116  0.010668614 0.0090765064            2 
 1933000   0.49658141   -8.8436903    247.21482  0.010657649  0.009068965            6 
 1934000   0.47180489   -8.8519018    246.80293   0.01063439  0.009061428            2 
 1935000   0.48246325   -8.8342427    247.19948  0.010645973 0.0090539052            3 
 1936000    0.4775101   -8.8483677    247.10046  0.010636211 0.0090463902            3 
 1937000   0.47618929   -8.8335247    247.59011  0.010651786 0.0090388787            4 
 1938000   0.48676098   -8.8605025    247.02816  0.010622126 0.0090313745            3 
 1939000   0.48353258   -8.8559051    247.16732  0.010622629 0.0090238768            4 
 1940000   0.47457564   -8.8462885    247.38243  0.010626393 0.0090163868            2 
 1941000   0.47468806   -8.8474615    247.04543   0.01060645 0.0090089023            1 
 1942000   0.47581439   -8.8429998    246.99285  0.010598732 0.0090014299            3 
 1943000   0.47680987   -8.8489449    246.71368  0.010581304 0.0089939735            2 
 1944000   0.47982359   -8.8663786    246.58517  0.010570352 0.0089865192            2 
 1945000   0.48215992   -8.8410739    247.11463  0.010587602 0.0089790653            3 
 1946000   0.47093064   -8.8473819    247.11574  0.010582209 0.0089716277            2 
 1947000   0.47260805   -8.8538758    247.28997  0.010584231 0.0089641983            2 
 1948000   0.47053305   -8.8452447    246.85725  0.010560286 0.0089567694            6 
 1949000   0.47113447   -8.8562613    246.94465  0.010558605 0.0089493547            3 
 1950000   0.46649734   -8.8498322    247.08884  0.010559352 0.0089419401            2 
 1951000   0.46731539   -8.8545022    246.95185  0.010548089 0.0089345386            2 
 1952000   0.47283108   -8.8589188    247.12209  0.010549953 0.0089271515            3 
 1953000   0.46432771   -8.8559006    246.76603  0.010529358 0.0089197644            2 
 1954000    0.4664135   -8.8413529    247.23216  0.010543848 0.0089123847            5 
 1955000   0.46828354   -8.8452336    247.25811  0.010539561 0.0089050094            2 
 1956000   0.46701907   -8.8616396    246.82156  0.010515574  0.008897652            2 
 1957000   0.46400283   -8.8747926    247.25551  0.010528679 0.0088902927            2 
 1958000   0.46620781   -8.8615161    246.73064  0.010500963 0.0088829436            2 
 1959000   0.46857805    -8.872788    246.62355  0.010491048 0.0088756029            2 
 1960000   0.46621279   -8.8670115    247.27644  0.010513454 0.0088682667            2 
 1961000   0.47682168   -8.8761118      247.018   0.01049711 0.0088609423            2 
 1962000   0.46918084   -8.8692724    247.13804  0.010496859 0.0088536268            3 
 1963000   0.46664912   -8.8604902    247.17339  0.010493012 0.0088463133            2 
 1964000   0.46539308   -8.8608488    246.56468  0.010461842 0.0088390109            2 
 1965000   0.47075259   -8.8757845    246.84395  0.010468361 0.0088317182            1 
 1966000   0.47540169   -8.8541687    247.35484  0.010484691 0.0088244358            3 
 1967000   0.46662195   -8.8826341    247.34381  0.010478894 0.0088171595            2 
 1968000   0.45976446    -8.883426    246.79193    0.0104502 0.0088098902            2 
 1969000   0.47014016   -8.8657725    246.98347  0.010452999 0.0088026262            2 
 1970000   0.45958554   -8.8561225    247.11318   0.01045318 0.0087953717            1 
 1971000   0.47006307   -8.8604162    247.01506  0.010443728 0.0087881244            3 
 1972000   0.47198043   -8.8856334     246.9467  0.010435543 0.0087808886            1 
 1973000   0.45584208   -8.8676588    246.76344  0.010422514 0.0087736548            2 
 1974000   0.47264011   -8.8505956    246.54476  0.010408002 0.0087664265            5 
 1975000   0.46685258   -8.8845238    246.85101  0.010415655 0.0087592065            1 
 1976000   0.46867542   -8.8749976    246.80234  0.010408331 0.0087519861            2 
 1977000   0.46786441   -8.8662204    246.91388  0.010407768 0.0087447839            4 
 1978000   0.46820952   -8.8673371    247.02294    0.0104071 0.0087375888            1 
 1979000   0.46404351   -8.8678269    246.56398  0.010382516 0.0087303984            2 
 1980000   0.46091007   -8.8654199    246.48718  0.010374039 0.0087232195            3 
 1981000    0.4581871   -8.8568588    246.61822  0.010374315 0.0087160473            2 
 1982000   0.46660187   -8.8681459    246.92672  0.010382052 0.0087088869            6 
 1983000   0.45518837   -8.8705637    247.00501  0.010380106 0.0087017345            3 
 1984000   0.45673721   -8.8765433    246.81364  0.010366836 0.0086945854            4 
 1985000   0.45257066   -8.8654871     246.7709  0.010359819 0.0086874414            6 
 1986000   0.45666333   -8.8869506    246.94943  0.010362094 0.0086803091            3 
 1987000   0.45104103   -8.8752686    246.66815  0.010345083 0.0086731802            2 
 1988000   0.45540745   -8.8798066    246.84744  0.010347394 0.0086660494            2 
 1989000   0.44954478   -8.8618609    246.67067  0.010334786 0.0086589387            4 
 1990000   0.44698585   -8.8954383    246.75937  0.010333307 0.0086518275            1 
 1991000   0.44783592   -8.8836741    246.50484  0.010317463 0.0086447345            4 
 1992000   0.45700665   -8.8818563    246.49604  0.010311916 0.0086376415            5 
 1993000   0.45511808   -8.8758067    246.90245  0.010323735 0.0086305633            1 
 1994000   0.45619143   -8.8862762     246.5705  0.010304685 0.0086234891            1 
 1995000   0.45232715   -8.9023174    246.76967  0.010307839 0.0086164164            5 
 1996000   0.45112345   -8.8766882    247.09681  0.010316333 0.0086093504            1 
 1997000   0.45405604     -8.87766    246.63079  0.010291721 0.0086023001            4 
 1998000   0.45386843     -8.88906    246.59259  0.010284976 0.0085952569            6 
 1999000   0.45193557   -8.8829416    246.47459  0.010274912 0.0085882167            3 
 2000000    0.4554042   -8.8939298    246.65223  0.010277176 0.0085811865            7 
 2001000   0.44687055   -8.8678388    246.79684  0.010278062  0.008574153            3 
 2002000   0.45119939   -8.8930494    246.23921  0.010249717 0.0085671292            3 
 2003000   0.45769106   -8.8696166    246.88917  0.010271641 0.0085601137            5 
 2004000   0.45005588   -8.9022121    247.06069  0.010273648 0.0085531066            4 
 2005000   0.44722831   -8.8762917    246.50335   0.01024536 0.0085461011            2 
 2006000   0.44710174   -8.8908983    246.77711  0.010251625 0.0085391041            5 
 2007000   0.45212111   -8.8812305    246.65594  0.010241486 0.0085321235            6 
 2008000   0.45942448   -8.8880405    246.77238  0.010241218 0.0085251443            4 
 2009000   0.45403008   -8.8827076    246.54831  0.010226825 0.0085181775            4 
 2010000   0.44311293   -8.8809168    246.10125  0.010203203 0.0085112155            5 
 2011000   0.44512716   -8.8891209    246.72924  0.010224152  0.008504264            7 
 2012000   0.45144247   -8.8872724    246.37265  0.010204301 0.0084973269            5 
Loop time of 4849.14 on 48 procs for 2000000 steps with 4000 atoms

Performance: 71270.342 tau/day, 412.444 timesteps/s
99.4% CPU use with 48 MPI tasks x no OpenMP threads

MPI task timing breakdown:
Section |  min time  |  avg time  |  max time  |%varavg| %total
---------------------------------------------------------------
Pair    | 309.91     | 343.7      | 362.75     |  49.5 |  7.09
Neigh   | 32.237     | 33.364     | 34.543     |  10.3 |  0.69
Comm    | 313.83     | 331.88     | 365.19     |  53.2 |  6.84
Output  | 4.1142     | 4.1161     | 4.1484     |   0.2 |  0.08
Modify  | 4084.3     | 4092       | 4101.3     |   6.7 | 84.39
Other   |            | 44.1       |            |       |  0.91

Nlocal:        83.3333 ave          91 max          76 min
Histogram: 3 2 4 3 12 7 11 1 4 1
Nghost:        2141.44 ave        2163 max        2121 min
Histogram: 3 4 4 6 8 6 7 4 4 2
Neighs:        14110.8 ave       15730 max       12421 min
Histogram: 1 0 5 10 11 4 9 3 4 1
FullNghs:      28221.5 ave       30567 max       25413 min
Histogram: 2 3 3 3 6 9 11 5 4 2

Total # of neighbors = 1354630
Ave neighs/atom = 338.65750
Neighbor list builds = 106911
Dangerous builds = 0

#clear
#
#next RN
#
#jump SELF
Total wall time: 1:20:52
