
units lj                  # Use reduced LJ style units
atom_style atomic         # Uncharged point particles
atom_modify map hash      # Needed for indexing of clusters etc
                          # Used to be able to find where atoms are in relation to each other.

lattice fcc 1.0 spacing 1 1 1
Lattice spacing in x,y,z = 1.5874011 1.5874011 1.5874011
region box block 0 10 0 10 0 10 units lattice
create_box 2 box
Created orthogonal box = (0.0000000 0.0000000 0.0000000) to (15.874011 15.874011 15.874011)
  3 by 4 by 4 MPI processor grid
create_atoms 1 box
Created 4000 atoms
  using lattice units in orthogonal box = (0.0000000 0.0000000 0.0000000) to (15.874011 15.874011 15.874011)
  create_atoms CPU = 0.002 seconds
set type 1 type/fraction 2 0.77 78393
Setting atom values ...
  3073 settings made for type/fraction
mass 1 1.0
mass 2 1.0
pair_style lj/cut  3.5
pair_modify tail  yes
pair_coeff 1  1  1.0  1.0   # Intearaction between 1 and 1 set with epsilon = 1 and sigma = 1
pair_coeff 1  2  1.5  0.8
pair_coeff 2  2  0.5  0.88

write_data data.0
System init for write_data ...
Neighbor list info ...
  update every 1 steps, delay 10 steps, check yes
  max neighbors/atom: 2000, page size: 100000
  master list distance cutoff = 3.8
  ghost atom cutoff = 3.8
  binsize = 1.9, bins = 9 9 9
  1 neighbor lists, perpetual/occasional/extra = 1 0 0
  (1) pair lj/cut, perpetual
      attributes: half, newton on
      pair build: half/bin/atomonly/newton
      stencil: half/bin/3d
      bin: standard
WARNING: Not all mixed pair coeffs generated from mixing. Use write_data with 'pair ij' option to store all pair coeffs. (../write_data.cpp:312)


#############################
#   M E L T   S Y S T E M   #
#############################

velocity all create 2.4 6229865 mom yes dist gaussian # Assign velocities
                                                    # Temperature 2.4, random number seed, zero linear momentum
                                                                                # Gaussian distribution

timestep 0.002   # simulation timestep
thermo 1000       # output thermodynamic data every 1000 steps bf 100

# Define a fix  in this case with index 1 applied to all
# particles in the simulation. This fix is for simulations
# in the anisotropic NPT ensemble. Note that we use the MTK
# correction.
fix 1 all npt temp 2.4 2.4 0.1 iso 5.68 5.68 0.5 mtk yes tchain 5 pchain 5 # Use NPT ensemble
                                                                         # Set temperature and pressure and damping
                                                                         # Numbers of thermostats in chain and in barostat
run 10000          # run for 10000 steps
Per MPI rank memory allocation (min/avg/max) = 3.642 | 3.644 | 3.648 Mbytes
Step Temp E_pair E_mol TotEng Press Volume 
       0          2.4   -3.8453673            0  -0.24626728   -3.4249601         4000 
    1000    2.4305732   -3.3309837            0   0.31396461    5.8379675    3698.8217 
    2000    2.3920186   -3.2661292            0   0.32100165    5.5794814    3762.7415 
    3000    2.3880417   -3.3755026            0   0.20566447    5.6293664    3695.0996 
    4000    2.3774035   -3.3312146            0   0.23399915    5.3013677    3744.8769 
    5000    2.4135853   -3.2878127            0   0.33166012    5.6274122    3761.7467 
    6000    2.3952052   -3.3284521            0   0.26345738    5.4548203    3753.7124 
    7000    2.4080272   -3.2948175            0   0.31632021    5.6001593    3761.4775 
    8000    2.4057566   -3.2953332            0    0.3123996    5.5484106    3756.9404 
    9000    2.4345589   -3.3180919            0   0.33283349    5.6896065    3734.3327 
   10000    2.3793172   -3.2983249            0   0.26975875    5.4440716     3755.874 
Loop time of 2.61503 on 48 procs for 10000 steps with 4000 atoms

Performance: 660794.772 tau/day, 3824.044 timesteps/s
99.6% CPU use with 48 MPI tasks x no OpenMP threads

MPI task timing breakdown:
Section |  min time  |  avg time  |  max time  |%varavg| %total
---------------------------------------------------------------
Pair    | 1.1858     | 1.2394     | 1.3434     |   2.8 | 47.40
Neigh   | 0.21581    | 0.223      | 0.23962    |   1.0 |  8.53
Comm    | 0.75742    | 0.88653    | 0.9485     |   3.6 | 33.90
Output  | 0.00025313 | 0.00025922 | 0.00032245 |   0.0 |  0.01
Modify  | 0.22036    | 0.25008    | 0.27616    |   3.1 |  9.56
Other   |            | 0.01575    |            |       |  0.60

Nlocal:        83.3333 ave          92 max          75 min
Histogram: 3 3 6 3 7 10 6 7 1 2
Nghost:        1715.92 ave        1735 max        1698 min
Histogram: 3 3 6 7 10 3 5 3 4 4
Neighs:        10160.2 ave       11570 max        8999 min
Histogram: 4 4 2 9 9 9 7 2 0 2

Total # of neighbors = 487690
Ave neighs/atom = 121.92250
Neighbor list builds = 904
Dangerous builds = 176

# Equilibrate just above the melting temperature to avoid step fn in T

fix 1 all npt temp 1.25 1.25 0.1 iso 5.68 5.68 0.5 mtk yes tchain 5 pchain 5
run 2000
Per MPI rank memory allocation (min/avg/max) = 3.644 | 3.646 | 3.649 Mbytes
Step Temp E_pair E_mol TotEng Press Volume 
   10000    2.3793172   -3.2983249            0   0.26975875    5.4440716     3755.874 
   11000    1.2717163   -4.8690684            0   -2.9619708    5.7696521    2857.2559 
   12000    1.2419744   -4.8981035            0   -3.0356077    5.6131265     2857.751 
Loop time of 0.645197 on 48 procs for 2000 steps with 4000 atoms

Performance: 535650.697 tau/day, 3099.830 timesteps/s
99.6% CPU use with 48 MPI tasks x no OpenMP threads

MPI task timing breakdown:
Section |  min time  |  avg time  |  max time  |%varavg| %total
---------------------------------------------------------------
Pair    | 0.28872    | 0.31852    | 0.33988    |   2.0 | 49.37
Neigh   | 0.042213   | 0.04443    | 0.046123   |   0.5 |  6.89
Comm    | 0.21171    | 0.23216    | 0.266      |   2.5 | 35.98
Output  | 5.1639e-05 | 5.5082e-05 | 7.1351e-05 |   0.0 |  0.01
Modify  | 0.042358   | 0.045142   | 0.04805    |   0.9 |  7.00
Other   |            | 0.00489    |            |       |  0.76

Nlocal:        83.3333 ave          94 max          77 min
Histogram: 3 8 9 7 10 6 2 1 1 1
Nghost:        2063.92 ave        2081 max        2042 min
Histogram: 2 0 4 1 9 13 7 7 3 2
Neighs:        13355.5 ave       15459 max       11750 min
Histogram: 1 6 9 5 9 8 6 3 0 1

Total # of neighbors = 641065
Ave neighs/atom = 160.26625
Neighbor list builds = 145
Dangerous builds = 14

#############################
# L I N E A R  Q U E N C H  #
#############################

# Define solid atoms. This closely follows ten Wolde  Ruiz-Montero and Frenkel  Faraday Discuss  1996  104  93-110
# Compute components of the per-atom q6 vector
compute q6 all orientorder/atom degrees 1 6 components 6 nnn NULL cutoff 1.3 # compute the Q6 parameter.
                                                                             # Use all neighbours within 1.3 unit cell.

# get number of connections
compute coord_number all coord/atom orientorder q6 0.5

# An atom is solid if it has 8 or more connections (of a possible 14)
variable is_solid atom c_coord_number>=8
group solid dynamic all var is_solid    # Must be dynamic to update
dynamic group solid defined

# do clustering
compute cluster solid cluster/atom 1.3 # Create a cluster where all atoms within are solid and max 1.3 units from another member

# define chunks one chunk per cluster
compute clus_chunks solid chunk/atom c_cluster nchunk every compress yes  # Says which atoms are in which chunk

# count the size of each chunk
compute size_chunks solid property/chunk clus_chunks count


# Find the maximum entry in the vector of chunk sizes
variable max_n equal max(c_size_chunks)


# Thermo style which includes this variable
# thermo_style custom step temp pe vol v_max_n

thermo ${N}  # Print the thermo information every 100 steps
thermo 1000  

# Reset the npt fix at a lower temperature (below freezing)
fix 1  all npt temp  ${temp} ${temp}  0.1  iso  5.68  5.68  0.5  mtk yes tchain  5  pchain  5
fix 1  all npt temp  0.45 ${temp}  0.1  iso  5.68  5.68  0.5  mtk yes tchain  5  pchain  5
fix 1  all npt temp  0.45 0.45  0.1  iso  5.68  5.68  0.5  mtk yes tchain  5  pchain  5

dump dmp2 all dcd ${N} traj.dcd
dump dmp2 all dcd 1000 traj.dcd


compute msd all msd com yes
variable twopoint equal c_msd[4]/6/(step*dt+1.0e-6)
fix 9 all vector 10 c_msd[4]
variable fit equal slope(f_9)/6/(10*dt)
thermo_style custom step temp pe c_msd[4] v_twopoint v_fit v_max_n

fix 1 all npt temp 1.25 ${temp} 0.1 iso 5.68 5.68 0.5 mtk yes tchain 5 pchain 5
fix 1 all npt temp 1.25 0.45 0.1 iso 5.68 5.68 0.5 mtk yes tchain 5 pchain 5
run 500000 # 5000000  # Run for this many steps
Neighbor list info ...
  update every 1 steps, delay 10 steps, check yes
  max neighbors/atom: 2000, page size: 100000
  master list distance cutoff = 3.8
  ghost atom cutoff = 3.8
  binsize = 1.9, bins = 8 8 8
  4 neighbor lists, perpetual/occasional/extra = 1 3 0
  (1) pair lj/cut, perpetual
      attributes: half, newton on
      pair build: half/bin/atomonly/newton
      stencil: half/bin/3d
      bin: standard
  (2) compute orientorder/atom, occasional
      attributes: full, newton on
      pair build: full/bin/atomonly
      stencil: full/bin/3d
      bin: standard
  (3) compute coord/atom, occasional
      attributes: full, newton on
      pair build: full/bin/atomonly
      stencil: full/bin/3d
      bin: standard
  (4) compute cluster/atom, occasional
      attributes: full, newton on
      pair build: full/bin/atomonly
      stencil: full/bin/3d
      bin: standard
Per MPI rank memory allocation (min/avg/max) = 9.841 | 9.845 | 9.848 Mbytes
Step Temp PotEng c_msd[4] v_twopoint v_fit v_max_n 
   12000    1.2419744   -4.8981035 2.9745973e-30 2.0656925e-32 8.3333333e+20            2 
   13000    1.2439783   -4.8751462   0.73513188 0.0047123837  0.061250537            1 
   14000    1.2372505   -4.9082556    1.5027248 0.0089447899  0.062961788            1 
   15000    1.2439922   -4.8880939    2.2570868  0.012539371  0.062566501            2 
   16000    1.2396162    -4.928417    3.0649667  0.015963368  0.063376377            3 
   17000    1.2342188   -4.9247912    3.8409885  0.018828375  0.064287545            2 
   18000    1.2317437   -4.9246841    4.5780174  0.021194524   0.06446057            2 
   19000    1.2181525   -4.8802222    5.4118053  0.023735988  0.064570608            3 
   20000    1.2192572   -4.9139031    6.2035373  0.025848072  0.064815797            2 
   21000    1.2425523   -4.9171622     6.976999  0.027686503  0.064921744            2 
   22000    1.2152798   -4.9080646    7.6983722    0.0291605  0.065016362            1 
   23000    1.2423087   -4.9404236     8.429737  0.030542525  0.064745841            5 
   24000    1.2488826   -4.9134616    9.0808894  0.031530865  0.064266512            2 
   25000    1.2453395   -4.9580517    9.8098946  0.032699648  0.063814207            3 
   26000    1.2273566   -4.9174693    10.452104  0.033500332  0.063287447            3 
   27000    1.2476142   -4.9381885    11.018907  0.034008972  0.062708627            2 
   28000    1.1930775   -4.8973241    11.598704  0.034519952  0.062033488            2 
   29000     1.231274    -4.914571    12.416635  0.035679986   0.06143262            3 
   30000    1.2058804   -4.9053386    13.025275   0.03618132  0.060893514            2 
   31000    1.2262037   -4.9453952    13.793209  0.037078518  0.060462366            3 
   32000    1.2007699    -4.931927    14.400479  0.037501246  0.060089018            1 
   33000    1.2191034   -4.9232422    15.107393  0.038149983  0.059778431            2 
   34000       1.2011   -4.9474741    15.838444  0.038819715  0.059524066            6 
   35000    1.2087583   -4.9530933    16.572442  0.039458195  0.059412314            3 
   36000    1.2204758    -4.938767    17.442672  0.040376556  0.059396208            2 
   37000    1.1990535   -4.9380339    18.100389  0.040766641  0.059420447            3 
   38000    1.2125953   -4.9314295    18.586832  0.040760596  0.059322148            2 
   39000    1.2010648   -4.9139478    19.221391  0.041071348  0.059155842            3 
   40000    1.2131192   -4.9558714    19.878233  0.041412986  0.058965136            2 
   41000    1.1874475   -4.9522612    20.468605  0.041602855  0.058736881            4 
   42000    1.2038202   -4.9418371    21.298944  0.042259809  0.058560741            2 
   43000    1.2102749   -4.9898363    21.954411  0.042547308  0.058452037            8 
   44000    1.1837278    -5.011065    22.461182  0.042540116  0.058352369            3 
   45000     1.200811   -5.0305141    23.043277  0.042672734  0.058164178            2 
   46000    1.1937095   -5.0094509    23.628715  0.042805642  0.057946457            1 
   47000    1.2083714   -5.0024037    24.363125  0.043197029  0.057779475            3 
   48000    1.1783896   -4.9429997    24.855931  0.043152657  0.057579727            3 
   49000    1.1822095   -4.9336572    25.571599  0.043489114  0.057379228            2 
   50000    1.2179222   -5.0319703    26.052394  0.043420657  0.057186766            1 
   51000    1.1664257   -4.9907467     26.82104  0.043825229  0.057002954            2 
   52000    1.1732652   -4.9937805    27.305552  0.043758897  0.056829211            5 
   53000    1.1777091   -5.0275051    27.982539  0.043997702  0.056667031            3 
   54000    1.1804919   -4.9672829    28.793241  0.044434013   0.05653233            3 
   55000    1.1752741   -5.0024519    29.334012  0.044445473  0.056418532            3 
   56000    1.1873473   -4.9862793    30.151992  0.044869035  0.056309922            2 
   57000    1.1855565   -5.0014456    30.549015  0.044662303  0.056203724            2 
   58000    1.1766125    -5.005579    31.231403  0.044872705  0.056083305            2 
   59000    1.1679184   -5.0101929    31.896905  0.045052125  0.055968851            2 
   60000    1.1555331   -4.9939002    32.605073  0.045284824  0.055874468            6 
   61000    1.1815116   -5.0254627    33.254847  0.045430119  0.055788203            2 
   62000    1.1716871   -5.0327267    33.932031  0.045607568  0.055712378            4 
   63000    1.1631982   -5.0007967    34.486037  0.045616451  0.055632872            2 
   64000    1.1522953   -5.0485882    35.022553  0.045602283  0.055541341            3 
   65000    1.1647215   -5.0300924    35.838815  0.045947198  0.055460493            1 
   66000    1.1641775   -5.0209861    36.539798  0.046136109  0.055398775            1 
   67000    1.1488903   -5.0178661    37.078548  0.046117597  0.055346359            3 
   68000    1.1346445    -5.013431    37.626168    0.0461105   0.05527118            3 
   69000    1.1428754   -5.0275326    38.338531  0.046302573     0.055214            2 
   70000    1.1450764   -5.0298964    38.998833  0.046427182  0.055156766            5 
   71000    1.1592904    -5.071447    39.506261   0.04636885  0.055105894            3 
   72000    1.1422377   -5.0591682    40.223474  0.046554946  0.055048629            4 
   73000    1.1324258   -5.0719321     40.62983  0.046381084  0.054979491            2 
   74000    1.1550002   -5.0639814    41.304589  0.046514176   0.05490292            3 
   75000    1.1488881   -5.0784958    41.734964  0.046372182  0.054819565            6 
   76000    1.1343526   -5.0893602    42.137854  0.046203787  0.054722897            2 
   77000    1.1539668   -5.0860256    42.680401   0.04619091  0.054595308            2 
   78000    1.1422864   -5.0775675    43.229963  0.046185857  0.054482657            3 
   79000    1.1559886   -5.0684066    44.031769  0.046447014  0.054377506            5 
   80000    1.1109197   -5.0897447    44.768864  0.046634233  0.054290505            2 
   81000    1.1156156   -5.0859561    45.284512  0.046589004  0.054204439            4 
   82000    1.1196977   -5.0970264     45.70024  0.046443333  0.054108047            2 
   83000    1.0976153    -5.114076      46.2051  0.046390663  0.054014889            1 
   84000    1.1292315   -5.0987892    46.880364  0.046508297  0.053924817            2 
   85000    1.1349143   -5.0934262    47.352789  0.046424302  0.053821476            2 
   86000    1.1087972   -5.1149139    47.932795  0.046446506  0.053713554            3 
   87000    1.1290268   -5.1208059    48.174364  0.046144026  0.053603382            2 
   88000    1.1176699   -5.1004833     48.85791   0.04626696  0.053496223            1 
   89000    1.1536385   -5.1362438    49.506888  0.046354764  0.053379871            4 
   90000    1.1426918   -5.1493686    49.942732   0.04624327  0.053269164            2 
   91000    1.1279003   -5.1058151    50.854001  0.046569598  0.053161797            3 
   92000    1.1350494    -5.123027    51.349089  0.046511856  0.053081224            2 
   93000    1.1198158   -5.1054222     52.08521  0.046671335  0.053005009            2 
   94000    1.0995623   -5.1425693    52.512912  0.046553999  0.052936485            2 
   95000    1.1190387   -5.1691108    53.168785  0.046639285  0.052865739            3 
   96000    1.1264609   -5.1393637      53.8471  0.046742274  0.052793885            1 
   97000    1.0718159   -5.1311341    54.362673  0.046703327  0.052716455            2 
   98000    1.1301059   -5.1625729    54.752331  0.046558104  0.052637251            3 
   99000    1.1189451   -5.1430549    55.453734  0.046678227  0.052549902            3 
  100000    1.1180566   -5.1316253    55.964239  0.046636866  0.052466691            2 
  101000    1.1110501   -5.1474193    56.463152  0.046586759  0.052389572            3 
  102000    1.1017118   -5.1742811    56.903941  0.046490148   0.05230017            2 
  103000    1.1079684   -5.1484592    57.552733    0.0465637  0.052218666            3 
  104000    1.1291243   -5.1377905     57.93194  0.046419823  0.052126934            3 
  105000    1.0870404   -5.1876887    58.614031  0.046519072  0.052038728            1 
  106000     1.094138   -5.1683165    58.954905  0.046348195  0.051953915            3 
  107000    1.0796787   -5.2298794    59.587976  0.046408081  0.051867673            6 
  108000    1.0941951   -5.1674638    60.008956  0.046303207  0.051780147            2 
  109000     1.081576   -5.1412435    60.252159  0.046064342  0.051686824            3 
  110000    1.0918007   -5.2122122     60.53532  0.045860091  0.051585129            4 
  111000    1.0928107    -5.204511    60.970909  0.045773955  0.051481318            3 
  112000    1.1014862   -5.1662086    61.995437  0.046127557  0.051384376            4 
  113000     1.105468   -5.1884138    62.323422  0.045961226  0.051289627            2 
  114000      1.08914   -5.1888627    63.268702  0.046249051  0.051198904            3 
  115000    1.0790424   -5.2000018    63.616632  0.046099008  0.051115888            4 
  116000    1.0930566   -5.2244798    64.140528  0.046077965  0.051037607            4 
  117000    1.0766813    -5.191879     65.05629  0.046336389  0.050966602            1 
  118000    1.0960377    -5.198641    65.221317  0.046060252  0.050888353            3 
  119000    1.0839396   -5.2014326    65.453524  0.045835801  0.050798735            2 
  120000    1.0850789   -5.2166363    66.477717  0.046165081   0.05070931            2 
  121000    1.0804405   -5.1940395    66.812376  0.046014033  0.050622984            3 
  122000    1.0714938   -5.2050613    67.239007  0.045928283  0.050534282            2 
  123000    1.0783745   -5.2110877    67.748339  0.045899959  0.050449134            5 
  124000    1.0786872   -5.2252487    68.021532  0.045713395  0.050364084            3 
  125000    1.0646056   -5.2041996    68.455633  0.045637088  0.050270677            3 
  126000    1.0944136   -5.2360792    68.743514  0.045465287  0.050177363            3 
  127000    1.0575827   -5.2488175    69.196725  0.045404675  0.050079006            1 
  128000    1.0580032   -5.2196689    69.852368  0.045476802  0.049976955            3 
  129000    1.0500171   -5.2147961    70.394752  0.045474646  0.049878766            3 
  130000    1.0755906   -5.2517515    70.830786   0.04540435  0.049786588            6 
  131000    1.0323889   -5.2650148    70.931121  0.045121578  0.049686543            4 
  132000    1.0554619   -5.2794688    71.466868  0.045117972   0.04958877            2 
  133000    1.0638296   -5.2772497    71.661244  0.044900529  0.049485779            2 
  134000    1.0529476   -5.2579793    72.208474  0.044905767  0.049381413            5 
  135000    1.0597021   -5.2591676    72.722793  0.044890612   0.04927674            5 
  136000    1.0432643   -5.3034009    72.980055  0.044718171  0.049172481            2 
  137000    1.0546778   -5.2751629    73.624196  0.044783574  0.049068072            3 
  138000    1.0328903   -5.2747873    73.711598  0.044511834  0.048966438            3 
  139000    1.0617306    -5.308712    74.404157  0.044606809   0.04885929            5 
  140000    1.0474045   -5.2664747    74.622999  0.044418452  0.048753306            4 
  141000     1.047675   -5.2848536    75.151893  0.044416012  0.048647004            5 
  142000    1.0254079    -5.282066    75.633458  0.044385832   0.04854122            3 
  143000    1.0477066   -5.3024164     76.01111  0.044295518  0.048436517            3 
  144000    1.0179531   -5.2851497    76.450016  0.044241907  0.048334149            2 
  145000    1.0381077   -5.2619812    77.447257  0.044509918  0.048234994            5 
  146000    1.0568242   -5.2782899    77.428302  0.044194236  0.048133576            5 
  147000    1.0443711   -5.3213905     77.41871  0.043888158  0.048028643            4 
  148000    1.0456678   -5.3142085    78.044108  0.043943754  0.047922935            1 
  149000    1.0572424   -5.3171885    78.222273  0.043748474  0.047813673            5 
  150000    1.0540882    -5.293004    78.723325   0.04373518  0.047707149            4 
  151000    1.0220879   -5.3113779     79.15285  0.043682588  0.047596128            3 
  152000    1.0350829   -5.2917405    79.627511  0.043655433  0.047483144            3 
  153000    1.0337615   -5.3068697    79.980121  0.043562157  0.047376411            1 
  154000    1.0423302   -5.3321868    80.289165  0.043446518  0.047268352            3 
  155000    1.0130277   -5.3397702    80.454337   0.04325502   0.04716075            4 
  156000    0.9939286   -5.3457968    80.695599  0.043106623  0.047049162            4 
  157000    1.0229558   -5.3380192    81.283526  0.043144122  0.046941862            2 
  158000   0.99219459   -5.3409409    82.024961   0.04326211  0.046836136            2 
  159000     1.032715    -5.351252     82.25034  0.043108145  0.046733179            2 
  160000    1.0143015   -5.3487864    82.867074  0.043159934  0.046629912            2 
  161000   0.98208033   -5.3737332    83.232731  0.043081124  0.046530079            4 
  162000    1.0136446   -5.3653573    83.715737  0.043063651  0.046432086            6 
  163000    1.0174676   -5.3413638    84.285926  0.043090964  0.046331955            3 
  164000    1.0169929   -5.3405487    84.575564  0.042975388  0.046234322            4 
  165000   0.99585692    -5.331964    85.306521  0.043084101  0.046137804            4 
  166000   0.98312102   -5.3674083    85.507666  0.042925535  0.046044801            4 
  167000    1.0133773   -5.3619278    85.979229  0.042903807  0.045950694            3 
  168000   0.99564181   -5.3668003    86.222254  0.042768975   0.04585913            3 
  169000   0.98138481   -5.3563812    86.961037  0.042880196  0.045767125            3 
  170000   0.98010579   -5.3947377    86.936222  0.042615795  0.045678756            2 
  171000    1.0058237   -5.3841241    87.618085  0.042698872  0.045587589            4 
  172000    1.0102569   -5.4032432    87.833694  0.042555084  0.045499998            6 
  173000    1.0123681   -5.3674981    88.716744  0.042734462   0.04541663            4 
  174000   0.97732107   -5.4039638    89.320437  0.042777987  0.045337161            2 
  175000   0.99468628   -5.4120778     89.70677  0.042717509  0.045256535            6 
  176000    1.0013312   -5.4594379    89.686027  0.042464975  0.045176152            3 
  177000   0.99988464   -5.4266424    90.370838  0.042547476  0.045091085            2 
  178000   0.99557159   -5.4040962    90.579515   0.04240614  0.045007023            2 
  179000   0.97123195   -5.4037369     90.97527  0.042353478  0.044924904            4 
  180000   0.99033766   -5.4059022    91.333645  0.042284095  0.044839783            2 
  181000   0.97784723    -5.428221    91.354239  0.042059963  0.044750351            4 
  182000   0.99411667   -5.4290069    91.824699  0.042044276  0.044661491            3 
  183000   0.97475414    -5.400864    92.317941  0.042039135  0.044572867            3 
  184000   0.98083105   -5.4152485    92.411901  0.041853216  0.044483814            3 
  185000   0.98001421   -5.4347459      92.1816  0.041523243  0.044391999            2 
  186000   0.98434931   -5.4323189    92.648205  0.041509052  0.044299675            4 
  187000   0.96785619   -5.4264888    92.909379  0.041403467  0.044203277            5 
  188000   0.95959271   -5.4313969    93.540557  0.041463013  0.044107514            2 
  189000   0.97979818   -5.4237649    93.399866  0.041181599  0.044008865            3 
  190000   0.98640601   -5.4655023    93.788649  0.041135372  0.043912816            5 
  191000   0.97138263   -5.4928674    94.151145  0.041078161  0.043816254            7 
  192000   0.97756498   -5.4462137    94.749356  0.041123852  0.043720431            4 
  193000   0.98706047   -5.4352425    95.009129   0.04102294  0.043626536            4 
  194000   0.96709952   -5.4474183    95.144941   0.04086982   0.04353136            2 
  195000   0.95872603   -5.4758525    95.479562  0.040803232  0.043434242            5 
  196000   0.94832565   -5.4987623    95.706404  0.040691498  0.043333968            6 
  197000    0.9592344    -5.477755    96.193128  0.040690833  0.043234832            5 
  198000    0.9624791    -5.465727    96.223591  0.040498144  0.043133976            5 
  199000   0.93839938   -5.4958351    96.335149  0.040341352  0.043032982            3 
  200000    0.9400226   -5.4929542     96.88547  0.040368946  0.042932791           11 
  201000    0.9291411   -5.4573812    97.659736  0.040489111  0.042834571            4 
  202000   0.98611083   -5.4870903    97.904647  0.040389706  0.042738209            3 
  203000    0.9381344   -5.4897212    97.857225  0.040171274  0.042643066            4 
  204000   0.92398206   -5.4741615    98.335454  0.040169712  0.042549036            5 
  205000   0.93575354   -5.4751042    98.609877  0.040085316  0.042456117            4 
  206000    0.9248938   -5.4802447    98.930881  0.040020583  0.042362459            5 
  207000   0.94408146   -5.5128331    99.257304  0.039958657  0.042266216            3 
  208000    0.9370348   -5.5351641     99.02761  0.039674523  0.042167553            3 
  209000   0.93429475   -5.5347964    99.736758  0.039767447  0.042070752            2 
  210000   0.92758156   -5.5178992    100.15381  0.039743576  0.041976041            9 
  211000   0.93965911   -5.5408026    100.28762  0.039608066  0.041881943            4 
  212000   0.94062353   -5.5309596    100.45621  0.039487505  0.041788653            4 
  213000   0.95211889   -5.5078351    101.09792  0.039553178  0.041693837            3 
  214000   0.93927794   -5.5372812    101.15928  0.039392242  0.041599724            4 
  215000   0.91447906   -5.5570822    101.52414  0.039350441  0.041506227            4 
  216000   0.93354881   -5.5142084    102.27406  0.039457583  0.041413448            4 
  217000   0.90219216   -5.5673173    102.03186   0.03918274  0.041319644            6 
  218000    0.9406738   -5.5347004    102.09972  0.039028945  0.041226641            9 
  219000   0.92955156   -5.5377438    102.94155   0.03917106  0.041133165            6 
  220000   0.91625385   -5.5621393    102.87766  0.038968809  0.041040548            5 
  221000   0.91609933    -5.557329      103.243  0.038930241  0.040947891            2 
  222000   0.91628261   -5.5513477    103.41698  0.038820187  0.040855869            3 
  223000   0.92351293   -5.6011267     103.4613   0.03866267  0.040764801            5 
  224000   0.92175832   -5.5685565    103.94863  0.038671364  0.040672804            3 
  225000   0.88559871   -5.5555093     103.7125  0.038412036  0.040577572            8 
  226000   0.91263122   -5.5559321    104.47669  0.038523854  0.040480613            7 
  227000    0.8970281   -5.5805214    104.63099   0.03841079  0.040384271            3 
  228000   0.90008676   -5.6176728    104.79765  0.038303233  0.040289828            5 
  229000   0.88726067   -5.5657221    105.60037  0.038428081  0.040197461            2 
  230000   0.90073984   -5.5962241    105.40662  0.038190805  0.040106025            5 
  231000   0.87563008   -5.5839463    106.03099  0.038250718  0.040014331            4 
  232000   0.88311003   -5.5990063    106.49736  0.038253362  0.039926227            2 
  233000   0.88604738   -5.6088849    106.17121  0.037972535  0.039837185            6 
  234000   0.89595993   -5.5787167    106.41124   0.03789574  0.039746297            4 
  235000   0.89440904   -5.6224601    106.31303  0.037699655  0.039655073            4 
  236000   0.87123524   -5.5788505    107.05857  0.037803169  0.039563669            5 
  237000   0.89041489   -5.5930426    107.34079  0.037742893  0.039473525            9 
  238000   0.88095706   -5.6018566    107.26441  0.037557567  0.039382475            4 
  239000   0.87758445   -5.6334464    107.73344   0.03756396  0.039290861            3 
  240000   0.88130592   -5.6091919    108.04276  0.037514846  0.039198209            3 
  241000   0.87459458   -5.5896296    108.28648  0.037443459  0.039107104            6 
  242000   0.89891826   -5.6159259    108.39078  0.037324647  0.039014699            3 
  243000   0.87446996     -5.66518    108.64589  0.037258535   0.03892379            4 
  244000    0.8661599   -5.6289548     108.8629  0.037179954  0.038831784           10 
  245000   0.88589854   -5.6212821    108.97871  0.037067587   0.03874067            5 
  246000   0.88774663   -5.6340897    109.57553  0.037119083  0.038651096            4 
  247000   0.87757865    -5.626172    109.83639  0.037056813  0.038561674            4 
  248000   0.84647852   -5.6404104    109.65719  0.036847172  0.038471269            4 
  249000   0.85984159   -5.6738832    109.48877  0.036642828  0.038378738            4 
  250000   0.86712109   -5.6229428    110.30171  0.036767237  0.038286955            4 
  251000    0.8645176   -5.6624527    110.45489  0.036671609  0.038196564            4 
  252000   0.86096108   -5.6619638    110.49465  0.036539236  0.038104319            4 
  253000   0.85115631   -5.6566506    110.26068  0.036317747  0.038013271            6 
  254000   0.85737415   -5.6760673    110.90435  0.036385941   0.03792025           10 
  255000    0.8451336   -5.6719095    110.63513  0.036155271  0.037828972           11 
  256000   0.85330801   -5.6424025     111.2014  0.036198373  0.037736723            6 
  257000   0.84914568   -5.6910404     111.1739  0.036048605  0.037643693            9 
  258000   0.84679388   -5.6630271    111.57221  0.036037537  0.037550771            4 
  259000   0.86030621   -5.7116139    111.54297  0.035888988  0.037458671           14 
  260000   0.86003616    -5.698967    111.86704  0.035854822   0.03736858            8 
  261000   0.85633345    -5.675513    112.65444  0.035968851  0.037279128            3 
  262000    0.8558662   -5.7363589    112.73318  0.035856608  0.037190509           20 
  263000   0.84053948   -5.7279041    112.55462  0.035663695  0.037102144            8 
  264000   0.85660501    -5.709297     113.3058   0.03576572   0.03701536            4 
  265000   0.84038451   -5.6989897    113.57822  0.035716422  0.036929337            4 
  266000   0.85257144   -5.7207345    113.36255  0.035514583  0.036842298            9 
  267000   0.84222949   -5.6989095    113.95448  0.035566317   0.03675652            3 
  268000   0.83781123   -5.7344914    113.90909  0.035419494  0.036669277            3 
  269000   0.83934919   -5.7309142    113.72233  0.035229966  0.036581526            6 
  270000   0.82316823   -5.7051676     114.0682  0.035206234  0.036493418            6 
  271000   0.83081672   -5.7358953    114.43293  0.035188479   0.03640712            5 
  272000   0.83859497   -5.7135005    114.18578  0.034983389  0.036319311            6 
  273000   0.81482422    -5.738645    114.63881  0.034993533  0.036232289            6 
  274000    0.8127526   -5.7260984    114.87296  0.034937032  0.036145453            6 
  275000   0.84135981   -5.7919432    114.53951  0.034708943  0.036057469            5 
  276000    0.8231463   -5.7486353    114.59657  0.034600414  0.035968696            4 
  277000   0.81547896   -5.7472366    114.78664  0.034532683  0.035880064            5 
  278000   0.81863976   -5.7706769    115.01018  0.034475475  0.035792065            3 
  279000   0.81633126   -5.7344745    115.44707  0.034482397  0.035703663            5 
  280000   0.82845142   -5.7730551    115.48844  0.034371558  0.035615536           10 
  281000   0.81416346   -5.7491178    116.21415  0.034464456  0.035527484            4 
  282000    0.8068816   -5.7632638    115.85405   0.03423583  0.035440895           13 
  283000   0.80375776   -5.7796722    116.07413  0.034179661  0.035353663            2 
  284000   0.82376624   -5.7627943    116.25537   0.03411249  0.035265508            6 
  285000   0.82206914   -5.7907468    116.25017  0.033991277  0.035177205            9 
  286000   0.80103044   -5.7963257    116.18368  0.033853055  0.035089142            5 
  287000   0.81646291   -5.8180493    116.61004  0.033858895  0.035001181            3 
  288000    0.8166683   -5.7957424    116.95543   0.03384127  0.034913681            4 
  289000   0.79044423   -5.8230137    116.96035   0.03372559  0.034827468            7 
  290000   0.80114597   -5.8203437    116.73729  0.033545199  0.034740583            5 
  291000   0.80536708   -5.7907353    117.30207  0.033591659  0.034653878            6 
  292000   0.79538399   -5.8144637     117.8635  0.033636844    0.0345669            6 
  293000   0.80272021    -5.776442    117.59968  0.033447007  0.034480227           14 
  294000   0.79814634   -5.8202917    117.65837  0.033349879  0.034393915            4 
  295000   0.79576155   -5.8357207    117.96006  0.033322052  0.034307852            5 
  296000   0.81530004    -5.804686    118.33092  0.033313885  0.034223283            7 
  297000   0.79655084   -5.8170067    118.16168  0.033154231  0.034138356            6 
  298000   0.79290001    -5.852392    118.09484  0.033024285   0.03405308            4 
  299000   0.79487723   -5.8461537    118.70947  0.033085137  0.033967472            5 
  300000   0.78742857    -5.840543    118.81918  0.033005328  0.033883539            8 
  301000   0.80432439   -5.8467131     118.9248  0.032924918  0.033799095            7 
  302000   0.78068225   -5.8539482    118.95573   0.03282443  0.033714511            7 
  303000   0.80264844   -5.8366159    118.95103  0.032714804   0.03362923            7 
  304000   0.77510092   -5.8765737    118.79742  0.032565082  0.033544214            6 
  305000   0.78573006   -5.8690479    119.31455  0.032599605   0.03345905            9 
  306000   0.77698886   -5.8365176    119.45722  0.032531922  0.033373953            6 
  307000   0.77372319   -5.8557905    119.53771  0.032447803  0.033289408           11 
  308000   0.78932299   -5.8582933    119.65309  0.032373671  0.033204776            5 
  309000   0.78554234   -5.8947799    119.53417  0.032236832  0.033120878            9 
  310000   0.77254986   -5.8667542     119.7208  0.032183012  0.033037258            6 
  311000   0.77131582   -5.8855438    119.98785  0.032151086  0.032953841            9 
  312000    0.7767094    -5.888947    119.95342   0.03203884  0.032869794           13 
  313000   0.76788637   -5.8850351    120.23297  0.032010908  0.032785915           11 
  314000   0.77074245   -5.8959093    120.24603  0.031912428  0.032702819            8 
  315000   0.75424681   -5.8792631    120.74275  0.031942527  0.032620793            8 
  316000   0.75232004   -5.9020932    120.62231  0.031809682  0.032538255            8 
  317000   0.74902201   -5.8997423    120.77197  0.031748679  0.032455677            8 
  318000   0.77996261   -5.9462618    120.62136  0.031609372  0.032372761           12 
  319000   0.75335506   -5.9060746     120.8186  0.031561808  0.032288775            5 
  320000    0.7510315   -5.9136821    120.50634  0.031381858  0.032205349            6 
  321000   0.75235385   -5.9014118    120.91162  0.031389309  0.032121644            4 
  322000   0.76738181   -5.8974801    120.85797  0.031277942  0.032038586            8 
  323000   0.75554764   -5.9262326    120.88769  0.031188774  0.031955274           15 
  324000   0.75633914   -5.9444988    120.85337  0.031083685  0.031870725           15 
  325000   0.75968198   -5.9362272    120.95026  0.031012888  0.031785944            7 
  326000   0.75353089   -5.9640761    121.16155  0.030971767   0.03170189            7 
  327000   0.73766382   -5.9693901    121.10135  0.030861711  0.031616747           12 
  328000   0.74804718   -5.9555944    121.19514  0.030791449  0.031532371           10 
  329000   0.74851312   -5.9874671    120.95659  0.030637433  0.031448289            4 
  330000   0.74027922   -5.9650854    121.19336  0.030604383  0.031363735            4 
  331000   0.73589508   -6.0054003    121.08783  0.030485356  0.031278508            7 
  332000   0.74186624   -5.9619087    121.53223  0.030505077  0.031194149           10 
  333000   0.74930878   -5.9765886    121.78647  0.030477094  0.031109759            6 
  334000   0.73550256   -5.9729092    121.66373  0.030355222  0.031025848            9 
  335000   0.74354424   -5.9759324    121.92661  0.030330002  0.030942605            7 
  336000   0.72783939   -6.0061675    121.68502  0.030179816  0.030859911           14 
  337000   0.73109623   -5.9746441    122.07677  0.030187133  0.030777396           10 
  338000   0.72434674   -5.9859859    121.96454  0.030070154  0.030695476            9 
  339000    0.7309693   -6.0117581    121.95117  0.029978165  0.030612577           10 
  340000   0.73578751   -5.9872643    121.97937  0.029896905  0.030529665            9 
  341000   0.72218223   -6.0025723    121.81026  0.029767903  0.030446573            7 
  342000   0.72795539   -5.9835196    122.33086  0.029807714  0.030364129           10 
  343000   0.72927716   -6.0151856    122.00162   0.02964082  0.030281098           12 
  344000   0.72581021   -6.0014404    122.28725  0.029623849  0.030198334            8 
  345000   0.72832216    -6.031772    122.39824  0.029564792  0.030115509            3 
  346000   0.72235704   -6.0162807    122.72934  0.029559089  0.030033079            7 
  347000   0.72058391   -6.0027359    122.67358  0.029460514   0.02995145           12 
  348000   0.70463922   -6.0218321    122.84143  0.029416052  0.029870904           19 
  349000   0.70416881   -6.0078467    123.06733  0.029385704  0.029790992            7 
  350000   0.70052006   -6.0245882    122.92548  0.029267972  0.029711377           12 
  351000   0.70308369   -6.0441675    123.18301  0.029245729  0.029630822            5 
  352000   0.70757542   -6.0448075    122.96428  0.029110861  0.029550704           21 
  353000   0.71230514   -6.0331568    123.31674  0.029111599  0.029470894            9 
  354000    0.7063906   -6.0713801    123.18348  0.028997994  0.029391392            7 
  355000   0.69810976   -6.0330308    123.58065  0.029009542  0.029312335            7 
  356000   0.69704917   -6.0769123    123.20936  0.028841143  0.029232792           22 
  357000   0.70339916   -6.0524636    123.45793  0.028818377  0.029153309           21 
  358000   0.70659248   -6.0742362    123.61485  0.028774406  0.029073837           13 
  359000   0.68960857   -6.0425794    123.41741  0.028648424  0.028994848            7 
  360000   0.71139707   -6.0639082    123.73435   0.02864221  0.028915926           17 
  361000   0.68436247   -6.0879903    123.35804  0.028476001  0.028836505           13 
  362000   0.68398856   -6.0497275    123.72404  0.028481593   0.02875753           26 
  363000   0.69807655   -6.0999394    123.65483  0.028387242   0.02867909           13 
  364000   0.68983603   -6.0880489    123.43708  0.028259406  0.028600228           13 
  365000   0.68172381    -6.107946    123.65293  0.028231263  0.028521904            8 
  366000   0.68860607   -6.0630549    123.81741  0.028191579  0.028443712            7 
  367000   0.68311719   -6.1036936    124.05381  0.028168441  0.028366158            7 
  368000   0.66923847    -6.084301    123.92994  0.028063844  0.028288533            9 
  369000   0.66877103   -6.1014247    124.01841   0.02800777  0.028210998           18 
  370000   0.67171882   -6.0998322    124.27414  0.027989671  0.028134055            7 
  371000   0.68012136   -6.0987167    124.44434  0.027952458  0.028057054           29 
  372000   0.66968163   -6.1239319    124.38011  0.027862929  0.027981092           11 
  373000   0.65992713   -6.1363158    124.20297  0.027748654  0.027904796           10 
  374000   0.67841184   -6.1613493    124.40365  0.027719174  0.027828317           21 
  375000   0.66246745   -6.1163258    124.50938  0.027668752  0.027752277            5 
  376000   0.67307861   -6.1553028     124.1339  0.027511945  0.027675806           17 
  377000   0.65992377   -6.1351889    124.41993  0.027502196  0.027599329           15 
  378000   0.66448671   -6.1373943    124.64552  0.027479171  0.027523325           10 
  379000   0.66920063   -6.1691964    124.40497  0.027353775  0.027447073           11 
  380000   0.65741743   -6.1459787    124.52948  0.027309096  0.027370921           17 
  381000   0.66163715   -6.1484193    124.60568  0.027254085  0.027294827            9 
  382000   0.66460836    -6.165811     124.5106  0.027161998  0.027218646           15 
  383000   0.65707546   -6.1698082     124.1612  0.027015057  0.027142383           13 
  384000   0.66736109   -6.2033571    124.22536  0.026958627  0.027066382           13 
  385000   0.65857731   -6.1588977    124.56781   0.02696273  0.026990682           17 
  386000    0.6413761   -6.1703544    124.49105  0.026876307  0.026914763           21 
  387000   0.65769896   -6.1939317    124.60817  0.026832077  0.026839666           16 
  388000    0.6620398   -6.1592555    124.81371  0.026807068  0.026765009            8 
  389000   0.66822714   -6.1684467    125.09705  0.026798855  0.026690847           12 
  390000   0.64485064   -6.1699056    124.83844  0.026674881  0.026616769           14 
  391000   0.64113912   -6.1607785    124.96838  0.026634353  0.026542738           10 
  392000   0.65152377   -6.1965177    124.83923  0.026538951  0.026469277           13 
  393000    0.6338748   -6.1929944    124.89702  0.026483676  0.026395858           19 
  394000   0.64889075   -6.2094657    125.22754  0.026486366  0.026322784           17 
  395000     0.652273    -6.204722    125.07824  0.026387814  0.026249705           24 
  396000   0.63192578   -6.1871332    125.41811    0.0263927  0.026176889           20 
  397000   0.63389688   -6.1843251    125.41381  0.026325318  0.026104687           35 
  398000   0.63936548   -6.2347462    125.07669  0.026188586  0.026032527           15 
  399000   0.63597182   -6.2230987    125.40804  0.026192155   0.02596057           23 
  400000   0.62188243   -6.2211122    125.43894  0.026133113  0.025889068            8 
  401000   0.62650079   -6.2263864    125.45183  0.026070621  0.025817703           14 
  402000   0.62047391   -6.2210706    125.48911  0.026013498  0.025746419           11 
  403000   0.63666954   -6.2549738    125.30527  0.025910933  0.025675433           10 
  404000   0.62340311   -6.2405371    125.52014  0.025891118  0.025604456           18 
  405000   0.63441826   -6.2300421    125.65429  0.025854791  0.025533446           15 
  406000   0.63101725   -6.2319834    125.44341  0.025747827  0.025463039           20 
  407000   0.60725753   -6.2601626    125.52108  0.025700467  0.025392382           19 
  408000   0.62190515    -6.252068    125.36334  0.025605257  0.025321857           24 
  409000   0.61208928   -6.2682739    125.40862  0.025551878  0.025251841           23 
  410000   0.61583201   -6.2711816     125.3893   0.02548563  0.025181306           14 
  411000   0.61110243   -6.2837694    125.61464   0.02546931  0.025111144           14 
  412000   0.61219743   -6.2742586    125.65995  0.025416656  0.025041218           20 
  413000   0.60787197   -6.2956439    125.48996  0.025320815  0.024971308           16 
  414000   0.61153008   -6.2837077     125.5587   0.02527349  0.024902039           47 
  415000   0.61374205   -6.2878054    125.66991  0.025234921   0.02483264           17 
  416000   0.59293345   -6.2934658    125.62752  0.025165769  0.024763129           35 
  417000   0.60873846   -6.2963749     125.4378  0.025067505  0.024693542           33 
  418000   0.60281485   -6.3035132    125.59511  0.025038897   0.02462428           27 
  419000   0.60660362   -6.2863291    125.33754  0.024927912  0.024555012           36 
  420000   0.59958555   -6.3250277     125.3471  0.024870457  0.024485669           51 
  421000    0.5966567    -6.304621     125.7401  0.024889173  0.024416604           41 
  422000   0.59034395   -6.3171981      125.424  0.024767772  0.024348289           27 
  423000    0.5922435   -6.3174795    125.52845  0.024729797  0.024279831           79 
  424000   0.59169511   -6.3305865    125.76473  0.024717911  0.024211777           32 
  425000   0.59422305   -6.3196633    125.67931  0.024643001  0.024143672           35 
  426000   0.59083709   -6.3473254    125.51456  0.024552927  0.024075772           21 
  427000   0.59568481   -6.3120674     125.6227  0.024516529  0.024008275           31 
  428000    0.5776983   -6.3179701    125.74936  0.024483909  0.023940985           38 
  429000   0.57972872   -6.3437371    125.66962  0.024411349   0.02387371           30 
  430000     0.581957   -6.3388904    125.49252  0.024320256  0.023806552           20 
  431000   0.57990146   -6.3669534    125.61167  0.024286865  0.023739399           37 
  432000   0.56765756   -6.3503103     125.7199  0.024251525  0.023672337           20 
  433000    0.5737567   -6.3671621    125.65018  0.024182098  0.023605507           25 
  434000   0.58113758   -6.3553447     125.5597  0.024109006  0.023538686           28 
  435000   0.57925659    -6.364268     125.4629  0.024035039  0.023471945           39 
  436000    0.5723237   -6.3629991    125.58075  0.024002437  0.023405085           35 
  437000   0.57665039   -6.3823498    125.59968   0.02395112  0.023338622           31 
  438000   0.56516361   -6.3933464    125.56055  0.023888993  0.023272204           23 
  439000   0.56779456   -6.4040754    125.31765  0.023788467  0.023205979           25 
  440000   0.57751754   -6.3768693    125.69011  0.023804945  0.023139846           22 
  441000   0.55754861   -6.4013197    125.47017  0.023709405  0.023073739           19 
  442000   0.56020241    -6.380331    125.30001  0.023623682  0.023007731           25 
  443000   0.56841874   -6.4081974    125.58373  0.023623726  0.022941737           26 
  444000   0.53321078    -6.410655    125.28747  0.023514916  0.022875973           89 
  445000   0.56023988   -6.4082328    125.20026  0.023445742  0.022810097           34 
  446000   0.54612643   -6.4093102    125.07174   0.02336916  0.022744436           40 
  447000   0.55743879    -6.420892    125.21458  0.023343509  0.022678724           61 
  448000   0.55552906   -6.4226852    125.15706  0.023280703  0.022613099           35 
  449000   0.55978809    -6.427612    125.03071  0.023205403  0.022547494           51 
  450000   0.55227629   -6.4323367    125.20901  0.023186854  0.022482036           30 
  451000   0.54100329   -6.4173624    125.40924  0.023172439  0.022417109           32 
  452000   0.54161069   -6.4442714    125.08433  0.023061271  0.022352109           64 
  453000   0.53934239   -6.4373038    125.01429  0.022997479   0.02228718           86 
  454000    0.5639599   -6.4552158     125.1658  0.022974632  0.022222651           55 
  455000   0.54405909   -6.4369155    125.15476  0.022922117  0.022158268           29 
  456000   0.53728637    -6.459263    125.02682  0.022848468  0.022094102           93 
  457000   0.53763719   -6.4474347    125.19082  0.022828376  0.022030176           82 
  458000   0.53983837   -6.4514055    125.42519  0.022821178  0.021966488           56 
  459000   0.52466558   -6.4748163    124.84469  0.022666066  0.021902728           53 
  460000   0.53351303   -6.4797295    124.93473  0.022633104  0.021838972           52 
  461000   0.52836232   -6.4750812    125.01058  0.022597718  0.021775339           57 
  462000   0.52434436   -6.4818405    124.93793  0.022535702  0.021711898           53 
  463000   0.52166661    -6.471525    124.91214  0.022482386  0.021648744          190 
  464000   0.53363217   -6.4843459    125.05636  0.022459834  0.021585755           81 
  465000   0.53716046   -6.4888631     124.8159   0.02236844  0.021522976           22 
  466000   0.51574804   -6.4837266    124.83985  0.022324722   0.02146044          115 
  467000   0.51404885   -6.4972029    124.78893  0.022267831  0.021398012           41 
  468000   0.52380966   -6.4958717    125.06116  0.022268725  0.021335836           73 
  469000   0.51519875   -6.5174615    124.91872  0.022195935  0.021273783          137 
  470000    0.5172143   -6.5151155    124.83533  0.022133924  0.021211715          147 
  471000   0.51434533   -6.5235068    124.97836  0.022112237  0.021149859           93 
  472000   0.51800728   -6.5221078    124.97449  0.022064704  0.021088115           81 
  473000   0.52323318   -6.5198959    124.79229  0.021985957   0.02102646           47 
  474000   0.51927485   -6.5254754    125.00499  0.021976968  0.020965184           50 
  475000   0.51504398   -6.5183021    124.97339  0.021925156   0.02090398           84 
  476000   0.50352278   -6.5426447    124.80065  0.021848853  0.020842834          150 
  477000   0.50739587   -6.5309041    124.96505   0.02183177  0.020782094           52 
  478000    0.4976667   -6.5157493    125.05497  0.021801772  0.020721437           27 
  479000    0.5106683   -6.5375235    124.56678  0.021671326  0.020661025           62 
  480000   0.50090393    -6.530485    124.76888  0.021661263  0.020600632           37 
  481000   0.50360588   -6.5438614    124.59027  0.021585285  0.020540304           42 
  482000   0.49879418   -6.5504853    124.48809  0.021522838  0.020480033           59 
  483000   0.50842637   -6.5341036    124.44503  0.021470847  0.020419959           38 
  484000   0.50150542   -6.5490742    124.43817  0.021425304   0.02036005           29 
  485000   0.48914561   -6.5577132    124.62478  0.021413192  0.020300397           52 
  486000   0.48692236   -6.5640818    124.42348  0.021334615  0.020240799           79 
  487000   0.48015635    -6.548473    124.38091  0.021283523  0.020181317          103 
  488000   0.48055661   -6.5430714    124.55584  0.021269781  0.020122066           97 
  489000   0.48669937   -6.5650664    124.51068  0.021218589  0.020062863          109 
  490000   0.47759751   -6.5535267    124.27116  0.021134551  0.020003901          129 
  491000   0.48972785   -6.5728185    124.38432  0.021110713  0.019945015          157 
  492000    0.4815501   -6.5818926    124.19151  0.021035147  0.019886311           88 
  493000   0.47396998   -6.5717835    124.54984  0.021053049  0.019827972           69 
  494000   0.47797389   -6.5797637    124.26957  0.020963153  0.019769853          110 
  495000   0.47072353   -6.5889506    124.31785   0.02092893  0.019711892          107 
  496000   0.48097985   -6.5813208    124.47021  0.020912334  0.019654135           99 
  497000   0.47380287   -6.5799816    124.33719  0.020847954  0.019596531          104 
  498000   0.47308521   -6.5910464    124.11493  0.020768898   0.01953909           50 
  499000   0.47202965   -6.6006766    124.36743  0.020769444  0.019481657          107 
  500000   0.45748051   -6.5910636    124.19009  0.020698348  0.019424509          129 
  501000   0.47053493   -6.6001206    124.46327  0.020702474  0.019367609          193 
  502000    0.4655552   -6.6035743    124.14328  0.020608115  0.019310819          156 
  503000   0.46250026   -6.6020136    124.07014  0.020555027  0.019254324          138 
  504000   0.46928279   -6.6196675    124.21257  0.020537793  0.019197935          339 
  505000   0.45890737   -6.6289272    124.11612  0.020481208  0.019141806          265 
  506000   0.47434927   -6.6039509    124.33217  0.020476313  0.019085846          177 
  507000   0.44403837    -6.623757    124.13073  0.020402816  0.019029962          236 
  508000   0.45217098   -6.6183197    123.93052   0.02032981  0.018974325          120 
  509000    0.4520253   -6.6304229    123.94135  0.020291642  0.018918789          115 
  510000   0.45556718    -6.635665    124.02463  0.020265462  0.018863357           64 
  511000   0.45138511   -6.6376764    124.06109   0.02023175  0.018808056          129 
  512000   0.44873607   -6.6291583    123.84044  0.020156321  0.018752923          260 
Loop time of 1279.5 on 48 procs for 500000 steps with 4000 atoms

Performance: 67526.352 tau/day, 390.777 timesteps/s
99.4% CPU use with 48 MPI tasks x no OpenMP threads

MPI task timing breakdown:
Section |  min time  |  avg time  |  max time  |%varavg| %total
---------------------------------------------------------------
Pair    | 87.164     | 97.329     | 106.19     |  32.7 |  7.61
Neigh   | 8.7506     | 9.1339     | 9.5707     |   6.3 |  0.71
Comm    | 81.693     | 90.275     | 100.03     |  35.6 |  7.06
Output  | 0.88236    | 0.88295    | 0.89873    |   0.2 |  0.07
Modify  | 1066       | 1069.9     | 1075.6     |   5.8 | 83.62
Other   |            | 11.97      |            |       |  0.94

Nlocal:        83.3333 ave          89 max          75 min
Histogram: 1 0 3 7 5 10 2 10 4 6
Nghost:        2377.62 ave        2399 max        2361 min
Histogram: 1 5 7 9 7 7 5 5 1 1
Neighs:        16360.3 ave       18527 max       14132 min
Histogram: 3 6 2 6 5 9 5 5 2 5
FullNghs:      32720.1 ave       35180 max       29408 min
Histogram: 1 1 2 8 10 6 5 6 4 5

Total # of neighbors = 1570563
Ave neighs/atom = 392.64075
Neighbor list builds = 26832
Dangerous builds = 0

#clear
#
#next RN
#
#jump SELF
Total wall time: 0:21:23
