
units lj                  # Use reduced LJ style units
atom_style atomic         # Uncharged point particles
atom_modify map hash      # Needed for indexing of clusters etc
                          # Used to be able to find where atoms are in relation to each other.

lattice fcc 1.0 spacing 1 1 1
Lattice spacing in x,y,z = 1.5874011 1.5874011 1.5874011
region box block 0 10 0 10 0 10 units lattice
create_box 2 box
Created orthogonal box = (0.0000000 0.0000000 0.0000000) to (15.874011 15.874011 15.874011)
  3 by 4 by 4 MPI processor grid
create_atoms 1 box
Created 4000 atoms
  using lattice units in orthogonal box = (0.0000000 0.0000000 0.0000000) to (15.874011 15.874011 15.874011)
  create_atoms CPU = 0.002 seconds
set type 1 type/fraction 2 0.62 78393
Setting atom values ...
  2494 settings made for type/fraction
mass 1 1.0
mass 2 1.0
pair_style lj/cut  3.5
pair_modify tail  yes
pair_coeff 1  1  1.0  1.0   # Intearaction between 1 and 1 set with epsilon = 1 and sigma = 1
pair_coeff 1  2  1.5  0.8
pair_coeff 2  2  0.5  0.88

write_data data.0
System init for write_data ...
Neighbor list info ...
  update every 1 steps, delay 10 steps, check yes
  max neighbors/atom: 2000, page size: 100000
  master list distance cutoff = 3.8
  ghost atom cutoff = 3.8
  binsize = 1.9, bins = 9 9 9
  1 neighbor lists, perpetual/occasional/extra = 1 0 0
  (1) pair lj/cut, perpetual
      attributes: half, newton on
      pair build: half/bin/atomonly/newton
      stencil: half/bin/3d
      bin: standard
WARNING: Not all mixed pair coeffs generated from mixing. Use write_data with 'pair ij' option to store all pair coeffs. (../write_data.cpp:312)


#############################
#   M E L T   S Y S T E M   #
#############################

velocity all create 2.4 5300450 mom yes dist gaussian # Assign velocities
                                                    # Temperature 2.4, random number seed, zero linear momentum
                                                                                # Gaussian distribution

timestep 0.002   # simulation timestep
thermo 1000       # output thermodynamic data every 1000 steps bf 100

# Define a fix  in this case with index 1 applied to all
# particles in the simulation. This fix is for simulations
# in the anisotropic NPT ensemble. Note that we use the MTK
# correction.
fix 1 all npt temp 2.4 2.4 0.1 iso 5.68 5.68 0.5 mtk yes tchain 5 pchain 5 # Use NPT ensemble
                                                                         # Set temperature and pressure and damping
                                                                         # Numbers of thermostats in chain and in barostat
run 10000          # run for 10000 steps
Per MPI rank memory allocation (min/avg/max) = 3.642 | 3.644 | 3.648 Mbytes
Step Temp E_pair E_mol TotEng Press Volume 
       0          2.4   -4.6132646            0   -1.0141646   -4.0148013         4000 
    1000    2.4222382   -4.3425711            0  -0.71012223    5.5483071    3636.8597 
    2000    2.4124618   -4.3918767            0   -0.7740887    5.7476136    3589.7067 
    3000    2.3539387   -4.4349269            0  -0.90490157    5.7228004     3568.314 
    4000    2.4064838   -4.3448006            0  -0.73597735    5.3602078    3645.7335 
    5000    2.3911598   -4.3763074            0  -0.79046432    5.7497833    3597.9305 
    6000    2.4250625   -4.3302564            0  -0.69357209    6.0527245    3597.3176 
    7000    2.3679266   -4.4038586            0  -0.85285666    5.4956895    3606.9559 
    8000    2.4262531   -4.4072279            0  -0.76875819    5.5581287    3598.3212 
    9000    2.4200094   -4.3680096            0  -0.73890295    5.6830928    3604.4052 
   10000    2.3626547   -4.3415809            0  -0.79848481    5.3477051    3631.1922 
Loop time of 2.66811 on 48 procs for 10000 steps with 4000 atoms

Performance: 647648.589 tau/day, 3747.966 timesteps/s
99.6% CPU use with 48 MPI tasks x no OpenMP threads

MPI task timing breakdown:
Section |  min time  |  avg time  |  max time  |%varavg| %total
---------------------------------------------------------------
Pair    | 1.2274     | 1.2744     | 1.4123     |   3.1 | 47.77
Neigh   | 0.2185     | 0.22594    | 0.24731    |   1.0 |  8.47
Comm    | 0.77467    | 0.90222    | 0.96045    |   3.6 | 33.81
Output  | 0.00025139 | 0.00025685 | 0.00031744 |   0.0 |  0.01
Modify  | 0.2174     | 0.24973    | 0.30367    |   4.3 |  9.36
Other   |            | 0.01553    |            |       |  0.58

Nlocal:        83.3333 ave          94 max          74 min
Histogram: 1 1 7 11 4 7 10 4 2 1
Nghost:        1752.92 ave        1773 max        1727 min
Histogram: 1 4 5 3 5 9 5 6 3 7
Neighs:        10498.6 ave       12060 max        9364 min
Histogram: 5 5 4 9 5 11 5 2 0 2

Total # of neighbors = 503935
Ave neighs/atom = 125.98375
Neighbor list builds = 909
Dangerous builds = 238

# Equilibrate just above the melting temperature to avoid step fn in T

fix 1 all npt temp 1.25 1.25 0.1 iso 5.68 5.68 0.5 mtk yes tchain 5 pchain 5
run 2000
Per MPI rank memory allocation (min/avg/max) = 3.644 | 3.646 | 3.650 Mbytes
Step Temp E_pair E_mol TotEng Press Volume 
   10000    2.3626547   -4.3415809            0  -0.79848481    5.3477051    3631.1922 
   11000    1.2490958   -6.3767211            0   -4.5035458    5.7269367     2762.657 
   12000    1.2333462   -6.4669953            0   -4.6174385     5.469443     2746.308 
Loop time of 0.651286 on 48 procs for 2000 steps with 4000 atoms

Performance: 530642.836 tau/day, 3070.850 timesteps/s
99.6% CPU use with 48 MPI tasks x no OpenMP threads

MPI task timing breakdown:
Section |  min time  |  avg time  |  max time  |%varavg| %total
---------------------------------------------------------------
Pair    | 0.30144    | 0.32506    | 0.34936    |   1.7 | 49.91
Neigh   | 0.042085   | 0.043682   | 0.04618    |   0.5 |  6.71
Comm    | 0.20403    | 0.23291    | 0.26004    |   2.4 | 35.76
Output  | 5.2427e-05 | 5.3737e-05 | 6.6971e-05 |   0.0 |  0.01
Modify  | 0.041277   | 0.044638   | 0.04804    |   1.0 |  6.85
Other   |            | 0.004938   |            |       |  0.76

Nlocal:        83.3333 ave          93 max          75 min
Histogram: 3 3 6 9 5 10 4 4 2 2
Nghost:        2116.15 ave        2137 max        2098 min
Histogram: 1 4 5 9 9 10 5 1 1 3
Neighs:        13900.2 ave       15501 max       11931 min
Histogram: 1 4 4 4 4 12 3 8 5 3

Total # of neighbors = 667210
Ave neighs/atom = 166.80250
Neighbor list builds = 142
Dangerous builds = 9

#############################
# L I N E A R  Q U E N C H  #
#############################

# Define solid atoms. This closely follows ten Wolde  Ruiz-Montero and Frenkel  Faraday Discuss  1996  104  93-110
# Compute components of the per-atom q6 vector
compute q6 all orientorder/atom degrees 1 6 components 6 nnn NULL cutoff 1.3 # compute the Q6 parameter.
                                                                             # Use all neighbours within 1.3 unit cell.

# get number of connections
compute coord_number all coord/atom orientorder q6 0.5

# An atom is solid if it has 8 or more connections (of a possible 14)
variable is_solid atom c_coord_number>=8
group solid dynamic all var is_solid    # Must be dynamic to update
dynamic group solid defined

# do clustering
compute cluster solid cluster/atom 1.3 # Create a cluster where all atoms within are solid and max 1.3 units from another member

# define chunks one chunk per cluster
compute clus_chunks solid chunk/atom c_cluster nchunk every compress yes  # Says which atoms are in which chunk

# count the size of each chunk
compute size_chunks solid property/chunk clus_chunks count


# Find the maximum entry in the vector of chunk sizes
variable max_n equal max(c_size_chunks)


# Thermo style which includes this variable
# thermo_style custom step temp pe vol v_max_n

thermo ${N}  # Print the thermo information every 100 steps
thermo 1000  

# Reset the npt fix at a lower temperature (below freezing)
fix 1  all npt temp  ${temp} ${temp}  0.1  iso  5.68  5.68  0.5  mtk yes tchain  5  pchain  5
fix 1  all npt temp  0.45 ${temp}  0.1  iso  5.68  5.68  0.5  mtk yes tchain  5  pchain  5
fix 1  all npt temp  0.45 0.45  0.1  iso  5.68  5.68  0.5  mtk yes tchain  5  pchain  5

dump dmp2 all dcd ${N} traj.dcd
dump dmp2 all dcd 1000 traj.dcd


compute msd all msd com yes
variable twopoint equal c_msd[4]/6/(step*dt+1.0e-6)
fix 9 all vector 10 c_msd[4]
variable fit equal slope(f_9)/6/(10*dt)
thermo_style custom step temp pe c_msd[4] v_twopoint v_fit v_max_n

fix 1 all npt temp 1.25 ${temp} 0.1 iso 5.68 5.68 0.5 mtk yes tchain 5 pchain 5
fix 1 all npt temp 1.25 0.45 0.1 iso 5.68 5.68 0.5 mtk yes tchain 5 pchain 5
run 5000000 # 5000000  # Run for this many steps
Neighbor list info ...
  update every 1 steps, delay 10 steps, check yes
  max neighbors/atom: 2000, page size: 100000
  master list distance cutoff = 3.8
  ghost atom cutoff = 3.8
  binsize = 1.9, bins = 8 8 8
  4 neighbor lists, perpetual/occasional/extra = 1 3 0
  (1) pair lj/cut, perpetual
      attributes: half, newton on
      pair build: half/bin/atomonly/newton
      stencil: half/bin/3d
      bin: standard
  (2) compute orientorder/atom, occasional
      attributes: full, newton on
      pair build: full/bin/atomonly
      stencil: full/bin/3d
      bin: standard
  (3) compute coord/atom, occasional
      attributes: full, newton on
      pair build: full/bin/atomonly
      stencil: full/bin/3d
      bin: standard
  (4) compute cluster/atom, occasional
      attributes: full, newton on
      pair build: full/bin/atomonly
      stencil: full/bin/3d
      bin: standard
Per MPI rank memory allocation (min/avg/max) = 9.848 | 9.852 | 9.855 Mbytes
Step Temp PotEng c_msd[4] v_twopoint v_fit v_max_n 
   12000    1.2333462   -6.4669953 7.7466141e-31 5.3795929e-33 8.3333333e+20            3 
   13000     1.243994    -6.476596   0.50086613 0.0032106802  0.040900754            3 
   14000    1.2191785   -6.4794042   0.98646759 0.0058718307   0.04083408            5 
   15000    1.2614859   -6.3973089    1.4954921 0.0083082892  0.040897917            2 
   16000     1.249755   -6.4758646    1.9274266   0.01003868   0.04010086            2 
   17000    1.2953367   -6.4841455    2.3830123  0.011681433  0.039640056            1 
   18000    1.2789451   -6.4656558    2.7857272  0.012896885  0.038998093            6 
   19000    1.2505316   -6.4745804    3.2246717  0.014143297  0.038353224            4 
   20000     1.219185   -6.4942366     3.626458  0.015110241  0.037746487            4 
   21000    1.2486326    -6.456582    4.0993283  0.016267176  0.037350441            8 
   22000    1.2452761   -6.4959073    4.6279731  0.017530201  0.037411822            1 
   23000    1.2022236   -6.4890997    4.9961811  0.018102105  0.037394647            4 
   24000    1.2573664   -6.4611264    5.5030556  0.019107831  0.037352064            2 
   25000    1.2504839   -6.4531133    5.9841716  0.019947238  0.037473511            1 
   26000    1.2599256   -6.4688961    6.4327593  0.020617818   0.03759692            2 
   27000    1.2492453   -6.4526893    6.9659852  0.021499954  0.037727038            2 
   28000    1.2608437   -6.5132637     7.357178  0.021896363  0.037905628            2 
   29000    1.2272882   -6.5295836    7.7323384  0.022219363  0.037912045            2 
   30000    1.2397632   -6.4675298    8.2419122    0.0228942  0.037844136            7 
   31000    1.2609682   -6.4758465    8.7096942  0.023413156  0.037827191            2 
   32000    1.2586408   -6.4585924    9.2157486  0.023999345  0.037903601            3 
   33000    1.2419534   -6.4385901    9.6632579  0.024402166  0.037948299            2 
   34000    1.2415933   -6.4420659    10.076556   0.02469744  0.037961939            2 
   35000    1.2288954   -6.4812715    10.418822  0.024806719  0.037891003            4 
   36000    1.2483789   -6.4975424    10.802538  0.025005874  0.037773103            1 
   37000    1.2447654   -6.4841606    11.326125   0.02550929  0.037682729            1 
   38000    1.2412829   -6.5204114    11.782903    0.0258397  0.037638876            4 
   39000    1.2539578   -6.5005609    12.249588  0.026174332  0.037640827            3 
   40000    1.2482818    -6.449493    12.822151  0.026712814  0.037659451            4 
   41000    1.2727726   -6.4850722    13.437295  0.027311576  0.037741303            3 
   42000    1.2251689   -6.4749103    13.931734   0.02764233  0.037878879            1 
   43000    1.2745463   -6.4869999    14.280384  0.027675163  0.037972726            2 
   44000    1.2331657   -6.4770834     14.63787  0.027723238  0.037990612            5 
   45000    1.2602465   -6.5081174     15.09347   0.02795087  0.038001804            3 
   46000    1.2061401   -6.5237179    15.442373  0.027975313  0.037983851            3 
   47000    1.2347212   -6.4863317    15.884662  0.028164293  0.037954764            2 
   48000    1.2507856    -6.487477    16.454578  0.028566976  0.037946549            2 
   49000     1.243762   -6.4939516    16.909443  0.028757556  0.037960087            2 
   50000    1.2612823   -6.5350064    17.237354  0.028728923  0.037960755            4 
   51000    1.2416922   -6.4910221    17.717522  0.028950198  0.037933207            2 
   52000    1.2590778   -6.4610063    18.204091  0.029173223  0.037913534            2 
   53000    1.2477668   -6.4774948    18.764974  0.029504676  0.037904176            3 
   54000    1.2527303   -6.5322624    19.146069  0.029546403  0.037911364            5 
   55000    1.2600919   -6.5017491    19.479676   0.02951466  0.037906644            3 
   56000    1.2666617   -6.4699118     20.00954  0.029776101  0.037888225            2 
   57000    1.2684648   -6.4609655    20.465579  0.029920437   0.03786832            4 
   58000    1.2518746   -6.4596142    20.838599  0.029940516  0.037843355            1 
   59000    1.2704068   -6.4910659    21.255796   0.03002231  0.037820986            2 
   60000    1.2392883   -6.4771674     21.78297  0.030254125  0.037799302            2 
   61000     1.257078   -6.5216405    22.028574   0.03009368  0.037760355            2 
   62000    1.2237683    -6.528007    22.488329  0.030226249  0.037707178            2 
   63000    1.2153416   -6.5071245     22.98219  0.030399722   0.03766559            2 
   64000     1.248605   -6.5002518    23.398247  0.030466468  0.037627621            2 
   65000     1.217241   -6.5202837     23.83821  0.030561808  0.037597803            1 
   66000    1.2152255   -6.4884999    24.372429  0.030773269  0.037575041            3 
   67000    1.2351959   -6.4866262    24.683601  0.030700996  0.037558777            4 
   68000    1.2615725   -6.5149171    25.343192  0.031057833  0.037554549            2 
   69000    1.2244111   -6.4493756     26.07151   0.03148733  0.037568136            1 
   70000    1.2211333    -6.506647    26.454459  0.031493403   0.03760118            2 
   71000    1.2339505   -6.4570719    27.017953  0.031711212  0.037631225            4 
   72000    1.2594581   -6.4660714    27.424776  0.031741639  0.037666242            1 
   73000    1.2387715    -6.505121    28.109834  0.032088851   0.03771515            7 
   74000    1.2516043   -6.5114671    28.309946   0.03188057   0.03774269            3 
   75000     1.258978   -6.4954579    28.764475  0.031960527  0.037762043            7 
   76000     1.230863   -6.4743636    29.204422  0.032022392  0.037772541            2 
   77000    1.2499033   -6.4911967    29.576861   0.03200959  0.037783689            2 
   78000     1.222907   -6.5279265    30.038268  0.032092166  0.037789253            4 
   79000     1.239475    -6.472475    30.255471  0.031915054  0.037786277            2 
   80000    1.2374616   -6.4705173     30.80341  0.032086886  0.037773785            1 
   81000     1.274184   -6.4918612    31.207993  0.032106988  0.037759249            1 
   82000    1.2270288   -6.5007583    31.854684  0.032372646  0.037758715            4 
   83000    1.2442063   -6.4812766    32.503693   0.03263423   0.03777119            3 
   84000    1.2432265   -6.4697971    32.850821    0.0325901   0.03778886            3 
   85000    1.2206213   -6.5246866    33.299199  0.032646273  0.037802904            4 
   86000    1.2652961   -6.5051618    33.774315  0.032727049  0.037817807            2 
   87000    1.2340741   -6.4749559    34.256877  0.032813101  0.037829301            1 
   88000    1.2108056   -6.4742588     34.84442   0.03299661  0.037840952            1 
   89000    1.2454065   -6.4782446    35.516961  0.033255581  0.037863374            1 
   90000    1.2298312   -6.4959278    35.981189  0.033315915  0.037891693            2 
   91000    1.2240837   -6.4856223    36.320605  0.033260627  0.037923407            2 
   92000    1.2408677   -6.5001642    36.770623  0.033306723  0.037951267            5 
   93000    1.2433286    -6.462219    37.364482  0.033480719  0.037977464            1 
   94000    1.2581517   -6.4838723    37.573806  0.033310111  0.037996199            2 
   95000    1.2239421   -6.4830364    37.926068  0.033268481  0.038006917            2 
   96000    1.2394058   -6.5021532    38.466221  0.033390816  0.038017417            2 
   97000    1.2491784   -6.4790546    39.009477  0.033513296  0.038031406            1 
   98000    1.2542645   -6.5185036    39.223581  0.033353385  0.038041055            2 
   99000    1.2270815   -6.4707321    39.792525  0.033495391  0.038046804            3 
  100000    1.2233262   -6.5129411    40.118403  0.033432002  0.038045832            3 
  101000    1.2509786   -6.4575625     40.80686  0.033669026  0.038047555            3 
  102000    1.2555772   -6.5234682    41.118696  0.033593706  0.038051452            1 
  103000    1.2693057   -6.4993193    41.844011  0.033854378  0.038057749            4 
  104000    1.2277178   -6.4798366    42.165555  0.033786502  0.038067234            2 
  105000    1.2554226   -6.4707553    42.816161   0.03398108  0.038077587            3 
  106000    1.2353739   -6.5125042    43.280731  0.034025732  0.038087536            3 
  107000    1.2187991   -6.5423694    43.544728   0.03391334  0.038100772            4 
  108000    1.2372664   -6.5565588      43.8986  0.033872376  0.038108642            2 
  109000    1.2493578    -6.532801    44.273718  0.033848408  0.038110202            2 
  110000    1.2497966   -6.4746243    44.921936   0.03403177  0.038110125            2 
  111000    1.2367029   -6.5453303    45.057796  0.033827174   0.03810108            1 
  112000    1.2549907   -6.4821772    45.582367  0.033915451  0.038096102            1 
  113000    1.2176004   -6.4908982    46.248392  0.034106484  0.038099057            2 
  114000    1.2473861   -6.4759278    47.092533  0.034424366  0.038108466            2 
  115000    1.2436607   -6.5217535    47.250945  0.034239815  0.038123108            2 
  116000    1.2155136   -6.5090294    47.675567  0.034249689  0.038133053            2 
  117000    1.2156981   -6.5009462    48.054613  0.034226932  0.038141428            2 
  118000    1.2268492   -6.5143642    48.322327  0.034125937  0.038141977            3 
  119000    1.2522075    -6.503497    48.676585  0.034087244  0.038130626            3 
  120000    1.2510593   -6.5085842    49.137306  0.034123129   0.03812562            4 
  121000    1.2438147   -6.4898969    49.714555  0.034238674  0.038120826            4 
  122000     1.241859   -6.5419751    49.966399  0.034130054  0.038113961            2 
  123000    1.2476176   -6.5250712    50.466591  0.034191457  0.038106919            2 
  124000    1.2147359   -6.5244906    50.873598  0.034189246   0.03809681            3 
  125000    1.2347804   -6.4862682    51.675176  0.034450117  0.038091475            3 
  126000    1.2192329    -6.479342     52.13073  0.034477996  0.038091971            1 
  127000    1.2130448   -6.5440323    52.342899  0.034345734  0.038083407            2 
  128000    1.2234099   -6.5191579    52.820989  0.034388665  0.038074259            2 
  129000    1.2380352   -6.4973578    53.278831  0.034417849  0.038066353            2 
  130000    1.2105359   -6.5172294    53.698278  0.034421973  0.038059422            4 
  131000    1.2115261   -6.5211027    54.143758  0.034442594  0.038051188            2 
  132000    1.2488638   -6.5492975    54.715287  0.034542479  0.038047877            2 
  133000    1.2354816   -6.5816869    54.920543  0.034411368  0.038044227            3 
  134000    1.2185182   -6.5416907    55.629089  0.034595204  0.038037487            3 
  135000    1.2190652   -6.5281207    55.913623  0.034514582  0.038026505            1 
  136000    1.2309189   -6.5062962    56.499649  0.034619883  0.038018023            5 
  137000    1.2085492   -6.4872275    56.791437   0.03454467  0.038008644            1 
  138000    1.2151949   -6.5246999    57.544075  0.034748838  0.038005772            5 
  139000    1.2077587   -6.5341332    57.765078  0.034631342  0.038003054            3 
  140000    1.2443613   -6.5458199    58.164211  0.034621554   0.03799917            3 
  141000    1.2345824   -6.4854621    58.585837  0.034625199  0.037995002            4 
  142000    1.2276402   -6.5068301    58.886123  0.034557584  0.037988263            1 
  143000    1.2246548   -6.5045174    59.212525  0.034506133  0.037974779            3 
  144000     1.212519   -6.5133332    59.672331  0.034532599  0.037959659            2 
  145000    1.2287803   -6.5284016    60.171837  0.034581515  0.037943171            3 
  146000    1.1967901   -6.5849614    60.038697  0.034268663  0.037923499            3 
  147000    1.2460331   -6.5211106    61.206499  0.034697562  0.037907965            4 
  148000    1.2088031   -6.5077498    61.475263   0.03461445  0.037898963            3 
  149000    1.2019498   -6.5113538    62.088017  0.034724842  0.037892218            3 
  150000    1.2036131   -6.5516794    62.433555  0.034685308  0.037881563            2 
  151000    1.2255515   -6.5285913      62.8499  0.034685375   0.03787231            3 
  152000    1.2398611   -6.5085769    63.584133  0.034859722  0.037868086            1 
  153000    1.2562596   -6.5536665    63.854381  0.034779074  0.037863477            3 
  154000    1.2642882    -6.583578    64.100254  0.034686284  0.037854911            2 
  155000    1.2578049   -6.5264418     64.85794   0.03486986  0.037848018            2 
  156000    1.2212374   -6.4648237    65.345248   0.03490665  0.037843421            3 
  157000    1.2091591    -6.547157     65.67862  0.034861263  0.037832615            2 
  158000    1.2556214   -6.5421895    65.852094  0.034732117  0.037822218            2 
  159000    1.2079067   -6.5463415    66.238169  0.034716021  0.037813246            2 
  160000    1.2268619   -6.5484234    66.353976  0.034559362   0.03779987            2 
  161000    1.2265707   -6.5660845    67.001052  0.034679633  0.037782928            3 
  162000    1.2354816   -6.5497373    67.128661  0.034531204  0.037768583            3 
  163000    1.2345312   -6.5475863    67.803857  0.034664548  0.037749924            1 
  164000    1.2223301   -6.5461196    68.340895  0.034726064   0.03773526            3 
  165000     1.233411   -6.5739674    68.652778   0.03467312  0.037719327            3 
  166000    1.2087677   -6.5244403    68.972969  0.034624984  0.037701781            3 
  167000     1.239148   -6.4580531    69.842694  0.034851644  0.037684913            2 
  168000    1.2217329   -6.5108891    69.785047  0.034615599  0.037667618            2 
  169000    1.2290194   -6.5561798    70.222657  0.034626557    0.0376497            2 
  170000    1.2213556   -6.5243485     70.91379  0.034761661  0.037635616            2 
  171000    1.2310047   -6.5186416    71.270876  0.034732396  0.037620507            3 
  172000    1.2345322   -6.5189955    71.853734  0.034812855  0.037606564            2 
  173000    1.2293137   -6.5453957    72.376919  0.034863641  0.037593836            1 
  174000    1.2233176    -6.517109    72.854524  0.034892013  0.037580855            2 
  175000    1.1952232   -6.5602042      72.7924  0.034663047  0.037567729            7 
  176000    1.2185925   -6.4936883      73.5979   0.03484749  0.037552904            1 
  177000    1.2109994   -6.5239201    74.036674  0.034857191   0.03754081            2 
  178000    1.2136706   -6.5491412    74.401251  0.034832046  0.037526045            3 
  179000    1.2365235   -6.5324386    74.603786  0.034731744  0.037511379            3 
  180000    1.2237771   -6.5652995    74.880761  0.034667019  0.037492355            3 
  181000    1.2393227    -6.476148    75.590759  0.034802375  0.037478328            2 
  182000    1.2307772   -6.5370067    75.962014  0.034781142  0.037462996            3 
  183000    1.2313239   -6.5283488    76.391093  0.034786472  0.037449644            3 
  184000    1.2222802   -6.5090567    76.916116  0.034835198  0.037435343            1 
  185000    1.2019705    -6.506332    77.288681  0.034814721  0.037420806            3 
  186000    1.1860418   -6.4980844    77.534518  0.034737687   0.03740485            4 
  187000    1.2273933   -6.5210547    77.772659  0.034658047  0.037386898            2 
  188000    1.2075002   -6.5423707    78.344497   0.03472717   0.03737081            8 
  189000    1.2296129   -6.5401085    78.755146  0.034724491    0.0373566            2 
  190000      1.21299   -6.4880388    79.078465  0.034683537  0.037337609            3 
  191000    1.1919022   -6.5300889    79.278841  0.034589372  0.037316508            1 
  192000    1.2355962   -6.5343243    79.702064   0.03459291  0.037293339            3 
  193000    1.1928556   -6.5085177    80.461881  0.034741745  0.037274167            2 
  194000    1.2288083   -6.5513966     80.42708  0.034547715  0.037254971            2 
  195000    1.1980464   -6.5132793    81.008414   0.03461898  0.037235192            3 
  196000    1.2312336   -6.5297758    81.426239  0.034619999  0.037216091            4 
  197000    1.1941361   -6.5193645    81.492792  0.034472416  0.037196664            2 
  198000    1.2400301   -6.5347558    82.257968  0.034620357  0.037175705            2 
  199000    1.2140358   -6.5597127    82.051199  0.034359799    0.0371531            2 
  200000      1.21504   -6.5492696    83.022295  0.034592623  0.037131896            3 
  201000    1.2212552   -6.5483131    83.186262    0.0344885  0.037112965            4 
  202000    1.2126913   -6.5216956    83.777063  0.034561495  0.037092234            2 
  203000    1.2122215   -6.5497436    83.892758  0.034438735  0.037071039            1 
  204000    1.2126818    -6.564215      84.3122  0.034441258  0.037048525            1 
  205000    1.1980722   -6.5642715    84.694186  0.034428531  0.037023695            2 
  206000    1.2122351   -6.5527148    85.169181  0.034453552  0.037001697            3 
  207000    1.2083928   -6.5186083    85.588241  0.034455813  0.036981458            3 
  208000    1.2145512   -6.5538167    86.248879  0.034554839  0.036961351            5 
  209000    1.2323987   -6.5272999    86.451043  0.034470113  0.036940466            2 
  210000    1.2171029   -6.5955327    86.791032  0.034440886  0.036920538            4 
  211000    1.2345835   -6.5482122    87.352075   0.03449924  0.036900006            1 
  212000    1.2209426   -6.5621396    87.378306  0.034346818  0.036878949            2 
  213000    1.2304947   -6.6103944    87.975686  0.034419283  0.036858623            4 
  214000    1.2197199   -6.5200807    88.851171  0.034599365  0.036839399            3 
  215000    1.2360098   -6.5649189    89.167814  0.034561168  0.036822778            2 
  216000    1.2063158   -6.5422173    89.559316  0.034552205  0.036802639            3 
  217000    1.2025128   -6.5625024    89.962088  0.034547653  0.036785881            2 
  218000    1.2039617   -6.5514397    90.180184  0.034472547  0.036767637            3 
  219000    1.2405753   -6.5053371    90.647059  0.034492792  0.036749664            3 
  220000    1.2249551   -6.5238015    90.898637  0.034431302  0.036733766            3 
  221000    1.1958735   -6.5492557    91.536859  0.034516161  0.036717582            1 
  222000    1.2314061   -6.5358706     92.19999  0.034609606  0.036703612            2 
  223000    1.2057833   -6.5569712    92.491787  0.034563448  0.036689643            3 
  224000    1.2284074   -6.5187552    93.740041  0.034873527  0.036677536            2 
  225000    1.2193607   -6.5578502    93.143678  0.034497659  0.036665627            2 
  226000    1.2253428   -6.5625051    93.910203  0.034627656  0.036651462            2 
  227000    1.1988537   -6.5489691    94.258989  0.034603153  0.036636877            2 
  228000    1.2167298   -6.5566464    94.641818  0.034591308  0.036622913            3 
  229000      1.20254   -6.5207469     95.28018  0.034672555   0.03660952            3 
  230000    1.2099387   -6.5417736    95.669724  0.034662944  0.036596378            3 
  231000    1.1989321   -6.5147021    96.351667  0.034758899  0.036585425            1 
  232000     1.212973   -6.5689903    96.466618  0.034650366  0.036574135            5 
  233000    1.2130913   -6.5951846    96.815089  0.034626284  0.036562352            4 
  234000    1.2031694    -6.540347    97.129689  0.034590345  0.036549953            3 
  235000    1.2215442   -6.5454903    97.430799  0.034549929  0.036537228            3 
  236000    1.1948186   -6.5428268    98.252455  0.034693663  0.036526172            2 
  237000     1.236976   -6.5520117    98.657111  0.034689561  0.036515389            3 
  238000     1.201637   -6.5477681    98.807226  0.034596368  0.036504425            4 
  239000    1.1942581   -6.5318942    99.770036  0.034787321  0.036494209            5 
  240000    1.2107366   -6.5693408    99.687199  0.034613611  0.036485964            8 
  241000    1.2417131   -6.5407886    100.56911  0.034774936  0.036477327            4 
  242000    1.2190511   -6.5744862    100.20639  0.034506332  0.036468796            2 
  243000    1.2395353   -6.6081387    100.79055   0.03456466  0.036457608            5 
  244000    1.1858283   -6.5333689    102.15772   0.03488993  0.036447716            4 
  245000    1.2165116   -6.5427441    102.28221  0.034789868  0.036441269            2 
  246000    1.1904085   -6.5965983    102.36783   0.03467745  0.036435447            3 
  247000     1.215534   -6.5493315      103.495  0.034917341  0.036430977            2 
  248000    1.2162921   -6.5714016    103.70172  0.034846008  0.036426491            2 
  249000    1.2145866   -6.5838773    104.06997  0.034829308  0.036420841            5 
  250000    1.1958222   -6.5507288    103.99745  0.034665817  0.036411411            2 
  251000     1.206307   -6.5485952     104.5616  0.034715006  0.036401954            2 
  252000    1.2006918   -6.5675801    104.78157  0.034649991  0.036392411            3 
  253000    1.2053339   -6.5301506    105.62924  0.034792239  0.036382698            2 
  254000    1.2407441   -6.5570621    105.84553  0.034726225  0.036372486            2 
  255000    1.2241865   -6.5643692    106.00066   0.03464074  0.036361546            2 
  256000    1.2079326   -6.5958062    106.14149  0.034551265  0.036348888            1 
  257000     1.203594   -6.5431599    106.53177  0.034543375  0.036337293            2 
  258000    1.2196802   -6.5855344    106.71959  0.034470153  0.036324564            3 
  259000    1.2069037   -6.6096269    107.19926  0.034491397  0.036311933            3 
  260000    1.2205738   -6.5880073     107.5976  0.034486409   0.03629958            3 
  261000    1.2386197   -6.4981123    108.51006  0.034645612  0.036287927            2 
  262000    1.2019842    -6.558773    108.60067  0.034542198   0.03627578            2 
  263000    1.2094963   -6.5550241    109.29842  0.034631947  0.036266051            2 
  264000    1.2122717   -6.5387647    109.73853  0.034639689  0.036255575            2 
  265000    1.2277918   -6.5773543    110.07817  0.034615778  0.036243618            2 
  266000    1.2127769   -6.5316358    110.62607   0.03465729  0.036232736            3 
  267000    1.1900577   -6.5313873    110.74088  0.034563321  0.036222544            2 
  268000    1.2158964   -6.6121599    111.11164  0.034549638  0.036210137            3 
  269000     1.203231    -6.522375    111.98707  0.034692401    0.0361982            2 
  270000    1.2030661     -6.53812    112.50923  0.034725071  0.036187818            1 
  271000    1.1960338    -6.586128    112.57559  0.034617339  0.036177912            3 
  272000    1.2174514   -6.6103693    112.30869  0.034408298  0.036165388            2 
  273000     1.207732    -6.537868    113.13462  0.034534377  0.036153482            2 
  274000    1.2125398   -6.5479681    113.73224  0.034590097  0.036143536            3 
  275000    1.1953609   -6.5902341    113.67601  0.034447276    0.0361311            3 
  276000    1.2009306   -6.5628524    114.43399  0.034551327  0.036118684            1 
  277000    1.1873933   -6.5301011    114.49151  0.034443897  0.036106986            2 
  278000    1.2190987   -6.5789381    114.97201  0.034464031  0.036093724            2 
  279000    1.2331311   -6.5900032    114.96619  0.034338766  0.036080176            2 
  280000    1.2249965     -6.55349    115.93076  0.034503202  0.036065654            3 
  281000    1.1852755   -6.5588245    115.88585  0.034367096  0.036052551            3 
  282000    1.2014525   -6.5680455    116.21871  0.034343591  0.036036889            1 
  283000    1.2445499   -6.5882625    116.84957  0.034408001    0.0360226            5 
  284000    1.2055326    -6.586514    116.98778  0.034327399  0.036007908            3 
  285000    1.2132245   -6.6471675    116.98974  0.034207525  0.035993111            2 
  286000    1.2299173   -6.5714297    117.76783  0.034314636  0.035978611            1 
  287000    1.2257045   -6.5395851    118.27244   0.03434159  0.035965033            3 
  288000    1.2158702   -6.6062131    118.42735  0.034267173  0.035950772            3 
  289000    1.1987775   -6.5496491    119.46004  0.034446378  0.035937073            1 
  290000    1.2108502   -6.5985834    119.34195  0.034293664  0.035923215            1 
  291000    1.1757325   -6.5470519    120.24345  0.034433978  0.035908798            1 
  292000    1.1982269     -6.53369    120.06303  0.034264565  0.035892969            2 
  293000    1.1570414   -6.5712083    120.64604  0.034313436  0.035878238            5 
  294000    1.2031177   -6.5864005    120.57841  0.034177553  0.035863457            2 
  295000    1.2124285   -6.5912289    121.53059  0.034330674  0.035848676            4 
  296000    1.2401484   -6.5858207    121.47025  0.034197706  0.035833618            3 
  297000    1.1922409   -6.5038686    122.42002  0.034349051  0.035820788            3 
  298000    1.2002759   -6.5352024    123.28002  0.034474278  0.035810012            4 
  299000    1.2039271   -6.5778931    123.28403  0.034360099  0.035798858            4 
  300000    1.2036796   -6.6097592    123.46063  0.034294619  0.035787498            5 
  301000    1.2046961   -6.6000461    123.69342  0.034245132  0.035775022            2 
  302000    1.1973371   -6.5990337    124.51951  0.034359687  0.035762946            2 
  303000    1.1892226   -6.5544798    125.25097  0.034447462  0.035751881            2 
  304000    1.1796082   -6.5789701    125.23742  0.034330432  0.035740188            3 
  305000     1.202396   -6.6050612     125.1856  0.034203716  0.035727752            2 
  306000    1.2254906   -6.5732523    126.05699  0.034329245  0.035715606            2 
  307000    1.2079166   -6.6058483    126.17917   0.03425059  0.035702914            4 
  308000    1.2135245   -6.5649612    126.47909  0.034220533  0.035689725            4 
  309000    1.1994074   -6.5998116    126.49591  0.034114323  0.035675187            7 
  310000    1.1908695   -6.5894153     126.5367  0.034015242   0.03566114            3 
  311000    1.2109572   -6.5706567    127.47142  0.034156328  0.035647243            5 
  312000    1.1728837   -6.5588382    128.33339   0.03427708  0.035634249            3 
  313000    1.1961322   -6.5958259    127.80819  0.034027739  0.035620824            2 
  314000    1.2116468   -6.6128066    127.98513   0.03396633  0.035605984            2 
  315000      1.18141   -6.5888971    128.73164  0.034055988  0.035592326            4 
  316000    1.1994873   -6.5751928    129.30909  0.034100497   0.03557893            1 
  317000    1.1956892   -6.5600947    130.11989  0.034206071  0.035565021            3 
  318000    1.2236395   -6.5860432      130.177  0.034113471  0.035551092            3 
  319000    1.1870886   -6.6072012    130.18225  0.034007902  0.035537259            4 
  320000     1.179498   -6.5950781    130.50058  0.033984527  0.035522069            2 
  321000    1.2091026   -6.6015018    131.04932  0.034021111  0.035508162            2 
  322000    1.1949316   -6.5727855    131.54289   0.03404319   0.03549466            2 
  323000    1.2043315   -6.6175475     131.5537  0.033940583  0.035479626            4 
  324000    1.2069639   -6.5986222     131.9109  0.033927701  0.035464853            3 
  325000    1.2107865    -6.605218    132.57807  0.033994376  0.035450515            2 
  326000    1.1847398   -6.5936088     133.2361  0.034058308  0.035436888            2 
  327000    1.1995919   -6.5844154     132.9617  0.033884224  0.035422372            2 
  328000    1.1881233   -6.6036542    133.55294  0.033931132  0.035408421            2 
  329000    1.1848235   -6.5959149    133.98988  0.033938672  0.035394919            3 
  330000    1.1755567   -6.5501296    135.23242  0.034149602  0.035382371            5 
  331000    1.1669322   -6.5842996    135.30897  0.034065701  0.035370909            4 
  332000    1.2072882   -6.5606889    135.98051  0.034131655  0.035360132            4 
  333000    1.2024867   -6.6137109    136.06419  0.034050098  0.035349258            1 
  334000     1.176151   -6.5834353    136.81245  0.034134842  0.035339731            2 
  335000    1.2020073   -6.5741044    137.88357  0.034299395   0.03533093            2 
  336000    1.1901648   -6.6269942    137.98957  0.034223605  0.035321957            2 
  337000    1.2205228   -6.6414374    137.97486  0.034118412  0.035312437            2 
  338000    1.2329818   -6.5994754    139.07519  0.034288756  0.035304223            2 
  339000    1.1968755   -6.5765049    139.78633  0.034362421  0.035297098            2 
  340000    1.2096022   -6.6227627    139.59385   0.03421418  0.035289559            3 
  341000    1.2082997   -6.6151332    139.53823  0.034100251  0.035281135            3 
  342000    1.2025449   -6.5853679    140.78261  0.034303756  0.035271856            2 
  343000    1.1907495   -6.5950565    140.89845  0.034231888  0.035264259            9 
  344000    1.1783396    -6.635159    140.81279  0.034111625  0.035255896            5 
  345000    1.1818979   -6.5857191    141.42757  0.034161249  0.035247031            4 
  346000    1.1912217   -6.5705287    142.06278  0.034215506  0.035238837            6 
  347000    1.1945886   -6.5217744    142.71418  0.034273338  0.035231699            3 
  348000    1.2011694   -6.6009353    142.38874   0.03409692  0.035222852            3 
  349000    1.2007437   -6.6206617    143.06787  0.034161382  0.035213237            7 
  350000    1.2104734   -6.5350987    143.83254  0.034245842  0.035204193            2 
  351000    1.1713376   -6.6202241    144.31831  0.034263606  0.035196952            5 
  352000    1.2042005   -6.5485461    145.25341  0.034387644  0.035191371            3 
  353000    1.2113266   -6.6244404    144.79492  0.034181992  0.035184702            5 
  354000    1.1934079   -6.6474938     144.9653  0.034125541  0.035178511            5 
  355000    1.1958339   -6.6207358    145.61775   0.03418257  0.035170731            4 
  356000    1.2020083    -6.649173    145.82667  0.034135455  0.035163248            4 
  357000    1.1980846   -6.6273327    147.49718   0.03442978  0.035157854            2 
  358000     1.190393   -6.5856115    147.32518  0.034293571  0.035154145            4 
  359000    1.1676918   -6.5932069    148.23663  0.034409617  0.035149435            3 
  360000    1.1929979   -6.6036548    148.57051  0.034391321  0.035144702            2 
  361000    1.2066367   -6.6037659    148.60257  0.034303457  0.035139662            2 
  362000    1.1857187   -6.6479972    149.20358  0.034347048  0.035135267            2 
  363000     1.227018   -6.6353237    148.92076  0.034187501  0.035129629            2 
  364000    1.1914772    -6.644025    149.66777    0.0342646  0.035124159            2 
  365000    1.1893614   -6.5904095    150.17897  0.034287437  0.035119437            4 
  366000    1.2157505   -6.6271845    150.67059   0.03430569  0.035114286            6 
  367000    1.1951322    -6.613534    150.63297  0.034203671  0.035109466            6 
  368000    1.2097233   -6.6409286    151.52197  0.034312041  0.035105346            2 
  369000    1.2006798   -6.6358568    151.70795  0.034261054  0.035100901            4 
  370000    1.2165938    -6.597078    152.91342  0.034439959  0.035097341            3 
  371000    1.2101683   -6.6279252    152.96271  0.034358201  0.035094025            2 
  372000     1.203702   -6.6215167    153.24567  0.034329227  0.035090783            3 
  373000    1.2181843    -6.588176    154.02672  0.034411688  0.035086398            2 
  374000    1.1935878   -6.6282306     154.0839   0.03433242   0.03508365            3 
  375000    1.2045461   -6.5962746    154.67362  0.034371916   0.03508031            2 
  376000    1.2147542   -6.6490939    155.14713  0.034385445  0.035077082            2 
  377000    1.2068727   -6.6462365    155.34604  0.034338205  0.035074173            2 
  378000    1.1956691   -6.6093177    156.11866  0.034417693  0.035071941            3 
  379000    1.1791662   -6.5873218    157.18281  0.034560863  0.035070387            3 
  380000    1.1825152   -6.6209572    157.43367  0.034524928  0.035069655            6 
  381000    1.1937628   -6.5788428    158.64303  0.034698826  0.035069549            2 
  382000    1.2009906   -6.5782724    158.23161  0.034518239   0.03506957            3 
  383000     1.179469    -6.613875    158.43223  0.034471764  0.035068565            2 
  384000    1.1941986   -6.5962408    158.79416  0.034460538  0.035066037            3 
  385000    1.1751958   -6.6412811    158.32694    0.0342699  0.035062062            3 
  386000    1.2065556   -6.6252014    159.22835  0.034375723  0.035058329            3 
  387000    1.1693181   -6.6011516    159.19122  0.034278903  0.035054819            5 
  388000    1.2039654   -6.5834726    159.34646  0.034223896  0.035051106            3 
  389000    1.1959789   -6.6199073    159.42733   0.03415324  0.035046573            2 
  390000    1.1754988    -6.626884    159.78529  0.034142155  0.035040425            4 
  391000     1.203847   -6.6364151    159.72982  0.034043014  0.035032799            2 
  392000    1.2149885   -6.6339774    160.78645  0.034180792  0.035025271            3 
  393000    1.1686798   -6.6244257    161.11712  0.034163936  0.035019105            2 
  394000    1.1856409    -6.706007    160.67361  0.033983419   0.03501262            4 
  395000    1.1731757   -6.6091819    161.84411  0.034144327  0.035005236            1 
  396000    1.2142301   -6.5886095     162.4827  0.034192488   0.03499946            5 
  397000     1.184095   -6.6111076    162.42895  0.034095077  0.034993799            2 
  398000    1.1653103    -6.590278    163.58766  0.034252023  0.034987352            1 
  399000     1.213701   -6.6349961    163.34553  0.034115608  0.034981037            4 
  400000    1.1983569   -6.6364235    163.62488  0.034088517  0.034973626            2 
  401000    1.1875116   -6.6075173    164.07257  0.034096543  0.034967046            2 
  402000    1.1920481   -6.6663431    164.32135  0.034063298  0.034958746            2 
  403000    1.1883903   -6.6115571    164.96728   0.03411234   0.03495012            2 
  404000    1.2046382   -6.6157239    165.23491  0.034083108  0.034942372            3 
  405000    1.1709353   -6.6556419    165.95838  0.034147816  0.034934631            5 
  406000    1.1573539   -6.6358259     165.8388  0.034039162  0.034927858            2 
  407000    1.1706623   -6.6302816    166.48846  0.034088545  0.034920541            3 
  408000    1.1475891   -6.6286313    167.02128  0.034113824  0.034913755            2 
  409000    1.1908465   -6.6219613    166.77152  0.033979527  0.034906667            3 
  410000    1.1642876    -6.657674    167.31337  0.034006783  0.034898924            2 
  411000    1.1933795   -6.6342447    167.99806  0.034062868  0.034891128            4 
  412000     1.164448   -6.6035705    169.04394  0.034191735  0.034883708            1 
  413000    1.2029837   -6.6455631      168.363  0.033971549  0.034875924            2 
  414000    1.1770046   -6.6088624    168.66527  0.033950337  0.034868427            2 
  415000    1.2159463   -6.6491009    169.05017  0.033945816  0.034862042            2 
  416000    1.1850104   -6.6318817    169.85206  0.034024852  0.034855511            4 
  417000    1.1885768   -6.6265395    170.41085  0.034054926  0.034848883            3 
  418000    1.2078355   -6.6159958    170.67399  0.034025915  0.034842671            8 
  419000    1.1678898    -6.624679    171.37175  0.034083483  0.034837165            2 
  420000    1.1731827   -6.5884037    171.97845  0.034122708  0.034831652            4 
  421000    1.1963343   -6.6687383    171.69169  0.033984895  0.034825289            3 
  422000    1.1732795   -6.6790103    172.02401  0.033969986  0.034818534            3 
  423000     1.188869   -6.5962705    172.44491  0.033972599  0.034812292            3 
  424000    1.1820075   -6.5916282    174.16534   0.03423061  0.034806774            4 
  425000    1.2127728   -6.6362575    173.79616  0.034077679  0.034801314            3 
  426000    1.1911683   -6.6526732    174.01303  0.034040108  0.034796082            5 
  427000    1.1724836    -6.585446    175.24462  0.034200745  0.034790261            2 
  428000    1.1674027   -6.6449128    174.68686  0.034012239   0.03478454            3 
  429000    1.1972092   -6.6358606    174.34365  0.033866288  0.034777634            4 
  430000    1.1912948   -6.6598641     174.8402   0.03388376  0.034770036            2 
  431000    1.1839503   -6.6550819    175.59018  0.033950151  0.034763327            3 
  432000    1.1943768   -6.6468681    175.88653  0.033928728  0.034757155            2 
  433000    1.1919217   -6.6038095    176.76316  0.034019084  0.034750947            3 
  434000    1.1622873   -6.6337353    176.86819  0.033960867  0.034744416            2 
  435000    1.2106431   -6.6520346     176.9071   0.03389025  0.034738475            2 
  436000    1.1602111   -6.6068348    177.82238  0.033987458   0.03473231            3 
  437000    1.1920711   -6.7010885    177.45389  0.033839414  0.034726153            2 
  438000    1.2164407   -6.6630149    177.75575  0.033819588  0.034719292            3 
  439000    1.1826943   -6.6496754    178.96652  0.033972384   0.03471282            1 
  440000    1.1893241   -6.6346709    179.35443  0.033968642  0.034705455            3 
  441000    1.1876233   -6.6023259    180.39231  0.034087738  0.034698995            2 
  442000    1.2103409   -6.6264053    179.77043   0.03389337  0.034692926            5 
  443000    1.1749082   -6.6760303    180.37719  0.033930999  0.034687513            2 
  444000    1.1867121   -6.6515215    180.68673  0.033912675   0.03468097            4 
  445000    1.1853241   -6.6325174    181.57809  0.034003387  0.034675551            2 
  446000    1.1836248   -6.6354522    182.07814  0.034020579   0.03466921            1 
  447000    1.1852193   -6.6609158    182.15862  0.033959473  0.034663463            2 
  448000    1.2008823   -6.6153296    183.39876  0.034114353  0.034657625            3 
  449000    1.1591455   -6.6150789    183.53948  0.034064491  0.034653624            3 
  450000    1.1884357   -6.6744355    183.39767  0.033962532  0.034648526            5 
  451000    1.1726347   -6.6255981     184.4312  0.034078197  0.034643554            4 
  452000    1.1977162     -6.57948    185.11501  0.034128873  0.034639077            1 
  453000    1.1780541   -6.6393814    184.91258  0.034016294  0.034633278            1 
  454000    1.1875216   -6.6280173    184.85919  0.033931569  0.034627203            3 
  455000    1.1790647   -6.7020149    184.62917  0.033814866  0.034621843            2 
  456000    1.1838153   -6.6680008    185.45914  0.033892386  0.034615709            2 
  457000    1.1557375   -6.6564935    185.89665  0.033898002  0.034609894            3 
  458000    1.1975434   -6.6455802    186.65586  0.033962129  0.034604258            3 
  459000    1.1882818    -6.662199    186.98405  0.033947721   0.03459865            2 
  460000     1.192935   -6.6795049    186.85353  0.033850277  0.034593326            5 
  461000    1.1680799   -6.6598669    188.14211  0.034009782   0.03458752            4 
  462000    1.1619251   -6.6452343    188.37333  0.033977874   0.03458219            3 
  463000    1.1722139    -6.649907    188.43006  0.033914698  0.034577003            4 
  464000    1.1659418   -6.6893494    188.80874  0.033909616  0.034572369            2 
  465000    1.1702289   -6.6202875    190.35245  0.034113342  0.034568719            2 
  466000    1.1802215   -6.6463678    189.91898  0.033962621    0.0345651            2 
  467000    1.1636853   -6.6186822     190.9208  0.034068666  0.034560827            3 
  468000    1.1776953   -6.6891303    190.36925  0.033897659  0.034555875            4 
  469000    1.1539149   -6.5987502    191.61003  0.034045848  0.034550798            2 
  470000    1.1986371   -6.6461941    191.55844  0.033964262  0.034545998            7 
  471000      1.16019   -6.6313654    191.36389   0.03385773  0.034540461            3 
  472000    1.1679184   -6.6426293    192.13099  0.033921432  0.034534768            2 
  473000    1.1939645   -6.6764586    192.30475  0.033880329  0.034529452            5 
  474000    1.1744842   -6.6389972    192.66668  0.033872483  0.034524228            3 
  475000    1.1988114   -6.6049877    193.81331  0.034002335  0.034519163            3 
  476000    1.1906127   -6.6376957    193.34542  0.033848989  0.034513817            4 
  477000    1.1585753   -6.7069431    193.05003  0.033726421  0.034508294            3 
  478000    1.1961212    -6.667804    194.27336  0.033869135  0.034502695            2 
  479000    1.1590921   -6.6544991    195.05562  0.033934521  0.034498369            3 
  480000    1.1710574   -6.6229792    195.43439  0.033929582  0.034493379            3 
  481000    1.1845509   -6.6543705    195.94267  0.033947102  0.034488487            3 
  482000    1.1906476   -6.6613656    195.94501  0.033877077  0.034483041            2 
  483000    1.1638967    -6.648547    196.61761  0.033922983  0.034478097            4 
  484000    1.1964911    -6.694918    195.73738  0.033701339  0.034472581            3 
  485000    1.1739971   -6.6168959    197.63166  0.033957331  0.034467437            2 
  486000    1.1778489   -6.6624023    197.35693  0.033840351  0.034462212            3 
  487000    1.1652671   -6.6409165    198.40053   0.03394944  0.034456427            1 
  488000    1.1747149   -6.6527323     198.2853  0.033860195  0.034451123            5 
  489000    1.1762572   -6.6635155    198.13859   0.03376595  0.034445188            4 
  490000    1.1958081   -6.6570518     198.6439  0.033782976   0.03443835            4 
  491000     1.179102   -6.6606995     198.0536  0.033613985  0.034431073            4 
  492000    1.1922088   -6.6658618    198.58921  0.033636385  0.034423857            4 
  493000    1.1600763   -6.6562858    199.39917  0.033705065  0.034416669            4 
  494000    1.1424194   -6.6576136    199.08607   0.03358402  0.034409732            4 
  495000    1.1734689   -6.6475837    200.19273   0.03370248  0.034402893            2 
  496000    1.1625315   -6.6286596    200.93156  0.033758662  0.034397211            4 
  497000    1.1767055   -6.6407972    201.20195  0.033736074  0.034391131            4 
  498000    1.1934129   -6.6343272    202.10159  0.033818874  0.034384905            3 
  499000    1.1595953   -6.6694456    201.42169  0.033637557  0.034378746            2 
  500000    1.1536551   -6.6623734    202.37375  0.033728959  0.034372884            2 
  501000    1.1976022   -6.6595689    203.03548  0.033771703  0.034366924            5 
  502000    1.1558015   -6.6696476    203.08622  0.033712851    0.0343622            2 
  503000     1.166514   -6.7219281    203.25914  0.033674477  0.034356708            3 
  504000    1.1572213   -6.6673888    204.45068  0.033804677   0.03435162            3 
  505000    1.1548938   -6.7123067    203.63828  0.033603676  0.034346296            4 
  506000      1.17371    -6.633853    205.11862  0.033781065   0.03434127            3 
  507000    1.1670872   -6.6238092    206.16712  0.033886771  0.034336671            4 
  508000     1.171162    -6.720412    205.41178  0.033696158  0.034331058            2 
  509000     1.177783   -6.6794981    206.21026  0.033760685   0.03432611            2 
  510000    1.1885227   -6.6550743    207.25309  0.033864885   0.03432087            2 
  511000    1.1640909   -6.6784421    206.84013  0.033731267  0.034316055            3 
  512000     1.170066   -6.6669975    207.80616  0.033822617  0.034311161            2 
  513000    1.1802865   -6.6638364    208.01536  0.033790669  0.034305761            3 
  514000    1.1876392   -6.6999244    207.98912  0.033720674  0.034300571            3 
  515000    1.1874038   -6.6929219    208.76752  0.033781151   0.03429604            3 
  516000    1.1603246   -6.6902379    208.89419  0.033736141  0.034290832            4 
  517000    1.1517994   -6.6329674    209.64924  0.033792591  0.034285714            1 
  518000    1.1876096    -6.664066    209.66558  0.033729983  0.034280061            5 
  519000    1.1742497   -6.6745818     209.8595   0.03369613  0.034274825            4 
  520000    1.1510768   -6.6994269    209.71918  0.033608842   0.03426936            3 
  521000    1.1856734   -6.6516534    211.21138   0.03378301  0.034263921            2 
  522000     1.165055   -6.6674481    211.24939  0.033724359  0.034259003            3 
  523000    1.1847439   -6.6684182    211.55458  0.033708506  0.034253906            2 
  524000    1.1436258   -6.7026762    211.37217  0.033615167  0.034248545            2 
  525000    1.1832089   -6.6557338    211.18751  0.033521827  0.034242541            3 
  526000    1.1857658   -6.6851598    212.27739  0.033630765  0.034236134            6 
  527000    1.1732899   -6.7090697    211.66351  0.033469878  0.034230277            1 
  528000     1.169684    -6.635024    213.88081   0.03375644  0.034224813            3 
  529000    1.1760359   -6.6750677    213.53441  0.033638061  0.034219613            1 
  530000    1.1850641   -6.7212968     213.5696  0.033580126  0.034213353            3 
  531000    1.1650503   -6.6552091    214.96059  0.033735184  0.034207655            2 
  532000    1.1592855     -6.64235    215.46739  0.033751158  0.034202491            6 
  533000    1.1709298   -6.6546567    215.03588  0.033620368  0.034197787            4 
  534000    1.1374573   -6.7067158    214.69792  0.033504669  0.034191586            5 
  535000    1.1585812   -6.7127075    215.85113  0.033621671  0.034185385            3 
  536000    1.1764652   -6.7321519    214.70648  0.033380982  0.034178907            2 
  537000    1.1664224   -6.6746333    216.19453   0.03354974  0.034172382            2 
  538000    1.1746334   -6.6481815    216.13242   0.03347776  0.034165245            5 
  539000    1.1823373   -6.6760943     216.5531  0.033480689  0.034158047            3 
  540000    1.1374494   -6.6961116    216.99213   0.03348644  0.034151822            3 
  541000    1.1654331   -6.6290297    217.90835  0.033565673  0.034145876            3 
  542000    1.1725815   -6.6812989    217.97326  0.033513724  0.034139675            3 
  543000    1.1782632   -6.7276301    218.51098  0.033534527  0.034133569            2 
  544000    1.1566943   -6.6462962    219.15109  0.033570939  0.034127524            4 
  545000    1.1685065   -6.6806961    219.57193   0.03357369  0.034121394            3 
  546000    1.1458555   -6.6579049    220.12142  0.033596066  0.034115344            2 
  547000    1.1339958   -6.7160627     219.7289  0.033474847  0.034108957            3 
  548000    1.1929397   -6.6788164    220.11194   0.03347201   0.03410222            2 
  549000     1.152425   -6.6589057    220.82193  0.033518812  0.034095475            4 
  550000    1.1613306   -6.7169064    220.31222  0.033380639  0.034088863            3 
  551000    1.1675157   -6.6585191     221.2443  0.033461025  0.034082229            3 
  552000    1.1635054    -6.699892    220.44448  0.033279662  0.034075577            4 
  553000     1.187007   -6.6902311     221.6955  0.033408001  0.034068922            3 
  554000     1.173682   -6.6921873    221.28494  0.033285941  0.034062172            2 
  555000    1.1699796   -6.6877464    221.16186  0.033207486  0.034054691            2 
  556000    1.1503159   -6.7139238    221.28389   0.03316605   0.03404572            2 
  557000     1.159353   -6.6847273    222.25648  0.033252016  0.034037278            3 
  558000    1.1536307   -6.6536069      223.463  0.033372611  0.034029111            4 
  559000    1.1479236   -6.7062865    223.32697   0.03329263  0.034021779            2 
  560000    1.1424799   -6.7156652    223.25859  0.033223005  0.034013803            4 
  561000    1.1532344   -6.6781157    224.77776  0.033389447  0.034005816            5 
  562000    1.1829275   -6.6696792    224.52402  0.033292411  0.033998826            3 
  563000    1.1483046   -6.7004691    224.31729  0.033202678  0.033990739            4 
  564000    1.1440452   -6.6644412    225.79176  0.033361667  0.033983168            1 
  565000    1.1636839   -6.7114953    225.36871  0.033240222  0.033975325            4 
  566000    1.1942489   -6.7036043    225.72081  0.033233335   0.03396792            3 
  567000     1.158292   -6.7094114    226.74298  0.033324953  0.033960879            3 
  568000    1.1574439   -6.6569089    227.02176  0.033307183  0.033953382            5 
  569000    1.1777253   -6.7207107    225.78505  0.033067524  0.033945403            2 
  570000    1.1725818   -6.7297963    226.69149  0.033142031  0.033936452            1 
  571000    1.1701153   -6.7101776    226.96674  0.033124159  0.033928051            3 
  572000    1.1634808   -6.7119912    227.36368  0.033124079  0.033919256            6 
  573000    1.1128774   -6.6732404    228.03877  0.033164452  0.033910525            3 
  574000    1.1676689   -6.6691364    227.87607  0.033083053  0.033901413            3 
  575000    1.1479684   -6.7097953    227.90206  0.033029285  0.033892422            2 
  576000    1.1474448   -6.7150903    228.52692  0.033062344  0.033883277            2 
  577000    1.1593665   -6.6876603    228.67102  0.033025856  0.033874058            3 
  578000    1.1735486   -6.7222336    228.93338  0.033006543  0.033865355            2 
  579000    1.1813703   -6.6814918    230.08005  0.033114573  0.033856328            2 
  580000    1.1581942   -6.6972382    230.05402  0.033053738  0.033847834            9 
  581000     1.155322   -6.6633616    230.64234   0.03308123   0.03383918            3 
  582000    1.1485748   -6.7173954    230.44285  0.032995826  0.033830285            4 
  583000     1.154632   -6.7291835    230.70502  0.032976703  0.033820959            2 
  584000    1.1772366   -6.6857082    231.81064  0.033078002  0.033812509            5 
  585000    1.1470423   -6.6814467    231.50515  0.032977942  0.033803983            2 
  586000    1.1548985   -6.7423713    231.43663  0.032911921  0.033795106            3 
  587000    1.1557702   -6.6645225    232.86759  0.033058999  0.033786344            3 
  588000    1.1475985    -6.699003    232.85577  0.033001101  0.033777528            3 
  589000    1.1673588   -6.7149949    233.22165  0.032996838    0.0337685            4 
  590000    1.1540347   -6.7017517    234.28697  0.033091379  0.033760182            3 
  591000    1.1433118   -6.7037907    233.79106  0.032965462  0.033751541            2 
  592000    1.1649592   -6.6834596    234.71482  0.033039811   0.03374308            3 
  593000    1.1559778   -6.7117923     234.6623  0.032976714  0.033734969            7 
  594000    1.1413128   -6.7188442    234.78868  0.032938928  0.033726656            2 
  595000    1.1549585   -6.6966259    235.36574  0.032964389  0.033718135            6 
  596000    1.1474435   -6.7385287    235.11237  0.032873654  0.033709501            3 
  597000    1.1415297   -6.6512254    236.79232  0.033053088  0.033700951            3 
  598000    1.1560261   -6.6954781    235.25925  0.032784176  0.033691876            3 
  599000    1.1213621   -6.7236906    236.06597  0.032841676  0.033682266            2 
  600000    1.1787793   -6.7060103    236.61062  0.032862586  0.033672805            2 
  601000    1.1587183   -6.6801121    237.56739   0.03294057  0.033663423            2 
  602000    1.1422744   -6.7077252    238.29861  0.032987072  0.033653725            3 
  603000    1.1247884   -6.7395828    237.24173  0.032786309  0.033644802            3 
  604000    1.1238485   -6.7544513    238.10841  0.032851601  0.033635939            2 
  605000    1.1596987   -6.7267262    237.61493  0.032729329  0.033626376            3 
  606000     1.156431   -6.6965065    238.93426  0.032856746  0.033616699            4 
  607000    1.1430026   -6.7278198    238.32695   0.03271924  0.033606907            5 
  608000    1.1676602   -6.7006806    239.46329  0.032821175  0.033597353            4 
  609000     1.137534   -6.7454132    238.60197  0.032649422  0.033587938            3 
  610000    1.1691834   -6.7261718    239.83167   0.03276389  0.033578088            2 
  611000    1.1699982   -6.7111928    240.75116  0.032835673  0.033568602            3 
  612000    1.1532415   -6.7171861    239.81832  0.032654999  0.033559374            4 
  613000    1.1689796   -6.7483938    240.77078   0.03273121  0.033550401            3 
  614000    1.1622329    -6.723428    240.21076  0.032601894  0.033540799            5 
  615000    1.1291405   -6.6698796    241.90337  0.032778235  0.033531474            5 
  616000    1.1641743   -6.6953104    242.69853  0.032832593  0.033522012            3 
  617000    1.1788502   -6.7451986    241.37967  0.032601251  0.033512122            2 
  618000    1.1628347   -6.6755096    242.19884  0.032658958  0.033502245            3 
  619000    1.1531672   -6.7059645    242.99208  0.032712988  0.033493199            1 
  620000     1.158919   -6.6746387    243.74583  0.032761537  0.033484039            2 
  621000     1.185018   -6.7158758    243.57929  0.032686432  0.033474617            4 
  622000    1.1452326   -6.6953998    243.15518  0.032577061  0.033464798            2 
  623000    1.1473663   -6.6986377    244.47301  0.032701045   0.03345489            2 
  624000    1.1569604    -6.703958    244.41768   0.03264125  0.033445067            2 
  625000    1.1531886   -6.6710901    245.03654  0.032671539   0.03343563            3 
  626000    1.1364571   -6.7196076    244.61389  0.032563085  0.033425587            2 
  627000    1.1681411   -6.7242458    245.11945  0.032578343  0.033415402            4 
  628000    1.1313254   -6.6931912    246.37497  0.032693069  0.033406025            7 
  629000    1.1756906   -6.7242341    246.76158  0.032692314  0.033396868            4 
  630000    1.1738456   -6.7028728    246.78397  0.032643382  0.033387531            2 
  631000    1.1289649   -6.7219489    246.89217  0.032605939  0.033378797            4 
  632000    1.1538091   -6.6961559     247.9247  0.032690493  0.033369387            7 
  633000    1.1686792    -6.717734     247.5095   0.03258419  0.033360095            5 
  634000    1.1311499    -6.667937    247.88673  0.032582377  0.033350672            3 
  635000    1.1341683    -6.706206    247.76182  0.032514675  0.033341594            9 
  636000    1.1612028   -6.6773605    249.80663  0.032731477  0.033332391            3 
  637000    1.1625077   -6.7407613    248.28036  0.032480423  0.033322404            5 
  638000    1.1398341   -6.6827263    250.11617  0.032669301  0.033312281            2 
  639000    1.1311023    -6.737697    249.10203  0.032485919  0.033302627            3 
  640000    1.1693272   -6.7316027    248.73994  0.032388014  0.033292742            3 
  641000    1.1184008   -6.7684355    249.33406  0.032414724  0.033282464            4 
  642000    1.1297612   -6.7563678    249.61057  0.032400126  0.033271999            2 
  643000    1.1848778   -6.7221995    250.24774  0.032432315   0.03326163            2 
  644000    1.1379158   -6.6962531    250.42292  0.032404622  0.033251902            3 
  645000    1.1627582   -6.7244214    250.75164  0.032396853  0.033241742            2 
  646000    1.1393352   -6.7544645    251.24017  0.032409722  0.033231519            4 
  647000    1.1370407   -6.7231353    251.64427  0.032411678  0.033221116            4 
  648000     1.156954     -6.69108    251.73905  0.032373849  0.033210606            2 
  649000    1.1404308   -6.6969772    252.66843  0.032443301  0.033200338            4 
  650000    1.1414244   -6.7616019    251.95297  0.032301663  0.033189721            7 
  651000    1.1464418   -6.7479307    252.30135   0.03229664  0.033179115            3 
  652000    1.1543814   -6.7491047    252.80201  0.032311095  0.033168216            6 
  653000    1.1606237   -6.7011386    253.58572  0.032361629  0.033157674            2 
  654000    1.1293457   -6.7301577    254.52967  0.032432425  0.033147383            3 
  655000    1.1226521   -6.7327532    254.31556   0.03235567  0.033137375            2 
  656000    1.1412862   -6.6945183    254.67329   0.03235179  0.033127562            5 
  657000    1.1412063   -6.7445342    254.21784   0.03224478  0.033117439            4 
  658000    1.1457839   -6.7645231    253.90312  0.032155916  0.033106936            2 
  659000    1.1570643   -6.7319928    255.46397  0.032304498   0.03309679            3 
  660000    1.1689476   -6.7240888    256.17432  0.032345243  0.033086909            1 
  661000    1.1414986   -6.7448841    255.85702  0.032256306  0.033077296            4 
  662000    1.1417762   -6.7759161    256.70158  0.032313894  0.033067624            3 
  663000    1.1395769    -6.732664    257.40403  0.032353447  0.033057905            6 
  664000    1.1445875   -6.7125631     257.1456  0.032272289  0.033047624            3 
  665000    1.1561778   -6.7409215    256.47343  0.032139527  0.033037358            3 
  666000      1.14888   -6.7052865    258.42556   0.03233553  0.033027701            4 
  667000    1.1446095   -6.6888375    258.54047  0.032301409  0.033018383            4 
  668000    1.1587651   -6.7336693    257.63248   0.03213978  0.033008704            3 
  669000    1.1463145    -6.721713    258.27853  0.032172213  0.032998536            3 
  670000    1.1402565   -6.7122659     259.4651  0.032271779  0.032988086            4 
  671000     1.120736   -6.7240454    259.29191  0.032202174  0.032978167            3 
  672000    1.1500406   -6.7419634    259.76098  0.032212423  0.032967932            2 
  673000    1.1482225   -6.6981457    259.83163  0.032173308   0.03295735            2 
  674000    1.1746923   -6.7379503    260.55295  0.032214757  0.032946861            4 
  675000    1.1404357   -6.7287834    259.46226  0.032032378  0.032936492            4 
  676000    1.1256732    -6.767172    260.81171  0.032151345  0.032926019            3 
  677000    1.1435057    -6.772316    260.44562  0.032058791  0.032915631            2 
  678000    1.1282069   -6.7041157    261.99782  0.032202288  0.032905094            3 
  679000    1.1602551   -6.7464689    261.84867  0.032136557  0.032894691            5 
  680000    1.1289623   -6.7399212      261.973  0.032104535  0.032884455            4 
  681000    1.1357862   -6.7289777    262.32381  0.032100319  0.032874509            3 
  682000      1.14795   -6.7179913     263.0444    0.0321413  0.032864235            2 
  683000      1.15503     -6.71582    263.99301  0.032209982  0.032854552            2 
  684000     1.152305   -6.7321559    263.81774  0.032141537  0.032844987            3 
  685000    1.1194751   -6.6932332    263.95359  0.032111142  0.032835684            5 
  686000    1.1406632   -6.7043876    264.89712   0.03217895  0.032826271            4 
  687000    1.1425308   -6.7787915    265.21678  0.032170885  0.032816793            2 
  688000    1.1227587   -6.7877875    264.87241  0.032082414  0.032807527            4 
  689000    1.1075977   -6.7437513    264.97694  0.032048494  0.032798332            4 
  690000    1.1141534   -6.7150556    266.33306  0.032165829  0.032789702            4 
  691000    1.1158732    -6.732311    266.33158  0.032119101  0.032780828            3 
  692000    1.1534428   -6.7374147     266.4641  0.032088645  0.032771221            5 
  693000    1.1365206   -6.7343256    267.06525  0.032114629  0.032761516            3 
  694000    1.1010205   -6.7679032    265.94143  0.031933409  0.032751647            2 
  695000     1.138272   -6.7528972    267.56427  0.032082047   0.03274188            5 
  696000    1.1352032   -6.7724127     267.7308  0.032055891  0.032732454            4 
  697000     1.161877   -6.7464347    267.25198  0.031952652  0.032723016            4 
  698000    1.1354827   -6.7347749    268.20043  0.032020108  0.032713919            1 
  699000    1.1345642   -6.7313686    269.82471  0.032167944  0.032704827            5 
  700000    1.1273763   -6.6695923    269.52662  0.032086502  0.032695477            2 
  701000    1.1279659   -6.7835955    268.61114    0.0319319  0.032686076            6 
  702000    1.1606473   -6.7371283    270.49324  0.032109833  0.032676329            2 
  703000    1.1362931   -6.7664138     269.8934  0.031993054  0.032666894            3 
  704000    1.1312642   -6.7425103    270.13703  0.031976447  0.032657457            5 
  705000    1.1372532   -6.7331352    270.40331  0.031962566  0.032647691            4 
  706000    1.1017045   -6.7512321    270.94459  0.031981183  0.032638764            2 
  707000    1.1289442   -6.7542684    271.54624  0.032006865  0.032629362            2 
  708000    1.1311656   -6.7761877    271.02497  0.031900303  0.032620343            2 
  709000    1.1182239   -6.7134524    272.94459  0.032080934  0.032611483            3 
  710000    1.1659017   -6.7686586    271.28891  0.031841421  0.032602367            3 
  711000     1.161934   -6.7551426    272.76512  0.031969658  0.032593395            3 
  712000    1.1677164   -6.7525068    273.21603  0.031977532  0.032584303            3 
  713000    1.1415928   -6.7585253     272.2857  0.031823949  0.032575265            3 
  714000    1.1256256    -6.732558    273.07395  0.031871376  0.032565879            1 
  715000    1.1503074   -6.7428463    273.60189  0.031888332   0.03255646            2 
  716000    1.1435205   -6.7318153    274.54825  0.031953939  0.032547017            3 
  717000    1.1578811   -6.7584294    275.77092  0.032051478  0.032538042            6 
  718000    1.1373004    -6.747005    275.56628  0.031983087  0.032529822            4 
  719000    1.1393516    -6.762152    275.68727  0.031952627  0.032521152            2 
  720000    1.1215315   -6.7514798    276.55866  0.032009105  0.032512323            2 
  721000    1.1273588   -6.7737911    275.97362  0.031897089  0.032502949            4 
  722000    1.1362737    -6.768232     275.9745  0.031853013  0.032493624            2 
  723000    1.1396539   -6.7560699    276.03563  0.031816002  0.032484446            3 
  724000    1.1255135   -6.7645746      276.469  0.031821939  0.032474992            6 
  725000    1.1291865   -6.7558779    275.89353    0.0317119  0.032465929            3 
  726000    1.1273185   -6.7451109    278.07147  0.031918213  0.032457082            5 
  727000     1.156441   -6.7826164    277.60619  0.031820975  0.032448074            2 
  728000    1.1649742    -6.774795    278.82609  0.031916906  0.032439299            2 
  729000    1.1106474   -6.7870229    278.13533  0.031794162  0.032430396            4 
  730000    1.1509734   -6.7148065    279.49435  0.031905748  0.032421455            6 
  731000    1.1292554   -6.7206108    280.91344  0.032023876  0.032412874            2 
  732000    1.1337064   -6.7332718    279.83735  0.031857622  0.032404469            4 
  733000    1.1263968   -6.7804868    279.57227  0.031784024  0.032395517            3 
  734000    1.1271512    -6.720194    280.38959  0.031833514  0.032386919            3 
  735000     1.123948   -6.7228523    280.74733  0.031830763  0.032378172            2 
  736000    1.1192574   -6.7402334    281.05982  0.031822896  0.032369515            5 
  737000    1.1325571   -6.7583514     280.6716  0.031735821  0.032360253            4 
  738000    1.1365872   -6.7594913    279.81874  0.031596515  0.032350932            2 
  739000    1.1365134   -6.7506446    281.76519  0.031773251  0.032341775            2 
  740000    1.1351737   -6.7421625    282.24152  0.031783955   0.03233223            2 
  741000    1.1286746   -6.7853509    281.21407  0.031625514  0.032322807            5 
  742000    1.1267213   -6.8021237    281.35917  0.031599188  0.032312898            2 
  743000    1.1419303   -6.7801468    281.89276  0.031616505  0.032303087            3 
  744000    1.1175745   -6.8280347     281.2967  0.031507246  0.032293265            5 
  745000    1.1211887   -6.7724899    282.98703   0.03165403  0.032283677            2 
  746000    1.1432536   -6.8106517    282.45032  0.031551645  0.032274145            4 
  747000    1.1131841    -6.754443     283.2925  0.031603358  0.032264232            3 
  748000    1.1151096   -6.7475972    283.31192  0.031563271  0.032254688            2 
  749000    1.1414778   -6.7453507    284.82161  0.031689097  0.032244924            2 
  750000    1.1178172    -6.778144    283.18233  0.031464704  0.032234669            2 
  751000     1.113739   -6.8034195    284.11094  0.031525848  0.032224852            4 
  752000    1.1515156   -6.7585672    284.88008  0.031569157  0.032215046            3 
  753000     1.132027   -6.7503995    285.98882  0.031649936    0.0322058            5 
  754000    1.1084493   -6.7569034    285.95727  0.031604472  0.032196673            6 
  755000    1.1341792   -6.7608278    285.76989  0.031541931  0.032187201            2 
  756000    1.1253815   -6.7482773    286.68547  0.031601132  0.032177692            3 
  757000    1.1239262   -6.7754966     288.4732  0.031756187  0.032168694            2 
  758000    1.1345673   -6.7665717    287.39911  0.031596208      0.03216            2 
  759000    1.1228664   -6.8096725    287.00478  0.031511285  0.032150825            4 
  760000    1.1432866     -6.78504     287.3506  0.031507742  0.032141592            5 
  761000    1.1166924    -6.786451    287.04982  0.031433401  0.032132429            6 
  762000    1.1318139   -6.7532883    288.67666  0.031570064   0.03212316            3 
  763000    1.1282993    -6.750918    289.31809  0.031598743  0.032114098            5 
  764000    1.1181805   -6.7382146    289.77518  0.031607241  0.032104914            2 
  765000    1.1251272   -6.7885537    289.12487  0.031495084  0.032096111            4 
  766000    1.1242891   -6.7672602    289.29453  0.031472425  0.032086937            5 
  767000     1.107849   -6.8106329    289.28299  0.031430138  0.032077203            4 
  768000    1.1202865   -6.7590475     290.4545   0.03151633  0.032067157            2 
  769000    1.1125136   -6.7807105    291.06049  0.031541016  0.032057842            4 
  770000    1.1125543     -6.75304    291.68128  0.031567239  0.032048594            5 
  771000    1.1170288   -6.8026802    290.08835  0.031354124  0.032039254            2 
  772000    1.1195896   -6.7582079    291.49154  0.031464976  0.032029873            5 
  773000    1.1312861   -6.7792282    291.71698  0.031448574  0.032020463            2 
  774000    1.1297671   -6.7757291    291.43553  0.031377641  0.032010733            1 
  775000    1.1253988   -6.7335309    291.67549  0.031362955  0.032001278            2 
  776000     1.134681   -6.7594001    292.41793  0.031402269  0.031991591            6 
  777000    1.1131334   -6.7571261    292.96688  0.031420729   0.03198191            2 
  778000    1.1339833    -6.806059    293.74241  0.031463412  0.031972583            2 
  779000     1.138963   -6.7569071    293.43905   0.03139057  0.031963199            2 
  780000    1.1460835   -6.7323112    293.66596  0.031374568  0.031953959            7 
  781000    1.1339192   -6.7720443    293.42852  0.031309061  0.031944446            2 
  782000    1.1272639    -6.814043    293.54501  0.031281438  0.031934786            3 
  783000    1.0942401   -6.8066386    293.42435  0.031228645   0.03192456            6 
  784000    1.1421131   -6.7967918    294.23445  0.031274921  0.031914594            3 
  785000    1.1113797   -6.7938908    293.40319  0.031146835  0.031904559            1 
  786000    1.1149588   -6.7749113    294.92959  0.031269041  0.031894698            6 
  787000     1.106518   -6.8139285    294.69499  0.031204468  0.031884692            2 
  788000    1.1147197   -6.8087995    294.77611  0.031173446   0.03187435            3 
  789000    1.1346014   -6.7667735    296.07725  0.031271361  0.031864176            3 
  790000     1.120753   -6.7793567    296.67489   0.03129482   0.03185438            4 
  791000    1.1078802    -6.807514    297.03342  0.031293027   0.03184465            2 
  792000    1.1213308    -6.780256    297.40781   0.03129291  0.031834903            5 
  793000    1.0980209   -6.7569137    297.86499  0.031301491  0.031825544            4 
  794000    1.0963207   -6.7740484    297.61961  0.031236315  0.031816141            2 
  795000    1.1274981   -6.8051496    297.29798   0.03116331  0.031806713            2 
  796000    1.1210992   -6.7237284    299.67753  0.031373276  0.031797343            2 
  797000    1.1244102    -6.808263    298.27342    0.0311871  0.031788118            3 
  798000    1.1279807   -6.8283511    298.02912  0.031122506  0.031778541            7 
  799000    1.1191661   -6.8062806    298.53217  0.031136021  0.031769067            5 
  800000     1.130601   -6.7941171    298.96933  0.031142639  0.031759511            2 
  801000     1.097416   -6.8416862    298.81353   0.03108755  0.031749999            6 
  802000    1.1203728   -6.7908748    300.36437   0.03120993  0.031740547            2 
  803000    1.1454554   -6.8101706    300.63998  0.031199666  0.031731189            2 
  804000    1.1010065   -6.7748301     301.1399  0.031212676  0.031721834            1 
  805000    1.1174864   -6.8105776    299.82997  0.031038299  0.031712571            4 
  806000    1.1339391   -6.7939585     301.1229  0.031133467  0.031703074            7 
  807000    1.1183438   -6.7513327    301.71466  0.031155995  0.031693639            5 
  808000    1.1423375   -6.7933263    301.17507  0.031061785  0.031684481            2 
  809000    1.0837326   -6.8083876     301.7211  0.031079635  0.031675127            2 
  810000    1.1348487   -6.7904404    301.49353  0.031017853  0.031665314            6 
  811000    1.1057038    -6.823183    300.88277  0.030916848  0.031655418            3 
  812000    1.1166871   -6.7392764    303.08943  0.031105237  0.031645929            3 
  813000    1.1206524   -6.7489054    302.17086  0.030972823   0.03163649            1 
  814000    1.1341681    -6.800544    302.24318  0.030942177  0.031626798            4 
  815000    1.1398244   -6.7886965    303.74398  0.031057667  0.031617299            2 
  816000    1.1101437   -6.8294027    302.93215  0.030936698    0.0316076            3 
  817000     1.134242   -6.7672461    305.16469  0.031126549  0.031597906            6 
  818000    1.1226271    -6.803233    303.18798  0.030887121  0.031588381            2 
  819000    1.1281527   -6.7414155    305.01023  0.031034822  0.031578532            1 
  820000    1.1173944   -6.8047243    304.54738  0.030949937  0.031568711            3 
  821000     1.108544   -6.7930283    304.16406  0.030873332  0.031558499            3 
  822000    1.1327283   -6.7967212     303.8286  0.030801764  0.031548155            3 
  823000    1.1005013   -6.8187965    303.26685  0.030707458   0.03153784            7 
  824000    1.1152444   -6.7893779    305.06925  0.030852473   0.03152761            7 
  825000    1.1114792   -6.7855233    305.96349  0.030905403  0.031517603            1 
  826000    1.1029331   -6.7952409    305.97848    0.0308695  0.031507565            7 
  827000    1.1284627   -6.8138935    306.21796  0.030856304  0.031497098            1 
  828000    1.1168415   -6.8129502    305.78357  0.030775319  0.031486932            3 
  829000    1.1351585   -6.7495352    307.39766  0.030900448  0.031477016            4 
  830000    1.1087746   -6.8261922    306.48313  0.030771399  0.031467137            2 
  831000    1.1160557   -6.7859582    307.15596  0.030801841  0.031457024            2 
  832000    1.1196558   -6.7805749    307.56228  0.030805516  0.031447098            3 
  833000      1.11387   -6.7725706    307.29316  0.030741612  0.031437259            6 
  834000    1.1023082   -6.7345971    309.03149  0.030878446  0.031427606            2 
  835000    1.1212831     -6.79173    309.37023  0.030875272  0.031417634            3 
  836000     1.102266   -6.8234657     308.4181  0.030743431  0.031407499            6 
  837000    1.1136054   -6.7839225    309.71339  0.030835662  0.031397149            2 
  838000    1.1222875   -6.8233547    309.56872  0.030784479  0.031387209            3 
  839000    1.1028858   -6.8146213    309.23727  0.030714866  0.031377262            7 
  840000    1.1290547   -6.7879072    309.46091  0.030700487   0.03136717            5 
  841000    1.1077266    -6.818657    309.98298  0.030715713  0.031356917            5 
  842000      1.12831   -6.8607888    308.47554  0.030530041  0.031346094            3 
  843000    1.1019777   -6.8186163    309.35962   0.03058122  0.031335233            7 
  844000    1.1258243   -6.8233906    309.64244  0.030572911  0.031324707            4 
  845000    1.1133768   -6.8226603    310.81567  0.030652432  0.031314216            2 
  846000    1.1128512   -6.8519578    309.91776  0.030527754  0.031303493           10 
  847000    1.1222676   -6.7905505    311.57618  0.030654878  0.031292922            5 
  848000    1.1198602   -6.8447762    310.95285  0.030557474  0.031282732            3 
  849000     1.116527   -6.7876283    311.41499  0.030566842  0.031272314            3 
  850000    1.1188077   -6.8448587    309.93826  0.030386104  0.031261633           10 
  851000    1.1126944   -6.8126459    311.51968  0.030505257  0.031250378            2 
  852000    1.1383779   -6.8000821    311.38686  0.030456462  0.031239304            5 
  853000    1.1134386   -6.7982468    311.51005  0.030432791  0.031228313            4 
  854000    1.1251838   -6.8195759    311.65748  0.030411541  0.031217532            3 
  855000    1.1117236   -6.8142969    313.18124  0.030524487  0.031206313            3 
  856000    1.1047954   -6.7995899    312.65214  0.030437319  0.031195338            5 
  857000    1.1152479   -6.8236195    313.18738  0.030453849  0.031184183            6 
  858000    1.1014989   -6.7590869    313.12672  0.030412463  0.031172883            3 
  859000    1.1101017   -6.7831206    314.70338  0.030530014  0.031162009            2 
  860000     1.101121   -6.7880379    314.13391  0.030439332  0.031151336            3 
  861000    1.1053688   -6.8174874    314.94478   0.03048246   0.03113998            3 
  862000    1.1104546   -6.8499595    314.22902  0.030377902  0.031128729            3 
  863000    1.1069895   -6.8342815    314.67616  0.030385878  0.031117474            4 
  864000    1.0989643   -6.8609343    313.02427  0.030191384  0.031105936            2 
  865000    1.1068386   -6.8386704    314.31212  0.030280551  0.031094373            2 
  866000    1.1291535   -6.8358927    314.99864  0.030311648   0.03108315            2 
  867000    1.1150571   -6.8391559    314.56275  0.030234789  0.031071804            2 
  868000    1.1093897   -6.8361792    315.33758  0.030274345  0.031060489            3 
  869000    1.1326767   -6.8118394    315.63775  0.030268292  0.031048949            5 
  870000    1.1026919   -6.8094168    314.63913  0.030137847  0.031037651            1 
  871000    1.0758713   -6.8799303    314.79424  0.030118087  0.031025768            2 
  872000    1.1321467   -6.8397484    315.15028  0.030117572  0.031013753            4 
  873000    1.1015381    -6.851034    316.08302   0.03017211  0.031001902            5 
  874000    1.1111548   -6.7686721    318.21023  0.030340411  0.030990371            1 
  875000    1.1276739   -6.8621163    316.11476  0.030106167  0.030978851            4 
  876000    1.1144438   -6.8215876    317.17871  0.030173013  0.030967186            2 
  877000    1.1338243   -6.7949633    317.26787   0.03014708  0.030955296            4 
  878000    1.1295673   -6.8133746    316.82829  0.030071022  0.030943486            2 
  879000     1.117412    -6.807951     317.8141  0.030130271  0.030931538            2 
  880000    1.1020847   -6.8391621    317.55613  0.030071603  0.030919645            2 
  881000    1.1192061   -6.8300696    317.83378  0.030063733  0.030907927            3 
  882000    1.1013241   -6.8157253    317.80673  0.030027091  0.030895806            7 
  883000    1.1280931   -6.8493595    318.41629  0.030050612  0.030883837            5 
  884000    1.0987166   -6.8216115    317.85096  0.029963326  0.030871689            2 
  885000    1.1301733   -6.9186551    316.88557  0.029838566  0.030858959            1 
  886000    1.1034624   -6.8190439    319.13748  0.030016693  0.030846528            8 
  887000    1.1054846   -6.7902846    319.32677  0.030000636  0.030834501            5 
  888000    1.0947429   -6.8330339    319.51562  0.029984574  0.030822412            5 
  889000    1.1331402    -6.842331    320.17782  0.030012919  0.030810081            4 
  890000     1.132464   -6.8350801    318.86988  0.029856731  0.030797675            3 
  891000    1.0885269   -6.8014616     320.5598  0.029981275   0.03078558            3 
  892000    1.0972619   -6.8243828    319.48937  0.029847662  0.030773475            2 
  893000    1.1185338   -6.8230551    320.48477  0.029907127  0.030761423            3 
  894000    1.0964126   -6.7996824    320.84025   0.02990681  0.030749311            3 
  895000    1.0969823   -6.8260953    320.86163  0.029875384  0.030737162            5 
  896000    1.1127148   -6.8773829    320.45733  0.029804439  0.030725016            3 
  897000      1.10061   -6.7823983    322.26254  0.029938921  0.030712929            4 
  898000    1.1168901   -6.8677236    320.46537  0.029738805  0.030700896            3 
  899000    1.0993383   -6.8500791    321.61782  0.029812553  0.030688213            4 
  900000    1.1225281   -6.8636847    321.36419  0.029755943  0.030675708            4 
  901000    1.1179602   -6.8558495    320.47924  0.029641069  0.030662947            2 
  902000    1.1133951   -6.8548706    322.29158  0.029775645  0.030650405            4 
  903000    1.0992782   -6.8520452    321.79296  0.029696656  0.030637769            7 
  904000    1.0986381   -6.9200389    320.79613  0.029571915  0.030625039            8 
  905000    1.1027757   -6.8111895    322.70044  0.029714589  0.030612543            2 
  906000    1.1058952    -6.823074    323.46613  0.029752219  0.030600321            2 
  907000    1.0884865   -6.8147276    324.03432   0.02977162  0.030588022            2 
  908000    1.1229739   -6.8168954    325.37326  0.029861716  0.030575792            3 
  909000    1.1423991   -6.8488816    324.13685  0.029715516  0.030563532            3 
  910000    1.1067377   -6.8045481    324.81618  0.029745072  0.030551267            4 
  911000    1.0666462   -6.8090968    325.24222  0.029751392  0.030539236            3 
  912000    1.0907639   -6.8389014    324.56971   0.02965732  0.030527358            3 
  913000    1.1162648   -6.7993723    325.59716  0.029718617  0.030515697            3 
  914000    1.1054518   -6.8343542    324.92512  0.029624829  0.030503688            2 
  915000    1.1006031   -6.8352315    325.42654  0.029638118  0.030491624            6 
  916000    1.1221891   -6.8492352    327.15945  0.029763414  0.030479781            2 
  917000    1.0819283   -6.8610798    327.35673  0.029748885  0.030467996            3 
  918000    1.0952557   -6.8375842    326.69083   0.02965603  0.030456273            3 
  919000    1.1110176   -6.8208401    327.26379  0.029675715  0.030444948            3 
  920000    1.1055833   -6.8379754     326.7769  0.029599357  0.030433483            5 
  921000    1.1097319   -6.8589331    328.15817  0.029692198  0.030422189            2 
  922000     1.088153   -6.8275847    327.93639  0.029639948  0.030410494            4 
  923000     1.107045   -6.8388594    329.04915  0.029708301  0.030398984            3 
  924000    1.1023974   -6.8369911    327.56321  0.029542136  0.030387187            1 
  925000    1.1072039   -6.8977268    327.76547   0.02952842  0.030375073            7 
  926000    1.1111936   -6.8296599    329.07733  0.029614591  0.030363018            3 
  927000    1.0941458   -6.8666774    328.77067  0.029555076  0.030351168            6 
  928000    1.1186451   -6.8746446    329.02762  0.029546302  0.030339267            2 
  929000    1.1145831   -6.8135663    330.06207   0.02960729   0.03032754            3 
  930000    1.1167965   -6.8690937     329.8194   0.02955371  0.030315716            3 
  931000    1.1053322   -6.8340108     329.6786  0.029509363  0.030304076            3 
  932000    1.0993782   -6.8494305    329.45236  0.029457471  0.030292135            5 
  933000    1.1135364    -6.864107    330.13285  0.029486678  0.030280178            2 
  934000    1.0911342     -6.78136    331.74494  0.029598942   0.03026839            4 
  935000    1.1017264   -6.8572433    330.36431  0.029444235  0.030256251            5 
  936000    1.1100443    -6.893128    330.21092   0.02939912  0.030243878            4 
  937000    1.0722566   -6.8440915    330.16387   0.02936356  0.030231364            4 
  938000    1.0945014   -6.8354075    331.14845  0.029419727  0.030219063            4 
  939000    1.0865764   -6.8241751    331.15879  0.029389314  0.030207133            3 
  940000    1.1204266   -6.8954872    330.98343  0.029342503  0.030194826            3 
  941000    1.0877707   -6.8295298    333.06839  0.029495961  0.030182877            7 
  942000    1.0874216   -6.7971824    334.08378  0.029554474  0.030171227            5 
  943000    1.1079663   -6.8696621    333.39286  0.029462077  0.030159616            6 
  944000    1.0956916   -6.8584253     333.4282  0.029433987  0.030147877            4 
  945000    1.1236748   -6.8550128    333.75834  0.029431952  0.030136118            3 
  946000    1.0970468    -6.846965    333.96616  0.029419147  0.030124405            4 
  947000     1.116567   -6.8233875    334.87517  0.029468072  0.030113061            3 
  948000    1.1018497   -6.7557809    335.31187  0.029475376  0.030102012            2 
  949000    1.0999798   -6.8595559    335.00812  0.029417643  0.030090761            4 
  950000    1.0850004   -6.9014438    334.83355  0.029371364  0.030079315            2 
  951000    1.0837434   -6.8888061    334.38774  0.029301414  0.030067585            3 
  952000    1.1041301   -6.8691391    336.19354  0.029428706  0.030056122            4 
  953000    1.1201033   -6.8402671    337.03832  0.029471697  0.030044902            6 
  954000    1.0705149   -6.8531276    336.41901  0.029386706  0.030033736            3 
  955000    1.1219514   -6.8509678    335.85034  0.029306312  0.030022332            5 
  956000     1.071345   -6.8354804    336.73651  0.029352903  0.030010919            3 
  957000    1.0917706   -6.8374084    336.84598  0.029331764  0.029999448            5 
  958000    1.0937119   -6.8932416    336.16726  0.029242106  0.029987557            9 
  959000    1.0964099   -6.8467681    338.04008  0.029374355  0.029975702            3 
  960000    1.1205061   -6.8449518    337.67687  0.029312229  0.029964229            2 
  961000    1.1140823   -6.8378946    337.08128   0.02923008  0.029952821            8 
  962000       1.0988   -6.8737026    337.17665  0.029207957    0.0299412            2 
  963000    1.0887026   -6.8748178    338.00208  0.029249055  0.029929725           11 
  964000    1.1262287   -6.8770246    338.07912  0.029225373  0.029918073            3 
  965000    1.1118196   -6.8374301    339.25112  0.029296297  0.029906894            2 
  966000     1.073371   -6.8222907    339.29154  0.029269456  0.029895759            3 
  967000    1.0672725   -6.9093844    338.40229  0.029162555  0.029884565            4 
  968000    1.0919238   -6.8553345    338.69108   0.02915729  0.029873052            6 
  969000    1.0858577   -6.8341499    338.94463  0.029149005  0.029861702            8 
  970000    1.1075295   -6.8108034    339.89739  0.029200807  0.029850306            4 
  971000    1.0963224   -6.8749921    339.42852  0.029130494  0.029838987            7 
  972000    1.0999798   -6.8230294    340.99368  0.029234712  0.029827766            4 
  973000    1.1107808    -6.859316    339.82879  0.029104898  0.029816763            2 
  974000    1.0845236   -6.8432772    341.53044  0.029220605  0.029805809            2 
  975000     1.076431   -6.8663526    341.81396  0.029214868  0.029794723            4 
  976000    1.0912619    -6.855827    341.52069  0.029159895  0.029783797            1 
  977000    1.0708737   -6.8604287    341.79632  0.029153558  0.029772824            3 
  978000      1.08996   -6.8459164    341.94541  0.029136453  0.029761876            2 
  979000    1.0674198   -6.8684431    342.14324  0.029123531  0.029750594            3 
  980000    1.0914808   -6.8734242    342.97128  0.029164224  0.029739388            2 
  981000    1.0950975   -6.8417674    342.90798  0.029129118  0.029728175            1 
  982000     1.083129   -6.8370911    342.93467   0.02910172  0.029717233            2 
  983000    1.0961517   -6.8682749    342.11538   0.02900266  0.029706094            5 
  984000     1.108411   -6.8830175    342.30214  0.028989003  0.029694567            4 
  985000    1.0991239   -6.8591805     344.3437  0.029132293  0.029683429            4 
  986000    1.0848018   -6.9003871    342.95005  0.028984961  0.029672181            4 
  987000    1.0814287   -6.9027816    343.40334  0.028993866     0.029661            4 
  988000    1.1055679   -6.8443163    344.90914  0.029091527  0.029649837            3 
  989000    1.1194785   -6.8929122    344.32611  0.029012985  0.029638628            5 
  990000     1.084804   -6.9034211    343.96596  0.028953364  0.029627511            2 
  991000    1.1013748   -6.8367384     345.9805   0.02909355   0.02961635            2 
  992000    1.0774128    -6.817254    346.65741  0.029121086  0.029605722            3 
  993000    1.0896296   -6.8333718    346.10474   0.02904538  0.029594806            6 
  994000    1.0886781   -6.9079998    344.81788  0.028908273  0.029583804            2 
  995000    1.0823358   -6.8736119    346.90642  0.029054139  0.029572596            2 
  996000    1.1109371   -6.8858149    345.90855  0.028941479  0.029561387            4 
  997000    1.1022547   -6.9087061    345.30643  0.028862122  0.029550009            3 
  998000    1.1147122   -6.8677711     346.6824  0.028948096  0.029538799            6 
  999000    1.0791797   -6.8261341    347.54493  0.028991069  0.029527729            3 
 1000000    1.0767775   -6.9007714    346.22199  0.028851832  0.029516448            3 
 1001000     1.083526   -6.8612749    347.36948  0.028918538   0.02950505            4 
 1002000     1.112205   -6.8547576    348.29697  0.028966814   0.02949379            3 
 1003000    1.0763021   -6.8604043     347.3102  0.028855949  0.029482682            3 
 1004000    1.0720726   -6.8611166    347.23632  0.028821076  0.029471573            5 
 1005000    1.1084847   -6.8215119    348.58724  0.028904415  0.029460422            4 
 1006000    1.0989096   -6.8627624    347.78823  0.028809495  0.029449075            5 
 1007000    1.0843383   -6.8964262    347.93971  0.028793422  0.029437541            2 
 1008000    1.1014695    -6.885527     348.3911  0.028802175  0.029426048            5 
 1009000    1.0804886    -6.849709     347.9133  0.028734168   0.02941445            5 
 1010000    1.0915541    -6.893332    348.10057  0.028721169  0.029403175            4 
 1011000    1.0968293   -6.8723655    349.65039  0.028820507  0.029392001            2 
 1012000     1.072636   -6.8924857    350.15483  0.028833566  0.029380995            7 
 1013000    1.0953337   -6.8524852    349.68598  0.028766533  0.029369741            4 
 1014000    1.0685894   -6.9025468    349.88157  0.028754238  0.029358691            3 
 1015000    1.0995662   -6.9223908    350.31689   0.02876165  0.029347924            5 
 1016000    1.1028104   -6.9145668    351.32816  0.028816286  0.029336967            2 
 1017000    1.0725796   -6.8925633    350.39673   0.02871163  0.029326267            3 
 1018000    1.0843757    -6.869885    352.34712  0.028843084  0.029315722            2 
 1019000    1.0732745   -6.8804059    351.48766  0.028744493  0.029305592            5 
 1020000    1.0669956   -6.9140982    353.00504  0.028840281  0.029295275            7 
 1021000    1.0611277   -6.8599931    353.96722  0.028890566  0.029285054            4 
 1022000    1.0989682   -6.8587399    354.64746  0.028917764  0.029274992            1 
 1023000    1.0809604   -6.8578543    353.23271  0.028774251  0.029264686            8 
 1024000    1.0921469   -6.9276958    353.93415  0.028803235  0.029254373            2 
 1025000    1.0792481   -6.9092445    354.09645   0.02878833  0.029244054            3 
 1026000    1.1026125   -6.9075026    354.78121  0.028815888  0.029234032            3 
 1027000    1.0732222    -6.922952    353.49959  0.028683836  0.029223997            8 
 1028000    1.0783425   -6.9117689    355.65588   0.02883073  0.029213963            3 
 1029000    1.0586689   -6.8926989    355.49347  0.028789558   0.02920391            1 
 1030000    1.0879663   -6.8777885    356.17094  0.028816419  0.029193974            2 
 1031000    1.0782387   -6.8802611    355.77018  0.028756076  0.029184133            4 
 1032000    1.0751506   -6.8546288    357.40711  0.028860393   0.02917438            4 
 1033000    1.1103824   -6.8888649    357.95337  0.028876523  0.029164567            7 
 1034000    1.0776392   -6.8898754    356.81957  0.028757218   0.02915464            8 
 1035000    1.0871835   -6.9030683    356.23301  0.028682207  0.029144643            3 
 1036000    1.0992087   -6.8984821    358.03141   0.02879918  0.029134795            4 
 1037000    1.0839997   -6.8540972    358.31386  0.028794106  0.029125014            3 
 1038000     1.100699   -6.8663732    357.95074  0.028737214  0.029115166            5 
 1039000    1.0885485   -6.9041905    357.44175  0.028668732  0.029105294            3 
 1040000    1.0963683   -6.8554962    359.45132  0.028802189  0.029095547            6 
 1041000    1.0571739   -6.8769033    358.53087  0.028700838  0.029085641           13 
 1042000    1.0914939   -6.9162295    359.21244  0.028727802  0.029075737            4 
 1043000    1.0808267   -6.8572687    359.97847  0.028761463  0.029065704            4 
 1044000    1.0805148   -6.9044287    359.07666   0.02866193  0.029055724            5 
 1045000    1.0808272   -6.8845274    358.96778   0.02862582  0.029045589            6 
 1046000    1.1065632   -6.9021936    358.84666  0.028588803  0.029035576            4 
 1047000    1.0792775   -6.8893472    359.56827  0.028618933   0.02902539            3 
 1048000    1.0931633   -6.9074638    359.70474  0.028602476  0.029015364            2 
 1049000    1.0914479   -6.8952573    360.88085  0.028668641  0.029005216            3 
 1050000     1.098204   -6.9023258    360.27616  0.028593346   0.02899515            2 
 1051000    1.1171785   -6.9183164    359.28709  0.028487717  0.028984957            2 
 1052000    1.0649334   -6.8942349    360.75028  0.028576543  0.028974595            6 
 1053000    1.0763396   -6.8507834    360.61926  0.028539036  0.028964264            2 
 1054000    1.0812051   -6.9093231    359.67016   0.02843692  0.028953912            6 
 1055000    1.0733457     -6.90721     360.0849  0.028442725  0.028943664            4 
 1056000    1.0745769   -6.8965111    360.22389  0.028426759  0.028933133            4 
 1057000     1.089714   -6.8850426    359.85592  0.028370854  0.028922569            5 
 1058000    1.0585495   -6.9189172    359.75872  0.028336383  0.028911862            6 
 1059000    1.0948245   -6.9234192    360.41515   0.02836128  0.028900914            5 
 1060000    1.1039427   -6.8879006    361.11904  0.028389861  0.028890141            4 
 1061000    1.0956189   -6.9287287    359.36999   0.02822573  0.028879353            5 
 1062000    1.0723428   -6.8713796    361.90021  0.028397694  0.028868691            6 
 1063000    1.0863564   -6.9337253    361.01488  0.028301574  0.028858079            6 
 1064000     1.061025   -6.8670182    361.70693  0.028329177  0.028847325            4 
 1065000    1.1124549   -6.8641782    363.20474  0.028419776  0.028837013            6 
 1066000    1.0653531   -6.8981047    363.03817  0.028380095  0.028826354            4 
 1067000    1.0978191   -6.9603125    362.47366  0.028309408  0.028815766            2 
 1068000    1.0850924    -6.927017    362.73835  0.028303554  0.028805284            1 
 1069000    1.0855972   -6.8927154    362.97314   0.02829538  0.028794911            5 
 1070000    1.0854778   -6.8972922    364.62262  0.028397401  0.028784534            1 
 1071000    1.0834603   -6.9111181    363.86328  0.028311802  0.028773977            5 
 1072000    1.0978124   -6.9108934    363.71301   0.02827371  0.028763509            5 
 1073000    1.1026503    -6.872973    365.43319  0.028380956  0.028753156            3 
 1074000     1.081443   -6.8736068    365.07633  0.028326841  0.028742828            2 
 1075000    1.1048431   -6.8839893    365.83144  0.028359026  0.028732529            3 
 1076000    1.0540547    -6.897271    365.42468  0.028301168  0.028722454            4 
 1077000     1.070589   -6.9435737    365.43381  0.028275597  0.028712191            2 
 1078000    1.1019595   -6.8859841      365.569  0.028259817  0.028701899            3 
 1079000    1.0927543   -6.8564441    366.17367  0.028280327  0.028691859            5 
 1080000    1.0913058   -6.9465578    366.05416   0.02824492  0.028681533            2 
 1081000    1.0813291   -6.8757521    366.62426   0.02826274  0.028671179            2 
 1082000    1.1139542   -6.8888885    365.47501  0.028148106   0.02866093            3 
 1083000    1.0732937   -6.8862961    366.26611  0.028182988   0.02865059            4 
 1084000    1.0854803   -6.8765312    367.02217  0.028215111  0.028640042            2 
 1085000    1.0690026   -6.9588644    366.39911  0.028141253   0.02862932            8 
 1086000    1.0746176   -6.9370961     366.2383     0.028103  0.028618776            5 
 1087000    1.0705791    -6.891961    368.46221   0.02824764  0.028608163            6 
 1088000    1.1045034   -6.8776924    368.74296   0.02824318  0.028597787            9 
 1089000    1.0832385   -6.9345853    367.86067   0.02814973  0.028587459            2 
 1090000    1.0773256   -6.9526226    367.56478  0.028101283  0.028576867            4 
 1091000    1.0724165   -6.9044415    367.91496  0.028102273  0.028566407            4 
 1092000    1.0659856   -6.9581821    367.13387  0.028016931  0.028555812            4 
 1093000    1.0720917   -6.9331461    368.81549   0.02811951  0.028545078            3 
 1094000    1.0901053    -6.887326    368.60335  0.028077647  0.028534664            2 
 1095000      1.06345   -6.8599714    369.91636   0.02815193  0.028524292            3 
 1096000    1.0751489   -6.9130833    369.19428  0.028071341  0.028513758            2 
 1097000    1.0796175   -6.9162861    369.37972  0.028059839  0.028502958            4 
 1098000    1.0630424   -6.9390366    368.45761  0.027964299  0.028492087            5 
 1099000    1.0877245   -6.9563996     368.7851  0.027963687  0.028481013            4 
 1100000    1.0511327   -6.9634799    368.44905  0.027912807  0.028469904            2 
 1101000    1.0559209   -6.9357124     369.9255  0.027999206  0.028458872            2 
 1102000    1.0738228   -6.8995515    370.15612  0.027991237  0.028448162            3 
 1103000    1.0922322   -6.9140692    369.74757  0.027934993  0.028437494            4 
 1104000    1.0491441   -6.9369004    369.83732  0.027916465  0.028426687            2 
 1105000    1.0676275    -6.941506    370.21041  0.027919337  0.028415978            2 
 1106000    1.0771877   -6.9181027    370.99896  0.027953508  0.028405218            4 
 1107000    1.0715079   -6.9169318    370.66833  0.027903367  0.028394468            4 
 1108000    1.0777048   -6.8847766     371.1425  0.027913846  0.028383851            2 
 1109000    1.0634913   -6.9017752    370.92555  0.027872374  0.028373198            2 
 1110000     1.102097   -6.8758231    373.05404   0.02800706   0.02836268            2 
 1111000    1.0821659   -6.9191546    371.51337   0.02786629  0.028352274            4 
 1112000    1.0553179   -6.9407073    371.57918  0.027846162  0.028341592            6 
 1113000    1.0689702   -6.8944594    372.91502  0.027921161  0.028330925            2 
 1114000     1.093951   -6.9381457    372.50039   0.02786508  0.028320362            4 
 1115000    1.0957522   -6.9472233    372.26415  0.027822432  0.028309764            3 
 1116000    1.0417938   -6.9535388    372.33704  0.027802945  0.028299123            5 
 1117000    1.0523668   -6.9218584    373.40086   0.02785742  0.028288552            6 
 1118000     1.068131   -6.9321129    373.74782  0.027858365  0.028278044            2 
 1119000    1.0945019   -6.8784112    373.91726  0.027846087  0.028267543            3 
 1120000    1.0725039   -6.9206073      373.615  0.027798735   0.02825708            2 
 1121000    1.0707872   -6.9530047    372.83126  0.027715675  0.028246554            5 
 1122000    1.0739203   -6.9037443    375.04392  0.027855312  0.028236076            4 
 1123000    1.0738938   -6.8739722    374.96253  0.027824468  0.028225585            2 
 1124000     1.056606   -6.9265904    375.12815  0.027811992  0.028214996            4 
 1125000     1.098362   -6.9611389    374.96715  0.027775345  0.028204376            3 
 1126000    1.0735009   -6.9530224    374.48983  0.027715351  0.028193864            2 
 1127000    1.0488286    -6.947582    375.38063  0.027756628  0.028183257            5 
 1128000    1.0958223   -6.9418608    375.27725  0.027724383  0.028172711            4 
 1129000     1.069995   -6.9329197    375.64111  0.027726684   0.02816212            4 
 1130000     1.072935   -6.9173725    376.51718  0.027766754  0.028151474            6 
 1131000    1.1058113   -6.8957024    376.94841  0.027773977  0.028140944            4 
 1132000    1.0623637   -6.9488297    376.09991  0.027686978  0.028130419            6 
 1133000    1.0566167   -6.9178407    376.81594  0.027715206  0.028119911            4 
 1134000    1.0650103   -6.9415456    375.03604  0.027559968  0.028109268            3 
 1135000    1.0511193   -6.9399017    377.35828  0.027706188  0.028098739            5 
 1136000    1.0664821   -6.9897007    376.13967  0.027592405  0.028087858            7 
 1137000    1.0693109   -6.9664365    375.75582  0.027540004  0.028077093            2 
 1138000    1.0560561   -6.9073431    376.24512  0.027551634  0.028066312            7 
 1139000    1.0661958   -6.9398718    376.51876  0.027547465  0.028055621            3 
 1140000    1.0794653   -6.9420771    378.30865  0.027654141  0.028044801            2 
 1141000    1.0800403   -6.9340309    378.40857  0.027637202  0.028034203            6 
 1142000    1.0463297   -6.9071188    378.32505  0.027606907  0.028023473            4 
 1143000    1.0556652   -6.9602388    377.99389   0.02755861  0.028013014            6 
 1144000    1.0736905   -6.9528659     378.3558  0.027560883  0.028002377            3 
 1145000    1.0681542   -6.9422561    378.56955  0.027552369  0.027991831            2 
 1146000    1.0469945   -6.8959096    380.08175  0.027638289  0.027981401            3 
 1147000    1.0477232    -6.930946    380.35751  0.027634228  0.027971178            8 
 1148000    1.0602187   -6.9489062    378.88465  0.027503241  0.027960871            2 
 1149000    1.0792523   -6.9206252    380.09771  0.027567284  0.027950699            6 
 1150000    1.0667655   -6.9119467    380.39067  0.027564541  0.027940511            5 
 1151000     1.052857   -6.9285308     380.4784  0.027546944  0.027930211            3 
 1152000     1.028782   -6.9472842    379.43016  0.027447205  0.027919813            2 
 1153000    1.0800779   -6.8781057    381.86252  0.027599199  0.027909504            2 
 1154000    1.0685402   -6.9454658    380.32036   0.02746392  0.027899215           10 
 1155000    1.0751692   -6.9570566    381.23771  0.027506328  0.027889002            4 
 1156000    1.0438014    -6.930369    381.75568  0.027519873  0.027878678            2 
 1157000    1.0696731   -6.9398204    381.15807  0.027453045  0.027868359            3 
 1158000    1.0666769   -6.9172625    382.64428   0.02753629  0.027858341            2 
 1159000    1.0704096   -6.9785747    381.98322     0.027465  0.027848264            5 
 1160000    1.0733545   -6.9204188    384.44792  0.027618385  0.027838139            4 
 1161000    1.0705417   -6.9511864    383.11245  0.027498741  0.027828165            3 
 1162000    1.0802794   -6.9348557    383.66084  0.027514403  0.027818163            3 
 1163000    1.0565382    -6.978648     383.7574  0.027497664  0.027808241            4 
 1164000    1.0673052   -6.9745481    383.82815  0.027479106  0.027798368            5 
 1165000    1.0747497   -6.9658941    383.89036  0.027459969   0.02778828            4 
 1166000    1.0752233   -6.9659432    383.41117   0.02740217  0.027778291            6 
 1167000    1.0762266   -6.9533855     384.2203  0.027436468  0.027768423           10 
 1168000    1.0537741   -6.9700633    384.44912  0.027429303  0.027758539            9 
 1169000    1.0796253   -6.9630515    385.05296  0.027448885  0.027748693            8 
 1170000    1.0453448    -6.946567    384.70961  0.027400969  0.027738645            3 
 1171000     1.049029   -6.9752451    385.44848  0.027430151  0.027728721            3 
 1172000    1.0693982   -6.9713744    384.33057  0.027327259  0.027718621            5 
 1173000    1.0418061   -7.0020874    384.57381  0.027321243  0.027708403            5 
 1174000    1.0826888    -7.036746    384.17055  0.027269346  0.027698112            2 
 1175000    1.0630796   -6.9920755    385.09681  0.027311831   0.02768781            4 
 1176000    1.0945055   -6.8895789    387.23021  0.027439783  0.027677795            4 
 1177000    1.0916421     -6.98041    385.42776  0.027288853  0.027667802            4 
 1178000    1.0404773   -6.9477146    386.01571   0.02730728  0.027657599            4 
 1179000    1.0509441   -6.9282238    386.57252  0.027323475  0.027647477            5 
 1180000    1.0718052   -6.9353285      386.788  0.027315536  0.027637386            4 
 1181000    1.0498777   -6.9736043     386.3162  0.027259117  0.027627273            2 
 1182000      1.07751   -6.9547181    386.25102  0.027231459  0.027617214            3 
 1183000    1.0670587   -6.9556218    387.93876  0.027327329  0.027606948            3 
 1184000    1.0468096   -6.9611049    388.87348  0.027370037  0.027596755            2 
 1185000    1.0451639   -6.9797464    386.79867  0.027201032  0.027586827            3 
 1186000    1.0460841   -6.9566392    389.23873  0.027349545  0.027576694            6 
 1187000    1.0548507   -6.9717058     388.5917   0.02728108  0.027566729            3 
 1188000    1.0489139   -6.9346982    388.57648  0.027257048  0.027556853            3 
 1189000    1.0514394   -6.9443917    389.02855  0.027265808  0.027547213            3 
 1190000    1.0592814   -6.9421068    390.35978  0.027336119  0.027537501            4 
 1191000    1.0754727   -6.9927593    388.81586   0.02720514  0.027527789            5 
 1192000    1.0523243   -6.9539966    390.66275  0.027311434   0.02751799            8 
 1193000    1.0749301   -6.9372425    391.06528  0.027316658  0.027508357            5 
 1194000    1.0402687    -6.970558    390.96986   0.02728712  0.027498818            5 
 1195000    1.0634299   -6.9841502    389.83055  0.027184836  0.027489072            5 
 1196000    1.0641744   -6.9698328     391.8885  0.027305497  0.027479323            4 
 1197000    1.0573359   -6.9268554    391.65245  0.027266252  0.027469892            4 
 1198000    1.0480174   -6.9810817    390.18366  0.027141323  0.027460359            3 
 1199000    1.0606425   -6.9791552     390.4249  0.027135453  0.027450624            6 
 1200000    1.0388046   -6.9630178    390.64616  0.027128206  0.027440991            6 
 1201000    1.0271369    -6.960983    392.20556  0.027213819  0.027431514            4 
 1202000    1.0660583    -6.944438      392.869  0.027237174  0.027422233            3 
 1203000    1.0374309   -6.9295706    393.11089  0.027231289  0.027412778            5 
 1204000    1.0463019   -6.9438311    394.46261  0.027302229  0.027403562            3 
 1205000    1.0682614   -6.9391817    392.79346   0.02716414  0.027394207            6 
 1206000    1.0730148   -6.9938388      391.761  0.027070274  0.027384853            3 
 1207000    1.0551551   -6.9677519    393.50721  0.027168407  0.027375445            3 
 1208000    1.0562996   -6.9718665    393.95962  0.027177126  0.027365917            4 
 1209000    1.0557737   -6.9615284    393.84767  0.027146931  0.027356253            8 
 1210000    1.0805893    -6.934066    394.10483  0.027142206  0.027346742            3 
 1211000    1.0565967   -6.9553333    394.18011  0.027124973  0.027337254            2 
 1212000    1.0569238   -6.9393259    394.43511  0.027120126  0.027327843            4 
 1213000    1.0401693   -6.9594355    396.47127  0.027237652  0.027318555            2 
 1214000    1.0601552   -6.9905988    394.14457  0.027055503  0.027309293            7 
 1215000    1.0487253   -6.9838789    395.51551  0.027127264   0.02729982            3 
 1216000    1.0564952    -6.960859    395.34344  0.027093164  0.027290324            6 
 1217000    1.0431679   -6.9743215       395.38  0.027073405  0.027280821            3 
 1218000    1.0496865    -6.971407    395.76353  0.027077417  0.027271486            2 
 1219000    1.0779894   -6.9705661     395.3125  0.027024371  0.027262049            4 
 1220000     1.046977   -6.9669182    396.30106  0.027069744  0.027252595            5 
 1221000    1.0466669   -7.0142036    395.79075  0.027012746  0.027243069            5 
 1222000    1.0361548   -7.0454379    395.27281   0.02695532  0.027233264            4 
 1223000    1.0536719   -7.0050502    396.84514  0.027040416  0.027223543            4 
 1224000    1.0840147   -6.9470898    398.01482  0.027097959   0.02721404            6 
 1225000    1.0419536   -6.9743709    396.02078  0.026940189  0.027204546            6 
 1226000    1.0964484   -6.9885065    397.73909  0.027035011  0.027195021            1 
 1227000    1.0730797   -6.9603819    397.20924  0.026976993  0.027185405            3 
 1228000     1.054583   -6.9894918    397.93828  0.027004498  0.027175979            5 
 1229000    1.0679727   -6.9581398    398.13728  0.026996018  0.027166555            2 
 1230000     1.057162   -7.0093724    398.39976  0.026991854   0.02715706            3 
 1231000    1.0549867   -6.9874191    398.67446  0.026988523    0.0271477            2 
 1232000    1.0374693   -6.9719041    399.55152  0.027025942  0.027138336            3 
 1233000    1.0549802   -6.9750627    398.72954  0.026948469   0.02712899            2 
 1234000    1.0642946   -6.9832894    398.33742   0.02690015  0.027119744            5 
 1235000    1.0449524   -7.0104902    400.02051  0.026991937  0.027110598            4 
 1236000    1.0432222    -6.949132    401.56147  0.027073993  0.027101389            4 
 1237000    1.0613201   -6.9514685    402.17005  0.027093105  0.027092475            2 
 1238000    1.0390129   -6.9310507    401.62589  0.027034591  0.027083502            3 
 1239000    1.0241375    -6.953202     401.1843  0.026983071  0.027074663            5 
 1240000    1.0552488   -6.9767402    401.10512  0.026955989  0.027065771            3 
 1241000     1.064176   -6.9896204     401.4389  0.026956681  0.027056676            3 
 1242000    1.0482021   -7.0349151    401.16757  0.026916772  0.027047334            3 
 1243000    1.0428331   -6.9783614    400.92375  0.026878771  0.027038052            4 
 1244000    1.0512388   -6.9708954    400.24705  0.026811833   0.02702891            4 
 1245000    1.0616253   -6.9604861    401.69052  0.026886916  0.027019833            4 
 1246000    1.0434741   -7.0308406    399.90924  0.026746204   0.02701056            5 
 1247000    1.0584182   -6.9618164    402.21489  0.026878835  0.027001404            9 
 1248000    1.0397594   -6.9802231     401.9423  0.026839096  0.026992267            3 
 1249000    1.0481541   -7.0116824    401.47563  0.026786471  0.026983126           12 
 1250000    1.0531579   -6.9914632    403.43266   0.02689551  0.026974265            6 
 1251000    1.0651164   -7.0030178    402.44412  0.026808161  0.026965456            3 
 1252000    1.0322366   -6.9484365    405.00015  0.026956879  0.026956637            5 
 1253000    1.0478889   -6.9843463    403.48268  0.026834443  0.026947775            3 
 1254000    1.0680307   -6.9747734    405.22698  0.026928959  0.026939006            2 
 1255000    1.0582933   -6.9516933    405.50271  0.026925811  0.026930371            1 
 1256000    1.0596266   -7.0057746    403.99732  0.026804493  0.026921577            4 
 1257000    1.0542914   -6.9551047    405.94007  0.026911964  0.026912783            3 
 1258000    1.0279789   -7.0087613    403.68317  0.026741068  0.026904004            6 
 1259000    1.0528025   -6.9819576    405.38302  0.026832342  0.026895271            3 
 1260000    1.0644363   -6.9858186    405.46858  0.026816705  0.026886616            3 
 1261000    1.0670058   -7.0143383     405.0123  0.026765286  0.026878026            4 
 1262000    1.0568602   -7.0321115    406.28989   0.02682844   0.02686921            5 
 1263000    1.0589868   -7.0030614    406.46417  0.026818697   0.02686049            2 
 1264000    1.0617917   -6.9962827    405.27411  0.026719021  0.026851906            2 
 1265000    1.0647177   -7.0392302    404.16353  0.026624738  0.026842957            2 
 1266000    1.0482476   -6.9760948     406.6265   0.02676583  0.026834087            6 
 1267000    1.0403915    -6.985651    408.26619  0.026852551  0.026825187            2 
 1268000    1.0394862   -6.9906843    406.82884  0.026736911  0.026816434            4 
 1269000    1.0536824   -6.9428722     408.4999  0.026825578  0.026807606            3 
 1270000    1.0594233   -7.0043352    407.55391  0.026742382  0.026798853            5 
 1271000    1.0421379   -6.9732076    407.90376   0.02674428   0.02678984            3 
 1272000    1.0550812   -7.0018763    406.67494   0.02664275  0.026780972            6 
 1273000    1.0407136   -7.0279133    406.45826  0.026607637  0.026772108            3 
 1274000    1.0576061   -7.0039918    408.50637   0.02672072    0.0267633            3 
 1275000    1.0681774   -6.9613516    409.59804  0.026771114  0.026754572            3 
 1276000    1.0465041   -7.0368072    408.75841  0.026695298  0.026745705            3 
 1277000     1.040922   -6.9707366    409.92731  0.026750673  0.026737146            8 
 1278000    1.0451362   -6.9886533    408.66578  0.026647482  0.026728646            4 
 1279000    1.0585474   -6.9951125    408.75412  0.026632403  0.026719847            4 
 1280000    1.0645309   -6.9747764     409.1705  0.026638705  0.026711052            5 
 1281000    1.0374617   -7.0071552    409.95549  0.026668976  0.026702377            5 
 1282000     1.043523   -6.9794441    410.41637  0.026678131  0.026693751            4 
 1283000    1.0401645   -6.9691592    411.49985  0.026727712  0.026685253            4 
 1284000    1.0650661   -6.9320602    411.93441  0.026735099  0.026676871            4 
 1285000    1.0404708   -6.9735904    412.23453  0.026733757   0.02666849            3 
 1286000    1.0297964   -6.9827145    412.13498  0.026706518  0.026659894            6 
 1287000    1.0400256   -7.0106242    409.70071  0.026528148  0.026651324            3 
 1288000     1.046056    -6.980093     413.4425  0.026749644   0.02664274            3 
 1289000    1.0269481   -6.9709586    410.81851  0.026559252  0.026634312            4 
 1290000    1.0471146   -7.0148423    411.35437   0.02657328  0.026625771            6 
 1291000    1.0610585   -7.0324543    411.97098  0.026592498   0.02661709            6 
 1292000    1.0361375   -6.9135104    415.16954  0.026778221  0.026608712            3 
 1293000    1.0390601   -7.0019149    412.96118  0.026615183  0.026600318            6 
 1294000    1.0540438    -7.001697    412.46607   0.02656273  0.026592051            2 
 1295000    1.0366317   -7.0079376    413.26634  0.026593716  0.026583648            4 
 1296000    1.0455213   -6.9941613    413.54428  0.026591067  0.026575184            4 
 1297000     1.045095   -6.9844443    413.92897  0.026595282   0.02656675            7 
 1298000    1.0434988   -7.0414121    412.10108  0.026457439  0.026558166            5 
 1299000    1.0550773   -6.9940331    414.35308  0.026581542  0.026549468            4 
 1300000    1.0344523   -7.0481033    412.57081  0.026446847  0.026540941            2 
 1301000    1.0440302   -7.0409098    413.29957  0.026473198  0.026532444            4 
 1302000    1.0499551   -7.0062725    414.89063    0.0265547  0.026523784            7 
 1303000    1.0256243    -7.018799    415.12786  0.026549492  0.026515084            8 
 1304000    1.0524818   -7.0073662    415.15756   0.02653103  0.026506472            4 
 1305000    1.0508783   -6.9644626    415.77963  0.026550423  0.026498148            6 
 1306000    1.0597888   -7.0185212    416.20017  0.026556928  0.026489597            4 
 1307000    1.0403704    -6.989046    416.08842  0.026529483  0.026481289            3 
 1308000    1.0449382   -6.9949713     417.3922  0.026592265  0.026472934            3 
 1309000    1.0726752   -6.9699401    417.34779  0.026569123  0.026464806            4 
 1310000    1.0336241   -6.9993234    417.69262  0.026570777  0.026456704            8 
 1311000    1.0666746   -6.9800545     418.9185  0.026628433  0.026448709            2 
 1312000     1.058414   -7.0013043    418.12427   0.02655769  0.026440715            2 
 1313000    1.0402533   -7.0201925      418.184  0.026541254    0.0264326            3 
 1314000    1.0457796   -7.0208342    418.45649  0.026538337  0.026424617            4 
 1315000    1.0419915   -6.9877132    418.64332  0.026529995  0.026416717            4 
 1316000    1.0787046   -7.0160222    417.86772  0.026460722   0.02640873            4 
 1317000    1.0702826   -7.0138022    418.97725  0.026510836  0.026400743            5 
 1318000    1.0557998   -7.0049111    419.70315  0.026536618  0.026392743            2 
 1319000    1.0444261   -7.0144699    418.98704  0.026471256  0.026384683            2 
 1320000     1.057494    -6.990428    420.12156  0.026522826  0.026376875            3 
 1321000    1.0449605   -7.0076141    420.44614  0.026523224  0.026369062            4 
 1322000    1.0216332   -7.0065289    421.27383  0.026555334  0.026361234            4 
 1323000    1.0366718   -7.0251903    419.84598  0.026445325  0.026353309            6 
 1324000    1.0720392   -7.0132401    420.95749   0.02649531  0.026345369            5 
 1325000    1.0482749    -7.007725     420.6993  0.026459076  0.026337453            2 
 1326000    1.0219499   -6.9971312    422.94151  0.026580035  0.026329681            4 
 1327000    1.0599004   -7.0617063    421.47592  0.026467968  0.026321975            6 
 1328000    1.0256975   -6.9930187    421.25388  0.026434104  0.026314163            3 
 1329000    1.0407777   -7.0026746    422.73934  0.026507358  0.026306486            4 
 1330000    1.0594218   -7.0497355    421.74531  0.026425145  0.026298755            4 
 1331000    1.0355476   -6.9829456    424.68972   0.02658964  0.026291135            3 
 1332000    1.0446998   -7.0051221    423.23362   0.02647858  0.026283581            3 
 1333000    1.0367426   -6.9690068    423.43444   0.02647127  0.026275971            8 
 1334000    1.0268851    -7.017496    424.40408  0.026511999  0.026268463            4 
 1335000    1.0384548   -7.0033915    423.87227  0.026458943  0.026261094            3 
 1336000    1.0362625   -7.0055932    425.08282  0.026514647  0.026253649            7 
 1337000      1.05222   -6.9929722    423.92509  0.026422656  0.026246206            2 
 1338000    1.0281891    -7.039475     423.7289  0.026390689  0.026238712            2 
 1339000    1.0480348   -7.0317161    423.43144  0.026352467  0.026231011            4 
 1340000    1.0340331   -6.9967313    426.24124   0.02650754  0.026223302            2 
 1341000    1.0262414   -7.0152365    423.23142  0.026300735  0.026215497            3 
 1342000    1.0208292   -7.0237925    424.71362  0.026373176  0.026207609            6 
 1343000    1.0316813   -6.9812682     425.5926  0.026408079  0.026199767            6 
 1344000    1.0438995   -7.0196817    425.18152  0.026362941  0.026191907            6 
 1345000    1.0514545   -7.0283025    425.08156  0.026337148  0.026183898            4 
 1346000    1.0306951   -7.0243403     424.6696  0.026292076  0.026175965            4 
 1347000    1.0544245   -6.9924949    425.23391  0.026307468  0.026168114            3 
 1348000    1.0408192   -6.9690082    427.45855  0.026425479  0.026160501            6 
 1349000    1.0300339   -6.9977442    426.39032  0.026339901  0.026152878            9 
 1350000    1.0363028   -7.0640594    425.72087  0.026279066  0.026145288            6 
 1351000    1.0221143    -7.025539    426.90491  0.026332649  0.026137651            4 
 1352000    1.0440874   -6.9991237     427.5773  0.026354616  0.026130028            9 
 1353000    1.0049399   -7.0209785      429.048  0.026425721  0.026122675            5 
 1354000    1.0256834    -6.995623    428.24242  0.026356623  0.026115377            3 
 1355000    1.0252415   -7.0119304    426.95151   0.02625778  0.026107988            6 
 1356000    1.0318911   -7.0733767    428.00607  0.026303224  0.026100438            6 
 1357000     1.046586   -7.0284037    429.04002  0.026347336  0.026092903            7 
 1358000    1.0371615   -7.0661829    427.91268  0.026258755  0.026085471            3 
 1359000    1.0209827   -7.0424598    428.53335  0.026277493  0.026077776            4 
 1360000    1.0501917   -7.0745392    427.51992  0.026196074  0.026070083            3 
 1361000    1.0317204   -7.0114549    429.94849  0.026325526  0.026062428            3 
 1362000    1.0397206   -6.9910963    428.41753  0.026212527  0.026054957            5 
 1363000    1.0231807   -7.0712975    429.17828  0.026239807  0.026047285            4 
 1364000    1.0172661   -6.9702324    431.78171  0.026379625  0.026039866            2 
 1365000    1.0284317    -7.035227    430.34781   0.02627276  0.026032629            2 
 1366000    1.0401172   -7.0038683    430.58163  0.026267791  0.026025205            3 
 1367000    1.0389236   -7.0455825    429.40375  0.026176771  0.026017768            4 
 1368000    1.0267567   -7.0258591    431.28674   0.02627234  0.026010291           13 
 1369000    1.0426995   -7.0704422    429.40937  0.026138871  0.026002771            4 
 1370000    1.0483626   -7.0285635    430.78187  0.026203277  0.025995107            5 
 1371000    1.0409292   -7.0191137     430.9446  0.026194055  0.025987472            5 
 1372000    1.0428207   -7.0401304    431.27923  0.026195289  0.025979865            8 
 1373000    1.0165294   -7.0259694    432.87201  0.026272882   0.02597233            4 
 1374000    1.0043575   -7.0636666    431.02723  0.026141875   0.02596474            6 
 1375000    1.0335236   -7.0365836    432.03101  0.026183698  0.025957161            3 
 1376000    1.0417524   -7.0280307    431.29897  0.026120335   0.02594946            6 
 1377000    1.0324531   -7.0467156     431.0248  0.026084774  0.025941634            7 
 1378000    1.0163214    -7.062086    430.33342  0.026024034  0.025933917            3 
 1379000    1.0474988   -7.0403694    432.41754  0.026131106  0.025926246            2 
 1380000    1.0310381   -7.0491745    433.04665   0.02615016  0.025918512            5 
 1381000    1.0204973   -7.1050456    431.31662  0.026026829  0.025910703            9 
 1382000    1.0296456   -7.0650592     431.0632  0.025992716  0.025902764            5 
 1383000    1.0593722   -7.0434662    432.05265  0.026033541  0.025894992            6 
 1384000    1.0408442   -7.0531768    432.64178  0.026050204  0.025887217            2 
 1385000    1.0242336   -7.0846559    432.25037  0.026007844  0.025879423            2 
 1386000    1.0417889   -6.9877426    434.00425  0.026094532  0.025871688            4 
 1387000    1.0204404   -7.0138883    434.44998  0.026102498  0.025863959            5 
 1388000    1.0622129   -7.0513132    433.89209  0.026050198  0.025856231            4 
 1389000     1.015422   -7.0252381    434.10904  0.026044459  0.025848513            5 
 1390000    1.0134634   -7.0386458    435.29568  0.026096863  0.025840932            4 
 1391000    1.0458079   -7.0553074    433.88786  0.025993761  0.025833205            5 
 1392000    1.0095616   -7.0508094     434.6907   0.02602315  0.025825547            3 
 1393000    1.0380548   -6.9953401    435.72336  0.026066245  0.025818046            5 
 1394000    1.0260585   -7.0287143    435.34293  0.026024805   0.02581056            1 
 1395000    1.0424297   -7.0547902    435.34541  0.026006297  0.025803022            7 
 1396000    1.0217347   -6.9999588    437.30055  0.026104379  0.025795407            5 
 1397000    1.0226111   -7.0751163    435.14963  0.025957387  0.025787763            5 
 1398000     1.035913   -7.0400874    436.43407  0.026015383  0.025780093            2 
 1399000    1.0112564   -7.0676707    435.00399  0.025911603  0.025772304           12 
 1400000    1.0056376    -7.077174    435.75731  0.025937935  0.025764551            3 
 1401000    1.0166261   -7.0339205    436.33021  0.025953498  0.025756857            5 
 1402000    1.0393534   -7.0462431    436.45714  0.025942531  0.025749307            2 
 1403000    1.0467718   -7.0018514    436.97587  0.025954851  0.025741844            3 
 1404000    1.0163271    -7.067363    437.07706   0.02594237  0.025734343            5 
 1405000    1.0266475   -7.0241424    437.03504  0.025921414  0.025726838            8 
 1406000    1.0186529   -7.0291959    437.85226  0.025951414  0.025719358            2 
 1407000    1.0476694   -7.0412166    438.47294  0.025969731   0.02571191            1 
 1408000    1.0294237   -7.1156707    436.14061  0.025813246  0.025704245            4 
 1409000    1.0485692   -7.0441327    438.36553  0.025926516  0.025696442            3 
 1410000    1.0123341   -7.0858669    437.59146  0.025862379  0.025688913            3 
 1411000    1.0035372   -7.0603504    439.29481   0.02594465   0.02568135            2 
 1412000    1.0204626   -7.0617912     439.7841  0.025955152  0.025674111            6 
 1413000    1.0233614   -7.0130915    439.98875  0.025948853  0.025666814            3 
 1414000     1.024474   -7.0578039    439.17093  0.025882304  0.025659416            4 
 1415000    1.0340005    -7.082034    439.86209  0.025904717  0.025651883            3 
 1416000    1.0348317   -7.0730256    438.80133  0.025823995  0.025644358            6 
 1417000    1.0360031   -7.0508465    440.56139   0.02590928  0.025636909            3 
 1418000    1.0195117   -7.0407664    438.71622  0.025782571  0.025629367            2 
 1419000    1.0302961   -7.0564279    440.75918  0.025884377  0.025621988            4 
 1420000    1.0192794   -7.0461935    440.21728  0.025834348  0.025614336            7 
 1421000    1.0148701   -7.0314238     441.1791  0.025872572  0.025606911            3 
 1422000    1.0295864   -7.1022576     439.6251  0.025763309  0.025599383            5 
 1423000    1.0223464   -7.0706069     440.8423  0.025816485  0.025591876            4 
 1424000    1.0294827   -7.0822064     440.3992  0.025772425   0.02558437            4 
 1425000    1.0179043   -7.0745504    439.87788  0.025723853  0.025576926            3 
 1426000    1.0374308   -7.0611592    441.18668  0.025782298  0.025569354            3 
 1427000    1.0476719   -7.0734651    442.16071  0.025821111  0.025561811            4 
 1428000    1.0333698   -7.0396144    442.44465  0.025819599  0.025554461            2 
 1429000    1.0382239   -7.0056713    442.83588  0.025824346  0.025547037            3 
 1430000    1.0085379   -7.0366372    443.07715  0.025820347  0.025539688            4 
 1431000    1.0397903   -7.0191194     442.8618  0.025789763   0.02553237            2 
 1432000    1.0132213   -7.0413951    442.10749  0.025727857  0.025525047            3 
 1433000     1.027958   -7.0473464    443.83609  0.025810426  0.025517634            2 
 1434000     1.029681   -7.0647845    443.24719  0.025758205  0.025510077            5 
 1435000    1.0417383   -7.0358058    443.89348  0.025777786  0.025502643            3 
 1436000    1.0090304   -7.0213582    445.23776  0.025837846  0.025495194            6 
 1437000    1.0363179   -7.0834248    443.12343  0.025697253  0.025487752           10 
 1438000    1.0391092   -7.0731209    443.38687   0.02569465  0.025480415            2 
 1439000    1.0264584   -7.0504065    444.38149  0.025734392  0.025473086            2 
 1440000    1.0192701   -7.0639713    445.05722  0.025755626  0.025465889            2 
 1441000    1.0152152   -7.0986674    445.35015  0.025754693  0.025458452           11 
 1442000    1.0033951   -7.0644929    445.70777  0.025757499  0.025451163            2 
 1443000    1.0195908   -7.0885551    444.12198   0.02564807  0.025443814            4 
 1444000   0.99989848   -7.0668115    446.30173  0.025756102  0.025436585            5 
 1445000    1.0374553   -7.0558981     446.8461  0.025769671  0.025429474            4 
 1446000    1.0284856   -7.0186866    448.26586  0.025833671  0.025422457            2 
 1447000   0.99687852   -7.0448517    447.54334  0.025774208  0.025415463            2 
 1448000    1.0075577   -7.0358981    448.15752  0.025791754  0.025408493            5 
 1449000    0.9905844   -7.0356459    448.66543  0.025803165  0.025401543            3 
 1450000    1.0331708    -7.060438    448.23136  0.025760423  0.025394632            3 
 1451000    1.0038623   -7.0809146    448.30956  0.025747161  0.025387624            4 
 1452000   0.99557285   -7.0336256    449.33683  0.025788386  0.025380692            6 
 1453000    1.0173205   -7.0683515    448.49786   0.02572252  0.025373681            3 
 1454000    1.0302594   -7.0736868    448.04718     0.025679  0.025366646            8 
 1455000    1.0202363   -7.0809703    448.35618  0.025679048  0.025359701            4 
 1456000    1.0273366   -7.1231693    447.90237  0.025635438  0.025352741            5 
 1457000     1.005617   -7.0858118    448.66198  0.025661289  0.025345537            3 
 1458000    1.0145616   -7.0897386    448.87775  0.025656021  0.025338416            5 
 1459000    1.0139093   -7.1242403    447.41223  0.025554731  0.025331298            2 
 1460000    1.0030397   -7.1251892    447.30603  0.025531166  0.025323876            2 
 1461000    1.0259179   -7.1136541     447.6228  0.025531759  0.025316567            8 
 1462000    1.0407692   -7.0474695    449.92906  0.025645751  0.025309456            3 
 1463000    1.0117439   -7.0739568    449.96334  0.025630174  0.025302364            3 
 1464000    1.0316016   -7.0594164    451.38283  0.025693467  0.025295268            4 
 1465000    1.0420733   -7.0931361     450.1544  0.025606052  0.025288185            3 
 1466000    1.0416498   -7.0646025    450.41542  0.025603423  0.025281185            4 
 1467000    1.0310589   -7.0455517     452.3446  0.025695558  0.025274336            5 
 1468000    1.0083854   -7.0682182    450.79736  0.025590223  0.025267364            3 
 1469000    1.0078077   -7.0907888    451.90697  0.025635748  0.025260291            4 
 1470000     1.014137   -7.0899914    450.80391  0.025555777  0.025253328           14 
 1471000   0.99424716   -7.0939567    451.38784  0.025571484  0.025246303            8 
 1472000   0.99090419   -7.1042928    450.07187  0.025479612  0.025239186            4 
 1473000    1.0086198   -7.0809304    450.40556  0.025481192  0.025232039            3 
 1474000     1.009037   -7.0633842    451.44182  0.025522491  0.025225027            5 
 1475000    1.0199552   -7.0834222    452.46376  0.025562924  0.025218067            4 
 1476000    1.0250442   -7.0700712    451.73277  0.025504334   0.02521095            4 
 1477000     1.008141   -7.1021713    452.15638  0.025510967  0.025203803            3 
 1478000    1.0024784   -7.1410733    451.13513  0.025436126  0.025196623            3 
 1479000    1.0027461   -7.0856613    452.91606  0.025519273  0.025189347            3 
 1480000   0.98822736   -7.0491052    453.77431  0.025550355  0.025182319            3 
 1481000    1.0267181   -7.0846939    452.49763  0.025461267   0.02517529            4 
 1482000    1.0150584   -7.1188114    452.27522   0.02543158  0.025168229            5 
 1483000    1.0197106   -7.0864366    452.41636  0.025422362  0.025161071            5 
 1484000    1.0338481   -7.1039146    453.56911  0.025469964  0.025153988            6 
 1485000     0.999191    -7.084353    455.10498     0.025539  0.025146997            4 
 1486000    1.0056813   -7.0956358    456.02589  0.025573457  0.025140032            2 
 1487000    1.0403401   -7.0655803     455.9357  0.025551205  0.025133139            5 
 1488000    1.0241967   -7.0952266    455.75977  0.025524181   0.02512628            3 
 1489000   0.99950309   -7.1067939    454.23647  0.025421786  0.025119348            2 
 1490000   0.99615147   -7.1258157    453.34499  0.025354865  0.025112305            6 
 1491000    1.0248605   -7.0991868     455.2589   0.02544483  0.025105399            3 
 1492000    1.0057393   -7.1146659    455.55414  0.025444266  0.025098508            2 
 1493000    1.0129894   -7.1004387    456.28783  0.025468176  0.025091531            4 
 1494000   0.99851957   -7.0940048    455.52704  0.025408692  0.025084714            6 
 1495000    1.0037777   -7.0717017    455.77303  0.025405409  0.025077881            3 
 1496000   0.99883172   -7.1172282     456.7671    0.0254438  0.025070983           10 
 1497000   0.99096861   -7.0665851    457.74026  0.025480976  0.025064175           13 
 1498000    1.0070685   -7.0710124     457.8203  0.025468419  0.025057261           22 
 1499000   0.97295346   -7.1409654    456.57563  0.025382234  0.025050296            7 
 1500000    1.0355546   -7.1471168    456.06877  0.025337154    0.0250432            7 
 1501000    1.0301768    -7.041211    458.03508   0.02542944   0.02503622            7 
 1502000    1.0044377   -7.1689123    455.96666  0.025297751  0.025029173            3 
 1503000    1.0049716   -7.0901632    456.89185  0.025332216  0.025022013            4 
 1504000    1.0127066   -7.0958725    459.02587  0.025433614   0.02501494            5 
 1505000    1.0115274   -7.0873317    458.20486  0.025371255     0.025008            6 
 1506000    1.0104576   -7.0930329     458.0712  0.025347012  0.025001084            4 
 1507000    1.0127811   -7.0474521    458.69798  0.025364852  0.024994233            2 
 1508000    1.0131883   -7.1011787    456.86175   0.02524656  0.024987377            2 
 1509000    1.0193552   -7.1079037    456.89804  0.025231834  0.024980551            7 
 1510000    1.0164751   -7.1060431    458.17704  0.025285709  0.024973575            4 
 1511000   0.99938906   -7.0892883    457.95071  0.025256492   0.02496661            5 
 1512000   0.97429492   -7.1001103    458.05848  0.025245728  0.024959662            4 
 1513000     1.031312   -7.0591228    461.17559  0.025400726  0.024952787            6 
 1514000   0.99639905   -7.0887032    459.74776  0.025305359  0.024945882            4 
 1515000   0.98611225   -7.1116118    460.73234  0.025342813  0.024939034            6 
 1516000    1.0105148   -7.0800472    460.69627  0.025324113  0.024932252            4 
 1517000    1.0198022   -7.1011901    460.90555  0.025318916  0.024925475            6 
 1518000    0.9972387   -7.1000713    460.19913  0.025263457  0.024918728            6 
 1519000    1.0080178   -7.1021588    460.41991  0.025258937  0.024911988            3 
 1520000     1.017164   -7.1334018    459.83668  0.025210344  0.024905096            3 
 1521000     1.001777    -7.105163    462.27952  0.025327609  0.024898241            7 
 1522000    1.0204375   -7.0674939    463.65788  0.025386437  0.024891555            2 
 1523000    1.0136284   -7.1023865    461.25541  0.025238313  0.024884941            2 
 1524000   0.99839428   -7.1227517    462.73085  0.025302431  0.024878182            4 
 1525000   0.99344259   -7.0877566    463.19882  0.025311411  0.024871481            4 
 1526000    1.0173833   -7.0813791    464.54777  0.025368489   0.02486479            2 
 1527000    1.0173269   -7.1398725    462.28781  0.025228543  0.024858097            5 
 1528000    1.0032306    -7.132277    462.03273   0.02519812  0.024851263            4 
 1529000    1.0191143   -7.1596919    461.70172  0.025163599  0.024844272            6 
 1530000    1.0194023    -7.149087    461.39495  0.025130444  0.024837328            8 
 1531000    1.0122596   -7.0894985    461.75125  0.025133423  0.024830447            4 
 1532000    1.0243412   -7.1183975    462.98555  0.025184158  0.024823571            4 
 1533000    1.0018144   -7.1029603    462.96262  0.025166483  0.024816706            3 
 1534000   0.98511846   -7.1243218    462.45442   0.02512247  0.024809825            5 
 1535000    1.0297445   -7.1180894    462.55204  0.025111403  0.024802789            3 
 1536000   0.99574559   -7.1069079    463.86109  0.025166075   0.02479582            6 
 1537000    0.9776787   -7.1360041     463.0545   0.02510597  0.024788825            6 
 1538000   0.99656856   -7.1236076    463.15982  0.025095352  0.024781812            4 
 1539000   0.98426471   -7.1056921    463.45227  0.025094882  0.024774877            7 
 1540000    1.0063847   -7.0991992    465.55958  0.025192618  0.024767969            9 
 1541000    0.9966312   -7.1179192    462.47647  0.025009543  0.024760857            2 
 1542000      1.00752   -7.0769988    463.98211  0.025074693  0.024753867            4 
 1543000    1.0052728   -7.1146773    463.56571  0.025035953  0.024746839            8 
 1544000    1.0126321   -7.0840721    464.69433  0.025080652  0.024739879            5 
 1545000   0.99579161   -7.1055379    463.90227  0.025021697  0.024732791            3 
 1546000    1.0046862   -7.1357807    464.30896  0.025027434  0.024725669            3 
 1547000   0.99405233   -7.1106397    465.24611  0.025061738  0.024718693            4 
 1548000   0.99753022   -7.1375594    463.77311  0.024966253  0.024711554            4 
 1549000   0.98561717   -7.1195712    464.07027  0.024966122  0.024704462            4 
 1550000   0.99473143   -7.1439512    463.95487   0.02494381  0.024697136           12 
 1551000    1.0242997   -7.1248919    466.38696  0.025058401  0.024690071            4 
 1552000    1.0006818   -7.1179969    465.52744  0.024996104  0.024682897            4 
 1553000    1.0012993   -7.1255199    464.70517  0.024935886  0.024675915            3 
 1554000     1.008235   -7.1116802    465.22805  0.024947879  0.024668867            3 
 1555000    1.0002729   -7.1269451    466.04977  0.024975872  0.024661785            4 
 1556000    1.0104839   -7.1094591    467.31374  0.025027514  0.024654834            2 
 1557000    1.0133395    -7.172046     464.3074  0.024850535  0.024647847            3 
 1558000    1.0086326   -7.0856077    466.65002  0.024959886  0.024640791            7 
 1559000   0.99065943   -7.1300991    465.26152  0.024869656  0.024633744            9 
 1560000    1.0134351   -7.1028852    467.08773  0.024951268  0.024626577            4 
 1561000   0.99937684   -7.0887405    466.16289  0.024885911  0.024619534            4 
 1562000    1.0103286   -7.1485052    466.43687  0.024884596  0.024612475            4 
 1563000    1.0052701   -7.1279758    467.59002  0.024930157  0.024605304            6 
 1564000   0.99615153   -7.1095059    467.97717  0.024934845  0.024598154            4 
 1565000    1.0202196   -7.1065509    465.55506  0.024789939  0.024591036            4 
 1566000    1.0125039   -7.1133786    467.87451  0.024897537  0.024583946            3 
 1567000   0.98843349   -7.1010375     466.6752  0.024817869  0.024576705            4 
 1568000    1.0167549   -7.1487801    466.33391  0.024783903  0.024569395            3 
 1569000   0.98677527   -7.1829681    466.51595  0.024777775  0.024562084            3 
 1570000   0.98959503   -7.1495022    466.49876  0.024761081  0.024554832            3 
 1571000   0.97544307   -7.1305632    468.21806  0.024836519  0.024547631            2 
 1572000   0.99070546   -7.1501867    467.60539  0.024788242   0.02454033            3 
 1573000    1.0002082   -7.1081247    469.43718  0.024869527   0.02453316            7 
 1574000    1.0173317   -7.1186453    468.81764  0.024820926  0.024525877            5 
 1575000    1.0136249   -7.1205156    468.46041  0.024786265  0.024518691            4 
 1576000    1.0004965   -7.1146461    468.87306  0.024792357  0.024511643            7 
 1577000   0.97575785   -7.1388765    469.96105  0.024834128  0.024504413            4 
 1578000   0.99551297   -7.1038441    469.28916  0.024782909  0.024497173            4 
 1579000   0.97649898    -7.152968    469.33556  0.024769662  0.024489999            4 
 1580000    1.0126208   -7.1704855    468.05043  0.024686204  0.024482663            4 
 1581000   0.95740662    -7.124925    468.10601   0.02467352  0.024475301            2 
 1582000   0.98379638   -7.1444322     469.6669  0.024740144   0.02446787            5 
 1583000    1.0124304   -7.1528678    468.46258  0.024661117  0.024460536            7 
 1584000   0.98799934    -7.172743     467.6467  0.024602625  0.024453171            5 
 1585000    1.0102267   -7.1181181     470.9828  0.024762503   0.02444586            8 
 1586000    0.9965806   -7.1277082    470.74381  0.024734332  0.024438707            4 
 1587000   0.99374436   -7.1672129    468.90401  0.024622138  0.024431541            6 
 1588000    1.0115535   -7.1540823    469.51284  0.024638583   0.02442426            6 
 1589000    1.0071793   -7.1876181    468.45755  0.024567734  0.024417074            4 
 1590000   0.99279289   -7.1392029    470.75763  0.024672832  0.024409821            8 
 1591000    1.0177818   -7.1452919    470.00636  0.024617974  0.024402691            2 
 1592000    1.0022439   -7.1181137     470.3812  0.024622132   0.02439551            3 
 1593000   0.99849979   -7.1238183     470.4275  0.024609097  0.024388316            3 
 1594000    1.0094452   -7.1614864    470.35342  0.024589786  0.024380933            4 
 1595000   0.99553053   -7.1314057    471.22538  0.024619926  0.024373527            6 
 1596000   0.98702308   -7.1082382    471.44901  0.024616176  0.024366214            2 
 1597000   0.96998746   -7.1161368    472.22953  0.024641491  0.024358986            9 
 1598000   0.99576586    -7.161224    471.20975  0.024572891  0.024351526            7 
 1599000    1.0034759   -7.1255285     472.1936  0.024608797  0.024344087            3 
 1600000    1.0009055   -7.0746668    472.78906   0.02462443  0.024336684            2 
 1601000    0.9972536   -7.1667858    470.97165  0.024514452  0.024329298            4 
 1602000    1.0042684   -7.1532223    471.23791     0.024513  0.024321989            6 
 1603000    0.9966258   -7.1954346    471.49717  0.024511186  0.024314637            6 
 1604000   0.99510601   -7.1533291     471.8376  0.024513591  0.024307346            2 
 1605000    1.0180222   -7.1439795    472.29266  0.024521945  0.024300026            5 
 1606000   0.99990666   -7.1298133     473.2372  0.024555687  0.024292765            9 
 1607000    1.0008325    -7.127746    473.02891  0.024529606  0.024285572            5 
 1608000   0.98391354   -7.1786072    474.23832  0.024577027  0.024278434            2 
 1609000   0.98925809   -7.1932879    473.06405  0.024500935  0.024271254            4 
 1610000    1.0005394   -7.1930455    472.72772  0.024468308  0.024263941            5 
 1611000    1.0025895   -7.1624715    473.98032  0.024517914  0.024256628            4 
 1612000   0.99100183   -7.1568424    474.09031  0.024508391  0.024249504            4 
 1613000   0.97944381   -7.1776983     473.2744  0.024451043  0.024242247            3 
 1614000   0.96330358   -7.1757449    474.30645  0.024489181  0.024234973            5 
 1615000    1.0019189   -7.1872073    474.12921  0.024464872  0.024227669            8 
 1616000   0.98757611   -7.1607116     474.1874  0.024452733  0.024220423            3 
 1617000    0.9628935   -7.1530462     473.3881  0.024396418  0.024213253           10 
 1618000   0.97498271   -7.1768113    474.21488  0.024423923  0.024205949            8 
 1619000    1.0017229   -7.1447058    475.96115  0.024498721  0.024198731            4 
 1620000   0.99913858   -7.0943944    476.75352  0.024524358  0.024191708            9 
 1621000   0.99648545   -7.1440421    475.58605  0.024449211  0.024184591            3 
 1622000    1.0002983   -7.1675514    475.74835  0.024442476  0.024177523            6 
 1623000   0.98241053   -7.1402125     476.1811  0.024449635  0.024170375            4 
 1624000   0.99993974   -7.1817004     474.9973  0.024373835  0.024163077            3 
 1625000   0.99597026   -7.1551018    474.68425  0.024342782  0.024155761            2 
 1626000    1.0092625    -7.151939    475.76576  0.024383239  0.024148452            7 
 1627000    1.0011084    -7.152898    476.24114  0.024392601  0.024141107            4 
 1628000   0.98042903   -7.2002884    475.35918  0.024332472  0.024133911            4 
 1629000   0.98148381   -7.2097588    476.02248  0.024351467  0.024126644            4 
 1630000   0.97612232   -7.1940927    476.61164  0.024366648  0.024119448            7 
 1631000   0.99832007   -7.1416036    477.97902  0.024421573  0.024112171            4 
 1632000   0.97749585   -7.1879953    476.47432  0.024329775   0.02410495            4 
 1633000    0.9958414   -7.1067312    477.64523  0.024374629  0.024097734            5 
 1634000   0.99294919   -7.1687944    476.71006  0.024312019  0.024090483            7 
 1635000   0.99753783   -7.1395493    478.71532  0.024399354  0.024083352            2 
 1636000   0.98108967   -7.1433272    478.74515  0.024385959  0.024076079            9 
 1637000   0.97887709   -7.1630999    478.52188  0.024359696  0.024068879            4 
 1638000    1.0053234   -7.1336992    478.42415  0.024339853  0.024061719           10 
 1639000    1.0021489   -7.1332644    478.95733  0.024352112  0.024054667            4 
 1640000   0.98356482   -7.1239646    479.51353  0.024365525  0.024047595            4 
 1641000    1.0012624   -7.1461624    478.95051  0.024322086  0.024040503            3 
 1642000    1.0065264   -7.1343157     479.8534  0.024353096  0.024033395            4 
 1643000    0.9890714   -7.1440059    480.47233  0.024369666   0.02402633            4 
 1644000    1.0002877   -7.1390109    480.34915  0.024348598   0.02401927            4 
 1645000    0.9795019   -7.1920181    479.18996  0.024275074  0.024012124            4 
 1646000   0.99717416   -7.1672561    479.55526  0.024278821  0.024004953            5 
 1647000    1.0107024   -7.1464366    479.72722   0.02427278  0.023997732            5 
 1648000   0.96657038   -7.1486604    479.02117  0.024222349  0.023990585            5 
 1649000    1.0055427   -7.1704347    478.55764  0.024184235  0.023983422            1 
 1650000   0.98712681   -7.1456409    481.63647  0.024325074  0.023976201            3 
 1651000   0.99551013   -7.1449746    480.45594  0.024250754  0.023969076            7 
 1652000   0.98557218   -7.1631561    481.69408  0.024298531  0.023961978            3 
 1653000   0.99461194   -7.1495271    481.88651  0.024293532  0.023954872            4 
 1654000    1.0095595   -7.1787703    480.22908  0.024195339  0.023947929            8 
 1655000   0.99973997    -7.205721    480.58601  0.024198691  0.023940953            6 
 1656000   0.98408602   -7.1416863    482.42734  0.024276738  0.023933915            4 
 1657000    1.0105431   -7.1642596    481.81257  0.024231169  0.023926745            7 
 1658000   0.98763184   -7.1704722    482.01372  0.024226665  0.023919745            3 
 1659000   0.98549553   -7.1497541    482.94424  0.024258803  0.023912675            6 
 1660000   0.98005722   -7.1825436    481.32964  0.024163134  0.023905585            2 
 1661000   0.98572139   -7.1766454    480.73989  0.024118999  0.023898515            3 
 1662000   0.98811209   -7.1428695     483.0932  0.024222483  0.023891512            5 
 1663000   0.99338758   -7.1377947    483.85046  0.024245864  0.023884582           12 
 1664000   0.98277997   -7.1454405    484.68521  0.024273097  0.023877636            5 
 1665000   0.97388047   -7.1342506     481.5395  0.024101076  0.023870582            2 
 1666000   0.99316721   -7.1606466    483.47967  0.024183657  0.023863555            5 
 1667000   0.96803333   -7.1953878     483.4708  0.024168706  0.023856548            3 
 1668000   0.98662277   -7.1604397    484.63957  0.024212609  0.023849554           11 
 1669000   0.99206898    -7.181418     483.1465  0.024123552  0.023842522            5 
 1670000   0.99137138   -7.1873473    482.29692  0.024066712   0.02383537            6 
 1671000   0.98834809   -7.1878598    483.34498  0.024104577  0.023828227            4 
 1672000     1.015591   -7.1548668    484.60141  0.024152781   0.02382102            2 
 1673000     0.991034   -7.1908367    483.65987  0.024091446  0.023813835            9 
 1674000   0.97769664   -7.2302284    481.63574  0.023976291   0.02380659            4 
 1675000   0.97897414   -7.2135169    483.94022  0.024076628  0.023799282            9 
 1676000     1.011845   -7.1914333    482.14471  0.023972987  0.023792109           10 
 1677000   0.95939587   -7.1959068    484.53925  0.024077681  0.023784885            5 
 1678000    1.0019372   -7.1784308    482.52054  0.023963078  0.023777663            4 
 1679000   0.98341777   -7.2032295    483.21398  0.023983223  0.023770404            6 
 1680000   0.99562961   -7.2223547    484.45196  0.024030355  0.023763065            3 
 1681000   0.99500192   -7.1709351    484.50215  0.024018548  0.023755843            3 
 1682000    1.0057798   -7.1688273    484.60161  0.024009196  0.023748668            7 
 1683000   0.98047389   -7.1816489    485.37738  0.024033342   0.02374149            8 
 1684000    1.0009273   -7.2063811    484.93116  0.023996989  0.023734229            4 
 1685000   0.97575164    -7.187868    485.16425  0.023994275   0.02372705            5 
 1686000    0.9815109   -7.1893343    484.25822  0.023935262  0.023719809           15 
 1687000   0.97370575   -7.2102897    483.82615  0.023899731  0.023712639            3 
 1688000    1.0270324   -7.1596689    485.62378  0.023974318  0.023705354            3 
 1689000   0.96714332     -7.16185    486.05524  0.023981411  0.023698219            3 
 1690000   0.98443427    -7.124983    486.78395  0.024003153  0.023691152            3 
 1691000   0.98038243   -7.1731801    485.81318  0.023941119  0.023684048            5 
 1692000    1.0155283   -7.2044531    485.60472  0.023916702   0.02367685            3 
 1693000   0.98936494   -7.2232882    486.16522  0.023930164  0.023669719            4 
 1694000   0.98162333   -7.2097696    484.90086   0.02385384  0.023662504            3 
 1695000    0.9707659   -7.2017479    485.59707  0.023873995  0.023655229            4 
 1696000   0.98807704   -7.1897539    485.60737  0.023860425  0.023648129            3 
 1697000   0.98421475   -7.1373875    488.30663  0.023978915  0.023641044            7 
 1698000   0.99671621   -7.2126959    485.50972  0.023827528  0.023633911            4 
 1699000    0.9884233   -7.1776092    487.23469  0.023898111  0.023626673            8 
 1700000   0.99815967   -7.1564418    488.37461  0.023939932  0.023619564            3 
 1701000   0.96742787   -7.1878393    486.76224  0.023846867  0.023612435            8 
 1702000   0.98607346   -7.1913506    485.69499  0.023780601  0.023605251            5 
 1703000    0.9624591   -7.1724588    487.42631  0.023851356  0.023598052           10 
 1704000   0.98006119   -7.1798418    487.39743  0.023835946  0.023590958            4 
 1705000   0.97478447   -7.1254613     488.9107  0.023895929  0.023583822            2 
 1706000   0.98321458   -7.1726661    486.73319  0.023775556  0.023576689            3 
 1707000   0.98963447   -7.1780791    488.80312  0.023862679  0.023569534            4 
 1708000   0.97663137   -7.1775265    486.94523  0.023758062  0.023562404           13 
 1709000     0.968793   -7.1559743    488.90543  0.023839742  0.023555227            5 
 1710000   0.98454316   -7.1552153    490.55902  0.023906385   0.02354815            3 
 1711000   0.99358616   -7.1700102    488.86912  0.023810107  0.023541149            6 
 1712000   0.99757332   -7.1744064     488.1979  0.023763527  0.023534045            6 
 1713000   0.98547078   -7.1765504     488.6779  0.023773006  0.023526904            4 
 1714000   0.97450072   -7.1978072    488.65048  0.023757802  0.023519721            8 
 1715000   0.97503476   -7.1562442    488.79909   0.02375117   0.02351251            5 
 1716000   0.97378934    -7.235524    487.18169  0.023658784  0.023505308            4 
 1717000   0.97224456   -7.2254385    488.54859  0.023711347   0.02349799            1 
 1718000   0.99665364   -7.2538045    488.07283  0.023674468  0.023490639            3 
 1719000   0.99166437   -7.2366775     487.5275  0.023634259  0.023483277            5 
 1720000   0.96230365   -7.2335389    488.74152  0.023679337  0.023475989            6 
 1721000   0.97394808   -7.2428605    489.06848   0.02368141   0.02346876           12 
 1722000   0.98919595   -7.1944081    490.18803  0.023721836  0.023461548            4 
 1723000    0.9939461     -7.19269     490.2272  0.023709963  0.023454571            2 
 1724000   0.98530271   -7.2419176    491.00444   0.02373378  0.023447523            4 
 1725000   0.97659335   -7.2268558    489.96521  0.023669817  0.023440345           12 
 1726000   0.96961477   -7.2492559    490.77523  0.023695212  0.023433146            8 
 1727000   0.99209562   -7.2216732    491.42227  0.023712713  0.023426048            5 
 1728000   0.98109122   -7.1815043    491.64238  0.023709606  0.023419048            7 
 1729000   0.99284525   -7.1878873    491.70283  0.023698806  0.023411952            3 
 1730000   0.97060764   -7.2150726    491.89394  0.023694313  0.023404868            5 
 1731000   0.99111104   -7.2332666    491.19532  0.023646992  0.023397765            6 
 1732000   0.97661095   -7.1377515    493.18996  0.023729309  0.023390765            4 
 1733000   0.95559984    -7.217196    491.23205  0.023621468  0.023383694            3 
 1734000   0.98125126   -7.2002201    492.72551  0.023679619  0.023376634            5 
 1735000   0.96733113   -7.1887319    492.38809  0.023649764  0.023369606            5 
 1736000   0.97072743     -7.15471    493.83352  0.023705526  0.023362615           10 
 1737000   0.98351372    -7.208645    492.10888  0.023609138   0.02335556           10 
 1738000   0.97128456   -7.1532042    493.70835  0.023672245  0.023348482            4 
 1739000   0.99079161   -7.2204642    492.70179  0.023610398  0.023341384            6 
 1740000   0.96487149   -7.2131596     492.9591  0.023609152  0.023334183            4 
 1741000   0.97935203   -7.2180941    492.47385  0.023572365  0.023327012            4 
 1742000   0.97607828   -7.1916377    493.06345  0.023587038  0.023319882            4 
 1743000   0.97410211   -7.2261251    492.81097  0.023561435  0.023312756            9 
 1744000    0.9683126    -7.199801    493.76442  0.023593484  0.023305602            5 
 1745000   0.97966501   -7.2260065    493.68238  0.023576045  0.023298445            6 
 1746000   0.95323469   -7.2170213    493.89876  0.023572869  0.023291327            4 
 1747000   0.95996597   -7.1911561     494.1292  0.023570368  0.023284167            1 
 1748000   0.97811291   -7.2058609    493.47073  0.023525492  0.023277031            5 
 1749000   0.97493362   -7.2060898     494.1871  0.023546174  0.023269652            4 
 1750000   0.98319219    -7.216024    493.00415  0.023476388  0.023262393            2 
 1751000   0.97433712   -7.2208683    493.39375  0.023481522  0.023255122            3 
 1752000   0.98017847   -7.2024344    493.85566   0.02349009  0.023247833            3 
 1753000   0.99187366   -7.2243971    494.84659  0.023523797  0.023240509            3 
 1754000   0.98243448   -7.2296302    493.36594  0.023440039   0.02323319            5 
 1755000   0.93866735   -7.2322916     493.5976  0.023437683  0.023225907            3 
 1756000    0.9547737   -7.2103757    495.18199  0.023499525  0.023218677            5 
 1757000   0.96017892   -7.2651388    493.14403  0.023389491  0.023211353            9 
 1758000   0.97130337   -7.1959425    494.55345  0.023442996  0.023204093            4 
 1759000   0.97756005   -7.1891338    496.62473  0.023527796  0.023196925            4 
 1760000   0.96711413   -7.2591643    493.47917  0.023365491  0.023189722            3 
 1761000   0.97356874   -7.1846044    494.93906  0.023421307  0.023182529            5 
 1762000   0.98777071   -7.1919996    495.38859  0.023429275  0.023175334            8 
 1763000   0.97352682   -7.2049828    494.80145  0.023388233  0.023168014            3 
 1764000   0.97579498   -7.2112714    496.02194  0.023432631  0.023160762            2 
 1765000   0.96681234   -7.1910201    495.92248  0.023414659  0.023153463            4 
 1766000   0.94457088    -7.222256    495.88764  0.023399757  0.023146211            9 
 1767000   0.96345883    -7.253014    494.96292  0.023342903  0.023138973            5 
 1768000    0.9830457   -7.2346775    494.89487  0.023326493  0.023131702            3 
 1769000   0.97537277    -7.222049    495.73173  0.023352729  0.023124531            3 
 1770000   0.95718182   -7.2511507    495.47668  0.023327527  0.023117221            3 
 1771000   0.96689032    -7.217834    495.62555   0.02332136   0.02311002            4 
 1772000   0.96847771   -7.2315881    494.68071  0.023263766  0.023102776            4 
 1773000   0.95680752    -7.212192     496.2535  0.023324568  0.023095592            2 
 1774000   0.95314659   -7.2125419    497.42382  0.023366395  0.023088356            4 
 1775000   0.95031453   -7.2161225    496.41786  0.023306003  0.023081161            4 
 1776000   0.98292482   -7.2285612    496.01218  0.023273845  0.023073939            5 
 1777000   0.95275274   -7.2344496    496.56946  0.023286882  0.023066631            9 
 1778000    0.9601688   -7.2150246    497.15625  0.023301287  0.023059288            3 
 1779000   0.97839179   -7.2280055    497.07386  0.023284329  0.023052021            3 
 1780000    0.9897994     -7.23878    498.22002  0.023324907  0.023044894            7 
 1781000   0.97033933   -7.2218748    498.25729  0.023313555  0.023037698            3 
 1782000   0.97139334   -7.2050751    497.78294  0.023278289  0.023030519            6 
 1783000   0.96428521   -7.2120059    497.99758  0.023275265  0.023023353            2 
 1784000   0.95750562   -7.2402149    497.24291  0.023226967  0.023016208            4 
 1785000   0.96528257   -7.1908727    499.52232   0.02332037  0.023009118            5 
 1786000   0.98490822   -7.2211511    498.80397  0.023273795  0.023001965            2 
 1787000   0.97953908   -7.2083365    498.71776  0.023256751   0.02299483            2 
 1788000   0.94508471   -7.2636581    497.59884  0.023191594  0.022987632            3 
 1789000   0.95768065   -7.2315672    498.14074  0.023203873  0.022980352            7 
 1790000   0.96890218   -7.2691754    495.86368  0.023084901  0.022973052            6 
 1791000   0.95196891   -7.2308943    499.68926  0.023250012   0.02296585            5 
 1792000     0.968338   -7.2502653     498.8054  0.023195936  0.022958633            6 
 1793000    0.9760956   -7.2907095    498.58559  0.023172783    0.0229514           13 
 1794000   0.97549718   -7.2874613    497.82514  0.023124542  0.022944042            8 
 1795000   0.96035775   -7.2563574    500.66673  0.023243581  0.022936771            6 
 1796000   0.97152266   -7.2423307     498.7897  0.023143546  0.022929518            7 
 1797000   0.95862475   -7.2181973    498.75638  0.023129122  0.022922344            6 
 1798000   0.96946736   -7.2560594    499.14733  0.023134378  0.022915179            3 
 1799000   0.97336105   -7.2439646    499.02822     0.023116  0.022908051            3 
 1800000   0.98583223   -7.2074877    500.17448  0.023156226   0.02290099            6 
 1801000   0.95383872   -7.2370621    501.92832   0.02322452  0.022893947            7 
 1802000    0.9603969   -7.2449806    499.44647  0.023096859  0.022886874           15 
 1803000   0.98130388   -7.1913453     501.9368  0.023199149  0.022879801            8 
 1804000   0.96643239     -7.18122    502.70183  0.023221629  0.022872754            5 
 1805000    0.9609889    -7.270271    499.14574  0.023044586  0.022865674            6 
 1806000   0.96606806    -7.273137    500.41796   0.02309053  0.022858531            6 
 1807000   0.95059352   -7.2583576    500.05252  0.023060898  0.022851411            5 
 1808000   0.96325618   -7.2367522    500.47768   0.02306774  0.022844247            4 
 1809000   0.96514015   -7.2412547    502.45333  0.023145998  0.022837188            4 
 1810000   0.97505547   -7.2378334    502.35143  0.023128519  0.022830092            6 
 1811000   0.97996787   -7.2779666    501.47704  0.023075513  0.022822923            4 
 1812000    0.9227945   -7.2031126    503.12559  0.023138594  0.022815835            5 
 1813000   0.94404145   -7.2379869    502.53649  0.023098754   0.02280876           10 
 1814000    0.9836236   -7.2487663    503.45329  0.023128137  0.022801742            5 
 1815000   0.95635857   -7.1966344    504.07856  0.023144103  0.022794704            8 
 1816000   0.97151073   -7.2446406    502.84079  0.023074559  0.022787686            5 
 1817000    0.9590481   -7.2420081    503.08983  0.023073281  0.022780693            4 
 1818000    0.9425067   -7.2462296    503.30006  0.023070226  0.022773751            4 
 1819000   0.95352942   -7.2557916    503.97271  0.023088359  0.022766663            4 
 1820000   0.96111909   -7.2808105    501.94026  0.022982613   0.02275947            2 
 1821000   0.95614579   -7.2792887      504.395  0.023082327  0.022752412            3 
 1822000   0.97621719    -7.249486    501.48163  0.022936408  0.022745301            2 
 1823000   0.96008528   -7.2358945    503.78863  0.023029284   0.02273832            6 
 1824000   0.95316425   -7.2652708    502.74054  0.022968774  0.022731348            6 
 1825000   0.95793301   -7.2428794    504.73707  0.023047355  0.022724409            6 
 1826000   0.96494653   -7.2424579    504.43644  0.023021013   0.02271747            5 
 1827000   0.96062282   -7.2612912    504.17789   0.02299662  0.022710428            8 
 1828000   0.96641555   -7.2491468    503.73095  0.022963665  0.022703444            5 
 1829000   0.97186313   -7.2321056    505.54964  0.023033973  0.022696488            3 
 1830000   0.98075899   -7.2555718    504.04295  0.022952775  0.022689534            4 
 1831000   0.96771593   -7.2369263    506.23496  0.023040003  0.022682562            8 
 1832000    0.9655841   -7.2576582    504.16472  0.022933257  0.022675674           18 
 1833000   0.96682492   -7.2421812     506.6368  0.023033133   0.02266872            7 
 1834000   0.97134633   -7.2331488    505.96023  0.022989832  0.022661785            8 
 1835000   0.97799296    -7.294102    505.33156  0.022948754  0.022654824            6 
 1836000   0.96527304   -7.2269032    506.54818  0.022991475  0.022647899            4 
 1837000   0.97008237   -7.2530006    506.16711  0.022961672  0.022640952            7 
 1838000   0.95841905   -7.2169316    507.90034  0.023027763  0.022634102            4 
 1839000   0.96712636   -7.2585796    507.91014  0.023015685  0.022627202           12 
 1840000   0.95766757   -7.3012216    505.56207  0.022896833  0.022620266            6 
 1841000   0.94580647   -7.2644081    506.49005  0.022926401  0.022613258            7 
 1842000      0.96301   -7.2823529    505.49081  0.022868748  0.022606267            6 
 1843000   0.95719771    -7.268229    505.77272  0.022869087  0.022599277            6 
 1844000   0.95322958   -7.2842759    506.50877  0.022889948  0.022592275            3 
 1845000   0.96728496   -7.2487612    506.42798  0.022873892  0.022585278           10 
 1846000   0.95933152   -7.2715822     506.5756  0.022868165  0.022578273            5 
 1847000   0.96179174   -7.2454364    506.63024  0.022858249  0.022571363            4 
 1848000   0.97172866   -7.2487853    506.84818  0.022855708  0.022564452            5 
 1849000   0.95217721   -7.2188168    508.25362  0.022906689  0.022557557            5 
 1850000   0.94235126   -7.2643905    506.52396  0.022816395  0.022550592            9 
 1851000   0.97318311   -7.2819885    506.98763  0.022824943  0.022543523            5 
 1852000   0.95607073    -7.270776    507.11958  0.022818555  0.022536422           10 
 1853000   0.97178028    -7.266798    506.01946  0.022756767  0.022529419            8 
 1854000   0.95892709   -7.2969061    506.47498  0.022764967  0.022522362            7 
 1855000   0.94906042   -7.2658317    508.50081  0.022843702  0.022515414            6 
 1856000   0.97250686   -7.2784867    509.03122  0.022855209  0.022508428            5 
 1857000   0.95559095   -7.2617472    508.29678  0.022809943  0.022501299            4 
 1858000   0.95187228   -7.2360232    508.41206  0.022802837  0.022494377            4 
 1859000   0.95790832   -7.2470116    509.58135  0.022842987  0.022487486            4 
 1860000   0.96368783   -7.2420956    508.74672  0.022793312  0.022480553            4 
 1861000   0.94794495   -7.2817534    508.56963  0.022773134  0.022473667            4 
 1862000   0.97051289   -7.2557773    507.50612  0.022713307  0.022466672            5 
 1863000   0.96242471    -7.241818    509.17114  0.022775592  0.022459787            4 
 1864000   0.94604669   -7.2345795    510.14176  0.022806767  0.022452904            6 
 1865000   0.95895336   -7.2178669    511.28581  0.022845657  0.022446039            3 
 1866000   0.95925447   -7.2454007    509.82608  0.022768225  0.022439195            5 
 1867000   0.96565879   -7.2990507    509.52715  0.022742687  0.022432295            2 
 1868000   0.94928365   -7.2757122    509.69816  0.022738141  0.022425413            5 
 1869000   0.96474838   -7.2876558    510.12626  0.022745063  0.022418449            8 
 1870000   0.96435266   -7.2544406    511.26419  0.022783609  0.022411556            9 
 1871000   0.95219144   -7.2724774    511.04247  0.022761557  0.022404681            9 
 1872000   0.95625484    -7.277657    511.74375  0.022780616  0.022397693           14 
 1873000   0.96500437   -7.2826678    510.05169   0.02269317  0.022390835            6 
 1874000   0.95676847   -7.2904711    510.65792  0.022708018   0.02238389            4 
 1875000      0.95392   -7.3433235    511.65894  0.022740397  0.022376942            3 
 1876000   0.94437345   -7.2745496    510.80781  0.022690468  0.022370009            2 
 1877000   0.95156234   -7.2516689    512.70196  0.022762474  0.022363128            3 
 1878000   0.94970898   -7.2529145    510.98971  0.022674375  0.022356298            5 
 1879000   0.94590208   -7.2573206    511.12954  0.022668509   0.02234948            3 
 1880000   0.93923808   -7.2663164      511.561  0.022675576  0.022342638           10 
 1881000   0.95142984   -7.2299697    511.87986  0.022677648   0.02233581            8 
 1882000   0.95529978   -7.2863824    512.85459  0.022708758   0.02232895           12 
 1883000   0.95136415   -7.2663135    513.74187  0.022735965  0.022322213            6 
 1884000   0.96498395   -7.3157698    511.57276  0.022627953  0.022315366            5 
 1885000   0.97130996   -7.3380307    510.59278  0.022572625  0.022308491           12 
 1886000   0.94230029   -7.3345927    511.42717  0.022597524  0.022301594            6 
 1887000   0.96142304   -7.2577354    511.92828  0.022607679  0.022294758           13 
 1888000   0.95405052   -7.2403669    512.98296  0.022642256  0.022287948            4 
 1889000   0.93797892   -7.2824857    512.94575  0.022628628  0.022281082            7 
 1890000   0.95225212   -7.2725484    512.33402  0.022589683  0.022274259            6 
 1891000   0.93982013   -7.2998318     512.8177  0.022599053  0.022267514            8 
 1892000   0.96950436   -7.2763115    513.26976  0.022607019  0.022260775            4 
 1893000   0.93949472   -7.2886567    513.06826  0.022586206  0.022253968            6 
 1894000   0.93174599   -7.2799381    514.05892  0.022617869  0.022247201            7 
 1895000   0.94150881   -7.2747414    514.31951  0.022617393  0.022240449            4 
 1896000   0.93245399   -7.2651809    513.62986  0.022575152  0.022233718            3 
 1897000   0.95725668   -7.2876413    513.35181  0.022551037  0.022226949            7 
 1898000   0.92835579   -7.3102379    513.58501  0.022549395  0.022220096            5 
 1899000   0.95174933   -7.3109481    514.04335  0.022557633   0.02221321            4 
 1900000   0.95964439     -7.29988    513.04566  0.022502003  0.022206323            7 
 1901000   0.93656853   -7.3055961     514.7181   0.02256348  0.022199463            5 
 1902000   0.92905793   -7.2293465    516.08016  0.022611293  0.022192721           10 
 1903000   0.94118741   -7.2520709    515.53707  0.022575629  0.022185937            5 
 1904000    0.9571131   -7.2737292    515.14151   0.02254646  0.022179216            2 
 1905000   0.95307827   -7.3156741    513.28797  0.022453542  0.022172502            4 
 1906000   0.92958469   -7.2615073    515.85371   0.02255394  0.022165664            4 
 1907000   0.95520142   -7.2935274     514.9385  0.022502119  0.022158835            9 
 1908000   0.96093115   -7.2856385    513.27498   0.02241767  0.022151977           13 
 1909000   0.95986992   -7.2797594    514.66389  0.022466557  0.022145117            7 
 1910000   0.93620005   -7.2732189    515.10959  0.022474241  0.022138364            3 
 1911000    0.9401121   -7.3140959    514.93317  0.022454787  0.022131565            4 
 1912000   0.93235404   -7.3027165    514.88014  0.022440731  0.022124709            2 
 1913000   0.95221667   -7.2906829    516.46423  0.022498006  0.022117926            4 
 1914000   0.92284651   -7.3052366    514.25688  0.022390146  0.022111017            7 
 1915000   0.92885337   -7.2975304    513.93236  0.022364333  0.022104151            7 
 1916000   0.93904254   -7.2981288    515.83066  0.022435224  0.022097305            9 
 1917000   0.93721158   -7.2463214    518.03963  0.022519546  0.022090557            4 
 1918000   0.96412876   -7.3031638     516.5212  0.022441832  0.022083815            7 
 1919000   0.93651287   -7.3270871    515.34979  0.022379268  0.022076997            4 
 1920000   0.91427031   -7.2936398    516.57588  0.022420828    0.0220702           11 
 1921000   0.97048778   -7.2875282    517.89121  0.022466216  0.022063395            5 
 1922000   0.95082768   -7.2818396    515.68132  0.022358711  0.022056503           15 
 1923000   0.92640646   -7.3046555    515.95797  0.022359073  0.022049627           10 
 1924000   0.95516777   -7.3134189    516.61523   0.02237592  0.022042773           13 
 1925000   0.94688711   -7.3252417     517.2606  0.022392234  0.022035953            9 
 1926000   0.94449606   -7.2864032    518.00121  0.022412652  0.022029289            6 
 1927000   0.94485884   -7.3309417    516.65912  0.022342982  0.022022527            4 
 1928000   0.95719222   -7.3072369    517.50895  0.022368125  0.022015836            3 
 1929000   0.93980493    -7.299703    517.94036  0.022375167  0.022009095           11 
 1930000   0.94990507   -7.2880938    516.24402  0.022290329  0.022002299            6 
 1931000   0.96005383   -7.3135268    517.52711  0.022334158  0.021995546            5 
 1932000   0.92796883   -7.2746539    518.44276  0.022362093  0.021988743           12 
 1933000   0.94915618   -7.3200539    517.49239  0.022309553  0.021981938            5 
 1934000   0.94120645   -7.2821044    518.97631  0.022361957  0.021975056            6 
 1935000   0.93943244   -7.3545742    516.31411   0.02223575  0.021968264            7 
 1936000   0.94504342   -7.3368476    518.77695  0.022330275  0.021961397            4 
 1937000   0.96300978   -7.3092649    517.26582  0.022253735  0.021954513            5 
 1938000   0.95122352   -7.3358819    516.84198  0.022224027  0.021947638            5 
 1939000    0.9375258   -7.2761635    518.13489  0.022268132  0.021940819            5 
 1940000    0.9396419   -7.3228121     518.1401  0.022256877  0.021934008            5 
 1941000   0.94465981   -7.2878585    518.58455  0.022264492  0.021927156            4 
 1942000   0.94230635   -7.3381957    517.48122  0.022205682  0.021920372            4 
 1943000   0.95177253   -7.3249098    517.50325  0.022195199  0.021913486            6 
 1944000   0.93692578   -7.3216373    519.82831   0.02228345  0.021906639            6 
 1945000   0.93005522   -7.2997281    519.78421  0.022270103   0.02189993            8 
 1946000   0.96464233    -7.312152    520.11846  0.022272973  0.021893109            7 
 1947000   0.95260209   -7.3601867    517.19228   0.02213629  0.021886221            5 
 1948000   0.94706278   -7.3254576    518.42833  0.022177803  0.021879356            6 
 1949000   0.94154553   -7.3361104    518.32052  0.022161815  0.021872483           10 
 1950000   0.93428323   -7.3404916    517.35668   0.02210926  0.021865559            3 
 1951000   0.91979395   -7.3355109    517.90625  0.022121401  0.021858664            4 
 1952000   0.92729768   -7.3219361    520.50053  0.022220822  0.021851915            6 
 1953000   0.94686998   -7.3106994    518.57315  0.022127204  0.021845107            5 
 1954000   0.93078285   -7.3043714    519.67905  0.022163044   0.02183821            9 
 1955000   0.94189125   -7.3430811    518.49886  0.022101401  0.021831318            9 
 1956000    0.9466925   -7.3169737    520.04363  0.022155915  0.021824355            4 
 1957000   0.92020556   -7.3553507     517.6176  0.022041287  0.021817416           12 
 1958000   0.95110006   -7.3269594    520.94305  0.022171563  0.021810496            5 
 1959000    0.9420711   -7.3269774    519.55799  0.022101327  0.021803566            5 
 1960000   0.95839929    -7.281623    521.25277  0.022162108  0.021796774            9 
 1961000    0.9428834   -7.3250007    519.83337  0.022090488  0.021789931            3 
 1962000   0.94413789   -7.2949256    521.36134  0.022144128  0.021783073            6 
 1963000   0.93635944   -7.3235103    522.13468  0.022165677  0.021776193            3 
 1964000   0.93627394   -7.3223267    520.26422  0.022075026  0.021769321            5 
 1965000   0.93749017   -7.2819149    522.02641  0.022138525  0.021762556            3 
 1966000   0.93441576   -7.3248019     520.5182  0.022063335   0.02175572            6 
 1967000   0.92574837   -7.3200408    520.20083  0.022038673   0.02174879           10 
 1968000   0.93773723   -7.3605439    520.15535  0.022025549  0.021741865           11 
 1969000   0.94202315   -7.3304446    520.19517  0.022016047  0.021735001           12 
 1970000    0.9622945   -7.2810019     522.3281  0.022095097   0.02172822           10 
 1971000   0.91300811   -7.3042102    522.09282   0.02207394  0.021721465           12 
 1972000   0.92124166   -7.3181993    523.13445  0.022106763   0.02171473            4 
 1973000   0.91764013   -7.2730522    521.94251  0.022045215  0.021707929            8 
 1974000   0.92187821   -7.3244632    521.74791  0.022025832  0.021701063           11 
 1975000   0.93645192   -7.3143846    521.38543  0.021999385  0.021694231            4 
 1976000   0.92544554   -7.2919778    523.40959  0.022073616  0.021687413            6 
 1977000   0.93153411   -7.3195545    522.45635  0.022022271  0.021680607            5 
 1978000   0.92970729   -7.3158916    522.58418  0.022016523  0.021673771            8 
 1979000    0.9481441   -7.3063931    523.46706  0.022042575  0.021666962            5 
 1980000   0.93971554   -7.3593575    521.95291  0.021967715  0.021660142           12 
 1981000   0.94865229   -7.3382572    521.13169   0.02192208  0.021653253            8 
 1982000   0.95666005   -7.3210259    522.94321  0.021987185  0.021646384            7 
 1983000   0.93720141   -7.3156302    522.03013  0.021937726  0.021639466            6 
 1984000   0.93738291   -7.3529917     522.6578  0.021953033  0.021632558            6 
 1985000   0.93715522   -7.3370346    522.10825  0.021918902  0.021625683            4 
 1986000   0.92908846   -7.3104683    522.21677  0.021912419  0.021618823            7 
 1987000   0.92940507   -7.3516575    523.10149  0.021938496  0.021612002           12 
 1988000   0.92760366   -7.3424593    523.07584  0.021926385  0.021605092            3 
 1989000   0.92214494   -7.3339063    522.54562  0.021893147   0.02159826            6 
 1990000    0.9432599   -7.3539246    524.70806  0.021972699  0.021591423            8 
 1991000    0.9222926   -7.3117987    524.46877  0.021951648  0.021584585            6 
 1992000   0.92762379   -7.3289762    525.20117  0.021971267  0.021577796           15 
 1993000   0.94971806   -7.3040001    526.17754  0.022001068  0.021571072           16 
 1994000   0.93373646   -7.3531705    523.55629  0.021880487  0.021564359            3 
 1995000   0.95411688    -7.308345    525.31219  0.021942865   0.02155762            7 
 1996000   0.93787161   -7.3292724    523.85152  0.021870889  0.021550956            6 
 1997000    0.9310704   -7.3103566    527.35931  0.022006314  0.021544221            6 
 1998000   0.93146261   -7.3340938    525.20665  0.021905516  0.021537472            9 
 1999000   0.93217266    -7.304168    526.29551   0.02193995  0.021530757            6 
 2000000   0.92156283   -7.3501677    525.07153  0.021877981  0.021524011            4 
 2001000   0.93893656   -7.3302059    525.80267  0.021897496  0.021517225            6 
 2002000    0.9234568   -7.3638047    524.73735  0.021842214  0.021510464            5 
 2003000   0.93790106   -7.3418957    526.18359  0.021891479  0.021503744            3 
 2004000   0.91927594   -7.3874623       523.76  0.021779774   0.02149694            5 
 2005000   0.94800077   -7.3931605    524.44523  0.021797391  0.021490045            7 
 2006000   0.93075578   -7.3494122    523.89542  0.021763685  0.021483252            9 
 2007000   0.91579032   -7.3616694    524.56863  0.021780793  0.021476444            6 
 2008000   0.93059812   -7.3579083    524.40225  0.021763042  0.021469606            4 
 2009000   0.92667759    -7.336477    526.29663  0.021830788  0.021462766            4 
 2010000   0.94608953   -7.3500735    525.57098  0.021789842   0.02145588            5 
 2011000   0.92630957    -7.303869     526.6282  0.021822816  0.021449073            5 
 2012000   0.94196299   -7.3560606    523.73392  0.021692094  0.021442198            3 
 2013000   0.93126304   -7.3532718    524.27201  0.021703594  0.021435291            7 
 2014000    0.9497042   -7.3406973    524.79524  0.021714467  0.021428355            5 
 2015000   0.92375417   -7.3375156    526.73773  0.021784025  0.021421499            4 
 2016000   0.92120125   -7.3415247     527.1089  0.021788562  0.021414642            4 
 2017000   0.95126825   -7.3568243    526.08704  0.021735541   0.02140783            4 
 2018000   0.94195963   -7.3673413    525.67945  0.021707939  0.021401035           12 
 2019000   0.94333942   -7.3547408    525.57064  0.021692696  0.021394149            7 
 2020000   0.92280686    -7.361732    525.57911  0.021682306  0.021387282            3 
 2021000   0.93094725   -7.3657746    525.17466  0.021654901   0.02138038            6 
 2022000   0.94930429   -7.3108339    526.96876  0.021718132  0.021373462           12 
 2023000   0.92814994   -7.3240718    525.49358   0.02164663  0.021366616            5 
 2024000     0.923601    -7.366141    526.10741  0.021661208  0.021359775            6 
 2025000   0.93646987   -7.3424641    527.70081  0.021716083  0.021352921            8 
 2026000   0.92861454   -7.3681736    525.59439  0.021618723  0.021346077           17 
 2027000   0.92438309    -7.367576    526.51399  0.021645864  0.021339205            4 
 2028000   0.93235213   -7.3763766    526.12077  0.021619032  0.021332308            3 
 2029000   0.92592908   -7.3194398    527.43236  0.021662246  0.021325411            7 
 2030000   0.91847867   -7.3468538    527.66538   0.02166114  0.021318621            6 
 2031000    0.9350558   -7.3101572    528.73784  0.021694479  0.021311874            6 
 2032000   0.94198502   -7.2912596    527.89102  0.021649074  0.021305205            5 
 2033000   0.93649254   -7.3361323     528.3665  0.021657915  0.021298447            6 
 2034000   0.93948457   -7.3721394    525.88357  0.021545541  0.021291598            7 
 2035000   0.92415457   -7.3538642    526.61096   0.02156474  0.021284661           11 
 2036000   0.92888538   -7.3422055    527.90718  0.021607203  0.021277739            4 
 2037000   0.91311628   -7.3858885    526.14463   0.02152449  0.021270809            8 
 2038000   0.92383669   -7.3609268    527.10078  0.021553025  0.021263877            9 
 2039000   0.92111996   -7.3794831    526.38334  0.021513133  0.021256943            7 
 2040000   0.92373421   -7.3999915    525.33009  0.021459562  0.021249973            7 
 2041000   0.91992383   -7.3768942    527.51346  0.021538194  0.021242996            4 
 2042000   0.92838086   -7.3436218    527.40776  0.021523333  0.021236136            5 
 2043000   0.93920669    -7.366274    527.15345  0.021502425  0.021229202            4 
 2044000   0.93070095   -7.3512909    528.30052  0.021538671  0.021222309            4 
 2045000   0.91731112    -7.339829    530.63881  0.021623423  0.021215435            4 
 2046000   0.91711807    -7.358736    529.14957  0.021552198  0.021208615            8 
 2047000   0.93101818   -7.4120363     527.3141  0.021466948  0.021201698           12 
 2048000   0.93756688   -7.3906411     528.8668  0.021519645  0.021194855            2 
 2049000   0.93382915   -7.3463541      528.786  0.021505856  0.021187982            8 
 2050000   0.92055607   -7.3562263    528.38044   0.02147888  0.021181155            7 
 2051000   0.91522667   -7.3549875    528.62052  0.021478162  0.021174299            3 
 2052000   0.92371022    -7.301602    529.42883  0.021500521  0.021167487           10 
 2053000   0.91074101   -7.3382039    529.37249  0.021487761  0.021160642            6 
 2054000   0.93774982   -7.3666544    529.02286  0.021463115  0.021153832            4 
 2055000   0.89793338   -7.3929517    527.29576  0.021382634  0.021146893            6 
 2056000   0.92507933   -7.3677173    527.44108  0.021378124  0.021139953           20 
 2057000   0.93115493   -7.3733133    528.91976  0.021427636  0.021133014           10 
 2058000   0.92284625   -7.3382903    530.23345  0.021470418  0.021126121            5 
 2059000   0.92601472    -7.379899    529.57366  0.021433287  0.021119222            5 
 2060000   0.92672662   -7.3935541    528.57487  0.021382478   0.02111238            4 
 2061000   0.93782382   -7.3594635    530.24345   0.02143957  0.021105511            7 
 2062000   0.91508194   -7.3403067    530.01189  0.021419815  0.021098647            7 
 2063000   0.93061657   -7.3821837    528.41115  0.021344771  0.021091835            6 
 2064000   0.94121576   -7.3444858    530.71627  0.021427498   0.02108504            5 
 2065000   0.90705624   -7.3490264    529.60075  0.021372105  0.021078162            5 
 2066000   0.93683427   -7.4131416    529.33126   0.02135089  0.021071358            6 
 2067000   0.92732036   -7.3593402    531.30874  0.021420285  0.021064528            3 
 2068000   0.92465965   -7.3453241    531.48305  0.021416951  0.021057742            4 
 2069000   0.93676168   -7.3517818    531.74266  0.021417056  0.021050881            3 
 2070000   0.92142223   -7.3858121    531.58531  0.021400375  0.021044072            5 
 2071000   0.91862634   -7.4082791     530.5637  0.021348934  0.021037239            6 
 2072000   0.93904546   -7.3592894    531.95456  0.021394569  0.021030413            5 
 2073000   0.91822064   -7.3578791    532.45376  0.021404316  0.021023661            5 
 2074000   0.92322724   -7.3366708    533.29895  0.021427955  0.021017027           14 
 2075000   0.91232017   -7.3752281    531.77237   0.02135632  0.021010338            7 
 2076000   0.93094465   -7.3718046    531.66314  0.021341648  0.021003674           15 
 2077000   0.92687873   -7.3642172    530.98745  0.021304263  0.020996999            6 
 2078000   0.90184367   -7.3447858    532.93044   0.02137193   0.02099039            5 
 2079000   0.91255683   -7.3719339    532.72853  0.021353556  0.020983645            7 
 2080000   0.92088158   -7.3649783    532.54485  0.021335932  0.020976872            6 
 2081000   0.92904501   -7.3520872    533.20758  0.021352218  0.020970095            8 
 2082000   0.93373577   -7.3755139    532.54645    0.0213155  0.020963354            9 
 2083000   0.93234466   -7.3449697    532.93703  0.021320892  0.020956687            6 
 2084000   0.92710774   -7.3201416    532.72226  0.021302074  0.020950055            5 
 2085000   0.92705857   -7.4018669    531.79896  0.021254954  0.020943362            6 
 2086000   0.92454301   -7.3837753    534.29886  0.021344633  0.020936698            4 
 2087000   0.90951965   -7.3637341    534.04636  0.021324323  0.020930003            6 
 2088000   0.92726759    -7.375177    532.59967  0.021256373  0.020923308            9 
 2089000   0.90133992   -7.3633924    532.84649  0.021256043  0.020916589            7 
 2090000   0.93844987   -7.3590249    535.59096  0.021355302  0.020909911            4 
 2091000   0.91286521   -7.4134868    531.96711  0.021200666   0.02090323            5 
 2092000   0.91588947   -7.4117627    534.69536   0.02129921  0.020896478            6 
 2093000   0.91751499   -7.3750538     535.0527  0.021303261  0.020889823            5 
 2094000   0.87571132   -7.3727116    535.17922  0.021298122  0.020883196            5 
 2095000   0.90346287   -7.3618555    534.81533  0.021273482  0.020876625            6 
 2096000   0.92951999   -7.3505161    534.17435  0.021237848  0.020869996            4 
 2097000   0.90217021   -7.4063252    532.92126  0.021177923  0.020863279            6 
 2098000   0.92486211   -7.3939044     534.2753  0.021221612  0.020856625            2 
 2099000   0.89863027   -7.3718206    534.46152  0.021218895  0.020850004            5 
 2100000   0.91465772   -7.3612726    535.70342  0.021258072  0.020843404            2 
 2101000   0.93365233    -7.362211    534.41962  0.021197034  0.020836793            5 
 2102000   0.92247713   -7.3976884     533.6531  0.021156561  0.020830182            4 
 2103000   0.90628414   -7.3552664    534.69294  0.021187706  0.020823563            6 
 2104000    0.9184364   -7.4119874    534.16065  0.021156553   0.02081692            3 
 2105000   0.92955865    -7.334154    535.35838  0.021193918  0.020810288            5 
 2106000   0.91258128   -7.3900392    535.42617  0.021186537  0.020803692            7 
 2107000   0.91598032   -7.3991552    535.47264   0.02117832  0.020797037            7 
 2108000   0.92559091    -7.374654    536.66735  0.021215502  0.020790354            6 
 2109000   0.91736111   -7.4020959    535.62333   0.02116419  0.020783713            5 
 2110000   0.91918387   -7.3860105    536.01694  0.021169705  0.020777031            7 
 2111000     0.926432   -7.4335924    536.74163  0.021188285  0.020770381           12 
 2112000   0.90534084   -7.4055393    535.71892  0.021137899  0.020763754            6 
 2113000   0.90452261    -7.349624    536.47905  0.021157874  0.020757186            3 
 2114000   0.90591503   -7.4026564    535.47519  0.021108294  0.020750624           11 
 2115000   0.94769171   -7.3696217    536.36611  0.021133417  0.020744073            6 
 2116000   0.91979205   -7.3836584    536.19399   0.02111665  0.020737503            9 
 2117000   0.90567317   -7.3825031    534.99865  0.021059622  0.020730875            6 
 2118000   0.91938306   -7.3894949    537.58156  0.021151305  0.020724243           12 
 2119000   0.92421312   -7.4128229    534.88668  0.021035342  0.020717581            7 
 2120000   0.91454212   -7.3630954     538.6472  0.021173239  0.020710926            8 
 2121000   0.92691927   -7.3428167    536.96979  0.021097351  0.020704398            7 
 2122000   0.90745856   -7.3443082    537.57301  0.021111099  0.020697894            4 
 2123000   0.90181868   -7.3297679     539.1109  0.021161521  0.020691478            7 
 2124000    0.9215984   -7.3446206    537.78646  0.021099594  0.020685048           13 
 2125000   0.91366604   -7.3718419    538.97681  0.021136345  0.020678604            7 
 2126000   0.91059782   -7.3765688    539.22033  0.021135949  0.020672137            8 
 2127000   0.89928436   -7.3712929    537.79537  0.021070184  0.020665661            3 
 2128000   0.91956427   -7.4064425    537.95881  0.021066683   0.02065914           10 
 2129000    0.9151315   -7.4087723    537.15273  0.021025236  0.020652551            6 
 2130000    0.9066964   -7.3873504    537.05617  0.021011587  0.020645906            7 
 2131000   0.91846406   -7.3966285    537.29196  0.021010948  0.020639282            9 
 2132000   0.88735717   -7.4367697    536.74953  0.020979891  0.020632646            7 
 2133000   0.91504913   -7.4207967    537.16432   0.02098626  0.020625988            3 
 2134000   0.91192766   -7.3921013    538.15862  0.021015254  0.020619353           10 
 2135000   0.89566012   -7.4093617    536.49896  0.020940631  0.020612754            8 
 2136000    0.9263653   -7.4375436    536.69482  0.020938468  0.020606163           13 
 2137000   0.90818446    -7.421974    537.46587  0.020958738  0.020599518            5 
 2138000   0.89528164   -7.4206023    538.78521  0.021000359  0.020592887            7 
 2139000     0.899608   -7.4226332    538.23811  0.020969227  0.020586197           15 
 2140000   0.90600224   -7.3791313    539.87043  0.021022992  0.020579624            3 
 2141000   0.88920949    -7.389243    539.54422  0.021000476  0.020573079           14 
 2142000   0.90719285    -7.376566    539.50609  0.020989188  0.020566556            4 
 2143000   0.91278473    -7.385745    538.21901  0.020929344  0.020560054            5 
 2144000   0.91698839    -7.396709    538.94627  0.020947849  0.020553526            7 
 2145000   0.92221578   -7.4013041    539.92332  0.020976042  0.020547006            6 
 2146000   0.91333469   -7.3953712    538.97993  0.020929634  0.020540446            5 
 2147000   0.91812722   -7.3767246    539.84684  0.020953534  0.020533879            6 
 2148000   0.92348642   -7.4252756    538.33229   0.02088502  0.020527305            5 
 2149000   0.91339285    -7.369796    540.50041  0.020959377  0.020520783            4 
 2150000   0.90623504   -7.3427791    541.18106   0.02097601  0.020514275           11 
 2151000    0.9054089   -7.3888801    541.46846  0.020977393  0.020507806            6 
 2152000   0.92302205   -7.3603846    541.44849  0.020966871  0.020501358            5 
 2153000   0.90023596   -7.3988128    539.37167  0.020876748  0.020494859            7 
 2154000    0.8930672   -7.3660812     540.8179  0.020923008  0.020488328            5 
 2155000   0.90848476   -7.4031874    540.68312  0.020908087  0.020481696            5 
 2156000   0.90092017   -7.4316002    539.92156  0.020868953  0.020475103            5 
 2157000   0.91348783   -7.3965793      540.868  0.020895843  0.020468509           10 
 2158000   0.91011399   -7.4259486    540.40309  0.020868207  0.020461865            6 
 2159000   0.90848451   -7.4052193    540.00596  0.020843213  0.020455311            6 
 2160000    0.9131759    -7.438415    539.93251   0.02083073  0.020448726            4 
 2161000   0.92876321    -7.434506    539.14693  0.020790796  0.020442119            7 
 2162000   0.90677429     -7.44213    539.92879  0.020811316  0.020435466           15 
 2163000   0.89486373   -7.4046257    542.06535   0.02088401  0.020428914           15 
 2164000   0.91522265   -7.4327993    541.51276  0.020853079  0.020422321            7 
 2165000   0.89275349   -7.4334551    539.87021  0.020780224  0.020415781           19 
 2166000   0.91798146   -7.3830478    541.43295  0.020830754  0.020409279            6 
 2167000   0.89004223   -7.3800031    541.85049  0.020837198  0.020402843            6 
 2168000   0.91049225   -7.3829657    541.61581  0.020818566  0.020396421            5 
 2169000   0.90988548    -7.450957    540.76272  0.020776192   0.02038994            8 
 2170000   0.90064209   -7.3740918    543.14678  0.020858171  0.020383513            5 
 2171000   0.89817588   -7.3927345    541.72634   0.02079404  0.020377031            6 
 2172000   0.94163714   -7.4303426    541.85248  0.020789306  0.020370509            6 
 2173000   0.91149671   -7.4046096    541.55861  0.020768469   0.02036404            6 
 2174000   0.90170992    -7.458155    540.00369  0.020699314  0.020357544            8 
 2175000   0.86928944   -7.4532295    542.03339  0.020767563  0.020350997            6 
 2176000   0.91154945   -7.4202528    541.51866  0.020738307  0.020344465            6 
 2177000   0.91154319   -7.4209271    542.21683  0.020755506  0.020337946           12 
 2178000   0.92284285   -7.3924466     542.5282   0.02075789  0.020331465            7 
 2179000   0.92844195   -7.4173845    540.96322  0.020688512  0.020324949            5 
 2180000   0.90728083   -7.4290588    542.75195  0.020747399  0.020318404            6 
 2181000   0.89831199   -7.4015647    543.28038  0.020758077  0.020311864            5 
 2182000    0.9166913   -7.4148769     544.4738  0.020794141  0.020305396            7 
 2183000   0.90276572   -7.3986336    541.53973  0.020672611  0.020298909            8 
 2184000   0.91328654   -7.3948395     542.0223  0.020681559  0.020292443            3 
 2185000   0.89602884   -7.4270396    541.03548  0.020634458  0.020285874            7 
 2186000   0.91701224   -7.4621978    540.96041  0.020622157   0.02027925            3 
 2187000   0.89698229   -7.4449065    540.19843  0.020583693  0.020272617            4 
 2188000   0.88581174   -7.4385465    541.27128  0.020615146  0.020265933            9 
 2189000   0.89360702   -7.4474489    542.50316  0.020652625  0.020259282            6 
 2190000   0.90112541   -7.4302365    542.11779  0.020628531  0.020252613           11 
 2191000   0.90602436   -7.4353489    541.91961  0.020611578  0.020245926            7 
 2192000   0.90866342   -7.4368892     542.2517    0.0206148  0.020239274            5 
 2193000   0.90341395   -7.4695142    541.27051  0.020568115  0.020232608            4 
 2194000   0.90362008   -7.4027874    544.57648  0.020684309  0.020225968           12 
 2195000   0.91508044   -7.4331599    544.21615  0.020661205  0.020219375            6 
 2196000   0.89130881   -7.4079624     543.7867    0.0206355  0.020212779            4 
 2197000   0.90876705   -7.4328715     543.6044  0.020619193  0.020206192            4 
 2198000   0.89968006   -7.4101204    545.61034  0.020685863  0.020199633            3 
 2199000   0.88752203   -7.4175829    543.28358  0.020588282  0.020193132            7 
 2200000   0.88479073   -7.4302425    542.84875  0.020562453  0.020186585            7 
 2201000    0.8891171     -7.41259     543.4584  0.020576193  0.020180034           13 
 2202000   0.91253543   -7.4482806    544.22698  0.020595935  0.020173451            5 
 2203000   0.88831077   -7.4583801    541.75464  0.020493064  0.020166792            7 
 2204000   0.89374829    -7.452164    543.22231  0.020539258  0.020160138           29 
 2205000   0.90620159   -7.4228859    542.23022   0.02049245  0.020153515           16 
 2206000   0.88574947   -7.4079308    543.39548  0.020527179  0.020146907            7 
 2207000   0.89732451   -7.4187023    544.67353  0.020566135  0.020140311            3 
 2208000   0.89742578   -7.4076093    544.96933  0.020567985  0.020133694            9 
 2209000    0.8963443   -7.4318756    543.08306  0.020487515   0.02012715           17 
 2210000   0.88334111   -7.4597693    543.01404  0.020475643  0.020120541           14 
 2211000   0.90656563   -7.3984527    544.39317  0.020518362  0.020113937            4 
 2212000   0.91612503   -7.4282393    543.81077  0.020487145  0.020107355            7 
 2213000   0.90952043   -7.4539302    543.39844   0.02046236   0.02010079           15 
 2214000   0.89914024   -7.4424014    543.55761  0.020459109   0.02009423            9 
 2215000   0.90266475    -7.462249    542.83396  0.020422647  0.020087598            8 
 2216000   0.89326841   -7.4155813    544.57071  0.020478742  0.020080967            4 
 2217000   0.89584545   -7.4223814    542.97292  0.020409447  0.020074362           15 
 2218000   0.89666068   -7.4339592    543.80669  0.020431571  0.020067768           12 
 2219000   0.88340005   -7.4333564    545.46962  0.020484814  0.020061135           11 
 2220000    0.9133281   -7.4208927    544.32072   0.02043246  0.020054501            7 
 2221000   0.88450634   -7.4828628    544.04121  0.020412772  0.020047862           10 
 2222000    0.9151008   -7.4528799    544.49678  0.020420671  0.020041192            5 
 2223000   0.87964314   -7.4727617    541.05239  0.020282366  0.020034543            4 
 2224000   0.89441111   -7.4496868     544.3563  0.020397044  0.020027892            7 
 2225000   0.88788221   -7.4780618    543.18074  0.020343848  0.020021237            5 
 2226000   0.87316427   -7.4380417     544.6077  0.020388129  0.020014597            4 
 2227000    0.8823596   -7.4375115      544.325  0.020368395  0.020008017            5 
 2228000    0.8921843   -7.4441182     544.6892  0.020372876   0.02000145            7 
 2229000   0.90438394    -7.431911    544.02799  0.020339015  0.019994837           10 
 2230000   0.90842232   -7.4718893    544.53466  0.020348829  0.019988183            7 
 2231000    0.8928041   -7.4284066    545.73503  0.020384545  0.019981566            5 
 2232000   0.90272493   -7.4602024    545.81471  0.020378387  0.019974935            8 
 2233000   0.88754869   -7.4512691    545.01404   0.02033938  0.019968402            7 
 2234000   0.90837429   -7.4485437    545.38763  0.020344212  0.019961816           12 
 2235000   0.90727688   -7.4330024    544.04405  0.020285013  0.019955232            6 
 2236000   0.89359808   -7.4589567    545.52058   0.02033097  0.019948592            3 
 2237000   0.89524888   -7.4602343    545.20935  0.020310287  0.019941979            7 
 2238000   0.89152695   -7.4551606    545.19002  0.020300492  0.019935336            3 
 2239000   0.89129878   -7.4542484     546.1216  0.020326098  0.019928751            4 
 2240000   0.88471496    -7.447227    546.65039  0.020336696  0.019922202            3 
 2241000    0.9047689   -7.4354632    545.69251  0.020292002  0.019915574            3 
 2242000   0.89259003   -7.3941758    546.04598  0.020296089  0.019909019           12 
 2243000   0.89073498   -7.4729268    544.70325  0.020237155  0.019902447           14 
 2244000   0.87464216   -7.4700695    546.04763  0.020278061  0.019895819            9 
 2245000   0.87872809    -7.465297    544.47736  0.020210741  0.019889165            5 
 2246000   0.89901695   -7.4353714    545.32319  0.020233125  0.019882511           11 
 2247000   0.89867351   -7.4870521    545.83995  0.020243285  0.019875832           14 
 2248000   0.88068149   -7.4207228    545.50546  0.020221881  0.019869222            4 
 2249000   0.90687455   -7.4801613    546.25141   0.02024053  0.019862597           10 
 2250000   0.89498476   -7.5028954    545.59629   0.02020727  0.019855994           17 
 2251000   0.88962001   -7.4513859    545.16312  0.020182257  0.019849394           12 
 2252000   0.89600938   -7.4704725    546.87552  0.020236661  0.019842816            4 
 2253000   0.88468342   -7.4806899    547.02248  0.020233115  0.019836204            7 
 2254000   0.88261989    -7.468453    545.55873  0.020170021  0.019829683            7 
 2255000   0.89395536   -7.4586852    547.08563  0.020217503  0.019823087            5 
 2256000   0.89129922   -7.4699022    546.95498  0.020203715  0.019816572            8 
 2257000   0.89655489   -7.4439242    547.71395  0.020222787  0.019810034           10 
 2258000   0.88695157   -7.4253908    548.46014  0.020241369  0.019803526            4 
 2259000   0.90934877   -7.4433153    547.04279  0.020180123  0.019797015            5 
 2260000   0.89928981   -7.4786498    547.98839  0.020206062  0.019790499            6 
 2261000   0.87890397   -7.4980705    547.38299  0.020174812  0.019783936           15 
 2262000    0.8987999   -7.4717555    547.71925  0.020178281   0.01977735           17 
 2263000   0.88181773   -7.4623212    548.20509  0.020187255  0.019770837            2 
 2264000   0.89470489    -7.489371    548.13495  0.020175756  0.019764299            5 
 2265000   0.88634281   -7.4750625    546.61282  0.020110847   0.01975777           24 
 2266000    0.8805051   -7.4270128    548.94622  0.020187784  0.019751259           10 
 2267000     0.901141   -7.4728955    546.23028  0.020079043  0.019744716            8 
 2268000   0.88406334   -7.4962636    546.38835  0.020075998  0.019738147           15 
 2269000   0.90303702    -7.465174    548.38991  0.020140661  0.019731578            8 
 2270000   0.88575876   -7.4653815    547.70093  0.020106495  0.019725022            6 
 2271000   0.88273453   -7.4654031    547.65978  0.020096132  0.019718431            8 
 2272000   0.89363832   -7.4823164    547.41151   0.02007818  0.019711881            9 
 2273000   0.88555701   -7.4587288    547.28593  0.020064743  0.019705273            2 
 2274000   0.89193377    -7.465656    549.45872  0.020135544  0.019698683            3 
 2275000   0.88880855   -7.4437889    550.15891  0.020152341  0.019692209            3 
 2276000   0.87340147   -7.4781644    548.46581  0.020081496  0.019685713           13 
 2277000      0.88382   -7.4741336    547.89249  0.020051694  0.019679197            4 
 2278000   0.88669268   -7.4505968    548.89786   0.02007967  0.019672711            4 
 2279000   0.89203545   -7.4712732    549.32067   0.02008632  0.019666201            5 
 2280000   0.89146307   -7.4439135     550.2502  0.020111484  0.019659668            3 
 2281000   0.87644378   -7.4839493    549.57108  0.020077856  0.019653141           18 
 2282000   0.89346043   -7.4778797    548.26727  0.020021446   0.01964661            6 
 2283000   0.87625917   -7.4502735    548.84481  0.020033757  0.019640081           11 
 2284000   0.90191359   -7.4797258    549.85174  0.020061724  0.019633586           19 
 2285000    0.8833385   -7.5139346    549.01165  0.020022307  0.019627035            7 
 2286000    0.8769276   -7.4617919    548.18672  0.019983476   0.01962047           10 
 2287000   0.88508088   -7.5089578    548.36041  0.019981067  0.019613945           13 
 2288000   0.88890036   -7.4954629    548.84262  0.019989897  0.019607426           22 
 2289000   0.88570975   -7.5034251    549.11198  0.019990971  0.019600906            8 
 2290000   0.88785041   -7.4827428    551.03393  0.020052181  0.019594399            8 
 2291000   0.87066269   -7.4812206     549.2723   0.01997935   0.01958795           10 
 2292000   0.87769654   -7.4848589    549.09329  0.019964125  0.019581504            5 
 2293000   0.89513737    -7.479266    550.83387  0.020018675  0.019575013            6 
 2294000   0.87089773   -7.4573093    549.75223  0.019970657  0.019568559            4 
 2295000   0.85298188   -7.4783355    549.80607  0.019963909  0.019562051           10 
 2296000   0.89943004   -7.4658812    549.34084  0.019938329   0.01955557            5 
 2297000   0.86681449   -7.5067079    549.16906  0.019923417  0.019549102            6 
 2298000   0.88723498   -7.5210612    550.20492  0.019952311  0.019542602           12 
 2299000   0.88848927   -7.4674585    550.55747  0.019956411  0.019536134           13 
 2300000   0.88770335   -7.5008612    550.90641  0.019960377  0.019529702            7 
 2301000   0.90361886   -7.5068176    550.25311  0.019928043  0.019523244           42 
 2302000   0.88748179   -7.4965199    550.74553  0.019937212  0.019516846            8 
 2303000   0.85880269   -7.5026087     550.1681   0.01990766  0.019510374           12 
 2304000   0.88159912   -7.4741935     550.9016   0.01992555  0.019503937           12 
 2305000   0.89896979   -7.5001571    550.08182  0.019887268  0.019497493           47 
 2306000   0.88254648   -7.5403042    550.44997  0.019891947  0.019490994           19 
 2307000    0.8636534   -7.5260638    549.58324  0.019852017  0.019484408           16 
 2308000    0.8963499   -7.4982833    551.12845  0.019899208  0.019477916           42 
 2309000   0.89394441   -7.4884922    550.85877  0.019880856  0.019471427           12 
 2310000   0.88088877   -7.4968678    551.92006  0.019910536  0.019464948           14 
 2311000   0.88670383   -7.4988346    549.91284  0.019829541  0.019458424           15 
 2312000   0.88318418   -7.5017051    551.37551  0.019873685  0.019451966           15 
 2313000   0.88532842   -7.4953061    552.43285  0.019903187  0.019445523           10 
 2314000   0.88314527   -7.5025627    550.00618  0.019807195  0.019439082           14 
 2315000   0.88815588   -7.4943208    552.88732  0.019902351  0.019432617            8 
 2316000   0.87648253   -7.4597722    551.78047  0.019853932  0.019426209            8 
 2317000   0.89286776   -7.4878949    552.37835  0.019866866  0.019419803           11 
 2318000   0.86367586   -7.4546224    553.88201  0.019912353  0.019413411            5 
 2319000   0.86578505   -7.5074327    552.05135  0.019837981  0.019406971           16 
 2320000   0.88072234   -7.4954727    552.35391  0.019840298  0.019400501            4 
 2321000    0.8711747   -7.4981844    551.90489  0.019815629  0.019394038           12 
 2322000   0.86772996     -7.52248    551.45045  0.019790786  0.019387587           14 
 2323000   0.87352506   -7.5307899    551.96328  0.019800663  0.019381129           10 
 2324000   0.88774872   -7.4939985    550.61752  0.019743887  0.019374652            8 
 2325000   0.86102888    -7.499145    551.99478  0.019784759  0.019368173           12 
 2326000   0.86681612   -7.5401145    552.59383  0.019797715   0.01936166           11 
 2327000   0.86761929   -7.5132871    552.86655  0.019798974   0.01935516           10 
 2328000    0.8731256   -7.5401131     552.5302  0.019778429  0.019348658           12 
 2329000   0.87450665   -7.5365168    551.44469  0.019731097   0.01934213            5 
 2330000   0.88265292   -7.5256116     552.3501  0.019755011  0.019335599           21 
 2331000   0.89159136   -7.5504543    552.08635  0.019737107  0.019329086            6 
 2332000   0.89311046   -7.5661641    552.71046  0.019750946  0.019322621           15 
 2333000    0.8685746   -7.5395519    550.06316   0.01964792  0.019316105           10 
 2334000   0.88612192   -7.5568746    551.61232  0.019694813  0.019309637           10 
 2335000    0.8543161   -7.5298275    552.18791   0.01970692  0.019303206           16 
 2336000   0.88128926   -7.5086445    552.27146  0.019701465  0.019296777            7 
 2337000   0.88752777   -7.5381186    553.02799  0.019720011  0.019290376            8 
 2338000   0.88060928   -7.5143344    553.26757  0.019720116  0.019283966           11 
 2339000   0.86416426   -7.4892104    552.82284   0.01969584  0.019277525            6 
 2340000   0.85266932   -7.5099724    552.87842  0.019689402  0.019271114           10 
 2341000   0.89096748   -7.4895224    554.43281  0.019736324  0.019264742            7 
 2342000   0.87272424   -7.4859755    554.01044  0.019712868  0.019258405           16 
 2343000   0.88316558   -7.4921499    555.24321    0.0197483  0.019252083           10 
 2344000   0.88657813   -7.4830176    555.64003  0.019753983   0.01924573            7 
 2345000   0.89157612    -7.456212    555.47989  0.019739868  0.019239393            6 
 2346000   0.85556704   -7.4830611    554.64518  0.019701804  0.019233075           15 
 2347000   0.88072865    -7.485277    554.72802  0.019696351  0.019226734            6 
 2348000   0.89211046   -7.4942336    554.21821  0.019669868  0.019220393            8 
 2349000   0.87305985   -7.5280282    554.49433   0.01967129  0.019214053           10 
 2350000   0.88170171   -7.4853034    555.58305  0.019701527  0.019207731           20 
 2351000    0.8691354   -7.4807478     555.5174   0.01969082  0.019201435            7 
 2352000   0.87140976   -7.4938308    554.53808  0.019647749  0.019195124            4 
 2353000   0.86178948   -7.5212282    554.10982  0.019624232  0.019188811           20 
 2354000   0.86732553   -7.4874483    553.43548  0.019592024  0.019182492            8 
 2355000   0.86359389   -7.4864923    555.21586  0.019646704  0.019176192            6 
 2356000   0.87364276    -7.492738    555.33698  0.019642649   0.01916993           16 
 2357000   0.87952692   -7.4923882    556.14231  0.019662789  0.019163643            9 
 2358000   0.86275779   -7.4966105    554.19634  0.019585678  0.019157361            6 
 2359000   0.88382091   -7.4983803    556.40108  0.019655259  0.019151045           21 
 2360000   0.85814619   -7.5083356     555.5737  0.019617715  0.019144721            5 
 2361000   0.89576875   -7.5291104    554.60731  0.019575297  0.019138454            9 
 2362000   0.87099042   -7.5151914     554.6591  0.019568837    0.0191321            7 
 2363000   0.86513998    -7.508642    556.48119  0.019624813  0.019125807            7 
 2364000   0.87659048   -7.5356031    554.52088  0.019547408  0.019119539            6 
 2365000   0.84955482   -7.5248512    555.47503  0.019572764  0.019113276            8 
 2366000   0.88913923   -7.5251819    555.13936  0.019552668   0.01910699            8 
 2367000   0.86343616   -7.5263693    555.50269  0.019557199  0.019100704            7 
 2368000   0.86542102   -7.5297102    557.13201  0.019606279  0.019094372            8 
 2369000   0.86834629   -7.5646487    555.93849  0.019556018  0.019088052           15 
 2370000    0.8893893   -7.5265877    554.67219  0.019503242  0.019081715           19 
 2371000    0.8643092   -7.4663738    557.03239   0.01957797  0.019075415           11 
 2372000   0.87790709   -7.5161052    554.55877  0.019482812  0.019069155           10 
 2373000    0.8751922   -7.4653003    557.00775  0.019560604  0.019062894            8 
 2374000     0.853969   -7.5278522    557.49623  0.019569511  0.019056615           12 
 2375000   0.85660559   -7.5038694    556.93925  0.019541728  0.019050371           10 
 2376000   0.87786855   -7.5439181    556.13954  0.019505455  0.019044061           10 
 2377000     0.882661   -7.5300047    556.45259  0.019508224  0.019037755            7 
 2378000   0.87198127   -7.5142238    555.22585  0.019457032  0.019031469           16 
 2379000   0.88014425   -7.5494065    557.54716  0.019530165  0.019025154           11 
 2380000   0.87811111   -7.5176964    556.16878  0.019473697  0.019018789            8 
 2381000    0.8546475   -7.5220324    556.39213  0.019473335  0.019012454           11 
 2382000   0.87587489   -7.5267952    557.29157  0.019496626  0.019006125           13 
 2383000    0.8667324   -7.5236548     556.1705  0.019449241  0.018999809           18 
 2384000   0.85779101   -7.5418489    555.20404    0.0194073  0.018993455           12 
 2385000   0.87429349   -7.5492003    556.65962  0.019450022  0.018987119            7 
 2386000    0.8649708   -7.5421722    556.84214  0.019448245  0.018980799           12 
 2387000   0.86668331   -7.5350026    557.08281  0.019448499  0.018974502            8 
 2388000   0.87748335   -7.5344906    556.35602  0.019414992  0.018968199           10 
 2389000   0.86635767   -7.5229867    556.78084  0.019421684  0.018961884           20 
 2390000   0.86969359   -7.5007866    556.19562  0.019393153  0.018955606            6 
 2391000   0.87115609    -7.502075    556.84316   0.01940761  0.018949318           13 
 2392000   0.87856601   -7.5221628    558.63726     0.019462  0.018943042           20 
 2393000    0.8752249   -7.5318293    556.11398  0.019365997  0.018936763           20 
 2394000   0.86655207   -7.5533589    557.57249  0.019408677  0.018930468           20 
 2395000   0.86910818   -7.5341559    557.60708  0.019401777  0.018924185            9 
 2396000   0.88261367   -7.5173193    557.17046  0.019378494  0.018917868           15 
 2397000   0.87498084   -7.5546826    556.63912  0.019351937  0.018911549           13 
 2398000   0.87464652   -7.5254823     557.5649  0.019376039  0.018905263           11 
 2399000   0.87479402   -7.5285429    558.23683  0.019391303  0.018898973            6 
 2400000   0.84857407   -7.5102124    558.40508  0.019389065  0.018892686           11 
 2401000   0.85844337   -7.4958947    558.74452  0.019392771  0.018886441           19 
 2402000   0.88245293   -7.5040201    558.59205  0.019379408  0.018880204            4 
 2403000   0.89731466   -7.5408772    557.99371  0.019350593   0.01887394            6 
 2404000   0.88771331   -7.5097849    558.91221  0.019374383  0.018867667            5 
 2405000   0.87253767   -7.5392823    557.02518  0.019300942  0.018861404            3 
 2406000   0.86921426   -7.5390813    558.48958   0.01934364  0.018855084            9 
 2407000   0.85982957   -7.5442003    556.88759  0.019280141  0.018848807            8 
 2408000   0.86926478   -7.5337618    557.52849  0.019294314  0.018842537           14 
 2409000   0.88519626   -7.5064696    559.74758  0.019363068  0.018836305            5 
 2410000   0.86780792   -7.5173408    558.02167  0.019295355  0.018830078            6 
 2411000   0.85958609   -7.5093097    560.67955  0.019379219  0.018823854            5 
 2412000   0.87988788   -7.5216427    560.11277  0.019351602  0.018817643            5 
 2413000   0.85432598   -7.5399102    559.00564  0.019305348  0.018811498            5 
 2414000   0.85771914   -7.5251299     558.8389  0.019291594   0.01880535            3 
 2415000   0.86709126   -7.4894173    559.44598  0.019304554  0.018799163           12 
 2416000   0.87423972   -7.5330126    558.09627  0.019250009  0.018792966            3 
 2417000   0.84968302   -7.5257102    559.40144  0.019287045   0.01878675            8 
 2418000   0.84741277   -7.5261511    559.63798   0.01928722  0.018780494           12 
 2419000   0.85897673   -7.5346214    558.89169  0.019253537  0.018774244            9 
 2420000   0.87920786   -7.5440423    559.13811  0.019254067   0.01876805           13 
 2421000   0.86696408   -7.4916268    560.93154  0.019307846  0.018761864           10 
 2422000   0.86142847   -7.5355342    559.74448  0.019259031  0.018755633            8 
 2423000   0.86381051   -7.5250581    561.08791  0.019297287  0.018749382           20 
 2424000     0.863288    -7.550047    559.60904  0.019238485  0.018743148           10 
 2425000   0.85319909   -7.5449838    559.76261  0.019235829  0.018736884           11 
 2426000   0.84362624   -7.5762353    559.43077  0.019216501  0.018730631           14 
 2427000   0.84899029   -7.5752464    558.83568   0.01918815  0.018724374            6 
 2428000   0.87675394   -7.5564491     558.6603  0.019174228  0.018718082            7 
 2429000   0.86433323    -7.563045    558.20969  0.019150875  0.018711799           15 
 2430000   0.86567401   -7.5349408    559.57874  0.019189943  0.018705507            6 
 2431000   0.85413685   -7.5294432    559.96793   0.01919539  0.018699253           22 
 2432000   0.85728773   -7.5471893    560.13443  0.019193203  0.018693021            5 
 2433000   0.86251058   -7.5318474    560.92119  0.019212261    0.0186868           12 
 2434000   0.87703099   -7.5530302    559.17405  0.019144551  0.018680561           10 
 2435000   0.84872378   -7.5385275    559.79612  0.019157978   0.01867434           10 
 2436000   0.85538374    -7.560004    560.55913  0.019176215  0.018668133           11 
 2437000   0.88022171   -7.5435422    559.21396  0.019122349  0.018661919           15 
 2438000    0.8754023   -7.5595544    559.45793  0.019122844  0.018655711            6 
 2439000   0.88542537    -7.512725    561.80931  0.019195343  0.018649538            7 
 2440000   0.87097645   -7.5222297     560.5147  0.019143262  0.018643398            9 
 2441000   0.86411751   -7.5593887    559.79086  0.019110708  0.018637258           10 
 2442000   0.86454609   -7.5537871    559.45326  0.019091361  0.018631038            7 
 2443000   0.88381874   -7.5401723     559.2725  0.019077381  0.018624804           11 
 2444000   0.86743971   -7.5442902     561.1484  0.019133538  0.018618604           22 
 2445000   0.84489096   -7.5588398    561.06575  0.019122895  0.018612378            6 
 2446000   0.86763527   -7.5596153    559.51913  0.019062385  0.018606115            4 
 2447000   0.87623885   -7.5562486    559.62569  0.019058224  0.018599874            4 
 2448000   0.87726568   -7.5895844    560.07854  0.019065854  0.018593596            4 
 2449000   0.85574246   -7.5226915    561.45241  0.019104819  0.018587334            3 
 2450000   0.85427335   -7.5650041    560.54893   0.01906629  0.018581142            7 
 2451000   0.86353679   -7.5708755    560.78282  0.019066463  0.018574918           14 
 2452000   0.86275673   -7.5643349    560.04856  0.019033733  0.018568733            8 
 2453000   0.85429122   -7.5672607     561.0341  0.019059454  0.018562526           18 
 2454000   0.86045915   -7.5841572    559.13567   0.01898722   0.01855626           11 
 2455000   0.87630004   -7.5534335    559.19358  0.018981452  0.018550013           12 
 2456000   0.85272423   -7.5835001    559.89501  0.018997523  0.018543703           15 
 2457000   0.88177225   -7.5889217    559.32308  0.018970393  0.018537432            8 
 2458000   0.86093519   -7.5513424    560.75985  0.019011386   0.01853115           10 
 2459000   0.85565002   -7.5696575    560.51567   0.01899538  0.018524903           12 
 2460000   0.86698631   -7.5906061    560.34512  0.018981881  0.018518646           26 
 2461000    0.8485207   -7.5045908    561.84498  0.019024955  0.018512382           12 
 2462000   0.88530339   -7.5612618    560.37598  0.018967505  0.018506182            5 
 2463000    0.8414395   -7.5394537    562.19511  0.019021353  0.018499995            6 
 2464000   0.84813758   -7.5456003     561.2301  0.018980996  0.018493778            6 
 2465000   0.85711589   -7.5775768    562.22855   0.01900705  0.018487595            7 
 2466000   0.86919372   -7.5620749    561.80202  0.018984929  0.018481411           12 
 2467000   0.85594909   -7.5516658    561.98795  0.018983514  0.018475198           13 
 2468000   0.85972364   -7.5613943     561.5995  0.018962706  0.018468966            8 
 2469000   0.85500231   -7.5819889    562.46213  0.018984141  0.018462762            9 
 2470000   0.86270773   -7.5912781    561.25501  0.018935729  0.018456492           11 
 2471000   0.85691106   -7.5461874    561.43341  0.018934082   0.01845027            7 
 2472000   0.85469112   -7.5752619    561.54019  0.018930023  0.018444063            9 
 2473000   0.86201589   -7.5659269    561.59885  0.018924345  0.018437849           17 
 2474000    0.8568522   -7.5591698    563.18973  0.018970282  0.018431663           15 
 2475000   0.83724651   -7.5550276    560.74681  0.018880364  0.018425427            7 
 2476000   0.85426114   -7.5374804    562.62575  0.018935977  0.018419221           10 
 2477000   0.86197863   -7.5792988    562.14914  0.018912298  0.018413056            5 
 2478000   0.84567507   -7.5435941    562.37917  0.018912401   0.01840686            4 
 2479000   0.85625722   -7.6047754    559.75828  0.018816669  0.018400656            7 
 2480000   0.86807708   -7.6114169    561.03101  0.018851848  0.018394406            7 
 2481000   0.83838684   -7.5842361    560.75821  0.018835087  0.018388158           16 
 2482000   0.85228711   -7.5647055    560.31242  0.018812531  0.018381944            9 
 2483000   0.84631798   -7.5850712    561.55505  0.018846659  0.018375722           13 
 2484000   0.83155083   -7.5752504    562.82939  0.018881823  0.018369518           18 
 2485000   0.86238365   -7.5651377    563.58619  0.018899604  0.018363338           11 
 2486000   0.86360891   -7.5550937    562.75991  0.018864304  0.018357147            8 
 2487000   0.83486026   -7.5979939    562.12424  0.018835419  0.018350964           13 
 2488000   0.87359549   -7.5634783    563.25492   0.01886572  0.018344762            7 
 2489000   0.83396192   -7.5550728    563.44373  0.018864461  0.018338579           11 
 2490000   0.85541667   -7.5896156    562.28182  0.018817999  0.018332397            9 
 2491000   0.84474235   -7.5638576    562.50512  0.018817915  0.018326168            7 
 2492000   0.85903606   -7.5838454    561.72872  0.018784401  0.018319947            7 
 2493000   0.83152363   -7.5734932    562.06056  0.018787958  0.018313724            8 
 2494000   0.86906064   -7.6053946    561.77107  0.018770752  0.018307494           19 
 2495000   0.86949851   -7.5885894    560.92841  0.018735084  0.018301212            7 
 2496000   0.85273312   -7.6267466    561.63701  0.018751236  0.018294922           10 
 2497000   0.85861212   -7.5736447    562.64808  0.018777469  0.018288688            9 
 2498000   0.84031716   -7.5801171    562.12224   0.01875241  0.018282465            4 
 2499000   0.83947323   -7.6310336    561.12618  0.018711691  0.018276203            5 
 2500000   0.85529574   -7.5707621    562.02167  0.018734056  0.018269954            8 
 2501000   0.85702448   -7.5711519    562.53593    0.0187437  0.018263737           10 
 2502000    0.8746089    -7.589671    562.73428  0.018742815  0.018257493            6 
 2503000   0.83589691     -7.61567    562.19707  0.018717442  0.018251265           11 
 2504000   0.86217197   -7.6224049     562.2398  0.018711388  0.018244989            8 
 2505000   0.86253174   -7.6362384    560.27379  0.018638516  0.018238706            8 
 2506000   0.85605506   -7.6293769    560.36668  0.018634167  0.018232432            6 
 2507000   0.82717587   -7.5967759    562.00661  0.018681246  0.018226175           11 
 2508000   0.86342186   -7.5674993    562.99048  0.018706488  0.018219947           12 
 2509000   0.85074767   -7.5999143    562.63105  0.018687095  0.018213761           11 
 2510000   0.84157498   -7.5696561    564.21018  0.018732078  0.018207521           13 
 2511000   0.83463316   -7.6254477    560.71578  0.018608648  0.018201247            9 
 2512000   0.85374965   -7.5690188    562.64466  0.018665229  0.018194987           11 
 2513000   0.85404772   -7.5867474    563.27176  0.018678597  0.018188795            7 
 2514000   0.83255629   -7.5717366    562.96213  0.018660903  0.018182591           15 
 2515000   0.84118468   -7.5924294    562.11602  0.018625448  0.018176393            8 
 2516000    0.8468361   -7.5576851    564.04789  0.018682031  0.018170238            6 
 2517000   0.86028734   -7.5527222    564.07542   0.01867552  0.018164095           16 
 2518000    0.8304446   -7.5899325    562.87873  0.018628499  0.018157938           13 
 2519000    0.8353022   -7.5820372    562.82313  0.018619264  0.018151763           11 
 2520000   0.86406911   -7.6043557    563.59399  0.018637367  0.018145569            7 
 2521000   0.85301106   -7.6313692     561.7732  0.018569787  0.018139358           11 
 2522000    0.8630411    -7.623166    562.71515  0.018593548  0.018133141           15 
 2523000   0.84263671   -7.5863715    562.56815  0.018581324  0.018126946           12 
 2524000   0.83648298    -7.609976    563.70876  0.018611621  0.018120753           17 
 2525000   0.86723606   -7.6452786    562.64795  0.018569239  0.018114566           44 
 2526000   0.84176121   -7.6202719     563.0677  0.018575736  0.018108361           16 
 2527000   0.83536833   -7.5993382    564.95556  0.018630641   0.01810215           17 
 2528000   0.84389349   -7.6040793    562.47339  0.018541449  0.018095934            8 
 2529000   0.85521757   -7.6258874    563.74813  0.018576121  0.018089693           10 
 2530000   0.85157036   -7.6331897    561.99836  0.018511145  0.018083446           21 
 2531000   0.83868617    -7.644583     561.3671  0.018483047  0.018077186           62 
 2532000   0.85292941    -7.621342     563.8235  0.018556592  0.018070942           19 
 2533000   0.84406646   -7.5830954    563.40637  0.018535543  0.018064713           12 
 2534000   0.85140834   -7.6582106    562.31628   0.01849238  0.018058442           13 
 2535000   0.82948062   -7.6462939    563.55092  0.018525671  0.018052174            6 
 2536000    0.8721321   -7.6545749    561.94329  0.018465539  0.018045892           13 
 2537000    0.8503243   -7.6218381    563.50782  0.018509651  0.018039652            8 
 2538000   0.85478944   -7.5856173    564.46774  0.018533876  0.018033459            9 
 2539000   0.84819925   -7.6086754    563.62133  0.018498796  0.018027259           14 
 2540000   0.84817029   -7.6066023    563.52025  0.018488197  0.018021034           10 
 2541000   0.84177356    -7.578529    564.46706  0.018511972  0.018014804           16 
 2542000   0.85181191   -7.6302724    564.48842   0.01850539  0.018008559           11 
 2543000   0.86261057   -7.6151653     564.1397  0.018486686  0.018002311            9 
 2544000   0.84780512   -7.6286904    562.44649  0.018423955  0.017996068            5 
 2545000   0.85204001   -7.6149811     565.1246  0.018504407  0.017989823            9 
 2546000   0.84370584   -7.6293662    563.43871  0.018441958  0.017983616           11 
 2547000   0.84967555   -7.6300644    563.45333  0.018435196  0.017977334            5 
 2548000   0.83426649   -7.6155959    564.02535  0.018446669  0.017971065            7 
 2549000   0.83500781   -7.6085033    564.21791  0.018445728   0.01796484            8 
 2550000   0.85978411   -7.6262196    562.61599  0.018386143  0.017958601            5 
 2551000   0.87034936   -7.6163861    565.69078   0.01847938  0.017952377            7 
 2552000   0.84786077   -7.6057171    562.26205  0.018360177  0.017946134           16 
 2553000   0.84812473   -7.6041681    565.58662  0.018461503  0.017939873            7 
 2554000   0.83979575   -7.6488119     563.4676  0.018385135  0.017933625           14 
 2555000   0.83600691   -7.6173681    563.83129  0.018389801  0.017927389           19 
 2556000   0.85363358   -7.6202005    563.35694  0.018367141  0.017921156            6 
 2557000   0.81749265   -7.6329758    563.89704   0.01837756  0.017914948           19 
 2558000   0.83587117   -7.5903479    564.84634  0.018401301  0.017908751           15 
 2559000   0.83940392   -7.6507475    562.77684  0.018326717  0.017902552           26 
 2560000   0.83532481   -7.6315532    564.09127  0.018362346  0.017896314           30 
 2561000   0.82958666   -7.6016288    564.66903  0.018373976  0.017890136           15 
 2562000   0.84739363   -7.5927752    564.54817  0.018362873  0.017883972           20 
 2563000   0.83465859   -7.6163948    564.05574  0.018339698  0.017877784           30 
 2564000   0.84654964   -7.6186441    564.72758  0.018354381  0.017871653           16 
 2565000   0.85522563   -7.5900867    566.07868   0.01839112  0.017865516            8 
 2566000   0.83418383   -7.5999865    565.03175  0.018349953  0.017859362            6 
 2567000   0.84163305    -7.636821    566.09442  0.018377302  0.017853208           16 
 2568000   0.85323168   -7.6024898    566.82843  0.018393965  0.017847049            9 
 2569000   0.84112898   -7.6133868    564.88136  0.018323646  0.017840881           13 
 2570000   0.86486461   -7.6482343    564.91698  0.018317671  0.017834697           17 
 2571000   0.84152231   -7.6363977    564.04673  0.018282339  0.017828511           20 
 2572000   0.84068821   -7.6215028    566.21369  0.018345441  0.017822348           10 
 2573000   0.83225963   -7.5992115    565.63943  0.018319712  0.017816167            8 
 2574000   0.81299813   -7.6138919    566.36421   0.01833606  0.017810027           14 
 2575000   0.83414609   -7.6069321    565.09306  0.018287801  0.017803869           10 
 2576000   0.84194523   -7.6079223    566.40068  0.018323003  0.017797709           23 
 2577000   0.83449509   -7.6301474    565.66541  0.018292116  0.017791533           29 
 2578000   0.82418212   -7.6008088    566.79072  0.018321396  0.017785397           13 
 2579000    0.8399099   -7.6233257    565.32116  0.018266808  0.017779272           12 
 2580000   0.83535676   -7.6163166    565.80969  0.018275507  0.017773118           13 
 2581000   0.84394929   -7.6374783    565.37839    0.0182545  0.017766958           13 
 2582000   0.84803766   -7.6504994    566.47947  0.018282968  0.017760786           11 
 2583000   0.84269795   -7.6114832    567.51239  0.018309214  0.017754675            7 
 2584000   0.83154471   -7.6313697    566.14376   0.01825799  0.017748565           12 
 2585000   0.84425251   -7.6177392    566.01857  0.018246891  0.017742383           13 
 2586000   0.86004955     -7.64073    565.07852  0.018209542  0.017736217           12 
 2587000    0.8374558   -7.5934071    567.09302  0.018267395  0.017730104           27 
 2588000   0.84257641   -7.6261644    566.19279   0.01823135  0.017723964            4 
 2589000   0.81318261   -7.6083693    566.82109  0.018244531  0.017717835           18 
 2590000   0.82679797   -7.6250898     565.6466  0.018199697  0.017711682           11 
 2591000   0.83748316   -7.6317217    565.71757  0.018194956  0.017705527            8 
 2592000   0.82924856   -7.6401092      565.544  0.018182356  0.017699373            7 
 2593000    0.8395503   -7.6290065    565.68631  0.018179917  0.017693208           16 
 2594000    0.8403683   -7.6561297    564.14185  0.018123293  0.017687028            7 
 2595000   0.85010599   -7.6397942    565.29953  0.018153485  0.017680829            9 
 2596000   0.82651976   -7.6638522    564.76575  0.018129358  0.017674604            6 
 2597000   0.82852989   -7.6274313    565.65245  0.018150829  0.017668398           30 
 2598000   0.83568563    -7.638849    565.46227  0.018137743  0.017662231            9 
 2599000   0.82159268   -7.6169766    567.43094  0.018193887  0.017656102            6 
 2600000   0.82963716   -7.6516102    564.83192  0.018103587  0.017649953            3 
 2601000   0.83192739   -7.6185678    567.34175  0.018177039  0.017643797           10 
 2602000   0.82503296   -7.6060557    566.30914  0.018136983  0.017637642           11 
 2603000   0.83487874   -7.6297897    566.72632   0.01814337  0.017631477           20 
 2604000   0.82048183   -7.6458962    565.77459  0.018105946  0.017625311            6 
 2605000   0.82849529   -7.6265471    566.53173  0.018123216  0.017619168           11 
 2606000   0.84401856   -7.6431918    566.37822  0.018111353  0.017613039           17 
 2607000   0.82631837   -7.6593428    565.40327  0.018073241  0.017606875            5 
 2608000   0.83979822   -7.6876915    566.47506  0.018100558  0.017600709           23 
 2609000   0.84164889   -7.6326504    566.86014   0.01810592  0.017594569           29 
 2610000   0.81802384   -7.6535335     566.4964  0.018087369  0.017588421           19 
 2611000   0.81967748   -7.6220664     566.9345  0.018094424  0.017582268           14 
 2612000   0.84987056   -7.6363416    565.60921  0.018045215  0.017576095            5 
 2613000   0.83923016   -7.6405749    565.03985  0.018020151  0.017569935           12 
 2614000   0.84631335   -7.6690417     566.1154  0.018047545  0.017563757            9 
 2615000   0.82770656   -7.6398259    566.50814  0.018053159  0.017557611            9 
 2616000    0.8424263   -7.6339163    565.54024  0.018015426  0.017551477            9 
 2617000   0.81370024   -7.6451623    567.46239  0.018069749  0.017545347           10 
 2618000   0.84474859   -7.6550997    566.14804   0.01802101  0.017539199            8 
 2619000   0.84522906   -7.6231555    567.65067   0.01806194  0.017533072           10 
 2620000   0.84053832   -7.6282691     567.1406  0.018038823  0.017526944           11 
 2621000    0.8397713   -7.6573554    567.81826  0.018053487  0.017520829           12 
 2622000   0.81795459   -7.6277652    567.18962  0.018026622  0.017514743           13 
 2623000    0.8445169   -7.6514783    567.38356   0.01802591  0.017508659            8 
 2624000    0.8172941   -7.6331789    568.29103  0.018047861  0.017502579           38 
 2625000    0.8291856   -7.6360666    567.67125  0.018021309  0.017496507           17 
 2626000   0.83141922   -7.6353167    566.37966   0.01797346  0.017490486           11 
 2627000   0.83753579   -7.6448573    567.13098  0.017990451  0.017484432            7 
 2628000   0.83791978   -7.6487599    568.17484  0.018016706  0.017478381           11 
 2629000   0.81120288   -7.6644485    567.44238  0.017986636  0.017472283           11 
 2630000   0.82601556   -7.6612547    567.91433  0.017994751  0.017466163           12 
 2631000    0.8306029   -7.6477039     567.0862  0.017961681  0.017460089           15 
 2632000   0.81900559   -7.6360097    569.44067  0.018029403  0.017454033           14 
 2633000   0.82731157    -7.657016    566.89591  0.017942015  0.017447969           16 
 2634000   0.84911295   -7.6346226    567.47866   0.01795364  0.017441923           12 
 2635000   0.85197586   -7.6584473    567.14957  0.017936419  0.017435826            9 
 2636000   0.82158291   -7.6472833    567.56299  0.017942684  0.017429752            9 
 2637000   0.83615324   -7.6585581    568.25808  0.017957846  0.017423683           16 
 2638000   0.85158987   -7.6481911    567.31753  0.017921327  0.017417579           11 
 2639000   0.84227335   -7.6825915    566.61098  0.017892225  0.017411465            9 
 2640000    0.8275709   -7.6811337    566.63312  0.017886146  0.017405342           15 
 2641000   0.83286016   -7.6234841    568.50291  0.017938373  0.017399265           13 
 2642000   0.81186901   -7.6227211    569.29489  0.017956563  0.017393221           17 
 2643000   0.83026881   -7.6288746    568.54812  0.017926224  0.017387151           10 
 2644000   0.82507814   -7.6248135    568.02065  0.017902819  0.017381118            8 
 2645000    0.8323273   -7.6218584    568.83967  0.017921855  0.017375114           10 
 2646000    0.8256671   -7.6451832    568.19681  0.017894835   0.01736909           14 
 2647000   0.82212594   -7.6600592    567.52581   0.01786695  0.017363056            7 
 2648000   0.82792938   -7.6321067    570.60832   0.01795721  0.017356991           18 
 2649000   0.84284004   -7.6568561    568.84384  0.017894924  0.017350933           12 
 2650000    0.8350056   -7.6359406    567.29156  0.017839357   0.01734489            6 
 2651000   0.84973183   -7.6558771    569.07632  0.017888731  0.017338859           13 
 2652000   0.82932438   -7.6396704    567.69369   0.01783854  0.017332788           13 
 2653000    0.8495026   -7.6341204    570.43808   0.01791802  0.017326732           10 
 2654000   0.81520112   -7.6485241    567.44459  0.017817276  0.017320679           13 
 2655000    0.8172879    -7.667233    568.17183  0.017833391  0.017314613           13 
 2656000    0.8102294   -7.6550236     567.3124  0.017799711  0.017308545           13 
 2657000   0.83648265   -7.6529652    569.08777  0.017848694  0.017302473           12 
 2658000   0.82172508    -7.678642    567.37948  0.017788421  0.017296377            5 
 2659000   0.80449774   -7.6600861    566.30237  0.017747974  0.017290289           11 
 2660000    0.8366844   -7.6669579    568.01722  0.017795026  0.017284163            9 
 2661000   0.82164836   -7.6619159    567.81497  0.017782005  0.017278047           10 
 2662000   0.82701981   -7.6528092    568.98914  0.017812082  0.017271936           11 
 2663000   0.83015135   -7.6450082    569.31734  0.017815663  0.017265855           11 
 2664000    0.8268322   -7.6640658    566.90988  0.017733667  0.017259785           12 
 2665000   0.81891211   -7.6586559    568.63109  0.017780835  0.017253717           11 
 2666000   0.81558531    -7.641902    568.65401  0.017774881   0.01724766           19 
 2667000   0.82090667    -7.666689    569.54933  0.017796192  0.017241626            9 
 2668000   0.80333493   -7.6674608    568.64469  0.017761266  0.017235604           13 
 2669000   0.81586923   -7.6757369    568.06468  0.017736502  0.017229563            7 
 2670000   0.82237938   -7.6507568    568.82909  0.017753717  0.017223545           25 
 2671000   0.81993112   -7.6446721    568.95277  0.017750929  0.017217531           22 
 2672000   0.82830863   -7.6776027    568.82387  0.017740266  0.017211499           14 
 2673000   0.82857922   -7.6795984    568.02493  0.017708721   0.01720544           17 
 2674000   0.81679568   -7.6609004    568.92704  0.017730212  0.017199393           11 
 2675000    0.8062191    -7.653558    569.88202  0.017753334  0.017193362            7 
 2676000   0.83011843   -7.6516768    567.28597  0.017665856  0.017187325            6 
 2677000   0.81649485   -7.6748585    568.34142  0.017692112  0.017181302           10 
 2678000   0.82122039   -7.6544145     568.6077  0.017693792  0.017175273           19 
 2679000   0.80736769   -7.6348465    569.39869  0.017711792   0.01716925           11 
 2680000   0.81764629   -7.6541746    568.49634  0.017677125  0.017163237            9 
 2681000   0.82260939   -7.6455593    569.04734  0.017687658   0.01715722           11 
 2682000   0.82967282   -7.6873146    568.61025  0.017667482  0.017151178           15 
 2683000   0.83778087   -7.6504427    569.15179  0.017677717  0.017145137           12 
 2684000   0.84412777    -7.700278    567.71438  0.017626502  0.017139107            7 
 2685000   0.83763643   -7.7020261    568.01471  0.017629259  0.017133047            6 
 2686000   0.82949112   -7.6654501    569.30692  0.017662786  0.017126979           15 
 2687000   0.82949539   -7.6912039    568.32917  0.017625889  0.017120927           26 
 2688000   0.81390432    -7.666195    568.33832  0.017619616  0.017114846           13 
 2689000   0.81584921   -7.6787532    569.03707  0.017634718  0.017108771            5 
 2690000   0.80348572   -7.6925426     567.9667  0.017595003  0.017102652           15 
 2691000   0.82844587   -7.7110284     566.0159  0.017528053  0.017096523           17 
 2692000   0.83790434   -7.7428128    566.73797  0.017543895  0.017090381           13 
 2693000   0.80834831   -7.7057728    568.06777   0.01757853  0.017084266           12 
 2694000    0.8209399   -7.7233986    566.80594  0.017532973  0.017078134           20 
 2695000   0.80700895   -7.6760216    568.50378  0.017578966  0.017071984           11 
 2696000    0.8010754   -7.6692845    567.81733  0.017551228  0.017065892            7 
 2697000   0.82404799   -7.6854654    567.89774  0.017547205  0.017059823           12 
 2698000   0.82027857   -7.7134854    567.51379  0.017528842  0.017053736           20 
 2699000   0.81468042   -7.6703837    569.85011  0.017594483   0.01704767           25 
 2700000   0.82225425   -7.7007417    568.20066  0.017537058  0.017041573           18 
 2701000   0.82588286   -7.7056855    568.10346  0.017527566  0.017035495           17 
 2702000   0.81411102   -7.6988791     569.1058  0.017551992  0.017029389           29 
 2703000   0.80931838   -7.6830048    569.29395  0.017551299  0.017023309           13 
 2704000   0.82451291   -7.7066258    568.86323  0.017531534  0.017017216           19 
 2705000   0.83758835   -7.6837966     568.1092  0.017501824  0.017011133           17 
 2706000   0.83088752   -7.7037768    568.42913  0.017505209  0.017005053           40 
 2707000   0.82905305   -7.6964006    569.10102  0.017519426  0.016998949           25 
 2708000   0.80859174   -7.6516097    569.73004  0.017532313  0.016992874           18 
 2709000   0.82236687   -7.6732269    567.11052   0.01744526  0.016986813           14 
 2710000   0.81845709   -7.6540066    568.15621  0.017470978  0.016980766           12 
 2711000   0.82006248   -7.6711103    569.02764  0.017491321  0.016974706           11 
 2712000   0.82028883   -7.7083057    568.75129  0.017476379  0.016968621           17 
 2713000   0.85137326   -7.7017607    567.96157   0.01744568  0.016962517            6 
 2714000   0.80063978   -7.6809358     568.3245  0.017450396  0.016956429            5 
 2715000   0.80630704   -7.7091672    568.60007  0.017452427  0.016950331           19 
 2716000   0.82496289   -7.6780236    570.47983  0.017503677  0.016944237           12 
 2717000    0.8337457   -7.6888279     567.9154  0.017418581  0.016938173           17 
 2718000   0.80739624    -7.694514    569.77428  0.017469165  0.016932081           29 
 2719000    0.8196965   -7.7183034    569.01867  0.017439582  0.016925989           29 
 2720000   0.80817683   -7.6968887    569.29045  0.017441497  0.016919898           25 
 2721000   0.82322106   -7.6884728    569.14527   0.01743064  0.016913829           23 
 2722000   0.81794333   -7.7013267    568.87959  0.017416103   0.01690775           30 
 2723000   0.81535165   -7.7115156    568.55819  0.017399871  0.016901641           18 
 2724000   0.83568814   -7.7205796    567.39511  0.017357902  0.016895518           17 
 2725000    0.8396977   -7.7088094    568.91556  0.017398029   0.01688941           21 
 2726000    0.8181003    -7.710427    567.70852  0.017354748  0.016883313           25 
 2727000   0.81678432   -7.6978067    569.12119  0.017391553  0.016877227           16 
 2728000   0.83875978   -7.7185844    569.23516   0.01738866  0.016871138           27 
 2729000   0.82381982   -7.7264381    568.86428  0.017370962  0.016865065           16 
 2730000   0.81238196   -7.7404488    569.14425  0.017373146  0.016858959           13 
 2731000   0.84318696   -7.7332893      567.519  0.017317191   0.01685284           24 
 2732000   0.80068011   -7.7402374    568.88355  0.017352475  0.016846719           16 
 2733000    0.8110826   -7.7334119    567.21573  0.017295272  0.016840623           37 
 2734000   0.79721684   -7.7121677    569.10456  0.017346518  0.016834517           27 
 2735000   0.82444355   -7.7005324    570.26676  0.017375587  0.016828472           13 
 2736000   0.81056141   -7.6912253    569.33364  0.017340815  0.016822456           16 
 2737000   0.81773755   -7.6933605    569.58863  0.017342243  0.016816407           19 
 2738000   0.81740512   -7.6797466    570.52121  0.017364293  0.016810385           16 
 2739000   0.80191894   -7.6948228    569.25168  0.017319328  0.016804386           20 
 2740000   0.82987325   -7.6896564    570.85474  0.017361762  0.016798376            9 
 2741000   0.81892487   -7.7105144    570.53285  0.017345642  0.016792366           20 
 2742000   0.80940256   -7.6706134    570.79667  0.017347334  0.016786366           13 
 2743000   0.81245991   -7.6687011    570.55225  0.017333584  0.016780353           23 
 2744000   0.81420846   -7.7334269    569.57511  0.017297592  0.016774319           31 
 2745000   0.81279667   -7.7079719    568.83686  0.017268879  0.016768273           16 
 2746000   0.80350366   -7.7124975    570.01409  0.017298315  0.016762209           37 
 2747000   0.81463294   -7.7185359    567.70621  0.017222006  0.016756146           44 
 2748000   0.81933729   -7.7091561    569.09912  0.017257979  0.016750053           23 
 2749000   0.80829485   -7.7153843    570.87251   0.01730546  0.016743986           29 
 2750000   0.81048192   -7.7430887    568.20078  0.017218205   0.01673791           63 
 2751000   0.81878637   -7.7198067    569.63886  0.017255509  0.016731862           61 
 2752000   0.81902091   -7.7242547    569.80762  0.017254349  0.016725847           34 
 2753000   0.80533006   -7.7440693    569.96825  0.017252944  0.016719827           24 
 2754000   0.81098141   -7.7135855    569.56256  0.017234403  0.016713791            7 
 2755000   0.81409531   -7.7335751    567.81836  0.017175389  0.016707741           10 
 2756000   0.82399429   -7.7354681    569.80551  0.017229243  0.016701687           12 
 2757000   0.81974628   -7.7099278    569.97015   0.01722797  0.016695648            8 
 2758000   0.81287513    -7.704669    570.19138  0.017228408  0.016689629            6 
 2759000   0.79149453   -7.7273103    569.37143  0.017197397  0.016683632           13 
 2760000   0.81249048   -7.7104894    570.04849  0.017211609  0.016677633           15 
 2761000   0.80733674   -7.7200966    569.33153  0.017183736  0.016671654           17 
 2762000   0.81413713   -7.7328148    568.80816  0.017161723   0.01666565           15 
 2763000   0.82284438   -7.7093064    570.92459  0.017219345  0.016659652           13 
 2764000   0.81139411   -7.6959052    570.45613  0.017198991  0.016653671            8 
 2765000   0.81586137   -7.7248895    569.60991  0.017167267  0.016647688            9 
 2766000   0.81190041   -7.7181158    570.03404  0.017173838  0.016641686           10 
 2767000   0.81505667   -7.7007717    571.34193  0.017207021  0.016635722            9 
 2768000    0.8116663    -7.699809    571.27104  0.017198671  0.016629762            9 
 2769000   0.80809703   -7.6888635    570.23307  0.017161222  0.016623794           15 
 2770000   0.80021404   -7.7079781    570.81431  0.017172512  0.016617814           22 
 2771000   0.81480388   -7.7248585    569.57768  0.017129126   0.01661182           14 
 2772000   0.78760888   -7.7080585    569.71835  0.017127175  0.016605866            7 
 2773000   0.79823024   -7.7234542    571.52974  0.017175434  0.016599878            5 
 2774000   0.79766468   -7.7537596    569.42062  0.017105882  0.016593879           20 
 2775000   0.80579723   -7.7528147     569.5542   0.01710373  0.016587882           10 
 2776000   0.80031128   -7.7685603    569.95745  0.017109674  0.016581898           15 
 2777000   0.81698312   -7.7351512    572.08824  0.017167454  0.016575912           10 
 2778000   0.79540099   -7.7295908    571.89426  0.017155455  0.016569937           18 
 2779000   0.80331317   -7.7154175    570.50223   0.01710754  0.016563987           10 
 2780000   0.81237337   -7.7353646    569.52864  0.017072201  0.016558043           21 
 2781000   0.80039217   -7.7528625    570.22423  0.017086906  0.016552071           16 
 2782000   0.80075279   -7.7181823    570.17867  0.017079399  0.016546097           19 
 2783000   0.81861932   -7.7703445    571.46834   0.01711188  0.016540161           25 
 2784000    0.8079035   -7.7387689    569.58218  0.017049275  0.016534195           17 
 2785000   0.79564897   -7.7546776    571.03191  0.017086532  0.016528246           20 
 2786000   0.81744844   -7.7434123    570.60374  0.017067592  0.016522317           24 
 2787000   0.82358673   -7.7660877    569.54068  0.017029682  0.016516358           23 
 2788000    0.8129367   -7.7301121    571.51334  0.017082537  0.016510411           13 
 2789000   0.79132739   -7.7397445    570.51829   0.01704668  0.016504489           31 
 2790000   0.78714339   -7.7380979    571.44053  0.017068116  0.016498537           20 
 2791000   0.82102701   -7.7468969    570.55986  0.017035706  0.016492604           25 
 2792000   0.80405893    -7.763898    570.28349  0.017021355  0.016486675           17 
 2793000   0.79926809   -7.7726706    570.80374  0.017030784  0.016480721           32 
 2794000   0.80934234   -7.7589074    570.81676  0.017025076  0.016474805            8 
 2795000   0.80071348   -7.7527147     571.0462  0.017025826  0.016468885            8 
 2796000   0.81090348   -7.7486982    572.32623  0.017057887  0.016462929            6 
 2797000   0.80663363   -7.7266133     571.7889  0.017035779  0.016457015           16 
 2798000   0.79829391   -7.7697631    569.43768  0.016959664  0.016451083           25 
 2799000   0.81183366    -7.765323    571.19828  0.017006022  0.016445116           23 
 2800000   0.80218272   -7.7305489    570.62034  0.016982748  0.016439178           13 
 2801000    0.7998294   -7.7681199    571.72565  0.017009569  0.016433252           18 
 2802000   0.80896721   -7.7504521    571.21362  0.016988271  0.016427343           14 
 2803000   0.79644069   -7.7752603    570.87637  0.016972184  0.016421368           13 
 2804000   0.78601358   -7.7518685    571.05239  0.016971362  0.016415404           15 
 2805000   0.80492769   -7.7869004    569.98987  0.016933745  0.016409438           18 
 2806000   0.78564974   -7.7557197    571.50918  0.016972831  0.016403465           12 
 2807000   0.79756993   -7.7350596    571.50306  0.016966603  0.016397518           20 
 2808000   0.80034933   -7.7389392    571.43592  0.016958568  0.016391592           23 
 2809000   0.80248961   -7.7423453    571.85271  0.016964896  0.016385671           10 
 2810000   0.79055578   -7.7607806    570.53281  0.016919716  0.016379728            8 
 2811000    0.8021875   -7.7154143    572.33713  0.016967186  0.016373804           18 
 2812000   0.79376747   -7.7244098    571.44466  0.016934704  0.016367898            7 
 2813000   0.80531659   -7.7626809    569.85419  0.016881567  0.016361968           26 
 2814000   0.81261113   -7.7130522    572.56572  0.016955867  0.016356064            9 
 2815000   0.80022521   -7.7573224    572.17333  0.016938228  0.016350154            9 
 2816000   0.79887231   -7.7450315    571.08848  0.016900109  0.016344243           22 
 2817000   0.79134471   -7.7303812    571.11363  0.016894854  0.016338329           10 
 2818000   0.81148578   -7.7661304    569.81532  0.016850465  0.016332417           21 
 2819000   0.81738318   -7.7699447    570.40933  0.016862047  0.016326489           14 
 2820000   0.79143401   -7.7307366    570.46275  0.016857646  0.016320573           12 
 2821000   0.79811345    -7.727515    571.48952  0.016882002  0.016314667           21 
 2822000   0.80156616   -7.7738184    571.34119  0.016871639  0.016308741           17 
 2823000   0.80423817   -7.7520484    572.99661   0.01691453   0.01630282           11 
 2824000   0.80547622   -7.7480752    572.24352  0.016886317   0.01629692            7 
 2825000   0.80071673   -7.7564673    572.10479  0.016876247  0.016291003           16 
 2826000   0.81120644   -7.8186098    570.42426   0.01682072   0.01628506           10 
 2827000   0.79172442    -7.774481    570.53673  0.016818085  0.016279111           11 
 2828000   0.79445178   -7.7576099    570.07942  0.016798663  0.016273197            8 
 2829000   0.79153173    -7.761336    570.47436  0.016804359  0.016267275           14 
 2830000   0.79867394   -7.7714244    571.47131  0.016827777   0.01626135           10 
 2831000   0.80745567   -7.7635449    571.83106  0.016832423  0.016255448            9 
 2832000   0.81618749   -7.7580344    572.46431  0.016845113  0.016249541           12 
 2833000   0.80398179   -7.7211127    572.42411  0.016837984  0.016243651           10 
 2834000   0.80132354   -7.7707958    571.01301   0.01679055  0.016237762           29 
 2835000   0.79735892   -7.7608517    571.06794  0.016786242  0.016231882           19 
 2836000   0.81001708   -7.7828006    570.72361  0.016770205  0.016225982           10 
 2837000   0.80749613   -7.7942952    570.88753  0.016769109  0.016220071           14 
 2838000   0.79166596   -7.7826528    571.55272  0.016782732  0.016214169            8 
 2839000   0.80384235   -7.7819156    570.37633   0.01674229  0.016208277           22 
 2840000   0.78971981   -7.7850352    570.18549  0.016730795  0.016202363           37 
 2841000   0.79522846    -7.802175     571.0272  0.016749595  0.016196441           13 
 2842000   0.80097107   -7.8161198    571.08483  0.016745392  0.016190538           19 
 2843000   0.78057186   -7.7743654    570.60322  0.016725385  0.016184612            8 
 2844000     0.806665   -7.7944479    570.84445  0.016726572  0.016178712           15 
 2845000   0.78255158   -7.7979936    571.24072    0.0167323  0.016172849            9 
 2846000   0.80155335   -7.7597682    572.21539   0.01675496  0.016166968            8 
 2847000   0.77960292   -7.8051615    572.35057  0.016753032  0.016161094           13 
 2848000    0.7960066   -7.7777995    571.99423  0.016736723  0.016155211           18 
 2849000    0.7869893   -7.7648549    572.50008  0.016745644  0.016149344           19 
 2850000    0.8055143   -7.7601584    573.44848  0.016767499  0.016143473           16 
 2851000   0.81416921   -7.7442465    572.72305  0.016740414   0.01613761           12 
 2852000   0.79265386   -7.7608903    571.86924  0.016709597  0.016131761           14 
 2853000   0.80109274    -7.756967    574.17927  0.016771214  0.016125912           16 
 2854000   0.77263462   -7.7407463    571.79188  0.016695628  0.016120036           10 
 2855000   0.81227439   -7.7714681    572.03612  0.016696909  0.016114188           10 
 2856000   0.80026684   -7.7698201    571.98068  0.016689446   0.01610835           11 
 2857000   0.78621744   -7.7894724    571.68661  0.016675027  0.016102503            9 
 2858000    0.8143062   -7.7634557    572.12778  0.016682056   0.01609662           13 
 2859000   0.79799621   -7.7534522    572.20713  0.016678534  0.016090767            9 
 2860000   0.80939918   -7.7993605    571.41032  0.016649485  0.016084883           15 
 2861000   0.81446223   -7.8119674    573.16899  0.016694891  0.016078971           10 
 2862000   0.79935042   -7.7919446    570.22801  0.016603425  0.016073074           12 
 2863000   0.79397072   -7.8131403    570.72788  0.016612175  0.016067166            8 
 2864000   0.79180154    -7.821446    572.11467  0.016646726  0.016061259           13 
 2865000   0.79923973   -7.8132249    570.08813   0.01658197  0.016055335           13 
 2866000   0.80656256   -7.7947706    571.02278  0.016603361  0.016049438            6 
 2867000   0.79967393   -7.7916876    572.27911  0.016634086  0.016043543            7 
 2868000   0.80987635   -7.8341773    571.09706  0.016593941  0.016037651           23 
 2869000   0.79029782   -7.7958496    571.30903  0.016594314  0.016031768           17 
 2870000   0.79143073   -7.8090524    570.60467   0.01656808   0.01602589           30 
 2871000   0.81460059   -7.8099395    571.43818  0.016586502  0.016020016           10 
 2872000   0.79108872   -7.7868993    572.23019  0.016603708  0.016014128           18 
 2873000   0.77758354   -7.8591264    571.29654  0.016570848  0.016008236           23 
 2874000   0.79218854   -7.8244489    571.00502  0.016556629  0.016002322           13 
 2875000   0.77194573   -7.8118727    571.23475  0.016557529  0.015996421           14 
 2876000   0.80942901   -7.8030141    571.76039  0.016567002  0.015990538           16 
 2877000   0.80506571   -7.7883349    573.05188  0.016598653  0.015984662           11 
 2878000   0.79325105   -7.8120932    571.37822  0.016544424  0.015978768           18 
 2879000   0.80195326   -7.8219619    569.62481  0.016487924  0.015972861           28 
 2880000   0.78760302    -7.800879    572.16739  0.016555769  0.015966986           37 
 2881000   0.78669081    -7.816718    571.64617  0.016534946  0.015961095           26 
 2882000   0.78957282   -7.8111903    572.19383  0.016545045  0.015955198           25 
 2883000   0.77969221   -7.8363541    570.81604  0.016499481  0.015949284           26 
 2884000   0.78838731   -7.8332048     570.9917  0.016498835  0.015943375           29 
 2885000    0.8001598   -7.8300335    570.91774   0.01649098  0.015937466           17 
 2886000   0.78733157   -7.8135716    570.35069  0.016468893   0.01593156           27 
 2887000    0.8003729   -7.8297738    571.80086  0.016505047  0.015925668           29 
 2888000   0.80062151   -7.8521022    569.65771  0.016437492  0.015919746           45 
 2889000   0.76834785    -7.842333    571.62613  0.016488581  0.015913813           29 
 2890000   0.80515165   -7.8207937    570.64228  0.016454506  0.015907898           22 
 2891000   0.79700517   -7.8279131    570.69387  0.016450302   0.01590198           24 
 2892000   0.80212973   -7.8021272     571.8834   0.01647889  0.015896091           31 
 2893000   0.78601471   -7.8155319    571.97825  0.016475926  0.015890208           13 
 2894000   0.78616873   -7.8553095    570.68339  0.016432947  0.015884312           23 
 2895000   0.77906294   -7.8265762    570.83767  0.016431712  0.015878435           25 
 2896000   0.79617071   -7.8457387    570.12412  0.016405505  0.015872549           20 
 2897000   0.80139066   -7.8265238    572.11014  0.016456971  0.015866665           17 
 2898000   0.79597964   -7.8352357    571.35747  0.016429649  0.015860787           21 
 2899000   0.78161004   -7.8411017     570.6484  0.016403599   0.01585492           24 
 2900000   0.80205409    -7.808922    570.89149  0.016404928  0.015849051           20 
 2901000   0.77942278   -7.8515746    571.09182  0.016405028  0.015843182           21 
 2902000   0.78303677   -7.8421798    572.19337  0.016431006  0.015837311           54 
 2903000   0.78739039   -7.8359855    572.13688  0.016423725  0.015831416           23 
 2904000   0.79448423   -7.8289056    572.77962  0.016436513  0.015825534           18 
 2905000   0.78381961   -7.8294167    570.94837  0.016378324  0.015819651           24 
 2906000   0.77877944   -7.8095791    572.00324  0.016402938  0.015813795           18 
 2907000   0.79007226   -7.7925209    571.54905  0.016384275  0.015807928           13 
 2908000   0.78959769   -7.8621985    570.08493  0.016336684  0.015802038           32 
 2909000   0.79971796   -7.8315365    569.61369  0.016317569   0.01579614           14 
 2910000   0.78054085   -7.8478888    571.05997  0.016353378  0.015790241           18 
 2911000    0.7844151   -7.8553438     570.7368  0.016338509  0.015784345           20 
 2912000   0.80160022   -7.8504175    570.14346  0.016315919  0.015778444           14 
 2913000   0.78752106   -7.8395703    570.78339  0.016328624  0.015772549           16 
 2914000   0.79205542   -7.8369792    573.09196   0.01638904  0.015766672           12 
 2915000    0.7768641    -7.825324    571.81166  0.016346817  0.015760835           20 
 2916000   0.78743506   -7.8463501    572.45686   0.01635965  0.015755002            9 
 2917000   0.77927973   -7.8504975    571.58226  0.016329055  0.015749154           46 
 2918000    0.8106066   -7.8769967     570.2267  0.016284747  0.015743294           30 
 2919000   0.77327375   -7.8663844    570.92008  0.016298963  0.015737445           39 
 2920000   0.79280502   -7.8582518    571.15473  0.016300078  0.015731581           15 
 2921000   0.78400182   -7.8383556    572.25902  0.016326002  0.015725723           19 
 2922000   0.77687007   -7.8215732      571.027  0.016285278  0.015719887           25 
 2923000   0.78302687   -7.8517796     572.0387   0.01630855  0.015714066           22 
 2924000   0.76777232   -7.8396638    571.34501  0.016283202  0.015708237           24 
 2925000   0.78709384   -7.8600914    571.07421   0.01626992  0.015702399           10 
 2926000   0.80241597   -7.8645158    572.23178  0.016297328  0.015696557           12 
 2927000   0.78943634    -7.847303    571.91151  0.016282642  0.015690748           16 
 2928000   0.78408148   -7.8575465     572.4559  0.016292575  0.015684919           22 
 2929000   0.78902701   -7.8597699    571.06438  0.016247422  0.015679092           14 
 2930000   0.77766737   -7.8530576    571.30706  0.016248779  0.015673263           23 
 2931000   0.78172407   -7.8747491    572.03103  0.016263819  0.015667437           36 
 2932000   0.76687144   -7.8154665    573.11014  0.016288942  0.015661615           25 
 2933000   0.78752772   -7.8552795    572.27732  0.016259726  0.015655796           14 
 2934000   0.78734638    -7.849225    571.69579  0.016237667  0.015649967           22 
 2935000    0.7668949   -7.8798038    571.65415  0.016230953  0.015644151           25 
 2936000   0.79188999   -7.8470002    571.58845  0.016223559  0.015638308           17 
 2937000   0.78949844   -7.8459868    571.60782  0.016218585   0.01563246           21 
 2938000   0.79090505   -7.8468907    570.05971  0.016169155  0.015626655           21 
 2939000   0.77799147   -7.8450359    571.98339  0.016218198  0.015620828           15 
 2940000   0.76666221   -7.8255595    571.41695  0.016196625  0.015615014           15 
 2941000   0.77543217   -7.8466191    573.34785  0.016245831  0.015609182           18 
 2942000   0.77678218   -7.8419788    571.06501  0.016175646  0.015603343           25 
 2943000   0.78021873   -7.8314019    570.26986  0.016147634  0.015597522           29 
 2944000   0.77738977   -7.8666077    570.28285  0.016142517  0.015591688           24 
 2945000   0.78192307    -7.885274    570.53417  0.016144147  0.015585846           26 
 2946000   0.78888766   -7.8131138    572.43346  0.016192393  0.015579999           18 
 2947000   0.78550542   -7.8630401    572.34756  0.016184469  0.015574172           18 
 2948000   0.78604312   -7.8817672    570.19578  0.016118153  0.015568336           27 
 2949000     0.793097   -7.8562101    571.65193  0.016153835  0.015562513           20 
 2950000   0.78314965   -7.8653958    571.47025  0.016143228  0.015556711           20 
 2951000   0.78576466   -7.8473469    572.00966  0.016152989  0.015550883           13 
 2952000   0.79260726   -7.8563182    570.82128   0.01611397  0.015545074           18 
 2953000   0.78734254   -7.8669928    571.07405  0.016115647  0.015539247           35 
 2954000   0.78370743   -7.8422368    570.72527  0.016100352  0.015533432           32 
 2955000   0.77353144   -7.8547691    571.37618  0.016113259  0.015527598           24 
 2956000   0.76969616   -7.8705639    570.80414  0.016091682  0.015521786            8 
 2957000   0.78242457   -7.8680752    570.50384  0.016077777  0.015515967           15 
 2958000   0.77316032   -7.8954929    571.39176  0.016097356   0.01551013           28 
 2959000   0.77332182    -7.848657    572.14538   0.01611314  0.015504304           16 
 2960000    0.8033998   -7.8564739    572.13684  0.016107456   0.01549849           14 
 2961000   0.77327343   -7.8824167    571.40851  0.016081518  0.015492651           19 
 2962000   0.75590887   -7.9033594    570.78338  0.016058502  0.015486809           19 
 2963000   0.75806122   -7.8701289    571.45388  0.016071939   0.01548097           20 
 2964000   0.78778567    -7.874208    572.05746  0.016083487  0.015475152           23 
 2965000   0.76964104   -7.8666234    569.29999  0.016000562  0.015469335           17 
 2966000   0.75192698   -7.8970283    569.95345  0.016013527  0.015463521           16 
 2967000   0.77258942   -7.8444722    571.71977   0.01605774  0.015457707           28 
 2968000   0.74988619   -7.8665629      571.287  0.016040179  0.015451907           28 
 2969000   0.77460386   -7.8668262     572.4835  0.016068359  0.015446124           27 
 2970000   0.78377976   -7.8898256    571.25714  0.016028539  0.015440306           29 
 2971000   0.76319417   -7.8860268    571.44138  0.016028312  0.015434515           17 
 2972000   0.78464585   -7.8800917    570.30976  0.015991189  0.015428713           30 
 2973000   0.77826495   -7.9084535    570.70313  0.015996836  0.015422916           19 
 2974000   0.78277394   -7.8712176    570.36609  0.015982013  0.015417116           14 
 2975000   0.77574096   -7.8798241    571.56746  0.016010293  0.015411332           43 
 2976000   0.76993332   -7.8830568    571.69099  0.016008372   0.01540555           31 
 2977000     0.801814   -7.8377088    573.69234  0.016059018  0.015399783           36 
 2978000    0.7895726   -7.8423185    572.15613  0.016010637  0.015394039           26 
 2979000   0.76803492   -7.8930332    570.82362  0.015967988   0.01538827           15 
 2980000   0.76401094   -7.8916994    571.82205   0.01599055  0.015382478           38 
 2981000   0.78201171    -7.848264    570.89943  0.015959394  0.015376701           28 
 2982000   0.77022915   -7.8760585    571.68237  0.015975921  0.015370928           37 
 2983000   0.77774221    -7.825932    571.89304  0.015976451  0.015365149           15 
 2984000   0.76903915    -7.868921    572.43252  0.015986163  0.015359398           15 
 2985000   0.77223731   -7.8563625    570.33012  0.015922114  0.015353637           34 
 2986000   0.77578439     -7.87401    573.30557  0.015999821  0.015347887           33 
 2987000   0.77729036   -7.8740766    571.38947  0.015941007  0.015342112           21 
 2988000   0.78120471   -7.8526433    570.91184  0.015922352  0.015336365           51 
 2989000   0.77392071   -7.8684122    572.76606   0.01596872    0.0153306           33 
 2990000   0.79510908   -7.8567746    571.89552  0.015939117   0.01532484           48 
 2991000   0.77544595   -7.8589715    571.29874  0.015917161  0.015319094           21 
 2992000   0.77172551   -7.8621971    571.21107  0.015909399  0.015313347           23 
 2993000   0.78294298     -7.88625    571.78266  0.015919998  0.015307576           40 
 2994000   0.79212845   -7.9156248    571.65561  0.015911145   0.01530181           35 
 2995000   0.77009904   -7.8540194    572.72684  0.015935638  0.015296069           25 
 2996000   0.77242652   -7.8975429    571.23668  0.015888871  0.015290293           16 
 2997000    0.7565591     -7.85071    571.12255  0.015880396  0.015284524           38 
 2998000   0.76265865   -7.8835868    570.96269  0.015870655  0.015278773           39 
 2999000    0.7770512   -7.8898215    571.85284  0.015890098  0.015273022           50 
 3000000   0.79051438   -7.8536328    572.30817  0.015897449  0.015267269           43 
 3001000   0.77167124   -7.8665663    572.11724   0.01588685  0.015261545           37 
 3002000   0.77957862   -7.8626198     571.7388  0.015871053  0.015255795           56 
 3003000   0.78079129    -7.877172    571.61669  0.015862379  0.015250074           40 
 3004000   0.79303013   -7.8889331    572.03038  0.015868575  0.015244324           48 
 3005000   0.77884899   -7.8957218    570.85988  0.015830834  0.015238574           79 
 3006000   0.76189138     -7.88302    569.94815  0.015800292  0.015232808           71 
 3007000    0.7926173   -7.8840816    570.36783  0.015806669  0.015227035           71 
 3008000   0.75407731   -7.8881838    571.24339   0.01582567  0.015221261           48 
 3009000   0.77006616    -7.878566    570.60616  0.015802763  0.015215487           29 
 3010000    0.7525603   -7.9079114    570.99305  0.015808224  0.015209718           62 
 3011000   0.78943907   -7.9053065    570.65406  0.015793592  0.015203956           65 
 3012000   0.77084184   -7.9041343    570.87077  0.015794344  0.015198195           56 
 3013000   0.77975757    -7.881892    571.47723  0.015805875  0.015192443           65 
 3014000   0.77989763   -7.9038081    570.59166  0.015776146   0.01518671           47 
 3015000   0.75824631    -7.882514    571.42795  0.015794028  0.015180988           49 
 3016000   0.77255581   -7.8764155    570.97208  0.015776196  0.015175246           86 
 3017000   0.77133058   -7.9211935    571.55367  0.015787031  0.015169502           77 
 3018000   0.76894029   -7.8682137    570.94403  0.015764967  0.015163785           64 
 3019000   0.78058938   -7.8660038    572.46191  0.015801643  0.015158075           70 
 3020000   0.76637011   -7.8574766     573.1643  0.015815792  0.015152381           56 
 3021000    0.7754284   -7.8772257    570.97522  0.015750172  0.015146692           85 
 3022000   0.76851271   -7.8937386    572.08248  0.015775493   0.01514098           39 
 3023000   0.76678981   -7.8705424    573.27732  0.015803212  0.015135276           59 
 3024000   0.76738233   -7.8521923    572.96052  0.015789256  0.015129569           46 
 3025000   0.77743786   -7.8916825    571.43741  0.015742077  0.015123874           65 
 3026000   0.75663459   -7.9003573    570.74181  0.015717719  0.015118166           43 
 3027000   0.77253004   -7.9168719     570.5153  0.015706291   0.01511245           31 
 3028000   0.75862927   -7.9406568    570.70597  0.015706351  0.015106716           74 
 3029000   0.77488631   -7.8937319    571.79144  0.015731029   0.01510098           25 
 3030000   0.75574184   -7.9343209    569.65165  0.015666987  0.015095253           35 
 3031000    0.7694877   -7.9104141    572.23216  0.015732766   0.01508953           37 
 3032000   0.76862905    -7.894448    571.33106   0.01570281  0.015083825           53 
 3033000   0.75628868     -7.89303     572.2459  0.015722769    0.0150781           45 
 3034000   0.77095169   -7.9054699    570.83244  0.015678764  0.015072389           62 
 3035000   0.76802137   -7.9063546    571.45447  0.015690677  0.015066675           55 
 3036000   0.76721474   -7.9201279    569.87328  0.015642108  0.015060942           98 
 3037000   0.76797115   -7.9029234    572.11193  0.015698385  0.015055211           84 
 3038000   0.78039734    -7.893423     570.5942  0.015651585   0.01504951           65 
 3039000   0.76926415   -7.9274594    571.22075  0.015663616  0.015043814           53 
 3040000   0.75079746   -7.9208731    571.13836  0.015656205  0.015038123           70 
 3041000   0.76759052   -7.9160199    570.84593  0.015643043  0.015032419           71 
 3042000   0.74959639   -7.9009715    570.99005  0.015641849  0.015026705           79 
 3043000   0.75306692   -7.9165995     571.1431    0.0156409  0.015021008           69 
 3044000   0.77148317   -7.9010105    572.09987  0.015661954  0.015015316           84 
 3045000   0.76715846    -7.878896    572.11445   0.01565721   0.01500961           39 
 3046000   0.75237386   -7.9097799     571.1552  0.015625826  0.015003912           51 
 3047000   0.76069865   -7.8884003     572.1179  0.015647027   0.01499824           63 
 3048000   0.76514932   -7.9113973    571.79216  0.015632988  0.014992574           39 
 3049000   0.75598671   -7.9016328    571.75254  0.015626778  0.014986888           61 
 3050000   0.77029367   -7.9160401    571.53854  0.015615807  0.014981184           77 
 3051000   0.77132388   -7.9090423    571.77334  0.015617102  0.014975505          124 
 3052000     0.774035   -7.9273082    571.07256   0.01559285  0.014969806          116 
 3053000   0.77915416   -7.9282787    571.37837  0.015596091  0.014964106           44 
 3054000   0.75272348   -7.9040036    570.49882  0.015566984  0.014958438           65 
 3055000   0.74624839   -7.9006321    572.41414  0.015614134  0.014952765           78 
 3056000    0.7769046   -7.9167435     571.5623  0.015585796  0.014947085           69 
 3057000   0.74142436   -7.9307153    571.64296  0.015582896  0.014941417          104 
 3058000   0.75279769   -7.9100152    571.49315  0.015573718  0.014935749           65 
 3059000   0.76117895   -7.9657783    570.55091  0.015542958   0.01493007          100 
 3060000    0.7641841   -7.9263768    569.96474  0.015521916  0.014924407          106 
 3061000    0.7698373   -7.8925151     572.6615  0.015590262  0.014918741           98 
 3062000   0.78671868   -7.9062077    571.93027   0.01556527  0.014913073          138 
 3063000   0.76318608   -7.8939551    572.03785  0.015563115  0.014907399          102 
 3064000   0.75338841   -7.9133084    572.15739  0.015561287  0.014901732           96 
 3065000     0.761238    -7.932822    571.20918  0.015530429  0.014896063          128 
 3066000   0.74568398   -7.9232436    571.75429   0.01554018  0.014890406           84 
 3067000   0.77378927   -7.9259763    571.71863  0.015534144  0.014884741          103 
 3068000   0.75772452   -7.9450467    571.21207  0.015515321  0.014879063          113 
 3069000   0.76886451   -7.9343933    570.23316  0.015483685   0.01487338           88 
 3070000   0.76287565   -7.9393831    572.30968  0.015535008  0.014867697          119 
 3071000   0.75262533   -7.8991691    572.55746  0.015536673  0.014862033          111 
 3072000   0.75717379   -7.9086531    571.82907  0.015511856  0.014856373           79 
 3073000   0.75544357   -7.9243412    572.23686  0.015517867  0.014850741           90 
 3074000   0.76329079   -7.9557569    571.68388  0.015497828  0.014845104          107 
 3075000   0.75932007   -7.9581959    570.86592  0.015470621  0.014839452          137 
 3076000   0.77413222   -7.9274079    571.27059  0.015476555  0.014833795          103 
 3077000   0.78028054   -7.9351303    572.00655  0.015491457  0.014828148          105 
 3078000     0.768278   -7.9220682    571.13435   0.01546281  0.014822493           72 
 3079000   0.76356978   -7.9260391    570.24863  0.015433816  0.014816836           75 
 3080000   0.75318538   -7.9346465    572.01954  0.015476719  0.014811191           49 
 3081000   0.76940732   -7.9275326    571.93441  0.015469393  0.014805532          163 
 3082000   0.76265974    -7.915075     571.4522  0.015451336  0.014799894          127 
 3083000   0.76115596   -7.9434932    570.55458  0.015422061  0.014794248          119 
 3084000   0.74687192   -7.9144541    572.48985  0.015469354  0.014788614           91 
 3085000   0.77539565    -7.933589    571.28865  0.015431892  0.014782977          135 
 3086000   0.77586932   -7.9516862    570.02293  0.015392713   0.01477735          139 
 3087000   0.77169843   -7.9142226    571.27222  0.015421451  0.014771713          117 
 3088000   0.77017653   -7.9325225    571.49894  0.015422575  0.014766103          138 
 3089000   0.75731789   -7.9623272    571.22688  0.015410243  0.014760468          104 
 3090000   0.75900226   -7.9497264    571.73194  0.015418877  0.014754847          178 
 3091000   0.75300315   -7.9471152    571.19926  0.015399527  0.014749222          197 
 3092000   0.76500726   -7.9103775    571.82092  0.015411301  0.014743596          151 
 3093000   0.74354516   -7.9159046    570.84813  0.015380109  0.014737958          139 
 3094000   0.76171355   -7.9525757    569.22128  0.015331321  0.014732314          119 
 3095000   0.76450102   -7.9675336     571.2533   0.01538108  0.014726684          153 
 3096000   0.76483699   -7.9764244    570.75606  0.015362728  0.014721029          186 
 3097000   0.74700011   -7.9491627    571.31471  0.015372799  0.014715376          174 
 3098000   0.73970663   -7.9820783    570.27576   0.01533989  0.014709736          172 
 3099000   0.74278204   -7.9355248    570.87825  0.015351141  0.014704093          232 
 3100000   0.76114316   -7.9695889    570.80894  0.015344326  0.014698444          176 
 3101000   0.75131939     -7.94729    571.20297  0.015349967  0.014692801          191 
 3102000   0.75785694   -7.9461388    570.49359  0.015325961  0.014687161          152 
 3103000   0.77426796   -7.9442675     570.1773  0.015312528  0.014681518          181 
 3104000    0.7560622   -7.9635775    571.02864  0.015330451  0.014675884          227 
 3105000   0.76297755   -7.9426712    572.09026  0.015354006  0.014670261          229 
 3106000   0.75995374   -7.9378459    571.55812  0.015334785  0.014664644          156 
 3107000   0.75008608   -7.9592565    570.27767  0.015295507  0.014659012          214 
 3108000   0.74794599   -7.9283214    571.30678  0.015318178  0.014653375          123 
 3109000   0.77345397   -7.9612568    570.06409  0.015279942  0.014647756          247 
 3110000   0.74019609   -7.9810943    570.00508  0.015273448  0.014642119          190 
 3111000   0.73474784   -7.9454109     570.5138  0.015282165  0.014636487          221 
 3112000   0.75406129   -7.9579931    570.41972  0.015274735  0.014630853          320 
 3113000   0.77039804    -7.936158    570.46726  0.015271101  0.014625221          140 
 3114000   0.75717564   -7.9611768    571.59579  0.015296398  0.014619592          204 
 3115000   0.76816504   -7.9477687    571.48586  0.015288546  0.014613959          179 
 3116000   0.73891508   -7.9647496    569.70281  0.015235954  0.014608338          274 
 3117000   0.74026697   -7.9654914    570.29902  0.015247006  0.014602721          294 
 3118000    0.7604845   -7.9493223    569.88821  0.015231137  0.014597105          132 
 3119000   0.76141451   -7.9842717    569.73664  0.015222204  0.014591477          195 
 3120000   0.75398721    -7.948848    570.64063   0.01524147  0.014585869          359 
 3121000   0.74647107   -7.9383578    570.98936  0.015245898  0.014580257          222 
 3122000   0.76957877   -7.9971976    568.83741  0.015183574  0.014574625          316 
 3123000    0.7701231    -7.946705    570.58535  0.015225354  0.014568992          263 
 3124000   0.75013446   -7.9469252    569.17751  0.015182926  0.014563366          282 
 3125000   0.75057054   -7.9781385    569.53044  0.015187478   0.01455773          435 
 3126000   0.74459459    -7.987329    570.35184  0.015204517  0.014552098          391 
 3127000   0.73863718   -7.9746984    570.46683  0.015202719  0.014546476          298 
 3128000   0.74871192   -7.9764929    569.68172  0.015176943  0.014540856          354 
 3129000   0.75836878   -8.0072107    569.62732  0.015170644   0.01453521          424 
 3130000   0.74824258   -7.9822916    570.36443  0.015185421  0.014529565          339 
 3131000   0.75989323    -8.021919    569.10199  0.015146971  0.014523911          463 
 3132000   0.75535095   -7.9877754    568.99183  0.015139204   0.01451827          335 
 3133000   0.74413443    -7.991985    569.88429   0.01515811   0.01451264          400 
 3134000   0.75074047    -8.011973    569.85583  0.015152516  0.014507008          307 
 3135000   0.75196839   -7.9880447    570.96053  0.015177048  0.014501377          405 
 3136000   0.75100076   -7.9910036     569.9061  0.015144188  0.014495747          329 
 3137000   0.73959715   -7.9724019    570.23899  0.015148204  0.014490123          361 
 3138000    0.7255389   -8.0141925    570.33696  0.015145978   0.01448449          401 
 3139000   0.74479852   -8.0040525    569.07872   0.01510775  0.014478849          449 
 3140000   0.75287648   -8.0182348    569.48522  0.015113727  0.014473224          410 
 3141000   0.76527672   -8.0160845    570.03615  0.015123532  0.014467604          242 
 3142000   0.74975386   -8.0121899    567.98937  0.015064433  0.014461978          403 
 3143000   0.75416996   -8.0071995    569.94145  0.015111397   0.01445637          344 
 3144000   0.74291864   -7.9733734    569.33473  0.015090509  0.014450756          393 
 3145000   0.75576402   -7.9875106    570.12209  0.015106574  0.014445132          245 
 3146000   0.74948733   -7.9926394    569.91806  0.015096367  0.014439526          256 
 3147000   0.75525005   -7.9790267    571.37847  0.015130242  0.014433937          280 
 3148000   0.73116152   -8.0028073    570.10244  0.015091657  0.014428328          361 
 3149000   0.76269087   -7.9838836    570.42008   0.01509527  0.014422738          375 
 3150000   0.73930225   -8.0175332    569.61972  0.015069305   0.01441713          438 
 3151000   0.74905936   -8.0110842    570.46082  0.015086767  0.014411539          396 
 3152000   0.75462602   -8.0088609    569.75481  0.015063315   0.01440595          336 
 3153000   0.74153365    -8.030544    569.07167  0.015040482  0.014400343          390 
 3154000   0.74497949    -7.995549    570.73337  0.015079618  0.014394737          448 
 3155000   0.74493576    -7.987474    570.38828  0.015065723  0.014389149          312 
 3156000   0.75005177   -7.9986475    568.87034  0.015020869  0.014383557          462 
 3157000   0.72030138   -8.0170661    570.26129  0.015052827  0.014377959          456 
 3158000   0.73545207     -7.98641    570.07934  0.015043259  0.014372378          404 
 3159000   0.73365991   -7.9883496    568.81895  0.015005248  0.014366809          258 
 3160000   0.74355467   -8.0051119    569.49044  0.015018208  0.014361219          346 
 3161000   0.73188381   -7.9927389    570.65183  0.015044074  0.014355648          314 
 3162000   0.74113305   -8.0129957    569.38282  0.015005872  0.014350069          367 
 3163000   0.75678606   -7.9785794      570.437  0.015028902  0.014344492          369 
 3164000   0.74914194   -8.0060242    570.22919  0.015018679  0.014338938          397 
 3165000   0.75235536   -8.0210763    570.18942  0.015012886  0.014333365          409 
 3166000   0.74363862   -8.0192731    568.82812  0.014972313  0.014327782          316 
 3167000   0.75134054   -8.0092375    569.62212  0.014988478  0.014322222          317 
 3168000    0.7469605   -8.0329117     569.6069  0.014983346  0.014316652          359 
 3169000   0.75401105   -8.0018181    570.10921  0.014991827  0.014311094          345 
 3170000   0.74575532   -8.0191141    570.05846  0.014985764  0.014305534          360 
 3171000   0.74418924   -8.0031573    569.83983  0.014975293  0.014299981          344 
 3172000   0.73674478   -8.0073219    569.85653   0.01497101  0.014294412          407 
 3173000   0.74638635   -7.9937824    570.84507  0.014992254  0.014288847          194 
 3174000   0.73935561   -8.0280945    568.19831   0.01491804  0.014283291          337 
 3175000    0.7338256   -8.0419236    569.76376  0.014954429  0.014277722          385 
 3176000   0.74425983   -8.0338769    569.37764   0.01493959  0.014272153          218 
 3177000   0.72389014   -7.9934584    570.33052  0.014959881  0.014266589          383 
 3178000   0.74191505   -7.9927575    570.61709  0.014962689  0.014261045          239 
 3179000   0.75005623   -8.0189637    568.88013   0.01491245   0.01425548          331 
 3180000   0.73993389   -8.0117724    569.64115  0.014927703   0.01424992          344 
 3181000   0.75687655    -8.034734    569.63595  0.014922874  0.014244357          221 
 3182000   0.75197618   -8.0300562    570.13328  0.014931209  0.014238789          242 
 3183000   0.72858691   -8.0137841     569.5071  0.014910124  0.014233229          407 
 3184000    0.7416912   -8.0194305    569.64558  0.014909066  0.014227683          493 
 3185000   0.73573422   -7.9986163    568.89654  0.014884786  0.014222143          239 
 3186000   0.74426936   -8.0030274    570.27796  0.014916247  0.014216608          341 
 3187000   0.75679053   -8.0335149     568.0718   0.01485388  0.014211062          286 
 3188000   0.73543115   -8.0372498    569.75045    0.0148931   0.01420552          259 
 3189000   0.74166991   -8.0018538    568.64218  0.014859469  0.014199965          400 
 3190000   0.75281633   -8.0312761    569.39541  0.014874488   0.01419441          246 
 3191000   0.73572777   -8.0191366    569.66826  0.014876952  0.014188857          405 
 3192000   0.72653874   -8.0286261    568.68692  0.014846672  0.014183313          411 
 3193000    0.7441266   -8.0251493    568.76598  0.014844086  0.014177769          369 
 3194000   0.74669811   -8.0432324     568.6733   0.01483702  0.014172234          502 
 3195000    0.7329875   -8.0258971    569.50454  0.014854057  0.014166691          378 
 3196000   0.73191749   -8.0178078     569.4091  0.014846921  0.014161145          268 
 3197000   0.73866608   -8.0506405    569.56033  0.014846219  0.014155606          457 
 3198000   0.74831641   -8.0121576    570.60957  0.014868917  0.014150084          335 
 3199000   0.72585673   -8.0147438    569.86208  0.014844797  0.014144554          328 
 3200000   0.74841501   -8.0395476    568.79808   0.01481245  0.014139018          496 
 3201000   0.73325988   -8.0194384    569.92035  0.014837039  0.014133482          509 
 3202000   0.76363528   -8.0258766    570.20846  0.014839904  0.014127949          400 
 3203000   0.73410175    -8.033896    569.37545  0.014813598  0.014122424          552 
 3204000   0.73904878   -8.0573074    568.98646  0.014798857  0.014116902          487 
 3205000    0.7417843   -8.0440249    568.83128  0.014790205  0.014111395          546 
 3206000   0.72667241   -8.0404925    568.59709  0.014779504  0.014105878          267 
 3207000   0.73342759   -8.0539845    568.63882   0.01477598  0.014100357          541 
 3208000   0.74128008   -8.0580215    569.86029  0.014803104  0.014094834          638 
 3209000   0.72903812   -8.0558819      568.313   0.01475831  0.014089302          506 
 3210000   0.72401105   -8.0659782    567.91395  0.014743353  0.014083771          447 
 3211000   0.72698602   -8.0215382    568.88904  0.014764067  0.014078241          475 
 3212000   0.72096725    -8.049488    569.16041  0.014766511   0.01407272          516 
 3213000   0.72758703   -8.0529923     567.8585  0.014728149  0.014067205          564 
 3214000   0.73051969   -8.0490185     568.6972  0.014745312   0.01406169          525 
 3215000    0.7442548   -8.0709233    567.87458  0.014719403  0.014056169          314 
 3216000   0.74105358   -8.0523976      569.056  0.014745439  0.014050638          531 
 3217000   0.75383233   -8.0473081    569.26504  0.014746271  0.014045123          519 
 3218000   0.71727605   -8.0622666    568.16616  0.014713232    0.0140396          610 
 3219000   0.74285416   -8.0684842    567.32912  0.014686992  0.014034074          585 
 3220000   0.73509954   -8.0619171    568.83675  0.014721448  0.014028561          584 
 3221000   0.74351624   -8.0961098    566.44574  0.014655018  0.014023022          311 
 3222000   0.74314721   -8.0449896    567.55544   0.01467917  0.014017486          296 
 3223000   0.75780629   -8.0510595    569.52663  0.014725583  0.014011967          532 
 3224000   0.74047398   -8.0817498    568.20615  0.014686883  0.014006439          526 
 3225000   0.72193766   -8.0509056    568.33774   0.01468573  0.014000898          533 
 3226000   0.73210578   -8.0469292    568.09699  0.014674958  0.013995371          532 
 3227000   0.75605331   -8.0637545    568.39032  0.014677986  0.013989846          609 
 3228000   0.74020561   -8.0134832    569.18836  0.014694041   0.01398433          548 
 3229000   0.74289985   -8.0683396    568.63881  0.014675307  0.013978822          335 
 3230000   0.73438119   -8.0551103    567.67377  0.014645866  0.013973296          477 
 3231000   0.71978504    -8.056539    567.96704  0.014648897  0.013967777          656 
 3232000   0.74282912   -8.0902109     567.9496  0.014643915  0.013962265          597 
 3233000   0.74076313   -8.0552517    567.50577  0.014627945  0.013956765          612 
 3234000    0.7370109   -8.0934788    567.40593  0.014620849  0.013951255          650 
 3235000   0.73487593   -8.0547255    568.53178  0.014645332  0.013945743          533 
 3236000    0.7296041   -8.0613725    568.22894  0.014633007  0.013940249          287 
 3237000   0.74603581    -8.056815    568.52193  0.014636029  0.013934752          293 
 3238000   0.73756092   -8.0806905    568.71582  0.014636499  0.013929254          526 
 3239000   0.72294333   -8.0422839    568.20437  0.014618822  0.013923756          604 
 3240000   0.73812735   -8.0650321    568.94898  0.014633461  0.013918262          544 
 3241000   0.71367292   -8.0786866     569.0525  0.014631608  0.013912769          326 
 3242000   0.72626514   -8.0719708    567.41424  0.014584985  0.013907289          612 
 3243000   0.73647835    -8.049845    569.59957  0.014636642   0.01390181          327 
 3244000   0.74481349   -8.0529804    568.63203  0.014607276  0.013896333          487 
 3245000   0.74066496   -8.0800438    567.99332  0.014586372  0.013890854          597 
 3246000    0.7383852   -8.0653425    567.68661  0.014574004  0.013885372          340 
 3247000   0.74195357   -8.0671939    568.74644  0.014596716  0.013879894          603 
 3248000   0.73316292   -8.0800107    567.62725  0.014563507  0.013874427          546 
 3249000   0.71753356   -8.0658985    567.74767  0.014562113  0.013868956          547 
 3250000   0.71588283    -8.093165    567.67655  0.014555809  0.013863481          576 
 3251000   0.72804868    -8.059172    568.70373  0.014577661  0.013858019          636 
 3252000   0.72049709   -8.0785746    568.51005  0.014568216  0.013852546          526 
 3253000   0.74280681   -8.0825143    567.46025  0.014536844  0.013847071          561 
 3254000   0.72997611   -8.1123018     567.2993  0.014528255  0.013841579          718 
 3255000   0.73997372   -8.0834322    567.23218  0.014522073  0.013836096          660 
 3256000   0.74467897   -8.0995292    567.51336   0.01452481  0.013830616          582 
 3257000    0.7480976   -8.0902128    568.72083  0.014551244  0.013825147          672 
 3258000   0.73730985   -8.0973341    567.65844  0.014519604  0.013819677          561 
 3259000   0.73083931   -8.0955524    567.26811  0.014505168  0.013814199          398 
 3260000   0.73394628   -8.0513589    568.55421  0.014533594  0.013808727          642 
 3261000   0.72963523   -8.0732807    567.70819  0.014507518  0.013803247          692 
 3262000   0.74419322   -8.0818463    567.76531   0.01450453  0.013797764          573 
 3263000   0.72501883   -8.0887666    567.30594  0.014488353   0.01379229          674 
 3264000   0.72854847   -8.0867448    567.14274  0.014479747   0.01378681          677 
 3265000   0.73603677   -8.0733167    568.47661  0.014509357  0.013781344          569 
 3266000   0.72353428   -8.1052068    566.74043  0.014460615  0.013775875          730 
 3267000   0.73699213   -8.0864047    567.37008   0.01447225  0.013770406          530 
 3268000    0.7364516   -8.0724608    568.10291  0.014486508  0.013764937          738 
 3269000   0.73128232   -8.0809581    567.87386  0.014476238  0.013759476          650 
 3270000   0.73418663   -8.0973429    567.50243  0.014462345  0.013754017          665 
 3271000   0.73305569   -8.1148447    567.54055  0.014458895  0.013748558          703 
 3272000   0.71466747   -8.1190987    566.92587  0.014438821  0.013743102          805 
 3273000   0.71791858   -8.1134595     567.6658  0.014453249   0.01373764          517 
 3274000   0.73637149   -8.0735941    567.30616   0.01443968  0.013732182          619 
 3275000   0.73271498   -8.0866816    567.31573  0.014435515  0.013726737          633 
 3276000   0.72906238   -8.0864754    567.93236  0.014446794  0.013721287          685 
 3277000   0.71426349   -8.0961155       568.35  0.014453006  0.013715841          694 
 3278000    0.7254668   -8.1075284    568.03634  0.014440623  0.013710388          704 
 3279000   0.71163465   -8.0840758    567.29547   0.01441739  0.013704929          763 
 3280000   0.71090506   -8.0977952    567.54168   0.01441925  0.013699478          712 
 3281000    0.7281669   -8.0980884    566.71982  0.014393981  0.013694021          724 
 3282000    0.7292616   -8.0904722    567.08636  0.014398902  0.013688581          708 
 3283000   0.73624951    -8.105739    568.44296  0.014428951   0.01368315          707 
 3284000   0.73423573   -8.1123491    567.57496  0.014402531  0.013677721          739 
 3285000   0.72754154   -8.0864971     568.2864  0.014416195  0.013672301          751 
 3286000   0.73859045   -8.0971048    566.60507  0.014369169  0.013666872          781 
 3287000   0.72431334   -8.1318035    567.27504  0.014381783  0.013661447          648 
 3288000   0.74077945   -8.0884348    567.45698   0.01438202  0.013656014          733 
 3289000    0.7372887   -8.0929028     567.5601   0.01438026  0.013650585          684 
 3290000   0.72037501   -8.1000015    567.61799  0.014377355  0.013645166          703 
 3291000    0.7224602   -8.1229608    566.90978  0.014355054  0.013639749          683 
 3292000   0.72728275   -8.1074685    567.41548  0.014363494  0.013634332          699 
 3293000    0.7171157   -8.0918205    567.92759  0.014372092  0.013628909          766 
 3294000    0.7211419   -8.1080133    567.36781  0.014353567  0.013623492          668 
 3295000   0.71426508   -8.0876251    567.09605  0.014342338  0.013618081          773 
 3296000   0.72428424    -8.096261    567.14552  0.014339237  0.013612665          751 
 3297000   0.71924655   -8.0969667    567.20729   0.01433645  0.013607259          829 
 3298000   0.73679851   -8.1297451     566.9572  0.014325783  0.013601847          667 
 3299000   0.71781633   -8.1030316     567.0942  0.014324902  0.013596434          755 
 3300000   0.72948883   -8.1119397    567.03431  0.014319048  0.013591018          796 
 3301000   0.72225204   -8.1045409    566.22903  0.014294381  0.013585612          842 
 3302000   0.70097495   -8.1075411    566.93306   0.01430782  0.013580197          752 
 3303000   0.71517334   -8.0999874     566.8537  0.014301486  0.013574778          770 
 3304000   0.71793853   -8.1598647    565.12846  0.014253644  0.013569356          822 
 3305000   0.72245411   -8.1296198     567.6093  0.014311883   0.01356393          841 
 3306000   0.71685872   -8.1318091    566.59126  0.014281893  0.013558511          822 
 3307000   0.71108112   -8.1524874    566.97723    0.0142873   0.01355309          776 
 3308000   0.72867796    -8.124275    567.39152  0.014293418  0.013547678          778 
 3309000   0.72960541   -8.1132644    566.43149  0.014264921   0.01354228          873 
 3310000   0.73461871   -8.1164096    566.70775  0.014267567  0.013536872          830 
 3311000   0.73060231   -8.1481987    567.65635  0.014287133  0.013531459          882 
 3312000   0.73085694   -8.1552204    566.80682  0.014261444   0.01352604          808 
 3313000   0.71317186   -8.1033531    566.38676  0.014246573  0.013520628          810 
 3314000    0.7157871   -8.1301585    567.14153  0.014261254  0.013515218          830 
 3315000   0.72802299   -8.1472021    566.32556  0.014236439  0.013509805          850 
 3316000   0.71699144   -8.1560588    566.87049  0.014245841  0.013504416          895 
 3317000   0.72548603   -8.1347258    567.05875  0.014246276  0.013499018          952 
 3318000   0.73057182   -8.1255469     566.0229  0.014215966   0.01349363          997 
 3319000   0.72406718   -8.1031069    566.77457  0.014230556  0.013488236          845 
 3320000   0.72917122     -8.11256    567.17904  0.014236422  0.013482847          907 
 3321000   0.71236142   -8.1375027    567.07575  0.014229543  0.013477469          876 
 3322000   0.70538493   -8.1205098    566.81317  0.014218673  0.013472093          852 
 3323000   0.71241899   -8.1247934    566.79858  0.014214028  0.013466724          936 
 3324000   0.71538325   -8.1247308    567.64227  0.014230903  0.013461346         1013 
 3325000   0.73242811   -8.1232018    566.21677  0.014190897  0.013455968          966 
 3326000   0.73723602   -8.1376091    565.67959  0.014173171  0.013450586          909 
 3327000   0.72385807   -8.1331071    567.01198  0.014202284  0.013445203         1091 
 3328000   0.71483172   -8.1294285    566.88359  0.014194801  0.013439832          876 
 3329000   0.70769762   -8.1167782    566.71111   0.01418622  0.013434457         1001 
 3330000   0.70876283   -8.1567814    566.39763  0.014174115  0.013429093         1014 
 3331000    0.7139121   -8.1090605    567.85958  0.014206434  0.013423727          911 
 3332000   0.71991859   -8.1382375    566.89216  0.014177975  0.013418352         1018 
 3333000   0.70021288   -8.1212788    566.84493   0.01417254  0.013412971         1037 
 3334000   0.71050643    -8.156576     565.5171    0.0141351    0.0134076         1044 
 3335000   0.71724701   -8.1451529    565.46483  0.014129556  0.013402216         1049 
 3336000   0.71163694   -8.1440085    565.91476   0.01413656  0.013396841         1092 
 3337000   0.73535402   -8.1490663    566.49207   0.01414674  0.013391465          929 
 3338000   0.72682967    -8.126945    566.41758  0.014140642  0.013386105          975 
 3339000   0.72753067   -8.1603527    565.38713   0.01411069  0.013380742          996 
 3340000   0.70735376   -8.1373629    566.92009  0.014144713  0.013375384          986 
 3341000    0.7150609   -8.1391403    566.31058  0.014125276  0.013370027         1009 
 3342000   0.71244058   -8.1578164    564.91189  0.014086173  0.013364667          976 
 3343000   0.69960921   -8.1529102    565.14043  0.014087657  0.013359306          991 
 3344000   0.70996458   -8.1631545    566.49671  0.014117242  0.013353948         1066 
 3345000   0.71406659   -8.1426389     565.5232  0.014088769  0.013348601          945 
 3346000   0.71222819   -8.1399085    566.80383  0.014116453  0.013343267          965 
 3347000   0.73298451   -8.1426295    566.81095  0.014112413  0.013337933         1063 
 3348000   0.70383746   -8.1475655    565.73215  0.014081346  0.013332596         1001 
 3349000   0.72446645   -8.1531686    567.51462  0.014121494   0.01332725         1113 
 3350000   0.71625459   -8.1330751    565.75607  0.014073534  0.013321905         1055 
 3351000   0.72323129   -8.1331123    567.12594  0.014103401  0.013316571         1116 
 3352000   0.72809688    -8.150035    565.61147  0.014061542  0.013311232         1078 
 3353000   0.71691351   -8.1466752    566.39044  0.014076709  0.013305913         1058 
 3354000   0.72915087   -8.1638425    565.05307  0.014039283  0.013300582          974 
 3355000    0.6983824   -8.1540124     566.1766  0.014063005  0.013295266         1063 
 3356000   0.70350002   -8.1480766    565.51785  0.014042458  0.013289943         1056 
 3357000   0.70178873   -8.1295512    567.19031  0.014079791  0.013284636         1160 
 3358000   0.72370205   -8.1504289    565.68871  0.014038334  0.013279329         1075 
 3359000   0.71735423   -8.1397722    567.09389  0.014069016  0.013274013         1109 
 3360000   0.71651917   -8.1484781    566.32623   0.01404579  0.013268695         1068 
 3361000     0.726891   -8.1420957    565.57033  0.014022868  0.013263376         1028 
 3362000   0.70782297   -8.1449674    566.91937  0.014052136  0.013258064         1078 
 3363000    0.7066078   -8.1604189    565.80172  0.014020263  0.013252759         1093 
 3364000   0.72137061   -8.1514354    566.44983   0.01403215   0.01324745         1121 
 3365000   0.70829099   -8.1686777     566.1026  0.014019381  0.013242152         1144 
 3366000   0.70482863   -8.1530054     566.3469  0.014021264  0.013236851         1164 
 3367000   0.72285408   -8.1377009    565.80724  0.014003743  0.013231547         1055 
 3368000   0.72831929   -8.1447403    566.87704  0.014026055  0.013226252         1108 
 3369000   0.71638288   -8.1471795    565.82115  0.013995774  0.013220952         1037 
 3370000   0.70241196   -8.1453918    566.53154  0.014009188  0.013215669         1127 
 3371000   0.70396428   -8.1067478    565.22573  0.013972751  0.013210379         1015 
 3372000   0.72260997   -8.1526155     566.3378   0.01399609  0.013205096         1136 
 3373000   0.71148689   -8.1471217    566.77666  0.014002783  0.013199801         1144 
 3374000   0.71785839   -8.1676458    565.99628  0.013979359  0.013194523         1034 
 3375000   0.71171104   -8.1663948    564.99255  0.013950433  0.013189234         1103 
 3376000   0.71212124   -8.1422422    566.15308  0.013974948  0.013183959         1034 
 3377000   0.71054428    -8.154714    565.92563  0.013965197  0.013178679         1164 
 3378000   0.71996384   -8.1586471    566.08588  0.013965016  0.013173383         1150 
 3379000   0.70347016     -8.15811    564.61887  0.013924703  0.013168095         1260 
 3380000   0.72027475   -8.1476926    565.24065  0.013935913  0.013162805         1246 
 3381000   0.71490456   -8.1418953    565.17727  0.013930229  0.013157516         1081 
 3382000   0.72062498   -8.1671106    565.73815  0.013939931  0.013152229         1088 
 3383000   0.69951198   -8.1601816    564.26841  0.013899606  0.013146937         1077 
 3384000   0.70180653   -8.1816088      565.115  0.013916346  0.013141651         1105 
 3385000   0.72208428   -8.1746292    564.22708  0.013890376  0.013136363         1234 
 3386000   0.72207294   -8.1693895    565.72339    0.0139231  0.013131078         1207 
 3387000   0.71037711   -8.1597805    565.24034  0.013907104  0.013125805         1276 
 3388000   0.71968887   -8.1873314    564.33884  0.013880826  0.013120534         1096 
 3389000   0.70694136   -8.1623405    566.39127  0.013927198  0.013115258         1268 
 3390000   0.71233093   -8.1785243    564.54014  0.013877585  0.013109979         1228 
 3391000   0.70888434   -8.1718783    565.38923  0.013894358  0.013104701         1166 
 3392000   0.70537997    -8.201572    564.10913  0.013858813  0.013099418         1212 
 3393000   0.73150511   -8.1944204    565.20027  0.013881527  0.013094142         1206 
 3394000   0.70898489   -8.1905899    564.81061   0.01386787  0.013088873         1204 
 3395000   0.71014319   -8.1660248    565.51638  0.013881109  0.013083608         1192 
 3396000   0.72084848   -8.1900052    565.59539   0.01387896  0.013078343         1152 
 3397000   0.69636113   -8.1628626    565.14601  0.013863851  0.013073084          956 
 3398000   0.70383886   -8.1742061    565.20412  0.013861196  0.013067826         1097 
 3399000   0.70604887   -8.1534221    565.86256  0.013873261   0.01306257         1064 
 3400000   0.70683569   -8.1656173    565.15665  0.013851879  0.013057321         1157 
 3401000   0.71046604   -8.1767811    563.76971  0.013813822  0.013052066         1134 
 3402000   0.71832922   -8.1661664    565.99346  0.013864233  0.013046807         1083 
 3403000   0.69800964    -8.191313    565.32059  0.013843682  0.013041563         1137 
 3404000   0.72757559   -8.1502154    564.09731  0.013809668  0.013036307         1162 
 3405000   0.71728101   -8.1661893    565.15569  0.013831515  0.013031061         1063 
 3406000    0.7017743   -8.1644091    566.24519   0.01385411  0.013025815         1163 
 3407000   0.71508009   -8.1709514    564.78955   0.01381444  0.013020577         1181 
 3408000   0.69969305   -8.1678539    565.50938  0.013827988  0.013015339         1178 
 3409000   0.70763957   -8.1732764    566.29072  0.013843031    0.0130101         1111 
 3410000   0.69340662   -8.1852726    564.75553  0.013801455   0.01300487         1248 
 3411000   0.69698817   -8.1692852    565.12275   0.01380638  0.012999641         1183 
 3412000   0.71017785   -8.1636303    564.79973  0.013794444  0.012994409         1057 
 3413000   0.69822257   -8.1700379    564.99047   0.01379506  0.012989173         1148 
 3414000   0.70027128   -8.2023489    564.08741  0.013768976  0.012983942         1267 
 3415000   0.69647302   -8.1771946    564.55932   0.01377646  0.012978716         1164 
 3416000   0.69727711   -8.1860226    564.05655  0.013760162  0.012973487         1196 
 3417000   0.71453532   -8.1552243    565.76889  0.013797895  0.012968266         1202 
 3418000   0.72133463   -8.1695327    566.61969  0.013814601  0.012963063         1211 
 3419000   0.69582022    -8.167995    565.43172  0.013781606  0.012957865         1235 
 3420000   0.70429091   -8.1651867    565.89799  0.013788937  0.012952656         1248 
 3421000   0.69322602   -8.1704325    565.49739  0.013775148  0.012947442         1210 
 3422000   0.70999176   -8.1926013    564.77289   0.01375348  0.012942232         1124 
 3423000   0.70029444   -8.1761193    564.83533  0.013750982  0.012937034         1261 
 3424000   0.70717663   -8.1474002    566.87671  0.013796649   0.01293183         1194 
 3425000   0.70923625   -8.1839634    565.74912  0.013765185  0.012926639         1107 
 3426000   0.69525316   -8.1623879    566.22139  0.013772655  0.012921449         1192 
 3427000   0.72643739   -8.1740681    565.08387  0.013740975  0.012916263         1240 
 3428000   0.70446285   -8.1910099    563.89986  0.013708184  0.012911077         1241 
 3429000   0.70448526   -8.1897786    565.54401  0.013744143  0.012905881         1156 
 3430000   0.73114413   -8.1769526    565.10248  0.013729409    0.0129007         1217 
 3431000   0.69997863   -8.1841117    564.86692  0.013719686  0.012895502         1160 
 3432000   0.69557497   -8.1780432    565.06282  0.013720445  0.012890305         1253 
 3433000   0.70617421   -8.1701616    565.01281  0.013715235   0.01288511         1171 
 3434000   0.70649564   -8.1961197    564.98715  0.013710618  0.012879917         1220 
 3435000   0.69984246   -8.1816459    565.50073  0.013719086  0.012874732         1175 
 3436000    0.6923107   -8.1944582    565.88197  0.013724339  0.012869553         1194 
 3437000   0.70799087   -8.1872276    564.28833  0.013681707  0.012864377         1150 
 3438000   0.70838946   -8.1901208    565.91439  0.013717142  0.012859201         1214 
 3439000   0.69642946   -8.2045949     566.4141  0.013725262  0.012854039         1255 
 3440000   0.70364747     -8.17927    566.26418   0.01371764  0.012848881         1195 
 3441000   0.69236115   -8.1977449    565.98593  0.013706915  0.012843725         1235 
 3442000   0.69456287   -8.1768708    565.70041   0.01369602  0.012838567         1212 
 3443000   0.70419043    -8.193969     564.5427  0.013664021  0.012833409         1199 
 3444000   0.69360707   -8.1746911    565.36363  0.013679917  0.012828262         1191 
 3445000   0.69661538   -8.1799213    565.84244  0.013687529  0.012823108         1196 
 3446000   0.69804019   -8.1971905    564.84654  0.013659473  0.012817958         1236 
 3447000   0.70610664   -8.1758207    564.41596  0.013645101  0.012812799         1226 
 3448000   0.69642408   -8.1791632    564.68893  0.013647741  0.012807653         1288 
 3449000   0.69173288   -8.1745187    566.52986  0.013688264  0.012802507         1250 
 3450000   0.69837397   -8.1935088    564.94247  0.013645953  0.012797365         1182 
 3451000   0.68996829    -8.195718       565.18  0.013647735  0.012792223         1315 
 3452000   0.69529242   -8.1947366    565.16087  0.013643319  0.012787073         1251 
 3453000   0.70385201   -8.1834997    564.58892  0.013625565  0.012781928         1261 
 3454000   0.70147387   -8.2044533    564.26566  0.013613821  0.012776767         1319 
 3455000   0.69853906    -8.194511    563.41501  0.013589364  0.012771605         1288 
 3456000   0.70278809    -8.209113    565.52159  0.013636227  0.012766446         1334 
 3457000   0.69226351   -8.2286791     563.8719  0.013592515  0.012761294         1267 
 3458000   0.70195779   -8.2086922    565.79328  0.013634887  0.012756149         1234 
 3459000   0.70071383    -8.200524     563.7188  0.013580968  0.012751009         1194 
 3460000   0.70361243   -8.2068874    564.96526  0.013607063  0.012745877         1166 
 3461000   0.70143447   -8.2081894    563.31145  0.013563311  0.012740724         1209 
 3462000   0.69553252   -8.2173444    563.37949  0.013561031  0.012735577         1285 
 3463000   0.70184885    -8.221182    564.32409  0.013579846  0.012730428         1254 
 3464000   0.68880193    -8.194788    563.59024  0.013558272  0.012725286         1212 
 3465000   0.69858643   -8.2208172    563.80064  0.013559419   0.01272015         1363 
 3466000   0.69785017   -8.2267563    564.56819  0.013573961  0.012715008         1360 
 3467000   0.69550383   -8.1928923    563.42083  0.013542468  0.012709876         1318 
 3468000   0.69755701   -8.2348607    563.53459  0.013541296  0.012704747         1293 
 3469000   0.70872888   -8.2333796    563.81928  0.013544232   0.01269962         1470 
 3470000   0.68800862   -8.2331302    564.17403  0.013548848  0.012694502         1308 
 3471000   0.68715884    -8.201958    565.81869   0.01358443  0.012689389         1343 
 3472000   0.70188959   -8.2120234    564.27403  0.013543444  0.012684276         1370 
 3473000   0.71298791    -8.224668    564.80253  0.013552225  0.012679166         1349 
 3474000   0.70482189   -8.2404643    564.47462  0.013540458  0.012674059         1320 
 3475000   0.69852218   -8.2213248    564.19403  0.013529833  0.012668951         1266 
 3476000   0.70846874   -8.2187095    563.43166  0.013507664  0.012663854         1301 
 3477000   0.68483714    -8.200032    564.75287  0.013535444  0.012658747         1336 
 3478000    0.6809515   -8.2196847    563.79344  0.013508564  0.012653654         1319 
 3479000   0.72092468   -8.2106014    564.94668  0.013532305  0.012648557         1338 
 3480000   0.70991852   -8.2130383    564.28936  0.013512676  0.012643455         1394 
 3481000   0.70692667   -8.2201783    564.69084  0.013518406  0.012638359         1379 
 3482000   0.69843454   -8.2205691    565.19682  0.013526633  0.012633267         1334 
 3483000    0.6876742   -8.2205238    563.45572  0.013481092  0.012628177         1358 
 3484000   0.70734661     -8.21009    564.15224  0.013493883  0.012623092         1270 
 3485000   0.69518571   -8.2276751    564.24597  0.013492252  0.012618015         1266 
 3486000   0.68036796   -8.2262626    564.75169  0.013500471  0.012612932         1293 
 3487000   0.69967793   -8.2068749    562.99628  0.013454648  0.012607853         1298 
 3488000   0.68524602   -8.2083068     563.3666  0.013459638  0.012602775         1253 
 3489000   0.69909118   -8.2470902    564.46949  0.013482122  0.012597702         1290 
 3490000   0.70000046   -8.2113673    563.93538  0.013465506  0.012592625         1283 
 3491000   0.70402442   -8.2107351    564.15398  0.013466867  0.012587557         1378 
 3492000   0.68485554   -8.2171108    563.81225  0.013454855  0.012582479         1283 
 3493000   0.68259576   -8.1988841    564.18932  0.013459999  0.012577405         1302 
 3494000   0.69779935   -8.2122861    563.97325  0.013450993  0.012572334         1315 
 3495000   0.70694822   -8.1925085    563.47553  0.013435277  0.012567265         1334 
 3496000   0.70155473   -8.2283468    564.53831  0.013456768  0.012562205         1335 
 3497000   0.70392531   -8.2138731    563.98426  0.013439716   0.01255714         1274 
 3498000   0.69896314   -8.2161067    563.60792  0.013426909   0.01255208         1254 
 3499000   0.68514865   -8.2090566    564.32288  0.013440099  0.012547019         1331 
 3500000   0.69529305   -8.2297321    563.10324   0.01340722   0.01254196         1401 
 3501000   0.68363745   -8.1957768    564.00495  0.013424854  0.012536906         1321 
 3502000   0.71334396   -8.2123854    564.23574  0.013426512  0.012531845         1426 
 3503000   0.69080631   -8.2292184    562.77361  0.013387896    0.0125268         1360 
 3504000    0.6943742   -8.2391944    563.80012  0.013408488  0.012521746         1443 
 3505000   0.70054439   -8.2254395    563.14941  0.013389192   0.01251671         1360 
 3506000   0.68614794   -8.2364381     564.2458  0.013411433  0.012511672         1408 
 3507000   0.69181277   -8.2513994    562.73105  0.013371615  0.012506639         1441 
 3508000   0.68040889   -8.2548272     563.7459  0.013391911  0.012501598         1416 
 3509000   0.69782308   -8.2153358    563.57878  0.013384126  0.012496567         1426 
 3510000   0.69770804   -8.2604788    564.09758   0.01339263  0.012491536         1394 
 3511000   0.68546379   -8.2426552     564.2213  0.013391752  0.012486502         1463 
 3512000   0.69210258   -8.2367054    562.78696  0.013353905  0.012481487         1389 
 3513000   0.67744393   -8.2224571    564.70021  0.013395488  0.012476465         1395 
 3514000   0.67956517   -8.2340684     563.4151    0.0133612  0.012471441         1400 
 3515000   0.69595408   -8.2283107    564.65932  0.013386897  0.012466428         1374 
 3516000   0.69413735   -8.2419666    563.58328  0.013357586  0.012461422         1449 
 3517000   0.69464386   -8.2231004    564.55706  0.013376861  0.012456422         1454 
 3518000   0.68566434   -8.2300681    564.40798  0.013369528  0.012451415         1401 
 3519000   0.70669572   -8.2272634    564.12531  0.013359034  0.012446411         1500 
 3520000   0.68694636   -8.2364886    564.65507  0.013367781  0.012441407         1406 
 3521000   0.68074644   -8.2403204    563.96728  0.013347706  0.012436401         1430 
 3522000   0.69862675    -8.246247    563.65983  0.013336642  0.012431403         1429 
 3523000    0.6921894    -8.260631    564.16238  0.013344744   0.01242641         1426 
 3524000    0.6828599    -8.214938     563.2167  0.013318594  0.012421418         1500 
 3525000   0.68532501   -8.2261638    564.15418  0.013336978  0.012416421         1447 
 3526000   0.69537024   -8.2224246    564.79128  0.013348253  0.012411435         1289 
 3527000   0.68168499   -8.2143119    564.41445  0.013335565  0.012406445         1435 
 3528000   0.68441056   -8.2349243    563.03552  0.013299214  0.012401457         1417 
 3529000   0.68562994   -8.2176514    564.36434  0.013326824  0.012396469         1427 
 3530000   0.68707087   -8.2412762    563.64127  0.013305979   0.01239148         1521 
 3531000   0.69605231   -8.2293644    563.55013   0.01330006  0.012386488         1467 
 3532000   0.67823923   -8.2398447    564.49337  0.013318549  0.012381499         1556 
 3533000   0.68271196   -8.2435637    563.59234  0.013293526  0.012376518         1464 
 3534000   0.68138938   -8.2373142    562.66818  0.013267973  0.012371541         1473 
 3535000   0.67947251   -8.2312293    564.76942  0.013313753   0.01236657         1491 
 3536000   0.68865667   -8.2507802     563.1149  0.013270996  0.012361595         1508 
 3537000   0.68751286   -8.2368804    562.97427  0.013263931  0.012356616         1413 
 3538000   0.68423073    -8.258809    563.49014  0.013272332  0.012351634         1460 
 3539000   0.68992041    -8.262896    564.03443  0.013281399  0.012346661         1497 
 3540000    0.6824817   -8.2387839    564.49748  0.013288547  0.012341688         1580 
 3541000   0.69561839   -8.2123125    562.99122  0.013249346  0.012336716         1482 
 3542000   0.69526231   -8.2438169    564.22094  0.013274537  0.012331753         1440 
 3543000    0.6945804   -8.2456708    562.55389  0.013231581  0.012326792         1525 
 3544000   0.68358502   -8.2580256    563.70367  0.013254883   0.01232183         1495 
 3545000   0.68121167   -8.2451139    563.10451   0.01323706  0.012316863         1509 
 3546000    0.6948758   -8.2309901     564.3207  0.013261908  0.012311911         1488 
 3547000   0.69211445   -8.2565556    563.64832  0.013242372  0.012306949         1510 
 3548000   0.67211112    -8.239785    564.04895  0.013248049  0.012301997         1498 
 3549000   0.69868186   -8.2460194    564.84073  0.013262908  0.012297042         1559 
 3550000   0.69192728   -8.2492999    563.04953  0.013217125  0.012292084         1553 
 3551000   0.69404486   -8.2291596    564.37627  0.013244538  0.012287145         1555 
 3552000   0.68069265   -8.2317243    565.17677   0.01325959  0.012282202         1530 
 3553000   0.69654122   -8.2292367    563.77057  0.013222877  0.012277266         1550 
 3554000   0.67230114   -8.2359815     564.1966  0.013229146  0.012272331         1484 
 3555000   0.68691349   -8.2201212    565.92745  0.013265997  0.012267399         1526 
 3556000   0.69054271   -8.2532886    563.74255  0.013211065  0.012262465         1530 
 3557000   0.69591332    -8.256331    563.96681  0.013212605  0.012257544         1502 
 3558000   0.67505798   -8.2441475    563.05178   0.01318746  0.012252615         1515 
 3559000   0.69286404    -8.244571    563.48672  0.013193938  0.012247692         1560 
 3560000   0.68291679   -8.2655974    562.40671  0.013164951  0.012242771         1473 
 3561000   0.69229254   -8.2437676     563.2788  0.013181662  0.012237843         1400 
 3562000   0.68182297   -8.2406449    564.34393  0.013202881  0.012232913         1488 
 3563000   0.68880029   -8.2278858    563.57605  0.013181215  0.012227994         1478 
 3564000   0.68246027   -8.2278068    564.32189  0.013194956  0.012223087         1494 
 3565000    0.7013849    -8.225654    564.01102  0.013183988  0.012218179         1574 
 3566000   0.68264801   -8.2360383     563.3659  0.013165215   0.01221328         1544 
 3567000   0.67183243   -8.2579731    562.73892  0.013146877  0.012208365         1562 
 3568000   0.69261725   -8.2670594    562.42634  0.013135892   0.01220345         1569 
 3569000   0.68169219   -8.2633988     563.4409    0.0131559  0.012198555         1539 
 3570000   0.67618875   -8.2234522     564.4511  0.013175796  0.012193654         1642 
 3571000   0.68195423   -8.2474283    563.66318  0.013153719  0.012188755         1558 
 3572000   0.67819716   -8.2556854     563.6655  0.013150091  0.012183868         1515 
 3573000   0.67967532   -8.2466466    564.06081   0.01315563  0.012178981         1521 
 3574000   0.69282655   -8.2447182     563.4468  0.013137633  0.012174103         1492 
 3575000   0.69125269   -8.2459611    564.38474  0.013155822  0.012169215         1612 
 3576000   0.68726311   -8.2561526    564.32318  0.013150708   0.01216433         1569 
 3577000   0.68735662   -8.2480718    563.05315  0.013117444  0.012159442         1599 
 3578000   0.66417359    -8.240395    564.14013  0.013139094  0.012154561         1568 
 3579000   0.68266736   -8.2467281    564.34553  0.013140205  0.012149672         1562 
 3580000   0.67684401   -8.2649919    562.51807  0.013093996  0.012144792         1624 
 3581000   0.67677683   -8.2679777    562.78414  0.013096531  0.012139905         1736 
 3582000   0.66398201   -8.2881376    563.37462  0.013106612  0.012135021         1600 
 3583000     0.663024   -8.2745987    562.45333  0.013081527  0.012130137         1535 
 3584000   0.68331282   -8.2586767    563.85102  0.013110375  0.012125265         1656 
 3585000   0.67082068   -8.2686563    562.76827   0.01308155  0.012120395         1607 
 3586000   0.69698523   -8.2671667    563.89073  0.013103986   0.01211553         1624 
 3587000    0.6674129    -8.251684    562.59574  0.013070248  0.012110661         1606 
 3588000   0.67338793   -8.2675021    562.33472  0.013060542   0.01210579         1551 
 3589000   0.68332696   -8.2491653     563.3975   0.01308158  0.012100927         1569 
 3590000   0.65651372   -8.2292023    563.00858  0.013068909  0.012096071         1459 
 3591000   0.68104801   -8.2696264    562.17487  0.013045922  0.012091218         1692 
 3592000   0.66729303   -8.2583646    564.07415  0.013086353  0.012086367         1537 
 3593000    0.6679412   -8.2738233    562.28978  0.013041325  0.012081517         1581 
 3594000   0.67281043   -8.2612055    563.39813  0.013063396  0.012076668         1584 
 3595000    0.6749648   -8.2638564    563.00848   0.01305073  0.012071819         1577 
 3596000   0.66494159   -8.2734797    563.49126  0.013058288  0.012066967         1666 
 3597000     0.675089   -8.2682088     564.3214   0.01307389   0.01206212         1621 
 3598000   0.68594562   -8.2987093    563.79412  0.013058044  0.012057273         1621 
 3599000   0.67336916   -8.2873012    562.60402   0.01302686  0.012052421         1549 
 3600000   0.67787502   -8.2704255     563.6373   0.01304716  0.012047579         1580 
 3601000   0.67887694   -8.2804255    562.76654  0.013023386  0.012042736         1701 
 3602000   0.67714515   -8.2485363    562.65757  0.013017249  0.012037897         1612 
 3603000   0.68077926   -8.2706948    563.78331  0.013039673  0.012033061         1706 
 3604000   0.66511009   -8.2751499    562.50413  0.013006477   0.01202822         1681 
 3605000   0.68488822   -8.2520222    563.11179  0.013016916  0.012023384         1641 
 3606000    0.6757206   -8.2971346    563.49219  0.013022097  0.012018547         1704 
 3607000   0.67773453   -8.2883151    562.05942  0.012985385  0.012013713         1693 
 3608000   0.68064676    -8.259873    561.68356  0.012973105  0.012008881         1571 
 3609000   0.68797999   -8.2474974    563.37525  0.013008572  0.012004053         1663 
 3610000   0.65563135   -8.2918577    562.54782  0.012985868  0.011999233         1701 
 3611000    0.6904119   -8.2837514    561.61179  0.012960671  0.011994404         1690 
 3612000   0.68014294   -8.2746779    563.66703    0.0130045  0.011989574         1728 
 3613000   0.67064298   -8.2673475    561.59233  0.012953048  0.011984756         1678 
 3614000   0.65905984   -8.2646622    563.38506  0.012990801  0.011979945         1586 
 3615000   0.66891795   -8.2601354    564.18926  0.013005746  0.011975133         1644 
 3616000    0.6875789   -8.2948906    561.91477  0.012949732  0.011970319         1642 
 3617000   0.66047351   -8.2797495    563.50698  0.012982835  0.011965506         1646 
 3618000   0.67338131   -8.2808626    561.63304  0.012936084  0.011960691         1673 
 3619000   0.68313365   -8.2963668    562.26472  0.012947055   0.01195588         1738 
 3620000   0.66944287   -8.2801129     563.7733  0.012978207  0.011951074         1753 
 3621000    0.6875303   -8.2891599    561.80385  0.012929298  0.011946272         1690 
 3622000   0.66362619   -8.2820623    562.36245   0.01293858  0.011941465         1746 
 3623000   0.68968178   -8.2803188    561.78797  0.012921795  0.011936669         1708 
 3624000   0.67318729   -8.2714705    563.38243  0.012954894  0.011931873         1602 
 3625000   0.67212726   -8.2935584    563.11709  0.012945221  0.011927083         1604 
 3626000   0.67155352   -8.2752305    563.56314  0.012951902  0.011922302         1706 
 3627000   0.65796575   -8.3112153    561.96856  0.012911694  0.011917508         1710 
 3628000   0.67497734   -8.2701122    562.55439  0.012921591  0.011912713         1602 
 3629000   0.67718702   -8.2752248     563.0956  0.012930458  0.011907929         1642 
 3630000   0.66245444   -8.2994695    562.07757  0.012903525  0.011903146         1755 
 3631000   0.67813886    -8.306542    562.12959  0.012901166  0.011898366         1644 
 3632000   0.68119543   -8.2838907    562.00871   0.01289484  0.011893586         1706 
 3633000   0.66194218   -8.2832171    562.07091  0.012892717  0.011888807         1692 
 3634000   0.67395246   -8.2832894    562.58467  0.012900951  0.011884024         1656 
 3635000   0.66557771   -8.2790359    562.23722  0.012889437  0.011879252         1627 
 3636000   0.65394089   -8.3030741    561.82229  0.012876382   0.01187448         1752 
 3637000   0.66626424   -8.2940209    562.45105  0.012887248  0.011869707         1708 
 3638000   0.67958259   -8.2961165    561.86867  0.012870365  0.011864935         1773 
 3639000   0.67797372   -8.2762989    563.80111  0.012911082  0.011860166         1742 
 3640000   0.67784763   -8.2792861    562.98499  0.012888851  0.011855395         1719 
 3641000   0.66672944   -8.2936275     562.0074  0.012862936  0.011850633         1646 
 3642000   0.67532842   -8.2760064    562.92583  0.012880419  0.011845867         1742 
 3643000    0.6720913   -8.2967022    563.09019  0.012880643  0.011841106         1698 
 3644000   0.66734691   -8.2895859    563.50013  0.012886483  0.011836346         1755 
 3645000   0.65849101   -8.2986209    562.50549  0.012860208  0.011831592         1768 
 3646000   0.67790872   -8.2853835    560.91668  0.012820367  0.011826832         1751 
 3647000   0.67760365   -8.2885845    563.00639  0.012864601  0.011822083         1630 
 3648000   0.65560717   -8.2951807     562.4752   0.01284894  0.011817338         1665 
 3649000   0.66628325   -8.3167552    560.90989  0.012809671  0.011812582         1782 
 3650000   0.68050731   -8.2839276    562.57296  0.012844132  0.011807832         1732 
 3651000   0.65459401   -8.2800913    562.34559  0.012835424  0.011803084         1737 
 3652000   0.67249793   -8.2979839     562.3332  0.012831627  0.011798335         1774 
 3653000   0.66093509   -8.2806094    563.14263  0.012846579  0.011793588         1734 
 3654000   0.66729061    -8.303768    562.42222  0.012826633  0.011788845         1800 
 3655000   0.66077927   -8.3019836    561.59031  0.012804157  0.011784106         1681 
 3656000   0.67271063   -8.2933759    562.93761  0.012831364  0.011779365         1704 
 3657000   0.66368156   -8.2935965    561.17991  0.012787802  0.011774637         1777 
 3658000   0.68237225   -8.2991436    560.94065  0.012778856  0.011769906         1697 
 3659000   0.65083196   -8.3187903    560.99769  0.012776662  0.011765173         1854 
 3660000   0.65176002   -8.2900678    562.77721  0.012813689   0.01176045         1782 
 3661000   0.67002803   -8.2937482    562.04586  0.012793541  0.011755723         1753 
 3662000   0.66782653   -8.2915721    563.05915  0.012813106  0.011751001         1701 
 3663000   0.66658302   -8.2942845    561.52731  0.012774759  0.011746271         1647 
 3664000   0.67609648   -8.2949543    562.67252  0.012797319  0.011741557         1701 
 3665000   0.67217667   -8.2810289    561.32784  0.012763252  0.011736837         1716 
 3666000   0.64877985   -8.2968122    562.14926  0.012778443  0.011732123         1668 
 3667000    0.6555016   -8.2989837    562.81815  0.012790159  0.011727409         1676 
 3668000   0.67113263   -8.3227865    561.18622  0.012749596  0.011722695         1727 
 3669000   0.66366487   -8.3101935    562.02507  0.012765174  0.011717987         1800 
 3670000   0.66528876   -8.2870974    562.59562  0.012774651  0.011713275         1715 
 3671000   0.66605097   -8.2968075    561.62992  0.012749249  0.011708562         1721 
 3672000   0.66167295   -8.3022897    562.15589  0.012757714  0.011703861         1699 
 3673000   0.66546475   -8.3038638    562.61287  0.012764608  0.011699159         1720 
 3674000   0.65816586   -8.2780611      562.862  0.012766785  0.011694464         1706 
 3675000   0.66850083   -8.2957159    561.55222   0.01273361  0.011689786         1723 
 3676000   0.65579255   -8.2982989    562.09303  0.012742406    0.0116851         1693 
 3677000   0.65907439   -8.2850254    562.58664  0.012750128  0.011680413         1767 
 3678000   0.65960511   -8.3049121    562.29116  0.012739966  0.011675734         1765 
 3679000   0.67354926   -8.2956659    561.85532  0.012726631  0.011671057         1658 
 3680000   0.67967333    -8.266353    563.37457  0.012757576  0.011666385         1642 
 3681000   0.65881506   -8.2921252    562.44771  0.012733128  0.011661714         1748 
 3682000   0.66945633   -8.2991223    560.60036  0.012687859  0.011657035         1766 
 3683000   0.65540216   -8.3163922    562.31036  0.012723105  0.011652356         1845 
 3684000   0.65986145   -8.2934991    561.84131  0.012709041  0.011647684         1734 
 3685000   0.66220939   -8.3066918    562.25258  0.012714893  0.011643019         1692 
 3686000   0.64751874    -8.310308    563.18053  0.012732423  0.011638361         1778 
 3687000   0.66650507   -8.2931417    561.99584  0.012702193  0.011633695         1644 
 3688000   0.67527288   -8.3239143    561.87005  0.012695907  0.011629019         1738 
 3689000   0.66286534   -8.2906209     562.8368  0.012714304  0.011624352         1708 
 3690000   0.67150161   -8.3020099    561.48986   0.01268044  0.011619689         1772 
 3691000    0.6555638   -8.3260063    561.48012  0.012676784  0.011615026         1758 
 3692000   0.66212213   -8.2943417    562.31461  0.012692186  0.011610365         1703 
 3693000   0.66801903   -8.3084913    560.69273  0.012652151  0.011605711         1774 
 3694000    0.6541302   -8.3281977    561.54651  0.012667987  0.011601063         1681 
 3695000   0.66519641   -8.2943713    562.46153  0.012685195  0.011596412         1720 
 3696000   0.66237114   -8.2876676     563.0597  0.012695249  0.011591763         1687 
 3697000   0.65808358   -8.3253727    561.73621  0.012661983  0.011587119         1730 
 3698000   0.66418758   -8.3032074    561.92603  0.012662836  0.011582475         1724 
 3699000   0.68751733   -8.2965527    563.21682  0.012688493  0.011577837         1697 
 3700000   0.65300519    -8.305429    562.21355  0.012662467    0.0115732         1782 
 3701000   0.67100496   -8.3178124     561.9019  0.012652029   0.01156856         1761 
 3702000   0.66659379   -8.3098761    561.78927  0.012646076  0.011563935         1742 
 3703000   0.65856045   -8.3130176    561.94067  0.012646068  0.011559304         1672 
 3704000   0.67174062   -8.3055038    560.62452  0.012613043  0.011554676         1762 
 3705000    0.6664515   -8.3221101    562.74426  0.012657316  0.011550045         1791 
 3706000   0.67180506   -8.2869801    562.52413  0.012648951  0.011545421         1812 
 3707000   0.66842592   -8.3271101    561.25658  0.012617044  0.011540792         1811 
 3708000   0.63833588   -8.3212391    561.07478  0.012609555  0.011536168         1884 
 3709000   0.65242531   -8.3088082    561.33059  0.012611903  0.011531554         1845 
 3710000   0.66505695   -8.3079343    560.72601  0.012594924  0.011526934         1838 
 3711000   0.66157355   -8.2998145    562.01289  0.012620428  0.011522327         1838 
 3712000   0.65269942   -8.3030035    561.72538  0.012610573  0.011517722         1815 
 3713000   0.66209588   -8.2961214     562.2245  0.012618379  0.011513118         1799 
 3714000   0.65456934   -8.3105627    563.10455  0.012634728   0.01150851         1715 
 3715000   0.66082201   -8.3196301    561.11417  0.012586679  0.011503901         1710 
 3716000   0.67427107   -8.3235192    563.02409  0.012626123  0.011499293         1832 
 3717000   0.65807301   -8.3190088    561.87525   0.01259697  0.011494687         1771 
 3718000   0.65043381   -8.3083667    562.09401  0.012598485   0.01149008         1747 
 3719000   0.66443629   -8.3134058    562.45524  0.012603192  0.011485482         1812 
 3720000   0.67008647   -8.3285905    561.53441  0.012579176  0.011480884         1856 
 3721000   0.67553527   -8.3292094    562.51506  0.012597757  0.011476284         1829 
 3722000   0.64772919   -8.3145044    561.51085  0.012571889  0.011471684         1798 
 3723000   0.66843436   -8.3198891    561.20854  0.012561746   0.01146709         1790 
 3724000    0.6444491   -8.3256326    562.67202  0.012591121  0.011462497         1859 
 3725000   0.65783145   -8.3214361    561.59432  0.012563631  0.011457908         1785 
 3726000   0.67083562   -8.3364775    560.50524  0.012535902  0.011453316         1761 
 3727000   0.65965322   -8.3344242    561.12263  0.012546343  0.011448723         1797 
 3728000   0.66982218   -8.3370526    560.36499  0.012526042  0.011444137         1826 
 3729000   0.64635774   -8.3578084    560.42795  0.012524089  0.011439544         1762 
 3730000   0.64942413   -8.3320938    561.17251  0.012537366  0.011434957         1875 
 3731000   0.65302334   -8.3391386    561.53547  0.012542113   0.01143037         1850 
 3732000   0.64788899   -8.3086618    561.88331  0.012546519  0.011425789         1824 
 3733000   0.67417072   -8.3074847    562.48872  0.012556673  0.011421215         1794 
 3734000   0.64780123   -8.3485721    560.97393  0.012519504  0.011416635         1746 
 3735000   0.66811134   -8.3406239    559.67062  0.012487073  0.011412049         1847 
 3736000   0.65656955   -8.3248029    561.43671  0.012523124  0.011407477         1781 
 3737000   0.64465579   -8.3098115    561.37338  0.012518361  0.011402907         1803 
 3738000   0.66025525   -8.3329185    561.56296  0.012519238  0.011398337         1804 
 3739000    0.6485889   -8.3468469    560.94695  0.012502161  0.011393762         1850 
 3740000   0.64111529   -8.3460102    561.47217  0.012510521  0.011389187         1842 
 3741000   0.65794269   -8.3375302    560.87671  0.012493912  0.011384617         1759 
 3742000   0.65095982   -8.3363055    561.50586  0.012504585  0.011380055         1827 
 3743000   0.65939307   -8.3574678    560.98979  0.012489754  0.011375489         1784 
 3744000   0.66944303   -8.3571514    561.35475  0.012494541  0.011370925         1787 
 3745000   0.64520137   -8.3530319    560.24729  0.012466562  0.011366361         1820 
 3746000   0.65180224   -8.3329208    562.11155  0.012504706  0.011361796         1867 
 3747000   0.64624209   -8.3662975    560.30926  0.012461286  0.011357226         1828 
 3748000   0.62354029   -8.3355657    561.54593  0.012485457  0.011352663         1758 
 3749000   0.64917178   -8.3583718    560.10974  0.012450203  0.011348099         1866 
 3750000   0.63741184    -8.358358     562.0486  0.012489969   0.01134354         1827 
 3751000   0.64853859   -8.3178669    561.28387   0.01246965  0.011338981         1874 
 3752000   0.65057865   -8.3162731    562.04469  0.012483224  0.011334432         1859 
 3753000   0.64982744   -8.3482227    561.17553  0.012460599  0.011329889         1925 
 3754000   0.65035901   -8.3530601    561.55461  0.012465695  0.011325345         1869 
 3755000   0.64392606   -8.3286471    561.12432  0.012452826  0.011320801         1806 
 3756000   0.64610462   -8.3429504    561.25875  0.012452493  0.011316255         1831 
 3757000   0.65823553   -8.3353911    561.83022  0.012461854  0.011311719         1824 
 3758000    0.6615163   -8.3394845    561.25006  0.012445673  0.011307181         1810 
 3759000   0.64707552   -8.3596605    560.97681  0.012436304  0.011302654         1822 
 3760000   0.63949904   -8.3363078    560.59021  0.012424428  0.011298125         1879 
 3761000    0.6603704   -8.3498635     561.0561  0.012431448  0.011293601         1894 
 3762000   0.66317591   -8.3377033    561.55609  0.012439219  0.011289074         1796 
 3763000   0.65509243   -8.3397051    561.38285  0.012432077  0.011284556         1782 
 3764000   0.64471445   -8.3457859    560.78275  0.012415488  0.011280041         1932 
 3765000   0.64238792   -8.3588118    561.06585  0.012418456  0.011275519         1816 
 3766000   0.64195977   -8.3508465    560.73147   0.01240776  0.011270999         1807 
 3767000   0.64662097   -8.3550482      561.167  0.012414101  0.011266486         1888 
 3768000   0.65251403   -8.3392302    560.12419  0.012387743  0.011261981         1880 
 3769000   0.63725712   -8.3399248    560.26171  0.012387497  0.011257467         1758 
 3770000   0.64539937   -8.3530447    561.31889  0.012407579  0.011252957         1845 
 3771000   0.64145838   -8.3483022    559.82722  0.012371325  0.011248451         1875 
 3772000   0.65059028   -8.3270381    560.20777  0.012376453  0.011243946         1777 
 3773000   0.65517896   -8.3311101    561.08594  0.012392569  0.011239445         1874 
 3774000   0.65733064   -8.3345512    562.34054  0.012416988  0.011234942         1823 
 3775000   0.64680347    -8.358645    561.17441  0.012387956  0.011230449         1872 
 3776000   0.63934279   -8.3498132    561.16891  0.012384554  0.011225951         1783 
 3777000   0.64335664   -8.3638325    560.33192  0.012362808  0.011221457         1823 
 3778000   0.64586788   -8.3787134    560.10156  0.012354455  0.011216966         1785 
 3779000   0.64507093   -8.3456058    561.88417  0.012390495  0.011212478         1872 
 3780000   0.63604367   -8.3699367    561.52197  0.012379232  0.011207993         1814 
 3781000   0.64488322   -8.3365692    561.36944  0.012372596  0.011203508         1810 
 3782000   0.64421789   -8.3322768    561.41645  0.012370361  0.011199024         1765 
 3783000   0.63146646   -8.3397124    561.62658   0.01237172  0.011194541         1774 
 3784000   0.64870977   -8.3406757    561.17108  0.012358419  0.011190066         1868 
 3785000   0.64843739   -8.3651161    560.08617  0.012331267  0.011185584         1827 
 3786000   0.66586774   -8.3859995    560.86184  0.012345084  0.011181113         1835 
 3787000   0.63641177   -8.3516775    560.77037  0.012339811   0.01117665         1868 
 3788000   0.65134878   -8.3508936    560.00975   0.01231982  0.011172184         1882 
 3789000   0.64899717    -8.347877    561.01578  0.012338695  0.011167719         1874 
 3790000   0.65012669   -8.3375547    561.66777  0.012349775  0.011163256         1929 
 3791000   0.63217335   -8.3371019    559.98456  0.012309517  0.011158794         1905 
 3792000   0.64492513    -8.375314    560.96681  0.012327857  0.011154334         1967 
 3793000   0.65891936   -8.3535824    561.59658  0.012338443  0.011149872         1901 
 3794000   0.64118005   -8.3696804    561.45448   0.01233207  0.011145418         1897 
 3795000   0.64316699   -8.3657727    560.31653  0.012303832  0.011140966         1866 
 3796000    0.6551367   -8.3787298    559.63434  0.012285615  0.011136514         1882 
 3797000   0.63983628   -8.3454926    560.83223   0.01230867  0.011132065         1834 
 3798000   0.64329157   -8.3656461    561.53496  0.012320848  0.011127619         1853 
 3799000     0.654873   -8.3560836    561.39382  0.012314509  0.011123171         1864 
 3800000   0.63365393   -8.3486725    560.84372  0.012299204  0.011118723         1891 
 3801000   0.62421212   -8.3829018    561.52915  0.012310996  0.011114278         1854 
 3802000   0.63788804   -8.3691849    561.10147  0.012298384  0.011109835         1916 
 3803000   0.64578173   -8.3720997    561.43157  0.012302384  0.011105396         1884 
 3804000   0.64291977   -8.3497436    561.56149  0.012301995  0.011100962         1792 
 3805000   0.65318398   -8.3620332    559.84793  0.012261234   0.01109652         1854 
 3806000   0.64312595   -8.3707002    559.40886  0.012248399  0.011092081         1862 
 3807000   0.63635758   -8.3345801    561.19823   0.01228435  0.011087652         1809 
 3808000   0.64140948   -8.3423216    561.25129  0.012282285  0.011083225         1914 
 3809000   0.63785907   -8.3429066    560.84595  0.012270192  0.011078796         1859 
 3810000   0.64529041   -8.3762885    559.95251   0.01224743  0.011074368         1904 
 3811000   0.64113133   -8.3514373    561.04526  0.012268111  0.011069944         1834 
 3812000   0.64281121   -8.3580683    560.14385  0.012245187  0.011065523         1851 
 3813000   0.63417838   -8.3567658    560.34855   0.01224645  0.011061104         1903 
 3814000   0.64104648     -8.36929    559.68227  0.012228681  0.011056689         1999 
 3815000   0.64866806   -8.3594259    560.93644  0.012252871  0.011052278         1917 
 3816000   0.64474007    -8.363283    560.92692  0.012249452  0.011047865         1931 
 3817000   0.64970979   -8.3721592    560.11565  0.012228531  0.011043455         1873 
 3818000   0.65271231   -8.3505443    561.22826  0.012249613  0.011039049         1933 
 3819000   0.65238125   -8.3860161    561.30486  0.012248077  0.011034641         1908 
 3820000   0.63260871   -8.3566215      560.227  0.012221357  0.011030236         1945 
 3821000   0.64484294   -8.3523099    560.69608  0.012228389  0.011025837         1910 
 3822000   0.65929237   -8.3631794    560.26376  0.012215763  0.011021436         1889 
 3823000   0.64288298   -8.3789646    559.57406  0.012197534  0.011017038         1881 
 3824000   0.62919774   -8.3565028    560.38876  0.012212098  0.011012634         1855 
 3825000   0.64738183   -8.3677569    560.44488  0.012210128  0.011008241         1903 
 3826000   0.65972936   -8.3864008    560.21913   0.01220202  0.011003846         1962 
 3827000   0.64017991   -8.3748778     560.5531  0.012206103  0.010999454         1916 
 3828000   0.64238447   -8.3553283    560.40863   0.01219977  0.010995062         1912 
 3829000   0.64962125   -8.3769311    559.87847  0.012185045  0.010990677         1870 
 3830000   0.63438612   -8.3664035    560.76809   0.01220122  0.010986288         1884 
 3831000   0.64692948   -8.3910329    559.50311  0.012170519  0.010981899         1927 
 3832000   0.64202204   -8.3662365    560.03003  0.012178802  0.010977516         1897 
 3833000   0.64724524   -8.3782165    560.81428  0.012192675  0.010973133         1909 
 3834000   0.64426881   -8.3633805     560.1754  0.012175609  0.010968762         1949 
 3835000   0.64399189    -8.387343    560.64353  0.012182606  0.010964383         1906 
 3836000   0.63640333    -8.361129    560.51436  0.012176624  0.010960012         1844 
 3837000   0.62595572   -8.3629433     560.8846  0.012181492  0.010955646         1896 
 3838000   0.65270607   -8.3659379    559.71168  0.012152851  0.010951272         1944 
 3839000   0.64389548   -8.3762687    560.88703  0.012175198  0.010946911         1895 
 3840000   0.64158786   -8.3788053    560.15504  0.012156142  0.010942549         1840 
 3841000   0.63150143   -8.3832575    559.53351  0.012139493  0.010938186         1878 
 3842000   0.62538247   -8.3734367    560.47369  0.012156726  0.010933827         1861 
 3843000   0.64382897   -8.3638895    561.38398  0.012173302   0.01092947         1843 
 3844000   0.62821603   -8.3684663    559.72532  0.012134177  0.010925113         1875 
 3845000   0.63503051   -8.3886141    559.95357  0.012135968  0.010920763         1919 
 3846000   0.62925829   -8.3774345     560.4308  0.012143153  0.010916409         1926 
 3847000   0.64742004     -8.37683    560.52721  0.012142085   0.01091206         1966 
 3848000   0.63172291   -8.3581955    561.45469  0.012159015  0.010907711         1880 
 3849000    0.6401663   -8.3540753    559.95004   0.01212328  0.010903361         1894 
 3850000   0.62462802   -8.3894247    559.33085  0.012106728  0.010899012         1898 
 3851000   0.62929642   -8.3668965    560.16976  0.012121738  0.010894669         1910 
 3852000   0.65251173   -8.3661643    559.62912  0.012106895  0.010890331         1948 
 3853000   0.62959278   -8.3871378    560.98109  0.012132993  0.010885996         1920 
 3854000   0.63058781   -8.3861496    559.32701   0.01209408  0.010881659         1929 
 3855000   0.62474922   -8.3855664    560.99561  0.012127013  0.010877325         1904 
 3856000   0.64308477   -8.3767853     560.8645  0.012121034  0.010872992         1927 
 3857000   0.62803873   -8.3520845    559.93558  0.012097822  0.010868664         1973 
 3858000   0.63781422   -8.3760822    560.08933  0.012098007  0.010864343         1974 
 3859000   0.63823599   -8.3821058    559.85958  0.012089911  0.010860017         1903 
 3860000   0.62896142    -8.380902    559.55562  0.012080216  0.010855691         1897 
 3861000   0.63153939   -8.3630083    560.48826  0.012097217  0.010851372         1916 
 3862000   0.62926429    -8.390905    560.38681  0.012091896  0.010847054         1936 
 3863000   0.63249847   -8.3887704    560.13493  0.012083332  0.010842736         1903 
 3864000   0.62302067   -8.3880278    559.02606   0.01205629  0.010838422         1861 
 3865000   0.62007672   -8.3827314    560.63863   0.01208794  0.010834107         2029 
 3866000   0.62956003    -8.390977    560.34198  0.012078418  0.010829797         1928 
 3867000   0.63448545   -8.3953577    559.88688  0.012065487  0.010825491         1859 
 3868000   0.63201789   -8.3830134    559.21982  0.012047997  0.010821182         1835 
 3869000   0.63740746   -8.3768222    559.86025  0.012058677  0.010816879         1926 
 3870000   0.63975627   -8.3963005     559.1189  0.012039597  0.010812574         1940 
 3871000   0.64027473   -8.3840853     559.8964  0.012053225  0.010808268         1931 
 3872000   0.62885333   -8.3791306    559.35572  0.012038475  0.010803971         1879 
 3873000   0.64371622   -8.3610519    560.06518  0.012050632  0.010799678         1912 
 3874000   0.62840037   -8.4127054    560.66555  0.012060436  0.010795383         1877 
 3875000   0.63858126    -8.385249    560.73878  0.012058899  0.010791086         1899 
 3876000   0.63498244   -8.3721365    559.93936    0.0120386  0.010786793         1988 
 3877000   0.62677129   -8.3805217    560.01823   0.01203719  0.010782499         1886 
 3878000   0.63604555   -8.3856384    559.40535  0.012020916  0.010778203         1969 
 3879000   0.62067032   -8.3832136    559.60897  0.012022192  0.010773912         1971 
 3880000   0.65079773   -8.3734729    559.48228  0.012016372  0.010769629         1951 
 3881000    0.6270998   -8.3865306    560.03093  0.012025057  0.010765348         1949 
 3882000   0.63215185   -8.3851425    559.39149  0.012008232  0.010761062         2007 
 3883000   0.62949733   -8.3952282    559.08375  0.011998535  0.010756776         2018 
 3884000   0.63788909   -8.3794322    559.13964  0.011996645  0.010752493         1902 
 3885000   0.62834812   -8.4105428    559.36215   0.01199833  0.010748206         1959 
 3886000   0.62199194   -8.3955369    558.96745  0.011986778  0.010743925         1960 
 3887000     0.630023   -8.3860919    559.52087  0.011995559  0.010739646         1990 
 3888000   0.62750943   -8.4026903    559.06108  0.011982619  0.010735367         1924 
 3889000   0.63824658   -8.4081859    559.22174  0.011982981  0.010731097         1973 
 3890000   0.64359089   -8.3832495    560.33978  0.012003851  0.010726828         1993 
 3891000   0.63873424   -8.3866558    558.90142  0.011969961  0.010722558         1985 
 3892000   0.64538872   -8.3914883    559.95849  0.011989519  0.010718295         2014 
 3893000   0.62969733   -8.4006728    559.53217  0.011977313  0.010714034         2006 
 3894000   0.61812123   -8.3889877    559.35942  0.011970541  0.010709768         1934 
 3895000    0.6198066   -8.3818196    560.09201  0.011983141  0.010705506         2000 
 3896000   0.63261653   -8.3916363    559.35429  0.011964286  0.010701246         1980 
 3897000   0.61438336    -8.391545     559.1368  0.011956565  0.010696988         2023 
 3898000   0.63896746    -8.408827    558.49977  0.011939879  0.010692733         1983 
 3899000   0.62776335   -8.3963582    560.46935  0.011978912  0.010688484         2106 
 3900000   0.63416512   -8.4043644    559.61766  0.011957642  0.010684234         1950 
 3901000   0.62913695   -8.3768813    560.25958   0.01196829  0.010679986         2012 
 3902000   0.62498253   -8.4020869    558.65428  0.011930939   0.01067574         1894 
 3903000   0.63499977     -8.37258    560.19398  0.011960756  0.010671501         1904 
 3904000   0.62283792   -8.4079173    559.09664  0.011934269  0.010667262         2005 
 3905000   0.62718836   -8.4006691    560.75018    0.0119665  0.010663019         1917 
 3906000   0.63500799   -8.3976117    559.00965  0.011926303  0.010658783         1991 
 3907000   0.63083501   -8.3908123    560.67754  0.011958825  0.010654552         1972 
 3908000    0.6377081   -8.4129418    560.03371  0.011942036  0.010650322         2021 
 3909000   0.62060344   -8.4035648     558.8726  0.011914228  0.010646092         2097 
 3910000   0.62184455   -8.3827717    559.97919  0.011934765  0.010641864         2021 
 3911000   0.63828474   -8.3857133    559.25801  0.011916347  0.010637635         1934 
 3912000   0.63411495    -8.389061    559.49121  0.011918269  0.010633407         2005 
 3913000   0.63099844   -8.3987988    558.90609  0.011902762  0.010629185         1978 
 3914000   0.63795451   -8.3886424    559.99066  0.011922813  0.010624963         1963 
 3915000   0.62326453   -8.3999205     558.9337  0.011897269  0.010620744         1999 
 3916000   0.62725604   -8.4019344    559.45177  0.011905256   0.01061653         1975 
 3917000   0.62215654   -8.4072114    559.98455  0.011913551  0.010612309         1897 
 3918000   0.62644695    -8.402536    560.04927  0.011911887  0.010608095         2062 
 3919000   0.60371778   -8.3870378    559.96926  0.011907146  0.010603881         1985 
 3920000   0.62041024    -8.402535    558.56942   0.01187435  0.010599673         1999 
 3921000   0.62388277   -8.4060667    558.97213   0.01187988  0.010595463         1986 
 3922000   0.61793056    -8.404737    559.39943   0.01188593   0.01059126         1966 
 3923000   0.63323665   -8.4172345    558.68239  0.011867669  0.010587052         2023 
 3924000   0.62654512   -8.4398281    557.82377   0.01184641  0.010582845         2052 
 3925000    0.6229951   -8.4145521    559.28277  0.011874369  0.010578642         2082 
 3926000   0.63352284   -8.4046517    558.67606  0.011858466  0.010574442         2062 
 3927000   0.61748857    -8.409559    558.30297  0.011847529  0.010570247         1975 
 3928000    0.6254996   -8.4133549     559.6418  0.011872917  0.010566058         2079 
 3929000   0.63211765   -8.4255179    559.12172  0.011858864  0.010561866         2052 
 3930000   0.63487221   -8.3998783    558.95089  0.011852224  0.010557677         2009 
 3931000   0.62079968   -8.4112656    559.56623  0.011862254  0.010553489         2042 
 3932000   0.62822177   -8.3985328    559.84534  0.011865152  0.010549301         1976 
 3933000   0.63306913   -8.4278704    558.93029  0.011842747  0.010545115         1956 
 3934000   0.62924813   -8.4052331    558.98829  0.011840965  0.010540934         1952 
 3935000   0.62187096   -8.4183061     560.5508  0.011871046  0.010536756         1958 
 3936000    0.6163862   -8.4014142    559.47137  0.011845176  0.010532577         2055 
 3937000   0.62148869    -8.414613    558.88024  0.011829655  0.010528398         2038 
 3938000   0.64044024   -8.4072927    558.58035  0.011820305  0.010524217         1975 
 3939000   0.62202153   -8.4028474    559.86914   0.01184457  0.010520046         2011 
 3940000   0.60519505    -8.414407    559.40991  0.011831851  0.010515874         2015 
 3941000   0.61998818   -8.3939575    558.92306  0.011818554  0.010511705         2048 
 3942000   0.61971832   -8.4090544    558.14704  0.011799151  0.010507534         1991 
 3943000   0.62279408   -8.4113793    560.04944  0.011836365   0.01050337         1992 
 3944000    0.6236702   -8.4062561    558.04673  0.011791048  0.010499211         2046 
 3945000   0.61371515   -8.4007809    558.87649  0.011805587  0.010495056         2057 
 3946000   0.61788759   -8.4017491    559.74996  0.011821041  0.010490897         2014 
 3947000   0.63324404   -8.3991544    558.92339  0.011800595  0.010486744         2060 
 3948000    0.5940004   -8.4103018    559.44319  0.011808578   0.01048259         2103 
 3949000   0.63438737   -8.4173141    559.61395  0.011809191  0.010478435         1968 
 3950000   0.62482797   -8.3982057    559.09626   0.01179528  0.010474284         2080 
 3951000   0.62373428   -8.3957129    559.79161  0.011806961   0.01047014         2004 
 3952000   0.60384924   -8.4271021    558.51415  0.011777036  0.010465992         2055 
 3953000   0.62034454   -8.4095398    559.20966  0.011788719  0.010461847         2034 
 3954000   0.62412662   -8.4190357    558.72177  0.011775455  0.010457707         1962 
 3955000   0.62194157   -8.4261776     559.3021  0.011784705  0.010453563         2105 
 3956000   0.62342393   -8.4424434    558.06704  0.011755709  0.010449425         2087 
 3957000   0.62936098   -8.4248907    558.38749  0.011759487  0.010445288         1998 
 3958000   0.61770434    -8.420599    559.18507  0.011773309  0.010441153         1971 
 3959000   0.62055759   -8.4102999    559.73234  0.011781854  0.010437021         2110 
 3960000    0.6274517   -8.4296461    557.12538  0.011724019  0.010432886         2110 
 3961000   0.63115696   -8.4271433     559.3996  0.011768905  0.010428755         2038 
 3962000   0.60429287   -8.4046145    558.20996  0.011740913  0.010424629         1950 
 3963000   0.63134325   -8.4065933    558.63095  0.011746803    0.0104205         2031 
 3964000    0.6135609   -8.4398685    559.48097  0.011761709  0.010416374         1996 
 3965000   0.64531213   -8.4217878     558.5422  0.011739012  0.010412253         1992 
 3966000   0.61300453   -8.4267682    557.94776  0.011723562  0.010408133         2032 
 3967000   0.60737273   -8.4247157    558.03645   0.01172247  0.010404013         2042 
 3968000   0.61668949   -8.4235956    558.82168  0.011736006  0.010399901         2022 
 3969000   0.61795204   -8.4201746    557.68263  0.011709134  0.010395782         2047 
 3970000   0.61211335   -8.4070349    558.93181  0.011732406  0.010391667         1998 
 3971000   0.62294861   -8.4178215    559.35284  0.011738287  0.010387559         1971 
 3972000   0.61666451   -8.4220283    559.41582  0.011736653  0.010383446         2047 
 3973000    0.6069858   -8.4238138    557.59345  0.011695475  0.010379339         2071 
 3974000   0.62471545    -8.420828    558.47558   0.01171103  0.010375232         2013 
 3975000    0.6177897    -8.424704    558.75211  0.011713881  0.010371136         2036 
 3976000   0.61908409   -8.4336528    558.35548  0.011702622  0.010367038         2032 
 3977000   0.61343219   -8.4167101    559.74968  0.011728893  0.010362941         2031 
 3978000   0.59269906   -8.4346616    559.15076  0.011713398   0.01035884         2082 
 3979000   0.60928766     -8.43581      558.035  0.011687086  0.010354747         2035 
 3980000    0.6073544    -8.424939    558.83164   0.01170083  0.010350656         2005 
 3981000   0.61365882   -8.4236092    557.97335  0.011679924  0.010346568         2102 
 3982000   0.62145526   -8.4262285    558.81985  0.011694706  0.010342482         2108 
 3983000   0.61201999   -8.4147867    558.65308  0.011688281    0.0103384         2120 
 3984000   0.61406223   -8.4015676    559.17845  0.011696336  0.010334319         2080 
 3985000   0.61005645   -8.4284716     557.7401  0.011663323  0.010330238         1993 
 3986000   0.61485749   -8.4299805    559.50904  0.011697379  0.010326157         2006 
 3987000   0.60525601   -8.4288224    558.68872  0.011677299  0.010322078         2031 
 3988000    0.6123103   -8.4322594    557.55755  0.011650735  0.010318001         2052 
 3989000   0.61074027   -8.4381594    559.52008  0.011688813  0.010313924         2082 
 3990000    0.5985589   -8.4323339    557.63447  0.011646501  0.010309853         2004 
 3991000   0.62337327   -8.4229972    558.68442  0.011665506  0.010305786         2077 
 3992000   0.60681127   -8.3944177     560.0131   0.01169032  0.010301718         1990 
 3993000   0.61696662   -8.4230311    559.30455  0.011672605  0.010297658         2037 
 3994000   0.61797521    -8.454559    558.61529  0.011655301  0.010293596         2077 
 3995000   0.62243357   -8.4263256    557.97839  0.011639099  0.010289539         2016 
 3996000   0.60465963   -8.4372824    557.88667  0.011634273  0.010285484         2089 
 3997000    0.6267495   -8.4110132    558.51029  0.011644364  0.010281424         1997 
 3998000   0.60982857   -8.4011566    559.17718  0.011655352  0.010277372         1972 
 3999000   0.61798728   -8.4307943    559.13658  0.011651592  0.010273321         2055 
 4000000    0.6167971   -8.4290266    559.22097  0.011650437  0.010269268         2017 
 4001000   0.61952341   -8.4293384     557.9286  0.011620607   0.01026522         2060 
 4002000   0.60851791   -8.4430732    557.22835  0.011603122  0.010261169         2118 
 4003000   0.60772503   -8.4292826    557.09668  0.011597483  0.010257118         2048 
 4004000   0.60256434   -8.4250532    558.82821  0.011630624  0.010253074         2052 
 4005000   0.60477392   -8.4271919    558.01052  0.011610706   0.01024903         2131 
 4006000   0.61558907   -8.4285548    558.37864  0.011615465  0.010244987         2083 
 4007000   0.61340277   -8.4244013    558.86714  0.011622726  0.010240944         2103 
 4008000   0.60385284   -8.4132426    558.18175  0.011605575  0.010236905         2069 
 4009000   0.60160294   -8.4229527    558.49365  0.011609164  0.010232868         2089 
 4010000   0.61567596   -8.4272655    557.64208  0.011588572  0.010228839         2101 
 4011000   0.61525633   -8.4326263    558.26157  0.011598553  0.010224808         2094 
 4012000   0.59681154   -8.4243414    558.28626  0.011596175  0.010220775         2116 
 4013000   0.61906811   -8.4322993    558.74065  0.011602721  0.010216748         2009 
 4014000   0.61166029   -8.4628363    557.52092  0.011574508  0.010212726         2107 
 4015000   0.60659723   -8.4173031    558.87399  0.011599709  0.010208698         2077 
 4016000   0.61701083   -8.4450784    558.47439  0.011588529  0.010204675         2087 
 4017000   0.59472699   -8.4335862    559.46734  0.011606243  0.010200655         2124 
 4018000   0.60921559   -8.4666624    558.55037  0.011584337   0.01019663         2092 
 4019000   0.60902634   -8.4345995    558.21998  0.011574604  0.010192613         2021 
 4020000   0.59598833   -8.4569344     558.3164  0.011573723  0.010188595         2078 
 4021000   0.60801028   -8.4441005    557.96412  0.011563544  0.010184581         2084 
 4022000    0.6031639   -8.4320813    558.36521  0.011568979  0.010180574         2054 
 4023000   0.60870901   -8.4149984    559.10545  0.011581437  0.010176569         2095 
 4024000   0.60601353   -8.4206183    558.96221  0.011575593  0.010172568         1997 
 4025000   0.62060728   -8.4245399    558.05685  0.011553972   0.01016856         2029 
 4026000   0.61168932   -8.4270481    557.94811  0.011548851  0.010164561         2079 
 4027000   0.60405585   -8.4272648     557.3739  0.011534101  0.010160566         2009 
 4028000   0.62080903   -8.4239251    558.47228  0.011553961  0.010156569         2078 
 4029000   0.61202213   -8.4356157    557.90905  0.011539444  0.010152574         2076 
 4030000   0.61043486   -8.4204596    557.53069  0.011528757   0.01014858         2007 
 4031000   0.60886916   -8.4460532    557.29143  0.011520951  0.010144586         2068 
 4032000   0.60678188   -8.4455142    559.50445  0.011563832  0.010140599         2138 
 4033000   0.60972327   -8.4385107    558.15216  0.011533023  0.010136609         2052 
 4034000   0.61228203   -8.4180309    557.79363  0.011522757  0.010132624         2098 
 4035000   0.59865651   -8.4382197    559.10602  0.011547006  0.010128641         2035 
 4036000   0.60445352   -8.4182425    557.88619  0.011518958  0.010124662         2061 
 4037000   0.60675827   -8.4580615    558.50553   0.01152889   0.01012068         2058 
 4038000   0.60586807   -8.4099558     557.6715  0.011508822  0.010116697         2115 
 4039000   0.61171529   -8.4319289    558.27092   0.01151834   0.01011272         2053 
 4040000   0.59065028   -8.4158346    559.57378  0.011542363   0.01010874         2045 
 4041000   0.59445385   -8.4402399    558.27466  0.011512717  0.010104764         2016 
 4042000   0.60298318   -8.4405682    558.38162  0.011512074  0.010100792         2039 
 4043000   0.61698774   -8.4381175     557.5671  0.011492438  0.010096824         2068 
 4044000   0.61981435   -8.4338583    558.48998  0.011508613  0.010092857         2097 
 4045000   0.60721309   -8.4345867    557.36657  0.011482624  0.010088891         2033 
 4046000   0.60829238   -8.4427386    557.53172  0.011483188  0.010084929         2121 
 4047000   0.59215612   -8.4347563    558.09417  0.011491932  0.010080973         2061 
 4048000    0.6129946   -8.4407518    558.03714  0.011487919  0.010077016         2093 
 4049000   0.60793061   -8.4468708    557.55847   0.01147523  0.010073059         2015 
 4050000   0.61092789   -8.4443395    557.59058  0.011473057  0.010069106         1969 
 4051000   0.59938951   -8.4180786    557.56166   0.01146963  0.010065149         2054 
 4052000   0.60663712   -8.4385501    558.06795  0.011477212  0.010061204         2015 
 4053000   0.60516144   -8.4502208    558.57627  0.011484832  0.010057256         2030 
 4054000   0.60419261   -8.4397802    559.15034  0.011493799  0.010053306         2092 
 4055000   0.62397541   -8.4335929    558.14395  0.011470282  0.010049359         1977 
 4056000   0.60533392   -8.4582067    558.12953  0.011467158  0.010045413         1981 
 4057000   0.60340307    -8.431247    558.43833  0.011470675  0.010041473         2110 
 4058000   0.60861355   -8.4605806    558.97549  0.011478879  0.010037537         2079 
 4059000   0.59977585    -8.432334    557.92206  0.011454423  0.010033595         1993 
 4060000   0.59673904   -8.4511866    557.66445  0.011446315  0.010029662         2061 
 4061000   0.59828513   -8.4570983    557.64979  0.011443195  0.010025727         2062 
 4062000   0.61460837   -8.4444201     558.2497  0.011452685  0.010021799         1989 
 4063000   0.60169524    -8.463288    557.25239  0.011429412  0.010017869         2045 
 4064000   0.59835357   -8.4358953    558.92805  0.011460959  0.010013939         2051 
 4065000   0.59956774   -8.4519625     558.1695  0.011442589   0.01001001         1960 
 4066000   0.59577383   -8.4393862    557.81814  0.011432574  0.010006088         2109 
 4067000   0.59719314   -8.4138904    559.34522  0.011461053  0.010002167         2052 
 4068000   0.59915953   -8.4419533    556.88678  0.011407874 0.0099982441         2038 
 4069000   0.60276221    -8.436046     558.2391  0.011432766 0.0099943222         1963 
 4070000   0.60058283   -8.4404002    557.69337  0.011418783 0.0099904062         1973 
 4071000    0.5997112     -8.44688    559.33483  0.011449579 0.0099864936         2011 
 4072000   0.58652005   -8.4456649    557.92476   0.01141791 0.0099825827         2037 
 4073000    0.5924555     -8.44006    559.03871  0.011437898 0.0099786717         2047 
 4074000   0.57625234   -8.4294144    558.35897  0.011421187 0.0099747575         2032 
 4075000   0.60507854   -8.4542675    558.15183  0.011414148 0.0099708481         1989 
 4076000   0.60927242   -8.4459019    557.71671  0.011402452  0.009966936         2009 
 4077000   0.59506533   -8.4679754    556.87982  0.011382549  0.009963026         2097 
 4078000   0.59084427   -8.4638091    557.18933  0.011386082 0.0099591232         1959 
 4079000   0.60329477   -8.4651739    558.14085  0.011402731 0.0099552178         1987 
 4080000   0.60757017   -8.4519623    556.69734  0.011370452 0.0099513178         2093 
 4081000   0.59227786   -8.4321049    557.88011  0.011391818 0.0099474224         2045 
 4082000   0.58977999   -8.4421686    558.52701  0.011402234 0.0099435251         2078 
 4083000   0.60494332    -8.439081    557.83519  0.011385321 0.0099396283         2064 
 4084000   0.59199849   -8.4539627    558.50866  0.011396275 0.0099357375         2016 
 4085000   0.60496539   -8.4494641    558.54078  0.011394141 0.0099318498         2060 
 4086000    0.6127094   -8.4485028    557.24752  0.011364976 0.0099279606         1901 
 4087000     0.595204   -8.4456979    558.68373   0.01139148 0.0099240728         2007 
 4088000   0.59430329   -8.4646675     558.3818  0.011382538 0.0099201905         1932 
 4089000   0.59360248    -8.436573     558.3967  0.011380058 0.0099163107         2035 
 4090000    0.5904783   -8.4369866    558.51551  0.011379697 0.0099124309         2019 
 4091000   0.58347502   -8.4649848    557.29068  0.011351965 0.0099085513         2050 
 4092000   0.60957943   -8.4502341      558.297  0.011369685 0.0099046719         2004 
 4093000   0.59548342   -8.4362254    557.07399  0.011342007 0.0099007941         2022 
 4094000   0.60759241   -8.4618228    557.49786  0.011347864 0.0098969209         2011 
 4095000   0.59336964   -8.4411359    557.41404  0.011343387 0.0098930482         2006 
 4096000   0.60245327   -8.4526304    558.23162  0.011357251  0.009889178         2016 
 4097000   0.59557517   -8.4567355    557.30028  0.011335536 0.0098853097         1997 
 4098000   0.58821049   -8.4750633    556.92156  0.011325068 0.0098814411         2028 
 4099000   0.58535706   -8.4511727     557.2936  0.011329869 0.0098775699         2066 
 4100000   0.58181681   -8.4659227    557.37127  0.011328684 0.0098737071         2049 
 4101000   0.59187115   -8.4609836    557.48792  0.011328292 0.0098698469         2058 
 4102000   0.59850804    -8.448347    557.67506  0.011329332 0.0098659897         2035 
 4103000   0.60096878   -8.4541432    558.03862  0.011333955 0.0098621353         2072 
 4104000   0.60852172   -8.4465903    558.29788  0.011336458 0.0098582828         2094 
 4105000   0.59574351   -8.4173042    559.07506  0.011349473 0.0098544335         1969 
 4106000   0.58668824   -8.4394478    557.06326  0.011305879 0.0098505859         2120 
 4107000   0.59490602   -8.4512311    557.39923  0.011309943 0.0098467373         2014 
 4108000   0.59267999   -8.4384706    557.41639  0.011307538 0.0098428874         2024 
 4109000   0.57455071   -8.4603612    558.34455   0.01132361  0.009839043         2004 
 4110000   0.60305582   -8.4617204    558.19024  0.011317726 0.0098351996         2126 
 4111000   0.58807534   -8.4536348    557.65331  0.011304089 0.0098313611         1999 
 4112000   0.59667582    -8.459362    558.04946  0.011309368 0.0098275257         1990 
 4113000   0.59009027   -8.4513445    557.77114  0.011300979 0.0098236907         1974 
 4114000   0.60589878   -8.4686058    557.77693   0.01129835 0.0098198571         2040 
 4115000   0.58008007   -8.4519412    557.00818  0.011280036 0.0098160242         2055 
 4116000   0.59547993   -8.4605284    557.66325  0.011290558 0.0098121921         2002 
 4117000   0.59756096   -8.4584117    558.35531  0.011301824 0.0098083673         2093 
 4118000   0.59035626   -8.4423618    556.83365  0.011268287 0.0098045416         2030 
 4119000   0.59133305   -8.4552595     556.9394   0.01126769 0.0098007166         2160 
 4120000    0.5956075   -8.4680207    557.73561   0.01128106 0.0097968959         2038 
 4121000   0.59480682   -8.4725499     556.4346  0.011252014 0.0097930766         2032 
 4122000   0.59813644    -8.447976    557.60465  0.011272939 0.0097892545         2092 
 4123000   0.60199591   -8.4636579    557.76901  0.011273527 0.0097854392         2045 
 4124000   0.58712092   -8.4498301    557.82006  0.011271825 0.0097816234         2117 
 4125000   0.59121891   -8.4580612    557.12799  0.011255111  0.009777812         2049 
 4126000   0.59519949   -8.4526625     557.8525  0.011267016 0.0097740014         2020 
 4127000   0.59284252   -8.4502759    557.16892  0.011250483 0.0097701953         2066 
 4128000   0.59103248   -8.4503733    557.51926   0.01125483 0.0097663855         2065 
 4129000   0.59537749   -8.4592303     558.3115  0.011268094 0.0097625805         2058 
 4130000   0.58983127   -8.4499923     556.8999  0.011236882 0.0097587766         1977 
 4131000    0.5923229   -8.4644411    557.34973  0.011243237 0.0097549751         2086 
 4132000   0.59359551   -8.4397784    556.43829  0.011222134 0.0097511744         2033 
 4133000   0.59844469   -8.4591585    558.06641  0.011252246 0.0097473745         2045 
 4134000   0.59221703   -8.4617046    558.02678  0.011248726 0.0097435804         2115 
 4135000   0.58857601   -8.4731668    558.16642   0.01124882 0.0097397845         2096 
 4136000    0.5901438   -8.4410717    556.44396  0.011211395 0.0097359891         2023 
 4137000   0.59841457   -8.4724922    556.96985  0.011219278  0.009732198         2074 
 4138000   0.58898957   -8.4610955    557.90466  0.011235393 0.0097284099         2031 
 4139000   0.60333853   -8.4625666    557.30474    0.0112206 0.0097246231         2080 
 4140000   0.60383332   -8.4696223    557.48278  0.011221473 0.0097208344         2006 
 4141000   0.59405868   -8.4532391    556.82417  0.011205509 0.0097170515         2027 
 4142000   0.59435475   -8.4541758    557.26383   0.01121165 0.0097132689         2173 
 4143000   0.59076251    -8.470389     556.9081  0.011201788 0.0097094906         2030 
 4144000   0.58998536   -8.4529327    556.35072  0.011187876  0.009705717         2082 
 4145000   0.58316503   -8.4717911    557.15713   0.01120139  0.009701939         2079 
 4146000   0.57381783   -8.4553016    557.06974  0.011196932 0.0096981655         2045 
 4147000   0.58406882   -8.4785203    556.59959  0.011184784 0.0096943965         2026 
 4148000   0.58325145   -8.4661716    556.67355  0.011183573 0.0096906224         2024 
 4149000   0.58586693   -8.4681321    557.20256  0.011191503 0.0096868532         2016 
 4150000   0.57322135   -8.4670225    557.27823  0.011190326 0.0096830842         2121 
 4151000   0.58899497    -8.477536    557.96639  0.011201445 0.0096793179         2033 
 4152000    0.5805977   -8.4725327    557.63929  0.011192182 0.0096755553         1981 
 4153000   0.58948923   -8.4492673    558.88041  0.011214391 0.0096717918         2010 
 4154000   0.58002281    -8.472005     557.6226  0.011186459 0.0096680351         2005 
 4155000     0.594199    -8.467816    558.23025  0.011195954 0.0096642761         2116 
 4156000   0.59304256    -8.469497    557.83648  0.011185364 0.0096605202         2065 
 4157000   0.58300249    -8.455214    557.66307  0.011179197 0.0096567648         2055 
 4158000   0.57647288    -8.483454    557.50707  0.011173382 0.0096530111         2074 
 4159000   0.57827275   -8.4701955    556.60442  0.011152609 0.0096492619         2059 
 4160000   0.57615472   -8.4868315    556.93279  0.011156506 0.0096455138         2023 
 4161000   0.58415418   -8.4588943    557.00509  0.011155273  0.009641765         1982 
 4162000   0.58893565   -8.4833599    557.53883  0.011163279 0.0096380234         2048 
 4163000   0.59673869   -8.4631471    557.71202  0.011164065 0.0096342801         2062 
 4164000   0.58735966   -8.4533558    557.61613  0.011159465 0.0096305385         1967 
 4165000   0.58086622   -8.4654841    557.00352  0.011144528 0.0096267973         2137 
 4166000   0.58744671   -8.4734723    557.19475  0.011145678 0.0096230628         2111 
 4167000    0.5890971   -8.4688882     557.4815  0.011148738 0.0096193255         2007 
 4168000   0.58472294   -8.4598603    557.53217  0.011147076  0.009615592         2097 
 4169000   0.59034498   -8.4804846    557.89104  0.011151576 0.0096118611         2062 
 4170000    0.5859258   -8.4671739    558.10941  0.011153266 0.0096081308         2065 
 4171000   0.59086313   -8.4923243    556.69978  0.011122428 0.0096044024         2074 
 4172000   0.58037544   -8.4564227    557.42132  0.011134175 0.0096006785         2031 
 4173000   0.58636071   -8.4776811     558.0415  0.011143891 0.0095969531         2034 
 4174000   0.58493806   -8.4745477    556.82216  0.011116878 0.0095932343         1975 
 4175000   0.57646241    -8.477684    557.05857  0.011118934 0.0095895118         1993 
 4176000   0.58374995   -8.4707534     557.0209  0.011115519 0.0095857919         2029 
 4177000   0.57562324   -8.4826585    557.36883    0.0111198 0.0095820779         2021 
 4178000   0.58040535   -8.4667392    558.27325  0.011135177 0.0095783617         2116 
 4179000   0.57133946   -8.4683591    556.76294  0.011102396 0.0095746494         2011 
 4180000   0.56943033   -8.4824035    556.84684  0.011101412 0.0095709394         2110 
 4181000   0.59099084   -8.4832064    557.06509  0.011103107 0.0095672305         2024 
 4182000   0.58169642    -8.484606    556.75599  0.011094293 0.0095635298         2099 
 4183000   0.57440373   -8.4790172    557.03289  0.011097157  0.009559828         2048 
 4184000   0.58807277   -8.4745717    556.69128  0.011087701  0.009556124         2077 
 4185000   0.58884831   -8.4856839    556.95463  0.011090295 0.0095524225         2056 
 4186000   0.57452373   -8.4802624     557.0747  0.011090036 0.0095487185         2124 
 4187000   0.57137887   -8.4702395    556.13041  0.011068594 0.0095450159         2139 
 4188000   0.56234741   -8.4751135    555.97086  0.011062776 0.0095413201         2125 
 4189000   0.58965828   -8.4801148    557.10245  0.011082646 0.0095376195         2104 
 4190000   0.57478757      -8.4737    557.52644  0.011088434 0.0095339291         2106 
 4191000   0.57640106   -8.4751329    557.22274  0.011079749 0.0095302355         2032 
 4192000   0.56883628   -8.4638748    557.69463  0.011086487 0.0095265484         2132 
 4193000   0.57460591   -8.4667526    557.37342  0.011077459 0.0095228574         2037 
 4194000   0.59911909   -8.4812621    556.65915  0.011060625 0.0095191746         2032 
 4195000   0.57258814   -8.4670468    556.64378  0.011057683 0.0095154897         2000 
 4196000   0.58426115   -8.4600501    557.35033   0.01106908 0.0095118068         1998 
 4197000   0.58837647   -8.4841429    557.05339  0.011060547 0.0095081259         2098 
 4198000   0.58678332   -8.4627661    557.18585  0.011060542 0.0095044477         2055 
 4199000   0.57325401   -8.4864756    556.84702  0.011051183 0.0095007722         2054 
 4200000   0.58095724   -8.5011441    556.69714  0.011045578 0.0094970955         2086 
 4201000   0.58936088   -8.4950702    557.76226  0.011064077 0.0094934206         1995 
 4202000   0.56927605   -8.4910609    557.37588  0.011053781 0.0094897461         2104 
 4203000   0.57098623   -8.4817814    557.19587  0.011047583 0.0094860738         2091 
 4204000   0.57299051   -8.4711781    556.72724  0.011035665 0.0094824058         2075 
 4205000   0.58315871    -8.476179    557.63616  0.011051054 0.0094787407         1990 
 4206000   0.57993117   -8.4828819    556.54623  0.011026831 0.0094750737         2106 
 4207000   0.57797699   -8.4672555    557.80221  0.011049089 0.0094714113         1994 
 4208000   0.57802874   -8.4953334    556.59243  0.011022505 0.0094677517         2129 
 4209000   0.58269116   -8.4797838    556.98846  0.011027727 0.0094640925         2090 
 4210000   0.56400535   -8.4748993     557.0598   0.01102652 0.0094604365         2122 
 4211000   0.57263242   -8.4674686    557.71836  0.011036934   0.00945678         2079 
 4212000   0.58350985   -8.4675879    556.30194   0.01100629 0.0094531212         2116 
 4213000   0.56679514    -8.494875    557.24274  0.011022287 0.0094494684         2054 
 4214000   0.58092966   -8.4813773    556.57224  0.011006412  0.009445816         2045 
 4215000   0.56404343   -8.4925025    556.04981  0.010993472 0.0094421665         2077 
 4216000    0.5799457   -8.4795817    556.24246  0.010994672 0.0094385156         2110 
 4217000   0.58521826   -8.4829765    556.76906  0.011002471 0.0094348714         2034 
 4218000    0.5759932   -8.4837474    557.05159  0.011005445 0.0094312234         2058 
 4219000   0.56765061   -8.4688976     557.1713  0.011005201  0.009427578         2083 
 4220000    0.5838645   -8.4838645    557.46046  0.011008303 0.0094239391         2074 
 4221000   0.58650751   -8.5003473    556.29039  0.010982595 0.0094202997         2043 
 4222000   0.57598804   -8.4819483    557.52272  0.011004317 0.0094166645         2109 
 4223000   0.56777977   -8.4982059    556.63718  0.010984237 0.0094130262         2130 
 4224000   0.57152414   -8.4810942    557.41162  0.010996915 0.0094093912         2056 
 4225000   0.58290185    -8.486318    557.42794  0.010994634 0.0094057587         2041 
 4226000   0.57342531   -8.4900501    556.82858  0.010980213 0.0094021316         2072 
 4227000   0.58660619   -8.4699988     557.4149  0.010989175 0.0093985012         2004 
 4228000   0.57385208    -8.477506    556.66706  0.010971836  0.009394874         2069 
 4229000   0.57868281   -8.4859045    556.51172   0.01096618 0.0093912468         2138 
 4230000   0.58272614   -8.4768072    556.34411  0.010960286 0.0093876253         2024 
 4231000   0.57847331   -8.5007059    556.87378  0.010968128 0.0093840024         2138 
 4232000   0.55825893   -8.5082945    556.75292  0.010963156 0.0093803811         2165 
 4233000   0.57725351   -8.4947294    557.14019   0.01096819 0.0093767618         2087 
 4234000   0.58169059    -8.491471    557.90785  0.010980709 0.0093731452         2130 
 4235000   0.57474232   -8.4980202    556.54362  0.010951272 0.0093695313         2075 
 4236000   0.55931963   -8.4852848    555.74813  0.010933037  0.009365921         2076 
 4237000   0.58230975   -8.4826573    556.63646  0.010947928 0.0093623053         2080 
 4238000   0.58128535   -8.4669364    556.71987  0.010946985 0.0093586945         2095 
 4239000   0.57479019    -8.493918    557.51855  0.010960104 0.0093550895         2138 
 4240000   0.56934223   -8.4992439    555.93988  0.010926491 0.0093514819         2117 
 4241000   0.56924288   -8.4841085    555.74107  0.010920008 0.0093478783         2097 
 4242000   0.56797879   -8.4855597    557.02515   0.01094266 0.0093442756         2053 
 4243000   0.57334415   -8.4885935    556.71198   0.01093393 0.0093406733         2103 
 4244000   0.57668708   -8.4820048    556.94805  0.010935989  0.009337077         2095 
 4245000   0.56339455   -8.4918365    555.87477  0.010912343 0.0093334836         2049 
 4246000   0.56230364   -8.5040524    557.00003  0.010931858 0.0093298894         2046 
 4247000   0.58498741   -8.5005316    557.37311  0.010936604 0.0093262938         2019 
 4248000   0.57554915   -8.4931771    555.73165  0.010901829 0.0093227038         2087 
 4249000   0.57338082   -8.4959305    555.63012  0.010897272 0.0093191164         2012 
 4250000   0.56767988   -8.5105676    556.23909  0.010906649 0.0093155309         2101 
 4251000   0.56607966   -8.4809542    555.88833  0.010897207 0.0093119415         1989 
 4252000    0.5786355   -8.5000945    556.51837  0.010906992 0.0093083604         2031 
 4253000    0.5811684    -8.514748    556.51967  0.010904453 0.0093047806         2082 
 4254000   0.55838526   -8.4983382    556.06874  0.010893056 0.0093011975         2073 
 4255000   0.57588854   -8.4820862    557.14147  0.010911505 0.0092976188         2084 
 4256000   0.57212055   -8.4826544    557.34061  0.010912841 0.0092940426         2076 
 4257000   0.57755798    -8.495842     557.2107  0.010907734 0.0092904708         2016 
 4258000   0.56967741   -8.4652838    557.32028  0.010907317 0.0092868983         2040 
 4259000   0.56612331   -8.4997613    557.82785  0.010914688 0.0092833284         2001 
 4260000   0.56898593   -8.4844994    556.66335  0.010889346 0.0092797581         2074 
 4261000   0.57123837   -8.4780575    556.72118  0.010887921 0.0092761897         2103 
 4262000   0.57036105   -8.4596648    557.29606  0.010896607 0.0092726234         2072 
 4263000   0.56859743   -8.5147362     557.1722  0.010891629 0.0092690593         2085 
 4264000   0.57179015   -8.4905638    556.89962  0.010883748 0.0092654955         2095 
 4265000   0.58530508   -8.5121141    556.41721   0.01087177 0.0092619336         2145 
 4266000   0.55804067   -8.4893312    556.61418   0.01087307 0.0092583725         2162 
 4267000   0.56502179   -8.5066995    557.36983  0.010885279 0.0092548174         2142 
 4268000   0.55609822   -8.4707724    556.62989  0.010868281  0.009251262         2062 
 4269000   0.57203477   -8.5120907    556.33984  0.010860073 0.0092477095         2058 
 4270000    0.5642033   -8.5007169    556.75795   0.01086569 0.0092441557         2069 
 4271000   0.57714265   -8.5063464    556.25256  0.010853285 0.0092406061         2016 
 4272000   0.57431752   -8.4944971    556.38782  0.010853383 0.0092370561         2082 
 4273000   0.58161993    -8.497171    557.24925  0.010867643 0.0092335063         2067 
 4274000   0.56496624   -8.4913353    556.65484   0.01085351 0.0092299619         2080 
 4275000   0.56685141   -8.5063197    556.61485  0.010850192 0.0092264186         2083 
 4276000   0.56439161   -8.5097615    555.83017  0.010832362 0.0092228786         2108 
 4277000   0.55765139   -8.4877691     556.3201  0.010839375 0.0092193363         2059 
 4278000    0.5727319   -8.5028538    555.79131  0.010826541 0.0092157941         2073 
 4279000   0.56836533    -8.506257    556.11684  0.010830351 0.0092122599         2075 
 4280000   0.56004984   -8.5329976    556.15625  0.010828587 0.0092087228         2107 
 4281000    0.5604304   -8.4949124    555.52734  0.010813816 0.0092051851         2102 
 4282000   0.57039253   -8.4825074    555.61671   0.01081303 0.0092016525         2082 
 4283000    0.5699928   -8.5074376    556.36681  0.010825099 0.0091981177         2074 
 4284000   0.57158537   -8.4945776    555.54347  0.010806557 0.0091945887         2087 
 4285000   0.56189114   -8.5138477    556.76177  0.010827728 0.0091910606         2084 
 4286000   0.55848741   -8.4955329    556.74293  0.010824835 0.0091875324         2078 
 4287000   0.57047854   -8.5159709    556.63133  0.010820141 0.0091840131         2089 
 4288000   0.56392758   -8.5085624     556.5099  0.010815258 0.0091804928         2097 
 4289000    0.5544383    -8.500677    557.08474  0.010823905 0.0091769717         2102 
 4290000   0.57163484   -8.4976548    557.40649  0.010827632 0.0091734523         2163 
 4291000   0.55928143   -8.5125462    557.05295  0.010818243 0.0091699356         2087 
 4292000   0.56806404   -8.5058333    556.45018  0.010804019 0.0091664191         2050 
 4293000   0.56168536   -8.5105679    556.17417  0.010796144 0.0091629062         1965 
 4294000   0.56186012   -8.4977987    556.30896  0.010796246  0.009159392         2122 
 4295000     0.555566   -8.5014141    555.14581  0.010771164 0.0091558776         2109 
 4296000   0.55407288    -8.506212     556.3005  0.010791056   0.00915237         2135 
 4297000   0.56365356   -8.5126355    556.45238   0.01079149 0.0091488639         2135 
 4298000    0.5718474   -8.5203474    557.01293  0.010799847 0.0091453555         2113 
 4299000   0.56002184   -8.4979033    555.66366  0.010771181 0.0091418494         2093 
 4300000   0.55131329   -8.5081562    555.12581  0.010758252 0.0091383457         2107 
 4301000   0.56600261   -8.5068419    555.20845  0.010757352 0.0091348427         2137 
 4302000   0.55985252   -8.4906332    556.27092  0.010775432 0.0091313418         2083 
 4303000   0.56237771   -8.5175176    555.78799  0.010763576 0.0091278411         2035 
 4304000   0.56045244    -8.506805    555.58963  0.010757234 0.0091243455         2112 
 4305000   0.56471457   -8.5101732    555.77565  0.010758336 0.0091208467         2102 
 4306000   0.56826251   -8.4850242    557.58243  0.010790804 0.0091173542         2113 
 4307000   0.55014946   -8.5077441    555.34478  0.010745004 0.0091138657         2085 
 4308000   0.56658941    -8.517805    555.43198  0.010744196 0.0091103774         2074 
 4309000   0.56387634   -8.5003523    556.25755  0.010757669 0.0091068885         2031 
 4310000    0.5642052   -8.5010513    555.57025  0.010741884 0.0091034002         2072 
 4311000   0.54914269   -8.4916418    556.43188  0.010756048 0.0090999144         2116 
 4312000   0.55446046   -8.5019771    555.86482  0.010742595 0.0090964324         2093 
 4313000   0.57623366   -8.5019355    555.92832  0.010741331  0.009092953         2152 
 4314000   0.56865717   -8.4940462    556.96504  0.010758867 0.0090894745         2072 
 4315000   0.55782267   -8.5010258    556.68909  0.010751045 0.0090859984         2159 
 4316000   0.56547056   -8.5040649    556.23914  0.010739866 0.0090825229         2124 
 4317000   0.56017571   -8.5052104    556.46202   0.01074168 0.0090790478         2076 
 4318000   0.55271917   -8.4937771    557.24514  0.010754306 0.0090755787         2083 
 4319000   0.56784076   -8.5185408    556.65332  0.010740398 0.0090721083         2092 
 4320000   0.56338265   -8.5177653    555.69178  0.010719363 0.0090686379         2121 
 4321000   0.54540158   -8.5242224    556.89949  0.010740174  0.009065169         2144 
 4322000   0.55741817   -8.4858778    556.72575  0.010734339 0.0090617026         2073 
 4323000   0.55155791   -8.5260156    556.30863  0.010723815 0.0090582376         2089 
 4324000   0.54732788   -8.5176344    555.84764  0.010712451 0.0090547727         2060 
 4325000   0.56519982   -8.4960194    555.87671  0.010710534  0.009051312         2044 
 4326000   0.55870984   -8.5229192    555.33094  0.010697545 0.0090478531         2086 
 4327000   0.56043885   -8.5163417    554.59257  0.010680852  0.009044396         2041 
 4328000   0.56601002   -8.5050279    556.04595  0.010706368 0.0090409426         2088 
 4329000   0.55887373   -8.4974705    556.55944   0.01071378 0.0090374898         2052 
 4330000   0.56354268   -8.5026203    555.42679  0.010689507 0.0090340394         2141 
 4331000   0.56599375   -8.5197959    556.74841  0.010712468 0.0090305873         2061 
 4332000    0.5660653   -8.5172111    556.07643  0.010697069 0.0090271405         2099 
 4333000   0.55883551   -8.5154715     556.1192  0.010695423 0.0090236968         2093 
 4334000   0.55831341   -8.5056838    556.50803  0.010700431 0.0090202529         2136 
 4335000   0.57200227   -8.5473436    555.52954  0.010679153 0.0090168085         2147 
 4336000   0.54659409   -8.5146261    556.36903  0.010692824 0.0090133657         2118 
 4337000   0.57091961    -8.532542    556.11691  0.010685514  0.009009928         2089 
 4338000   0.56058564   -8.5205731    555.92678  0.010679399 0.0090064884         2098 
 4339000   0.56446954   -8.5125136    556.04135  0.010679138 0.0090030523         2147 
 4340000   0.56563424   -8.5106904    556.23539  0.010680403 0.0089996174         2117 
 4341000   0.56147284   -8.5284612    556.53165   0.01068363 0.0089961876         2157 
 4342000   0.56020205   -8.5017024    556.22463  0.010675277 0.0089927549         2094 
 4343000   0.55133651   -8.5086598    555.89826  0.010666557 0.0089893274         2184 
 4344000   0.56232714   -8.5200206    556.48428  0.010675343 0.0089858971         2054 
 4345000   0.56352171   -8.5177632    555.16036  0.010647494 0.0089824715         2176 
 4346000   0.57225547   -8.5011014    556.67108  0.010674012 0.0089790449         2124 
 4347000   0.55121491   -8.5123434    555.52882  0.010649659 0.0089756187         2146 
 4348000   0.56088899   -8.5231178    556.92821   0.01067403 0.0089721976         2155 
 4349000   0.57608226    -8.531811    555.04474  0.010635486 0.0089687749         2102 
 4350000   0.55652147   -8.5027877    555.45422  0.010640885 0.0089653576         2104 
 4351000   0.55351306   -8.5292411    554.95621  0.010628902 0.0089619381         2169 
 4352000   0.55595605   -8.5314075    555.16557  0.010630468 0.0089585212         2114 
 4353000   0.55948698   -8.5088997    555.31518   0.01063089 0.0089551088         2193 
 4354000   0.55299523   -8.5084499     554.8895  0.010620301 0.0089516927         2200 
 4355000   0.54563977   -8.5234295    555.27679  0.010625274 0.0089482829         2169 
 4356000   0.56073626   -8.4977636    556.74079  0.010650841 0.0089448743         2084 
 4357000   0.55106919    -8.515638    556.67959  0.010647226 0.0089414678         2116 
 4358000   0.56064994   -8.5137866     557.1067  0.010652951  0.008938062         2102 
 4359000   0.55828753   -8.5256603    554.91502  0.010608607 0.0089346589         2179 
 4360000   0.54840124   -8.5251146    556.54159  0.010637263 0.0089312566         2110 
 4361000   0.56873251   -8.5160141    555.83281   0.01062128  0.008927859         2074 
 4362000   0.55515787   -8.5423682    555.05337  0.010603954 0.0089244568         2193 
 4363000    0.5718713   -8.5273159    555.09085   0.01060224 0.0089210597         2110 
 4364000   0.53566197   -8.4970437    556.29404  0.010622786 0.0089176645         2146 
 4365000   0.54003267   -8.5327626    555.94267  0.010613644 0.0089142717         2176 
 4366000   0.55755628   -8.5292153     555.8079  0.010608641 0.0089108806         2164 
 4367000   0.55087401   -8.5200885    555.87594   0.01060751 0.0089074932         2062 
 4368000   0.55680751   -8.5418347    555.45914   0.01059713 0.0089041072         2161 
 4369000   0.55793698   -8.5182868     555.7535  0.010600318 0.0089007184         2169 
 4370000   0.56865387   -8.5240271     555.5879  0.010594735 0.0088973339         2112 
 4371000   0.53855563   -8.5225655    555.31984    0.0105872 0.0088939483         2109 
 4372000   0.55501304   -8.5205327    555.16299  0.010581789 0.0088905625         2116 
 4373000   0.54477488   -8.5066217    556.13689  0.010597928 0.0088871803         2119 
 4374000   0.54908857   -8.5240429    554.96269  0.010573135 0.0088837997         2112 
 4375000   0.54503786   -8.5452655    554.97674  0.010570985 0.0088804214         2035 
 4376000    0.5593179   -8.5320575     555.8136  0.010584506 0.0088770436         2121 
 4377000   0.55258912   -8.5487905    554.99812  0.010566562  0.008873667         2096 
 4378000   0.55746695   -8.5418631    555.83288  0.010580038 0.0088702891         2088 
 4379000   0.55889575   -8.5292281    555.42112  0.010569786 0.0088669163         2138 
 4380000   0.54787523   -8.5281774    555.88357  0.010576171 0.0088635477         2142 
 4381000   0.56067268   -8.5168874    555.18328  0.010560437 0.0088601775         2176 
 4382000   0.54530608   -8.5425501    555.77729  0.010569323  0.008856809         2222 
 4383000   0.55165476   -8.5539134    554.80457  0.010548417 0.0088534386         2142 
 4384000   0.54701242   -8.5241355    554.73542  0.010544697 0.0088500725         2168 
 4385000   0.55434699   -8.5366166    554.75509  0.010542666 0.0088467104         2068 
 4386000    0.5589233   -8.5295923    555.31596  0.010550919 0.0088433472         2082 
 4387000   0.54869711   -8.5299086    554.93744  0.010541324 0.0088399872         2172 
 4388000   0.54949274   -8.5410954    555.90289  0.010557256 0.0088366285         2131 
 4389000   0.55743411   -8.5286904    554.56304  0.010529411  0.008833272         2153 
 4390000   0.54796464   -8.5229257     555.9179  0.010552732 0.0088299191         2173 
 4391000   0.53414076   -8.5376699    556.02424  0.010552346 0.0088265654         2172 
 4392000   0.54896897   -8.5211171    555.06575  0.010531757 0.0088232159         2128 
 4393000   0.54816529   -8.5293239    555.16465  0.010531236 0.0088198651         2102 
 4394000   0.54654748   -8.5543512    555.81715  0.010541214 0.0088165192         2190 
 4395000   0.55517899   -8.5471122    555.74427  0.010537434 0.0088131723         2164 
 4396000   0.55276393   -8.5082586    554.26858  0.010507063 0.0088098277         2102 
 4397000   0.54200106    -8.533429    555.08415   0.01052013 0.0088064811         2154 
 4398000   0.54587487   -8.5374595    556.00154  0.010535121 0.0088031415         2193 
 4399000   0.55477851   -8.5489344    553.58382  0.010486925 0.0087997993         2119 
 4400000   0.53920266   -8.5252022    555.02985  0.010511929 0.0087964608         2176 
 4401000    0.5438233   -8.5210534    554.31774  0.010496057 0.0087931239         2138 
 4402000   0.55313286   -8.5308794    555.12458  0.010508946 0.0087897843         2190 
 4403000   0.55851996   -8.5488563    554.32252  0.010491379 0.0087864473         2118 
 4404000   0.55828445   -8.5360429    555.15667  0.010504781 0.0087831153         2143 
 4405000   0.53488693   -8.5216793     554.9285   0.01049808 0.0087797853         2169 
 4406000   0.55820616   -8.5456093    555.37183  0.010504082 0.0087764575         2124 
 4407000   0.53549194   -8.5413631    555.35069  0.010501299  0.008773132         2090 
 4408000   0.53840298   -8.5307012    554.69144  0.010486453 0.0087698066         2109 
 4409000   0.54493521   -8.5389753    554.93667   0.01048871 0.0087664811         2156 
 4410000   0.54452136   -8.5432665    554.37659  0.010475748 0.0087631555         2121 
 4411000    0.5473572   -8.5575108    554.91261    0.0104835 0.0087598359         2123 
 4412000   0.54711614   -8.5285032    555.06178  0.010483941  0.008756516         2141 
 4413000   0.54922062   -8.5480881    554.08199  0.010463063 0.0087531965         2295 
 4414000   0.54529261    -8.541942    554.50453   0.01046867 0.0087498804         2147 
 4415000   0.55127685   -8.5395253    554.64533  0.010468957 0.0087465676         2119 
 4416000   0.54774368   -8.5323946    554.80543  0.010469607 0.0087432513         2206 
 4417000   0.55553396    -8.531427    555.11815  0.010473137 0.0087399402         2128 
 4418000   0.54772937   -8.5250964    554.64857  0.010461909  0.008736631         2124 
 4419000   0.53950542    -8.546267    555.69998  0.010479369 0.0087333229         2098 
 4420000   0.54595432   -8.5379895    555.38953  0.010471145 0.0087300173         2123 
 4421000   0.54100054   -8.5327038    555.55616  0.010471917  0.008726713         2119 
 4422000   0.54184957   -8.5508836    554.91892   0.01045754  0.008723409         2206 
 4423000   0.56128621   -8.5317881    555.79285  0.010471642 0.0087201088         2189 
 4424000   0.53706849   -8.5636267    555.22525  0.010458583 0.0087168102         2222 
 4425000   0.54642844   -8.5344903    555.01306  0.010452223 0.0087135096         2162 
 4426000   0.55804222    -8.542005    554.08635  0.010432414 0.0087102094         2149 
 4427000   0.54364636   -8.5567463    554.43208  0.010436565 0.0087069146         2080 
 4428000   0.53805162   -8.5390307    554.22103  0.010430236  0.008703617         2171 
 4429000    0.5377604   -8.5307704    554.75156  0.010437863 0.0087003249         2092 
 4430000   0.54594683   -8.5499321    555.12792  0.010442587 0.0086970343         2093 
 4431000     0.529736   -8.5411483    556.10761  0.010458655 0.0086937426         2162 
 4432000   0.54267956   -8.5458741    554.93863  0.010434315 0.0086904543         2200 
 4433000   0.53535115   -8.5529816    554.77916  0.010428964 0.0086871693         2139 
 4434000   0.54923642   -8.5526557    554.74405  0.010425952 0.0086838843         2115 
 4435000   0.54450475   -8.5414402    554.63639  0.010421578 0.0086806003         2106 
 4436000   0.54798693   -8.5378771    554.55263  0.010417655 0.0086773234         2174 
 4437000   0.54358572   -8.5444128    554.81222  0.010420183 0.0086740456         2118 
 4438000   0.54291755   -8.5378139    555.07729  0.010422812  0.008670767         2154 
 4439000    0.5296833   -8.5689856    555.74494  0.010432998 0.0086674898         2111 
 4440000   0.54984069   -8.5562207    554.64658  0.010410033  0.008664214         2131 
 4441000   0.54573182   -8.5341483    554.65069  0.010407766 0.0086609382         2125 
 4442000   0.54237165   -8.5609908    555.44942  0.010420408 0.0086576664         2135 
 4443000   0.54358516   -8.5482607    554.81278  0.010406122  0.008654397         2133 
 4444000    0.5414206   -8.5480709    553.78474  0.010384502 0.0086511285         2181 
 4445000   0.54362217   -8.5584748    554.99458  0.010404848 0.0086478608         2214 
 4446000   0.53901324   -8.5678067    554.19163  0.010387457 0.0086445951         2112 
 4447000   0.53922121   -8.5683912    554.01115   0.01038174 0.0086413293         2151 
 4448000   0.52924509   -8.5484308    554.60071  0.010390451 0.0086380645         2134 
 4449000   0.52943541   -8.5349283    554.72365  0.010390418 0.0086348062         2130 
 4450000   0.52970551    -8.534189     554.8104  0.010389708 0.0086315463         2134 
 4451000   0.54255737   -8.5507119    554.44299  0.010380495  0.008628292         2142 
 4452000   0.54672685   -8.5628388    555.80548  0.010403666 0.0086250341         2155 
 4453000   0.54295115   -8.5614588    554.98579  0.010385991 0.0086217796         2153 
 4454000    0.5430157   -8.5560911    554.86429  0.010381386 0.0086185293         2123 
 4455000   0.54170166   -8.5343216    554.18514  0.010366351 0.0086152801         2118 
 4456000   0.53338723   -8.5538038    554.77212  0.010375002  0.008612031         2112 
 4457000   0.53305287   -8.5446989     555.1396  0.010379545 0.0086087822         2223 
 4458000   0.53676973   -8.5434799    554.36937  0.010362819 0.0086055359         2242 
 4459000   0.52782198    -8.536512    555.00765  0.010372424 0.0086022898         2153 
 4460000   0.54166663   -8.5527034    554.49374  0.010360496 0.0085990484         2122 
 4461000       0.5359   -8.5621875    554.29981  0.010354551 0.0085958082         2175 
 4462000   0.54620051   -8.5460448     554.2959  0.010352157 0.0085925672         2100 
 4463000   0.54086649   -8.5393909    554.47883  0.010353253 0.0085893276         2085 
 4464000   0.53792091   -8.5447019    555.22022  0.010364774 0.0085860918         2080 
 4465000   0.53304698   -8.5719854    554.19948  0.010343402 0.0085828548         2108 
 4466000   0.54439952   -8.5340673    555.33868  0.010362343  0.008579622         2097 
 4467000   0.52165539   -8.5467836    554.56892  0.010345663 0.0085763922         2078 
 4468000   0.53718367   -8.5600167    554.80833  0.010347813  0.008573162         2130 
 4469000   0.54801874   -8.5522713    555.18608  0.010352541 0.0085699325         2170 
 4470000   0.53023356   -8.5627369    554.76281  0.010342334 0.0085667063         2104 
 4471000   0.54045132   -8.5432348     555.2472  0.010349049 0.0085634817         2230 
 4472000   0.53608068   -8.5387793    554.29662  0.010329022 0.0085602579         2141 
 4473000   0.54007988   -8.5415622    554.64658  0.010333232 0.0085570323         2129 
 4474000   0.53673165   -8.5643091    554.89796  0.010335605 0.0085538112         2124 
 4475000   0.52965087    -8.562952    554.65657    0.0103288 0.0085505885         2222 
 4476000   0.53070252   -8.5398366    555.50219  0.010342236 0.0085473693         2138 
 4477000   0.53672759    -8.570631    554.79346  0.010326734 0.0085441522         2176 
 4478000   0.53569015   -8.5614706    554.57742  0.010320408 0.0085409374         2135 
 4479000   0.51868204   -8.5399975    555.39686  0.010333349 0.0085377237         2195 
 4480000   0.53905865   -8.5582212    555.05616  0.010324705 0.0085345114         2207 
 4481000   0.53990515   -8.5719439    554.72399  0.010316224 0.0085313006         2204 
 4482000   0.53605019   -8.5450635    554.98099  0.010318701 0.0085280931         2144 
 4483000   0.54426945   -8.5597548    554.85968  0.010314144 0.0085248844         2183 
 4484000   0.52583508   -8.5394818    554.16402  0.010298915 0.0085216798         2154 
 4485000   0.52878259   -8.5527029    554.22867   0.01029782 0.0085184757         2211 
 4486000   0.53889777   -8.5640454    553.99995  0.010291276 0.0085152749         2205 
 4487000   0.53906769   -8.5606345    555.09093  0.010309244 0.0085120715         2167 
 4488000   0.53599755   -8.5531302    554.76476  0.010300891 0.0085088751         2159 
 4489000   0.54412931   -8.5615744    555.05275  0.010303942 0.0085056765         2229 
 4490000   0.53175296   -8.5633383    555.49228  0.010309805 0.0085024813         2209 
 4491000    0.5428877   -8.5429019    554.35445  0.010286396 0.0084992865         2137 
 4492000   0.53147347   -8.5376691    555.20107  0.010299812 0.0084960946         2062 
 4493000   0.53653629   -8.5609792    554.35391  0.010281807 0.0084929028         2206 
 4494000   0.52082108   -8.5559459    554.35482  0.010279536 0.0084897108         2187 
 4495000   0.53943136   -8.5528724    555.15129  0.010292015  0.008486524         2092 
 4496000   0.53355722   -8.5704719    554.49185  0.010277503 0.0084833369         2143 
 4497000   0.53820523   -8.5611434    555.26468  0.010289539 0.0084801533         2143 
 4498000   0.54069448   -8.5637885    554.33718  0.010270068 0.0084769701         2157 
 4499000   0.54052514   -8.5490288    554.68891    0.0102743 0.0084737872         2149 
 4500000   0.53236505   -8.5491227    555.77937   0.01029221  0.008470608         2157 
 4501000   0.52231019   -8.5443488    554.94236  0.010274427 0.0084674311         2140 
 4502000   0.53266843   -8.5593112    554.47888  0.010263566 0.0084642538         2146 
 4503000      0.53274   -8.5587436     555.4053  0.010278431 0.0084610808         2187 
 4504000   0.53286828   -8.5751872    553.95435  0.010249303 0.0084579057         2164 
 4505000   0.53307147   -8.5594112    554.82774  0.010263184 0.0084547362         2192 
 4506000   0.53248965   -8.5561805    554.84232  0.010261176 0.0084515661         2128 
 4507000   0.52780773   -8.5605879    554.17678  0.010246594 0.0084483965         2221 
 4508000   0.52819876   -8.5610691    554.40531  0.010248545 0.0084452298         2186 
 4509000   0.51981059   -8.5485442    553.98212  0.010238451 0.0084420643         2147 
 4510000   0.53418484   -8.5735919    555.19573  0.010258606 0.0084389005         2166 
 4511000   0.53302735   -8.5511119    553.69171  0.010228547 0.0084357361         2165 
 4512000    0.5310098   -8.5552012    553.56166  0.010223878 0.0084325747         2186 
 4513000    0.5309793   -8.5556164    555.04231  0.010248953 0.0084294172         2154 
 4514000   0.53897382   -8.5535896    554.46001  0.010235933 0.0084262604         2174 
 4515000   0.52994743   -8.5631222    553.72382  0.010220078 0.0084231036         2184 
 4516000   0.52957753   -8.5660655    554.40062  0.010230304 0.0084199467         2121 
 4517000   0.53984328    -8.577862    553.92286  0.010219225 0.0084167929         2072 
 4518000   0.53007679   -8.5509272    554.40112  0.010225784 0.0084136403         2223 
 4519000   0.53650621   -8.5516694    554.50665  0.010225468 0.0084104924         2140 
 4520000   0.53321706   -8.5716894    554.40877  0.010221401 0.0084073474         2141 
 4521000   0.53757902   -8.5688962    554.87136  0.010227667 0.0084041998         2189 
 4522000   0.52892429   -8.5684267    554.77749  0.010223675 0.0084010558         2124 
 4523000   0.52420999   -8.5586907      554.579  0.010217757 0.0083979107         2145 
 4524000   0.52978267   -8.5691786    554.11626  0.010206975  0.008394768         2244 
 4525000   0.53571736    -8.569999     554.5121  0.010212009 0.0083916247         2109 
 4526000   0.52258331    -8.565527    553.64459   0.01019378 0.0083884862         2142 
 4527000   0.52361465   -8.5612454    554.26665  0.010202979 0.0083853497         2190 
 4528000   0.52248788   -8.5624817    554.13541  0.010198311 0.0083822153         2157 
 4529000   0.52793764   -8.5607674    554.54257  0.010203551 0.0083790782         2139 
 4530000   0.52462054   -8.5603422    553.86391  0.010188814 0.0083759445         2194 
 4531000   0.51519778   -8.5658376    553.76145  0.010184681 0.0083728117         2173 
 4532000   0.53248889   -8.5578456    554.59464  0.010197754 0.0083696798         2122 
 4533000   0.52779766   -8.5666271     554.5559  0.010194792 0.0083665522         2157 
 4534000   0.52834115   -8.5591139    552.62412  0.010157038 0.0083634227         2152 
 4535000     0.519136   -8.5827271    554.06421  0.010181261 0.0083602947         2136 
 4536000   0.51918405   -8.5736303    553.33961  0.010165704 0.0083571679         2221 
 4537000   0.53133151   -8.5622743     553.4863  0.010166158 0.0083540446         2187 
 4538000   0.52376481    -8.553429    555.47218  0.010200385 0.0083509257         2139 
 4539000   0.52738022   -8.5544241    554.19547  0.010174698 0.0083478051         2198 
 4540000   0.52809822   -8.5721696    553.94829   0.01016792 0.0083446896         2154 
 4541000   0.52639339   -8.5621642    554.57961  0.010177267 0.0083415734         2141 
 4542000   0.52147875   -8.5767968    554.38039  0.010171371  0.008338461         2189 
 4543000   0.52330736   -8.5720414    554.22997  0.010166373 0.0083353489         2170 
 4544000   0.52563482   -8.5800372    553.46558  0.010150117 0.0083322354         2172 
 4545000   0.51951271   -8.5669817    553.90635  0.010155965 0.0083291225         2167 
 4546000   0.52901022   -8.5515597    553.82876  0.010152309 0.0083260141         2162 
 4547000   0.52735597   -8.5842476    554.37329  0.010160056  0.008322906         2225 
 4548000    0.5209396   -8.5659018    554.33766  0.010157169 0.0083197984         2218 
 4549000   0.52254259   -8.5516491      553.804   0.01014516 0.0083166926         2158 
 4550000   0.52417521   -8.5804916    553.23458  0.010132502 0.0083135882         2185 
 4551000   0.52516961   -8.5717659    554.43042  0.010152172  0.008310487         2242 
 4552000   0.51878492   -8.5675979    554.60314  0.010153104 0.0083073886         2227 
 4553000   0.53104008   -8.5925627    554.31773   0.01014565 0.0083042905         2189 
 4554000   0.52638642   -8.5758144    553.36801  0.010126043  0.008301195         2151 
 4555000   0.53218215   -8.5736879    553.53639  0.010126901 0.0082981003         2145 
 4556000   0.52963187   -8.5937897    553.59343  0.010125721 0.0082950068         2246 
 4557000     0.519688    -8.576638     554.6371  0.010142585 0.0082919147         2202 
 4558000   0.51911672   -8.5627736    554.60468  0.010139767 0.0082888221         2135 
 4559000   0.51900568    -8.580622    553.35754  0.010114746 0.0082857318         2162 
 4560000   0.52506157   -8.5736698    553.78563  0.010120351 0.0082826434         2113 
 4561000   0.51993452   -8.5697779    554.38518  0.010129087 0.0082795549         2219 
 4562000   0.53149949   -8.5732087    553.92112   0.01011839 0.0082764687         2166 
 4563000   0.54194016   -8.5706159    552.84848  0.010096583 0.0082733828         2193 
 4564000   0.51114834   -8.5950796    553.65328  0.010109065 0.0082702969         2260 
 4565000   0.51242629   -8.5627369    553.38644   0.01010198  0.008267216         2255 
 4566000   0.52221453   -8.5765092    555.00584  0.010129322 0.0082641366         2146 
 4567000   0.52564144   -8.5765382    554.44913  0.010116946 0.0082610575         2178 
 4568000   0.53602343   -8.5618635    553.88475  0.010104436 0.0082579844         2178 
 4569000   0.52364101   -8.5704464    553.67921  0.010098475 0.0082549111         2228 
 4570000   0.50983228   -8.5814183    553.42203  0.010091576  0.008251838         2185 
 4571000   0.52526825    -8.578206    553.90084  0.010098097 0.0082487646         2104 
 4572000   0.52060938   -8.5777992    554.13913  0.010100232 0.0082456986         2209 
 4573000   0.52248123   -8.5758524    553.40318  0.010084612 0.0082426297         2198 
 4574000   0.52851165   -8.5763847    554.01329  0.010093523 0.0082395607         2170 
 4575000   0.53679078   -8.5785021    553.70579  0.010085716 0.0082364977         2165 
 4576000   0.53266069   -8.5865188     554.1275  0.010091191  0.008233434         2135 
 4577000   0.51473658   -8.5786354    553.42706  0.010076234 0.0082303687         2157 
 4578000   0.51685352   -8.6011701    553.41734  0.010073856 0.0082273082         2182 
 4579000   0.51848722   -8.5902354     553.0788  0.010065495 0.0082242473         2231 
 4580000   0.52164283   -8.5872396    553.53922  0.010071674 0.0082211906         2164 
 4581000   0.52137334   -8.5938473    553.29227  0.010064983  0.008218135         2162 
 4582000    0.5119731   -8.5690379    554.12366  0.010077907  0.008215083         2183 
 4583000   0.52128461    -8.589568    554.47129  0.010082029 0.0082120284         2184 
 4584000   0.52330564   -8.5912903    553.14395    0.0100557 0.0082089771         2103 
 4585000   0.52053809    -8.563094    552.73251  0.010046029  0.008205928         2103 
 4586000   0.52811895   -8.5782391    554.14278  0.010069465 0.0082028782         2168 
 4587000   0.52087754   -8.5746073    553.69195  0.010059079 0.0081998316         2102 
 4588000   0.52039494    -8.598921    553.72113  0.010057417 0.0081967895         2115 
 4589000   0.51593916   -8.5835597    554.69437  0.010072898 0.0081937482         2195 
 4590000    0.5110076   -8.5773462    554.15432  0.010060899 0.0081907064         2154 
 4591000   0.52211241   -8.5998642    554.00267  0.010055955 0.0081876675         2113 
 4592000   0.51398291   -8.5821777    553.72193   0.01004867 0.0081846327         2181 
 4593000   0.51404173   -8.5735941    554.14225  0.010054109 0.0081815941         2197 
 4594000   0.50999091   -8.5870522    553.90268  0.010047574 0.0081785605         2209 
 4595000   0.51206513   -8.5822712    553.73428  0.010042334 0.0081755256         2165 
 4596000   0.51324992    -8.583521    553.46949  0.010035348 0.0081724904         2165 
 4597000   0.51277589   -8.5793262    553.85348  0.010040125 0.0081694586         2131 
 4598000   0.52576357   -8.5708876    553.81408  0.010037228 0.0081664283         2172 
 4599000   0.51433893   -8.5781516    554.24516  0.010042856 0.0081633971         2179 
 4600000   0.51565554   -8.5833043    554.40782   0.01004362 0.0081603696         2207 
 4601000   0.50411095   -8.5723503    554.16226   0.01003699 0.0081573417         2200 
 4602000   0.52198099   -8.5837517    553.86436  0.010029414 0.0081543165         2130 
 4603000   0.51276426   -8.5966386    554.02647   0.01003017 0.0081512907         2164 
 4604000   0.52425764   -8.5627589    553.65383  0.010021247 0.0081482691         2168 
 4605000   0.51621863   -8.5676922    553.08949  0.010008858 0.0081452503         2261 
 4606000    0.5175313   -8.5751252    554.03551  0.010023801 0.0081422312         2117 
 4607000   0.50919811   -8.5800606    554.40709  0.010028346 0.0081392159         2151 
 4608000   0.51422148   -8.5907919    554.42188  0.010026437 0.0081361997         2197 
 4609000   0.52014645   -8.5743269    553.90399  0.010014898 0.0081331837         2186 
 4610000   0.50174393   -8.5664641    554.25687  0.010019105 0.0081301697         2115 
 4611000   0.51697727    -8.589344    553.37868   0.01000106 0.0081271573         2151 
 4612000   0.51655113   -8.5876451    553.83511  0.010007139 0.0081241472         2177 
 4613000   0.51200663   -8.5914461    553.79027   0.01000416 0.0081211384         2170 
 4614000   0.50548533   -8.5886103    553.98458  0.010005501 0.0081181328         2152 
 4615000   0.51574229   -8.5947172    554.45318  0.010011795 0.0081151244         2170 
 4616000   0.50484701   -8.5842953    553.37251 0.0099901161   0.00811212         2182 
 4617000    0.5081797   -8.5971599    553.50176 0.0099902851 0.0081091178         2172 
 4618000   0.51770682   -8.5977569    552.50767 0.0099701832 0.0081061153         2137 
 4619000   0.51824539   -8.5843663     553.4928 0.0099857978 0.0081031113         2136 
 4620000   0.51334071   -8.5969406    553.63561 0.0099862123  0.008100113         2124 
 4621000   0.50494652   -8.5920773    554.13153 0.0099929945 0.0080971172         2133 
 4622000   0.51613451   -8.5997449    554.00029 0.0099884662  0.008094121         2176 
 4623000   0.49773374   -8.5839073    553.87528 0.0099840521 0.0080911282         2108 
 4624000   0.49397745   -8.5839046    553.53557 0.0099757708 0.0080881335         2148 
 4625000   0.50332959   -8.5847266    553.41028 0.0099713563 0.0080851433         2237 
 4626000   0.50759179   -8.5813282     555.1946  0.010001344 0.0080821574         2106 
 4627000   0.52403038   -8.5968906    553.28989  0.009964878 0.0080791697         2199 
 4628000   0.50879839   -8.5807496     552.9385 0.0099563976 0.0080761851         2171 
 4629000   0.50646752   -8.5770505    554.00113 0.0099733768  0.008073199         2148 
 4630000   0.51042854   -8.5938833     553.4287 0.0099609198 0.0080702169         2200 
 4631000    0.5182025   -8.5842147     553.8759  0.009966816 0.0080672353         2140 
 4632000   0.49909887   -8.5948521    553.32302 0.0099547175  0.008064256         2133 
 4633000   0.51044076    -8.604488    552.88435 0.0099446786 0.0080612779         2191 
 4634000   0.49862326   -8.5965685    553.86621 0.0099601893 0.0080583002         2096 
 4635000   0.51135788   -8.5970989    552.97504 0.0099420179 0.0080553251         2125 
 4636000   0.50465232   -8.5899759    553.70873 0.0099530617 0.0080523538         2164 
 4637000   0.52014117   -8.5973952    553.40088 0.0099453827 0.0080493807         2200 
 4638000   0.51445002   -8.5829331    553.83301 0.0099510028 0.0080464082         2106 
 4639000   0.50445467   -8.6140014    553.24498 0.0099382946 0.0080434379         2217 
 4640000    0.4989631   -8.5863076    554.22758 0.0099537999 0.0080404677         2189 
 4641000   0.51314643   -8.6014985    553.98077 0.0099472235 0.0080375004         2081 
 4642000   0.50929104   -8.5897766    553.92941 0.0099441587 0.0080345334         2130 
 4643000   0.50851276   -8.5996379    553.70281 0.0099379497 0.0080315708         2102 
 4644000   0.51060197   -8.6127414    552.93976 0.0099221175 0.0080286084         2201 
 4645000   0.51381325   -8.6099871    553.25436 0.0099256255  0.008025645         2146 
 4646000   0.50455449   -8.5960182    554.30316 0.0099423009 0.0080226831         2155 
 4647000   0.51002064   -8.5775297    554.00164 0.0099347543 0.0080197261         2164 
 4648000   0.51822962   -8.5950872    553.31222 0.0099202564 0.0080167685         2133 
 4649000    0.4913073   -8.6127518    553.92437 0.0099290954 0.0080138098         2280 
 4650000   0.50260118   -8.6063582    553.02256 0.0099107986 0.0080108525         2170 
 4651000   0.50112712   -8.5920517    553.68614 0.0099205572 0.0080078991         2180 
 4652000     0.513242   -8.5953542    553.90992 0.0099224333 0.0080049438         2105 
 4653000   0.50247262   -8.5908444    552.23004 0.0098902148 0.0080019929         2210 
 4654000   0.50907377    -8.587996    553.35575 0.0099082464 0.0079990423         2177 
 4655000    0.5033071   -8.5837366     553.5621 0.0099098121 0.0079960942         2138 
 4656000   0.49869104   -8.6005306    552.50957 0.0098888455 0.0079931471         2198 
 4657000   0.51508078    -8.592663    553.54339 0.0099052214 0.0079902008         2177 
 4658000   0.51402018   -8.6121688    553.97687 0.0099108499 0.0079872563         2119 
 4659000   0.51182856   -8.5804658     552.9912 0.0098910925 0.0079843146         2194 
 4660000   0.50442782   -8.5776568    553.62854 0.0099003674 0.0079813765         2135 
 4661000   0.50410474   -8.5981647    552.44581 0.0098770973 0.0079784385         2038 
 4662000   0.49865591   -8.5914333    554.39411 0.0099098046 0.0079755028         2099 
 4663000   0.50243927   -8.5837835    553.51652 0.0098919958  0.007972566         2139 
 4664000   0.51548323    -8.594453     553.0719 0.0098819308 0.0079696294         2176 
 4665000   0.50139155   -8.6035667    553.24865 0.0098829699 0.0079666953         2150 
 4666000   0.50668763   -8.6128433    553.66195 0.0098882331 0.0079637634         2136 
 4667000   0.50828708   -8.5868748    553.30144 0.0098796772 0.0079608331         2184 
 4668000    0.5068014   -8.6081424    554.19416 0.0098934975 0.0079579035         2122 
 4669000   0.52119652   -8.5987809    553.45185 0.0098781296 0.0079549773         2118 
 4670000   0.50803403   -8.6030818     553.3312 0.0098738615 0.0079520526         2179 
 4671000   0.50403156   -8.6119284     553.5895 0.0098763559   0.00794913         2101 
 4672000   0.50511592   -8.6167837    553.19754 0.0098672506 0.0079462071         2180 
 4673000   0.51073119   -8.6024598    553.15563 0.0098643917 0.0079432839         2171 
 4674000   0.50795303   -8.5720457    553.70556 0.0098720861 0.0079403619         2138 
 4675000    0.4961533   -8.5873747    553.00175 0.0098574287 0.0079374437         2089 
 4676000   0.50094324   -8.6023493    552.85848 0.0098527673 0.0079345242         2111 
 4677000   0.50943463   -8.5927451    553.15486 0.0098559416 0.0079316095         2168 
 4678000   0.51747106   -8.5940295    553.80788 0.0098654674 0.0079286957         2125 
 4679000   0.49931628   -8.6094633    552.72028 0.0098439887 0.0079257825         2151 
 4680000   0.49358979   -8.5833544    551.90372 0.0098273454 0.0079228721         2148 
 4681000   0.50175237   -8.5979593    553.16706 0.0098477366 0.0079199598         2173 
 4682000   0.49515131   -8.5931408     554.0218 0.0098608465 0.0079170488         2107 
 4683000   0.49693549   -8.5969072    553.01663 0.0098408539 0.0079141402         2095 
 4684000    0.5035228   -8.6233688    552.93718 0.0098373395 0.0079112327         2170 
 4685000   0.50757046   -8.6178332    552.80562 0.0098328996 0.0079083269         2122 
 4686000    0.5097534   -8.5983627    553.49263 0.0098430188 0.0079054241         2057 
 4687000   0.49572147   -8.5991079    554.04794  0.009850792 0.0079025204         2132 
 4688000    0.5073382   -8.6011434    553.78503 0.0098440172 0.0078996196         2132 
 4689000     0.497828    -8.605436     554.5363 0.0098552695 0.0078967209         2170 
 4690000   0.50147902   -8.6072865    553.87129  0.009841352 0.0078938225         2131 
 4691000   0.49963833   -8.5988832    553.70514 0.0098363025 0.0078909254         2123 
 4692000   0.49818396    -8.605259     553.9213 0.0098380453 0.0078880276         2164 
 4693000   0.50042571   -8.6046541    554.01614 0.0098376331 0.0078851326         2241 
 4694000   0.49911193   -8.6104515    553.46296 0.0098257166 0.0078822386         2118 
 4695000    0.5073002   -8.6059802    553.96321 0.0098325029 0.0078793491         2120 
 4696000   0.48786549   -8.6118429    553.60084 0.0098239786 0.0078764578         2182 
 4697000   0.50354538   -8.5895587    553.38763 0.0098181043 0.0078735699         2190 
 4698000   0.49023671   -8.6065598    553.66875  0.009821001 0.0078706797         2169 
 4699000   0.50406897   -8.6217537    553.27982 0.0098120135 0.0078677923         2178 
 4700000     0.499385   -8.6194996    553.56066 0.0098149053 0.0078649074         2181 
 4701000   0.49760029   -8.6033513    553.81363 0.0098173018 0.0078620218         2136 
 4702000   0.50774128   -8.5972053    552.66605 0.0097948754 0.0078591396         2109 
 4703000   0.51436897   -8.6104608     553.2597 0.0098033118 0.0078562572         2159 
 4704000   0.50130671   -8.6023631    553.31456 0.0098021995 0.0078533783         2175 
 4705000   0.51385961   -8.6059438     553.0836 0.0097960256 0.0078505013         2140 
 4706000   0.50264393   -8.6044012    552.81435 0.0097891761 0.0078476242         2158 
 4707000   0.50047111   -8.5932406    553.59611 0.0098009367 0.0078447501         2143 
 4708000   0.49190118   -8.6024096    553.93861 0.0098049173 0.0078418776         2174 
 4709000    0.4960605   -8.6135162    552.98683 0.0097859919 0.0078390063         2232 
 4710000   0.49357299   -8.6062063    552.67514 0.0097783995 0.0078361339         2118 
 4711000   0.49445684   -8.6159491    552.99991 0.0097820688 0.0078332658         2109 
 4712000    0.5072099   -8.6221528    552.77073 0.0097759396 0.0078303968         2205 
 4713000   0.50060318   -8.6118356    553.08565 0.0097794337 0.0078275283         2153 
 4714000   0.50384113   -8.5954374    553.17553  0.009778948 0.0078246622         2174 
 4715000   0.48472303     -8.60479    553.17648 0.0097768908  0.007821796         2153 
 4716000    0.4965436   -8.6135547      553.472 0.0097800396 0.0078189339         2199 
 4717000   0.50262391   -8.6191092    552.50504 0.0097608833 0.0078160738         2183 
 4718000   0.50154563   -8.6022322    553.90754 0.0097835866 0.0078132128         2180 
 4719000    0.4963515    -8.610499    553.84803 0.0097804626 0.0078103567         2115 
 4720000   0.50131856   -8.6066082     552.9782 0.0097630332 0.0078075001         2121 
 4721000   0.50192873   -8.6004281      553.192 0.0097647391 0.0078046447         2191 
 4722000   0.50810331   -8.6090797     553.6811 0.0097713028 0.0078017937         2136 
 4723000    0.4869471   -8.6085601    553.34441 0.0097632934 0.0077989412         2231 
 4724000   0.49860053   -8.6123795    552.12102 0.0097396454 0.0077960898         2153 
 4725000   0.49537181   -8.5968673    552.78041 0.0097492135 0.0077932411         2132 
 4726000   0.49133489   -8.6168457    552.92875 0.0097497663 0.0077903939         2136 
 4727000   0.50100063   -8.6247151    553.45317  0.009756949 0.0077875472         2194 
 4728000   0.50162958   -8.6062207    552.50698 0.0097382082 0.0077846987         2121 
 4729000   0.49944784   -8.6192499    552.84268 0.0097420645 0.0077818533         2100 
 4730000   0.48937929   -8.6105995     553.6112 0.0097535447 0.0077790095         2119 
 4731000    0.4953835   -8.6182253    552.58669 0.0097334371 0.0077761655         2167 
 4732000    0.5051189   -8.6119838    551.29258 0.0097085901 0.0077733229         2204 
 4733000   0.48773382    -8.610492    552.36672 0.0097254511 0.0077704818         2113 
 4734000   0.48986453   -8.6071057    553.06564 0.0097356998 0.0077676434         2165 
 4735000   0.48916989   -8.6171126    552.24607 0.0097192198 0.0077648077         2212 
 4736000    0.4931009   -8.6124286     553.8408  0.009745228 0.0077619726         2185 
 4737000   0.48871651   -8.6257107    552.73491  0.009723716 0.0077591386         2194 
 4738000   0.49827131   -8.6193686    552.62488 0.0097197285 0.0077563053         2194 
 4739000   0.48908955   -8.6172178     554.5216 0.0097510304 0.0077534732         2177 
 4740000   0.49892361   -8.6000822     553.0709 0.0097234687 0.0077506433         2190 
 4741000    0.4975073   -8.6096746    553.35753 0.0097264559  0.007747816         2103 
 4742000   0.49603584   -8.6257334    553.76643 0.0097315905 0.0077449894         2190 
 4743000   0.48544743   -8.6115269    553.17416 0.0097191327 0.0077421646         2183 
 4744000   0.49590384    -8.617669    552.96845 0.0097134705 0.0077393432         2116 
 4745000     0.486799   -8.6272131    552.59618 0.0097048855 0.0077365209         2123 
 4746000   0.49987182     -8.62036    553.38273 0.0097166514 0.0077336991         2132 
 4747000   0.48966918   -8.6137381    552.96284 0.0097072333 0.0077308791         2215 
 4748000   0.49157837   -8.6168647    552.37354 0.0096948459 0.0077280557         2153 
 4749000   0.48948418   -8.6189265    552.82905 0.0097007975 0.0077252391         2182 
 4750000   0.48014612   -8.6243091    554.23796  0.009723473 0.0077224236         2182 
 4751000   0.49373552   -8.6261689    553.19421 0.0097031188 0.0077196091         2164 
 4752000   0.50223528    -8.624212    553.43329 0.0097052695 0.0077167953         2183 
 4753000    0.4971353   -8.6198747    553.18462 0.0096988678 0.0077139824         2151 
 4754000   0.49534597   -8.6331017    553.21369 0.0096973371 0.0077111717         2174 
 4755000   0.50135802   -8.6441679    552.10207 0.0096758162 0.0077083622         2242 
 4756000   0.48901089    -8.612855    554.32651 0.0097127577 0.0077055534         2156 
 4757000   0.48913602   -8.6378312    553.07534  0.009688798 0.0077027467         2207 
 4758000    0.4902853   -8.6108145    552.83071  0.009682477 0.0076999395         2200 
 4759000   0.49487343   -8.6118337    552.69262 0.0096780245 0.0076971343         2166 
 4760000   0.50082573   -8.6288764    552.79943 0.0096778612 0.0076943323         2134 
 4761000   0.48643244   -8.6143553    551.99614 0.0096617682 0.0076915317         2153 
 4762000   0.48020401   -8.6121379    552.49056 0.0096683915 0.0076887337         2215 
 4763000   0.48102493    -8.616084    552.97507 0.0096748385 0.0076859353         2209 
 4764000   0.49819648   -8.6185925    552.95548  0.009672465 0.0076831374         2168 
 4765000   0.48954079   -8.6232531    553.58407 0.0096814283 0.0076803407         2145 
 4766000   0.47936622   -8.6189454    553.12382 0.0096713495  0.007677544         2185 
 4767000   0.48218547   -8.6124288    552.28341 0.0096546293 0.0076747486         2200 
 4768000   0.49239033    -8.615399    551.54366 0.0096396752 0.0076719579         2160 
 4769000   0.49486151   -8.6311261    552.12848  0.009647873  0.007669166         2199 
 4770000   0.49030442   -8.6293963    552.19925 0.0096470869 0.0076663772         2235 
 4771000   0.48496209   -8.6208006    552.21695  0.009645374 0.0076635909         2188 
 4772000   0.48917554   -8.6401134     552.1647 0.0096424402 0.0076608034         2192 
 4773000   0.48714726   -8.6173078    552.31492 0.0096430427 0.0076580159         2113 
 4774000   0.49784592   -8.6192052    552.21549 0.0096392873 0.0076552321         2204 
 4775000   0.49838921   -8.6222217     552.7061 0.0096458307 0.0076524504         2193 
 4776000   0.49508734   -8.6240152    553.34288 0.0096549217 0.0076496691         2143 
 4777000   0.48493061   -8.6261742    553.03891  0.009647598 0.0076468903         2128 
 4778000   0.48356243   -8.6235954    553.17846 0.0096480128 0.0076441105         2117 
 4779000   0.48695518   -8.6269696    551.86131 0.0096230262  0.007641332         2153 
 4780000   0.48911376   -8.6331994    552.60558 0.0096339885 0.0076385556         2173 
 4781000   0.50143846    -8.623163    552.31408 0.0096268926 0.0076357815         2193 
 4782000   0.49031596   -8.6264717    553.03713 0.0096374797 0.0076330074         2137 
 4783000   0.48614173   -8.6243175    553.72947 0.0096475273 0.0076302352         2153 
 4784000   0.49358722   -8.6351372    552.90413 0.0096311338  0.007627464         2128 
 4785000   0.48574988    -8.621356    552.56519 0.0096232182 0.0076246956         2130 
 4786000   0.47307805   -8.6173719    553.04141 0.0096294995 0.0076219256         2103 
 4787000   0.48359306   -8.6208379    553.00265 0.0096268131 0.0076191582         2219 
 4788000   0.48145363   -8.6202878     553.0202  0.009625108  0.007616392         2165 
 4789000   0.47805187    -8.627232    552.05765 0.0096063488 0.0076136257         2151 
 4790000   0.47933891   -8.6223168     552.4605 0.0096113517 0.0076108638         2092 
 4791000   0.49023475   -8.6282043    552.26223 0.0096058971 0.0076081022         2162 
 4792000   0.49222758   -8.6374496    552.02456 0.0095997594 0.0076053435         2141 
 4793000   0.48166305   -8.6448037     551.5654 0.0095897733 0.0076025829         2132 
 4794000   0.49227278   -8.6290918    552.91713 0.0096112699 0.0075998258         2137 
 4795000   0.48420938   -8.6356085    552.02503 0.0095937613 0.0075970702         2172 
 4796000    0.4882583   -8.6275976    552.15765 0.0095940654 0.0075943159         2178 
 4797000   0.48464489   -8.6207108    552.06223 0.0095904076 0.0075915636         2111 
 4798000   0.48735657    -8.623808    552.61283 0.0095979718 0.0075888108         2202 
 4799000   0.47479542   -8.6324616    551.81479 0.0095821141 0.0075860583         2134 
 4800000   0.48635406   -8.6451265    552.81909 0.0095975537 0.0075833089         2214 
 4801000   0.48714061   -8.6276578    552.11874 0.0095833983 0.0075805584         2230 
 4802000   0.48747003   -8.6300832    552.36483 0.0095856731 0.0075778096         2137 
 4803000   0.48786397    -8.623833    552.04764  0.009578174 0.0075750654         2166 
 4804000   0.48392418   -8.6403041    552.78687 0.0095890034 0.0075723208         2192 
 4805000   0.47223673   -8.6321939    552.77292 0.0095867658 0.0075695775         2164 
 4806000   0.47286067   -8.6336926    552.80284   0.00958529 0.0075668368         2110 
 4807000   0.48009519   -8.6367693    553.56458 0.0095965013 0.0075640986         2146 
 4808000   0.48560196     -8.64609    552.51984 0.0095763976 0.0075613591         2143 
 4809000   0.48192898   -8.6370684    551.71984 0.0095605435 0.0075586216         2061 
 4810000   0.48289274   -8.6208095    552.70202 0.0095755721 0.0075558859         2136 
 4811000   0.47399231   -8.6417754    551.88905 0.0095594999 0.0075531499         2111 
 4812000   0.47924663   -8.6164839    552.34239 0.0095653642 0.0075504161         2102 
 4813000   0.49165506   -8.6431294    551.80868  0.009554136 0.0075476832         2171 
 4814000   0.48181205   -8.6446511    553.25454 0.0095771801 0.0075449541         2114 
 4815000   0.47642846   -8.6203111     552.5757 0.0095634423 0.0075422241         2146 
 4816000   0.47762513   -8.6237214    551.55234  0.009543749 0.0075394951         2138 
 4817000   0.48523433   -8.6327066    553.29061 0.0095718394 0.0075367668         2164 
 4818000   0.47945158   -8.6376692    553.20161 0.0095683135 0.0075340405         2138 
 4819000   0.48175879   -8.6423672    553.34978 0.0095688901 0.0075313164         2158 
 4820000   0.48220321    -8.639405    552.65174 0.0095548364 0.0075285891         2170 
 4821000   0.47852364   -8.6172572    552.78555 0.0095551676 0.0075258661         2195 
 4822000   0.48058025   -8.6363055    552.29805 0.0095447611  0.007523145         2130 
 4823000   0.47936017   -8.6255714    552.24823 0.0095419211 0.0075204254         2166 
 4824000   0.48910362   -8.6328484    551.77573 0.0095317808 0.0075177072         2172 
 4825000   0.48368437   -8.6345215    552.02447 0.0095341014 0.0075149912         2149 
 4826000   0.48760727   -8.6417558    551.24689 0.0095186989 0.0075122743         2167 
 4827000   0.48369827    -8.628148    552.23125  0.009533721 0.0075095598         2213 
 4828000   0.47707464   -8.6417923    553.66135 0.0095564303 0.0075068465         2190 
 4829000   0.48389301   -8.6498154    552.71109 0.0095380529  0.007504134         2207 
 4830000   0.48260828   -8.6282488     552.9811 0.0095407366 0.0075014247         2165 
 4831000   0.47484256   -8.6271606    551.69062 0.0095165014 0.0074987171         2144 
 4832000   0.48315462   -8.6456644     552.9728 0.0095366446 0.0074960094         2219 
 4833000   0.46855906   -8.6437114    552.97361 0.0095346853  0.007493303         2130 
 4834000   0.47336705   -8.6342958    552.68413 0.0095277226 0.0074905987         2139 
 4835000   0.48169916   -8.6485235    552.50351 0.0095226389 0.0074878942         2123 
 4836000   0.48913505   -8.6386479    551.02521  0.009495196 0.0074851926         2217 
 4837000    0.4790056   -8.6364849    552.94241  0.009526263 0.0074824924         2204 
 4838000   0.47683651   -8.6494255    551.95064  0.009507211 0.0074797919         2216 
 4839000   0.48576879    -8.639712    552.65251 0.0095173333 0.0074770947         2182 
 4840000   0.48195454    -8.630083    551.96913 0.0095036007 0.0074743964         2182 
 4841000   0.47145672   -8.6484097    552.83917 0.0095166146 0.0074717002         2197 
 4842000   0.47635808   -8.6198462    552.17196  0.009503166 0.0074690052         2107 
 4843000   0.47092306   -8.6440026    553.12342 0.0095175756 0.0074663114         2180 
 4844000   0.47641286   -8.6420162    551.80597 0.0094929462 0.0074636182         2196 
 4845000   0.46232957   -8.6365661    552.10774 0.0094961772 0.0074609274         2201 
 4846000   0.48186848   -8.6305389    552.38295 0.0094989501 0.0074582355         2194 
 4847000   0.47244679   -8.6394561    552.39649 0.0094972232 0.0074555456         2145 
 4848000   0.48249122   -8.6498063    551.87729 0.0094863396 0.0074528576         2215 
 4849000   0.48984815   -8.6450121    551.89052 0.0094846106 0.0074501697         2121 
 4850000   0.47476502   -8.6397283    552.24153  0.009488686 0.0074474852         2132 
 4851000   0.46583327   -8.6434992    552.02598 0.0094830273 0.0074447999         2146 
 4852000   0.48178637   -8.6328567    552.21956 0.0094843975  0.007442119         2155 
 4853000   0.47110532   -8.6590077    551.22707 0.0094654006 0.0074394356         2206 
 4854000   0.46656195   -8.6392821     552.1584 0.0094794397 0.0074367556         2083 
 4855000   0.47312663   -8.6350762    552.30942 0.0094800793  0.007434079         2145 
 4856000   0.46363956   -8.6528341    552.41245 0.0094798951 0.0074314006         2182 
 4857000   0.47466111   -8.6436557    551.77099 0.0094669377 0.0074287246         2193 
 4858000   0.47225668   -8.6467222    551.38089 0.0094582972 0.0074260491         2214 
 4859000   0.47783809   -8.6393459    551.41542 0.0094569428 0.0074233751         2211 
 4860000   0.47598445   -8.6461159    552.11214 0.0094669434 0.0074207041         2182 
 4861000   0.46731004   -8.6316036     552.2671 0.0094676524 0.0074180337         2092 
 4862000   0.48156368   -8.6449996    552.22726 0.0094650223  0.007415363         2181 
 4863000   0.47673652   -8.6583557    551.40482 0.0094489824 0.0074126955         2159 
 4864000   0.46757021    -8.639522    551.97712 0.0094568449  0.007410029         2090 
 4865000   0.47364171   -8.6449933    552.32567 0.0094608713 0.0074073641         2193 
 4866000   0.47258491    -8.640905     551.9784 0.0094529798 0.0074047006         2167 
 4867000    0.4768267   -8.6446982    552.57343 0.0094612258 0.0074020362         2139 
 4868000   0.47124182   -8.6519401     552.2684 0.0094540604  0.007399376         2144 
 4869000   0.47187598   -8.6300889     552.6422 0.0094585164 0.0073967155         2143 
 4870000   0.46861779   -8.6557679    552.19477  0.009448918 0.0073940543         2167 
 4871000   0.46956161   -8.6602891    551.14142 0.0094289574 0.0073913954         2185 
 4872000   0.47738859   -8.6580791    552.10736 0.0094435441 0.0073887368         2192 
 4873000   0.46481877   -8.6474943    552.08915 0.0094412947 0.0073860806         2139 
 4874000   0.47603859   -8.6377497    552.02073 0.0094381879 0.0073834271         2189 
 4875000   0.47490823   -8.6636848    551.70547 0.0094308628 0.0073807756         2206 
 4876000   0.46854375   -8.6461104    551.49842 0.0094253899 0.0073781254         2101 
 4877000   0.46594033   -8.6630058     551.0905 0.0094164873 0.0073754755         2168 
 4878000   0.46543732   -8.6585719    551.65966   0.00942428 0.0073728242         2151 
 4879000   0.47048484   -8.6539949    552.56924 0.0094378841 0.0073701756         2141 
 4880000   0.47213803    -8.640749     552.5028 0.0094348155 0.0073675293         2167 
 4881000   0.47258133   -8.6399909    551.29611 0.0094122809 0.0073648835         2176 
 4882000   0.46421531   -8.6592823    551.32848 0.0094109054  0.007362236         2187 
 4883000   0.46543415    -8.653344    551.00862 0.0094035194 0.0073595945         2146 
 4884000   0.46399161   -8.6638783    551.88602 0.0094165646 0.0073569517         2226 
 4885000   0.47395956   -8.6596733    551.93387 0.0094154532 0.0073543103         2180 
 4886000   0.46618736   -8.6571884      551.939 0.0094136136 0.0073516701         2198 
 4887000   0.46802972   -8.6366488    553.20035 0.0094331961 0.0073490321         2102 
 4888000   0.47393275   -8.6528104    552.03315 0.0094113671 0.0073463962         2134 
 4889000   0.46035519   -8.6337973    551.59801 0.0094020252 0.0073437599         2127 
 4890000   0.45684502   -8.6567576    552.42022 0.0094141142 0.0073411252         2153 
 4891000   0.47271312   -8.6378595    551.75404 0.0094008389 0.0073384911         2124 
 4892000    0.4693987   -8.6574898    551.16937 0.0093889576 0.0073358577         2206 
 4893000   0.46764837    -8.646325    551.57242 0.0093939033 0.0073332277         2116 
 4894000   0.48016766   -8.6545532    550.94064  0.009381226 0.0073305974         2151 
 4895000   0.46549147   -8.6265043    551.87319 0.0093951854 0.0073279706         2158 
 4896000   0.47414329   -8.6512036    551.96509 0.0093948307 0.0073253438         2142 
 4897000   0.46556652   -8.6539155    551.52686 0.0093854547 0.0073227152         2197 
 4898000    0.4743343   -8.6380496    551.73845 0.0093871385 0.0073200913         2174 
 4899000   0.47598774    -8.647523    551.22945 0.0093765641  0.007317466         2152 
 4900000   0.46687451   -8.6791865    551.19941 0.0093741397 0.0073148424         2265 
 4901000   0.46685045   -8.6683586    551.86355 0.0093835195 0.0073122198         2196 
 4902000   0.46034407   -8.6445122    552.46579 0.0093918433 0.0073095985         2101 
 4903000   0.46383066   -8.6558264    550.48389 0.0093562426 0.0073069772         2207 
 4904000   0.46745166   -8.6487436    551.22721 0.0093669659 0.0073043587         2161 
 4905000   0.46534443   -8.6737667    551.19926 0.0093645814 0.0073017417         2231 
 4906000   0.46756014   -8.6516992    551.72725  0.009371641 0.0072991268         2221 
 4907000    0.4690254   -8.6495018    551.43852 0.0093648279 0.0072965116         2113 
 4908000   0.46038344   -8.6507266    550.60729 0.0093488062 0.0072938973         2193 
 4909000   0.46476213   -8.6561776    552.09479  0.009372153 0.0072912841         2175 
 4910000   0.47920784   -8.6558407    551.01623 0.0093519388 0.0072886726         2218 
 4911000   0.46322446   -8.6533532    552.53919 0.0093758771 0.0072860622         2176 
 4912000   0.46707582   -8.6624988    553.00266 0.0093818313 0.0072834537         2171 
 4913000   0.45351913   -8.6558271    552.37243 0.0093692318 0.0072808465         2213 
 4914000   0.47234692   -8.6569487    552.00488 0.0093610922 0.0072782394         2113 
 4915000   0.47020624   -8.6714498    551.91176 0.0093576087  0.007275634         2180 
 4916000   0.46792936    -8.667759    552.18182 0.0093602831 0.0072730304         2211 
 4917000   0.45727517    -8.652212    551.57144 0.0093480348 0.0072704287         2174 
 4918000   0.46956409   -8.6451797    552.31455 0.0093587257 0.0072678291         2150 
 4919000   0.46512585   -8.6531176    551.98141 0.0093511793 0.0072652302         2248 
 4920000    0.4598296   -8.6582567    551.08765 0.0093341405 0.0072626321         2196 
 4921000   0.46768439   -8.6595936     551.7233 0.0093430078  0.007260035         2167 
 4922000    0.4704281   -8.6666569    551.49499 0.0093372441 0.0072574379         2173 
 4923000   0.47197309   -8.6516246    550.80052  0.009323592 0.0072548415         2245 
 4924000   0.46896659   -8.6478928    551.65745 0.0093362011 0.0072522504         2104 
 4925000   0.46282826   -8.6499649    551.02881 0.0093236684 0.0072496594         2171 
 4926000   0.46545722   -8.6595852     551.7259 0.0093335684 0.0072470679         2140 
 4927000   0.46607954   -8.6729794    551.54931 0.0093286874 0.0072444785         2205 
 4928000   0.45602256   -8.6623772    551.93807 0.0093333684  0.007241889         2168 
 4929000   0.45793767   -8.6572912    551.63565 0.0093263618 0.0072393002         2244 
 4930000    0.4770955   -8.6564009    551.90655 0.0093290492 0.0072367143         2171 
 4931000   0.45546949   -8.6668142    551.00628 0.0093119428 0.0072341275         2204 
 4932000    0.4665363   -8.6722947    551.52783 0.0093188671 0.0072315434         2146 
 4933000   0.46213424   -8.6553746    552.38822 0.0093315126 0.0072289609         2150 
 4934000   0.46104125   -8.6588808    552.28949 0.0093279538 0.0072263803         2165 
 4935000   0.45360959   -8.6575976    551.90884 0.0093196359 0.0072238002         2169 
 4936000   0.46527263   -8.6730675    551.86224 0.0093169612 0.0072212222         2151 
 4937000   0.46007892   -8.6531215    551.79438 0.0093139285 0.0072186441         2125 
 4938000   0.46146502   -8.6792985    551.85946 0.0093131406 0.0072160689         2233 
 4939000   0.45651955   -8.6419404    551.47576  0.009304781  0.007213494         2144 
 4940000   0.46659856   -8.6727161    551.87214 0.0093095841 0.0072109214         2197 
 4941000    0.4712642   -8.6608095    550.88741 0.0092910918 0.0072083483         2175 
 4942000    0.4465405   -8.6654315     551.4066 0.0092979663 0.0072057748         2156 
 4943000   0.45384099   -8.6630702    552.09857 0.0093077512  0.007203205         2206 
 4944000   0.45456384   -8.6588264    551.83442 0.0093014162 0.0072006356         2142 
 4945000   0.46633061    -8.672149    552.32955 0.0093078792 0.0071980682         2092 
 4946000   0.46938812   -8.6672488    551.11908 0.0092856024  0.007195501         2191 
 4947000   0.45795788   -8.6673367    551.20041 0.0092850955 0.0071929354         2167 
 4948000   0.46395892   -8.6660571    551.53439 0.0092888438 0.0071903704         2165 
 4949000   0.44626091   -8.6625999     550.9643 0.0092773674 0.0071878054         2105 
 4950000   0.46121125   -8.6680722    551.79589 0.0092894931 0.0071852433         2194 
 4951000    0.4584628   -8.6499644     551.3076 0.0092793981 0.0071826817         2195 
 4952000   0.45343176   -8.6604024    551.35949 0.0092783975 0.0071801228         2167 
 4953000   0.45086037   -8.6528787    551.41114 0.0092773931 0.0071775637         2128 
 4954000    0.4569643   -8.6831712    551.41766 0.0092756301 0.0071750052         2170 
 4955000   0.46564477    -8.671735    551.27187 0.0092713062 0.0071724497         2144 
 4956000   0.46723385    -8.652215    551.19483 0.0092681402 0.0071698941         2254 
 4957000   0.47003035   -8.6737253    551.38676 0.0092694969 0.0071673409         2209 
 4958000   0.46648925   -8.6808381    551.40289 0.0092678985 0.0071647882         2188 
 4959000    0.4551156   -8.6723065    552.01182 0.0092762623 0.0071622381         2231 
 4960000   0.45299538   -8.6716966    551.69357 0.0092690452 0.0071596877         2121 
 4961000   0.46383617   -8.6586673    551.60513 0.0092656912 0.0071571402         2136 
 4962000   0.45947677   -8.6817526     551.3128 0.0092589143 0.0071545926         2222 
 4963000   0.45421476   -8.6612202    550.52916 0.0092438908 0.0071520462         2108 
 4964000   0.44561856   -8.6712342    550.96778  0.009249392 0.0071495013         2184 
 4965000   0.46524556    -8.680427    551.77579 0.0092610908 0.0071469566         2181 
 4966000   0.46453144   -8.6798193    550.88435 0.0092442668 0.0071444138         2219 
 4967000   0.46394681   -8.6781844     550.7352 0.0092399034 0.0071418727         2239 
 4968000   0.46196603   -8.6652256    551.94485 0.0092583341  0.007139331         2177 
 4969000   0.45260743   -8.6557328    551.49802 0.0092489774 0.0071367926         2197 
 4970000   0.46669459   -8.6703697    551.58648 0.0092485996 0.0071342527         2198 
 4971000   0.45329986    -8.678981    551.35793 0.0092429078 0.0071317165         2136 
 4972000    0.4647301   -8.6778542    550.76715  0.009231147 0.0071291806         2211 
 4973000   0.45776049   -8.6735649     550.6097 0.0092266523 0.0071266456         2168 
 4974000   0.45621012   -8.6683766     551.2749 0.0092359419 0.0071241127         2178 
 4975000   0.45805236   -8.6617713    551.44762 0.0092369785 0.0071215809         2194 
 4976000   0.46196557   -8.6750908    551.39092 0.0092341727 0.0071190491         2213 
 4977000   0.47502116    -8.679529    550.60646 0.0092191825   0.00711652         2157 
 4978000   0.45297299   -8.6709434    551.02793 0.0092243861 0.0071139909         2160 
 4979000    0.4591337   -8.6820649    551.99091 0.0092386509 0.0071114638         2172 
 4980000   0.45359735   -8.6712075    551.57644 0.0092298601 0.0071089372         2174 
 4981000   0.45882977   -8.6642929    551.56772 0.0092278613 0.0071064137         2174 
 4982000   0.45600176   -8.6568368    551.51647 0.0092251517 0.0071038919         2126 
 4983000   0.45095986   -8.6584081    551.59747 0.0092246549 0.0071013702         2233 
 4984000   0.44530582   -8.6755333     551.6282 0.0092233179 0.0070988486         2180 
 4985000   0.44976139   -8.6747831    551.28112 0.0092156656 0.0070963289         2171 
 4986000   0.45039161   -8.6811596    551.17855 0.0092121031 0.0070938121         2116 
 4987000   0.46252353   -8.6646177    550.74479 0.0092030077 0.0070912944         2146 
 4988000   0.45645204   -8.6650087    550.99318 0.0092053124 0.0070887779         2181 
 4989000   0.45883889   -8.6680132    551.37222 0.0092097986 0.0070862657         2143 
 4990000   0.45440355   -8.6779244    552.26731  0.009222901 0.0070837519         2212 
 4991000   0.45403168   -8.6731087    551.00245  0.009199934 0.0070812405         2179 
 4992000   0.46151537   -8.6772156    550.93546 0.0091969729 0.0070787298         2235 
 4993000    0.4577229   -8.6670714    550.75058 0.0091920453 0.0070762183         2162 
 4994000   0.44596486   -8.6685403    550.71595 0.0091896267 0.0070737116         2174 
 4995000   0.45209889    -8.684455    551.66864  0.009203681 0.0070712025         2174 
 4996000   0.45402695   -8.6848569    551.55693 0.0091999754 0.0070686952         2221 
 4997000   0.45009919   -8.6847695    551.00446  0.009188921 0.0070661898         2212 
 4998000   0.44727856   -8.6772425    550.69757 0.0091819657 0.0070636853         2186 
 4999000   0.44128956   -8.6817117    550.98688 0.0091849517 0.0070611821         2227 
 5000000   0.45469939   -8.6738333     550.7583 0.0091793049 0.0070586803         2164 
 5001000   0.45186203   -8.6807855    550.93359 0.0091803904 0.0070561788         2174 
 5002000   0.44329085   -8.6787482     551.9087 0.0091948004 0.0070536797         2223 
 5003000   0.45469728   -8.6704198    550.88392 0.0091758932 0.0070511817         2196 
 5004000   0.45385893   -8.6793299      551.541  0.009185002 0.0070486846         2162 
 5005000   0.44160368   -8.6771492    551.45426 0.0091817226 0.0070461892         2172 
 5006000   0.44333479   -8.6664847    551.15532  0.009174912 0.0070436942         2195 
 5007000   0.44921751   -8.6944506    551.12903 0.0091726422 0.0070411993         2217 
 5008000   0.45286417   -8.6676466    550.31196 0.0091572145 0.0070387068         2174 
 5009000   0.44326384   -8.6658228    550.38823 0.0091566551 0.0070362153         2168 
 5010000   0.45315356   -8.6699169    551.09265 0.0091665444 0.0070337262         2233 
 5011000   0.45581768   -8.6921173    550.79719 0.0091598017 0.0070312374         2118 
 5012000   0.44127808   -8.6732645    550.77856 0.0091576643 0.0070287495         2116 
Loop time of 13251.7 on 48 procs for 5000000 steps with 4000 atoms

Performance: 65199.158 tau/day, 377.310 timesteps/s
99.4% CPU use with 48 MPI tasks x no OpenMP threads

MPI task timing breakdown:
Section |  min time  |  avg time  |  max time  |%varavg| %total
---------------------------------------------------------------
Pair    | 1010.3     | 1100.6     | 1189.5     | 142.3 |  8.31
Neigh   | 92.443     | 96.892     | 102.19     |  22.8 |  0.73
Comm    | 825.78     | 928.4      | 1032.2     | 159.0 |  7.01
Output  | 18.318     | 18.323     | 18.43      |   0.4 |  0.14
Modify  | 10950      | 10988      | 11040      |  18.3 | 82.92
Other   |            | 119.4      |            |       |  0.90

Nlocal:        83.3333 ave          90 max          75 min
Histogram: 2 0 2 3 16 5 9 1 6 4
Nghost:        2438.75 ave        2468 max        2412 min
Histogram: 2 0 4 6 16 10 5 3 1 1
Neighs:        16935.9 ave       20309 max       14376 min
Histogram: 1 8 8 3 9 8 5 4 1 1
FullNghs:      33799.8 ave       36511 max       30464 min
Histogram: 2 0 5 5 12 7 4 3 4 6

Total # of neighbors = 1622389
Ave neighs/atom = 405.59725
Neighbor list builds = 266374
Dangerous builds = 1

#clear
#
#next RN
#
#jump SELF
Total wall time: 3:40:55
