
units lj                  # Use reduced LJ style units
atom_style atomic         # Uncharged point particles
atom_modify map hash      # Needed for indexing of clusters etc
                          # Used to be able to find where atoms are in relation to each other.

lattice fcc 1.0 spacing 1 1 1
Lattice spacing in x,y,z = 1.5874011 1.5874011 1.5874011
region box block 0 10 0 10 0 10 units lattice
create_box 2 box
Created orthogonal box = (0.0000000 0.0000000 0.0000000) to (15.874011 15.874011 15.874011)
  3 by 4 by 4 MPI processor grid
create_atoms 1 box
Created 4000 atoms
  using lattice units in orthogonal box = (0.0000000 0.0000000 0.0000000) to (15.874011 15.874011 15.874011)
  create_atoms CPU = 0.003 seconds
set type 1 type/fraction 2 0.9 78393
Setting atom values ...
  3586 settings made for type/fraction
mass 1 1.0
mass 2 1.0
pair_style lj/cut  3.5
pair_modify tail  yes
pair_coeff 1  1  1.0  1.0   # Intearaction between 1 and 1 set with epsilon = 1 and sigma = 1
pair_coeff 1  2  1.5  0.8
pair_coeff 2  2  0.5  0.88

write_data data.0
System init for write_data ...
Neighbor list info ...
  update every 1 steps, delay 10 steps, check yes
  max neighbors/atom: 2000, page size: 100000
  master list distance cutoff = 3.8
  ghost atom cutoff = 3.8
  binsize = 1.9, bins = 9 9 9
  1 neighbor lists, perpetual/occasional/extra = 1 0 0
  (1) pair lj/cut, perpetual
      attributes: half, newton on
      pair build: half/bin/atomonly/newton
      stencil: half/bin/3d
      bin: standard
WARNING: Not all mixed pair coeffs generated from mixing. Use write_data with 'pair ij' option to store all pair coeffs. (../write_data.cpp:312)


#############################
#   M E L T   S Y S T E M   #
#############################

velocity all create 2.4 5300450 mom yes dist gaussian # Assign velocities
                                                    # Temperature 2.4, random number seed, zero linear momentum
                                                                                # Gaussian distribution

timestep 0.002   # simulation timestep
thermo 1000       # output thermodynamic data every 1000 steps bf 100

# Define a fix  in this case with index 1 applied to all
# particles in the simulation. This fix is for simulations
# in the anisotropic NPT ensemble. Note that we use the MTK
# correction.
fix 1 all npt temp 2.4 2.4 0.1 iso 5.68 5.68 0.5 mtk yes tchain 5 pchain 5 # Use NPT ensemble
                                                                         # Set temperature and pressure and damping
                                                                         # Numbers of thermostats in chain and in barostat
run 10000          # run for 10000 steps
Per MPI rank memory allocation (min/avg/max) = 3.642 | 3.644 | 3.648 Mbytes
Step Temp E_pair E_mol TotEng Press Volume 
       0          2.4   -3.1995671            0   0.39953293    -2.596694         4000 
    1000    2.4103722   -2.2200174            0     1.394637    6.0026876    3982.2783 
    2000    2.4246043   -2.2590408            0    1.3769565    5.6096864    4001.1894 
    3000    2.4342329   -2.2691195            0    1.3813171    5.7795991    3975.9385 
    4000    2.4268985   -2.1724033            0    1.4670344    5.8420151     4027.036 
    5000    2.3995052    -2.246638            0      1.35172    5.7099726    3998.6025 
    6000    2.3627421   -2.2665083            0    1.2767188    5.6487817    3995.3487 
    7000    2.4219968   -2.2651594            0    1.3669275    5.4913002    4024.0322 
    8000    2.4175536   -2.2782963            0    1.3471274    5.7047485    3977.9035 
    9000    2.4097953   -2.2667096            0    1.3470797    5.7254534    3975.5293 
   10000    2.4246689   -2.2878926            0    1.3482015    5.4796143    4004.7019 
Loop time of 2.47508 on 48 procs for 10000 steps with 4000 atoms

Performance: 698159.874 tau/day, 4040.277 timesteps/s
99.7% CPU use with 48 MPI tasks x no OpenMP threads

MPI task timing breakdown:
Section |  min time  |  avg time  |  max time  |%varavg| %total
---------------------------------------------------------------
Pair    | 1.106      | 1.1521     | 1.2276     |   2.6 | 46.55
Neigh   | 0.20891    | 0.21635    | 0.23086    |   1.0 |  8.74
Comm    | 0.77611    | 0.85027    | 0.91659    |   3.5 | 34.35
Output  | 0.0002519  | 0.0002561  | 0.0003326  |   0.0 |  0.01
Modify  | 0.21939    | 0.24095    | 0.26222    |   2.6 |  9.73
Other   |            | 0.01513    |            |       |  0.61

Nlocal:        83.3333 ave          93 max          74 min
Histogram: 3 3 4 9 8 1 10 4 4 2
Nghost:        1645.00 ave        1673 max        1610 min
Histogram: 1 2 2 4 10 9 8 6 3 3
Neighs:        9537.10 ave       10745 max        8331 min
Histogram: 5 3 3 7 9 1 6 6 4 4

Total # of neighbors = 457781
Ave neighs/atom = 114.44525
Neighbor list builds = 914
Dangerous builds = 252

# Equilibrate just above the melting temperature to avoid step fn in T

fix 1 all npt temp 1.25 1.25 0.1 iso 5.68 5.68 0.5 mtk yes tchain 5 pchain 5
run 2000
Per MPI rank memory allocation (min/avg/max) = 3.643 | 3.645 | 3.649 Mbytes
Step Temp E_pair E_mol TotEng Press Volume 
   10000    2.4246689   -2.2878926            0    1.3482015    5.4796143    4004.7019 
   11000    1.2356584   -3.3546996            0   -1.5016754    5.5719163    3115.2102 
   12000    1.2631256   -3.3419808            0   -1.4477661    5.7036983     3111.634 
Loop time of 0.600123 on 48 procs for 2000 steps with 4000 atoms

Performance: 575882.220 tau/day, 3332.652 timesteps/s
99.6% CPU use with 48 MPI tasks x no OpenMP threads

MPI task timing breakdown:
Section |  min time  |  avg time  |  max time  |%varavg| %total
---------------------------------------------------------------
Pair    | 0.26392    | 0.29126    | 0.31865    |   1.8 | 48.53
Neigh   | 0.037665   | 0.041294   | 0.046524   |   0.6 |  6.88
Comm    | 0.19133    | 0.21846    | 0.25386    |   2.6 | 36.40
Output  | 5.0867e-05 | 5.2599e-05 | 6.611e-05  |   0.0 |  0.01
Modify  | 0.038678   | 0.044343   | 0.048723   |   1.3 |  7.39
Other   |            | 0.004715   |            |       |  0.79

Nlocal:        83.3333 ave          92 max          78 min
Histogram: 4 4 13 8 4 7 4 1 2 1
Nghost:        1945.96 ave        1964 max        1931 min
Histogram: 1 7 3 9 9 6 8 3 1 1
Neighs:        12275.5 ave       13777 max       10963 min
Histogram: 2 7 1 7 9 10 5 5 1 1

Total # of neighbors = 589222
Ave neighs/atom = 147.30550
Neighbor list builds = 143
Dangerous builds = 16

#############################
# L I N E A R  Q U E N C H  #
#############################

# Define solid atoms. This closely follows ten Wolde  Ruiz-Montero and Frenkel  Faraday Discuss  1996  104  93-110
# Compute components of the per-atom q6 vector
compute q6 all orientorder/atom degrees 1 6 components 6 nnn NULL cutoff 1.3 # compute the Q6 parameter.
                                                                             # Use all neighbours within 1.3 unit cell.

# get number of connections
compute coord_number all coord/atom orientorder q6 0.5

# An atom is solid if it has 8 or more connections (of a possible 14)
variable is_solid atom c_coord_number>=8
group solid dynamic all var is_solid    # Must be dynamic to update
dynamic group solid defined

# do clustering
compute cluster solid cluster/atom 1.3 # Create a cluster where all atoms within are solid and max 1.3 units from another member

# define chunks one chunk per cluster
compute clus_chunks solid chunk/atom c_cluster nchunk every compress yes  # Says which atoms are in which chunk

# count the size of each chunk
compute size_chunks solid property/chunk clus_chunks count


# Find the maximum entry in the vector of chunk sizes
variable max_n equal max(c_size_chunks)


# Thermo style which includes this variable
# thermo_style custom step temp pe vol v_max_n

thermo ${N}  # Print the thermo information every 100 steps
thermo 1000  

# Reset the npt fix at a lower temperature (below freezing)
fix 1  all npt temp  ${temp} ${temp}  0.1  iso  5.68  5.68  0.5  mtk yes tchain  5  pchain  5
fix 1  all npt temp  0.45 ${temp}  0.1  iso  5.68  5.68  0.5  mtk yes tchain  5  pchain  5
fix 1  all npt temp  0.45 0.45  0.1  iso  5.68  5.68  0.5  mtk yes tchain  5  pchain  5

dump dmp2 all dcd ${N} traj.dcd
dump dmp2 all dcd 1000 traj.dcd


compute msd all msd com yes
variable twopoint equal c_msd[4]/6/(step*dt+1.0e-6)
fix 9 all vector 10 c_msd[4]
variable fit equal slope(f_9)/6/(10*dt)
thermo_style custom step temp pe c_msd[4] v_twopoint v_fit v_max_n

fix 1 all npt temp 1.25 ${temp} 0.1 iso 5.68 5.68 0.5 mtk yes tchain 5 pchain 5
fix 1 all npt temp 1.25 0.45 0.1 iso 5.68 5.68 0.5 mtk yes tchain 5 pchain 5
run 500000 # 5000000  # Run for this many steps
Neighbor list info ...
  update every 1 steps, delay 10 steps, check yes
  max neighbors/atom: 2000, page size: 100000
  master list distance cutoff = 3.8
  ghost atom cutoff = 3.8
  binsize = 1.9, bins = 8 8 8
  4 neighbor lists, perpetual/occasional/extra = 1 3 0
  (1) pair lj/cut, perpetual
      attributes: half, newton on
      pair build: half/bin/atomonly/newton
      stencil: half/bin/3d
      bin: standard
  (2) compute orientorder/atom, occasional
      attributes: full, newton on
      pair build: full/bin/atomonly
      stencil: full/bin/3d
      bin: standard
  (3) compute coord/atom, occasional
      attributes: full, newton on
      pair build: full/bin/atomonly
      stencil: full/bin/3d
      bin: standard
  (4) compute cluster/atom, occasional
      attributes: full, newton on
      pair build: full/bin/atomonly
      stencil: full/bin/3d
      bin: standard
Per MPI rank memory allocation (min/avg/max) = 9.823 | 9.828 | 9.832 Mbytes
Step Temp PotEng c_msd[4] v_twopoint v_fit v_max_n 
   12000    1.2631256   -3.3419808 5.2352754e-30 3.6356078e-32 8.3333333e+20            3 
   13000    1.2579727   -3.3688606   0.97614103  0.006257314  0.082860459            2 
   14000     1.233693   -3.3870518    2.1173162  0.012603072  0.088693063            2 
   15000    1.2072788   -3.3525003    3.2396152  0.017997862  0.091267002            1 
   16000    1.2399045   -3.3616446    4.2895961  0.022341645  0.091755781            2 
   17000    1.2412465   -3.3492778    5.4118727  0.026528787  0.091133393            1 
   18000    1.2596581   -3.3648357    6.5395456  0.030275673  0.092012521            2 
   19000    1.2360339   -3.3646417    7.6709631  0.033644574  0.092439639            3 
   20000    1.2279372   -3.3542144    8.9452772  0.037271987   0.09329807            1 
   21000    1.2041709   -3.3558572     10.13022  0.040199285  0.094250437            2 
   22000     1.234722   -3.4208415    10.997903  0.041658723  0.094316859            1 
   23000     1.230137   -3.3695986    12.122254   0.04392121  0.093731125            3 
   24000    1.2349457   -3.4117834    13.341323  0.046324036  0.093569135            2 
   25000      1.23618   -3.3749757    14.477686  0.048258953  0.093649602            2 
   26000    1.2207971   -3.3980236    15.549496  0.049838126    0.0936641            1 
   27000    1.2240579   -3.4183186    16.556596  0.051100604  0.093453142            2 
   28000    1.2193848    -3.383624    17.727295  0.052759804  0.093352417            3 
   29000     1.240938   -3.4096523    18.874963    0.0542384  0.093261725            4 
   30000    1.2118619   -3.3660305    19.664925   0.05462479  0.092981249            2 
   31000    1.1928361   -3.3909789    20.499439  0.055106018  0.092388895            2 
   32000     1.216264   -3.4134647    21.285986  0.055432254  0.091517351            2 
   33000    1.1939873   -3.3868461    22.317962  0.056358488  0.090829255            2 
   34000     1.234708    -3.421973    23.367905  0.057274276  0.090245953            2 
   35000    1.2184997   -3.3998048    24.380153  0.058047982  0.089735433            2 
   36000     1.198631   -3.4097795    25.444063  0.058898293  0.089360733            1 
   37000    1.1977769   -3.3927235    26.621055  0.059957331  0.089095105            1 
   38000    1.2180963   -3.4292995    27.708824  0.060764964  0.088856427            5 
   39000    1.2092712    -3.412869    28.763073  0.061459556  0.088648747            1 
   40000    1.1784337   -3.4057048    29.707545  0.061890718   0.08846521            2 
   41000    1.1960993   -3.4131193    30.746314  0.062492508  0.088273047            1 
   42000    1.1838055   -3.4448222    31.745832  0.062987761  0.088104198            1 
   43000    1.2064846   -3.4288886     32.71212  0.063395581  0.087933576            1 
   44000    1.1853342   -3.3965078    33.972155  0.064341203   0.08785291            1 
   45000    1.2195531   -3.4147581    34.981491  0.064780539  0.087754199            4 
   46000    1.1914652   -3.4563778    35.965202  0.065154351  0.087658554            2 
   47000    1.1793174   -3.4410425    37.316662  0.066164294  0.087645921            2 
   48000     1.186088   -3.4348062    38.369866   0.06661435  0.087655042            3 
   49000    1.1714378   -3.4133597     39.43518  0.067066632  0.087656496            2 
   50000    1.2022689   -3.4464445    40.217826  0.067029709  0.087615861            3 
   51000    1.2124274   -3.4727544    41.032844  0.067047131  0.087563769            3 
   52000     1.212596   -3.4338008    42.010044  0.067323787  0.087499125            3 
   53000    1.1798373   -3.4388707    43.264063  0.068025255  0.087425375            1 
   54000    1.2289273   -3.4727856    44.042562  0.067966916  0.087366664            3 
   55000    1.1948032   -3.4541692    45.231899   0.06853318  0.087259519            2 
   56000    1.1923102   -3.4503185    45.956657  0.068387882  0.087117819            2 
   57000    1.1984258   -3.4333019     46.85188  0.068496899  0.086973769            2 
   58000    1.1659871   -3.4450814    47.882833  0.068797173  0.086825056            2 
   59000    1.1613939   -3.4585732    48.679807   0.06875679  0.086639342            1 
   60000    1.1681275    -3.455052    49.625339  0.068924082  0.086464965            6 
   61000    1.1544392   -3.4414674    50.864866  0.069487522  0.086301127            3 
   62000    1.1726573   -3.5029399    51.902971  0.069762057  0.086162218            4 
   63000    1.1570484   -3.4646485    52.296352  0.069175068  0.085996257            1 
   64000    1.1555278   -3.4465809    53.190816  0.069258874  0.085815921            3 
   65000    1.1197218   -3.4624322    54.347727  0.069676572  0.085626952            4 
   66000    1.1471168   -3.4729199    54.973111  0.069410494  0.085449198            2 
   67000    1.1831834   -3.4892498    55.990683  0.069640152  0.085255992            3 
   68000    1.1679642   -3.4733236    56.939299  0.069778552  0.085070629            2 
   69000    1.1655603    -3.447419    58.047675  0.070105887  0.084880351            2 
   70000    1.1457583   -3.4872588    58.705749  0.069887796  0.084673421            3 
   71000    1.1437381   -3.4793096    59.289698  0.069588847  0.084472728            3 
   72000    1.1576651   -3.4780633    60.249128  0.069732787  0.084259712            1 
   73000     1.149836   -3.5198473    60.793416  0.069398876  0.084041684            2 
   74000    1.1656903   -3.4743323     62.15509  0.069994471  0.083819992            1 
   75000    1.1271882   -3.5486641    62.711986  0.069679983  0.083615727            3 
   76000    1.1206493   -3.5028303    63.686276  0.069831443  0.083410754            3 
   77000    1.1546878   -3.5210578    64.404265  0.069701585  0.083199087            2 
   78000    1.1456453   -3.4865775    65.400803  0.069872653  0.083001869            2 
   79000    1.1370375   -3.4812178    66.659529  0.070315959  0.082825476            3 
   80000    1.1528052   -3.4870525    67.301444   0.07010567   0.08265216            2 
   81000    1.1434606   -3.5023376    68.394342  0.070364549  0.082470776            2 
   82000      1.13253   -3.4938763    69.091301  0.070214736  0.082312025            2 
   83000    1.1059154   -3.5307314    69.935527  0.070216393  0.082141485            2 
   84000    1.1376275   -3.5109837    71.241075  0.070675669  0.081983448            3 
   85000     1.159405   -3.5065416    71.763237  0.070356114  0.081838784            5 
   86000    1.1243998   -3.5417687    72.885213  0.070625206  0.081703197            2 
   87000    1.1257784   -3.5351027    73.407916  0.070314096  0.081545028            2 
   88000    1.1503702   -3.5201705    74.305232  0.070364802  0.081400226            2 
   89000    1.1376922   -3.5124197    75.664511   0.07084692  0.081263085            1 
   90000    1.1237827   -3.5502876    76.554558  0.070883849  0.081145712            5 
   91000    1.1110913   -3.4976904    77.323075  0.070808676  0.081027596            1 
   92000    1.1405248   -3.5353092    77.852116  0.070518221  0.080908936            2 
   93000     1.090199   -3.5182512    79.348696  0.071100982  0.080806797            2 
   94000    1.1285164   -3.5499059    80.461521  0.071331135   0.08071769            2 
   95000    1.1349425   -3.5681686    80.560479  0.070667087  0.080601578            1 
   96000     1.102431   -3.5251286    81.480928  0.070729972  0.080464558            2 
   97000    1.1272801   -3.5668722    82.235855  0.070649359  0.080341156            1 
   98000    1.1243343   -3.5313496    83.163433  0.070717204  0.080215945            1 
   99000    1.0839721   -3.5440811    83.976446  0.070687244  0.080093683            3 
  100000    1.1038201   -3.5175396    85.000717   0.07083393  0.079985829            1 
  101000    1.1229885   -3.5246755    85.561241  0.070595083  0.079861337            4 
  102000    1.1255781   -3.5490109      86.2429  0.070459885  0.079732093            9 
  103000    1.0799236   -3.5364297    87.080094  0.070453151    0.0796011            3 
  104000     1.081067   -3.5525173     87.90711  0.070438389  0.079453405            2 
  105000    1.0693005    -3.556704    88.662899  0.070367379  0.079300879            3 
  106000    1.1203573   -3.5677037    89.038653   0.06999894  0.079137814            3 
  107000    1.1115419   -3.5509195    89.353805   0.06959019  0.078963556            6 
  108000      1.11747   -3.5661906    90.404367  0.069756456  0.078785026            3 
  109000    1.0904528   -3.5537047    91.136385  0.069676135  0.078607696            5 
  110000    1.0867224   -3.5689004    91.781758  0.069531634  0.078434897            1 
  111000    1.0900091   -3.5677386    92.124075  0.069162218  0.078253602            3 
  112000    1.0945666   -3.5747796    92.791581  0.069041354  0.078059453            2 
  113000    1.0609392   -3.5701531    93.558653  0.068996056  0.077870735            2 
  114000    1.1041509   -3.5660037     94.50497   0.06908258  0.077670981            2 
  115000    1.0729387   -3.5884143    94.533768   0.06850273  0.077478294            1 
  116000    1.0785976   -3.5599498    95.964047  0.068939689  0.077284124            2 
  117000    1.0984223   -3.6031348    96.072304  0.068427567  0.077089509            3 
  118000    1.0612329   -3.5856039    96.627361  0.068239661   0.07689065            3 
  119000    1.0776112   -3.5987981    97.482868  0.068265313  0.076691382            4 
  120000    1.0685707   -3.5749571    98.262837  0.068238081  0.076492156            2 
  121000    1.0842037   -3.6070921    98.657758  0.067946114   0.07629331            3 
  122000    1.0686744   -3.6092135    99.635725  0.068057189   0.07608803            2 
  123000    1.0801869   -3.6199343    99.509255  0.067418194  0.075886729            1 
  124000    1.0611406   -3.6111713    101.02481  0.067893019  0.075688269            2 
  125000    1.0504148   -3.5855688     101.2541  0.067502731  0.075489367            1 
  126000    1.0920029   -3.5952317    102.28952  0.067651796  0.075295474            5 
  127000     1.064407   -3.6077364    102.91301  0.067528219  0.075099209            3 
  128000    1.0589578   -3.6103302    104.19951  0.067838225  0.074914725            4 
  129000    1.0461057   -3.5922185    104.85265  0.067734272  0.074736532            2 
  130000    1.0717718   -3.5812125     105.4872  0.067619999  0.074557303            2 
  131000    1.0248264   -3.6368656    106.30032  0.067621065  0.074385673            2 
  132000    1.0538485   -3.6271741    106.79683  0.067422243  0.074219056            2 
  133000    1.0508525   -3.6051581    108.09458  0.067728433  0.074060041            2 
  134000    1.0453899   -3.6236207    108.10925  0.067232122  0.073902778            2 
  135000    1.0647453   -3.6217065    108.65355  0.067070094  0.073732311            3 
  136000    1.0347831    -3.631441    109.48744  0.067087895  0.073562147            2 
  137000    1.0643793   -3.6317409    110.25636  0.067065911  0.073398693            1 
  138000    1.0477782   -3.6649873    110.64447  0.066814295  0.073233758            2 
  139000    1.0587099   -3.6343424    111.26595  0.066706207  0.073075325            3 
  140000    1.0405593   -3.6313626    111.87214   0.06659056  0.072916431            3 
  141000    1.0541718   -3.6714303    112.25219  0.066342901  0.072752756            5 
  142000    1.0623659   -3.6164528    113.63732  0.066688569  0.072594654            3 
  143000    1.0399993   -3.6350628    114.44828  0.066694802  0.072434396            1 
  144000    1.0473771   -3.6376817    114.68586  0.066369134  0.072269379            3 
  145000    1.0315652   -3.6310428    114.71364  0.065927381    0.0721072            4 
  146000    1.0376442   -3.6388776    115.60101  0.065982309  0.071939756            2 
  147000    1.0349912   -3.6175961    116.80355  0.066215162  0.071774748            1 
  148000    1.0368953   -3.6651506    117.13226  0.065952849   0.07161551            3 
  149000    1.0153141   -3.6484506    118.05015  0.066023574  0.071455651            3 
  150000    1.0295475   -3.6674576      117.389  0.065216112   0.07129682            3 
  151000    1.0269336   -3.6629948    118.55624  0.065428388  0.071133472            4 
  152000    1.0412817   -3.6633968      119.439  0.065481909  0.070974742            2 
  153000      1.03954   -3.6647603    120.14427  0.065438055  0.070818631            7 
  154000    1.0203523   -3.6603868    120.63491  0.065278633  0.070667668            2 
  155000   0.99580953   -3.6783334     121.2326  0.065178818  0.070510607            1 
  156000    1.0374299   -3.6724929    121.90592  0.065120682  0.070352593            4 
  157000    1.0267777   -3.6782432    122.81908  0.065190595  0.070193304            2 
  158000    1.0186033   -3.6701138    122.97382  0.064859609  0.070034602            2 
  159000    1.0272719   -3.7110031    123.38616  0.064667799  0.069875488            3 
  160000    1.0018128   -3.6680954    124.25459  0.064715931  0.069721293            5 
  161000    1.0025244   -3.7019251    124.77356  0.064582587  0.069565529            2 
  162000    1.0057516   -3.6963083    125.31981  0.064464923  0.069407781            7 
  163000   0.98682364   -3.7113586    125.79128  0.064310473  0.069251287            1 
  164000    1.0129116   -3.7011652    126.51582  0.064286494  0.069092464            4 
  165000     1.008568   -3.6967162    126.52149   0.06389974  0.068933901            5 
  166000    1.0001501   -3.7216858    127.54525  0.064028742  0.068776393            2 
  167000   0.98647316    -3.695324     128.6093  0.064176295  0.068620207            3 
  168000   0.99623761   -3.6853642    128.68138   0.06383005  0.068473305            3 
  169000    1.0125464   -3.6815932    130.20426  0.064203283   0.06833188            5 
  170000    1.0176566   -3.7023798    130.00161  0.063726279  0.068183394            2 
  171000     1.000578   -3.7034005    130.87956   0.06378146  0.068042703            2 
  172000    0.9914902   -3.7018285    131.55465  0.063737719  0.067904782            3 
  173000   0.96964805    -3.757792    131.82971  0.063501787  0.067766107            4 
  174000   0.97958176   -3.7106766    133.64752  0.064007434  0.067634969            2 
  175000   0.97249342   -3.6870568    134.50174  0.064048448  0.067512336            5 
  176000    0.9909656   -3.7095032    134.48571  0.063676944  0.067388904            4 
  177000    1.0039992   -3.7147679    135.14158  0.063625978  0.067263771            2 
  178000   0.98092875   -3.7240567    135.41596  0.063396983  0.067139292            3 
  179000   0.99462807   -3.7395264    136.60395  0.063595879  0.067015267            5 
  180000   0.98451369   -3.7706138    136.33683  0.063118905  0.066889272            4 
  181000   0.98611997   -3.7363894     137.4029  0.063261005  0.066768045            6 
  182000   0.98415572   -3.7318623    138.28797  0.063318665  0.066648213            2 
  183000   0.98109607   -3.7516204    138.97376  0.063284954  0.066529345            2 
  184000   0.97355999    -3.728388    139.18872  0.063038369  0.066406394            4 
  185000   0.97855772   -3.7452682     139.4139  0.062799055   0.06628532            5 
  186000   0.99281923   -3.7184714    140.49335  0.062945048  0.066162857            2 
  187000   0.99765553   -3.7372169    141.24911  0.062945234  0.066045802            3 
  188000   0.98346256   -3.7450677     141.5336  0.062736526  0.065928724            4 
  189000    0.9530706   -3.7680913    142.07816  0.062644693  0.065812156            3 
  190000   0.95019437   -3.7594511    142.47742  0.062490095  0.065688622            2 
  191000   0.98271635   -3.7602831    142.63845   0.06223318  0.065559605            7 
  192000   0.94069955   -3.7637416    142.91939  0.062030985  0.065428267            4 
  193000   0.95906193    -3.773015     143.1052  0.061789812   0.06529844            4 
  194000   0.96436652   -3.7342866    144.33328  0.061998831  0.065169306            1 
  195000   0.96987245   -3.7922117    144.18865  0.061619082  0.065039493            2 
  196000   0.96837495     -3.75362    144.96296   0.06163391  0.064910485            5 
  197000   0.95686409   -3.8090685    145.57185  0.061578615  0.064781239            5 
  198000   0.96121202   -3.7841732    145.60337  0.061280878  0.064652364            4 
  199000   0.95116675   -3.7755695    146.76425  0.061459065  0.064524831            2 
  200000   0.93386069   -3.7527078     147.1627  0.061317792  0.064398726            2 
  201000   0.92650915    -3.795491    147.56538  0.061179677  0.064272798            3 
  202000   0.94056292   -3.7863378    148.04414  0.061074317    0.0641476            4 
  203000   0.95549075   -3.8038738    148.16469  0.060822943  0.064023379            2 
  204000   0.93353139   -3.7888568    149.17831  0.060938851  0.063899756            6 
  205000   0.95410402   -3.7797649    150.13963  0.061032369  0.063776324            2 
  206000   0.94121357   -3.7775371    150.19799  0.060759705  0.063654931            3 
  207000   0.93941026   -3.8249373    150.28717  0.060502082  0.063531924            3 
  208000   0.94116505   -3.8013842    151.10219  0.060537735     0.063408            6 
  209000   0.92786871   -3.7940228    151.84695  0.060545036  0.063287308            2 
  210000   0.93065055   -3.7964699    151.56293  0.060144018  0.063163448            2 
  211000    0.9284557   -3.7855733    152.09397  0.060068707   0.06303973            3 
  212000   0.91845751   -3.8373271    152.72941  0.060035144  0.062914793            3 
  213000   0.93962996   -3.8206092    153.31808  0.059983599  0.062790273            4 
  214000   0.94210371   -3.8093206    153.70029  0.059852137  0.062664956            4 
  215000   0.93924017   -3.8427196    154.38687   0.05983987  0.062543949            4 
  216000   0.93519668   -3.8175631     155.5233  0.060001273  0.062426899            4 
  217000   0.91507428   -3.8006703    156.07312  0.059935915  0.062310163            5 
  218000   0.91564581   -3.8432311    156.09657  0.059669941  0.062194081            4 
  219000   0.92248768   -3.8256193    156.98745  0.059736471  0.062075645            3 
  220000   0.91411461   -3.8303813    156.85581   0.05941508  0.061955934            4 
  221000   0.91439545   -3.8448246    157.59047  0.059423253   0.06183693            5 
  222000   0.92129474   -3.8455429    157.91866  0.059278778  0.061720453            3 
  223000   0.90197433   -3.8327374    158.51773  0.059236819  0.061604367            5 
  224000   0.92674251   -3.8675293    158.22898  0.058864949  0.061485624            4 
  225000    0.8895388   -3.8277439    159.40485  0.059038832  0.061366355            2 
  226000   0.90436843   -3.8505628      160.005  0.058998893  0.061249945            8 
  227000   0.91412277   -3.8406763    159.98417  0.058731339  0.061132157            2 
  228000   0.93049511   -3.8455901    160.35329  0.058608659  0.061012034            3 
  229000   0.90420183   -3.8431674    159.98871  0.058220056  0.060887577            2 
  230000   0.91002885   -3.8421227    160.78244  0.058254506  0.060763743            6 
  231000   0.90529535    -3.856359    161.37289  0.058215329  0.060640496            5 
  232000   0.90774505   -3.8807229    161.90724  0.058156335  0.060519788            4 
  233000   0.89618932   -3.8500452    162.80099  0.058226392  0.060402298            6 
  234000   0.87832538   -3.8742222    162.43939  0.057848786  0.060283148            4 
  235000    0.8846636   -3.8601794    162.75961  0.057716175  0.060161186            7 
  236000    0.8863138   -3.8651241    163.31521  0.057667801  0.060039481            7 
  237000   0.88519664   -3.8934012    163.43493  0.057466572  0.059919898            2 
  238000    0.8886921   -3.8889115    163.96369  0.057410257  0.059798542            4 
  239000   0.88028916   -3.8990609    165.23923  0.057614792  0.059678877            3 
  240000   0.89705945   -3.8715268     165.8285   0.05757934  0.059561543            3 
  241000   0.90229193   -3.8616399    166.74402   0.05765699  0.059448295            3 
  242000   0.87494707   -3.8765225    167.44972   0.05766175  0.059336285            2 
  243000    0.8662393   -3.8742005     166.7109  0.057171091   0.05922398            5 
  244000   0.89203964   -3.8788097    167.52318  0.057214201   0.05910925            2 
  245000   0.88409782   -3.9050498    168.20893   0.05721392  0.058998589            3 
  246000   0.85917766   -3.8961414    168.89104  0.057212413  0.058888057            6 
  247000   0.87668131    -3.878736    169.31027  0.057122222  0.058780042            3 
  248000   0.87397852   -3.8910389    168.90833  0.056756832  0.058669589            6 
  249000   0.88197008   -3.9246653    169.91759  0.056866665  0.058559602            6 
  250000   0.86849674   -3.9019773     170.0313    0.0566771  0.058451191            4 
  251000   0.85661926   -3.9064758    170.64731  0.056655814  0.058341418            2 
  252000   0.86064154    -3.918398    171.13985  0.056593865  0.058231689            4 
  253000   0.85532358   -3.9216621    171.88322  0.056615026  0.058125641            4 
  254000   0.87576053   -3.9230977    171.47702  0.056258866  0.058015511            4 
  255000   0.84481942   -3.9212237    171.89533  0.056174946  0.057903795            8 
  256000   0.86632438   -3.9101349    172.38032  0.056113384  0.057793957            3 
  257000   0.86268533   -3.9314825    173.13508  0.056139778  0.057686083            2 
  258000   0.85226757   -3.9122495    173.37466  0.055999568  0.057581433            4 
  259000   0.85819071    -3.916524    174.69472  0.056208081  0.057478009            4 
  260000   0.85095527    -3.922811      174.934  0.056068589  0.057379225            5 
  261000   0.85088884   -3.9686686    175.43901   0.05601501  0.057279872            6 
  262000   0.84133599   -3.9482009    175.64246  0.055865923  0.057177608            5 
  263000   0.86264973    -3.943694    176.12643  0.055806854  0.057075679            2 
  264000   0.84149136   -3.9381927     175.7661  0.055481724  0.056972378            3 
  265000   0.83555251   -3.9541352    176.43705  0.055483348  0.056866861            2 
  266000   0.84901955   -3.9762411    176.73251  0.055367326  0.056762651            6 
  267000   0.85429783    -3.970847    177.62581  0.055438768  0.056660229            4 
  268000   0.84679946   -3.9759593    177.47651  0.055185482  0.056558047            5 
  269000   0.84589262   -3.9397778    178.37896    0.0552599  0.056454918            4 
  270000   0.84219336   -3.9656746    178.59304  0.055121309  0.056351139            4 
  271000   0.84163596    -3.966616    178.96976  0.055033752  0.056247869            8 
  272000   0.83912991   -3.9833959    178.70122  0.054749148  0.056144152            6 
  273000   0.84659935   -3.9312574    179.45623   0.05477907  0.056037957            7 
  274000   0.84057977   -3.9821468    179.69616  0.054652115  0.055933425            8 
  275000   0.82904216   -3.9779313    179.89806  0.054514563  0.055829323            7 
  276000   0.83373582   -3.9755252    180.39102  0.054465887  0.055725605            3 
  277000   0.82094253   -3.9746999    180.59801   0.05433153   0.05562093            2 
  278000    0.8335642   -3.9719772    180.96162   0.05424509  0.055517605            3 
  279000   0.82962699   -3.9901293    181.80636  0.054302974  0.055413648            5 
  280000    0.8097314   -3.9922901    181.83226  0.054116745  0.055308724            3 
  281000    0.8074196    -3.978153    182.43507  0.054102928  0.055204594            5 
  282000   0.81710127   -3.9536532    182.60754  0.053962039  0.055102641            6 
  283000   0.82035519   -4.0011405    183.27998  0.053969371  0.054998721           14 
  284000   0.80879626   -4.0170973    183.30547  0.053786817  0.054893636            6 
  285000   0.82249213   -4.0146166    183.78099  0.053737132  0.054790724            5 
  286000   0.82576528    -4.020272    184.05806  0.053629972  0.054688418            5 
  287000   0.79148486   -4.0040165    184.54424  0.053584275  0.054586642            4 
  288000   0.79966683   -4.0015476    185.18506  0.053583641  0.054485763            4 
  289000   0.80795609   -4.0246241    185.28562  0.053427227  0.054385263            4 
  290000   0.81039678   -4.0029761    185.63474  0.053343315  0.054284067            6 
  291000   0.81564584   -4.0085255     186.4838   0.05340315  0.054183931           14 
  292000   0.79868681   -4.0214661    185.56135  0.052957007  0.054082751            3 
  293000   0.80989866    -4.036186    186.13852  0.052940421  0.053981478            8 
  294000   0.78944097   -4.0233339    186.53171  0.052871801  0.053879515            7 
  295000   0.79287524   -4.0465058    187.02657  0.052832365  0.053777629            4 
  296000   0.80465075   -4.0415041    187.18737  0.052699147  0.053677019            3 
  297000   0.78281755   -4.0106999    187.77512  0.052686623  0.053575559            5 
  298000   0.78778243   -4.0365618    188.09679  0.052599774  0.053473547            4 
  299000   0.77631943      -4.0466    188.90158  0.052648155    0.0533716           16 
  300000   0.79039109   -4.0613042    187.91624  0.052198955  0.053268065            6 
  301000   0.77561107   -4.0404874    188.54496  0.052199601  0.053164325            6 
  302000   0.79983738   -4.0634627    188.81717  0.052101868  0.053061173           12 
  303000   0.78741937    -4.046954    189.67744  0.052166512  0.052959305            3 
  304000   0.78624153   -4.0678087    189.63537   0.05198338  0.052859318            6 
  305000   0.76911436   -4.0712013    189.71612  0.051835005  0.052757984           10 
  306000   0.78287547   -4.0828494    190.30483  0.051825933  0.052656774            4 
  307000   0.76209001   -4.0684314    190.66854  0.051755846  0.052556877            3 
  308000   0.77701876   -4.0576136    191.18566  0.051727721  0.052457018            7 
  309000   0.78317862   -4.0604379    190.85583  0.051471367  0.052355712            6 
  310000   0.77169209   -4.0950062    190.98141  0.051339088  0.052255311            3 
  311000   0.79476052   -4.0794524    191.92998  0.051428182  0.052155382            6 
  312000   0.76377039   -4.0786285    192.33156  0.051370609  0.052055566            7 
  313000   0.76081002   -4.0821837    191.36865   0.05095012  0.051954527            7 
  314000   0.76879878   -4.0643827    192.39226  0.051059517  0.051853818            3 
  315000    0.7623599    -4.087078     193.0594  0.051073917  0.051754412            5 
  316000   0.75926542   -4.0873513    193.28009  0.050970489  0.051655402            8 
  317000   0.75308402   -4.1208275    193.13048  0.050770369   0.05155714            7 
  318000   0.76772927   -4.0974412    193.33915  0.050665397  0.051458041            5 
  319000   0.74419855   -4.0904695    193.90046  0.050653202  0.051359551            8 
  320000   0.75219184   -4.0959732    194.72866  0.050710588  0.051262342            3 
  321000   0.76968831   -4.1114583    194.80914  0.050573504  0.051163792            2 
  322000   0.74037886   -4.1036907    194.74592  0.050400082  0.051065926            7 
  323000   0.73850745   -4.0917434    195.76043  0.050505786   0.05096692            9 
  324000   0.75043331   -4.1240993    195.79955  0.050359967  0.050868773            9 
  325000    0.7498993   -4.1024884    195.87108  0.050223354  0.050771086            6 
  326000   0.76048891   -4.1279043    195.30527   0.04992466  0.050672124            6 
  327000   0.74959012   -4.1165552    195.62838  0.049854326   0.05057329            7 
  328000   0.76041412   -4.1412011    196.56244  0.049939643  0.050474236            6 
  329000   0.72978268   -4.1255543    196.50457  0.049773193  0.050375504            6 
  330000   0.73558554   -4.1303428    196.75275  0.049685037  0.050276808           11 
  331000   0.72270165    -4.146661    197.17412  0.049641018  0.050179004            8 
  332000   0.73786314   -4.1287186    197.40642  0.049549804  0.050080998           11 
  333000   0.73227354   -4.1157346    197.46608  0.049415936  0.049983851            5 
  334000   0.72430721   -4.1299979    198.07589  0.049420133  0.049884857            6 
  335000   0.73089581   -4.1502509    197.58082  0.049149459  0.049786361            3 
  336000   0.73124021   -4.1397457    197.55688  0.048997242  0.049686636            3 
  337000   0.71904789   -4.1433082    198.49469  0.049083751  0.049587451            9 
  338000   0.71693502   -4.1340653    197.83057  0.048774795  0.049487554            2 
  339000   0.74420711   -4.1310015    198.90786  0.048895738  0.049387441            7 
  340000   0.72939075   -4.1506506    198.41116  0.048630185  0.049287584            9 
  341000   0.74510882   -4.1537567    199.00954  0.048633808  0.049187233           13 
  342000   0.70788087   -4.1841722    198.57037  0.048384593   0.04908686            5 
  343000   0.72637804   -4.1359123    198.41259  0.048205197  0.048985674            5 
  344000   0.72256591   -4.1722962    199.39082   0.04830204  0.048885066            6 
  345000   0.72759623   -4.1592513    199.81375   0.04826419  0.048784658            4 
  346000   0.71253968   -4.1693313    200.08436  0.048189876  0.048684379            5 
  347000   0.73117609   -4.1739714    199.65046  0.047946796  0.048585081            8 
  348000   0.71242422   -4.1907433    200.86312  0.048099407  0.048485397            7 
  349000   0.70943883   -4.1579573    200.74299  0.047932901  0.048385942            5 
  350000   0.70350817   -4.1720404    200.49187   0.04773616  0.048287361           10 
  351000   0.69058447   -4.2062844    200.21495  0.047534414  0.048187986            4 
  352000   0.71165993   -4.1917472     201.7574  0.047764535  0.048090271            5 
  353000   0.71207529   -4.1992751    201.15231   0.04748638  0.047992229            6 
  354000   0.69202545   -4.2047623    201.22692  0.047369802  0.047893701           11 
  355000   0.69981266   -4.2055627    201.41184  0.047279775  0.047794856           11 
  356000   0.71764824   -4.1989142    201.79168   0.04723588  0.047696126            5 
  357000   0.68711914   -4.2144379    201.81097  0.047108069  0.047597072            5 
  358000   0.68905213   -4.2228984    201.33435  0.046865537  0.047497631           11 
  359000   0.70471782   -4.2280049     201.5946  0.046795404  0.047397493            5 
  360000   0.67725954   -4.2202779    202.50343  0.046875794  0.047298075            4 
  361000   0.69379695   -4.2220129    202.53699  0.046753691  0.047198243            6 
  362000   0.68778554   -4.2322711    202.22608  0.046552964  0.047098173           32 
  363000   0.68906944   -4.2268684    203.19413  0.046646953  0.046999112           12 
  364000   0.69909329   -4.2311944    202.69229  0.046403912  0.046900272            8 
  365000   0.66451645   -4.2488098    203.14332  0.046379753  0.046801596            4 
  366000   0.68554413   -4.2617567    203.36012  0.046302396  0.046703154            4 
  367000   0.68523677   -4.2386545     203.7269  0.046259514  0.046605715            6 
  368000    0.6824133   -4.2571449    203.70865  0.046129676  0.046508655            8 
  369000   0.69313856   -4.2442692    204.06793  0.046085801  0.046410741            5 
  370000   0.68780816   -4.2464634    204.32713  0.046019624  0.046312524            5 
  371000   0.67527702   -4.2755625    203.40013  0.045687361  0.046213197            4 
  372000   0.66999252   -4.2506635    204.14065  0.045730432  0.046114848            6 
  373000   0.67648061   -4.2610778    204.06159  0.045590167  0.046016998            5 
  374000   0.66888115    -4.267965    204.71523   0.04561391  0.045919173           20 
  375000   0.65697629   -4.2836829    204.70623  0.045490273  0.045820851            9 
  376000   0.66431949   -4.2662384    204.88625  0.045409187  0.045722403           10 
  377000   0.66924586   -4.2670699    204.33507  0.045166904  0.045624916           10 
  378000   0.66737959   -4.2584461    205.37582  0.045276856  0.045527842            7 
  379000   0.66322805   -4.2789613     206.0013  0.045294921  0.045431972           11 
  380000   0.66522657   -4.2672753    205.02554  0.044961741  0.045335672            4 
  381000   0.65174957   -4.2960596    205.02588  0.044843805  0.045238759           14 
  382000   0.65608492    -4.277927    206.21085  0.044984915  0.045142995           10 
  383000   0.65532447   -4.2887928    205.64411  0.044744149  0.045046567           15 
  384000   0.66352574   -4.2862359     206.0488  0.044715452  0.044949877            9 
  385000   0.64912848    -4.270001    206.93929  0.044792054  0.044853852            5 
  386000   0.65099402   -4.2819943    206.77619  0.044640801  0.044757726           14 
  387000   0.64167347   -4.3008677    206.32992  0.044429354  0.044660907            8 
  388000   0.64366621   -4.3188403    205.88715  0.044219749   0.04456396            7 
  389000   0.64152299   -4.2864315    206.88373  0.044319565  0.044467215            4 
  390000   0.65661256   -4.3260941     206.2286  0.044065941  0.044370454            9 
  391000   0.63344972   -4.2997539    206.49191  0.044009358  0.044272546            5 
  392000   0.62863443   -4.3463539    206.15635  0.043825755  0.044175208            9 
  393000   0.63877757   -4.3127987    207.42765   0.04398381  0.044077514           11 
  394000   0.64400277   -4.3184955    206.60653  0.043698505  0.043980598            8 
  395000   0.63280533   -4.3324537    206.51197  0.043567927  0.043883514            8 
  396000   0.64217694    -4.306594    206.84132  0.043527215  0.043786321            5 
  397000   0.63524446   -4.3409314    206.77162  0.043402942  0.043689246           13 
  398000   0.63939303    -4.312001    207.94633  0.043539852  0.043592597            6 
  399000   0.64480138   -4.3630406    207.37813  0.043312057  0.043495358           17 
  400000   0.62090797   -4.3464788    207.31142  0.043189879  0.043398166            6 
  401000   0.64733665   -4.3589897    207.35849  0.043091956  0.043301644           18 
  402000   0.63633053   -4.3511235    207.83337  0.043083204  0.043204701            7 
  403000   0.61587291   -4.3313945    208.05673  0.043022484  0.043107777           16 
  404000   0.62797995    -4.353125    207.79476  0.042861956  0.043010414            8 
  405000   0.62379093   -4.3641788    207.63007  0.042722237  0.042913035            5 
  406000   0.61765013   -4.3650942    207.60766  0.042612411  0.042815024           18 
  407000   0.61765885   -4.3585683    207.78233  0.042543475  0.042717774           19 
  408000   0.62568159   -4.3906222    207.59425  0.042400787  0.042620944            8 
  409000   0.60904756   -4.3673065    208.13035  0.042406347  0.042524137           11 
  410000   0.60678961   -4.3684018    208.53696  0.042385562  0.042428113            9 
  411000   0.61166123   -4.3637534     208.4513  0.042265065  0.042332748           14 
  412000   0.61113081    -4.391117    208.76486  0.042225903  0.042237125            9 
  413000   0.60346899   -4.3945166    208.15928  0.042001469  0.042141507            6 
  414000   0.60615388   -4.3815256    207.91102  0.041850044  0.042045149            9 
  415000   0.59527733   -4.3888566    208.84765  0.041937278  0.041949465            7 
  416000   0.59932216   -4.3814801    209.30453  0.041927991  0.041853944           10 
  417000   0.60660482   -4.3864546    208.60294  0.041687239  0.041758382           11 
  418000   0.61214954    -4.388409    208.80657  0.041628104  0.041662694            7 
  419000   0.59341667   -4.3970584    208.46028  0.041459881  0.041566729            9 
  420000   0.58827556   -4.4057077    209.08339  0.041484799  0.041470367           21 
  421000   0.58230235   -4.3844814    209.11255  0.041392033  0.041374577            8 
  422000   0.59003818   -4.4150896    208.47293   0.04116764  0.041279126           14 
  423000   0.61478411    -4.406775    208.83998  0.041142629  0.041183354            8 
  424000   0.59097983   -4.4177601    208.32504  0.040944386  0.041087759           14 
  425000   0.57874816    -4.409671    208.59285  0.040900559  0.040992008            7 
  426000   0.58327126   -4.4201068    208.90037  0.040864704  0.040896336            7 
  427000   0.58807129   -4.4204253    209.06285  0.040800712  0.040800763           14 
  428000   0.58103295   -4.4222486    209.08972  0.040710615  0.040705464           11 
  429000   0.58967108   -4.4120032    209.29956  0.040656481  0.040610191            9 
  430000    0.5876695   -4.4250526    209.39996  0.040581387  0.040515595           31 
  431000   0.58890929   -4.4402309    208.98853  0.040407682  0.040420863            6 
  432000   0.57183516   -4.4271322    209.31623  0.040377359  0.040326766            9 
  433000    0.5749746   -4.4422674    209.87607  0.040391853  0.040232969           11 
  434000   0.55819146   -4.4446877    209.42977  0.040213089  0.040138636           15 
  435000   0.57269472    -4.460556    209.38501  0.040112072  0.040043371           15 
  436000   0.59407351   -4.4470621    209.33374  0.040010272  0.039949404           13 
  437000   0.58252991   -4.4400611    210.08127  0.040061265  0.039855437           13 
  438000   0.56144318   -4.4592392    210.06155  0.039966049  0.039761984            6 
  439000   0.55852312   -4.4569611    210.11884  0.039885885  0.039668223            6 
  440000   0.57021833     -4.44905    210.41344   0.03985103  0.039575259           12 
  441000    0.5566486   -4.4597314    209.77152  0.039639365  0.039481862            7 
  442000   0.54541744   -4.4829263    209.50803  0.039500006  0.039388111           19 
  443000   0.55997643   -4.4923361    209.45614  0.039401079  0.039294441            9 
  444000   0.54566446   -4.4925804    210.20408  0.039452717  0.039201529            8 
  445000     0.547124   -4.4779871    210.16785  0.039357275  0.039109175            8 
  446000   0.55179636   -4.4670378    210.41461  0.039315137  0.039017169           10 
  447000   0.55071264   -4.5007109    210.14967  0.039177792  0.038924837           12 
  448000   0.55620817   -4.4951597    210.34877  0.039127376   0.03883301           22 
  449000   0.54390557   -4.4833651    210.01508  0.038978299  0.038741276           16 
  450000   0.55124998   -4.4952237    210.51685  0.038984602  0.038650101           17 
  451000   0.55028635   -4.4975604    210.68477  0.038929189  0.038558998           11 
  452000    0.5468911   -4.5141559    210.47544  0.038804468  0.038467854           18 
  453000   0.54775661   -4.5064729    210.40836  0.038706469  0.038376616           22 
  454000   0.53440824   -4.5246325    209.86614  0.038521684  0.038284747           28 
  455000   0.53289667   -4.5179315    210.37543  0.038530298   0.03819313            9 
  456000   0.55380719    -4.517974    209.99867   0.03837695   0.03810178            7 
  457000   0.53876004   -4.5348386    210.13725  0.038318244  0.038010815           14 
  458000   0.53286441   -4.5483414    210.45781  0.038292905  0.037919588           27 
  459000   0.54301232    -4.537616    210.33358  0.038186924  0.037828231           30 
  460000   0.53239117   -4.5464903    209.86359  0.038018767  0.037736807           13 
  461000   0.52710128   -4.5165968    210.22054   0.03800082  0.037645781           20 
  462000   0.52130328   -4.5338305    210.38291  0.037947855  0.037555498           11 
  463000   0.53711142   -4.5286382    210.75255  0.037932425  0.037465288           13 
  464000   0.52973973   -4.5467293    210.64451  0.037831269  0.037375511           11 
  465000   0.52668732   -4.5317308    209.99847  0.037634134  0.037285631           12 
  466000   0.53319953   -4.5529368    210.24397  0.037597276  0.037195682           42 
  467000   0.51714462   -4.5453854    210.94935  0.037642639  0.037105843           18 
  468000   0.51823453   -4.5432748    210.64647  0.037508275  0.037016091           22 
  469000     0.521769   -4.5585029    210.72239  0.037441788  0.036926154           16 
  470000   0.52980351   -4.5736621    210.46577  0.037316627  0.036836633           25 
  471000   0.51493243    -4.560453    210.03674  0.037161489  0.036747177           10 
  472000   0.51413728   -4.5794689    209.96246  0.037069643  0.036657998           14 
  473000   0.51679309   -4.5684883    210.74779  0.037129631  0.036568885           28 
  474000   0.50091466   -4.5707037     210.5831  0.037022346  0.036480143            7 
  475000   0.50186095   -4.5705719    210.48476  0.036927151  0.036391428           18 
  476000   0.50946185   -4.5863492    210.60879  0.036871287  0.036302443           27 
  477000   0.51032401   -4.5953691    210.27351  0.036735415  0.036213358           10 
  478000   0.50074362   -4.5899198    210.69164  0.036731457  0.036124432           22 
  479000   0.50848129   -4.5728354    210.86465  0.036684873  0.036036178           26 
  480000   0.49430549   -4.5744328    210.84097  0.036604334  0.035948533           20 
  481000   0.49830026   -4.5785306     210.5294  0.036474256  0.035860628           40 
  482000   0.50311419   -4.6050965    210.13472  0.036330345  0.035772812           17 
  483000   0.48705902   -4.5991787    210.25356  0.036275631  0.035685244            9 
  484000   0.49380909   -4.6057931    210.24009  0.036198363  0.035597391           12 
  485000   0.49606499   -4.6026721     210.4345  0.036157131   0.03550919           22 
  486000   0.48939552   -4.6186226    210.16595  0.036036685  0.035421302           14 
  487000   0.49339871   -4.6211622    210.16357  0.035962282  0.035333149           13 
  488000   0.47985051     -4.62901    210.23247  0.035900354  0.035245092           11 
  489000   0.49180889   -4.6277155     210.4331  0.035861128   0.03515733           37 
  490000   0.48525737    -4.636907    210.28598  0.035762921  0.035069898           20 
  491000   0.48688334   -4.6234219    210.21833  0.035678603  0.034982462           22 
  492000   0.49342883    -4.631119    209.77828  0.035531551  0.034895045           60 
  493000   0.47978096   -4.6462329    209.98643  0.035494663  0.034808009           36 
  494000   0.48152165    -4.632145    210.22282  0.035462688  0.034720951           14 
  495000   0.46736563   -4.6412321     209.8692  0.035331516  0.034634299           33 
  496000    0.4632447   -4.6478254    209.84085  0.035255519  0.034547783           28 
  497000   0.46354339   -4.6572277    210.07331  0.035223559  0.034461462           18 
  498000   0.46521067   -4.6453801     209.7761  0.035103095  0.034375269           36 
  499000   0.46439917   -4.6384031    210.09705  0.035086347  0.034289329           28 
  500000   0.47608531   -4.6607026     209.8507  0.034975116   0.03420323           20 
  501000   0.46651153   -4.6497657     209.8991  0.034913356  0.034117346           15 
  502000   0.46527545   -4.6567745     209.6496   0.03480239  0.034031427           29 
  503000    0.4637016   -4.6459485    209.86628  0.034769099  0.033945781           38 
  504000   0.47071711   -4.6650728    209.21956  0.034593182  0.033859904           17 
  505000   0.47177774   -4.6765309    209.57919  0.034584025  0.033774137           23 
  506000   0.45176252   -4.6746611    209.53974   0.03450918  0.033688538           18 
  507000   0.44760491   -4.6748801    209.28074  0.034398544  0.033603224           14 
  508000   0.46177441    -4.680809    209.54642  0.034374413   0.03351793           28 
  509000   0.44590036   -4.6753034    209.62682  0.034320042  0.033432922           20 
  510000   0.44707987   -4.7013064    209.22432   0.03418698  0.033347786           30 
  511000   0.44200644   -4.6982338    209.65755   0.03419073  0.033262863           17 
  512000   0.44061392   -4.7008718    209.30431  0.034066457  0.033178311           24 
Loop time of 1245.2 on 48 procs for 500000 steps with 4000 atoms

Performance: 69386.416 tau/day, 401.542 timesteps/s
99.4% CPU use with 48 MPI tasks x no OpenMP threads

MPI task timing breakdown:
Section |  min time  |  avg time  |  max time  |%varavg| %total
---------------------------------------------------------------
Pair    | 83.351     | 88.146     | 94.801     |  29.7 |  7.08
Neigh   | 8.3291     | 8.6697     | 9.1064     |   7.2 |  0.70
Comm    | 79.299     | 85.677     | 90.68      |  33.2 |  6.88
Output  | 0.91256    | 0.91352    | 0.94263    |   0.4 |  0.07
Modify  | 1046.4     | 1050.3     | 1056.2     |   7.2 | 84.35
Other   |            | 11.46      |            |       |  0.92

Nlocal:        83.3333 ave          93 max          76 min
Histogram: 2 3 10 3 13 9 4 3 0 1
Nghost:        2268.48 ave        2288 max        2248 min
Histogram: 1 1 8 4 11 4 7 6 4 2
Neighs:        15213.0 ave       16697 max       12759 min
Histogram: 1 0 2 3 8 7 8 10 6 3
FullNghs:      30331.7 ave       34424 max       27966 min
Histogram: 5 10 2 8 9 10 2 1 0 1

Total # of neighbors = 1455922
Ave neighs/atom = 363.98050
Neighbor list builds = 27021
Dangerous builds = 0

#clear
#
#next RN
#
#jump SELF
Total wall time: 0:20:48
