
units lj                  # Use reduced LJ style units
atom_style atomic         # Uncharged point particles
atom_modify map hash      # Needed for indexing of clusters etc
                          # Used to be able to find where atoms are in relation to each other.

lattice fcc 1.0 spacing 1 1 1
Lattice spacing in x,y,z = 1.5874011 1.5874011 1.5874011
region box block 0 10 0 10 0 10 units lattice
create_box 2 box
Created orthogonal box = (0.0000000 0.0000000 0.0000000) to (15.874011 15.874011 15.874011)
  3 by 4 by 4 MPI processor grid
create_atoms 1 box
Created 4000 atoms
  using lattice units in orthogonal box = (0.0000000 0.0000000 0.0000000) to (15.874011 15.874011 15.874011)
  create_atoms CPU = 0.004 seconds
set type 1 type/fraction 2 0.93 78393
Setting atom values ...
  3709 settings made for type/fraction
mass 1 1.0
mass 2 1.0
pair_style lj/cut  3.5
pair_modify tail  yes
pair_coeff 1  1  1.0  1.0   # Intearaction between 1 and 1 set with epsilon = 1 and sigma = 1
pair_coeff 1  2  1.5  0.8
pair_coeff 2  2  0.5  0.88

write_data data.0
System init for write_data ...
Neighbor list info ...
  update every 1 steps, delay 10 steps, check yes
  max neighbors/atom: 2000, page size: 100000
  master list distance cutoff = 3.8
  ghost atom cutoff = 3.8
  binsize = 1.9, bins = 9 9 9
  1 neighbor lists, perpetual/occasional/extra = 1 0 0
  (1) pair lj/cut, perpetual
      attributes: half, newton on
      pair build: half/bin/atomonly/newton
      stencil: half/bin/3d
      bin: standard
WARNING: Not all mixed pair coeffs generated from mixing. Use write_data with 'pair ij' option to store all pair coeffs. (../write_data.cpp:312)


#############################
#   M E L T   S Y S T E M   #
#############################

velocity all create 2.4 1741580 mom yes dist gaussian # Assign velocities
                                                    # Temperature 2.4, random number seed, zero linear momentum
                                                                                # Gaussian distribution

timestep 0.002   # simulation timestep
thermo 1000       # output thermodynamic data every 1000 steps bf 100

# Define a fix  in this case with index 1 applied to all
# particles in the simulation. This fix is for simulations
# in the anisotropic NPT ensemble. Note that we use the MTK
# correction.
fix 1 all npt temp 2.4 2.4 0.1 iso 5.68 5.68 0.5 mtk yes tchain 5 pchain 5 # Use NPT ensemble
                                                                         # Set temperature and pressure and damping
                                                                         # Numbers of thermostats in chain and in barostat
run 10000          # run for 10000 steps
Per MPI rank memory allocation (min/avg/max) = 3.642 | 3.644 | 3.648 Mbytes
Step Temp E_pair E_mol TotEng Press Volume 
       0          2.4   -3.0493222            0   0.54977785   -2.3496824         4000 
    1000    2.4022705   -2.0337399            0    1.5687651    5.7094706     4034.005 
    2000    2.3363245   -1.9810367            0    1.5225739     5.522133    4098.0549 
    3000     2.434168   -1.9818684            0    1.6684708    5.5200697    4123.1397 
    4000    2.4179983   -1.9878884            0    1.6382024     5.449568    4132.8205 
    5000      2.39595   -2.0285821            0    1.5644444    5.6062246    4073.4096 
    6000     2.420589   -1.9821629            0    1.6478129     5.645781    4103.4629 
    7000    2.4380804   -2.0131946            0    1.6430118    5.4719699    4110.4144 
    8000     2.391628   -1.9871085            0    1.5994366    5.7362212    4079.0232 
    9000    2.4249838   -2.0171211            0    1.6194453    5.6168256    4089.4281 
   10000    2.3702492   -1.9579673            0    1.5965177    5.7273468    4105.4199 
Loop time of 2.53549 on 48 procs for 10000 steps with 4000 atoms

Performance: 681525.200 tau/day, 3944.012 timesteps/s
99.5% CPU use with 48 MPI tasks x no OpenMP threads

MPI task timing breakdown:
Section |  min time  |  avg time  |  max time  |%varavg| %total
---------------------------------------------------------------
Pair    | 1.0452     | 1.1308     | 1.2657     |   3.4 | 44.60
Neigh   | 0.2056     | 0.21309    | 0.23231    |   1.1 |  8.40
Comm    | 0.70643    | 0.88813    | 1.0061     |   6.1 | 35.03
Output  | 0.00024386 | 0.0002503  | 0.00041749 |   0.0 |  0.01
Modify  | 0.21557    | 0.28817    | 0.36129    |   7.2 | 11.37
Other   |            | 0.01505    |            |       |  0.59

Nlocal:        83.3333 ave          92 max          74 min
Histogram: 2 4 3 7 6 5 9 7 3 2
Nghost:        1613.06 ave        1647 max        1579 min
Histogram: 2 3 6 8 3 8 6 7 3 2
Neighs:        9290.19 ave       10629 max        7640 min
Histogram: 1 1 4 5 7 10 9 8 1 2

Total # of neighbors = 445929
Ave neighs/atom = 111.48225
Neighbor list builds = 906
Dangerous builds = 195

# Equilibrate just above the melting temperature to avoid step fn in T

fix 1 all npt temp 1.25 1.25 0.1 iso 5.68 5.68 0.5 mtk yes tchain 5 pchain 5
run 2000
Per MPI rank memory allocation (min/avg/max) = 3.643 | 3.645 | 3.649 Mbytes
Step Temp E_pair E_mol TotEng Press Volume 
   10000    2.3702492   -1.9579673            0    1.5965177    5.7273468    4105.4199 
   11000    1.2227706   -3.0182894            0   -1.1845921    5.6426524    3171.5786 
   12000     1.279349   -3.0303624            0   -1.1118187    5.6775146    3159.0507 
Loop time of 0.592174 on 48 procs for 2000 steps with 4000 atoms

Performance: 583612.394 tau/day, 3377.387 timesteps/s
99.6% CPU use with 48 MPI tasks x no OpenMP threads

MPI task timing breakdown:
Section |  min time  |  avg time  |  max time  |%varavg| %total
---------------------------------------------------------------
Pair    | 0.26181    | 0.28397    | 0.30821    |   1.8 | 47.95
Neigh   | 0.038781   | 0.040775   | 0.042657   |   0.4 |  6.89
Comm    | 0.1904     | 0.217      | 0.23983    |   2.3 | 36.64
Output  | 5.1595e-05 | 5.2881e-05 | 6.8427e-05 |   0.0 |  0.01
Modify  | 0.042834   | 0.04572    | 0.049266   |   0.8 |  7.72
Other   |            | 0.004659   |            |       |  0.79

Nlocal:        83.3333 ave          92 max          76 min
Histogram: 2 6 4 6 8 9 6 4 1 2
Nghost:        1928.08 ave        1966 max        1900 min
Histogram: 3 4 7 11 4 7 6 3 2 1
Neighs:        12102.4 ave       13608 max       10495 min
Histogram: 2 2 5 9 3 9 4 8 4 2

Total # of neighbors = 580913
Ave neighs/atom = 145.22825
Neighbor list builds = 143
Dangerous builds = 13

#############################
# L I N E A R  Q U E N C H  #
#############################

# Define solid atoms. This closely follows ten Wolde  Ruiz-Montero and Frenkel  Faraday Discuss  1996  104  93-110
# Compute components of the per-atom q6 vector
compute q6 all orientorder/atom degrees 1 6 components 6 nnn NULL cutoff 1.3 # compute the Q6 parameter.
                                                                             # Use all neighbours within 1.3 unit cell.

# get number of connections
compute coord_number all coord/atom orientorder q6 0.5

# An atom is solid if it has 8 or more connections (of a possible 14)
variable is_solid atom c_coord_number>=8
group solid dynamic all var is_solid    # Must be dynamic to update
dynamic group solid defined

# do clustering
compute cluster solid cluster/atom 1.3 # Create a cluster where all atoms within are solid and max 1.3 units from another member

# define chunks one chunk per cluster
compute clus_chunks solid chunk/atom c_cluster nchunk every compress yes  # Says which atoms are in which chunk

# count the size of each chunk
compute size_chunks solid property/chunk clus_chunks count


# Find the maximum entry in the vector of chunk sizes
variable max_n equal max(c_size_chunks)


# Thermo style which includes this variable
# thermo_style custom step temp pe vol v_max_n

thermo ${N}  # Print the thermo information every 100 steps
thermo 1000  

# Reset the npt fix at a lower temperature (below freezing)
fix 1  all npt temp  ${temp} ${temp}  0.1  iso  5.68  5.68  0.5  mtk yes tchain  5  pchain  5
fix 1  all npt temp  0.45 ${temp}  0.1  iso  5.68  5.68  0.5  mtk yes tchain  5  pchain  5
fix 1  all npt temp  0.45 0.45  0.1  iso  5.68  5.68  0.5  mtk yes tchain  5  pchain  5

dump dmp2 all dcd ${N} traj.dcd
dump dmp2 all dcd 1000 traj.dcd


compute msd all msd com yes
variable twopoint equal c_msd[4]/6/(step*dt+1.0e-6)
fix 9 all vector 10 c_msd[4]
variable fit equal slope(f_9)/6/(10*dt)
thermo_style custom step temp pe c_msd[4] v_twopoint v_fit v_max_n

fix 1 all npt temp 1.25 ${temp} 0.1 iso 5.68 5.68 0.5 mtk yes tchain 5 pchain 5
fix 1 all npt temp 1.25 0.45 0.1 iso 5.68 5.68 0.5 mtk yes tchain 5 pchain 5
run 2000000 # 5000000  # Run for this many steps
Neighbor list info ...
  update every 1 steps, delay 10 steps, check yes
  max neighbors/atom: 2000, page size: 100000
  master list distance cutoff = 3.8
  ghost atom cutoff = 3.8
  binsize = 1.9, bins = 8 8 8
  4 neighbor lists, perpetual/occasional/extra = 1 3 0
  (1) pair lj/cut, perpetual
      attributes: half, newton on
      pair build: half/bin/atomonly/newton
      stencil: half/bin/3d
      bin: standard
  (2) compute orientorder/atom, occasional
      attributes: full, newton on
      pair build: full/bin/atomonly
      stencil: full/bin/3d
      bin: standard
  (3) compute coord/atom, occasional
      attributes: full, newton on
      pair build: full/bin/atomonly
      stencil: full/bin/3d
      bin: standard
  (4) compute cluster/atom, occasional
      attributes: full, newton on
      pair build: full/bin/atomonly
      stencil: full/bin/3d
      bin: standard
Per MPI rank memory allocation (min/avg/max) = 9.817 | 9.825 | 9.831 Mbytes
Step Temp PotEng c_msd[4] v_twopoint v_fit v_max_n 
   12000     1.279349   -3.0303624 4.2101507e-30 2.9237156e-32 8.3333333e+20            3 
   13000    1.2759819   -3.0139916    1.0657407 0.0068316708  0.090418131            2 
   14000    1.2508793   -3.0199562    2.2192497  0.013209819  0.093314937            2 
   15000    1.2379217   -3.0087266    3.4407883   0.01911549  0.095526328            2 
   16000    1.2695461   -2.9937814    4.6267531  0.024097671  0.097854476            1 
   17000    1.2499325   -3.0127039    5.7527118  0.028199567  0.098095016            2 
   18000    1.2264449   -3.0146733    6.9269153  0.032069051  0.097526377            4 
   19000    1.2668203   -2.9924094     7.907593  0.034682424  0.096562718            1 
   20000    1.2283023   -3.0124643    8.9049898  0.037104123  0.095104273            1 
   21000    1.2432241    -3.005473    10.062927  0.039932251  0.093977525            2 
   22000    1.2441805    -3.033477    11.122628  0.042131165  0.093307512            4 
   23000    1.2461015    -2.980575    12.388504  0.044885884  0.093191762            3 
   24000    1.1983723   -2.9916153    13.852898   0.04810034   0.09396373            4 
   25000    1.2390434   -3.0254319    14.991999  0.049973328  0.094783074            1 
   26000    1.2731075   -3.0571923    16.174825  0.051842386  0.095425407            2 
   27000    1.2302796   -3.0209167    17.298326  0.053389893  0.095819227            1 
   28000    1.2629124   -3.0385348    18.353654  0.054623971  0.096005407            1 
   29000    1.2040771   -3.0334615    19.459922  0.055919314  0.096159283            2 
   30000    1.2574767   -2.9928877    20.838721  0.057885336  0.096196714            1 
   31000    1.2531749   -3.0116266    21.786124  0.058564849  0.096332019            7 
   32000    1.1927961   -3.0078872    23.213156  0.060450926  0.096547504            3 
   33000    1.2394659   -2.9830257    24.296572   0.06135498  0.096748117            1 
   34000    1.2385861   -3.0136862     25.45929  0.062400221   0.09680759            2 
   35000    1.2291825    -3.041942    26.631577  0.063408517  0.096844309            2 
   36000    1.2586112   -3.0321458    27.704973  0.064131881  0.096878545            4 
   37000    1.2252866   -3.0163482    28.915553  0.065125119  0.096942636            1 
   38000    1.2604148    -3.009754    29.934758  0.065646399   0.09686935            2 
   39000    1.2128749   -3.0393681    30.827152  0.065869982  0.096698722            3 
   40000    1.2596704   -3.0367861    32.093114  0.066860652  0.096556605            3 
   41000    1.2381741   -3.0287417    33.321992  0.067727625  0.096427032            4 
   42000    1.2839105   -2.9872641    34.224564   0.06790588  0.096298658            1 
   43000    1.2572276    -3.037484    35.309149  0.068428583  0.096122633            1 
   44000    1.2166658   -3.0443322    36.366244  0.068875462  0.095978387            1 
   45000    1.2487303   -3.0053348    37.452447  0.069356383  0.095764586            1 
   46000    1.2317265    -3.020503    38.791867   0.07027512  0.095581475            2 
   47000    1.2400744   -2.9997055    39.756734  0.070490663  0.095402107            2 
   48000    1.2531804   -3.0174571     41.06015  0.071284982  0.095270841            1 
   49000     1.235521   -3.0222812    42.226215   0.07181329  0.095213139            1 
   50000    1.2462379   -3.0130424    43.542719  0.072571198  0.095210442            2 
   51000      1.23238   -3.0183386    44.419259  0.072580488  0.095210585       -1e+20 
   52000    1.2311871   -3.0147266    45.836278  0.073455574  0.095228576            2 
   53000    1.2259019   -3.0211284    46.748036  0.073503201  0.095205098            4 
   54000    1.2270188   -2.9963427    47.789995  0.073749992  0.095134721            2 
   55000    1.2433909    -3.034194    48.618848  0.073664921  0.095008193            1 
   56000    1.2268596   -3.0390874     49.34274  0.073426696  0.094841977            3 
   57000     1.251371   -3.0241908    50.325402  0.073575149  0.094617376            1 
   58000    1.2465741   -3.0441598    51.629141    0.0741798  0.094413321            4 
   59000    1.2147522   -3.0309865    52.718358  0.074460957  0.094226224            1 
   60000    1.2474635   -3.0138874    53.564388  0.074394982   0.09402499            2 
   61000    1.2358018   -3.0241388    54.380874  0.074290811  0.093808335            3 
   62000    1.2563576   -3.0282395    55.446007  0.074524202  0.093614455            2 
   63000    1.2663046   -2.9910868    56.718533  0.075024514  0.093448055            1 
   64000    1.2190893   -3.0485904    57.992346  0.075510866   0.09332554            1 
   65000    1.2575113   -3.0313028    59.052555  0.075708404  0.093209768            1 
   66000    1.2261507   -3.0351661    60.352602  0.076202779  0.093119933            2 
   67000    1.2274183   -3.0362493    61.388316  0.076353626  0.093052781            1 
   68000    1.2102463   -3.0516334     62.06105  0.076055208  0.092967908            1 
   69000    1.1832349    -3.069464    63.766826  0.077013074   0.09287603            3 
   70000    1.2335259   -3.0589339    64.231943  0.076466598  0.092801519            1 
   71000     1.186496   -3.0390064    65.787372  0.077215225  0.092750205            2 
   72000    1.2121473   -3.0048123    67.044756  0.077598097   0.09269025            1 
   73000    1.2333273   -3.0291051    67.526621  0.077085183  0.092624334            3 
   74000    1.2442562   -3.0526482    68.625178  0.077280605  0.092528636            1 
   75000    1.2329714   -3.0353172    69.844477  0.077604974  0.092438026            5 
   76000    1.2340784   -3.0416232    70.402781  0.077196032  0.092330349            1 
   77000    1.2200204   -3.0576928    72.190814  0.078128586  0.092259509            1 
   78000    1.2617111   -3.0553699     73.41941   0.07843954  0.092222272            1 
   79000    1.2309119   -3.0276519     74.81128  0.078914852  0.092194035            1 
   80000    1.2213689    -3.051626    75.593211  0.078742928  0.092162362            2 
   81000    1.2080175   -2.9987505    76.842705   0.07905628  0.092141972            2 
   82000    1.1982043   -3.0484548    77.931649   0.07919883  0.092106785            3 
   83000    1.2266329   -3.0800053    78.699049  0.079015109  0.092084407            2 
   84000    1.2429985   -3.0007205       79.927  0.079292658  0.092059722            2 
   85000    1.2266676    -3.063002    81.418405  0.079821966  0.092060988            3 
   86000    1.2424977    -3.060089    82.900253  0.080329702  0.092076953            3 
   87000    1.2042895   -3.0228725    83.357982   0.07984481  0.092070301            1 
   88000    1.2162707   -3.0659727    84.435149  0.079957527  0.092068862            2 
   89000    1.2132947   -3.0400899    86.092767  0.080611205  0.092081578            3 
   90000    1.1922345   -3.0720323    86.347359  0.079951257  0.092069537            2 
   91000    1.2213472   -3.0411035    87.875196  0.080471791  0.092057962            3 
   92000    1.2263087   -3.0529857    88.970102   0.08058886  0.092058525            3 
   93000     1.212763   -3.0433748    90.533321  0.081123047  0.092089154            1 
   94000    1.2087788   -3.0819364    91.772462  0.081358565  0.092132144            1 
   95000    1.2354992   -3.0196085    93.545591  0.082057536  0.092186867            2 
   96000    1.2018027   -3.0481424      94.3606  0.081910243  0.092250118            5 
   97000    1.1760944   -3.0623574    95.592358  0.082124019  0.092299647            1 
   98000    1.2385837   -3.0430668    96.396855  0.081970115  0.092341465            1 
   99000    1.1806989   -3.0473323    97.478718  0.082052793  0.092357517            1 
  100000    1.2373565    -3.041166    98.166559  0.081805465  0.092361963            1 
  101000    1.2323466   -3.0747825    99.280612  0.081914696  0.092363069            2 
  102000     1.226872   -3.0775045    100.57645    0.0821703  0.092366383            1 
  103000    1.2036076   -3.0743898     101.3813  0.082023708  0.092375305            1 
  104000    1.2169228   -3.0492898    102.64718  0.082249339  0.092366483            3 
  105000    1.2267375   -3.0452575    103.79166  0.082374333  0.092376753            1 
  106000    1.2327473   -3.0569428    104.92389  0.082487337  0.092375159            3 
  107000     1.173159   -3.0520122    106.55327   0.08298541  0.092381555            3 
  108000    1.2120371   -3.0423213    107.63887   0.08305468  0.092394033            2 
  109000    1.2107532   -3.0589678    108.16821  0.082697406  0.092388198            2 
  110000    1.2235057   -3.0434845     109.2598  0.082772572  0.092374164            2 
  111000    1.2132069   -3.0283269    110.32201  0.082824332  0.092360446            2 
  112000    1.2133226   -3.0507182    110.81133  0.082448904  0.092340758            2 
  113000    1.2184714   -3.0690005    111.99045  0.082588827  0.092316643            2 
  114000    1.2266037   -3.0392417    112.83352  0.082480641  0.092274399            2 
  115000    1.1780375   -3.0544018    113.36712   0.08215009  0.092233239            1 
  116000    1.2142223   -3.0651255    114.54388  0.082287272  0.092184656            3 
  117000    1.2087427    -3.063862     116.3097  0.082841667   0.09215502            4 
  118000    1.2144713   -3.0649169    117.83683  0.083218102  0.092139349            2 
  119000    1.1791213    -3.071683    118.59754  0.083051495  0.092119878            2 
  120000    1.2455405   -3.0594875    120.01538   0.08334401  0.092119931            2 
  121000    1.1858571    -3.057547    121.09821  0.083400973  0.092119642            2 
  122000    1.2132633   -3.0628126    123.72284  0.084510136  0.092131657            1 
  123000    1.1795044   -3.0767134    123.68045  0.083794342  0.092155032            2 
  124000    1.1913023   -3.0413814    124.29307   0.08353029  0.092158717            1 
  125000    1.2050272   -3.0352762    126.01476  0.084009838  0.092155021            2 
  126000    1.1834282   -3.0684469    126.58214  0.083718346  0.092139939            2 
  127000    1.2035994   -3.0629716    126.71138  0.083143948  0.092111018            1 
  128000    1.1804857   -3.0265942    128.27538  0.083512617  0.092089434            4 
  129000     1.223336   -3.0629014    129.62647  0.083738028  0.092069279            1 
  130000    1.2182658   -3.0547086    131.11159  0.084045889  0.092056593            3 
  131000     1.211774   -3.0718189    131.64956  0.083746541  0.092031823            1 
  132000    1.2095894    -3.044546    132.89479  0.083898227  0.092018394            1 
  133000    1.2136249   -3.0875319    133.78162  0.083823068  0.092008665            1 
  134000    1.2019172   -3.0609891    135.43194  0.084223845  0.092001834            1 
  135000    1.1806726   -3.0720544     137.2123   0.08469895  0.092007922            1 
  136000    1.1838943   -3.0648375    138.54463  0.084892545  0.092023091            3 
  137000    1.2082108   -3.0599028    139.17934  0.084658965  0.092028663            2 
  138000    1.1948448   -3.0497479    140.46748   0.08482336   0.09203915            1 
  139000    1.1808773    -3.059424    141.45991  0.084808098  0.092056275            1 
  140000    1.1991641   -3.0356874    142.29703  0.084700615  0.092069272            2 
  141000    1.1964833   -3.0715053    143.45627   0.08478503  0.092080708            1 
  142000     1.188596   -3.0672396    145.12363  0.085166447  0.092085443            1 
  143000    1.1817162   -3.0636143    145.13532  0.084577691  0.092091887            1 
  144000    1.2282322   -3.0970507    146.51079  0.084786334   0.09209559            4 
  145000     1.213602   -3.0496536    147.06796  0.084521818  0.092086684            2 
  146000    1.2088943   -3.0646924    147.94897  0.084445758  0.092063881            1 
  147000    1.1871506   -3.0961862    148.22149   0.08402579  0.092041409            1 
  148000    1.1851092   -3.0748368    149.69897  0.084289958  0.092024468            2 
  149000    1.2070118   -3.0916897    150.90075   0.08439639   0.09199745            1 
  150000    1.1792335   -3.0424481    152.30239  0.084612439  0.091968105            1 
  151000    1.1513612   -3.0827287    153.02573  0.084451288  0.091943596            1 
  152000    1.1774072    -3.079086     154.1704  0.084523246  0.091920101            2 
  153000    1.1775969   -3.0693301    156.12577  0.085035821  0.091900778            3 
  154000     1.189854    -3.097424    156.13216  0.084487102  0.091879873            3 
  155000    1.1756147   -3.0892612    156.45769  0.084117035  0.091853157            3 
  156000    1.1984947   -3.0683473    157.49056  0.084129573   0.09182016            4 
  157000    1.1771609   -3.0952487    159.77955  0.084808676   0.09178519            1 
  158000    1.1700269   -3.0850042    159.57138  0.084162122  0.091745106            2 
  159000    1.1896108   -3.0668335    161.73603  0.084767313  0.091711905            3 
  160000    1.1765728   -3.0924005    162.25464  0.084507623  0.091681929            2 
  161000    1.1778231   -3.1050815    163.22401  0.084484478  0.091648705            2 
  162000    1.1840142   -3.0974163     164.1793  0.084454373  0.091616475            2 
  163000    1.1820519   -3.0598977      165.906  0.084819016  0.091585484            1 
  164000    1.1827197   -3.1009767    166.48495  0.084596012   0.09155537            1 
  165000    1.2015984   -3.0728775    167.62696   0.08466008  0.091534406            1 
  166000    1.1771999   -3.0633546    169.89925  0.085290787  0.091520845            1 
  167000    1.1601047   -3.0875502    170.61281  0.085136133  0.091501532            4 
  168000    1.1959053   -3.0979951    172.07235  0.085353348  0.091485899            2 
  169000    1.1934074    -3.101195    171.70686  0.084668078  0.091474917            1 
  170000    1.1864302   -3.0902563    173.09463   0.08485031  0.091456778            2 
  171000    1.2022237   -3.0477766    174.62045  0.085097685  0.091434334            1 
  172000    1.1865705    -3.107011    174.73737  0.084659578  0.091406773            1 
  173000    1.1849684   -3.0820622    176.10931  0.084831075  0.091378106            3 
  174000    1.2052866   -3.1065511    176.73518  0.084643286  0.091351948            1 
  175000    1.1879385   -3.0696753    178.07577  0.084797988   0.09132085            1 
  176000    1.1899784   -3.1228786    178.04737  0.084302733  0.091288948            5 
  177000    1.1651381   -3.0845166    180.19474  0.084837449  0.091254471            3 
  178000    1.1492998   -3.1180846    180.16552  0.084347155  0.091216636            1 
  179000    1.2023409   -3.1019769    181.10239  0.084312098  0.091174492            4 
  180000    1.1813644   -3.1034354    182.48518  0.084483879  0.091127467            2 
  181000    1.2041286   -3.0996041    183.12539  0.084311875  0.091088497            2 
  182000    1.1690161   -3.0926423    183.98534   0.08424237  0.091039928            1 
  183000    1.1779607   -3.0931603    185.43683  0.084442999  0.090992438            3 
  184000    1.1800703   -3.0832774    186.52681  0.084477722  0.090939834            2 
  185000    1.1859802   -3.1076786    186.98742  0.084228567  0.090893965            3 
  186000     1.191476   -3.1214487    188.20437  0.084320955   0.09084749            3 
  187000    1.1938833   -3.1157209    189.38315  0.084395343  0.090795475            2 
  188000    1.2046065   -3.0560734    191.42546  0.084851709  0.090749213            1 
  189000    1.1848743   -3.0762522    190.64675  0.084059414  0.090694972            1 
  190000    1.1755225   -3.0745882    191.80996  0.084127173  0.090641016            2 
  191000    1.1812399   -3.1086178    192.17489  0.083845936  0.090587211            1 
  192000    1.1509215   -3.0875839    193.99774  0.084200408  0.090528087            1 
  193000     1.157028   -3.0747592    194.26217   0.08387831  0.090475008            1 
  194000    1.1622994   -3.1325667    195.00739  0.083766061   0.09042082            2 
  195000     1.204806   -3.0816385    197.08085  0.084222585  0.090368423            1 
  196000    1.1812364   -3.0873584    198.32537  0.084322012  0.090322984            1 
  197000    1.2038152   -3.1047465    199.25981  0.084289258  0.090277478            2 
  198000    1.1683272   -3.0773426    201.59356  0.084845773  0.090236483            2 
  199000    1.1577044   -3.0911309    201.82788  0.084517537  0.090196232            2 
  200000    1.1675311   -3.0879753    201.35054  0.083896057  0.090150416            1 
  201000    1.1833192   -3.1298657    203.26949  0.084274247  0.090112131            1 
  202000     1.181076   -3.1092737    205.77177  0.084889342  0.090075601            2 
  203000    1.1987136   -3.0922559    204.65283  0.084011833  0.090034388            1 
  204000    1.1541281   -3.0966094    206.52893  0.084366394  0.089995664            1 
  205000    1.1753087   -3.0872677     207.4346  0.084323007  0.089960641            3 
  206000    1.1586022   -3.1012198    209.01283  0.084552116   0.08992294            1 
  207000    1.1796208    -3.143431     209.1918    0.0842157  0.089882494            3 
  208000    1.1631718   -3.0732668    211.09347  0.084572705  0.089849102            1 
  209000    1.1911221   -3.0855448    213.10126  0.084968605   0.08982303            2 
  210000    1.1675048   -3.1114253    213.38561   0.08467683  0.089799307            2 
  211000     1.200862   -3.1037549    215.37567  0.085061482   0.08977759            1 
  212000    1.1868371   -3.0640147    215.20687  0.084593893  0.089754768            2 
  213000    1.1607094    -3.088238    215.85545  0.084450488  0.089722452            4 
  214000    1.1636497   -3.1064898    217.97862  0.084882641  0.089691598            1 
  215000    1.1825046   -3.1111699    218.39817  0.084650454  0.089661865            3 
  216000    1.1572428    -3.134011    218.26666  0.084207816  0.089630242            2 
  217000     1.174018   -3.1358769    219.96315  0.084471257  0.089600283            2 
  218000    1.1837843    -3.116294    222.07286  0.084890236  0.089575678            2 
  219000     1.167539   -3.0999326    222.62284  0.084711886  0.089553034            1 
  220000    1.1685344   -3.1155686    223.80178  0.084773403  0.089531433            3 
  221000    1.1936255   -3.1311595    226.21494  0.085299751  0.089512711            1 
  222000    1.1584714   -3.1236284    227.44731   0.08537812  0.089497925            1 
  223000    1.1626266   -3.1109569     227.7652   0.08511405  0.089487617            2 
  224000    1.1716112   -3.1434426    228.18287  0.084889459  0.089469274            2 
  225000     1.145459   -3.1091738    229.38786  0.084958467  0.089446952            1 
  226000    1.1343125   -3.1118361    230.97887  0.085169198  0.089421269            1 
  227000    1.1718262   -3.1277878    230.14138  0.084486556  0.089394603            2 
  228000    1.1671463   -3.1151804    230.59372  0.084281332  0.089365601            1 
  229000    1.1461156    -3.096712    232.24333  0.084513585  0.089329317            2 
  230000    1.1498841   -3.1049261    231.80013  0.083985553  0.089294615            2 
  231000    1.1465993   -3.1103007     233.5996  0.084271138  0.089259639            2 
  232000    1.1502696   -3.1153312    234.95318  0.084394103  0.089219983            4 
  233000    1.1627108   -3.1280233    235.75759  0.084319596  0.089184851            1 
  234000    1.2186428   -3.1219626    235.30351  0.083797546  0.089144292            1 
  235000    1.1778646   -3.1157397    238.06275  0.084419413  0.089105553            2 
  236000    1.1489918   -3.0982525    238.90675  0.084359728  0.089066105            2 
  237000    1.1439265   -3.1021491    239.19119  0.084103792  0.089028089            3 
  238000    1.1729745   -3.1108128      239.528  0.083868348  0.088987208            2 
  239000    1.1713119   -3.1144603    241.85449  0.084328623  0.088946322            2 
  240000    1.1622413   -3.1094768    241.63951  0.083902608  0.088900279            5 
  241000    1.1531817   -3.1146531    241.55338  0.083524683  0.088851377            2 
  242000    1.1464628   -3.0911488     243.9138  0.083992357  0.088799032            1 
  243000    1.1701213   -3.1185426    244.87749  0.083977192  0.088751826            1 
  244000    1.1658708   -3.1185991    244.79794  0.083605854  0.088706169            1 
  245000     1.145797    -3.127375    245.81985  0.083612195  0.088659915            1 
  246000    1.1389496   -3.1261342    246.85761  0.083623851  0.088613381            2 
  247000    1.1792161   -3.1260552    248.60807  0.083875865  0.088567709            3 
  248000     1.150959   -3.1304619    249.58295  0.083865238  0.088527252            3 
  249000    1.1709254   -3.1275184    250.90323   0.08397029  0.088490672            2 
  250000    1.1517895   -3.1184316    252.68888  0.084229627  0.088454743            4 
  251000    1.1463888   -3.0987295    252.81905  0.083937268  0.088417786            2 
  252000    1.1634413   -3.1055985    254.09385  0.084025745  0.088377335            2 
  253000    1.1502278    -3.122983    255.78592  0.084250963  0.088340153            1 
  254000    1.1161486   -3.1454461    255.39914  0.083792369  0.088306895            1 
  255000    1.1763871   -3.1285343     256.9009  0.083954541  0.088269376            2 
  256000    1.1780822   -3.1219281    258.26315  0.084070037  0.088236617            2 
  257000     1.156028   -3.1371303    260.18243  0.084365249  0.088202689            1 
  258000    1.1588063   -3.1329888    259.53749   0.08382994  0.088168377            1 
  259000    1.1599762   -3.1459878    260.26711  0.083741027  0.088131836            2 
  260000    1.1872078   -3.1083205    261.25955  0.083737036  0.088092544            1 
  261000    1.1730503   -3.1403303     263.0072  0.083974201  0.088056916            2 
  262000    1.1520005   -3.1241152    264.35766  0.084083225  0.088024782            3 
  263000    1.1660808   -3.1452091    265.29177  0.084059495   0.08799064            1 
  264000    1.1240896   -3.1347521    264.69627  0.083553116  0.087950665            2 
  265000    1.1568416   -3.1294371    265.29451  0.083425947  0.087910278            2 
  266000    1.1417797    -3.129625    266.89786  0.083614618  0.087874653            2 
  267000    1.1730309   -3.1407343     266.8535   0.08328761  0.087839004            3 
  268000     1.148373   -3.1274777    269.42071  0.083775095  0.087805543            1 
  269000     1.132067   -3.1557921    270.76668  0.083880632   0.08777231            2 
  270000    1.1501625   -3.1387201    271.11664  0.083677974  0.087739625            1 
  271000    1.1309307   -3.1468938    272.30764  0.083735436  0.087703908            3 
  272000    1.1343905   -3.1528103    271.17347  0.083080107  0.087665877            2 
  273000    1.1559981   -3.1473673      273.505  0.083487483   0.08762694            2 
  274000    1.1356185    -3.150759    274.01435  0.083337697  0.087587581            2 
  275000    1.1426223   -3.1226375    276.19565  0.083695651  0.087547502            1 
  276000     1.137224   -3.1318469    276.39455  0.083452462  0.087506471            2 
  277000    1.1419611   -3.1139567    276.79629  0.083272047  0.087465354            2 
  278000    1.1484405   -3.1305034    278.17086  0.083384549  0.087424332            2 
  279000    1.1368478   -3.1323634     277.7697  0.082965862  0.087384235            3 
  280000    1.1326795   -3.1325297    279.10275  0.083066294  0.087340236            1 
  281000    1.1595804   -3.1388852    279.05193  0.082755613  0.087293687            2 
  282000    1.1257135   -3.1535978    279.96002  0.082730503  0.087248396            1 
  283000    1.1234254    -3.141439     281.4445  0.082875293  0.087201036            1 
  284000    1.1401001   -3.1151296    283.29616  0.083126807  0.087152992            1 
  285000    1.1599261   -3.1459975     282.8762   0.08271234  0.087109612            1 
  286000    1.1431064   -3.1270773    283.86656  0.082711703  0.087063947            1 
  287000      1.11738   -3.1509857    285.43572   0.08287913  0.087017263            8 
  288000    1.1453114   -3.1372927    286.33933  0.082852815  0.086972375            1 
  289000    1.1477079   -3.1538711    286.53133   0.08262149  0.086928491            1 
  290000    1.1520482   -3.1746216    287.48976  0.082612001  0.086886121            1 
  291000    1.1235997   -3.1456774    288.13271   0.08251223  0.086841218            2 
  292000    1.1395055   -3.1096403    290.04085  0.082774215  0.086797974            3 
  293000    1.1335027   -3.1241703    291.79276  0.082989977  0.086754734            2 
  294000    1.1383798   -3.1404083    291.21849  0.082544923  0.086709786            2 
  295000    1.1199901   -3.1441061    291.82501  0.082436444  0.086663612            1 
  296000    1.1435815   -3.1270838     294.1956  0.082825338  0.086617894            2 
  297000    1.1345701   -3.1538324    294.96064  0.082761121  0.086576272            3 
  298000    1.1229726   -3.1265235    294.28828   0.08229538  0.086528996            2 
  299000     1.129302    -3.094261     297.5765  0.082936594   0.08648828            2 
  300000     1.120477   -3.1505836     297.9544   0.08276511  0.086449686            2 
  301000    1.1426682   -3.1475901    300.93725  0.083315961  0.086412245            5 
  302000    1.1349733   -3.1293151    300.14792  0.082822275  0.086377367            2 
  303000    1.1227992   -3.1545383    300.93507  0.082765421  0.086341481            2 
  304000    1.1696452   -3.1315623    302.29508  0.082865977  0.086304303            2 
  305000    1.1331799   -3.1543235     304.0654  0.083077979  0.086271164            2 
  306000    1.1612401   -3.1390461    305.35271  0.083157056   0.08623961            2 
  307000    1.1377394    -3.139227     304.8345  0.082745521  0.086207219            3 
  308000    1.1260666   -3.1358591    308.36694  0.083432613  0.086177396            2 
  309000    1.1119852   -3.1635853    308.27171  0.083136922  0.086151333            1 
  310000    1.1376959   -3.1709661    308.27406  0.082869372  0.086125719            4 
  311000     1.123139   -3.1768261    310.69299   0.08325107  0.086101153            3 
  312000    1.1398086   -3.1761481    311.77912  0.083274337  0.086076333            1 
  313000    1.1284047   -3.1642009    311.24327   0.08286562  0.086052455            4 
  314000     1.142999   -3.1863675     313.6457  0.083239304  0.086028193            4 
  315000    1.1136954   -3.1590286    312.98355  0.082799881  0.086000584            2 
  316000    1.1131602   -3.1586093    314.70818  0.082992662  0.085969527            4 
  317000    1.1225907     -3.16035    314.12506  0.082577567  0.085939386            2 
  318000    1.1326554   -3.1647406    316.27289  0.082880736  0.085906073            2 
  319000    1.1163471   -3.1498285    316.30131  0.082628345  0.085872927            9 
  320000    1.1275148   -3.1511621    317.42116   0.08266176  0.085841057            1 
  321000    1.1143072   -3.1823902    318.15362  0.082594396  0.085807407            2 
  322000    1.1131616   -3.1588725     317.6527  0.082208256  0.085773193            2 
  323000    1.1317383    -3.149872    318.87404  0.082268843  0.085739679            3 
  324000    1.1192242   -3.1570671    320.31878  0.082386516  0.085704685            2 
  325000    1.1278453   -3.1437154     323.5425  0.082959614  0.085672878            1 
  326000     1.114654   -3.1869126    323.52127   0.08269971   0.08564203            2 
  327000     1.130544   -3.1688475    323.47853  0.082435914  0.085611648            1 
  328000    1.1234579   -3.1460817    324.91482  0.082549496  0.085580814            2 
  329000     1.122159   -3.1671215    325.65693  0.082486559  0.085548987            2 
  330000    1.1137242   -3.1483411    327.05079  0.082588583  0.085516189            2 
  331000    1.1353342   -3.1613441    327.25277  0.082389923  0.085484104            2 
  332000    1.1093895   -3.1520717    326.68465  0.081999159  0.085446864            1 
  333000    1.1429386   -3.1404012    328.75276  0.082270459  0.085408975            2 
  334000    1.1157671   -3.1661109    329.03868  0.082095478  0.085369266            2 
  335000    1.1223103   -3.1596918    330.11066  0.082117079   0.08532905            2 
  336000    1.0966152   -3.1880819    329.12355  0.081627865  0.085288218            4 
  337000    1.1043467   -3.1942101    330.38375  0.081697268  0.085247363            3 
  338000    1.1182264   -3.1808997    331.38556  0.081702555  0.085206609            3 
  339000    1.1031354   -3.1601155    334.96031  0.082340291  0.085166375            2 
  340000    1.1141323   -3.1760696    333.98496  0.081859059  0.085130395            2 
  341000    1.1255662   -3.1458048    335.87095    0.0820799   0.08509219            3 
  342000    1.1112363   -3.1888064    335.43289  0.081733161  0.085055757            3 
  343000    1.0970481   -3.1663956    336.63902  0.081787906  0.085015278            4 
  344000    1.0965959   -3.1765452    336.72702  0.081571468  0.084975337            3 
  345000    1.1086077   -3.1827571    337.42391  0.081503359   0.08493387            1 
  346000     1.146614   -3.1601433    338.47445  0.081520822  0.084891555            2 
  347000     1.101202   -3.1943909    339.03549  0.081420626  0.084851045            1 
  348000    1.1094041   -3.1597134    341.28506   0.08172535   0.08480862            4 
  349000    1.1022203   -3.1719704    340.20002  0.081232096  0.084766715            2 
  350000    1.1132808   -3.1711817    341.64067  0.081343017  0.084727089            4 
  351000    1.1133568   -3.1812121    341.40687  0.081055763  0.084682393            3 
  352000    1.1354037   -3.1896006    342.41422  0.081063973   0.08463685            1 
  353000    1.1313466   -3.1591236    344.94088  0.081430802   0.08459018            3 
  354000    1.1267664   -3.1630876    345.40522   0.08131008  0.084544301            1 
  355000    1.0785373   -3.2083993    344.54534  0.080879187  0.084499186            2 
  356000      1.10308   -3.1372419    346.73661  0.081164937  0.084452769            5 
  357000    1.1057365   -3.1741385    347.59794  0.081138642  0.084409241            3 
  358000    1.1170269    -3.166409    349.43459  0.081339522  0.084368356            2 
  359000    1.0859206   -3.1963601    349.45468  0.081117614  0.084328312            4 
  360000    1.0539445   -3.1902913    351.26003  0.081310192  0.084287527            2 
  361000     1.091005   -3.1723374      352.014  0.081259004  0.084249174            1 
  362000    1.1171305   -3.1867181    352.26562  0.081092455  0.084209754            1 
  363000     1.107359   -3.1966984    354.49136  0.081380019  0.084173452            2 
  364000    1.0956762   -3.1802256    355.36118   0.08135558   0.08413621            2 
  365000    1.1114441   -3.1941744    354.85041  0.081016076  0.084097971            1 
  366000    1.0919916   -3.1966077    355.40216  0.080920345   0.08405862            2 
  367000    1.1198169   -3.2010406    356.87408  0.081034079  0.084019818            2 
  368000    1.1348587   -3.2012444    355.98965  0.080613598  0.083979143            1 
  369000    1.1139156   -3.1784171    358.70412  0.081008157  0.083939403            2 
  370000    1.1103273   -3.1957376    358.27685  0.080692985  0.083898863            2 
  371000    1.1007938   -3.2037914    360.39588  0.080951455  0.083857816            1 
  372000    1.1028809   -3.2067228    361.05811  0.080882193  0.083817385            1 
  373000     1.102757   -3.1744966    361.29022  0.080717207  0.083778346            4 
  374000     1.127237   -3.1850118    361.72617  0.080598524  0.083737662            4 
  375000    1.0870024   -3.2005071    363.17007  0.080704461   0.08369783            3 
  376000    1.0810303   -3.1946277    363.97753  0.080668779  0.083655583            4 
  377000    1.1153894   -3.1912602    363.20405   0.08028383  0.083612758            2 
  378000    1.0960841   -3.1705971    364.41335   0.08033804  0.083571051            1 
  379000    1.0828794   -3.1729632    365.83559  0.080438783  0.083528185            3 
  380000    1.1068007   -3.2203208    367.02191   0.08048726   0.08348688            2 
  381000    1.0962892   -3.1793726    369.40034  0.080796224  0.083446912            2 
  382000    1.1124859   -3.1825457    368.29373  0.080343309  0.083409097            4 
  383000    1.1048632   -3.2198663    368.97364   0.08028147  0.083369662            1 
  384000    1.0981747   -3.2016655    371.27586  0.080572018  0.083330679            4 
  385000    1.1144786   -3.2102735     373.1886  0.080776754  0.083292494            2 
  386000    1.0990031   -3.1721791    373.68851  0.080675412  0.083254103            1 
  387000    1.0950441   -3.2060488    371.87685  0.080076841  0.083214899            2 
  388000    1.0990316   -3.2134296    373.10083   0.08013334  0.083174988            2 
  389000    1.1069897   -3.1733463    377.08368  0.080780565  0.083139703            3 
  390000    1.0924478   -3.2099217    375.80901   0.08030107  0.083103433            2 
  391000    1.0819436   -3.1647566     377.3435  0.080422741  0.083065301            3 
  392000    1.1024929     -3.18445    379.06326  0.080583175  0.083029841            2 
  393000    1.0881828   -3.1908995    379.55429   0.08048225  0.082996199            7 
  394000    1.0951949   -3.2133142    381.01408  0.080586735  0.082963195            2 
  395000    1.0967926   -3.1851537    381.23894  0.080430156  0.082928959            2 
  396000    1.0767057   -3.1730581    381.41733  0.080264589  0.082894389            3 
  397000    1.0883124   -3.1945961    381.96231  0.080176808  0.082858428            3 
  398000    1.0988958   -3.2086433    381.63268   0.07990634  0.082821319            4 
  399000      1.11433   -3.1901237    384.72067  0.080351016  0.082786388            2 
  400000    1.0916673   -3.1875542    387.04498  0.080634371  0.082752293            2 
  401000     1.073262    -3.221053    386.80813  0.080384066  0.082721156            3 
  402000    1.0608824   -3.2204382     389.2449  0.080689242  0.082691439            2 
  403000    1.1048516   -3.1795943    388.25352   0.08028402  0.082659755            3 
  404000    1.0841728    -3.209648    390.48071  0.080544701  0.082628003            4 
  405000    1.0712042   -3.1892443     389.5754  0.080159546  0.082596848            1 
  406000    1.1093619   -3.1807348     391.8632  0.080431691  0.082567575            2 
  407000    1.0962676   -3.2061548    392.11425  0.080285473  0.082538656            2 
  408000     1.082765   -3.1887361    395.26986  0.080733223  0.082508574            4 
  409000     1.103804   -3.1892689    395.92727  0.080669778  0.082479361            2 
  410000    1.0759454   -3.1909529    394.48046  0.080178954  0.082449859            1 
  411000     1.074427   -3.2231296    396.99257  0.080493222  0.082418388            2 
  412000     1.105112   -3.1995299    396.43794  0.080185667  0.082387415            2 
  413000     1.094073   -3.2209029    394.67753  0.079636305  0.082355349            4 
  414000    1.1005352   -3.1939903     397.2074  0.079953179  0.082323401            1 
  415000    1.0819304   -3.2177708    398.85478  0.080091321  0.082291964            3 
  416000     1.097515   -3.2072468    399.85528  0.080099214  0.082261276            1 
  417000    1.0816002   -3.2281664    400.83529  0.080102975  0.082229739            2 
  418000    1.0903515   -3.2129991    401.54197  0.080052226   0.08220109            1 
  419000    1.0957832   -3.2438959    401.76509  0.079905548  0.082170607            2 
  420000    1.0938774    -3.230593    402.34392  0.079830142  0.082137535            1 
  421000    1.0728982   -3.2118232    403.48479  0.079866347  0.082106709            2 
  422000    1.0795704   -3.1883927    405.00985  0.079978249  0.082073639            1 
  423000    1.0855128   -3.2343909    406.25301  0.080034083  0.082042991            4 
  424000    1.0928931   -3.1868439    406.85801  0.079964231  0.082010934            2 
  425000    1.0996186   -3.2120964    407.61905  0.079925305  0.081981159            2 
  426000    1.0633076   -3.2073054    408.69758  0.079948667  0.081949347            2 
  427000    1.0796686   -3.2136978    409.88195  0.079992574  0.081918054            7 
  428000     1.081347   -3.2288197    408.78155  0.079591424  0.081885678            2 
  429000    1.0887728   -3.2510261    409.47106  0.079539833  0.081853731            2 
  430000       1.0748   -3.2445297    409.66163  0.079391789  0.081820465            3 
  431000    1.0838175   -3.2603244    410.10417  0.079293149  0.081786285            2 
  432000    1.0723499   -3.2015289    413.63337  0.079790388  0.081754029            2 
  433000    1.0833588   -3.2193897    413.90607  0.079658597  0.081723734            1 
  434000    1.0989924   -3.2283092    414.37913  0.079565886  0.081693648            5 
  435000    1.0982533   -3.2399846    415.42858  0.079584019  0.081662207            2 
  436000    1.0674327   -3.2253281    416.17375  0.079543911  0.081629765            1 
  437000    1.1044834    -3.254609    416.95794   0.07951143  0.081597334            3 
  438000    1.0821718   -3.2353846    417.23975  0.079383514  0.081564353            3 
  439000    1.0890929   -3.1905929    419.55169   0.07964155   0.08153252            2 
  440000    1.0739659   -3.2453664    419.00739  0.079357461  0.081499411            2 
  441000    1.0643715   -3.2392835    417.98362  0.078984055  0.081464123            2 
  442000    1.0575986   -3.2370349    422.65765  0.079686586  0.081428515            2 
  443000    1.0913262   -3.2185855    422.39038  0.079456429  0.081395331            1 
  444000    1.0643123   -3.2032267    421.07011  0.079029675   0.08136269            2 
  445000    1.0867362   -3.2142434    423.66455  0.079337931  0.081329289            2 
  446000    1.0730464   -3.2257923    424.16127  0.079252852  0.081294357            1 
  447000     1.073979   -3.2247108    423.50197  0.078952642  0.081258255            1 
  448000    1.0696502   -3.1980538    424.80296  0.079018407  0.081223193            2 
  449000      1.08509   -3.2562102    426.90563  0.079232672  0.081187883            5 
  450000    1.0704308   -3.2173161    427.33949  0.079136942   0.08115331            1 
  451000    1.0980701   -3.2179867    426.60559  0.078825867  0.081120263            2 
  452000    1.0881029   -3.2597232    428.68568   0.07903497  0.081086159            2 
  453000    1.0796674   -3.2268105    429.48859  0.079008202  0.081052065            2 
  454000    1.0513679   -3.1761962    431.11292  0.079132327  0.081019426            2 
  455000    1.0665515   -3.2645386    431.24494   0.07898259  0.080984596            5 
  456000    1.0514907   -3.2383574     433.2836  0.079181945  0.080951182            3 
  457000    1.0767348   -3.2009695    432.92671  0.078943602  0.080916561            2 
  458000    1.0730137   -3.2380404    436.56707    0.0794336    0.0808832            3 
  459000    1.0643108     -3.25152    433.75108  0.078749288  0.080849962            2 
  460000    1.0635773   -3.2369449    434.45198  0.078705069  0.080815001            3 
  461000    1.0392986   -3.2133135    436.33697  0.078875084  0.080782548            1 
  462000    1.0508519   -3.2456057      437.233  0.078865981  0.080748969            1 
  463000     1.075913   -3.2435277    436.37791   0.07854174   0.08071552            4 
  464000    1.0649203   -3.2244899    437.61297  0.078594283  0.080680892            4 
  465000    1.0521933    -3.246653    440.21824  0.078892157  0.080648198            3 
  466000    1.0645022   -3.2561266    439.49894   0.07859423  0.080615042            2 
  467000    1.0809786   -3.2295277    438.52128  0.078251477  0.080581256            2 
  468000    1.0875431   -3.2351272    441.07275  0.078538595  0.080548959            3 
  469000    1.0782388   -3.2344484    441.80693  0.078501587  0.080514173            3 
  470000    1.0890503   -3.2064923    441.75667  0.078325651  0.080479597            2 
  471000    1.0671422   -3.2271857    443.46553    0.0784617    0.0804452            3 
  472000    1.0458916   -3.2340413    442.68621  0.078157877  0.080411901            3 
  473000    1.0697904    -3.260768    444.11789  0.078244871  0.080378766            2 
  474000    1.0557005   -3.2263987    446.79023  0.078549618  0.080345879            2 
  475000    1.0878548   -3.2473934    446.55168  0.078342401   0.08031274            2 
  476000    1.0626465   -3.2328699    447.29494  0.078307938  0.080280481            2 
  477000    1.0666662   -3.2721833    446.42675  0.077992095  0.080245836            3 
  478000    1.0725385   -3.2380724    447.84127  0.078075535  0.080211927            3 
  479000    1.0276188   -3.2291302    450.63642   0.07839882  0.080176947            1 
  480000    1.0703475   -3.2148291    451.49709  0.078384912  0.080143117            3 
  481000     1.046579   -3.2611296    451.35736  0.078197741  0.080109955            2 
  482000    1.0741701   -3.2244422    454.21719  0.078529942  0.080076538            3 
  483000    1.0379667   -3.2188229    454.21929  0.078367718   0.08004296            2 
  484000    1.0724109   -3.2610501    453.77744  0.078129724  0.080011033            2 
  485000    1.0356797   -3.2760202    453.75858  0.077965392  0.079978414            3 
  486000    1.0686882   -3.2522614     454.9398   0.07800751  0.079943784            2 
  487000    1.0964805   -3.2614062    457.32296  0.078255126  0.079909401            3 
  488000    1.0414532   -3.2319934    456.54867  0.077962546   0.07987532            2 
  489000    1.0885634   -3.2344218    458.18763  0.078082417  0.079842755            2 
  490000    1.0412162   -3.2745213    457.85548  0.077866578  0.079808297            2 
  491000    1.0518523   -3.2374006    459.88386   0.07805225  0.079774894            3 
  492000    1.0759856   -3.2731579    458.42803  0.077647023  0.079741398            1 
  493000    1.0596184    -3.230694    461.42249  0.077995688  0.079709062            1 
  494000     1.059441   -3.2254365    461.81044  0.077903246  0.079676299            2 
  495000    1.0445897   -3.2656205    460.34501   0.07749916  0.079643622            3 
  496000    1.0326207   -3.2521734    464.65009  0.078066211  0.079611283            4 
  497000    1.0653147   -3.2654696    463.78897   0.07776475  0.079577917            3 
  498000    1.0391444   -3.2361458    465.66608  0.077922703  0.079546152            3 
  499000    1.0809979   -3.2623418     466.4714  0.077901035  0.079514047            1 
  500000    1.0637005   -3.2515621    467.88227  0.077980379  0.079483357            2 
  501000    1.0632246   -3.2721376    470.60778  0.078278074  0.079453507            2 
  502000    1.0541675   -3.2559107    471.60657  0.078287943  0.079424026            1 
  503000    1.0698302   -3.2387997     470.1295   0.07788759  0.079395872            1 
  504000    1.0534106   -3.2106069     471.9836  0.078039616   0.07936757            2 
  505000     1.061777    -3.264212    470.16641  0.077585216  0.079339576            2 
  506000    1.0512968    -3.260901    475.45904  0.078303531   0.07931126            2 
  507000    1.0407194   -3.2471062    473.50771  0.077828355  0.079283345            1 
  508000    1.0586262   -3.2443968    475.06229  0.077930166  0.079255775            2 
  509000    1.0427013   -3.2537494    475.31443  0.077818341  0.079229255            2 
  510000    1.0333933   -3.2526605    475.24711  0.077654756  0.079201393            3 
  511000    1.0617364   -3.2295469     476.5144  0.077709459  0.079173184            2 
  512000    1.0454519   -3.2743364    479.19023  0.077993202  0.079146386            2 
  513000    1.0461908   -3.2905595    478.08225  0.077661184  0.079118324            3 
  514000    1.0801996    -3.255071    479.03588  0.077664701  0.079090629            3 
  515000    1.0633146   -3.3002117    479.02884  0.077512757  0.079062112            2 
  516000    1.0501472   -3.2181025    481.84991  0.077818138  0.079033197            1 
  517000    1.0778633    -3.267658    482.40182   0.07775658  0.079005503            3 
  518000     1.065409   -3.2978737    481.30172  0.077429491   0.07897668            2 
  519000    1.0392219   -3.2615026    483.48215  0.077630403  0.078946836            4 
  520000    1.0290733   -3.2677903    485.86455  0.077862909  0.078919523            1 
  521000    1.0334618   -3.2814324    484.76379  0.077537395  0.078892612            2 
  522000    1.0614575   -3.2868706    484.14536  0.077290128  0.078862348            2 
  523000    1.0348622    -3.265125     486.2022  0.077470076  0.078833753            2 
  524000    1.0551058   -3.2741979    485.62604  0.077230604  0.078803612            3 
  525000    1.0284357   -3.2633352    486.98977  0.077299964  0.078774334            6 
  526000    1.0243942   -3.2808354    489.87404  0.077609955  0.078745114            3 
  527000    1.0345949   -3.2843056    488.54424  0.077252409  0.078718017            2 
  528000    1.0254871   -3.2602069    490.72423  0.077450162  0.078690122            1 
  529000    1.0372441   -3.2385338    490.43986  0.077258957  0.078662396            3 
  530000     1.026076   -3.2494882    492.78687  0.077482212  0.078634791            2 
  531000    1.0287453   -3.2576446    493.41193  0.077434389  0.078607797            2 
  532000    1.0299282   -3.2492988    495.58004  0.077628453  0.078579982            3 
  533000     1.045408    -3.271887     495.5241  0.077474061  0.078552479            3 
  534000    1.0541735   -3.2726725    496.62737  0.077501151  0.078523933            1 
  535000    1.0327737   -3.2773744    495.37238  0.077160806  0.078497226            3 
  536000    1.0591814   -3.2286254    499.72361  0.077693347  0.078470874            2 
  537000    1.0315671   -3.2644198    497.06934  0.077136768  0.078445088            4 
  538000     1.037631    -3.283945    498.49689  0.077214512  0.078417425            6 
  539000    1.0453219   -3.2553562    499.58689   0.07723978  0.078390075            2 
  540000    1.0334775   -3.2925529    500.03159  0.077165369  0.078362155            4 
  541000    1.0675789    -3.283667    498.41107  0.076773116  0.078333533            2 
  542000    1.0243749    -3.246704    501.58706  0.077119782  0.078305231            3 
  543000     1.052531     -3.28226    501.68785  0.076993224  0.078276552            4 
  544000    1.0211395   -3.2799339     500.9112   0.07673272  0.078247685            3 
  545000    1.0577178    -3.282398    502.59925  0.076850039   0.07821833            6 
  546000    1.0195698   -3.2774041    502.97944  0.076767314  0.078189808            1 
  547000    1.0450733    -3.273019    502.36072  0.076532711   0.07816044            2 
  548000    1.0452335   -3.2771078    503.63924  0.076587475  0.078129761            4 
  549000    1.0047748   -3.2802129    504.15107  0.076525664  0.078099153            2 
  550000    1.0431247   -3.2765493    506.88749  0.076801135  0.078069956            1 
  551000    1.0378402   -3.2774797    507.98595  0.076827881  0.078040866            2 
  552000    1.0353112   -3.3023515    507.85866  0.076669483  0.078012084            3 
  553000    1.0440944   -3.2813656    508.64389  0.076649169  0.077983637            3 
  554000    1.0365226   -3.2696574     509.6317  0.076659401  0.077953494            2 
  555000    1.0167858   -3.2898867    510.76064  0.076690787  0.077924384            2 
  556000    1.0106733   -3.2845565       513.02  0.076891486  0.077894995            2 
  557000    1.0257927   -3.2669737    511.65667  0.076549471  0.077866866            3 
  558000    1.0617624   -3.2980784    511.56409   0.07639846  0.077838603            2 
  559000    1.0190465   -3.2994896    512.69164   0.07642988  0.077810193            1 
  560000    1.0177061   -3.2694888    515.61827   0.07672891  0.077780697            3 
  561000    1.0290137   -3.2870298     515.8532  0.076627035   0.07775287            2 
  562000    1.0254686   -3.2950234    515.15481   0.07638713  0.077724954            5 
  563000    1.0401595    -3.287832    518.38036  0.076728887  0.077696591            2 
  564000    1.0384278   -3.2746886    516.89828  0.076373859  0.077669689            2 
  565000      1.00623    -3.292399    519.27521  0.076589264  0.077641859            2 
  566000     1.036073   -3.3284147    519.00876  0.076414717    0.0776146            5 
  567000    1.0345459   -3.2974496    517.81769  0.076104892  0.077587286            2 
  568000    1.0133105   -3.2803534    519.34298  0.076194686  0.077559817            4 
  569000    1.0465917   -3.2792718    522.58757  0.076535966  0.077532792            3 
  570000    1.0384664   -3.2587383    524.63499  0.076701022  0.077505218            1 
  571000      1.02315   -3.2770528    524.92913  0.076609621  0.077478966            1 
  572000     1.040989   -3.2861823    523.38145  0.076250212  0.077452509            2 
  573000    1.0464482   -3.3107373    523.71898  0.076166227  0.077426075            4 
  574000    1.0200655   -3.2800216    525.15853  0.076242528  0.077398659            1 
  575000    1.0258046   -3.3253413    528.23484  0.076555774  0.077373658            2 
  576000    1.0157213    -3.286418    529.42301  0.076594764   0.07734837            1 
  577000    1.0399523   -3.2899833     527.7763  0.076224192  0.077322447            2 
  578000    1.0216013   -3.3077509    529.71637  0.076372026  0.077294802            2 
  579000    1.0058094   -3.2891456    530.96499  0.076419831   0.07726923            5 
  580000    1.0170597   -3.3130984    530.11675    0.0761662  0.077241146            2 
  581000     1.031899   -3.2990256    531.03852  0.076167315  0.077214202            1 
  582000     1.020634    -3.286184    533.26073  0.076354629  0.077188115            2 
  583000    1.0090069   -3.2928705    533.21217   0.07621672  0.077160654            4 
  584000    1.0293787   -3.3146169    534.39118  0.076254449  0.077132865            2 
  585000    1.0108954   -3.2752096    535.29919  0.076253445  0.077105801            2 
  586000    1.0072183   -3.2939982    533.16207  0.075819407  0.077079131            5 
  587000    1.0037964    -3.283498    535.56449  0.076031302  0.077052155            2 
  588000    1.0241763   -3.3001208    536.76718  0.076072447  0.077026223            2 
  589000    1.0268527   -3.3233714     538.8209  0.076233857   0.07700055            4 
  590000    1.0419843   -3.2721052    538.93267  0.076120434  0.076975742            2 
  591000   0.99441867   -3.2824688    537.73912  0.075823339  0.076951061            2 
  592000   0.99802201   -3.2692205    542.41682  0.076353719  0.076925492            2 
  593000    1.0202538   -3.3115681    542.88713  0.076291052  0.076901064            3 
  594000    1.0304772   -3.3116539    543.53082   0.07625292  0.076877696            3 
  595000    1.0127344   -3.3245238    541.86973   0.07589212  0.076852881            5 
  596000    1.0076059   -3.3358334    542.71914  0.075883548   0.07682762            3 
  597000    1.0321169   -3.2732692    544.51474  0.076007082  0.076802865            2 
  598000    1.0109055   -3.3062017    546.83351  0.076203109  0.076777843            2 
  599000    1.0001219     -3.33327    547.01349   0.07610093  0.076753286            6 
  600000    1.0285517   -3.2963929    549.77605  0.076357785  0.076728726            2 
  601000    1.0306248   -3.3049966    547.64259  0.075934912  0.076704921            1 
  602000    1.0208849   -3.3015457    550.00087  0.076135225  0.076681916            3 
  603000     1.002902   -3.3190983    550.17394  0.076032883  0.076659076            2 
  604000    1.0064399    -3.279854    549.68607  0.075839689  0.076636599            2 
  605000    1.0109871   -3.2827266    552.25489  0.076068167  0.076613169            2 
  606000   0.99867879   -3.3166944    546.80239  0.075192847  0.076587698            2 
  607000    1.0162193   -3.3240221    550.23059   0.07553962  0.076562354            2 
  608000    1.0127242   -3.3080066    550.13584   0.07540239  0.076536615            2 
  609000    1.0003065    -3.306727    554.04555  0.075813567   0.07651143            3 
  610000   0.99410778   -3.3489705    553.81637  0.075657974  0.076487044            2 
  611000     1.024802   -3.3275064    555.87016  0.075814261  0.076464214            3 
  612000    1.0074134   -3.2994681    554.58072  0.075514804  0.076441869            4 
  613000    1.0183197   -3.3111063     557.3089  0.075762493  0.076416882            2 
  614000    1.0325764   -3.3076827    558.93913  0.075860359  0.076393669            3 
  615000   0.99939612   -3.3178582     555.5196  0.075273658   0.07636896            6 
  616000    1.0243935   -3.3027473    559.19984  0.075649329  0.076343341            2 
  617000    1.0065193   -3.3147858    560.50545   0.07570306  0.076318144            2 
  618000     1.021345    -3.330313    561.19413  0.075673426  0.076292477            2 
  619000    1.0231257   -3.3253101     557.7619  0.075089108   0.07626658            2 
  620000     1.018713   -3.3337486     560.0518   0.07527578  0.076240411            3 
  621000    1.0196303   -3.3271895    560.11879  0.075163552  0.076213672            3 
  622000     1.003148   -3.3417403    560.17845  0.075050703  0.076187601            5 
  623000   0.99830555   -3.3223812     563.5001  0.075374545  0.076161844            3 
  624000    1.0237513   -3.3357987    563.22993  0.075217672  0.076134917            6 
  625000   0.99579679    -3.330955    563.14393  0.075085858  0.076108327            4 
  626000    1.0025128   -3.3251259    565.48351  0.075277358  0.076081916            2 
  627000    1.0122169   -3.3163425    562.00381  0.074694818   0.07605539            2 
  628000    1.0015544   -3.3517115    564.34358  0.074886356  0.076027514            3 
  629000   0.98679197   -3.3219869     567.1303    0.0751365  0.075999385            2 
  630000   0.96968005   -3.3385369    564.09138  0.074615261  0.075971781            3 
  631000   0.98313465   -3.3049177    567.31857  0.074923213   0.07594404            2 
  632000    1.0107611   -3.3271046    566.12602  0.074647419  0.075916056            2 
  633000   0.99861495   -3.3045231     569.0045  0.074908438  0.075888271            2 
  634000    1.0237492   -3.3106261    567.98407   0.07465616  0.075859678            4 
  635000   0.99227789    -3.305259    569.32564  0.074714651  0.075830895            3 
  636000    1.0022843   -3.3134633    566.97889  0.074289686   0.07580115            1 
  637000    1.0168234   -3.3287636    568.95247  0.074431249   0.07577177            3 
  638000    1.0126108   -3.3288375    570.48089  0.074514222   0.07574274            2 
  639000    1.0144886   -3.3296379    572.64671  0.074680061  0.075713833            4 
  640000     1.002873   -3.3247388    573.13496  0.074626948  0.075684176            2 
  641000   0.97604476   -3.3388129    571.74359  0.074329639  0.075654658            4 
  642000    0.9888448   -3.3588671    572.48781  0.074310464   0.07562542            3 
  643000    0.9988417   -3.3120587    575.26118  0.074554327   0.07559701            1 
  644000    1.0144506   -3.3098519     577.8256  0.074770393  0.075568136            2 
  645000   0.98930715   -3.3110582    573.97369  0.074156807  0.075538559            2 
  646000    1.0090813   -3.3321791    575.42243    0.0742289  0.075508999            3 
  647000    1.0116029   -3.3159487    576.96529  0.074312892  0.075478397            2 
  648000    1.0140841   -3.3307704    572.94465  0.073681153  0.075448168            1 
  649000   0.99904077   -3.2981151    576.88184  0.074073169  0.075417779            3 
  650000   0.99828416   -3.3486376     576.7808  0.073946257  0.075386073            3 
  651000    1.0088204   -3.3485242    577.80493  0.073963764  0.075354268            4 
  652000    1.0127696   -3.3379094    578.95779  0.073997672  0.075321816            6 
  653000   0.99613694   -3.3494954    577.97306  0.073758686  0.075290382            2 
  654000    1.0020445   -3.3284394    576.45081  0.073451938  0.075259447            3 
  655000   0.99563409   -3.3679355    580.08961   0.07380275  0.075226976            2 
  656000   0.97301141   -3.3390574    580.70275  0.073768134  0.075194455            5 
  657000   0.99728277   -3.3196923     581.7055  0.073783041  0.075162599            5 
  658000   0.99492413   -3.3629221     578.3256  0.073242857  0.075130278            1 
  659000    0.9778328   -3.3540111    581.36982   0.07351667  0.075097587            2 
  660000    0.9697951   -3.3049617    584.70674  0.073826608  0.075065144            3 
  661000   0.98971493   -3.3204645    582.40333  0.073424525  0.075032448            5 
  662000   0.97298642   -3.3396044    583.79124  0.073488323  0.075000758            3 
  663000    1.0045839   -3.3270708    583.83385  0.073382836  0.074968863            2 
  664000   0.99370751    -3.347189    584.89611  0.073405636  0.074936259            2 
  665000    1.0134244   -3.3364101    586.37594  0.073480695  0.074905025            3 
  666000   0.99707348   -3.3494485     588.7401  0.073666178  0.074873506            2 
  667000   0.97216577   -3.3219762    589.71428  0.073677446  0.074841457            2 
  668000    1.0093076   -3.3484001    589.39666  0.073527528  0.074809129            3 
  669000   0.97716696   -3.3360362    587.24192  0.073149218  0.074776483            2 
  670000   0.96370268    -3.342688    590.21372  0.073409666  0.074743341            2 
  671000   0.99423043   -3.3544745    590.81335  0.073374733  0.074711215            3 
  672000   0.97302883   -3.3604422    589.35037  0.073084124  0.074679253            4 
  673000   0.99628384   -3.3738487    590.18413  0.073078768  0.074646012            5 
  674000    1.0052966    -3.320582    590.98032  0.073068783  0.074612546            2 
  675000    1.0068167   -3.3859079    590.16457  0.072859823  0.074579317            2 
  676000   0.97713635   -3.3322988    594.24002   0.07325444   0.07454679            2 
  677000   0.99885005   -3.3447614    593.50008  0.073055155    0.0745139            2 
  678000   0.96105568   -3.3650184     590.5094  0.072579818  0.074480187            3 
  679000   0.98734833   -3.3403218    595.94705  0.073140286  0.074447452            3 
  680000    1.0165817    -3.322804     598.1335  0.073300674  0.074414682            1 
  681000    0.9902847   -3.3592802     597.3081  0.073092034  0.074382719            2 
  682000   0.99745651   -3.3369107    596.16233   0.07284486  0.074349461            3 
  683000   0.98873811   -3.3698641    596.08735  0.072729057  0.074316295            4 
  684000   0.98457395   -3.3854732    596.01156  0.072613495  0.074283075            3 
  685000   0.99105509   -3.3544587    600.49848  0.073053343   0.07424986            2 
  686000   0.96640783   -3.3822275    597.62004  0.072597186   0.07421708            3 
  687000    1.0025352    -3.345356    600.69156  0.072864091   0.07418455            4 
  688000   0.99664183   -3.3273093    602.47323  0.072973986  0.074152409            2 
  689000   0.98538024   -3.3462087     601.5247   0.07275335  0.074120212            1 
  690000   0.95670699   -3.3333586    600.99534  0.072583979  0.074087869            1 
  691000   0.97837592   -3.3655801    601.08973   0.07249032  0.074053808            3 
  692000   0.98286183   -3.3417149    604.23951  0.072764873  0.074020574            3 
  693000   0.96807637   -3.3743061    605.16015  0.072770581  0.073987983            1 
  694000   0.97881286   -3.3462864      604.223  0.072553194  0.073954072            2 
  695000     0.975274   -3.3891894    601.80451  0.072158814  0.073919934            2 
  696000   0.98626309   -3.3697654     601.9435  0.072071779  0.073884509            1 
  697000   0.95621747   -3.3622872     602.6689  0.072055105  0.073848868            2 
  698000   0.97689539   -3.3708263    604.53678  0.072174878  0.073812907            4 
  699000   0.98885533   -3.3701056    606.66822  0.072325729   0.07377782            3 
  700000   0.97190522   -3.3618246    605.25632  0.072054323  0.073742157            2 
  701000   0.97640304   -3.3440946    605.82773  0.072019464  0.073705992            2 
  702000   0.97940214   -3.3376715    606.83517  0.072036463  0.073669403            4 
  703000   0.99949378    -3.371185    604.02782  0.071601211  0.073633182            3 
  704000   0.96747847   -3.3700534    605.40692  0.071662751  0.073596191            4 
  705000    0.9615099   -3.3756669    606.68256  0.071711886  0.073559977            3 
  706000   0.94943024   -3.3587503    608.37259  0.071809795  0.073523436            2 
  707000   0.98182243   -3.3676377    608.15993   0.07168316  0.073487452            2 
  708000   0.95894723   -3.3837955    609.12932  0.071696013  0.073451811            3 
  709000   0.98652162   -3.3786843    610.07815  0.071706412  0.073415116            3 
  710000   0.97836841   -3.3452659    613.82303  0.072044956   0.07338038            3 
  711000   0.97594458     -3.35633    612.97462  0.071844189  0.073345558            4 
  712000   0.98149177   -3.3507844    611.44512  0.071564269  0.073310711            3 
  713000   0.96441261   -3.3418079     614.0814  0.071772019  0.073275604            1 
  714000   0.94810551   -3.3904617     612.0349  0.071432645  0.073240075            2 
  715000   0.96224119   -3.3200313     614.8531    0.0716612  0.073203424            3 
  716000   0.96747308   -3.3759262    613.84989  0.071444354  0.073167471            2 
  717000   0.98394047   -3.3861667    614.70569  0.071444176  0.073131018            3 
  718000   0.95756974   -3.3606409     616.1307  0.071510063  0.073095165            2 
  719000   0.97564903   -3.3763321    618.15512  0.071645239   0.07306002            3 
  720000   0.95910976   -3.3427203    616.42978  0.071346039  0.073023544            2 
  721000   0.96420161   -3.3906705      615.529  0.071142973  0.072986535            1 
  722000   0.96271967   -3.3651765    617.50312   0.07127229   0.07294952            4 
  723000    0.9638295   -3.3599121    616.33074  0.071038582  0.072912506            1 
  724000   0.95852445   -3.3943523    616.55908  0.070966745  0.072875055            4 
  725000   0.98289855   -3.4003555    616.39652  0.070850174  0.072838159            2 
  726000   0.96337414   -3.3841981    619.65938   0.07112711  0.072801845            3 
  727000   0.97353802   -3.3904196    621.79064  0.071273572  0.072765087            5 
  728000   0.97305378   -3.3974075    618.75674  0.070828381  0.072728499            5 
  729000   0.94293903   -3.3999786      621.938  0.071094879  0.072691262            4 
  730000   0.96439835   -3.3540929     620.5147  0.070835012   0.07265353            2 
  731000   0.93346116   -3.3841617    618.88419  0.070552233   0.07261645            4 
  732000   0.97358642    -3.373367     624.9967  0.071151718  0.072580785            2 
  733000   0.98630097   -3.3759182    625.88106  0.071155191   0.07254508            2 
  734000   0.96767542   -3.3816265    625.54031  0.071019563  0.072510497            4 
  735000   0.96194467   -3.3734792     626.6002  0.071043106  0.072475329            2 
  736000   0.95799937   -3.3908387    624.75625    0.0707378  0.072439629            4 
  737000   0.97003773   -3.3941975    624.02644  0.070559299  0.072404038            2 
  738000   0.93309088   -3.3617542    627.11301  0.070812218  0.072368259            4 
  739000   0.95074166   -3.3610771    628.81186  0.070907968  0.072333211            5 
  740000   0.92717081   -3.3977872     628.5623  0.070784043   0.07229823            4 
  741000   0.96192506   -3.3468163    632.43387  0.071123917  0.072263401            3 
  742000   0.95469171   -3.3771053    631.75353  0.070951654  0.072229121            1 
  743000   0.95394485   -3.4022811    630.06967  0.070667302  0.072194017            2 
  744000   0.96892464   -3.4230716    630.99404  0.070675856  0.072159324            1 
  745000   0.94719632   -3.3994973    631.14849  0.070598265  0.072124066            1 
  746000   0.95751451   -3.3765293    633.16656  0.070729062  0.072090465            2 
  747000   0.95580433   -3.3921139     634.1922  0.070748795  0.072056849            3 
  748000   0.95146031    -3.384386    633.82742  0.070613571  0.072022921            3 
  749000   0.95681196   -3.3802121    633.15733  0.070444741  0.071988597            2 
  750000   0.95796016   -3.4239726    634.13684  0.070459649  0.071953646            3 
  751000   0.95661321   -3.3667145    634.86282  0.070446385  0.071919532            1 
  752000   0.98796787   -3.3749193    637.90975  0.070690353  0.071885568            4 
  753000   0.95067718   -3.3565918     637.4984  0.070550952  0.071852202            8 
  754000   0.93692535      -3.4207    636.18195  0.070311887  0.071818265            4 
  755000   0.98191195    -3.421789    636.44707  0.070248021  0.071784429            4 
  756000    0.9497135   -3.3985813    639.56658  0.070498962  0.071750973            1 
  757000    0.9469259   -3.3840086    639.58762  0.070408148  0.071717013            2 
  758000   0.95703984   -3.3730872    642.67543  0.070654731  0.071684083            2 
  759000   0.94196087   -3.3852912    642.34745  0.070525631  0.071650734            2 
  760000    0.9423779    -3.376014    643.67424  0.070578316  0.071617062            3 
  761000   0.94034263   -3.3754634    641.40945  0.070237566  0.071583112            3 
  762000   0.94980414   -3.3993757    640.91612   0.07009144  0.071548335            2 
  763000   0.93366491    -3.424647    639.52332  0.069847457  0.071513255            2 
  764000   0.96971028   -3.4087007    643.08387  0.070144401   0.07147922            3 
  765000   0.95161332    -3.389659    642.65251   0.07000572  0.071444994            2 
  766000   0.94527529   -3.3952779    644.58638  0.070124715  0.071409742            7 
  767000   0.95852266   -3.4173388     644.2604   0.06999787  0.071375178            2 
  768000   0.94494504   -3.3703407    646.59693  0.070160257  0.071339313            4 
  769000   0.93409724   -3.3897124     643.9562  0.069782856  0.071304683            4 
  770000   0.94201774   -3.4117221    644.17346  0.069715742  0.071269976            3 
  771000     0.927169   -3.3985287    646.80664  0.069909927  0.071234429            2 
  772000   0.94530076   -3.4118493    647.37588  0.069880816  0.071198893            1 
  773000   0.94698171   -3.4004138    647.00881  0.069750842  0.071164235            3 
  774000   0.93710799   -3.4122366    645.98012   0.06954997  0.071129629            4 
  775000   0.91523835   -3.3927211    650.08862  0.069902002  0.071095034            4 
  776000   0.97452454    -3.394552    647.54821  0.069539112  0.071061555            4 
  777000   0.95373975   -3.3933091    650.85823  0.069804615  0.071027322            2 
  778000   0.95808607   -3.4521217    647.44998  0.069349826  0.070992955            1 
  779000   0.95281832   -3.3839478    652.57144  0.069808669  0.070958901            3 
  780000   0.94602042   -3.4201627    652.19677  0.069679142  0.070925101            4 
  781000   0.94280613   -3.4218778    651.74284   0.06954149  0.070890996            2 
  782000   0.95569267   -3.4167331    653.63939  0.069654666  0.070856487            3 
  783000   0.94342663   -3.3971229    653.02812  0.069500651  0.070822071            2 
  784000   0.94105077   -3.3709961    656.29022  0.069758739  0.070788508            4 
  785000   0.95057389   -3.4445464     653.9437  0.069420775  0.070755279            2 
  786000    0.9396158    -3.419872    655.38376  0.069485132  0.070722383            3 
  787000   0.94227189   -3.4105003    655.78534  0.069439362  0.070688938            3 
  788000   0.91673172   -3.4193067    655.83383   0.06935637  0.070655671            3 
  789000   0.94817196   -3.4149545    659.30648  0.069635242  0.070622793            2 
  790000   0.95272896   -3.4362532    658.04688  0.069414227  0.070589756            5 
  791000    0.9326638   -3.4198526    659.30444  0.069458959    0.0705563            3 
  792000   0.94548141   -3.4113388    655.58868   0.06898029  0.070522992            8 
  793000   0.93592694   -3.3986321     658.5961  0.069209342  0.070489307            2 
  794000   0.94213876    -3.432464    659.00568  0.069165163  0.070455612            4 
  795000   0.92167563   -3.3953379    659.67966  0.069148811  0.070421428            6 
  796000   0.94182383   -3.4192965    661.03958  0.069204311  0.070387746            2 
  797000   0.94253029   -3.4343749    660.71325   0.06908336  0.070354069            9 
  798000   0.95433266    -3.399939    664.50742  0.069393005  0.070321367            3 
  799000   0.94057004   -3.4192581    661.88192  0.069032324  0.070288739            4 
  800000   0.92051689   -3.4234098    665.11772  0.069283096  0.070256175            3 
  801000    0.9362177   -3.4234402    663.05766  0.068982278  0.070223772            2 
  802000   0.93820708   -3.4348314    665.19259  0.069118099  0.070190721            2 
  803000   0.93361383   -3.4237837    667.19313  0.069239636  0.070158237            5 
  804000   0.92937019   -3.4481875    665.61035  0.068989464   0.07012595            5 
  805000   0.92759424   -3.4337347    664.82177  0.068822129  0.070093276            3 
  806000   0.93307668   -3.4421799    667.46928  0.069010471  0.070060516            4 
  807000   0.93443986   -3.4167369    668.75971  0.069058211  0.070027912            2 
  808000   0.93071606   -3.3968244    668.08172  0.068902817  0.069994928            2 
  809000    0.9479038   -3.4202785    667.69998  0.068778325  0.069962026            4 
  810000   0.93409056   -3.4119372    667.84566  0.068708401  0.069928735            4 
  811000   0.94213602   -3.3998877    669.18129  0.068760922  0.069895695            1 
  812000   0.94718413    -3.449715    668.96416  0.068653957  0.069861922            3 
  813000   0.93863011     -3.42172    669.24298  0.068598091  0.069829021            2 
  814000   0.91605064   -3.4619369    670.72072  0.068665103  0.069795764            2 
  815000   0.93204459   -3.4424691    671.69772  0.068680748  0.069762745            5 
  816000   0.91292265    -3.417199    673.12713  0.068742558  0.069729717            2 
  817000   0.90874056   -3.4263033    670.70246  0.068411103  0.069696118            3 
  818000   0.91750358   -3.4388966    671.80189  0.068439475  0.069663137            3 
  819000    0.9365918   -3.4212828    674.26148  0.068606174  0.069630016            5 
  820000   0.91759101   -3.4610375    673.37181  0.068432095  0.069596205            2 
  821000   0.93581418   -3.4122621    675.56772  0.068571632  0.069562363            3 
  822000   0.93824516   -3.4267131    673.16882  0.068245014    0.0695288            3 
  823000   0.92300963    -3.420412    677.26874  0.068577231  0.069495777            2 
  824000   0.91680359   -3.4162471    678.85684  0.068654615  0.069462462            2 
  825000   0.90349979   -3.4449285    678.82909  0.068568595  0.069429467            4 
  826000   0.92541701   -3.4392577    677.89383  0.068391226  0.069396626            3 
  827000   0.92000725   -3.4355959    678.98921  0.068418905  0.069363394            2 
  828000   0.92995301   -3.4391516    681.45412  0.068584352  0.069330577            3 
  829000   0.90800076   -3.4470161    678.35189  0.068189776  0.069297793            2 
  830000    0.9286498   -3.4138511    681.81083  0.068454902  0.069264612            1 
  831000   0.93250062    -3.463771    679.19976  0.068110686  0.069232418            3 
  832000   0.93006853   -3.4510699    679.31699  0.068040564  0.069199248            6 
  833000   0.92241092   -3.4654449    681.41938  0.068169206  0.069166617            4 
  834000   0.92720786   -3.4531168    681.90338   0.06813583  0.069133251           15 
  835000    0.9137701   -3.4703072    682.47812  0.068111589   0.06910027            3 
  836000   0.91159368   -3.4293249     683.0058  0.068082715  0.069067668            6 
  837000   0.88515304   -3.4255103    681.66309  0.067867691  0.069035098            9 
  838000   0.90965496   -3.4454325    682.97153  0.067916819  0.069001821            3 
  839000   0.91563839   -3.4400233    683.65071  0.067903329  0.068969617            5 
  840000   0.92348264   -3.4269183    685.02162  0.067958494   0.06893649            4 
  841000   0.91756833   -3.4638691    682.73073  0.067650687  0.068903661            7 
  842000   0.90703967   -3.4572806    683.12017  0.067608884  0.068870289            1 
  843000   0.94139313   -3.4504891    684.77994  0.067692758  0.068836979            2 
  844000   0.91559988   -3.4737451    684.31156  0.067566307  0.068803944            3 
  845000   0.91486517   -3.4565118     686.4747  0.067699674  0.068770898            5 
  846000   0.91761424   -3.4737572    688.69077   0.06783794  0.068738444            1 
  847000   0.91954268   -3.4461913    691.86335  0.068069987  0.068705689            1 
  848000   0.94054384   -3.4412147    689.41004  0.067748628  0.068674032            2 
  849000   0.90913125   -3.4527017    690.13207  0.067739701  0.068641835            3 
  850000   0.90868744   -3.4542801    691.75673  0.067819287  0.068610177            5 
  851000   0.90737873   -3.4500524    689.07309  0.067476801  0.068578258            2 
  852000   0.92147394   -3.4607728    690.06759  0.067494873  0.068546828            4 
  853000   0.91592034   -3.4395371      692.989  0.067701153  0.068515226            3 
  854000   0.92440943   -3.4501591    691.58236  0.067484617  0.068484308            2 
  855000   0.90498118   -3.4621873    691.71128  0.067418253    0.0684533            3 
  856000   0.93664259   -3.4538936    694.75048  0.067635366  0.068422212            3 
  857000   0.92871646   -3.4438694    695.76291  0.067654892  0.068391889            4 
  858000   0.92572528   -3.4431416     695.4084  0.067541608  0.068361699            3 
  859000   0.90683647   -3.4546523    697.16824  0.067633706  0.068332106            3 
  860000   0.91622256   -3.4740839    697.09632  0.067548093  0.068302291            4 
  861000   0.91937489   -3.4555512    695.64759  0.067329423  0.068271819            3 
  862000   0.91144806   -3.4516267     699.9484  0.067667092  0.068241867            3 
  863000   0.92099576   -3.4739867    697.67173  0.067368842  0.068211441            5 
  864000   0.91637826   -3.4966881    698.44285  0.067365244  0.068180883            4 
  865000   0.90661114   -3.4567098    702.16667  0.067646115  0.068150135            6 
  866000   0.90363831   -3.4403181     702.3728  0.067587836  0.068120292            4 
  867000   0.94351462   -3.4619888    701.27039  0.067403921  0.068089825            2 
  868000   0.91117712   -3.4598787    703.72634  0.067562053  0.068059846            2 
  869000   0.92717847   -3.4667211    700.34405  0.067159959  0.068028947            2 
  870000   0.90988535   -3.4647507    701.51424   0.06719485    0.0679984            2 
  871000   0.91819234   -3.4611376    702.96218  0.067256236   0.06796751            4 
  872000   0.92258643   -3.4682952    702.69176  0.067153265  0.067937015            3 
  873000    0.8902001    -3.476222    701.88559  0.066999388  0.067905921            2 
  874000   0.90110987   -3.4822346     703.7108  0.067096758  0.067874591            4 
  875000   0.90107505   -3.4665945    702.81238  0.066934512  0.067844003            3 
  876000   0.89658635   -3.4622592    706.26207   0.06718627  0.067813087            3 
  877000   0.89776971   -3.4762395    703.74741  0.066870715  0.067781555            4 
  878000   0.90477523   -3.4436288    708.26384   0.06722322  0.067751443            3 
  879000   0.88214068   -3.4550817    708.53062  0.067172034  0.067720735            3 
  880000   0.92763321   -3.4547069    706.75193  0.066927266  0.067690231            4 
  881000   0.90211809    -3.475734    708.08154  0.066977066  0.067659781            2 
  882000   0.89821871   -3.4638596    708.51943  0.066942501  0.067629079            4 
  883000   0.88841973   -3.4538902    710.30503  0.067035205  0.067598916            2 
  884000   0.88464491    -3.470693    712.32976  0.067150242  0.067569516            3 
  885000   0.91387945   -3.4457835    710.41746  0.066894299  0.067539547            4 
  886000   0.88980746   -3.5135439    706.56174  0.066456146   0.06750926            4 
  887000   0.89874387   -3.4786206    708.62384  0.066574956  0.067478284            3 
  888000   0.89959111   -3.4981272    712.09012  0.066825274  0.067447924            3 
  889000   0.89312019   -3.4467773    712.97815  0.066833347  0.067417506            2 
  890000   0.88626692   -3.4604601    710.60442  0.066535994  0.067386696            5 
  891000   0.91255591   -3.4741378    713.60692  0.066742136  0.067356807            3 
  892000   0.89712264   -3.4733325    715.38937  0.066833835  0.067326567            6 
  893000   0.90571975   -3.4635673    713.69105  0.066600508  0.067296034            3 
  894000     0.899374   -3.4756651     716.2132  0.066761111  0.067265627            3 
  895000   0.90035872   -3.4604873    716.56697  0.066719457  0.067235525            6 
  896000   0.89552811   -3.4530281    716.10753  0.066602262  0.067205526            4 
  897000   0.89831172   -3.4906101    715.50632  0.066472159  0.067175071            2 
  898000   0.88623858   -3.4613038     719.2263  0.066743346  0.067144785            2 
  899000   0.86858148   -3.4754808    716.57173  0.066423038  0.067114371            4 
  900000   0.89012613   -3.4747975    719.37808  0.066609082  0.067083607            3 
  901000   0.89745145   -3.4926417    715.79761  0.066203997  0.067053511            3 
  902000    0.8907735     -3.50115    717.57444  0.066294756  0.067022734            3 
  903000   0.88469341   -3.4708421    719.29812  0.066380409   0.06699218            6 
  904000   0.89765756   -3.4975043    720.49102  0.066416945   0.06696134            2 
  905000   0.91420311   -3.4854781    720.94436    0.0663853  0.066930807            2 
  906000    0.8873801   -3.4766812     722.2471  0.066431852  0.066900527            2 
  907000   0.90021929   -3.4842574    722.79867  0.066409286  0.066870181            5 
  908000   0.87543715   -3.4590543    720.71269  0.066144704  0.066839397            4 
  909000   0.90205903   -3.4773406    722.61553  0.066246382  0.066809031            2 
  910000    0.9131116   -3.4863773     721.2975  0.066052884  0.066778351            3 
  911000   0.90698494   -3.4756701     723.5867  0.066189782  0.066747933            1 
  912000   0.88111034   -3.5062115    723.46294  0.066105897  0.066717333            3 
  913000   0.87425912   -3.4750087    725.68093  0.066235937  0.066686661            3 
  914000   0.87924944   -3.4876758    727.43269  0.066323185  0.066656736            4 
  915000   0.89228626   -3.4859941    729.03355  0.066396498   0.06662682            9 
  916000   0.89423056    -3.486388    728.37752  0.066264331  0.066597359            2 
  917000   0.87762972   -3.5178695    726.69498  0.066039166  0.066567911            3 
  918000   0.90619572   -3.4640932    728.95801  0.066172659   0.06653897            3 
  919000   0.87810519   -3.4941092    730.60425  0.066249932  0.066509703            3 
  920000   0.89831436    -3.511489    728.70212  0.066005627  0.066480792            4 
  921000   0.89481231   -3.4886155     730.5858  0.066104397   0.06645142            4 
  922000   0.88237563   -3.4996703    731.94065  0.066155156  0.066421979            2 
  923000   0.89221824   -3.5102944    727.44554   0.06567764  0.066392523            5 
  924000   0.90198238   -3.5046972    729.69169  0.065809135    0.0663629            5 
  925000   0.87367709   -3.4987953    731.71252  0.065920047  0.066333552            4 
  926000   0.88260412   -3.5098493     731.8732  0.065863319  0.066304388            2 
  927000   0.88298014   -3.4842778    734.67541  0.066044176  0.066274935            9 
  928000   0.87390723   -3.5079699    731.84763  0.065719076  0.066245752            8 
  929000    0.8951618   -3.4983825    731.07021  0.065578598  0.066216329            3 
  930000   0.87886271   -3.4924724    733.93047  0.065764379  0.066187441            3 
  931000   0.87396154   -3.4818471    734.01589  0.065701387  0.066157511            6 
  932000   0.88168658   -3.4731391     734.4699  0.065671486  0.066128222            3 
  933000   0.88767058   -3.5144382    735.52532  0.065695366  0.066098926            3 
  934000   0.87632139   -3.4935831    734.05194  0.065493571  0.066069523            4 
  935000   0.88999912   -3.5042476    736.29711  0.065623628  0.066040424            7 
  936000   0.88208322   -3.5113414    737.89026  0.065695358  0.066011074            4 
  937000   0.87871334   -3.4985648    736.76423  0.065525101   0.06598197            6 
  938000   0.86730754   -3.4971859     739.5131  0.065699458  0.065953363            3 
  939000   0.89030808   -3.4741357    739.30431  0.065610961  0.065924594            4 
  940000   0.88274275    -3.489949    741.94383  0.065775162  0.065895661            3 
  941000   0.88465111   -3.5005202    739.64065  0.065501297  0.065866765            4 
  942000   0.87935069   -3.5094088    737.17975  0.065214062   0.06583781            4 
  943000   0.87374834   -3.4837812      741.165  0.065497083  0.065809038            4 
  944000   0.89683976   -3.4965764    739.43135   0.06527466  0.065779636            6 
  945000   0.87932693   -3.5253101    741.71878    0.0654073  0.065750183            4 
  946000   0.85998042   -3.4897076     741.8912  0.065353347  0.065721031            4 
  947000   0.89651622   -3.4910528    740.97615  0.065203815  0.065692354            5 
  948000   0.86627357   -3.4883051    743.80619  0.065383807  0.065663928            3 
  949000   0.86360267   -3.5176881    743.36701  0.065276344  0.065634757            5 
  950000    0.8823796   -3.4885411    741.71739  0.065062929   0.06560586            5 
  951000    0.8736615    -3.502215    743.14894  0.065119956   0.06557702            5 
  952000   0.88838552    -3.510982     740.3897  0.064810023  0.065547592            3 
  953000   0.88398187   -3.4971347    743.47638  0.065011925  0.065518561            4 
  954000   0.86756852   -3.5257552     747.9873  0.065337814   0.06548972            3 
  955000   0.86718362   -3.5097636    744.27716  0.064945651  0.065461557            4 
  956000   0.88637015    -3.525414    747.05424  0.065119791   0.06543264            9 
  957000   0.86638729   -3.5472608    744.83525  0.064858521   0.06540332            8 
  958000   0.86817444   -3.5111326    745.28988  0.064830365  0.065373494            3 
  959000    0.8772984   -3.5210853    742.57967  0.064527257  0.065344052            3 
  960000   0.88038032   -3.5087691     746.3237  0.064785044  0.065314566            5 
  961000   0.85079479   -3.5228932    747.63185  0.064831065  0.065285554            5 
  962000   0.86118963   -3.5252878    748.32738  0.064823924  0.065256347            2 
  963000   0.87038922   -3.5378359    750.21559  0.064920006   0.06522682            5 
  964000   0.85930246   -3.5188031    750.16807  0.064848554  0.065197369            3 
  965000   0.87349599    -3.526861    750.86719  0.064841727  0.065168159            3 
  966000   0.86760214   -3.5310138    752.39135  0.064906086  0.065138543            3 
  967000   0.85200205   -3.5154889    750.67605  0.064691145  0.065108918            8 
  968000   0.87360204   -3.5228272    749.61218  0.064532729  0.065079442           10 
  969000   0.88817349    -3.520034    751.45866  0.064624928   0.06504974            4 
  970000    0.8769192   -3.5546662    750.31302  0.064459881  0.065020214            5 
  971000   0.84024007   -3.5157242    751.53339  0.064498231  0.064990118            2 
  972000   0.87085637   -3.5116472    752.38151  0.064504588  0.064960007            2 
  973000   0.85665992   -3.4966352    751.63474  0.064374335  0.064930089            4 
  974000   0.88299958   -3.4908558     753.2702  0.064448169  0.064900158            4 
  975000   0.86052897   -3.4987776    753.57082  0.064407762  0.064869487            6 
  976000   0.84748024   -3.5221719    752.90172  0.064284642  0.064838764            4 
  977000   0.85292346   -3.5410395    751.48377  0.064097899  0.064807866            4 
  978000   0.83143538   -3.5285944    754.03562  0.064249797  0.064776797            4 
  979000   0.84837896   -3.5226396     752.3223   0.06403833  0.064746243            4 
  980000   0.86501857   -3.5369978     754.8638  0.064189098  0.064715146            5 
  981000   0.88340696   -3.5474393    754.47342  0.064090505  0.064684412            6 
  982000   0.85719822   -3.5242993    756.15989  0.064168354  0.064653661            8 
  983000   0.86979249   -3.5250861    757.91697  0.064252032   0.06462334            9 
  984000   0.85279456   -3.5426229    756.67939  0.064081927  0.064593398            6 
  985000   0.86480392   -3.5141979    757.09378  0.064051927  0.064563021            2 
  986000   0.86700518   -3.5292779     758.4379  0.064100566  0.064533506            8 
  987000   0.87666799   -3.5031183    762.03032  0.064338933  0.064503924            3 
  988000   0.85421866   -3.5436629      758.976  0.064016195  0.064474382            3 
  989000   0.86394322   -3.5171781    760.19459  0.064054145  0.064444695            3 
  990000   0.84748395   -3.5305327    757.74338  0.063783113  0.064415239            3 
  991000   0.86651716   -3.5476525    762.14392  0.064088793  0.064385435            7 
  992000   0.84951498   -3.5286339    761.37695  0.063959757  0.064355766            2 
  993000    0.8402034   -3.5235646    760.67778  0.063836672  0.064326544            5 
  994000   0.84519102   -3.5456313    758.44281  0.063585078  0.064297204            4 
  995000   0.86737751    -3.548905     760.2617  0.063673509  0.064267344            5 
  996000   0.85329527   -3.5645811    759.29593  0.063528776  0.064236959            4 
  997000   0.86612207   -3.5410217    763.18502  0.063790122  0.064206328            3 
  998000   0.86447223   -3.5366409    763.09349  0.063718562  0.064175781            2 
  999000   0.83661082   -3.5672659    761.14834  0.063492521  0.064145511            4 
 1000000   0.85504121   -3.5233016    764.25356  0.063687797  0.064114893            3 
 1001000   0.85712251   -3.5384494    761.31553  0.063379581  0.064084026            4 
 1002000   0.84538175   -3.5139416    764.88755  0.063613402  0.064053179            5 
 1003000   0.85264545   -3.5527304    764.00367  0.063476543  0.064022768            2 
 1004000   0.85488456   -3.5542702    763.20513  0.063347039  0.063991914            4 
 1005000   0.85228536   -3.5700809    762.02656  0.063186282  0.063960596            3 
 1006000   0.84596818   -3.5580577    762.95909   0.06320072  0.063929611            4 
 1007000    0.8282184   -3.5339947    767.07213  0.063478329   0.06389903            2 
 1008000   0.84417801   -3.5415899     761.7063  0.062971751  0.063868123            2 
 1009000   0.85161647   -3.5370176    764.78301  0.063163446  0.063837181            4 
 1010000   0.84315052   -3.5609412    765.94301  0.063196618  0.063806192            3 
 1011000   0.85490472   -3.5336037    766.34694  0.063167404  0.063775091            3 
 1012000   0.85829484   -3.5294681    769.63382  0.063375644   0.06374468            2 
 1013000   0.85257414   -3.5538229    769.09668  0.063268894   0.06371414            4 
 1014000   0.85412236   -3.5562828    767.33972  0.063062107  0.063683821            4 
 1015000   0.84803186   -3.5710909    765.62581  0.062859262  0.063652947            5 
 1016000   0.86546784   -3.5524703    769.11252  0.063083376  0.063621963            4 
 1017000   0.82299438   -3.5352955    768.70658  0.062988084  0.063591253            2 
 1018000   0.85739681   -3.5352449    769.02511  0.062952285   0.06356037            2 
 1019000   0.86334245   -3.5693106    767.37767   0.06275578   0.06352912            7 
 1020000   0.84516318   -3.5660624     767.9277  0.062739191   0.06349755            2 
 1021000   0.85468015    -3.540311    767.25654  0.062622962  0.063465952            4 
 1022000   0.82186838    -3.549275    769.84868   0.06277305  0.063434599            3 
 1023000   0.85119399   -3.5428101    771.08033  0.062812018  0.063403454            4 
 1024000   0.85887555   -3.5421637    766.70365  0.062394503  0.063372339            3 
 1025000   0.83701244   -3.5412524    772.35506  0.062793094  0.063340811            1 
 1026000   0.84882294   -3.5563317    768.22531  0.062396468  0.063309349            4 
 1027000   0.84458616   -3.5339237    771.35814  0.062589917  0.063277844            3 
 1028000   0.84183562   -3.5743492    772.50394  0.062621915  0.063246887            2 
 1029000   0.83628588   -3.5346511    770.92648  0.062433307  0.063216265            5 
 1030000   0.81495346   -3.5904299    772.64407  0.062511656  0.063185174            3 
 1031000   0.85491871   -3.5512233    772.44133  0.062434637  0.063154482            4 
 1032000   0.84020313   -3.5810819    774.89504  0.062572274  0.063123689            3 
 1033000   0.83901217   -3.5933059    774.03037  0.062441946  0.063092379            3 
 1034000   0.85327784   -3.5490339    774.16221  0.062392183  0.063061249            2 
 1035000   0.84888879   -3.5501592     774.7879  0.062382279  0.063030394            4 
 1036000   0.84072688   -3.5517663     776.6034  0.062468098  0.062999336            2 
 1037000   0.83865961   -3.5870376    776.63589   0.06241047  0.062967452            2 
 1038000   0.83770336   -3.5897021    773.78268  0.062121281  0.062935525            3 
 1039000   0.82814909   -3.5849265    774.70619  0.062135562  0.062903274            5 
 1040000   0.84876219   -3.5808008    773.44742  0.061974954  0.062870774            6 
 1041000   0.82538482   -3.5666501    776.75081   0.06217986  0.062838734            4 
 1042000   0.83083715   -3.5863482    775.04391  0.061983678  0.062806966            6 
 1043000   0.83194017   -3.5723587    776.07784  0.062006858  0.062774903            4 
 1044000   0.82668772   -3.5350709      777.965    0.0620981   0.06274259           12 
 1045000   0.82987055    -3.565471    774.90095  0.061794334  0.062710585            4 
 1046000   0.84803096   -3.5756121    774.36227  0.061692341  0.062678184            4 
 1047000    0.8362224   -3.5700432    775.56783  0.061729372  0.062645941            3 
 1048000   0.85269827   -3.5641763    778.53374  0.061906308  0.062614078            3 
 1049000   0.83246732   -3.5920832    778.11094  0.061813706  0.062582466            4 
 1050000   0.83159184   -3.5601426    781.40605  0.062016353  0.062550882            2 
 1051000   0.82162611   -3.5597096    780.50729  0.061886084  0.062519034            3 
 1052000   0.84260889   -3.5761022    781.73885  0.061924814  0.062486869            4 
 1053000   0.82068001   -3.5732437    780.74375  0.061787254  0.062454642            2 
 1054000    0.8277862   -3.5666417     777.8153  0.061497099  0.062422668            3 
 1055000   0.83920743   -3.5962219    778.67686  0.061506861  0.062390169            5 
 1056000   0.83459882   -3.5560016    781.30792  0.061656244  0.062358268            3 
 1057000   0.82199317   -3.5821975    783.42776  0.061765039  0.062325867            5 
 1058000   0.82027307   -3.5906061    781.79377  0.061577959  0.062293822            4 
 1059000   0.84855255   -3.5645628    783.37694  0.061644392  0.062261699            4 
 1060000   0.82904636   -3.5441954    783.04455  0.061560106  0.062230076            4 
 1061000   0.82039121   -3.5702414    783.22573  0.061516315  0.062198574            5 
 1062000   0.81994489   -3.5979668    781.81997  0.061348083  0.062166535            3 
 1063000   0.83023203   -3.5839784    782.12724  0.061314459  0.062134427            2 
 1064000   0.80216699   -3.5562658     782.6163  0.061295136  0.062102423            6 
 1065000   0.80890778   -3.6036265    782.52355  0.061230325  0.062070311            2 
 1066000   0.81529331   -3.5843298    781.95097  0.061128124  0.062038638            4 
 1067000   0.83148288   -3.5902987    781.35649  0.061024405  0.062006387            3 
 1068000   0.82588076    -3.578578    785.00425  0.061251892  0.061973669            6 
 1069000     0.821771    -3.570766    786.19768  0.061287627  0.061941817            4 
 1070000   0.82861365   -3.6057068    786.35711  0.061242766  0.061909843            3 
 1071000   0.83429488   -3.6064011    785.05787   0.06108449  0.061878043            3 
 1072000   0.82594876   -3.5814586    787.28102  0.061200328  0.061846029            5 
 1073000   0.82107105   -3.5916408    783.80365  0.060873225  0.061813731            5 
 1074000   0.82315387    -3.598796    787.12835  0.061074515  0.061781694            5 
 1075000   0.83336369   -3.6044498    785.22984   0.06087053  0.061749423            8 
 1076000    0.8401294   -3.5833085    787.32092  0.060975907   0.06171727            7 
 1077000   0.83436364    -3.564239    789.38345   0.06107888  0.061685327            4 
 1078000   0.85488521   -3.6040375    788.92517  0.060986794  0.061653278            4 
 1079000   0.81548675   -3.6242573    786.73882  0.060761417  0.061621482            2 
 1080000   0.82404014   -3.5778831    789.67992  0.060932093  0.061589442            3 
 1081000   0.81333489    -3.589382    791.97933  0.061052985  0.061557841            3 
 1082000   0.81993426    -3.590462    791.61016  0.060968127  0.061526553            4 
 1083000   0.83595179   -3.5648712    792.55179  0.060984286   0.06149549            3 
 1084000   0.82214055   -3.5940496    790.90885  0.060801726  0.061464121            4 
 1085000   0.80864422   -3.6059235     792.7404  0.060886359  0.061432588            3 
 1086000   0.82638385   -3.6207264    791.25167  0.060716058  0.061401527            3 
 1087000   0.82273112   -3.6096912    792.49623  0.060755614  0.061370149            3 
 1088000   0.80940373   -3.5983531    794.85471  0.060880416  0.061338377            4 
 1089000   0.82275823   -3.5663515    794.87919  0.060826384  0.061306969            3 
 1090000   0.82051333   -3.6033353    791.46764  0.060509758  0.061275325            2 
 1091000   0.81262745   -3.6109961    791.54894  0.060460506  0.061243602            5 
 1092000   0.82126176    -3.599609    794.33238   0.06061755  0.061212063            2 
 1093000   0.81045352   -3.5578645    796.87515  0.060755958  0.061180411            5 
 1094000   0.81745762   -3.5968271    792.35123  0.060355822  0.061148815            4 
 1095000   0.82312127   -3.6176923    795.09871  0.060509796   0.06111739            4 
 1096000   0.83132943    -3.593071    794.82939  0.060434108  0.061085886            5 
 1097000   0.80568158   -3.6022915    797.18936  0.060558293  0.061054809            3 
 1098000   0.79458416   -3.6007478    796.27475  0.060433724  0.061023257            4 
 1099000    0.8317913   -3.6236237    793.40761  0.060161329  0.060991563            7 
 1100000   0.80269842   -3.6022677    795.33776  0.060252861  0.060959609            3 
 1101000   0.81274532   -3.6077094     792.8655  0.060011013  0.060927514            3 
 1102000   0.82742876   -3.5852352    797.97233  0.060342735  0.060896067            3 
 1103000   0.79880051   -3.6109201    796.55311  0.060180803  0.060864264            7 
 1104000   0.79212276   -3.6028193    796.63598  0.060132547  0.060832106            4 
 1105000   0.81989677   -3.6107147    796.24194  0.060048411  0.060799861            2 
 1106000   0.82904588   -3.6134721    797.40052  0.060081413  0.060768208            5 
 1107000   0.81653102   -3.5865178    799.22433  0.060164433  0.060737021            3 
 1108000   0.80446452   -3.5961604    799.15114  0.060104628  0.060705508            4 
 1109000    0.8085452   -3.6293638    801.07448  0.060194956  0.060673795            6 
 1110000     0.806296   -3.6076791    800.15763  0.060071894  0.060642208            3 
 1111000   0.81712521   -3.6023932    800.07843  0.060011883  0.060610366            6 
 1112000    0.8005151   -3.5938223    800.81281   0.06001295  0.060578653            4 
 1113000     0.810305   -3.6099855    798.51687  0.059787127  0.060547262            7 
 1114000   0.80592823   -3.6192113    800.67365  0.059894797  0.060515754            4 
 1115000   0.80798898   -3.6132856    803.15401  0.060026458  0.060484605            5 
 1116000   0.80858821   -3.6037476    801.29206  0.059833636  0.060453304            4 
 1117000   0.79857894   -3.5985155    801.88138  0.059824036  0.060422123            5 
 1118000   0.81047926   -3.6235939    803.51129  0.059892016  0.060390976            3 
 1119000   0.78016062   -3.6328908    803.20119    0.0598154  0.060359466            2 
 1120000   0.82276887   -3.6250975    802.63147  0.059719603  0.060327794            4 
 1121000   0.80700865   -3.6242817    801.10949  0.059553189  0.060296028            4 
 1122000   0.80164028   -3.6244123    803.12887  0.059650094  0.060264423            9 
 1123000     0.787982   -3.6060584    802.95445  0.059584034  0.060233184            3 
 1124000   0.80227993   -3.6086213    801.39351  0.059415296  0.060201575            7 
 1125000   0.81117031   -3.6176899    804.26531  0.059575208  0.060169758            2 
 1126000   0.80177206   -3.6227947    804.53379  0.059542169  0.060137778            3 
 1127000   0.79739464   -3.6283404    801.09279    0.0592349  0.060105813            5 
 1128000   0.80086857   -3.6132849    804.22951  0.059414119  0.060074675            6 
 1129000   0.79141153   -3.6083789    805.07181  0.059423665  0.060043211            4 
 1130000   0.79782495   -3.6387762    804.29584  0.059313852  0.060011919            8 
 1131000   0.80634693   -3.6288859    806.87932  0.059451762  0.059979995            5 
 1132000    0.7860189    -3.618359    805.30631  0.059283444  0.059948817            4 
 1133000   0.80898935   -3.6262512      804.817  0.059195131  0.059917524            3 
 1134000   0.79186473   -3.6095687     805.6739  0.059205901  0.059885983            3 
 1135000   0.80473833   -3.6331653    807.04822  0.059254641  0.059854541            3 
 1136000   0.80731313   -3.6435627    807.08231  0.059204982  0.059823168            6 
 1137000   0.80701246   -3.6286968    807.92039  0.059214335  0.059791943            3 
 1138000   0.81050207   -3.6340052    804.42832  0.058906584  0.059760611            3 
 1139000   0.81593574   -3.6384071    807.91171  0.059109724  0.059729248           10 
 1140000   0.79822864    -3.628605    809.86376  0.059200567  0.059698146            3 
 1141000   0.78755994   -3.6248441    809.92361  0.059153054  0.059667249            5 
 1142000   0.79418587   -3.6123448    811.54074   0.05921926  0.059636348            5 
 1143000   0.80096421    -3.625848    813.79258  0.059331626  0.059605276            2 
 1144000   0.75869658   -3.6196193    812.25398  0.059167685  0.059574201            5 
 1145000   0.80200095   -3.6325067    809.88107  0.058943309  0.059543442            6 
 1146000   0.81435107   -3.6194887    813.05501  0.059122674  0.059512628            4 
 1147000   0.79602595   -3.6226188    813.39854  0.059096087  0.059481927            3 
 1148000   0.78930357   -3.6502797    811.35868  0.058896536  0.059450968            4 
 1149000   0.80289974   -3.6245962    811.25556  0.058837798   0.05942038            3 
 1150000   0.79944114   -3.6478018    812.24973  0.058858676   0.05938895            6 
 1151000   0.78556271   -3.6446165    808.89822  0.058564887  0.059357688            3 
 1152000   0.79914809   -3.6348632    812.66793  0.058786743  0.059326193            4 
 1153000   0.78743537   -3.6198722    812.34638  0.058712517  0.059294774            5 
 1154000   0.78249906   -3.6008468    812.66953  0.058684975  0.059263558            4 
 1155000   0.79424386   -3.6401915    811.82302  0.058573089  0.059232101            7 
 1156000   0.77848955    -3.633654    816.05037  0.058827161  0.059200306            4 
 1157000    0.7968489    -3.642631    814.97264  0.058698692  0.059168984            3 
 1158000   0.81235939   -3.6408448    816.66713  0.058769943  0.059137878            3 
 1159000   0.78657762   -3.6415775    815.62268  0.058644138  0.059106654            6 
 1160000   0.78980113   -3.6264824    814.81355  0.058535456  0.059075482            5 
 1161000   0.79343613    -3.658733    814.15987  0.058438119    0.0590441            6 
 1162000   0.79356636   -3.6438984    814.52365  0.058413916  0.059013123            4 
 1163000   0.80418022    -3.639432    818.04942  0.058616324  0.058982278            6 
 1164000   0.80534063   -3.6577847    814.04265  0.058279113  0.058951474            2 
 1165000   0.78065253   -3.6322787    816.58346  0.058410834  0.058920618            5 
 1166000   0.78458169   -3.6459639    816.95083  0.058386995  0.058889838            5 
 1167000    0.7874429   -3.6581051    816.07321  0.058274294  0.058858633            3 
 1168000    0.7751277   -3.6644316    817.68601   0.05833947  0.058827518            5 
 1169000   0.78066277   -3.6396961    819.65337  0.058429809  0.058796691            3 
 1170000   0.79624117   -3.6618779    816.63993  0.058165237  0.058765666            4 
 1171000   0.77649827    -3.664434     817.3741  0.058167812  0.058735088            3 
 1172000   0.78344684    -3.649294    820.13069  0.058314185  0.058704475            2 
 1173000   0.77438917   -3.6430347    821.25006  0.058343994  0.058674039            4 
 1174000   0.78987372   -3.6754161    820.85657  0.058266366  0.058643285            5 
 1175000   0.78902626   -3.6553851    819.72738  0.058136694   0.05861248            3 
 1176000   0.79007152   -3.6566774    822.65188  0.058294493  0.058582018            5 
 1177000   0.78290758   -3.6454328    821.37889  0.058154835  0.058551644            7 
 1178000   0.79160335   -3.6478786     824.2184  0.058306339  0.058521729            7 
 1179000   0.78675035   -3.6471885    823.84262  0.058230324  0.058491654            5 
 1180000   0.78692244   -3.6577079    821.87112  0.058041746  0.058461548            5 
 1181000   0.78335646   -3.6759795    823.66107  0.058118902  0.058431523            3 
 1182000   0.77666103   -3.6590145    824.25648  0.058111709   0.05840174            5 
 1183000   0.77886631   -3.6676143    823.90291   0.05803768  0.058371526            6 
 1184000     0.780895   -3.6626571    823.59799  0.057967201  0.058341624            4 
 1185000   0.77437553   -3.6686761    824.37668  0.057973044  0.058311177            5 
 1186000   0.77338345   -3.6622468    823.59896  0.057869516  0.058280837            9 
 1187000   0.78619111   -3.6795666      825.116  0.057927268  0.058250554            3 
 1188000    0.7609678   -3.6549348    825.88122  0.057932184   0.05822053            9 
 1189000    0.7833369    -3.634098    827.16963  0.057973762  0.058190508            5 
 1190000   0.76228464   -3.6566065     827.3865  0.057940231  0.058160626            5 
 1191000   0.76304799   -3.6555568    827.96267  0.057931897  0.058130717            3 
 1192000   0.77500466   -3.6502689     830.6155  0.058068757   0.05810107            9 
 1193000   0.76288944   -3.6713599    829.01999  0.057908633  0.058071095            3 
 1194000   0.75904477   -3.6474066    827.75752  0.057772021  0.058041239            4 
 1195000   0.76056794    -3.655953    831.65017   0.05799513  0.058012083            6 
 1196000   0.77892338   -3.6702229     827.6578  0.057668464  0.057982458            6 
 1197000   0.77214493   -3.6308415    829.76342  0.057766877  0.057952871            3 
 1198000   0.78412764   -3.6786192    830.37098   0.05776092  0.057923839            4 
 1199000    0.7798328   -3.6657732    832.56622   0.05786532  0.057894142            3 
 1200000   0.79058496   -3.6519657    831.93888  0.057773533  0.057864457            6 
 1201000   0.77417566   -3.6796866    831.38823  0.057687221  0.057834978            9 
 1202000   0.75526386   -3.6637301    831.88023  0.057673338  0.057805716            4 
 1203000   0.77364427    -3.663741    832.81672  0.057690269  0.057776305            8 
 1204000   0.76608899   -3.6830148    831.71886  0.057566366  0.057746896            6 
 1205000   0.78025669   -3.6741066    833.42283  0.057636433  0.057717686            3 
 1206000   0.77841106   -3.6650085    832.21287  0.057505036  0.057688366            4 
 1207000   0.78445518   -3.6845382    831.30521  0.057394726  0.057659563            5 
 1208000   0.77225241   -3.6889638    832.39436  0.057422349  0.057630273            5 
 1209000   0.78870855   -3.6929312    831.84394  0.057336914   0.05760119            4 
 1210000   0.76506462   -3.6753653    835.32024  0.057528942  0.057572084            5 
 1211000   0.77891567   -3.6646416    835.84264  0.057517385  0.057542856            5 
 1212000   0.76727895   -3.6683634    835.55481  0.057450138  0.057513295            3 
 1213000   0.77516998   -3.6702139    835.02482  0.057366366  0.057483909            7 
 1214000   0.76933398   -3.6804888    837.93253  0.057518708  0.057454406            5 
 1215000   0.76768318   -3.6901091    835.88541  0.057330961  0.057425078            5 
 1216000    0.7605883   -3.6843786    838.31798  0.057450519  0.057395701            3 
 1217000   0.76455203   -3.6713914    838.24804  0.057398524    0.0573669            4 
 1218000   0.76189081     -3.69152    835.32843  0.057151644  0.057338151            5 
 1219000   0.77793487   -3.6569953     840.8144  0.057479792  0.057309379            4 
 1220000   0.76926099     -3.71147    837.65489  0.057216864  0.057280598            4 
 1221000   0.76939688   -3.6861759     837.6833  0.057171942  0.057251522            5 
 1222000   0.73665768   -3.6894898    839.83967  0.057272209  0.057222799            4 
 1223000   0.75879774   -3.6989079    836.85238   0.05702183  0.057193857            3 
 1224000   0.76551513   -3.6867621    838.45661  0.057084464  0.057164832            4 
 1225000   0.74911158    -3.698703    840.14293  0.057152581  0.057136054            4 
 1226000   0.75912313   -3.6706871    841.12242  0.057172541  0.057107427           10 
 1227000   0.76342208   -3.7020019     838.7751  0.056966524  0.057078664            5 
 1228000   0.77485125    -3.708899    838.85302  0.056925422  0.057049416            8 
 1229000   0.76345551    -3.691244    838.08806  0.056827235  0.057020346            9 
 1230000   0.77036645   -3.6885385     842.0974  0.057052669  0.056991309            7 
 1231000   0.77939063   -3.6926077    840.68247  0.056910538  0.056962456            8 
 1232000   0.76798836   -3.7129536    840.16342  0.056829236  0.056933439            7 
 1233000   0.75751451   -3.6667276    842.83365  0.056963615  0.056904912            3 
 1234000   0.77386752   -3.7060517    838.12712  0.056599616  0.056876058            4 
 1235000   0.76407588   -3.7075691    840.46104  0.056711271  0.056847139           11 
 1236000   0.75371892   -3.6950016    840.85201  0.056691748  0.056818424            9 
 1237000   0.76044823   -3.6920943    843.60147  0.056831142  0.056789604            2 
 1238000   0.75261032   -3.6904243    843.11924  0.056752776  0.056760987            7 
 1239000   0.77451639   -3.7026218    841.36738  0.056589143  0.056732267            5 
 1240000   0.77094774   -3.7019416    846.20761  0.056868791  0.056703634            2 
 1241000    0.7694117   -3.6887298    846.05953  0.056813022  0.056675057            8 
 1242000   0.73970243    -3.691543    844.62711   0.05667117  0.056646256            2 
 1243000   0.74572154   -3.6952307    843.61224  0.056557538  0.056617803            6 
 1244000   0.75352607   -3.6940957    848.09241  0.056812193  0.056589247            5 
 1245000   0.74384182   -3.7072225    844.15134  0.056502767  0.056560717           10 
 1246000   0.76108644   -3.7064523    846.32563  0.056602838  0.056532103            7 
 1247000   0.74717184   -3.7050764    845.92532  0.056530695  0.056503125            5 
 1248000   0.75691317   -3.7010566     842.0684  0.056227858  0.056474179            3 
 1249000   0.74451638   -3.6842081    843.88386  0.056303967   0.05644494            5 
 1250000   0.74684601   -3.6981869    846.26876  0.056417917  0.056416054            5 
 1251000   0.76059318   -3.6959593    846.18273  0.056367088  0.056386925            5 
 1252000   0.75132921   -3.6910141    849.25184  0.056526347  0.056358188            5 
 1253000   0.74210904   -3.6737374    848.85561  0.056454882  0.056329612            6 
 1254000   0.76137798    -3.706196    847.59884  0.056326345  0.056300982            7 
 1255000   0.74549291   -3.7040392     847.1547  0.056251972  0.056272297            5 
 1256000   0.74899408   -3.7084365    847.74015  0.056246029   0.05624369            6 
 1257000   0.74916089   -3.7365425    847.68162  0.056197403  0.056214995            4 
 1258000   0.75311707     -3.71598    848.70479  0.056220508  0.056186395            6 
 1259000   0.74559876   -3.6897804    848.22638  0.056144187  0.056157592            3 
 1260000   0.76642243   -3.7028467    848.25833  0.056101741  0.056128755            3 
 1261000   0.73843023   -3.6927018    849.09067  0.056112257  0.056099899            5 
 1262000   0.75274024   -3.6901508    848.48466  0.056027777  0.056070714            6 
 1263000   0.76531891   -3.6897103    851.99557  0.056215068  0.056041984            4 
 1264000   0.75299959   -3.7038465    850.62547  0.056080266  0.056013413            3 
 1265000   0.73325301   -3.7070281    850.83548  0.056049768  0.055984677            5 
 1266000    0.7636714   -3.6981722     850.0696  0.055955082  0.055955972           11 
 1267000   0.73931582   -3.7423784    849.70165  0.055886717  0.055927253           11 
 1268000   0.74208434   -3.7063862    851.05874  0.055931831  0.055898315            4 
 1269000   0.75301493   -3.6925315    849.94404  0.055814555  0.055869674            6 
 1270000   0.74516262    -3.708867    849.96276  0.055771834  0.055840609            8 
 1271000   0.75115203   -3.7022315    852.55689  0.055898039   0.05581157            5 
 1272000   0.75037239    -3.698012    851.55942  0.055788746  0.055782752            8 
 1273000     0.751942   -3.7372454    849.99308  0.055642385  0.055753992            3 
 1274000   0.75351823   -3.7135186    850.60943  0.055639026  0.055725091            5 
 1275000   0.74411235   -3.7039285    849.80585  0.055542866  0.055696156            2 
 1276000   0.76204916   -3.7277215    852.26516   0.05565995  0.055667155            9 
 1277000   0.72608521   -3.6980141     850.2995   0.05548809  0.055638021            4 
 1278000   0.74857281   -3.7128749    850.73032  0.055472765  0.055608752            4 
 1279000    0.7421344   -3.7123724    850.54279  0.055417174  0.055579856            4 
 1280000   0.75579899   -3.7143504    850.79542  0.055390327  0.055550741            4 
 1281000   0.73567044   -3.7232718    851.84585  0.055415421  0.055521561            6 
 1282000   0.73566357   -3.7300042    849.71135  0.055233447  0.055492274            4 
 1283000    0.7385033   -3.7298746     851.5047  0.055306879  0.055462829            6 
 1284000   0.72813975    -3.732519     851.4694  0.055261514  0.055433609            4 
 1285000   0.73524162   -3.7417556    854.73904  0.055430547  0.055404582            4 
 1286000    0.7348288   -3.7319834    854.42979  0.055367405  0.055375783            7 
 1287000   0.73940953   -3.7014144    857.68183  0.055534954  0.055347053            4 
 1288000   0.74053812   -3.7152746    855.33748  0.055340158  0.055318242            6 
 1289000   0.73724972   -3.6933523    853.68696   0.05519052  0.055289351            4 
 1290000   0.74129312   -3.7332543    855.45592   0.05526201  0.055260438            6 
 1291000   0.73120863   -3.7178082    858.10621  0.055390279  0.055231452            7 
 1292000   0.74315829   -3.7310652    853.73106  0.055065213  0.055202722            7 
 1293000   0.74705271   -3.7210554    857.23808  0.055248652  0.055174001            3 
 1294000   0.73129511   -3.7452037    855.90915  0.055120373  0.055145081            3 
 1295000   0.74999368   -3.7162076    856.87225  0.055139784   0.05511627            8 
 1296000   0.73606504   -3.7239495    856.88825  0.055098267  0.055087458            3 
 1297000   0.75738975   -3.7372026    857.43141  0.055090685  0.055058622            5 
 1298000   0.74993295    -3.738785    858.91553  0.055143524  0.055029777            3 
 1299000   0.73080198   -3.7603974     856.5905  0.054951918  0.055000875            8 
 1300000   0.73009976   -3.7222869    858.35537   0.05502278  0.054972067            8 
 1301000   0.74017383   -3.7289009    858.23941   0.05497306  0.054943428            8 
 1302000   0.73444458   -3.7198462    860.47946   0.05507421  0.054914754            3 
 1303000   0.75252931   -3.7338429    859.79798  0.054988359  0.054885784            9 
 1304000   0.73534466   -3.7204122    859.61141  0.054934267  0.054857058            4 
 1305000   0.74296214   -3.7304305    857.71095  0.054770814  0.054828246            5 
 1306000   0.73206306   -3.7367822    858.91658  0.054805806  0.054799228            3 
 1307000   0.73227918   -3.7326458    860.35322  0.054855472  0.054770606            6 
 1308000   0.72533863    -3.747755    858.24014  0.054678908   0.05474146            4 
 1309000   0.74229153   -3.7407598    858.58224  0.054658915  0.054712409            8 
 1310000   0.73914734   -3.7611778    857.44653  0.054544945  0.054683399            5 
 1311000   0.72590103   -3.7358609    860.86698  0.054720759  0.054654627            6 
 1312000   0.73162719   -3.7436664     860.7582  0.054672142  0.054625981            5 
 1313000    0.7119239    -3.740357    862.27647  0.054726864   0.05459732            5 
 1314000   0.73465604   -3.7666086    860.56531  0.054576694  0.054568645            4 
 1315000   0.73713997   -3.7514412    860.97688  0.054561272  0.054539968            5 
 1316000   0.72851311   -3.7632696    861.95737  0.054581901  0.054510905            4 
 1317000   0.74081613   -3.7266179    863.17442  0.054617465  0.054482289            5 
 1318000   0.70118988   -3.7592053    860.72306  0.054421033  0.054453344            4 
 1319000   0.72860249   -3.7593459    860.00539  0.054334432  0.054424178            7 
 1320000   0.72180425   -3.7309595    862.22588  0.054433452  0.054395333            7 
 1321000   0.72259029    -3.734979     863.9991  0.054504107  0.054366838            3 
 1322000   0.72264623   -3.7422864    863.59653  0.054437502  0.054338447            4 
 1323000   0.73924601   -3.7411724    861.96578  0.054293637  0.054310083            3 
 1324000   0.72625495   -3.7565014    864.83064  0.054432946  0.054281634            4 
 1325000   0.72655368    -3.761746    864.35104  0.054361701  0.054253226            8 
 1326000   0.71893971   -3.7552317    861.93018  0.054168564  0.054224689            3 
 1327000   0.73099376   -3.7390029    866.36954  0.054406527  0.054196252            8 
 1328000   0.72967291   -3.7281026     862.5774  0.054127598  0.054168022            4 
 1329000   0.71822814   -3.7573466    861.82278  0.054039552   0.05413959            4 
 1330000   0.72284653   -3.7367783    864.08906  0.054140918  0.054111001            5 
 1331000   0.72499219   -3.7519576    865.59998   0.05419484  0.054082603            5 
 1332000   0.70702487   -3.7431895    860.97181  0.053864603  0.054053866            5 
 1333000   0.73467133   -3.7579033    865.62318  0.054114978  0.054025537            5 
 1334000   0.74038565   -3.7631507    864.40214  0.053998135  0.053997132            3 
 1335000   0.73067793   -3.7166618    868.16194  0.054192381  0.053968624           10 
 1336000   0.72130432   -3.7545805    863.00862  0.053830378  0.053940079            6 
 1337000   0.72811114   -3.7527605    865.35288  0.053936231  0.053911373            4 
 1338000   0.71565062   -3.7433594    867.43313  0.054025481    0.0538826            6 
 1339000   0.72363915   -3.7589518    867.38565  0.053982179  0.053854064            6 
 1340000   0.70884369   -3.7451959    867.27017  0.053934712  0.053825628            4 
 1341000   0.72232579   -3.7621634    865.85905  0.053806802   0.05379702            7 
 1342000     0.713159   -3.7678961    865.04928  0.053716423  0.053768258            9 
 1343000   0.71618443    -3.772269    866.92954  0.053793096   0.05373973            9 
 1344000   0.71140645   -3.7469626    866.17775  0.053706458  0.053711335            3 
 1345000   0.72026175   -3.7599448    869.78016  0.053889725  0.053683173            3 
 1346000   0.72143046   -3.7722827    869.85238  0.053854159  0.053654864            5 
 1347000   0.71372355   -3.7560174    871.10063  0.053891403  0.053626503            6 
 1348000   0.71830746   -3.7705448    867.94795  0.053656525  0.053598227           13 
 1349000   0.71251627   -3.7522774    867.52025  0.053590329  0.053569695            4 
 1350000   0.70031662   -3.7626032    870.75665   0.05375041  0.053541496            4 
 1351000   0.71331507   -3.7812343    869.63217  0.053641264  0.053513234           11 
 1352000   0.72560556   -3.7550719    872.52176  0.053779694  0.053484936            6 
 1353000   0.72546889   -3.7603455     868.5724  0.053496699  0.053456819            5 
 1354000   0.71042048   -3.7977096    869.31864  0.053503117  0.053428755            6 
 1355000   0.71674067   -3.7731759    872.27591  0.053645505   0.05340068            5 
 1356000   0.70162988   -3.7572052    874.20496  0.053724493  0.053372763            5 
 1357000   0.68896353   -3.7587124    870.87341  0.053480313  0.053344936            8 
 1358000    0.7020998   -3.7701383    871.20822  0.053461476  0.053316948           10 
 1359000   0.71050067   -3.7575537    872.06385  0.053474605  0.053289096            9 
 1360000    0.6966661   -3.7765803    871.42055  0.053395867   0.05326125            6 
 1361000   0.72081519   -3.7912845    871.43255  0.053357369  0.053233211            8 
 1362000   0.68997631   -3.7746943    871.53985  0.053324758  0.053205098            3 
 1363000    0.7057022   -3.7905703    872.63188  0.053352401  0.053176951            9 
 1364000   0.70012614   -3.7897523    873.25545  0.053351384  0.053148936            4 
 1365000   0.70770955   -3.7740615     871.9393  0.053231947  0.053121011            6 
 1366000   0.68907353   -3.7944027    874.16369  0.053328678  0.053093323            9 
 1367000   0.71155437   -3.7862111     875.3762  0.053363582  0.053065293            6 
 1368000   0.70141403   -3.7767026    871.74954  0.053103651   0.05303747            7 
 1369000   0.69917776   -3.7570172    873.72793  0.053185289  0.053009693            6 
 1370000   0.70302091   -3.7659648    874.72486  0.053207109  0.052981721            6 
 1371000   0.69981048   -3.7964071    874.49553   0.05315436  0.052953878            2 
 1372000   0.72880762    -3.744569    876.15438  0.053216374  0.052925902            3 
 1373000   0.70958287   -3.7954845    875.22324  0.053121099  0.052898046            9 
 1374000   0.71230747   -3.7781136    874.33078   0.05302831  0.052869796            4 
 1375000    0.7012965   -3.7820958    873.68606   0.05295067  0.052841531            5 
 1376000   0.71077247   -3.7940938    873.19149  0.052882237  0.052813649            6 
 1377000   0.69921279   -3.7764239    878.45305  0.053162252   0.05278578            6 
 1378000   0.69070528    -3.776341    875.08856  0.052920208  0.052757823            7 
 1379000   0.68698778   -3.7987863    876.19362  0.052948611  0.052730037            8 
 1380000   0.70602949   -3.8006006    876.46537  0.052926653  0.052702093            5 
 1381000   0.70190819   -3.7918684     877.7619  0.052966564   0.05267437            6 
 1382000   0.70571374   -3.7897543    878.31867  0.052961811  0.052646537           12 
 1383000   0.71223031    -3.772299    876.67267  0.052824335  0.052618777            5 
 1384000   0.70423274   -3.7987977     880.0007  0.052986555  0.052590942            4 
 1385000    0.7178413   -3.7885888    876.80396  0.052755955  0.052563511            8 
 1386000   0.69533256     -3.79714    879.62404  0.052887448  0.052535867            6 
 1387000   0.68176281   -3.7916977    881.43034  0.052957843  0.052508345            4 
 1388000   0.69117451    -3.795964    879.31822  0.052792881  0.052480639            4 
 1389000   0.72854125   -3.8142461    880.04516  0.052798486  0.052452982            4 
 1390000   0.71015998   -3.8005244    879.67208  0.052738134  0.052425353            6 
 1391000   0.69849163   -3.8148978     880.1381  0.052728139  0.052397945           10 
 1392000   0.69570399   -3.7779975    882.31277  0.052820448  0.052370287            6 
 1393000    0.6801208   -3.8013991    877.79233  0.052512104  0.052342938            6 
 1394000   0.70823286   -3.8051449    879.47137  0.052574807  0.052315335           10 
 1395000   0.68511519   -3.8016469    881.74741  0.052673083  0.052288032            4 
 1396000    0.7064118   -3.7877305    881.19881  0.052602603  0.052260854            6 
 1397000     0.684054   -3.7863547    880.78899  0.052540503  0.052233503            7 
 1398000   0.69773618    -3.794239    879.76647  0.052441969  0.052206041            8 
 1399000    0.6930052   -3.7999799    883.30988  0.052615551  0.052178919            4 
 1400000   0.68737612   -3.7940294    881.79884  0.052488026  0.052151668            4 
 1401000   0.69514049   -3.8112925    882.93902  0.052518381  0.052124528            4 
 1402000   0.67791113   -3.7988024    883.91589  0.052538985  0.052097256            6 
 1403000   0.70590604   -3.7950798    882.13681  0.052395866  0.052069869           11 
 1404000   0.68136347   -3.7904106    881.61912  0.052327821  0.052042391            4 
 1405000   0.68677344   -3.8153483    882.53753  0.052345049  0.052015063            6 
 1406000   0.70787539   -3.8066161    883.83858  0.052384933  0.051987555            4 
 1407000      0.68774   -3.8161071     882.8635  0.052289949   0.05196019            6 
 1408000   0.69486142   -3.8055632    882.63696  0.052239403   0.05193251            3 
 1409000   0.67590766   -3.8076407    884.59062  0.052317874  0.051905098            3 
 1410000   0.68978159   -3.8170817    884.02793  0.052247513  0.051877653            4 
 1411000   0.69474231    -3.805107    883.73481  0.052193173  0.051850172            6 
 1412000   0.68656567   -3.8244366     882.1041  0.052059968  0.051822568           10 
 1413000   0.70329099   -3.8095371    884.80364  0.052182333  0.051795016            8 
 1414000   0.67394785    -3.813472    882.75204  0.052024519  0.051767532            8 
 1415000   0.69492055   -3.7963916    882.38216   0.05196597  0.051740186            9 
 1416000   0.68652029   -3.8360778    882.44316   0.05193286   0.05171276            3 
 1417000   0.70080677   -3.8040403    885.00999  0.052047165   0.05168523            6 
 1418000   0.69234257    -3.808338    885.12833  0.052017415  0.051657651            4 
 1419000   0.69508144   -3.7918902    886.63578  0.052069285  0.051630143            6 
 1420000   0.66766895    -3.794642    887.12421   0.05206128  0.051602761            3 
 1421000   0.68614603    -3.809611    886.82313  0.052006986  0.051575344           13 
 1422000   0.69417965   -3.8119425    883.69838  0.051787293  0.051547944            9 
 1423000   0.68737967   -3.8128859    882.11243  0.051658024  0.051520392            6 
 1424000   0.67212467    -3.829359    883.18183   0.05168433  0.051492698           12 
 1425000   0.68596303   -3.8111019    883.23614  0.051651236  0.051464902           14 
 1426000   0.68304303   -3.8118475    883.95641  0.051657107  0.051437313           12 
 1427000   0.68914854   -3.8115249    886.32874  0.051759445  0.051409609            7 
 1428000   0.68664959   -3.8070833    884.35214  0.051607851  0.051381987            5 
 1429000   0.70899016   -3.8145876    885.73102  0.051652147  0.051354373            5 
 1430000   0.67960233   -3.8318704    883.53013   0.05148777  0.051326559            2 
 1431000   0.68368279   -3.8159269     886.1234  0.051602807  0.051298739            4 
 1432000    0.6745183   -3.8129724    887.25159  0.051632425  0.051271184            4 
 1433000   0.66606827   -3.8157504    884.34436  0.051427329  0.051243238            6 
 1434000   0.67264882   -3.8200631    888.40623  0.051627512  0.051215496           11 
 1435000     0.677577   -3.8402006    884.47667  0.051363338  0.051188039            9 
 1436000   0.66367147   -3.8213712    885.26396  0.051373257  0.051160246            6 
 1437000    0.6567276   -3.8263467    884.75811  0.051308171  0.051132766            9 
 1438000   0.67840416   -3.8166482    887.61134  0.051437838  0.051105052            8 
 1439000   0.67325104   -3.8241491    888.69056  0.051464591  0.051077455            4 
 1440000   0.67919993   -3.8371327    889.05822  0.051450129  0.051049919            7 
 1441000   0.68041875   -3.8278279    885.13678  0.051187646  0.051022205            4 
 1442000   0.68453372   -3.8182208    888.50986  0.051347079  0.050994611            8 
 1443000   0.68524618   -3.8266905    887.51884  0.051254264  0.050966799            6 
 1444000   0.68167712    -3.820814    887.59367  0.051223088  0.050939255           11 
 1445000   0.66543398   -3.8311218    885.31331  0.051056131  0.050911687            7 
 1446000   0.68018703   -3.8401914    888.38032  0.051197575  0.050884176            4 
 1447000   0.68818904   -3.8369572    891.24972  0.051327443  0.050856704           10 
 1448000   0.67240561   -3.8149162    889.87942  0.051213134  0.050829175            4 
 1449000    0.6611431   -3.8306606    889.48595  0.051155161  0.050801576           10 
 1450000   0.67952576   -3.8437812    887.02694   0.05097856  0.050773945            8 
 1451000   0.67115922   -3.8344283    889.31032  0.051074565  0.050746191            6 
 1452000   0.67232087   -3.8212464    891.61268  0.051171527  0.050718782            5 
 1453000    0.6672254   -3.8058343     889.6001  0.051020882  0.050691406           10 
 1454000   0.66650146   -3.8354676    888.22045   0.05090672  0.050663989           17 
 1455000   0.67011918    -3.855748    887.89776  0.050853251  0.050636527            5 
 1456000    0.6761076   -3.8284021    892.15906  0.051062217  0.050609021            3 
 1457000   0.66770369   -3.8371354    889.42785  0.050870959  0.050581558            8 
 1458000   0.68385544   -3.8441317    889.30072  0.050828802  0.050554065            4 
 1459000   0.66118603   -3.8261058     890.5108   0.05086308  0.050526501            6 
 1460000   0.67366492   -3.8391603    887.71881  0.050668882  0.050499038           14 
 1461000   0.65644036   -3.8581354     888.7837  0.050694941  0.050471432            7 
 1462000   0.66910854   -3.8594739    889.31642   0.05069063  0.050443851           12 
 1463000   0.67574002   -3.8357839    891.05221  0.050754853  0.050416332            6 
 1464000   0.68632159   -3.8241336    892.38679  0.050796152  0.050389109           11 
 1465000   0.67238818   -3.8405749    890.60685  0.050660231  0.050361705           13 
 1466000   0.65950786   -3.8484062    891.84706  0.050696172  0.050334436            4 
 1467000   0.67714618   -3.8528348    890.69568   0.05059621  0.050307012            6 
 1468000   0.66960411   -3.8718503    890.70931  0.050562518  0.050279535            8 
 1469000    0.6775445   -3.8370481    890.53864  0.050518416  0.050251825            6 
 1470000   0.66366718   -3.8592082    888.64822  0.050376883  0.050224376            7 
 1471000   0.67833752   -3.8668968    891.70391  0.050515744  0.050196901            8 
 1472000   0.68443284   -3.8378379    891.56552  0.050473592  0.050169385            5 
 1473000   0.67121796   -3.8661064    892.10445  0.050469815  0.050141855            6 
 1474000   0.67606698    -3.889994    892.01654  0.050430605   0.05011458           10 
 1475000   0.67218664   -3.8672843    889.78768   0.05027049  0.050086996            6 
 1476000    0.6741655   -3.8538664    889.80507  0.050237414  0.050059449            6 
 1477000   0.65176843   -3.8433103    892.39103  0.050349302  0.050032035            5 
 1478000   0.63035166   -3.8406044    891.92162   0.05028877  0.050004555            3 
 1479000    0.6541299   -3.8748187    890.85219  0.050194512  0.049977093            4 
 1480000   0.66015271   -3.8493759    892.52624  0.050254856  0.049949714            2 
 1481000   0.65168226   -3.8757072    893.28061   0.05026337  0.049922247            6 
 1482000   0.65611717   -3.8554497    892.69821  0.050196705  0.049894732            5 
 1483000   0.67474587   -3.8630951    893.85495  0.050227857    0.0498673            4 
 1484000   0.65168093   -3.8646866    891.41455  0.050056972  0.049839705            3 
 1485000   0.64199085    -3.853157    893.32075  0.050130233  0.049812171            6 
 1486000   0.65438654   -3.8440545    894.37018  0.050155349  0.049784597            8 
 1487000   0.65041735   -3.8675867    891.96772  0.049986982  0.049757072            7 
 1488000   0.66435576   -3.8826613    892.46528  0.049981255  0.049729558            5 
 1489000   0.65649174   -3.8763693    892.22457  0.049934216  0.049701937            4 
 1490000   0.66126308   -3.8635382    893.32246  0.049962106  0.049674142           10 
 1491000   0.66899468   -3.8727866    892.01342  0.049855434  0.049646421            7 
 1492000   0.65063638   -3.8686323    892.01119  0.049821894  0.049618665            9 
 1493000   0.64496923     -3.87676    889.77639  0.049663786  0.049590874            9 
 1494000   0.66287025   -3.8418425    890.92011  0.049694339  0.049562995            4 
 1495000   0.64749716   -3.8694622    894.60255  0.049866363  0.049535327            7 
 1496000   0.65671379   -3.8642355    891.99811  0.049687952  0.049507525            6 
 1497000    0.6613214   -3.8820405    893.84454  0.049757545    0.0494797           10 
 1498000   0.64715436   -3.8598888    895.63311  0.049823827  0.049451974            4 
 1499000   0.64983971   -3.8599461    893.99124  0.049699313  0.049424658            6 
 1500000   0.65009388   -3.8688436    894.34363  0.049685757  0.049397117            7 
 1501000   0.65108132    -3.868416    895.34547  0.049708276  0.049369527           10 
 1502000   0.65673315   -3.8753389    894.51344  0.049629019  0.049342133            6 
 1503000   0.65550224   -3.8761534    893.99451  0.049567227  0.049314445            6 
 1504000   0.65215911   -3.9038804    895.23872  0.049603209  0.049287061           10 
 1505000   0.65845772   -3.8477652    897.37156  0.049688348  0.049259674            5 
 1506000   0.66250935   -3.8736412    892.89951  0.049407897   0.04923223            5 
 1507000   0.65512789   -3.8735161    892.88843  0.049374498  0.049204744            5 
 1508000   0.65414604    -3.870408    894.96105  0.049456291  0.049177214            3 
 1509000   0.66275676   -3.8742926    895.93653  0.049477387  0.049149914            8 
 1510000   0.65552232   -3.8913621    895.10414  0.049398683  0.049122483            9 
 1511000   0.65372092    -3.852957      900.225  0.049648412   0.04909529            3 
 1512000   0.62748283   -3.8715025    896.74444  0.049423746  0.049068172           12 
 1513000   0.63079661   -3.8832868    897.01386  0.049405919  0.049040861            5 
 1514000   0.65457265   -3.8639388    898.70876  0.049466577  0.049013586            5 
 1515000   0.65670773   -3.8768539    898.34842  0.049414104  0.048986437           10 
 1516000   0.64132139     -3.88388    897.53349  0.049336713  0.048959281            4 
 1517000   0.64515509   -3.8853454    899.73443  0.049425095  0.048932206            8 
 1518000   0.65474096   -3.8851536    900.45253  0.049431957  0.048904993            4 
 1519000   0.65270452   -3.8935545    899.22651  0.049332154  0.048877931            6 
 1520000   0.66234233   -3.8878174    897.73621  0.049217994  0.048850755           18 
 1521000   0.65256705   -3.8772216    901.78561  0.049407496  0.048823661            5 
 1522000    0.6493012   -3.8799113    897.07544   0.04911714  0.048796732            6 
 1523000   0.65113415   -3.9012131    896.66427  0.049062391  0.048769624            8 
 1524000   0.63821528   -3.8818232    898.13174  0.049110441  0.048742565           12 
 1525000   0.64173946   -3.8983491    899.29587  0.049141851   0.04871558            5 
 1526000   0.64460548   -3.8803918    898.85263  0.049085443  0.048688364            9 
 1527000   0.63132869   -3.8781276    900.94644  0.049167564  0.048661158           12 
 1528000   0.64994278   -3.8903034    898.83818  0.049020407  0.048633966            5 
 1529000   0.63934813    -3.896361    897.59972  0.048920848   0.04860683            6 
 1530000    0.6453822   -3.9181354    899.10791  0.048971019   0.04857971            4 
 1531000   0.63001007   -3.8966599    899.21863  0.048945059  0.048552408            6 
 1532000   0.64272841   -3.9059666    902.32229  0.049081935  0.048525193            8 
 1533000   0.65524967   -3.9028184    899.70172  0.048907465  0.048497882            6 
 1534000    0.6369881   -3.8941373    901.86071  0.048992868  0.048470734            4 
 1535000   0.64714775   -3.9020405    898.58951  0.048783361  0.048443667            9 
 1536000   0.63631125   -3.9075032    898.76684  0.048761222  0.048416552            4 
 1537000   0.61733241   -3.9078249      897.601  0.048666287  0.048389168            5 
 1538000   0.64136305   -3.8932297    900.06122  0.048767946  0.048361954            4 
 1539000   0.62957285   -3.8971522    901.04992  0.048789794  0.048334549            9 
 1540000   0.63001092   -3.9027462    898.97291   0.04864572  0.048307386            9 
 1541000   0.64153066   -3.9020166    897.71264     0.048546  0.048280086            6 
 1542000   0.63621105   -3.9052391    898.41017  0.048552214  0.048252599            5 
 1543000   0.63309375   -3.9027925    897.87287   0.04849173  0.048225367            7 
 1544000   0.63818812   -3.9135463    901.01155  0.048629725  0.048198058            4 
 1545000   0.65240844   -3.8986043    901.93103  0.048647844  0.048170893           14 
 1546000   0.63946953   -3.9003188    898.46547  0.048429575   0.04814358           18 
 1547000   0.63823163   -3.8951227    900.36915  0.048500816   0.04811626            7 
 1548000   0.61261822   -3.9005053    902.88633  0.048604992  0.048089202            7 
 1549000   0.64234023   -3.8964754    901.17428  0.048481508  0.048062311            9 
 1550000   0.62497218   -3.9239323     900.8958  0.048435258   0.04803512            8 
 1551000    0.6325031   -3.9212654    902.43442  0.048486698   0.04800807           10 
 1552000   0.62700021   -3.9136887    901.47087  0.048403719  0.047981191            4 
 1553000   0.61904024   -3.9107813    902.72661  0.048439934  0.047954064            8 
 1554000   0.64517572   -3.9059746    902.04891  0.048372421  0.047927031            4 
 1555000    0.6301486   -3.9064807    902.85118  0.048384307  0.047899975            9 
 1556000   0.63916304   -3.8997432    901.78292     0.048296  0.047872758           13 
 1557000    0.6395943   -3.9196982    903.20371  0.048341025  0.047845636            6 
 1558000   0.62552598   -3.9078771    901.82153  0.048236068  0.047818587            8 
 1559000    0.6304695   -3.9140164    902.22844  0.048226878  0.047791659            6 
 1560000    0.6199085   -3.9285689    899.39277  0.048044485  0.047764518           14 
 1561000   0.62956186   -3.9089409    899.76987  0.048033839  0.047737343            7 
 1562000   0.63554595   -3.9458712    900.52629  0.048043443  0.047710254           10 
 1563000   0.63733023   -3.9200923    902.83446  0.048135768  0.047683016           10 
 1564000   0.61982709   -3.9278441      900.481  0.047979593  0.047655858            6 
 1565000   0.63278932   -3.9309576    901.83227  0.048020888  0.047628935            4 
 1566000   0.61321705   -3.9310418    904.39038   0.04812635  0.047602006           23 
 1567000    0.6306948   -3.9106385    903.95665  0.048072572  0.047574899           11 
 1568000   0.62559709   -3.9238344    901.45842  0.047909142  0.047547903           17 
 1569000   0.63588339   -3.9333742     903.8649  0.048006422  0.047520969            7 
 1570000   0.62287807    -3.910923    904.02939  0.047984575  0.047494118            4 
 1571000   0.62798544   -3.9293938    901.93599  0.047842987   0.04746725            9 
 1572000   0.62833661   -3.9279372    904.79646  0.047964189  0.047440253           15 
 1573000   0.62627358   -3.9099887    904.27622  0.047906136  0.047413286            8 
 1574000   0.63205349    -3.915159    902.29375   0.04777074  0.047386376            5 
 1575000   0.62820144   -3.9311371    903.04118  0.047779957  0.047359589           12 
 1576000   0.64285031   -3.9224888    902.38076  0.047714719  0.047332852            6 
 1577000    0.6221462   -3.9370817    904.58136  0.047800748    0.0473062            7 
 1578000    0.6188016   -3.9409155    904.21918   0.04775133  0.047279206           20 
 1579000   0.63595823   -3.9232137    906.08928  0.047819785  0.047252492            6 
 1580000   0.62349903   -3.9349252     906.5335  0.047812948  0.047225857            7 
 1581000   0.61552791   -3.9339823     905.0546  0.047704755  0.047199092           14 
 1582000   0.62410437    -3.921203     903.4875  0.047592051  0.047172277           12 
 1583000   0.62784997   -3.9198049    904.87345  0.047634947  0.047145336           10 
 1584000   0.61514853   -3.9090859    905.24372  0.047624354  0.047118467            5 
 1585000   0.61093486   -3.9479032    901.73551  0.047409859   0.04709158           13 
 1586000   0.62281121   -3.9230789    906.47699  0.047629098   0.04706477           19 
 1587000    0.6193639   -3.9463488    905.65837    0.0475561  0.047037939           12 
 1588000   0.61099074   -3.9294437    907.92692    0.0476452  0.047011097           15 
 1589000    0.6111866   -3.9430837    903.32391  0.047373815   0.04698427           11 
 1590000   0.60243023   -3.9354428    904.09582  0.047384477  0.046957429            5 
 1591000    0.6075027   -3.9565056    902.65771  0.047279369  0.046930625            9 
 1592000   0.61371921    -3.964113     903.3067  0.047283642  0.046903715           15 
 1593000   0.62140168   -3.9456302    905.79794  0.047384282   0.04687677            6 
 1594000   0.61153757   -3.9252983    905.74403  0.047351737  0.046850137            7 
 1595000   0.61350793   -3.9391449    907.13075  0.047394501  0.046823392            4 
 1596000   0.61362947   -3.9372394    906.74661  0.047344748  0.046796657           11 
 1597000   0.62639212   -3.9498359    907.16638  0.047337006  0.046769779           17 
 1598000    0.6187546    -3.931725     907.7661  0.047338658  0.046743042            6 
 1599000   0.61839953   -3.9394652     906.4968  0.047242902   0.04671643            5 
 1600000   0.61182627   -3.9571613    905.16058   0.04714378  0.046689808           13 
 1601000   0.60629786   -3.9677097    905.02296  0.047107171  0.046662928            8 
 1602000   0.60986623   -3.9388602    907.33423  0.047197993  0.046636228           18 
 1603000   0.60465457   -3.9314871    908.20171  0.047213647  0.046609631            8 
 1604000   0.60784606   -3.9582804    906.24303  0.047082452  0.046582852           19 
 1605000   0.61082822   -3.9371261    905.41653  0.047010204  0.046556228            7 
 1606000   0.61411775   -3.9538348     906.7026  0.047047665  0.046529357           12 
 1607000   0.61578334   -3.9675943    905.62046  0.046962272  0.046502505            8 
 1608000   0.62843597   -3.9399214    904.25609   0.04686236  0.046475813            6 
 1609000    0.6029293   -3.9253713    903.93513  0.046816611  0.046448995            7 
 1610000    0.6213664   -3.9415984    905.57993  0.046872667  0.046422271           12 
 1611000   0.60240375   -3.9442674    904.78347  0.046802373  0.046395443           13 
 1612000   0.61869371   -3.9498809    905.89607  0.046830856  0.046368555           17 
 1613000   0.60995371   -3.9699477    907.78673  0.046899501  0.046341774           11 
 1614000    0.6067428    -3.964262    907.18764  0.046839511  0.046314887            7 
 1615000   0.59799615   -3.9637206    906.28275  0.046763816  0.046288041            6 
 1616000   0.60551705   -3.9431075    907.33299  0.046789036  0.046261459            4 
 1617000   0.59948712    -3.947657    908.95734  0.046843812  0.046234872            7 
 1618000   0.61170877   -3.9556435    908.08991  0.046770185  0.046208406            7 
 1619000   0.60947333   -3.9507121    906.75705  0.046672691   0.04618188           16 
 1620000   0.59359292   -3.9470698    908.42116  0.046729483  0.046155345            8 
 1621000   0.60588032   -3.9774317    906.41668  0.046597609  0.046128799            8 
 1622000   0.61441714   -3.9735238    907.19914   0.04660908   0.04610221            9 
 1623000   0.61595559   -3.9485517    907.49166  0.046595382  0.046075777            7 
 1624000    0.5932586    -3.955554     908.5578  0.046621398  0.046049265           14 
 1625000   0.60912025    -3.960889    906.77209  0.046501133   0.04602263           10 
 1626000   0.61711588   -3.9767358    905.95553  0.046430685  0.045995878           11 
 1627000   0.60834061   -3.9663073    907.77883  0.046495535  0.045969199            8 
 1628000   0.60723006     -3.97362    907.45961  0.046450635  0.045942674           13 
 1629000   0.59681461   -3.9653518    905.91045  0.046342872  0.045915983            8 
 1630000   0.59290837   -3.9678516    908.92652  0.046468636  0.045889344           12 
 1631000   0.59792421   -3.9627001    906.60017  0.046321284  0.045862537           12 
 1632000   0.60606544   -3.9783944    909.15696  0.046423456  0.045835991            7 
 1633000   0.60597185   -3.9722231    909.78485  0.046427069  0.045809578           12 
 1634000   0.59892671   -3.9589797    909.64938  0.046391747  0.045783146            7 
 1635000   0.59410294   -3.9788108    909.42255  0.046351812  0.045756808           19 
 1636000   0.59905402   -3.9779928    906.70761  0.046185188  0.045730285           11 
 1637000   0.61746682   -3.9656442    907.16138  0.046180074  0.045703721           13 
 1638000    0.5860786   -3.9663665     908.9987  0.046245355  0.045677156            5 
 1639000   0.58783554   -3.9663788    906.84639  0.046107707  0.045650457           12 
 1640000   0.61008225   -3.9950485    907.25902   0.04610056   0.04562376           12 
 1641000   0.60373831   -3.9659035     908.9004  0.046155819  0.045596974            7 
 1642000   0.59462798    -3.960518    906.40959  0.046001298  0.045570366            7 
 1643000   0.59642757   -3.9739986    907.48059  0.046027622  0.045543821           11 
 1644000   0.59445007   -3.9793495    907.84382  0.046018037  0.045517247           11 
 1645000   0.59829018   -3.9747014    907.35794  0.045965448  0.045490613            9 
 1646000   0.59413307   -3.9823044    908.20134  0.045980222  0.045464035            6 
 1647000   0.60113514   -3.9755248    908.41777  0.045963255  0.045437519           10 
 1648000   0.59506619   -3.9583992    909.45345  0.045987735  0.045411078            9 
 1649000   0.60115534   -3.9883509     908.8846    0.0459311  0.045384773           11 
 1650000   0.60519613    -3.977847    909.33101  0.045925808  0.045358411           12 
 1651000   0.59400492   -3.9714346    908.62228  0.045862219  0.045332034            9 
 1652000   0.58531338   -4.0002309    912.14422  0.046012118  0.045305728            9 
 1653000   0.59656629   -3.9879546    911.96481  0.045975237  0.045279424           13 
 1654000   0.59178585   -3.9758724    912.51955   0.04597539  0.045253136            6 
 1655000   0.57901018   -3.9822395    911.33954  0.045888194  0.045226816           11 
 1656000   0.59302389   -3.9898834    909.21965  0.045753807  0.045200432           11 
 1657000   0.58817863   -3.9916562    908.39698  0.045684821  0.045173934           13 
 1658000   0.59487364    -3.983254     909.2385  0.045699562  0.045147624            8 
 1659000   0.60856049    -4.005005    908.04028  0.045611828  0.045121265           15 
 1660000   0.59774803   -3.9835901     910.4769  0.045706671  0.045094925           11 
 1661000    0.5872701   -3.9941017    909.59904  0.045635111  0.045068482            8 
 1662000   0.57511211    -3.981301    909.63498  0.045609455  0.045042133           13 
 1663000   0.59728327    -3.999836    908.25543    0.0455129  0.045015824           21 
 1664000     0.593113   -4.0037612    910.18051  0.045581957  0.044989653            6 
 1665000   0.57959491    -4.007421     910.7894  0.045585055  0.044963393           10 
 1666000   0.58468714   -4.0176994    909.78689  0.045507548  0.044937138           18 
 1667000   0.57810081   -4.0012892     908.8842  0.045435123  0.044910914           16 
 1668000   0.58728295   -3.9773593     911.1191  0.045519539  0.044884697           18 
 1669000    0.5866268   -3.9685506     912.0863  0.045540558  0.044858603           12 
 1670000   0.58378813   -3.9954116    909.89654  0.045404019  0.044832579           15 
 1671000   0.58450055   -3.9966249     909.1193  0.045338086  0.044806393           12 
 1672000   0.57591207   -3.9940016    914.13999  0.045561203  0.044780192           12 
 1673000   0.59725455   -3.9999764    910.79553  0.045367381     0.044754           12 
 1674000   0.58579876   -4.0052235    913.35013   0.04546745  0.044727954           13 
 1675000    0.5898769   -4.0178813    912.03011  0.045374632  0.044701878           15 
 1676000    0.5810963   -3.9952442    911.50528  0.045321464   0.04467593            7 
 1677000    0.5797909    -4.017478    912.10532  0.045324256  0.044649908            5 
 1678000   0.58130227   -3.9997229    911.91287  0.045287687  0.044623688           10 
 1679000   0.58095738   -4.0066318    911.84803  0.045257496  0.044597582            6 
 1680000   0.58620352   -3.9960112     911.2871  0.045202733  0.044571461           10 
 1681000   0.57489541   -4.0230534    909.68711  0.045096525  0.044545356            8 
 1682000    0.5746717    -4.020777    910.85491  0.045127572  0.044519098            6 
 1683000   0.59274499   -4.0151703    912.63588  0.045188942  0.044493052            5 
 1684000   0.57262038   -4.0207083    911.69521  0.045115559  0.044467056           12 
 1685000   0.57960289   -4.0187618    909.99264  0.045004582  0.044441025           20 
 1686000   0.58512434   -3.9857314    912.44419   0.04509906  0.044414835            3 
 1687000   0.57767681    -3.990581    912.97534  0.045098564  0.044388782            6 
 1688000    0.5986877   -4.0118927    914.81684  0.045162759  0.044362786            5 
 1689000   0.58022021   -4.0365234    911.86895  0.044990574  0.044336747           12 
 1690000   0.59679036   -4.0093209    913.36428  0.045037687  0.044310687           10 
 1691000    0.5777467   -4.0041602    912.36159   0.04496164  0.044284806           10 
 1692000   0.57758412   -4.0053678    911.99137  0.044916833  0.044258917           18 
 1693000   0.56742357   -4.0201867    914.21942  0.044999972  0.044233173           10 
 1694000   0.57099798   -4.0109117    916.16296  0.045069016  0.044207383           13 
 1695000   0.58254082   -4.0188629    913.55177   0.04491405  0.044181408           14 
 1696000   0.58223602   -4.0315113    912.67096  0.044844289  0.044155514           18 
 1697000   0.58078414   -4.0203857    910.73909  0.044722996  0.044129655           13 
 1698000   0.57235969   -4.0341692    912.97698  0.044806487  0.044103555           10 
 1699000   0.58107162   -4.0178168    911.78412  0.044721607  0.044077488            7 
 1700000   0.59216379   -4.0125472    912.43453  0.044727183  0.044051594           15 
 1701000   0.57456347   -4.0103261    913.12539  0.044734734  0.044025711            8 
 1702000   0.58086214   -4.0270882    913.90732  0.044746735  0.043999676           15 
 1703000    0.5741384   -4.0183917    911.12423  0.044584274  0.043973674           11 
 1704000   0.57252937    -4.016727     912.7647  0.044638336  0.043947767            8 
 1705000   0.57936737   -4.0131888    913.31535  0.044639069  0.043921845            5 
 1706000   0.57066112   -4.0021009    914.36647  0.044664247  0.043896027            9 
 1707000   0.56454252   -4.0261214    912.11869  0.044528349  0.043870298            7 
 1708000   0.57477398   -4.0225577    912.75507  0.044533327  0.043844617            7 
 1709000   0.57678898   -4.0308021    914.20912   0.04457817  0.043818893           21 
 1710000   0.57326429   -4.0365793     914.7808  0.044579961  0.043793218           12 
 1711000   0.58264632   -4.0451797    912.64362  0.044449816  0.043767432            8 
 1712000   0.56583348   -4.0341198    914.19863  0.044499544  0.043741701            5 
 1713000   0.56816846   -4.0567178    912.75536  0.044403355  0.043715884            6 
 1714000    0.5789701   -4.0142825      914.809  0.044477295  0.043690255           12 
 1715000   0.57852529   -4.0368059    914.43122  0.044433004  0.043664701            8 
 1716000   0.57092442   -4.0163736    915.41292  0.044454784  0.043639081           19 
 1717000   0.57244018   -4.0385008    913.32596  0.044327604  0.043613461           18 
 1718000   0.57285107   -4.0391741    913.12458  0.044292034  0.043587687            9 
 1719000   0.55428787   -4.0343086    913.33574  0.044276505  0.043561836           14 
 1720000    0.5639414   -4.0493195    915.21511  0.044341817  0.043536105            7 
 1721000   0.57224928   -4.0250585    913.73659   0.04424446  0.043510366            6 
 1722000   0.57103875   -4.0276181    915.33082  0.044295917  0.043484731            7 
 1723000   0.56493924   -4.0318052    914.56907  0.044233366  0.043459068           12 
 1724000   0.57181923   -4.0281921    914.67382  0.044212772  0.043433423            8 
 1725000   0.56415529   -4.0587231    914.71484  0.044189123  0.043407855            8 
 1726000   0.55721278   -4.0360558    916.44622  0.044247114  0.043382256           17 
 1727000   0.55764878   -4.0316464    914.88613  0.044146213  0.043356824            6 
 1728000   0.55560338   -4.0319551    915.74643  0.044162154  0.043331288           12 
 1729000   0.56577749   -4.0340693    915.24227  0.044112313  0.043305783            7 
 1730000   0.55813291   -4.0386923    914.26512  0.044039745  0.043280291           20 
 1731000   0.55399285   -4.0470696    914.67344  0.044033961  0.043254789            8 
 1732000   0.55409371   -4.0224167     916.3335  0.044088409  0.043229206            9 
 1733000   0.55120251   -4.0415293       918.03  0.044144547  0.043203758            6 
 1734000   0.56146588   -4.0625816    916.37866  0.044039728  0.043178223            7 
 1735000   0.56542951   -4.0502751    917.26019  0.044056686  0.043152585           15 
 1736000   0.55857186    -4.037623    915.57641   0.04395048  0.043127271           10 
 1737000   0.55361041   -4.0498331    915.01212  0.043898106  0.043101812            6 
 1738000   0.56224466   -4.0324477    915.73208  0.043907369   0.04307641            9 
 1739000   0.56759035   -4.0486552      914.102  0.043804006  0.043051047           16 
 1740000   0.56434704   -4.0579729    914.51233  0.043798483  0.043025536            5 
 1741000   0.56311293   -4.0469724    916.37336  0.043862405  0.043000194           17 
 1742000   0.56652154   -4.0427919    917.80857  0.043905883  0.042974984           21 
 1743000   0.56997838   -4.0534143    920.67235  0.044017611  0.042949727            7 
 1744000   0.55907536   -4.0419502    918.18472  0.043873505  0.042924592           17 
 1745000   0.55649765     -4.02664    917.50366  0.043815839  0.042899396           18 
 1746000   0.54734075   -4.0576502    917.24331  0.043778318  0.042874202            6 
 1747000   0.56069675   -4.0364626    916.51913  0.043718714  0.042848877            8 
 1748000   0.56956463   -4.0537765    916.63179  0.043699075  0.042823691           10 
 1749000     0.545661   -4.0503302    916.59499  0.043672336  0.042798432           16 
 1750000   0.55163469   -4.0677676    918.52093  0.043739092  0.042773256           18 
 1751000   0.54770158   -4.0835029    914.68493   0.04353155  0.042747894           18 
 1752000    0.5453619   -4.0518277    917.49441  0.043640335  0.042722582           20 
 1753000   0.54592477   -4.0694124    915.19798  0.043506274  0.042697404           23 
 1754000      0.56025   -4.0715918    916.44403  0.043540671  0.042672226            8 
 1755000   0.55050356   -4.0525117    915.85106  0.043487705  0.042647013            7 
 1756000   0.55567595   -4.0950197    915.00665  0.043422867  0.042621812           13 
 1757000   0.54848837   -4.0446614    917.09557  0.043497229  0.042596508           11 
 1758000   0.56241611   -4.0717494    916.43074  0.043440972  0.042571148           27 
 1759000   0.53741086   -4.0722949    914.09456  0.043305598  0.042545841           10 
 1760000   0.54838975    -4.068728    915.01697  0.043324667   0.04252057           21 
 1761000   0.55093552   -4.0633255    916.74598  0.043381884  0.042495314            9 
 1762000   0.55520667   -4.0780221     914.8569   0.04326792  0.042470087           14 
 1763000   0.55871854   -4.0771655    917.77515  0.043381317  0.042444923           10 
 1764000   0.54340208   -4.0700348     918.2385  0.043378614  0.042419783           10 
 1765000   0.54643846   -4.0692882    920.08113  0.043441036  0.042394765           16 
 1766000   0.54794638   -4.0825975     918.3958   0.04333691  0.042369719           14 
 1767000   0.55565074   -4.0840935    916.62415  0.043228832   0.04234473            9 
 1768000    0.5529771   -4.0889762    917.51233  0.043246245  0.042319542           38 
 1769000      0.54804   -4.0617839    918.09935  0.043249451  0.042294395           22 
 1770000   0.54138325   -4.0777705    915.07627  0.043082687  0.042269377           15 
 1771000   0.54455874   -4.0782956    917.08397  0.043152831  0.042244183            6 
 1772000   0.55241487   -4.0878075     915.8585  0.043070848  0.042219042            8 
 1773000   0.53991055   -4.0654271    916.64313  0.043083433  0.042193867           13 
 1774000   0.54341648   -4.0799243    915.48911  0.043004938  0.042168727           16 
 1775000   0.54386953   -4.0680897    917.95777  0.043096609  0.042143696           11 
 1776000   0.53523747   -4.0931501    914.50607  0.042910382  0.042118501            7 
 1777000   0.54817132   -4.0835543    915.77543  0.042945762  0.042093211            6 
 1778000   0.55295587   -4.0734351    918.10763  0.043030916  0.042068061            6 
 1779000   0.54031018   -4.0998244    914.63375  0.042844002  0.042042915            7 
 1780000   0.53957351   -4.0780088    916.76314  0.042919623  0.042017692           11 
 1781000    0.5407193   -4.0883364    916.59276  0.042887552  0.041992531            9 
 1782000   0.53447392   -4.0825337     914.3607  0.042759105  0.041967342           15 
 1783000   0.52526849   -4.0771008     916.4456  0.042832567  0.041942189            8 
 1784000   0.53906506   -4.0598091    916.95918  0.042832548  0.041917027            6 
 1785000   0.54651702   -4.0709999    918.24553  0.042868606  0.041891987           19 
 1786000    0.5374531   -4.0910169    918.15743  0.042840492  0.041867005           17 
 1787000   0.53630753   -4.0732191    917.28877  0.042776011  0.041841954           13 
 1788000    0.5396037   -4.1056151    916.51881  0.042716201   0.04181695            7 
 1789000   0.55354341    -4.080711    917.20766  0.042724411  0.041791988           10 
 1790000   0.53577332   -4.0962035    919.67981  0.042815633  0.041767008           10 
 1791000   0.55802029   -4.0760291    917.40897  0.042686068  0.041741912           12 
 1792000   0.53516158   -4.0895182    916.18097  0.042605142  0.041716878           14 
 1793000   0.53421847   -4.1004117    918.39531  0.042684296  0.041691867           18 
 1794000   0.53905532   -4.0764822    916.93154  0.042592509  0.041666892           20 
 1795000   0.53172982   -4.0695073    920.37176  0.042728494  0.041641904            5 
 1796000   0.53934644   -4.0783717    919.07143  0.042644368  0.041616955            7 
 1797000   0.53284608   -4.0779368    917.72736  0.042558308  0.041592059            9 
 1798000   0.53082417   -4.0918967    916.41425  0.042473779  0.041567032            8 
 1799000   0.52695002    -4.084094    917.72426  0.042510851  0.041542045           19 
 1800000   0.54299897   -4.1003792    917.45513  0.042474775  0.041517022           16 
 1801000   0.52446169   -4.0805825    917.29836  0.042443937  0.041491951            7 
 1802000   0.52838095   -4.0973213    916.92401  0.042403071  0.041466914           17 
 1803000   0.53921428   -4.0983648    918.86426   0.04246923  0.041441855            7 
 1804000   0.54363031   -4.1050964    917.65549  0.042389851   0.04141684            9 
 1805000   0.52378557   -4.0844217    916.58243  0.042316825  0.041391856           15 
 1806000     0.530695   -4.0842523    917.54081  0.042337616  0.041366977            9 
 1807000   0.51414756   -4.1148995    916.53921  0.042267995  0.041342058            5 
 1808000   0.53055699   -4.1159484    917.91683  0.042308114  0.041317073            9 
 1809000   0.52962567   -4.1124075     915.5747  0.042176834   0.04129204            8 
 1810000    0.5424048   -4.1063677    917.61934  0.042247668  0.041266988           10 
 1811000   0.53463661   -4.1279087    915.20534  0.042113259  0.041241817           16 
 1812000   0.53810249   -4.0901223    915.23684  0.042091466  0.041216753           15 
 1813000   0.52681314   -4.1081436    916.44124  0.042123609  0.041191765           34 
 1814000   0.54052892   -4.1126694     915.3981  0.042052467  0.041166709           13 
 1815000   0.52046666   -4.1059176    914.44183  0.041985392  0.041141648           10 
 1816000   0.53373692    -4.096783    919.13908  0.042177821  0.041116756           10 
 1817000   0.53880275   -4.0920816    915.05499  0.041967299  0.041091834           16 
 1818000   0.52358897    -4.110105    916.77086  0.042022867  0.041066939           11 
 1819000   0.52378074   -4.1096007    917.63126  0.042039182  0.041042009            8 
 1820000   0.53057432   -4.0903092    917.89891  0.042028338  0.041017121            9 
 1821000   0.53311711   -4.1192539    915.74492  0.041906687  0.040992263           10 
 1822000   0.54291026   -4.1124413    915.40807   0.04186828  0.040967257           13 
 1823000   0.54995199    -4.131166    916.28182  0.041885254  0.040942367           12 
 1824000   0.52013117   -4.1165858    916.40414  0.041867879  0.040917528            8 
 1825000   0.52896831   -4.1110307    916.24286  0.041837573   0.04089258            6 
 1826000   0.52663807   -4.1085064    918.54882  0.041919899  0.040867746           11 
 1827000   0.53821858   -4.1352041     918.1385  0.041878239  0.040842895           16 
 1828000   0.53068752   -4.1291708    917.12744  0.041809238  0.040818066           11 
 1829000   0.53199896   -4.1121261    915.35022  0.041705404  0.040793219           26 
 1830000   0.52084969   -4.1303277    915.26311  0.041678648    0.0407684           24 
 1831000   0.52907867   -4.1160048     918.3167  0.041794862  0.040743547            8 
 1832000   0.52833069   -4.1103185    916.88219  0.041706795  0.040718793           17 
 1833000    0.5202924   -4.1165812    916.88157  0.041684014  0.040694055            9 
 1834000   0.51333739   -4.1410836    917.00912  0.041667081  0.040669198           21 
 1835000   0.51974858   -4.1074734    913.09894    0.0414668  0.040644336           17 
 1836000   0.51560604   -4.1255435    916.51306  0.041599177  0.040619593           31 
 1837000    0.5176072   -4.1260163    919.55173  0.041714377  0.040594913           14 
 1838000   0.52005944   -4.1195998     916.4166  0.041549538  0.040570215           14 
 1839000   0.52166998   -4.1376684    916.70319  0.041539931  0.040545476           18 
 1840000    0.5268713   -4.1045459    918.21928  0.041586018  0.040520857            8 
 1841000    0.5228003   -4.1171806    914.53975  0.041396874  0.040496168            9 
 1842000   0.51514487   -4.1309989    916.16746  0.041448039  0.040471407           29 
 1843000   0.52070163   -4.1325672    916.69198  0.041449266  0.040446722           32 
 1844000   0.51637091     -4.14015    917.33314  0.041455764  0.040422065           35 
 1845000   0.51986931   -4.1286223     917.2854  0.041431138  0.040397447            5 
 1846000   0.51894936   -4.1304169     914.5668   0.04128597  0.040372786            8 
 1847000   0.52225237   -4.1391532    915.54365   0.04130769  0.040348065           16 
 1848000   0.52712591   -4.1250811    915.28584  0.041273712  0.040323512           18 
 1849000    0.5130014   -4.1353565    915.43489  0.041258107  0.040298987           29 
 1850000   0.51900596   -4.1332508    916.70697  0.041293107  0.040274337           12 
 1851000   0.51459585   -4.1282531    918.95792  0.041372137  0.040249764           11 
 1852000   0.51812943   -4.1522029     914.3554  0.041142702  0.040225155           13 
 1853000   0.51933269   -4.1378442    919.24836  0.041340545  0.040200586           26 
 1854000     0.520058   -4.1283018    917.67115  0.041247355  0.040176038           11 
 1855000   0.51434812   -4.1447268     916.5319   0.04117394  0.040151442           12 
 1856000   0.51459642   -4.1197929     916.8908   0.04116787  0.040126837           18 
 1857000   0.51557949   -4.1378836    916.85759  0.041144211  0.040102176           23 
 1858000   0.50962735   -4.1346453    916.19268  0.041092244  0.040077464            7 
 1859000    0.5192593   -4.1372752    916.13793  0.041067685  0.040052818           20 
 1860000   0.51572088   -4.1536242    916.90992  0.041080194  0.040028186           43 
 1861000   0.50544176   -4.1592931    916.53596  0.041041374   0.04000353           11 
 1862000    0.5192846   -4.1323984    916.51008  0.041018174  0.039979008            9 
 1863000   0.49887038   -4.1361152     916.8548  0.041011576  0.039954569           12 
 1864000   0.49942057   -4.1338383    916.07935  0.040954906  0.039930134           13 
 1865000   0.49785034   -4.1552836    913.83864  0.040832826  0.039905665           21 
 1866000   0.50583906   -4.1429174    917.62943  0.040980235  0.039881247           24 
 1867000   0.50943849   -4.1390144    918.99585  0.041019276  0.039856825           12 
 1868000   0.51328407    -4.158165     918.4655  0.040973657  0.039832508           21 
 1869000   0.50452785    -4.131969    917.03607     0.040888  0.039808248           18 
 1870000   0.49425253   -4.1396879    916.28651  0.040832732  0.039783885           14 
 1871000   0.51890895   -4.1514032    919.41208  0.040950119  0.039759574           13 
 1872000   0.50468323   -4.1505438    915.15482   0.04073873   0.03973513           33 
 1873000   0.50394023   -4.1676275    917.75499  0.040832666  0.039710706           40 
 1874000   0.50934228   -4.1637227    915.64824  0.040717193  0.039686202           51 
 1875000   0.50082634   -4.1488805     917.0041  0.040755738  0.039661785           25 
 1876000   0.50535723   -4.1563653    916.68666  0.040719912  0.039637366           24 
 1877000   0.50698411    -4.141364    916.51736  0.040690701  0.039612924           24 
 1878000   0.50606324   -4.1475398    915.64294  0.040630233  0.039588596           14 
 1879000   0.50345012   -4.1397288    916.53058  0.040647977  0.039564228           10 
 1880000   0.50933656   -4.1490264    918.05146   0.04069377  0.039539957            9 
 1881000   0.50652716   -4.1668417    915.99591   0.04058107  0.039515697           17 
 1882000   0.49926545   -4.1525202    916.56078  0.040584519  0.039491391           13 
 1883000   0.49996404   -4.1642429    915.50897  0.040516418  0.039467093           20 
 1884000   0.49912162   -4.1532614    918.27204  0.040617128    0.0394429           13 
 1885000   0.49416592   -4.1821466    918.32733  0.040598025  0.039418694           25 
 1886000   0.48435925   -4.1588802     918.1448  0.040568434  0.039394484           24 
 1887000    0.5001754   -4.1666338    917.04638  0.040498427  0.039370377            8 
 1888000   0.50341525   -4.1480744    917.71411  0.040506449  0.039346336           14 
 1889000   0.49976511   -4.1720176    919.09199  0.040545791  0.039322405           22 
 1890000   0.50910542   -4.1546871    919.64144  0.040548564  0.039298497           23 
 1891000   0.51049184   -4.1452056     920.2517  0.040554015  0.039274576           15 
 1892000   0.48882989   -4.1776691    920.28248  0.040533936  0.039250689           13 
 1893000   0.49225993    -4.174437    921.23049  0.040554257  0.039226697           12 
 1894000   0.49584996   -4.1826912    920.07194   0.04048187  0.039202665           15 
 1895000   0.50041373   -4.1643673    916.96224  0.040323757  0.039178735           10 
 1896000   0.50783823   -4.1600451    919.14032  0.040398221  0.039154851           11 
 1897000   0.49369665   -4.1553761    921.66813  0.040487969  0.039131011           18 
 1898000   0.49517761   -4.1703486    919.53216  0.040372856  0.039107213           16 
 1899000   0.50119545   -4.1519642    917.73717  0.040272826  0.039083301           12 
 1900000   0.48771104   -4.1655983    918.55816  0.040287639  0.039059428           22 
 1901000   0.49780863   -4.1680688    918.03842  0.040243662  0.039035496           27 
 1902000   0.48946115    -4.192384    920.84898  0.040345644  0.039011602           13 
 1903000   0.50162404    -4.169823    919.07786  0.040246885  0.038987662           22 
 1904000   0.49859319   -4.1689703    920.28979   0.04027879   0.03896374            9 
 1905000   0.49189432   -4.1777953    918.91017  0.040197295  0.038939836           28 
 1906000   0.49613738   -4.1939831    916.99677  0.040092548  0.038915887           16 
 1907000   0.49942981   -4.1773235    918.96258  0.040157428  0.038891884           25 
 1908000   0.48585315   -4.1860677    918.43375  0.040113284  0.038867946           34 
 1909000   0.49324789    -4.179087    917.64981   0.04005805  0.038844101           31 
 1910000   0.49295336   -4.1711767    919.33853  0.040110756  0.038820283           14 
 1911000   0.49138811   -4.1811192     915.0075  0.039900903   0.03879637           15 
 1912000   0.47489473   -4.1687868    918.00454  0.040010658  0.038772521           74 
 1913000   0.49104698   -4.1811055    916.35037  0.039917685  0.038748658           30 
 1914000   0.48680339   -4.1657119    918.66983  0.039997816  0.038724805           29 
 1915000     0.493006   -4.1857223    916.32553  0.039874914  0.038700919           48 
 1916000   0.49265103   -4.1740341    916.28375  0.039852286  0.038676919           21 
 1917000   0.49392032   -4.1921215    914.81654  0.039767716  0.038652927           30 
 1918000   0.48439299   -4.1961531    916.64815  0.039826562  0.038628986           29 
 1919000   0.49112544   -4.1867289    914.90845  0.039730261  0.038604994           38 
 1920000   0.47903169   -4.1904512    916.21104  0.039766104  0.038581043           30 
 1921000   0.46901031   -4.1949593    917.36039  0.039795262   0.03855707           29 
 1922000   0.49636789    -4.183818    915.97324  0.039714414  0.038533114           40 
 1923000   0.48361334   -4.1829669     915.7322  0.039683316  0.038509195           14 
 1924000   0.48662011   -4.1834377    916.91339  0.039713851  0.038485252           11 
 1925000   0.48540766   -4.1796429    918.25378  0.039751246  0.038461399           20 
 1926000   0.48226751   -4.1803113    917.07945  0.039679796  0.038437496           11 
 1927000   0.47772559   -4.1940221    915.13286  0.039575024  0.038413594           23 
 1928000   0.49301952   -4.1863288    914.94477  0.039546368  0.038389618           34 
 1929000   0.49058526   -4.1895179    915.18656  0.039536312  0.038365714           16 
 1930000   0.48194909   -4.2054954     916.8004  0.039585509   0.03834177           12 
 1931000   0.47559795   -4.1971969    914.81567  0.039479357   0.03831782           57 
 1932000   0.48508079   -4.1972775    915.40167  0.039484199  0.038293945           19 
 1933000   0.47863033   -4.1893609    913.65255  0.039388367  0.038270095           11 
 1934000   0.48829396   -4.1836235    917.00121  0.039512289  0.038246253           27 
 1935000   0.47454366   -4.1932474    917.43459  0.039510534  0.038222331           40 
 1936000   0.47120504   -4.2080934    916.47184  0.039448685   0.03819845           15 
 1937000   0.48034563   -4.2139994    916.60381  0.039433996  0.038174596           22 
 1938000   0.48353611   -4.2210727    915.94246  0.039385211  0.038150763           14 
 1939000   0.46250526    -4.190582    914.21823  0.039290796  0.038126939           19 
 1940000   0.47988202   -4.1881361     916.2444  0.039357577   0.03810303           28 
 1941000   0.47935632   -4.2142218    917.31325  0.039383189  0.038079177           34 
 1942000   0.48015503   -4.2112192    914.55913  0.039244728  0.038055357           16 
 1943000   0.46659172   -4.2078116    915.48168  0.039264097  0.038031483           25 
 1944000   0.48509424   -4.2150773    915.64436  0.039250873  0.038007639           16 
 1945000   0.47818502   -4.2137766    914.21102  0.039169281   0.03798377           42 
 1946000   0.46974021   -4.2076934    916.37914  0.039241998  0.037959978           13 
 1947000   0.47520276    -4.227456    914.63796  0.039147319  0.037936264           15 
 1948000   0.46868463   -4.2020575    916.40097  0.039202642  0.037912527           27 
 1949000   0.46471195   -4.1971465    918.46166  0.039270637  0.037888888           18 
 1950000   0.47194554   -4.2062918    916.48238  0.039165914  0.037865234           26 
 1951000   0.47402668   -4.2179107    915.12177  0.039087723  0.037841658           21 
 1952000   0.47503689   -4.2127786    914.87994  0.039057374  0.037817963           36 
 1953000   0.47719271   -4.2233442    916.72816  0.039116238  0.037794356           52 
 1954000   0.48367296   -4.2318318    915.49716  0.039043721  0.037770628           36 
 1955000   0.47858652   -4.2321512    915.47352  0.039022742  0.037746915           33 
 1956000   0.48320807   -4.2051617     915.7476  0.039014468  0.037723288           46 
 1957000   0.47058718   -4.2287282    916.04415   0.03900716  0.037699644           26 
 1958000    0.4813836   -4.2146378    913.49087  0.038878569   0.03767604           27 
 1959000   0.47449475   -4.2341613     912.4719  0.038815378  0.037652422           21 
 1960000   0.46802476   -4.2132414    915.47205  0.038923131  0.037628797           16 
 1961000   0.46360912   -4.2136651    916.72446  0.038956504  0.037605228           24 
 1962000   0.47671446      -4.2281    917.27548  0.038960053  0.037581722           28 
 1963000   0.46201987   -4.2236169    915.07274  0.038846695  0.037558208           24 
 1964000   0.47331008    -4.234489    913.90959  0.038777563  0.037534612           28 
 1965000   0.45984335   -4.2323742    913.80937  0.038753578   0.03751107           18 
 1966000   0.47359539    -4.209222    912.36991  0.038672851  0.037487476           10 
 1967000    0.4659796   -4.2365473    915.47828  0.038784879  0.037463973           15 
 1968000   0.47489754    -4.212404     915.7494  0.038776651  0.037440477           16 
 1969000   0.47132009   -4.2364188    913.95537   0.03868103  0.037416955           22 
 1970000   0.47834368   -4.2380571    916.44502   0.03876671  0.037393429           13 
 1971000   0.47139953    -4.253471    916.22319  0.038737662  0.037369908           21 
 1972000   0.46261179   -4.2329985    914.60273  0.038649541  0.037346383           20 
 1973000   0.46624054    -4.214853    914.84076  0.038640005  0.037322953           15 
 1974000   0.46295612   -4.2299415    915.83084  0.038662227  0.037299574           13 
 1975000   0.46222844   -4.2342601    915.79936  0.038641323  0.037276189           13 
 1976000   0.46575082   -4.2222175    916.72919  0.038660981   0.03725288           12 
 1977000   0.46788237    -4.230809    915.61607  0.038594506  0.037229487           30 
 1978000   0.45890047   -4.2364801    912.78426   0.03845569  0.037206102           22 
 1979000   0.45242299   -4.2227079    916.63285  0.038598318  0.037182773           20 
 1980000   0.46836222   -4.2319073     914.9589  0.038508371  0.037159455           21 
 1981000   0.46244407   -4.2435329    914.76892  0.038480941  0.037136175           17 
 1982000   0.45378219   -4.2260869    920.47196   0.03870131  0.037113026           11 
 1983000    0.4643316   -4.2254013    916.32378  0.038507471  0.037089844           21 
 1984000   0.45840855   -4.2304476    917.63189  0.038543006  0.037066692           18 
 1985000    0.4481588   -4.2302883     914.9854  0.038412485  0.037043445           26 
 1986000   0.46315541   -4.2462688    916.65925  0.038463379  0.037020228           43 
 1987000     0.452779    -4.224974    916.45566  0.038435483  0.036997097           27 
 1988000   0.46599618   -4.2266082     917.0321  0.038440313  0.036973947           29 
 1989000   0.45620944   -4.2120918    914.82073  0.038328336  0.036950797           18 
 1990000   0.45504084   -4.2408348    915.80516    0.0383503  0.036927653           26 
 1991000   0.44964577    -4.246427    917.28475  0.038392966  0.036904473           17 
 1992000   0.45148464   -4.2309832    916.30454  0.038332686  0.036881271           18 
 1993000   0.46182746      -4.2279     916.8729  0.038337218    0.0368581           88 
 1994000   0.45918468   -4.2472085    915.31768  0.038252996  0.036834891           37 
 1995000   0.45885005   -4.2419307    916.75963  0.038294053  0.036811711           36 
 1996000   0.45540326   -4.2558874    914.89854  0.038197167    0.0367885           63 
 1997000   0.45099024     -4.24417    915.41819  0.038199724  0.036765318           25 
 1998000   0.44981894   -4.2616179    913.12929  0.038085139  0.036742112           31 
 1999000   0.45452443   -4.2544002    912.96729  0.038059333  0.036718931           42 
 2000000   0.46188357   -4.2608848    915.67786  0.038153244   0.03669574           25 
 2001000   0.45452368   -4.2672537    912.80641  0.038014593  0.036672578           30 
 2002000   0.46321974    -4.250375    914.68801  0.038073927  0.036649453           25 
 2003000   0.45785524   -4.2511887    915.11621  0.038072733  0.036626391           58 
 2004000   0.45174586    -4.265681    913.41714  0.037983081  0.036603316           33 
 2005000   0.45249396    -4.252959    915.50517  0.038050921  0.036580297          109 
 2006000   0.45330421   -4.2712756    916.08282   0.03805595  0.036557243           21 
 2007000   0.44952863   -4.2510293    915.43924  0.038010266  0.036534185           44 
 2008000   0.45803035   -4.2564998    914.06658   0.03793437  0.036511097           23 
 2009000   0.44808559   -4.2698526    913.77349   0.03790333   0.03648797           85 
 2010000   0.45442933   -4.2707629    913.26459  0.037863375  0.036464802           97 
 2011000   0.45184889   -4.2583399    914.19303  0.037883019  0.036441695           83 
 2012000   0.44994999   -4.2746867    911.60398  0.037756958  0.036418504           38 
Loop time of 4882.45 on 48 procs for 2000000 steps with 4000 atoms

Performance: 70784.167 tau/day, 409.631 timesteps/s
99.4% CPU use with 48 MPI tasks x no OpenMP threads

MPI task timing breakdown:
Section |  min time  |  avg time  |  max time  |%varavg| %total
---------------------------------------------------------------
Pair    | 320.74     | 340.91     | 361.92     |  58.6 |  6.98
Neigh   | 32.983     | 34.391     | 35.702     |  12.9 |  0.70
Comm    | 313.66     | 338.2      | 358.83     |  67.0 |  6.93
Output  | 4.906      | 4.9079     | 4.9535     |   0.3 |  0.10
Modify  | 4110.1     | 4119.2     | 4128.3     |   6.2 | 84.37
Other   |            | 44.88      |            |       |  0.92

Nlocal:        83.3333 ave          90 max          78 min
Histogram: 5 3 7 3 5 15 5 1 2 2
Nghost:        2238.12 ave        2264 max        2218 min
Histogram: 2 7 5 8 8 7 5 1 2 3
Neighs:        14971.2 ave       16370 max       13038 min
Histogram: 1 0 5 4 4 12 7 5 7 3
FullNghs:      29942.0 ave       32730 max       27784 min
Histogram: 3 4 7 4 11 8 6 2 2 1

Total # of neighbors = 1437216
Ave neighs/atom = 359.30400
Neighbor list builds = 108307
Dangerous builds = 0

#clear
#
#next RN
#
#jump SELF
Total wall time: 1:21:25
