
units lj                  # Use reduced LJ style units
atom_style atomic         # Uncharged point particles
atom_modify map hash      # Needed for indexing of clusters etc
                          # Used to be able to find where atoms are in relation to each other.

lattice fcc 1.0 spacing 1 1 1
Lattice spacing in x,y,z = 1.5874011 1.5874011 1.5874011
region box block 0 10 0 10 0 10 units lattice
create_box 2 box
Created orthogonal box = (0.0000000 0.0000000 0.0000000) to (15.874011 15.874011 15.874011)
  3 by 4 by 4 MPI processor grid
create_atoms 1 box
Created 4000 atoms
  using lattice units in orthogonal box = (0.0000000 0.0000000 0.0000000) to (15.874011 15.874011 15.874011)
  create_atoms CPU = 0.002 seconds
set type 1 type/fraction 2 0.88 78393
Setting atom values ...
  3511 settings made for type/fraction
mass 1 1.0
mass 2 1.0
pair_style lj/cut  3.5
pair_modify tail  yes
pair_coeff 1  1  1.0  1.0   # Intearaction between 1 and 1 set with epsilon = 1 and sigma = 1
pair_coeff 1  2  1.5  0.8
pair_coeff 2  2  0.5  0.88

write_data data.0
System init for write_data ...
Neighbor list info ...
  update every 1 steps, delay 10 steps, check yes
  max neighbors/atom: 2000, page size: 100000
  master list distance cutoff = 3.8
  ghost atom cutoff = 3.8
  binsize = 1.9, bins = 9 9 9
  1 neighbor lists, perpetual/occasional/extra = 1 0 0
  (1) pair lj/cut, perpetual
      attributes: half, newton on
      pair build: half/bin/atomonly/newton
      stencil: half/bin/3d
      bin: standard
WARNING: Not all mixed pair coeffs generated from mixing. Use write_data with 'pair ij' option to store all pair coeffs. (../write_data.cpp:312)


#############################
#   M E L T   S Y S T E M   #
#############################

velocity all create 2.4 3143649 mom yes dist gaussian # Assign velocities
                                                    # Temperature 2.4, random number seed, zero linear momentum
                                                                                # Gaussian distribution

timestep 0.002   # simulation timestep
thermo 1000       # output thermodynamic data every 1000 steps bf 100

# Define a fix  in this case with index 1 applied to all
# particles in the simulation. This fix is for simulations
# in the anisotropic NPT ensemble. Note that we use the MTK
# correction.
fix 1 all npt temp 2.4 2.4 0.1 iso 5.68 5.68 0.5 mtk yes tchain 5 pchain 5 # Use NPT ensemble
                                                                         # Set temperature and pressure and damping
                                                                         # Numbers of thermostats in chain and in barostat
run 10000          # run for 10000 steps
Per MPI rank memory allocation (min/avg/max) = 3.642 | 3.644 | 3.648 Mbytes
Step Temp E_pair E_mol TotEng Press Volume 
       0          2.4   -3.2921436            0   0.30695645   -2.7369977         4000 
    1000    2.3703913   -2.4010299            0    1.1536682     5.424496     3991.229 
    2000    2.3525949   -2.4203634            0    1.1076467    5.6576686    3942.4936 
    3000     2.429531   -2.4169276            0    1.2264578    5.8240275     3938.557 
    4000    2.4674845    -2.352739            0    1.3475624    5.9355941    3963.3419 
    5000    2.3895004   -2.4188914            0    1.1644631    5.4668514    3975.9994 
    6000    2.3876071   -2.4073053            0    1.1732099    5.5498414    3959.7237 
    7000     2.428391   -2.4052225            0    1.2364534    5.7668972    3952.6942 
    8000    2.3557209   -2.4146062            0    1.1180917     5.550195    3958.8585 
    9000    2.3261916    -2.391358            0    1.0970571    5.6203755    3966.3837 
   10000    2.4315262   -2.3608858            0    1.2854917    5.9109574    3963.4165 
Loop time of 2.52868 on 48 procs for 10000 steps with 4000 atoms

Performance: 683361.452 tau/day, 3954.638 timesteps/s
99.6% CPU use with 48 MPI tasks x no OpenMP threads

MPI task timing breakdown:
Section |  min time  |  avg time  |  max time  |%varavg| %total
---------------------------------------------------------------
Pair    | 1.0957     | 1.1634     | 1.2679     |   3.2 | 46.01
Neigh   | 0.20453    | 0.21491    | 0.2336     |   1.2 |  8.50
Comm    | 0.78827    | 0.86779    | 0.96033    |   4.6 | 34.32
Output  | 0.00024281 | 0.00024875 | 0.00030565 |   0.0 |  0.01
Modify  | 0.20621    | 0.26683    | 0.31795    |   5.7 | 10.55
Other   |            | 0.01545    |            |       |  0.61

Nlocal:        83.3333 ave          94 max          76 min
Histogram: 5 4 6 13 3 6 5 3 2 1
Nghost:        1652.17 ave        1682 max        1616 min
Histogram: 2 2 3 4 8 9 8 5 5 2
Neighs:        9620.58 ave       11307 max        8495 min
Histogram: 4 3 10 6 11 7 3 3 0 1

Total # of neighbors = 461788
Ave neighs/atom = 115.44700
Neighbor list builds = 904
Dangerous builds = 207

# Equilibrate just above the melting temperature to avoid step fn in T

fix 1 all npt temp 1.25 1.25 0.1 iso 5.68 5.68 0.5 mtk yes tchain 5 pchain 5
run 2000
Per MPI rank memory allocation (min/avg/max) = 3.643 | 3.645 | 3.649 Mbytes
Step Temp E_pair E_mol TotEng Press Volume 
   10000    2.4315262   -2.3608858            0    1.2854917    5.9109574    3963.4165 
   11000    1.2497273   -3.5607566            0   -1.6866344    5.5697652    3073.5442 
   12000    1.2374386   -3.5979096            0   -1.7422158    5.6404842    3058.0654 
Loop time of 0.609752 on 48 procs for 2000 steps with 4000 atoms

Performance: 566788.008 tau/day, 3280.023 timesteps/s
99.7% CPU use with 48 MPI tasks x no OpenMP threads

MPI task timing breakdown:
Section |  min time  |  avg time  |  max time  |%varavg| %total
---------------------------------------------------------------
Pair    | 0.26071    | 0.29383    | 0.32773    |   2.3 | 48.19
Neigh   | 0.038244   | 0.04149    | 0.045504   |   0.6 |  6.80
Comm    | 0.18905    | 0.22525    | 0.265      |   2.9 | 36.94
Output  | 5.1337e-05 | 5.3138e-05 | 6.8572e-05 |   0.0 |  0.01
Modify  | 0.039798   | 0.044279   | 0.048509   |   1.1 |  7.26
Other   |            | 0.004852   |            |       |  0.80

Nlocal:        83.3333 ave          92 max          74 min
Histogram: 1 0 3 15 3 6 11 5 2 2
Nghost:        1973.65 ave        2007 max        1945 min
Histogram: 4 1 4 6 16 4 7 3 1 2
Neighs:        12484.8 ave       14438 max       10472 min
Histogram: 1 3 3 5 8 12 12 0 2 2

Total # of neighbors = 599272
Ave neighs/atom = 149.81800
Neighbor list builds = 143
Dangerous builds = 16

#############################
# L I N E A R  Q U E N C H  #
#############################

# Define solid atoms. This closely follows ten Wolde  Ruiz-Montero and Frenkel  Faraday Discuss  1996  104  93-110
# Compute components of the per-atom q6 vector
compute q6 all orientorder/atom degrees 1 6 components 6 nnn NULL cutoff 1.3 # compute the Q6 parameter.
                                                                             # Use all neighbours within 1.3 unit cell.

# get number of connections
compute coord_number all coord/atom orientorder q6 0.5

# An atom is solid if it has 8 or more connections (of a possible 14)
variable is_solid atom c_coord_number>=8
group solid dynamic all var is_solid    # Must be dynamic to update
dynamic group solid defined

# do clustering
compute cluster solid cluster/atom 1.3 # Create a cluster where all atoms within are solid and max 1.3 units from another member

# define chunks one chunk per cluster
compute clus_chunks solid chunk/atom c_cluster nchunk every compress yes  # Says which atoms are in which chunk

# count the size of each chunk
compute size_chunks solid property/chunk clus_chunks count


# Find the maximum entry in the vector of chunk sizes
variable max_n equal max(c_size_chunks)


# Thermo style which includes this variable
# thermo_style custom step temp pe vol v_max_n

thermo ${N}  # Print the thermo information every 100 steps
thermo 1000  

# Reset the npt fix at a lower temperature (below freezing)
fix 1  all npt temp  ${temp} ${temp}  0.1  iso  5.68  5.68  0.5  mtk yes tchain  5  pchain  5
fix 1  all npt temp  0.45 ${temp}  0.1  iso  5.68  5.68  0.5  mtk yes tchain  5  pchain  5
fix 1  all npt temp  0.45 0.45  0.1  iso  5.68  5.68  0.5  mtk yes tchain  5  pchain  5

dump dmp2 all dcd ${N} traj.dcd
dump dmp2 all dcd 1000 traj.dcd


compute msd all msd com yes
variable twopoint equal c_msd[4]/6/(step*dt+1.0e-6)
fix 9 all vector 10 c_msd[4]
variable fit equal slope(f_9)/6/(10*dt)
thermo_style custom step temp pe c_msd[4] v_twopoint v_fit v_max_n

fix 1 all npt temp 1.25 ${temp} 0.1 iso 5.68 5.68 0.5 mtk yes tchain 5 pchain 5
fix 1 all npt temp 1.25 0.45 0.1 iso 5.68 5.68 0.5 mtk yes tchain 5 pchain 5
run 500000 # 5000000  # Run for this many steps
Neighbor list info ...
  update every 1 steps, delay 10 steps, check yes
  max neighbors/atom: 2000, page size: 100000
  master list distance cutoff = 3.8
  ghost atom cutoff = 3.8
  binsize = 1.9, bins = 8 8 8
  4 neighbor lists, perpetual/occasional/extra = 1 3 0
  (1) pair lj/cut, perpetual
      attributes: half, newton on
      pair build: half/bin/atomonly/newton
      stencil: half/bin/3d
      bin: standard
  (2) compute orientorder/atom, occasional
      attributes: full, newton on
      pair build: full/bin/atomonly
      stencil: full/bin/3d
      bin: standard
  (3) compute coord/atom, occasional
      attributes: full, newton on
      pair build: full/bin/atomonly
      stencil: full/bin/3d
      bin: standard
  (4) compute cluster/atom, occasional
      attributes: full, newton on
      pair build: full/bin/atomonly
      stencil: full/bin/3d
      bin: standard
Per MPI rank memory allocation (min/avg/max) = 9.825 | 9.833 | 9.840 Mbytes
Step Temp PotEng c_msd[4] v_twopoint v_fit v_max_n 
   12000    1.2374386   -3.5979096 2.9931355e-30 2.0785662e-32 8.3333333e+20            2 
   13000    1.2608316    -3.554141   0.95712563 0.0061354205  0.081655551            2 
   14000    1.2383109   -3.5684483     1.925316  0.011460214   0.08142057            1 
   15000    1.2277471   -3.5640634    3.0001761  0.016667645  0.082958601            2 
   16000    1.2584241   -3.5917223    4.0476385   0.02108145  0.085383468            1 
   17000     1.247497   -3.5997645    4.9800057  0.024411792  0.084920737            2 
   18000    1.2634364   -3.5547911    6.0493289  0.028006152  0.084825912            3 
   19000     1.227394   -3.5784848    7.0276927  0.030823213   0.08443921            3 
   20000    1.2272379   -3.5826378     8.104286  0.033767857    0.0844422            2 
   21000     1.216912   -3.6176411    9.0914262  0.036077087  0.084614246            5 
   22000    1.2602142   -3.5443447    10.116213  0.038318989  0.084613951            1 
   23000    1.2511712   -3.5680291    11.089484   0.04017929  0.084708656            2 
   24000    1.2271043   -3.5962436    12.132564  0.042126958  0.084755437            1 
   25000    1.2396843   -3.5744076    13.255778  0.044185927  0.084612396            2 
   26000    1.2398291   -3.6018293    14.130878  0.045291274  0.084558382            2 
   27000    1.2107717   -3.5840041    15.079581  0.046541915  0.084285991            3 
   28000    1.2572193   -3.6140233    15.930924  0.047413463  0.083960542            3 
   29000    1.2305784   -3.6116172    17.014249  0.048891521  0.083710335            1 
   30000    1.2795844   -3.5927378    17.922403  0.049784452  0.083571879            2 
   31000    1.2538879    -3.627422    18.944852  0.050927021  0.083407515            1 
   32000    1.2524632   -3.6002956    20.030159  0.052161873  0.083281925            4 
   33000    1.2190767   -3.5931491    21.127348  0.053351888  0.083270575            1 
   34000    1.2177038   -3.6114297     22.06086  0.054070734  0.083291893            2 
   35000    1.2271186   -3.6097288    23.046827  0.054873397  0.083262011            1 
   36000    1.2142595   -3.6073514    23.932266  0.055398763  0.083224098            5 
   37000    1.2149116   -3.6420436    24.854269  0.055978082  0.083153774            2 
   38000    1.2050152   -3.6245371    25.855234  0.056700074  0.083101242            3 
   39000    1.2004108   -3.6434532    26.777224  0.057216289   0.08302997            5 
   40000     1.202112   -3.6105143    27.773799   0.05786208  0.082941793            2 
   41000    1.2037367   -3.6517936    28.386414  0.057695963  0.082794643            3 
   42000    1.1932444   -3.6626479    29.425046  0.058383028  0.082553099            2 
   43000    1.1964512   -3.6180779    30.434342  0.058981283  0.082370338            1 
   44000    1.2047248   -3.6480006    31.604443  0.059856899  0.082227274            4 
   45000    1.2246129   -3.6602006    32.573915  0.060322063  0.082151599            3 
   46000    1.2208654     -3.63624    33.696063  0.061043592  0.082156484            3 
   47000    1.1929779   -3.6182241    34.538126  0.061237812  0.082128126            1 
   48000     1.179464   -3.6546865    35.588419  0.061785449  0.082066952            2 
   49000    1.2067033    -3.639382    36.371347  0.061856031  0.082011799            1 
   50000    1.1960689   -3.6250763    37.489342  0.062482235  0.081953983            2 
   51000    1.1745453   -3.6361653    38.520447  0.062941906  0.081896382            1 
   52000    1.1895103    -3.680448    39.154603   0.06274776  0.081833841            1 
   53000    1.1758596   -3.6898846    40.213356  0.063228547  0.081753025            2 
   54000    1.1755337   -3.6683115    41.138465  0.063485285  0.081661571            1 
   55000    1.1710914   -3.6534504    42.075991  0.063751501  0.081599972            3 
   56000     1.194683   -3.6665368    43.132557  0.064185351  0.081506054            2 
   57000     1.173717   -3.6559619    43.565233   0.06369186  0.081398588            1 
   58000    1.1823976     -3.64916    44.368034  0.063747175  0.081210624            1 
   59000    1.1811219   -3.6884246    44.850621  0.063348334   0.08096777            2 
   60000     1.178958   -3.6555825    46.101837  0.064030329  0.080756383            2 
   61000    1.1920596   -3.6815293    46.870984  0.064031399  0.080563845            3 
   62000    1.1741483    -3.689874     47.68297  0.064090013  0.080367623            4 
   63000    1.1859131   -3.6791709    48.442089  0.064076837   0.08014801            1 
   64000    1.1596852   -3.6729589    49.396481  0.064318334  0.079933788            1 
   65000    1.1633746   -3.7233833    50.542195  0.064797685  0.079752933            1 
   66000    1.1945496    -3.694389    51.491796  0.065014893  0.079609094            3 
   67000    1.1820296   -3.7272565    52.133577  0.064842757  0.079468725            3 
   68000    1.1709239   -3.7007244    53.217358   0.06521735  0.079317667            3 
   69000    1.1835175   -3.6513401    53.941034  0.065146176  0.079157149            2 
   70000    1.1830563   -3.7122677    54.922035  0.065383375  0.079001356            3 
   71000    1.1779316    -3.681158    55.482036   0.06511976  0.078871254            3 
   72000    1.1434487   -3.7040639    56.668053  0.065588024  0.078743316            3 
   73000    1.1269461   -3.7246293    57.335649  0.065451653  0.078596587            2 
   74000    1.1550862   -3.6889026    58.491034  0.065868281  0.078459845            3 
   75000    1.1456022    -3.742946    58.652844  0.065169826  0.078318047            2 
   76000    1.1472412   -3.6975299    59.830658  0.065603792  0.078153506            2 
   77000    1.1315952   -3.7116124    60.787074  0.065786876  0.078014476            3 
   78000    1.1260748   -3.7171921    61.564521  0.065774061  0.077895116            2 
   79000    1.1256759   -3.6936514    62.547628   0.06597851  0.077773143            2 
   80000    1.1403026   -3.7048707    63.700308  0.066354487  0.077668033            3 
   81000    1.1441194   -3.7435397    64.491618  0.066349401  0.077573979            2 
   82000    1.1496628   -3.7312578    65.141208  0.066200414   0.07744921            4 
   83000    1.1247358   -3.7540526    65.770061  0.066034197  0.077326013            2 
   84000    1.1590577   -3.7256976    66.424415  0.065897237  0.077184067            1 
   85000    1.1458529   -3.7240824    67.260515  0.065941681  0.077039641            5 
   86000    1.1445954   -3.7159936    68.008854  0.065900052  0.076891633            2 
   87000    1.1351285   -3.7722728    68.520628  0.065632785  0.076731484           11 
   88000    1.1254864    -3.759768    69.413846  0.065732809    0.0765757            3 
   89000    1.1119957   -3.7502117    70.164651  0.065697238  0.076420751            2 
   90000    1.1328253   -3.7203614    71.187147  0.065914025  0.076266012            1 
   91000    1.1135413   -3.7365226    71.726094  0.065683236  0.076111871            1 
   92000    1.1151347   -3.7820345    72.318937  0.065506283  0.075938579            4 
   93000    1.1264613   -3.7541507    73.065214  0.065470622  0.075768574            3 
   94000    1.1116993   -3.7679015    73.733277   0.06536638  0.075588192            4 
   95000    1.1412148   -3.7690532    74.234245  0.065117759  0.075401313            3 
   96000    1.1065337    -3.767096    75.121289  0.065209452  0.075214212            4 
   97000    1.1163526   -3.7414624    76.163635  0.065432676  0.075044093            2 
   98000    1.1043242   -3.7855229    76.778071  0.065287475  0.074882125            1 
   99000    1.1317921   -3.7714103    77.759209  0.065453879  0.074718552            3 
  100000    1.0815222   -3.7844836    78.420795  0.065350662  0.074558904            2 
  101000    1.0898001   -3.7748136    78.818045   0.06503139  0.074396036            2 
  102000    1.1096247   -3.7932951    79.798441  0.065194804  0.074245397            2 
  103000    1.1026099   -3.7968807    80.650648  0.065251333  0.074104779            2 
  104000    1.0795269   -3.7944315    81.944962  0.065661027  0.073973302            3 
  105000    1.0873058   -3.7936486    82.264144  0.065289003  0.073844378            3 
  106000    1.0847542   -3.7608675    82.943318   0.06520701  0.073710261            2 
  107000    1.1005281   -3.7775771    83.522452  0.065048639  0.073565442            2 
  108000    1.0990882   -3.7683129    84.406746  0.065128662  0.073418297            2 
  109000    1.1020942    -3.805155    85.127932  0.065082517  0.073272271            4 
  110000    1.1064022    -3.793625    85.614332  0.064859342  0.073124997            5 
  111000    1.0929999   -3.7887667    86.394439   0.06486069  0.072976088            3 
  112000    1.1134291   -3.7963538    87.007217  0.064737513  0.072824537            3 
  113000    1.1097871   -3.8106781    87.782347  0.064736244  0.072677437            3 
  114000    1.0730466   -3.7744827    88.514672  0.064703707  0.072527631            1 
  115000    1.0903391   -3.8136017    88.999005  0.064492032  0.072371022            2 
  116000    1.0762367   -3.7873031    89.984888  0.064644316  0.072221202            1 
  117000    1.0682872   -3.7816855    90.513564   0.06446835  0.072074167            3 
  118000    1.0498228   -3.8003076     91.08222  0.064323601  0.071920671            2 
  119000    1.0836907   -3.8150132    91.620357  0.064159914  0.071772626            3 
  120000    1.0743001   -3.8163925    92.762875  0.064418663   0.07162803            6 
  121000    1.0735465   -3.8276533    93.315796  0.064267077  0.071480324            2 
  122000    1.0884179   -3.7966791    94.425528  0.064498311  0.071343842            4 
  123000    1.1036473   -3.8216841    94.805252  0.064231201  0.071210454            2 
  124000    1.0756665   -3.8204053    95.779917  0.064368224  0.071087286            3 
  125000    1.0712674   -3.8293166     96.96848  0.064645653  0.070965181            3 
  126000     1.059841   -3.8261842    97.354982  0.064388216  0.070851113            3 
  127000     1.040278   -3.8250026    98.182203  0.064424017  0.070745851            3 
  128000    1.0539669    -3.829973    99.513514  0.064787444  0.070647361            4 
  129000    1.0423146   -3.8163481    99.810966  0.064477368  0.070546638            1 
  130000    1.0573758   -3.8486192    100.28509  0.064285315  0.070442163            5 
  131000    1.0370444   -3.8767208    101.30259  0.064441853  0.070339989            4 
  132000    1.0708308   -3.8423045    102.22954  0.064538849  0.070237359            3 
  133000    1.0698837    -3.838709    103.05714  0.064572145  0.070138987            3 
  134000    1.0587598   -3.8501501    103.58898  0.064421009   0.07004361            1 
  135000    1.0606874   -3.8277106    104.60213  0.064569219  0.069946748            4 
  136000    1.0485325   -3.8800146       105.27  0.064503677  0.069857221            6 
  137000    1.0586327   -3.9188628    105.61898  0.064245123  0.069766965            1 
  138000     1.051642   -3.8754489    106.16025  0.064106433  0.069671451            4 
  139000    1.0605674   -3.8921368     106.3919  0.063784114  0.069571878            1 
  140000    1.0721625   -3.8601841    107.23005  0.063827413  0.069466839            1 
  141000     1.047395   -3.8894987    108.06902  0.063870577  0.069360942            3 
  142000    1.0512714   -3.8596246     109.3104  0.064149293  0.069255891            5 
  143000    1.0523678   -3.8819313    109.23129  0.063654595  0.069152358            2 
  144000    1.0508101   -3.8479996    109.93568  0.063620187  0.069036266            5 
  145000    1.0282423   -3.9136082    110.29938  0.063390449  0.068920666            2 
  146000      1.06184   -3.9201616    110.94466   0.06332458  0.068809097            5 
  147000    1.0381263   -3.8854012    112.01799  0.063502262  0.068694679            1 
  148000    1.0402467    -3.887895    112.47733  0.063331828  0.068579919            3 
  149000    1.0318086    -3.892517    113.43035  0.063439794  0.068463508            2 
  150000     1.027518   -3.9033128    114.01191  0.063339948  0.068345945            2 
  151000    1.0313991   -3.8590067    114.65076  0.063273048  0.068234274            2 
  152000    1.0296072   -3.8972502    114.92544  0.063007368  0.068125362            4 
  153000    1.0637961   -3.9055162     115.4225  0.062866286  0.068010466            3 
  154000    1.0333982   -3.8800847     116.5566  0.063071753  0.067899199            3 
  155000    1.0083278   -3.8868888    116.56531  0.062669523  0.067781559            4 
  156000     1.031272   -3.9360452    116.62701  0.062300756  0.067657241            2 
  157000      1.00843   -3.9321725    117.44702   0.06233918  0.067529434            2 
  158000    1.0031822   -3.8890159    117.63001  0.062041145  0.067392825            2 
  159000    1.0233869   -3.9317416    118.22468  0.061962619  0.067253603            3 
  160000    1.0042613   -3.9166828    118.66241  0.061803341  0.067115479            3 
  161000    1.0151815   -3.9139529    119.17159  0.061683015  0.066979075            2 
  162000    1.0169494   -3.9257408    120.04012  0.061749034  0.066849469           11 
  163000    0.9928292   -3.9458439     120.4621  0.061585942  0.066718026            2 
  164000    1.0165563   -3.9265407     121.1448  0.061557314  0.066579068            1 
  165000    1.0089688   -3.9723024    121.23593  0.061230266  0.066440752            5 
  166000   0.99494116   -3.9231942    121.79639  0.061142767  0.066301356            3 
  167000    1.0227479   -3.9162765    122.71825  0.061236653  0.066163091            5 
  168000    1.0240458   -3.9197699    123.19173  0.061107009  0.066024666            2 
  169000    1.0178502   -3.9448508    123.75646  0.061023897  0.065885999            3 
  170000   0.98908373   -3.9249477    124.50258  0.061030674  0.065753659            3 
  171000    1.0139245   -3.9269158    124.82907  0.060832882  0.065618184            3 
  172000   0.99129178   -3.9593563    125.10562  0.060613188  0.065478442            2 
  173000    1.0008952   -3.9306179    125.51547  0.060460244  0.065338217            2 
  174000   0.99501034   -3.9486987    126.52524  0.060596377  0.065198795            5 
  175000   0.98353786   -3.9805833    126.43298  0.060206181  0.065060744            2 
  176000   0.99185574   -3.9839504    127.17859  0.060217136   0.06492297            4 
  177000   0.98584175   -3.9448656    128.03923  0.060282125   0.06478433            3 
  178000   0.98352782   -3.9560592    128.31358  0.060071902  0.064649081            7 
  179000   0.99866025   -3.9493007    129.50214  0.060289637   0.06451753            1 
  180000   0.97390456   -3.9660084    129.65457  0.060025265  0.064387236            3 
  181000   0.97997019   -3.9992087    129.76547  0.059744692  0.064252848            1 
  182000   0.97755182   -3.9832714    130.51754   0.05976078  0.064114913            2 
  183000    0.9754594    -4.007205    131.31861  0.059799004  0.063981114            3 
  184000    1.0025691   -3.9718593    131.88997  0.059732776  0.063853821            2 
  185000   0.97557216   -3.9897516    132.29487  0.059592283  0.063727195            4 
  186000   0.96514019    -3.978107    132.56748  0.059394034  0.063597602            9 
  187000   0.98547026   -3.9822598    133.44793  0.059468774  0.063470617            4 
  188000   0.98047275   -4.0010836    134.15167  0.059464391   0.06334471            2 
  189000   0.94874308    -3.990179    134.18515  0.059164529  0.063218516            3 
  190000   0.95846108   -4.0061387    134.83738    0.0591392  0.063090502            3 
  191000   0.94042357   -3.9841997    134.97807  0.058890953  0.062962757            4 
  192000     0.982053   -4.0008077    135.93184  0.058998196  0.062837228            4 
  193000   0.95902819   -3.9981501    135.84033  0.058652992  0.062711143            2 
  194000   0.95616122   -3.9879738    136.87706  0.058795988   0.06258492            2 
  195000   0.96003799   -4.0085143     137.3688  0.058704614  0.062454012            4 
  196000   0.96215998   -3.9968407    138.15587   0.05873974  0.062322257            3 
  197000   0.96570125   -4.0343768     138.2352  0.058475126  0.062192084            5 
  198000   0.95778503   -3.9885028     138.8096  0.058421547  0.062060163            3 
  199000   0.94759112   -4.0108333    138.87938  0.058157195  0.061929444            2 
  200000   0.94583399   -4.0267524    139.48176    0.0581174  0.061799897           10 
  201000   0.96451407   -4.0411224    140.07944  0.058076053  0.061673293            5 
  202000   0.93754799   -4.0045007    140.23058    0.0578509  0.061547267            6 
  203000   0.95582178   -4.0419239    141.41547  0.058052327   0.06141865            3 
  204000   0.96460243   -4.0229099     141.3861  0.057755759  0.061292089            4 
  205000   0.95401304   -4.0394192    142.26113  0.057829727  0.061166401            2 
  206000   0.93181457   -4.0589421    142.20812  0.057527556  0.061040566            4 
  207000   0.96357998   -4.0207397    142.80216  0.057488794  0.060915939            4 
  208000   0.93580586   -4.0170237      143.631  0.057544469  0.060793728            3 
  209000   0.95694579   -4.0578115    143.75678  0.057319291  0.060670118            2 
  210000   0.92665358   -4.0334891     144.3183  0.057269165  0.060551102            1 
  211000   0.94470962   -4.0525894    144.53616   0.05708379  0.060427968            2 
  212000   0.93867964   -4.0200776    145.38029  0.057146339  0.060304587            4 
  213000   0.93844757   -4.0373164     145.9913  0.057117098  0.060179378            7 
  214000   0.90093493    -4.051071    146.16263  0.056916912  0.060056366            3 
  215000   0.91327235   -4.0490722    146.52283  0.056791795  0.059933237            2 
  216000   0.92650512   -4.0811389    146.69127  0.056593852  0.059811264            2 
  217000   0.93650956   -4.0474689    146.99925  0.056451326   0.05968865            7 
  218000   0.91981722   -4.0560398    147.50767  0.056386723  0.059564949            8 
  219000   0.93234671   -4.0684048    147.72953  0.056213672  0.059441064            5 
  220000    0.9259124   -4.0777486    148.91806  0.056408356  0.059319715            6 
  221000    0.9354622   -4.0677282    149.03544  0.056197375  0.059201616            3 
  222000   0.92638812   -4.0925655    149.24882  0.056024333  0.059080972            3 
  223000   0.89901991   -4.0596831    149.86102  0.056001876  0.058961507            3 
  224000   0.91964603   -4.0703823    150.19443  0.055875903  0.058841258            2 
  225000   0.89833674   -4.1146059    150.05477   0.05557584  0.058721387            3 
  226000     0.920243   -4.0780542    151.25468  0.055772373  0.058601238            5 
  227000   0.90319136   -4.0855259    151.96499   0.05578744  0.058483424            5 
  228000   0.88742207    -4.088856    152.53949  0.055752738  0.058369394            4 
  229000   0.91275182   -4.1194249    153.14179  0.055728454  0.058257073            3 
  230000    0.8998024   -4.1153752     153.3886  0.055575581  0.058145506            3 
  231000   0.91357705   -4.0804866    154.18797  0.055623364   0.05803504            4 
  232000   0.90236708   -4.1057235    154.60632   0.05553388  0.057926899            3 
  233000   0.90507225   -4.1281463    154.71377  0.055333965  0.057818895            3 
  234000   0.90916955   -4.1160144    156.16777  0.055615303  0.057714536            5 
  235000   0.90056183   -4.0924294    156.46717  0.055484813  0.057608827            5 
  236000   0.90260369   -4.1175415    155.96453  0.055072222  0.057502985            2 
  237000   0.89276457   -4.1182714    156.61229  0.055067611  0.057393662            3 
  238000   0.89711827   -4.1282177     157.1736  0.055032774  0.057283091            3 
  239000   0.89049726   -4.1053169    157.97615  0.055082338  0.057173182            3 
  240000   0.88456875   -4.1150666    157.84481  0.054807227  0.057067009            4 
  241000   0.89791966   -4.1411661    157.81806  0.054570561  0.056959855            3 
  242000   0.87428669   -4.1004394    158.54774  0.054596329  0.056847449            4 
  243000   0.88492909   -4.1136085    159.33545  0.054641788  0.056736512            5 
  244000   0.86244229   -4.1408907    158.62911  0.054176609  0.056626804            3 
  245000   0.87443308   -4.1537274    159.23857  0.054162778  0.056515123            5 
  246000   0.88172975   -4.1454994    159.97589  0.054192374  0.056405829            4 
  247000   0.86950192   -4.1421693    159.89343  0.053945151  0.056294517           10 
  248000   0.86988997   -4.1457954    161.03927  0.054112659  0.056185398            5 
  249000   0.86892011   -4.1433542    161.48548  0.054044673   0.05607675            4 
  250000   0.84678868   -4.1554944    161.73439  0.053911462  0.055965905            5 
  251000   0.85989827    -4.171516    161.95878  0.053771177  0.055855697            5 
  252000   0.86763379   -4.1693137    162.06064  0.053591482  0.055745998            3 
  253000   0.86064404   -4.1589053    162.40873  0.053494311  0.055635067            2 
  254000   0.86978606   -4.1762879    162.63428  0.053357703  0.055523105            4 
  255000   0.86564763   -4.1629368    163.00133  0.053268409  0.055411186            3 
  256000   0.87306001   -4.1764582    163.60484  0.053256785  0.055303819            6 
  257000   0.85759551   -4.1977491    164.00624  0.053179715  0.055196448            7 
  258000    0.8589402   -4.1955792    164.55094   0.05314953  0.055089491            3 
  259000   0.87652694   -4.1643063    164.51895  0.052934026  0.054982768            4 
  260000   0.84821087    -4.178563    165.36044   0.05300014  0.054874949            5 
  261000   0.86860368   -4.1916987    166.01402  0.053005753  0.054768657            6 
  262000   0.84154946   -4.1714198    166.41993  0.052932547  0.054665063            5 
  263000   0.85507396   -4.1751233    166.67062  0.052810717  0.054560786            3 
  264000   0.84981054   -4.2021513    166.87427   0.05267496  0.054454999            2 
  265000   0.83022778   -4.2149135    166.54408  0.052372351  0.054347044            7 
  266000   0.83428302   -4.1811648    167.26913  0.052402609  0.054240232            3 
  267000   0.82409204   -4.2071561    167.66704  0.052330538  0.054132243            8 
  268000   0.85484062   -4.2122595     167.6503  0.052130067  0.054025994            4 
  269000   0.85084184   -4.2175037    168.20374  0.052107726  0.053918069            5 
  270000   0.84053817   -4.2095867    168.28418  0.051939562  0.053809939            4 
  271000   0.84020014   -4.2013874    168.72328  0.051882928  0.053701227            7 
  272000   0.83789949   -4.2296394    168.93651   0.05175751  0.053590981            6 
  273000    0.8303665   -4.2177572    169.67218  0.051792486  0.053480758            3 
  274000   0.81206898   -4.2051544    169.99434  0.051701441  0.053373005            7 
  275000   0.82209729   -4.2446259    170.14846   0.05156014  0.053267923            3 
  276000   0.81586548   -4.2280767    170.76749  0.051560231  0.053162076            4 
  277000   0.83630592   -4.2705571    170.97834  0.051437527  0.053056797            4 
  278000   0.82310128   -4.2525339    170.64429  0.051152366  0.052949768            3 
  279000   0.81523998   -4.2445866    171.32986  0.051173794  0.052841124            9 
  280000   0.83651701   -4.2680148    171.06995  0.050913674  0.052733532            5 
  281000   0.79081536    -4.219417    171.71775    0.0509246  0.052624998            3 
  282000   0.81356787    -4.252952    172.40167  0.050946118  0.052517997            8 
  283000   0.81043521   -4.2297995    172.58834  0.050821067  0.052411307            3 
  284000   0.80236879   -4.2272843    173.76104  0.050986222  0.052307173            3 
  285000    0.8207707    -4.243877    173.29973  0.050672436  0.052204906            2 
  286000   0.81830776   -4.2683948    174.34693  0.050800388  0.052103191            5 
  287000   0.79266151    -4.250733    174.60754  0.050699053   0.05200056            3 
  288000   0.81150058   -4.2503252    174.36598   0.05045312  0.051897259            5 
  289000   0.81927294   -4.2635614    175.01966  0.050467031  0.051796734            3 
  290000   0.80677184   -4.2539011    176.30328  0.050661861  0.051697051            5 
  291000   0.81936067   -4.2502044     175.9379  0.050383132  0.051597996            5 
  292000   0.80690274   -4.2758204    175.69997  0.050142686  0.051498493            5 
  293000   0.80258224   -4.2685928    175.39403  0.049884537  0.051397494            7 
  294000    0.8070781   -4.2678116    176.02999  0.049895123  0.051295695            5 
  295000   0.78184002   -4.2713602    176.46262  0.049848196  0.051192012            8 
  296000   0.79052437   -4.2999952    176.49854  0.049689903  0.051088349            4 
  297000   0.79678588   -4.2750159    176.81614  0.049611711  0.050984386            6 
  298000   0.79287931    -4.284526     176.5561   0.04937251  0.050879608            3 
  299000    0.7886297   -4.3048618    177.03147  0.049339875  0.050774981            3 
  300000    0.7871791   -4.3153906    177.34718  0.049263105  0.050668712            9 
  301000   0.78870988   -4.2863692    177.47164  0.049133899  0.050564444            3 
  302000   0.79650964   -4.3287324    177.30006  0.048923856   0.05045704            5 
  303000   0.79542354   -4.3039666    178.00567  0.048956454  0.050350571            4 
  304000   0.79033325   -4.3070095    178.14837  0.048834531  0.050243688           10 
  305000   0.78162301   -4.3200476     178.3827  0.048738443  0.050137897            4 
  306000   0.77915829   -4.3191741    178.95012  0.048733692  0.050033561            5 
  307000   0.75948109   -4.3137593    178.37633    0.0484192  0.049927665            2 
  308000    0.7757795   -4.3305182    178.68516  0.048345553  0.049820145            6 
  309000   0.76682729   -4.3358215    178.99404  0.048272396  0.049713371            4 
  310000   0.76978799   -4.3077814    179.91903  0.048365331  0.049607445            7 
  311000   0.78469472   -4.3341407    180.02089  0.048237109  0.049502133            4 
  312000   0.77425011   -4.3250667    180.28917  0.048154158  0.049397305            4 
  313000   0.77474702   -4.3137362    180.56614  0.048074052  0.049292538            7 
  314000   0.77116981   -4.3512291    180.84213  0.047994196  0.049187973            6 
  315000   0.78144289   -4.3209226    181.33606  0.047972503  0.049084829            4 
  316000   0.76385485   -4.3536518     182.0474  0.048008281  0.048983566            5 
  317000    0.7558208   -4.3455607    182.44092  0.047960284  0.048883941            4 
  318000    0.7758687   -4.3611991    182.43044   0.04780672  0.048784788            4 
  319000   0.75237767   -4.3519585    182.65092  0.047714452  0.048685228            4 
  320000   0.75557735   -4.3779515    182.81641  0.047608441  0.048586962            5 
  321000   0.74984515   -4.3433765    183.41908  0.047616583  0.048487334            7 
  322000   0.75209405    -4.370986    182.78499  0.047304604  0.048387555            8 
  323000   0.74716973    -4.376501    183.17627  0.047259099  0.048287629            7 
  324000    0.7642924    -4.365637     183.9164    0.0473036  0.048188984            4 
  325000   0.74225468   -4.3775676    183.27494  0.046993574  0.048089393            3 
  326000   0.75607558    -4.383669    183.87258  0.047002194  0.047990408            4 
  327000   0.74515541   -4.3646252    184.54393  0.047029544  0.047892213            2 
  328000   0.76052639   -4.4039879    184.58222  0.046895888  0.047792915            6 
  329000   0.73716106   -4.3844698    184.79217  0.046806527  0.047695119            3 
  330000   0.72999645    -4.370687    185.08843  0.046739503  0.047596223           11 
  331000   0.76478239   -4.3917783    185.53016  0.046709506  0.047499018           10 
  332000     0.712471   -4.3915428     185.4525  0.046549322    0.0474004            5 
  333000     0.738753   -4.3699736    185.56808  0.046438459  0.047302452            4 
  334000   0.75560935   -4.3922154     186.2336   0.04646547  0.047203841            4 
  335000     0.731851   -4.3905674    185.90094  0.046244015   0.04710472            7 
  336000   0.73684211   -4.3709177    186.24789  0.046192433  0.047006537            4 
  337000   0.72511947    -4.422779    186.25595  0.046057357  0.046908085            6 
  338000    0.7351042   -4.4053727     186.9048  0.046081066  0.046810923            7 
  339000   0.74331654   -4.4034804    187.16199  0.046008354  0.046712458            7 
  340000   0.73741663    -4.420394    186.46147   0.04570134  0.046615439           17 
  341000   0.72590544   -4.4312648    186.89355  0.045672911   0.04651841            6 
  342000   0.73125123   -4.4167528    187.22849  0.045620977  0.046421113            6 
  343000   0.70947808   -4.4088581    187.83938  0.045636389  0.046323184            9 
  344000   0.71655559   -4.4251643    188.00613  0.045544122  0.046226444            9 
  345000   0.71130487   -4.4395744    187.63743  0.045323051   0.04612745            6 
  346000   0.72020816   -4.4466149    188.23114  0.045335052    0.0460301            7 
  347000   0.70181441   -4.4626239    188.25243  0.045209517  0.045931815            5 
  348000   0.71819755   -4.4475862    188.15997  0.045057463  0.045833795           11 
  349000   0.70315998    -4.460775    188.13555  0.044922528  0.045735378            6 
  350000   0.70047258   -4.4343111    188.59145  0.044902726  0.045636138            4 
  351000   0.70555845   -4.4724789    188.83879   0.04483352  0.045537957           12 
  352000   0.68669896   -4.4461612    189.08873  0.044765324  0.045439495            5 
  353000   0.70250008   -4.4680328    189.05302  0.044630081   0.04534223            8 
  354000   0.70445039   -4.4544461    189.20392   0.04453953  0.045244686            5 
  355000   0.70100959   -4.4347388    189.51761  0.044487701  0.045146779            3 
  356000   0.70196786    -4.499631    189.34489  0.044322305  0.045048862           12 
  357000   0.67658145   -4.4606162    189.46102  0.044225261  0.044952163           13 
  358000   0.69623481   -4.4630121    190.10804  0.044252337  0.044855306            8 
  359000    0.6996931     -4.49518    190.46596  0.044212153  0.044758672            4 
  360000   0.69763099   -4.4754111    190.41068  0.044076547  0.044662909            6 
  361000   0.69897789    -4.453939    190.57305  0.043991933  0.044567143            5 
  362000   0.69969124   -4.4909658    190.58469  0.043873087   0.04447208           11 
  363000   0.69836079   -4.4792517    191.74766  0.044019205   0.04437683            4 
  364000   0.69462619   -4.4832998      191.592  0.043862636  0.044281332            5 
  365000   0.68505837   -4.4796646    190.99188  0.043605451   0.04418544            8 
  366000   0.69397578   -4.4886615    191.29332  0.043554946  0.044088734            9 
  367000   0.68443196   -4.4853027    191.54008  0.043492298  0.043992983            5 
  368000    0.6801345   -4.5099535    191.73493  0.043418236    0.0438977            4 
  369000    0.6906075   -4.5186668    191.38891  0.043222428  0.043801554            8 
  370000    0.6821706   -4.5263018     190.8672  0.042988107  0.043704613            8 
  371000   0.67297907   -4.5208952    191.45079  0.043003323   0.04360827            9 
  372000   0.69230345   -4.5248208    192.44712  0.043110913  0.043511905            9 
  373000   0.66717057   -4.5297219    192.13611  0.042925851  0.043416027            4 
  374000   0.66174433   -4.5177707    192.46217  0.042883728  0.043320737           12 
  375000   0.69119839   -4.5144328    192.57406  0.042794236  0.043225611            5 
  376000   0.66847641    -4.526217    192.86145  0.042744117  0.043130494            7 
  377000   0.66585814   -4.5677831    192.57723  0.042567911   0.04303563           12 
  378000   0.67118564   -4.5277794    193.52602  0.042664467  0.042941488           17 
  379000   0.66270281   -4.5305253    193.38237  0.042520309  0.042847943            6 
  380000   0.65437733    -4.549392    193.12172  0.042351253  0.042754205            7 
  381000   0.66432938   -4.5453943    193.87102  0.042403984  0.042660198            9 
  382000   0.65926463   -4.5499997    192.98415  0.042099508  0.042566393           14 
  383000   0.66897209   -4.5329038    193.74909  0.042156024  0.042472949            6 
  384000   0.66328688   -4.5541545    193.91011  0.042081187  0.042379578            6 
  385000   0.64572384   -4.5594419    193.90084  0.041969879  0.042286209            9 
  386000   0.63658027   -4.5572694    194.33574  0.041955038  0.042193642            8 
  387000   0.64508322   -4.5527993    194.05073  0.041785257  0.042100857            4 
  388000   0.64068765   -4.5483318    194.70871   0.04181888  0.042008092            6 
  389000   0.64224523   -4.5537122    194.23265  0.041609394  0.041914501           10 
  390000   0.64503977   -4.5974726    194.20364  0.041496504  0.041819967            8 
  391000   0.65390681   -4.5718121     194.7177  0.041499937  0.041726644            5 
  392000   0.64060421   -4.6035481    194.54105  0.041356516  0.041633087           11 
  393000   0.62861457   -4.5942504    194.35272  0.041211348  0.041539144           29 
  394000   0.67089722   -4.5798937     194.5747  0.041153701  0.041444834            7 
  395000   0.63355479   -4.5895827    194.65723  0.041066927  0.041350667            6 
  396000   0.63184529   -4.5813425    194.93237  0.041021121  0.041257933            6 
  397000   0.64851759   -4.5983346    194.29084  0.040783131  0.041164984            6 
  398000   0.62230055   -4.6147335    194.77989   0.04078306  0.041071329           10 
  399000   0.62563737   -4.5986251     194.3973  0.040600939  0.040977457            6 
  400000   0.61415598   -4.6133611    194.79761  0.040582836  0.040884012           17 
  401000   0.62522145   -4.6091669    195.02209  0.040528281   0.04079081           15 
  402000   0.62866027   -4.6112061    195.13404  0.040450672  0.040697059           17 
  403000    0.6191592   -4.6009494    194.89621  0.040301119  0.040603026           19 
  404000   0.62663514   -4.6178041    195.33878  0.040292652  0.040509677            9 
  405000   0.62859863    -4.631243    195.36152  0.040197844  0.040416128           14 
  406000   0.62025157   -4.6098569    195.63024   0.04015399  0.040323451            9 
  407000    0.6271441   -4.6059347     195.4239  0.040013084  0.040231311           10 
  408000   0.62870333   -4.6344738    195.31609  0.039892993  0.040138577            8 
  409000   0.60296611   -4.6508587    195.84262  0.039902734  0.040046254            7 
  410000   0.62288878   -4.6250407    195.80694  0.039798158  0.039954366            7 
  411000   0.61694779    -4.632654    195.93885  0.039728073  0.039862292            9 
  412000   0.60676031   -4.6421127    196.17558  0.039679527  0.039770046           19 
  413000   0.61334063   -4.6529089    196.01525    0.0395511  0.039677865           11 
  414000   0.60960821   -4.6520967     196.2749   0.03950783   0.03958574            6 
  415000   0.60360923    -4.632299    196.75686   0.03950941   0.03949452            6 
  416000   0.60651114   -4.6603776    195.84376  0.039231522  0.039403156            4 
  417000   0.60758183   -4.6665926    196.23903  0.039216433  0.039311921            6 
  418000   0.59799561   -4.6704709    196.25563  0.039125923  0.039220537            4 
  419000   0.60043259    -4.670576    196.28052  0.039037494  0.039128845            8 
  420000   0.59584715   -4.6609161    196.62282  0.039012465  0.039038082           10 
  421000   0.59007579   -4.6829113    196.19714  0.038835539  0.038947113           13 
  422000   0.59966925   -4.6847306    196.67864  0.038838594  0.038856503           12 
  423000   0.58533966   -4.6858014    197.14514   0.03883868  0.038765771           24 
  424000   0.60441728   -4.6995214    196.84632  0.038688349  0.038675027           16 
  425000   0.58665487   -4.6788687    197.42742  0.038711259  0.038583999           23 
  426000   0.59129259   -4.6725479    197.21046  0.038577946   0.03849333           12 
  427000   0.57866735   -4.7069769    197.04567  0.038455439  0.038403098           10 
  428000   0.57316444   -4.6711535    196.56239  0.038271494  0.038313053            9 
  429000   0.57429608   -4.7135956    196.42216  0.038155044  0.038222296            7 
  430000    0.5950811   -4.7098334    196.75836  0.038131465   0.03813129            9 
  431000   0.57736372   -4.7122716    196.81342  0.038053639  0.038040609           21 
  432000   0.58072925   -4.7065623    196.66949  0.037937787  0.037949669           15 
  433000   0.56676165   -4.7293228    196.71001   0.03785797  0.037858352           10 
  434000    0.5706203   -4.7215229    196.13498  0.037660326  0.037767039           19 
  435000   0.58568171   -4.7153457    197.04809  0.037748675  0.037676203           20 
  436000   0.57478069   -4.7286091     196.4995  0.037557244  0.037585413           11 
  437000   0.57536999   -4.7324011    196.68265  0.037506226  0.037494259           15 
  438000   0.56709937    -4.721765    196.88228  0.037458576  0.037403454            7 
  439000   0.57070268   -4.7271281    196.46006  0.037293101  0.037312661           17 
  440000   0.55766935   -4.7209753    197.05684  0.037321372  0.037222621           12 
  441000   0.55394494   -4.7328287    196.73737  0.037176374  0.037131926            7 
  442000   0.57466421   -4.7423689    196.62436  0.037070958  0.037041246           10 
  443000   0.56687941   -4.7320286    196.75092  0.037011084   0.03695085           19 
  444000   0.54254042     -4.75441    196.60527  0.036900388  0.036860314           10 
  445000   0.56789879   -4.7602314    196.32186  0.036764394  0.036769613           11 
  446000   0.55137523   -4.7502495    196.52642  0.036720184  0.036678716           20 
  447000   0.54600875   -4.7648947    196.67167  0.036665113  0.036588116           22 
  448000   0.55207784   -4.7476749    196.98367  0.036641307  0.036497733           35 
  449000    0.5365828    -4.762662    197.10911  0.036582982   0.03640796           36 
  450000   0.54403498   -4.7626224    196.76631  0.036438205  0.036318238           21 
  451000   0.54756891   -4.7580073    196.80688  0.036364908  0.036228357           17 
  452000   0.54825148   -4.7653186    197.32083  0.036379209  0.036139384           27 
  453000   0.55061722   -4.7810502    197.10158   0.03625857  0.036050483           22 
  454000   0.54848006   -4.7760166    197.21994  0.036200429  0.035961929           18 
  455000   0.54258132   -4.7858111    197.21012  0.036119069  0.035873645           14 
  456000   0.54253357    -4.795551     196.9167   0.03598624  0.035785068           25 
  457000   0.53879014   -4.7921302    196.93234  0.035910347  0.035696588           23 
  458000   0.52969753   -4.7939287    196.97561  0.035839813  0.035608309           61 
  459000   0.52519044   -4.7751971    197.00434  0.035766945  0.035520069           23 
  460000   0.52694332   -4.8130976    196.81494  0.035654881  0.035432005           20 
  461000   0.53285315   -4.8131589    196.65393  0.035548433  0.035343753           13 
  462000   0.53348856   -4.8228201    196.97715  0.035529789  0.035255488           46 
  463000   0.52982768   -4.8129165    197.46495  0.035540847  0.035167892           27 
  464000   0.53359658   -4.8029436    196.99904  0.035380574  0.035080314           15 
  465000   0.52187303   -4.8374302    197.14607  0.035330837  0.034992992           16 
  466000   0.50628664   -4.8328388    196.59042  0.035155655  0.034905456           15 
  467000   0.51024513   -4.8287004    196.67729  0.035095877  0.034818298           14 
  468000   0.51752553   -4.8288711    197.24538   0.03512204  0.034731316           33 
  469000   0.52053659   -4.8132865    196.76026  0.034960957  0.034644234           27 
  470000   0.52437595   -4.8343245    196.96996  0.034923751  0.034557145           45 
  471000   0.50923273     -4.84328    197.32897  0.034913123  0.034470639           54 
  472000   0.50043186   -4.8617025    197.09978   0.03479869  0.034384301           26 
  473000   0.51884171   -4.8582746    197.22733  0.034747592  0.034298263           33 
  474000   0.51417276   -4.8388816    197.25005  0.034678279  0.034212256           29 
  475000   0.49892576   -4.8331597    197.19282  0.034595231  0.034126603           47 
  476000   0.50790855   -4.8480404    197.09263  0.034505012  0.034041098           18 
  477000   0.50984565   -4.8309539    196.84638  0.034389655  0.033955442           23 
  478000   0.50147716   -4.8629679    197.34426  0.034404508  0.033870018           10 
  479000    0.5009808   -4.8797204    196.64935  0.034211787  0.033784573           18 
  480000   0.51062457   -4.8821144    196.65419  0.034141352  0.033698965           17 
  481000   0.49756488   -4.8646427    196.95593  0.034122649  0.033613355           16 
  482000    0.5037534    -4.880987    196.91375  0.034044563  0.033527969           22 
  483000   0.49225942   -4.8870808     196.5392  0.033909455  0.033442249           16 
  484000   0.49286268   -4.8933858    196.86506    0.0338955  0.033356883           12 
  485000   0.49389088   -4.8854362    196.88206  0.033828533  0.033271663           34 
  486000   0.49088867   -4.8857429    196.78082  0.033741567  0.033186591          121 
  487000   0.49863145   -4.8919468    196.77077  0.033670562  0.033101872           48 
  488000   0.48165005   -4.8968146    196.64551  0.033580176  0.033017201           41 
  489000   0.48183516   -4.9260028     196.6081   0.03350513  0.032932808           60 
  490000   0.48581321   -4.9021596    197.11855  0.033523563  0.032848546           44 
  491000    0.4854655    -4.917106    196.65374  0.033376398    0.0327644           31 
  492000   0.48106622   -4.9170002    196.59342  0.033298343  0.032680508           20 
  493000   0.47479107   -4.9047079    196.67309  0.033244267  0.032596436           22 
  494000   0.46998179   -4.9270335    195.96385   0.03305733  0.032512393           27 
  495000   0.47414745   -4.9274026    196.24568  0.033037992  0.032428365           43 
  496000   0.47547156   -4.9347424    196.64453  0.033038396   0.03234445           50 
  497000   0.46768764   -4.9193734    196.01013  0.032865548  0.032260914           66 
  498000   0.46432619   -4.9407418    196.52034  0.032884929  0.032177446           38 
  499000   0.48323359   -4.9339274    196.54289  0.032822793  0.032094453           45 
  500000   0.47451501    -4.951051    196.51315  0.032752191  0.032011612           19 
  501000   0.47082652   -4.9424699    196.08215  0.032615128  0.031928967           30 
  502000   0.45895321   -4.9309914    196.48247  0.032616612  0.031846474           23 
  503000   0.46604457   -4.9274119    195.89206  0.032453952  0.031764318           41 
  504000   0.45840227    -4.948136    196.72909  0.032527958  0.031682359           28 
  505000     0.465415   -4.9488697    196.04266  0.032350274  0.031600464           37 
  506000    0.4532792   -4.9702203     196.5669  0.032372678  0.031518898           40 
  507000   0.46469058   -4.9418648    196.38408  0.032278777  0.031437321           45 
  508000   0.46501784   -4.9571078    195.98818  0.032150292  0.031355854           49 
  509000   0.46399099   -4.9704311    196.05749  0.032098476  0.031274565           20 
  510000   0.46089562   -4.9596242    195.89299  0.032008659  0.031193402           51 
  511000   0.44909072   -4.9754662     196.1207  0.031983153  0.031112358           35 
  512000     0.441866   -4.9633198    195.84229  0.031875373  0.031031739           23 
Loop time of 1246.15 on 48 procs for 500000 steps with 4000 atoms

Performance: 69333.305 tau/day, 401.234 timesteps/s
99.4% CPU use with 48 MPI tasks x no OpenMP threads

MPI task timing breakdown:
Section |  min time  |  avg time  |  max time  |%varavg| %total
---------------------------------------------------------------
Pair    | 81.398     | 89.601     | 95.35      |  31.5 |  7.19
Neigh   | 8.3851     | 8.7342     | 9.273      |   6.7 |  0.70
Comm    | 80.885     | 87.345     | 97.128     |  34.4 |  7.01
Output  | 0.92428    | 0.9251     | 0.94597    |   0.3 |  0.07
Modify  | 1040.5     | 1046.8     | 1053.7     |   7.9 | 84.01
Other   |            | 12.7       |            |       |  1.02

Nlocal:        83.3333 ave          95 max          76 min
Histogram: 2 5 4 18 5 7 4 2 0 1
Nghost:        2284.31 ave        2299 max        2260 min
Histogram: 2 2 0 4 5 6 9 10 5 5
Neighs:        15396.1 ave       17681 max       13427 min
Histogram: 1 3 5 11 9 9 5 2 1 2
FullNghs:      30792.6 ave       35414 max       28181 min
Histogram: 3 6 12 10 8 2 3 3 0 1

Total # of neighbors = 1478046
Ave neighs/atom = 369.51150
Neighbor list builds = 26984
Dangerous builds = 0

#clear
#
#next RN
#
#jump SELF
Total wall time: 0:20:49
