
units lj                  # Use reduced LJ style units
atom_style atomic         # Uncharged point particles
atom_modify map hash      # Needed for indexing of clusters etc
                          # Used to be able to find where atoms are in relation to each other.

lattice fcc 1.0 spacing 1 1 1
Lattice spacing in x,y,z = 1.5874011 1.5874011 1.5874011
region box block 0 10 0 10 0 10 units lattice
create_box 2 box
Created orthogonal box = (0.0000000 0.0000000 0.0000000) to (15.874011 15.874011 15.874011)
  3 by 4 by 4 MPI processor grid
create_atoms 1 box
Created 4000 atoms
  using lattice units in orthogonal box = (0.0000000 0.0000000 0.0000000) to (15.874011 15.874011 15.874011)
  create_atoms CPU = 0.002 seconds
set type 1 type/fraction 2 0.3 78393
Setting atom values ...
  1229 settings made for type/fraction
mass 1 1.0
mass 2 1.0
pair_style lj/cut  3.5
pair_modify tail  yes
pair_coeff 1  1  1.0  1.0   # Intearaction between 1 and 1 set with epsilon = 1 and sigma = 1
pair_coeff 1  2  1.5  0.8
pair_coeff 2  2  0.5  0.88

write_data data.0
System init for write_data ...
Neighbor list info ...
  update every 1 steps, delay 10 steps, check yes
  max neighbors/atom: 2000, page size: 100000
  master list distance cutoff = 3.8
  ghost atom cutoff = 3.8
  binsize = 1.9, bins = 9 9 9
  1 neighbor lists, perpetual/occasional/extra = 1 0 0
  (1) pair lj/cut, perpetual
      attributes: half, newton on
      pair build: half/bin/atomonly/newton
      stencil: half/bin/3d
      bin: standard
WARNING: Not all mixed pair coeffs generated from mixing. Use write_data with 'pair ij' option to store all pair coeffs. (../write_data.cpp:312)


#############################
#   M E L T   S Y S T E M   #
#############################

velocity all create 2.4 2750902 mom yes dist gaussian # Assign velocities
                                                    # Temperature 2.4, random number seed, zero linear momentum
                                                                                # Gaussian distribution

timestep 0.002   # simulation timestep
thermo 1000       # output thermodynamic data every 1000 steps bf 100

# Define a fix  in this case with index 1 applied to all
# particles in the simulation. This fix is for simulations
# in the anisotropic NPT ensemble. Note that we use the MTK
# correction.
fix 1 all npt temp 2.4 2.4 0.1 iso 5.68 5.68 0.5 mtk yes tchain 5 pchain 5 # Use NPT ensemble
                                                                         # Set temperature and pressure and damping
                                                                         # Numbers of thermostats in chain and in barostat
run 10000          # run for 10000 steps
Per MPI rank memory allocation (min/avg/max) = 3.642 | 3.644 | 3.648 Mbytes
Step Temp E_pair E_mol TotEng Press Volume 
       0          2.4   -6.4318281            0   -2.8327281   -3.9834666         4000 
    1000    2.4286921    -5.022751            0   -1.3806236    5.2617783    4174.5392 
    2000    2.4402228   -4.9865462            0   -1.3271271      5.79922    4136.8736 
    3000    2.4281724   -4.9466921            0   -1.3053442    5.6536432    4173.5402 
    4000    2.4116618   -4.9875269            0   -1.3709386     5.833318    4139.9187 
    5000    2.3793996   -4.9608674            0   -1.3926603    5.8224429    4157.6428 
    6000    2.3952428    -4.976567            0   -1.3846011    5.6395651    4160.6456 
    7000    2.3994631   -5.0154789            0    -1.417184    6.0208887    4111.4997 
    8000    2.3916752   -5.0061712            0   -1.4195553    5.8098538    4131.5714 
    9000    2.3718617   -4.9585543            0   -1.4016511    5.7357435    4152.6706 
   10000    2.3657004   -4.9659134            0   -1.4182498    5.5075545    4177.1893 
Loop time of 2.42333 on 48 procs for 10000 steps with 4000 atoms

Performance: 713068.468 tau/day, 4126.554 timesteps/s
99.6% CPU use with 48 MPI tasks x no OpenMP threads

MPI task timing breakdown:
Section |  min time  |  avg time  |  max time  |%varavg| %total
---------------------------------------------------------------
Pair    | 1.0113     | 1.1076     | 1.2409     |   3.7 | 45.71
Neigh   | 0.20119    | 0.21114    | 0.23735    |   1.2 |  8.71
Comm    | 0.71409    | 0.82656    | 0.96338    |   5.2 | 34.11
Output  | 0.00023818 | 0.00024337 | 0.0003079  |   0.0 |  0.01
Modify  | 0.21112    | 0.263      | 0.30319    |   5.2 | 10.85
Other   |            | 0.0148     |            |       |  0.61

Nlocal:        83.3333 ave          91 max          76 min
Histogram: 5 2 4 5 10 0 10 6 2 4
Nghost:        1600.04 ave        1626 max        1568 min
Histogram: 1 4 3 4 6 8 4 10 5 3
Neighs:        9133.83 ave       10225 max        8185 min
Histogram: 5 4 3 8 5 9 6 4 2 2

Total # of neighbors = 438424
Ave neighs/atom = 109.60600
Neighbor list builds = 910
Dangerous builds = 230

# Equilibrate just above the melting temperature to avoid step fn in T

fix 1 all npt temp 1.25 1.25 0.1 iso 5.68 5.68 0.5 mtk yes tchain 5 pchain 5
run 2000
Per MPI rank memory allocation (min/avg/max) = 3.643 | 3.645 | 3.649 Mbytes
Step Temp E_pair E_mol TotEng Press Volume 
   10000    2.3657004   -4.9659134            0   -1.4182498    5.5075545    4177.1893 
   11000    1.2542736   -6.8623574            0   -4.9814174    5.6111701    3347.1028 
   12000    1.2458029   -6.8517897            0   -4.9835525    5.7910909    3338.0308 
Loop time of 0.567897 on 48 procs for 2000 steps with 4000 atoms

Performance: 608561.074 tau/day, 3521.765 timesteps/s
99.7% CPU use with 48 MPI tasks x no OpenMP threads

MPI task timing breakdown:
Section |  min time  |  avg time  |  max time  |%varavg| %total
---------------------------------------------------------------
Pair    | 0.23421    | 0.26945    | 0.31321    |   2.8 | 47.45
Neigh   | 0.036184   | 0.03941    | 0.045562   |   0.8 |  6.94
Comm    | 0.16465    | 0.21154    | 0.25166    |   3.6 | 37.25
Output  | 4.9009e-05 | 5.1287e-05 | 6.6617e-05 |   0.0 |  0.01
Modify  | 0.039943   | 0.042863   | 0.047534   |   1.0 |  7.55
Other   |            | 0.004584   |            |       |  0.81

Nlocal:        83.3333 ave          92 max          72 min
Histogram: 1 1 1 4 8 10 9 6 4 4
Nghost:        1854.90 ave        1885 max        1832 min
Histogram: 1 4 7 14 8 3 3 3 4 1
Neighs:        11448.6 ave       12760 max        9554 min
Histogram: 1 0 5 5 7 8 3 9 7 3

Total # of neighbors = 549533
Ave neighs/atom = 137.38325
Neighbor list builds = 143
Dangerous builds = 8

#############################
# L I N E A R  Q U E N C H  #
#############################

# Define solid atoms. This closely follows ten Wolde  Ruiz-Montero and Frenkel  Faraday Discuss  1996  104  93-110
# Compute components of the per-atom q6 vector
compute q6 all orientorder/atom degrees 1 6 components 6 nnn NULL cutoff 1.3 # compute the Q6 parameter.
                                                                             # Use all neighbours within 1.3 unit cell.

# get number of connections
compute coord_number all coord/atom orientorder q6 0.5

# An atom is solid if it has 8 or more connections (of a possible 14)
variable is_solid atom c_coord_number>=8
group solid dynamic all var is_solid    # Must be dynamic to update
dynamic group solid defined

# do clustering
compute cluster solid cluster/atom 1.3 # Create a cluster where all atoms within are solid and max 1.3 units from another member

# define chunks one chunk per cluster
compute clus_chunks solid chunk/atom c_cluster nchunk every compress yes  # Says which atoms are in which chunk

# count the size of each chunk
compute size_chunks solid property/chunk clus_chunks count


# Find the maximum entry in the vector of chunk sizes
variable max_n equal max(c_size_chunks)


# Thermo style which includes this variable
# thermo_style custom step temp pe vol v_max_n

thermo ${N}  # Print the thermo information every 100 steps
thermo 1000  

# Reset the npt fix at a lower temperature (below freezing)
fix 1  all npt temp  ${temp} ${temp}  0.1  iso  5.68  5.68  0.5  mtk yes tchain  5  pchain  5
fix 1  all npt temp  0.45 ${temp}  0.1  iso  5.68  5.68  0.5  mtk yes tchain  5  pchain  5
fix 1  all npt temp  0.45 0.45  0.1  iso  5.68  5.68  0.5  mtk yes tchain  5  pchain  5

dump dmp2 all dcd ${N} traj.dcd
dump dmp2 all dcd 1000 traj.dcd


compute msd all msd com yes
variable twopoint equal c_msd[4]/6/(step*dt+1.0e-6)
fix 9 all vector 10 c_msd[4]
variable fit equal slope(f_9)/6/(10*dt)
thermo_style custom step temp pe c_msd[4] v_twopoint v_fit v_max_n

fix 1 all npt temp 1.25 ${temp} 0.1 iso 5.68 5.68 0.5 mtk yes tchain 5 pchain 5
fix 1 all npt temp 1.25 0.45 0.1 iso 5.68 5.68 0.5 mtk yes tchain 5 pchain 5
run 500000 # 5000000  # Run for this many steps
Neighbor list info ...
  update every 1 steps, delay 10 steps, check yes
  max neighbors/atom: 2000, page size: 100000
  master list distance cutoff = 3.8
  ghost atom cutoff = 3.8
  binsize = 1.9, bins = 8 8 8
  4 neighbor lists, perpetual/occasional/extra = 1 3 0
  (1) pair lj/cut, perpetual
      attributes: half, newton on
      pair build: half/bin/atomonly/newton
      stencil: half/bin/3d
      bin: standard
  (2) compute orientorder/atom, occasional
      attributes: full, newton on
      pair build: full/bin/atomonly
      stencil: full/bin/3d
      bin: standard
  (3) compute coord/atom, occasional
      attributes: full, newton on
      pair build: full/bin/atomonly
      stencil: full/bin/3d
      bin: standard
  (4) compute cluster/atom, occasional
      attributes: full, newton on
      pair build: full/bin/atomonly
      stencil: full/bin/3d
      bin: standard
Per MPI rank memory allocation (min/avg/max) = 9.811 | 9.815 | 9.819 Mbytes
Step Temp PotEng c_msd[4] v_twopoint v_fit v_max_n 
   12000    1.2458029   -6.8517897 1.8587535e-30 1.290801e-32 8.3333333e+20            1 
   13000    1.2718356   -6.8765439   0.51455178 0.0032984087  0.042080177            1 
   14000    1.2385641   -6.9493454   0.97582813 0.0058085006  0.040417044            1 
   15000    1.2563286   -6.9093617    1.5023603 0.0083464458  0.040312863            1 
   16000    1.2474704   -6.9125728    1.9739506  0.010280992  0.041189667            3 
   17000    1.2693942   -6.8854315    2.4495953   0.01200782  0.041027357            2 
   18000    1.2463716   -6.8965477    2.8554495  0.013219673  0.040229243            2 
   19000     1.216525   -6.9440826    3.2874948  0.014418837  0.039442778            1 
   20000    1.2368387   -6.8956774     3.770523  0.015710512   0.03891919            3 
   21000    1.2216835   -6.8828791    4.2389611  0.016821274  0.038651501            1 
   22000    1.2568486   -6.9215489    4.6895264  0.017763357  0.038657856            1 
   23000    1.2297591   -6.8746228    5.1314361  0.018592159  0.038517268            2 
   24000     1.217721   -6.8910413    5.6355943  0.019568036  0.038533852            2 
   25000    1.2348045   -6.9815724    6.0529825  0.020176608  0.038533558            3 
   26000    1.2273066   -6.9414601    6.5676888  0.021050284   0.03856009            2 
   27000    1.2188337   -6.9166103    7.0273813  0.021689448  0.038579929            4 
   28000    1.2054121   -6.9096479    7.4795758  0.022260642  0.038624084            1 
   29000    1.2097469   -6.9741441    7.9006599  0.022703045  0.038547028            1 
   30000    1.2478747   -6.9387497    8.4277084  0.023410301  0.038569509            1 
   31000    1.2207387   -6.9472423    8.8374651  0.023756626  0.038537494            2 
   32000    1.2224358   -6.9438871    9.2959926  0.024208314  0.038443188            2 
   33000    1.2252477   -7.0145175    9.7417426   0.02460036  0.038403229            1 
   34000     1.198878   -6.9439905    10.108895  0.024776704   0.03833404            2 
   35000    1.2506071   -6.9081576    10.657323  0.025374577  0.038263945            1 
   36000    1.2195595   -6.9826202    10.967682  0.025388153  0.038189462            2 
   37000    1.1878816   -6.9629745    11.505773  0.025913903  0.038138129            1 
   38000     1.208862   -6.9981769    11.920315  0.026141041  0.038086154            1 
   39000    1.2275112   -6.9285079    12.334631   0.02635605  0.037996451            1 
   40000    1.2094675   -6.9548708     12.72643  0.026513395  0.037912506            1 
   41000    1.2194354   -6.9448578    13.147718  0.026723004  0.037797199            1 
   42000    1.1844777   -6.9767036    13.498533  0.026782804  0.037680142            1 
   43000    1.1853453   -6.9443299    13.960992  0.027056185   0.03754397            1 
   44000    1.1564391   -6.9617979    14.403266  0.027278912   0.03745067            2 
   45000     1.220215   -6.9875438     14.73674  0.027290258  0.037345866            2 
   46000    1.1936133   -6.9808424    15.232968  0.027595956   0.03723965            2 
   47000    1.1814073   -7.0107027    15.533288  0.027541291  0.037152025            1 
   48000    1.2028333   -6.9858208    15.877226  0.027564629  0.037036984            1 
   49000    1.1865318    -7.011843    16.119511  0.027414134  0.036864347            2 
   50000    1.1841845   -6.9771016    16.435003  0.027391672  0.036658432            2 
   51000     1.183829   -7.0097675    16.892174  0.027601591  0.036466709            2 
   52000    1.1961358   -7.0387576    17.245131  0.027636428  0.036288253            3 
   53000    1.1843523   -7.0235171    17.660478  0.027768047  0.036131059            1 
   54000    1.1751808   -6.9984584    18.053646  0.027860565  0.035999419            2 
   55000    1.1849507   -7.0409762    18.429359  0.027923271   0.03586572            1 
   56000    1.1771327   -7.0107403    18.797265   0.02797212  0.035726492            2 
   57000    1.1797888   -6.9950453    19.324751  0.028252559  0.035612465            2 
   58000     1.162385   -7.0278012    19.575691  0.028125992  0.035509602            1 
   59000    1.1795424   -7.0712673    20.013059  0.028267032  0.035400735            1 
   60000    1.1676955   -7.0461889     20.43721  0.028385014  0.035318725            2 
   61000    1.1628572   -7.0416001    20.881503  0.028526643  0.035231106            3 
   62000    1.1643784   -6.9961209    21.200432  0.028495204  0.035149173            1 
   63000    1.1743477   -7.0102501    21.611806  0.028587045  0.035058005            2 
   64000    1.1320957   -7.0492289    21.925187   0.02854842  0.034973847            2 
   65000     1.157987   -7.0274376    22.433759  0.028761229  0.034894628            2 
   66000    1.1671263   -7.0577193    22.991425  0.029029577  0.034837971            1 
   67000    1.1854818   -7.0853975    23.214879  0.028874228  0.034796305            2 
   68000    1.1341434   -7.0903542    23.605037  0.028927741  0.034745503            2 
   69000    1.1692392   -7.0481321    23.978897   0.02896002  0.034681806            1 
   70000    1.1191848     -7.05803    24.351925  0.028990387  0.034609378            2 
   71000    1.1581138   -7.0841611    24.768351  0.029070834  0.034549936            1 
   72000     1.149338    -7.105838    25.097014  0.029047469  0.034491145            1 
   73000    1.1458848   -7.1046952    25.441051  0.029042296  0.034433652            2 
   74000    1.1473616   -7.0939405    25.663951  0.028900845  0.034367411            2 
   75000    1.1609497   -7.0527091    25.974543  0.028860603  0.034285451            1 
   76000    1.1581157   -7.0665189     26.29149  0.028828388  0.034199952            2 
   77000    1.1873208   -7.1094638    26.655151  0.028847566  0.034112351            1 
   78000     1.165677   -7.0923814     27.08302  0.028934851   0.03402892            3 
   79000    1.1361104   -7.0722225     27.46035  0.028966614  0.033954569            2 
   80000    1.1394167   -7.1278591    27.663948  0.028816613   0.03387178            2 
   81000    1.1594378   -7.1133729    28.032059  0.028839566   0.03378326            3 
   82000    1.1320693   -7.1120591    28.214898  0.028673676  0.033687856            1 
   83000    1.1357746   -7.1554989    28.564828  0.028679546  0.033588936            1 
   84000    1.1444932   -7.1532055     28.94643  0.028716696  0.033492505            2 
   85000    1.1422637   -7.1220245     29.26622  0.028692372  0.033401121            1 
   86000    1.1344683   -7.1058055    29.712648  0.028791326  0.033311674            3 
   87000    1.1350709   -7.1311524    29.948747  0.028686539  0.033226246            1 
   88000    1.1198324   -7.1265834    30.364167  0.028753946  0.033141368            2 
   89000    1.1349515   -7.1560092    30.615409  0.028666113  0.033054976            1 
   90000    1.1253499   -7.1592105    31.035415  0.028736495  0.032972634            1 
   91000    1.0962018   -7.1081512    31.422769  0.028775429  0.032893536            1 
   92000     1.116996   -7.1595688    31.711596  0.028724271  0.032817279            3 
   93000    1.1243484   -7.1769198    32.195383  0.028848909  0.032742743            1 
   94000    1.1298138   -7.1466511    32.493013  0.028805863  0.032673904            1 
   95000    1.1340914   -7.2010092    32.513621   0.02852072  0.032598322            3 
   96000    1.1392992   -7.2058919    32.911344  0.028568875  0.032520793            1 
   97000    1.1040878   -7.1563378    33.299247  0.028607601  0.032442707            1 
   98000    1.1153365   -7.1778859    33.482762  0.028471737  0.032356704            2 
   99000    1.1003187   -7.1906903    33.670127  0.028341857  0.032267879            2 
  100000    1.1148173   -7.1805271    34.142836  0.028452363  0.032181344            1 
  101000    1.1032963   -7.2125366     34.18243  0.028203325  0.032092256            2 
  102000    1.1006076    -7.163256    34.479287  0.028169352    0.0320006            2 
  103000    1.0906158   -7.1711205    34.951382  0.028277817  0.031912094            1 
  104000    1.0992408   -7.1761518    35.123007  0.028143435  0.031826439            4 
  105000    1.1211016   -7.1624023    35.516481  0.028187683  0.031744922            2 
  106000    1.1054398    -7.193947     35.77455  0.028124646  0.031662556            2 
  107000     1.089161   -7.2331604    36.081566  0.028100908  0.031580342            2 
  108000    1.0909816   -7.1758759     36.34347  0.028042801  0.031493921            2 
  109000    1.1156468   -7.2041373    36.531686  0.027929424  0.031407578            1 
  110000    1.0956419   -7.2318035    36.769805  0.027855913  0.031320574            1 
  111000    1.0923648   -7.1941376    37.159323   0.02789739  0.031229524            1 
  112000    1.0861514   -7.2218834    37.557377  0.027944477  0.031142444            2 
  113000    1.0811069   -7.2040302    37.849966  0.027912954  0.031060807            1 
  114000    1.0507296   -7.1635048    38.064821  0.027825162  0.030979161            2 
  115000     1.083282   -7.2634556     38.28947  0.027745993  0.030896301            1 
  116000    1.0949053   -7.2129238    38.615101  0.027740733  0.030814622            1 
  117000    1.0683485   -7.2242905    38.790336  0.027628444  0.030732036            1 
  118000    1.0661858   -7.2132798    39.087949  0.027604483  0.030648484            1 
  119000    1.0818439   -7.2337755    39.351658  0.027557183    0.0305658            1 
  120000    1.0637102    -7.268606      39.6065  0.027504514  0.030480273            1 
  121000    1.0693077   -7.2546056    39.815597   0.02742121  0.030394224            2 
  122000    1.0499202   -7.2334779     40.15067  0.027425321  0.030308102            2 
  123000    1.0664515   -7.2425637    40.337072   0.02732864  0.030223325            2 
  124000    1.0546908   -7.2498506    40.648596  0.027317605   0.03013828            2 
  125000    1.0619861   -7.2624699    40.870649  0.027247099  0.030054804            2 
  126000    1.0841786   -7.2696854    41.210312  0.027255498  0.029976027            1 
  127000    1.0626233   -7.2849657    41.617954  0.027308369  0.029897044            2 
  128000    1.0706563   -7.2795314    41.744778   0.02717759  0.029818986            3 
  129000    1.0474062   -7.2974532    42.108575  0.027201922  0.029739724            2 
  130000    1.0591927    -7.259678     42.40444  0.027182333  0.029663835            2 
  131000    1.0489278   -7.3142786    42.545995  0.027064882  0.029590782            4 
  132000     1.055789   -7.2665424    43.038093  0.027170513  0.029519361            2 
  133000    1.0494209   -7.2847478    43.425943  0.027209237  0.029451063            1 
  134000    1.0455377   -7.3400989    43.591375  0.027109064  0.029386497            2 
  135000     1.076295    -7.289841    43.929827  0.027117177   0.02932096            2 
  136000    1.0567324    -7.294004    44.251813  0.027115081  0.029255314            2 
  137000    1.0202057    -7.318988    44.324697  0.026961494  0.029189827            3 
  138000    1.0831338   -7.2972393    44.556317  0.026905988  0.029123035            3 
  139000    1.0726792   -7.2853559    44.821495    0.0268714  0.029055985            4 
  140000    1.0568993    -7.301025    44.996722  0.026783763  0.028987636            1 
  141000    1.0522928   -7.3456909    45.288487  0.026766245  0.028917128            3 
  142000    1.0498863   -7.3592646    45.512689  0.026709325  0.028847078            7 
  143000    1.0437823   -7.3137803    45.921252  0.026760636  0.028779902            1 
  144000    1.0329577   -7.3695529    45.900952  0.026563051  0.028711641            2 
  145000    1.0598124   -7.3914965    46.331303  0.026627186  0.028644314            3 
  146000    1.0186122   -7.3351965    46.519504  0.026552228  0.028580226            1 
  147000    1.0272616   -7.3683601    46.689209  0.026467805  0.028515968            3 
  148000    1.0003652   -7.3448532    47.008505  0.026468753  0.028450052            3 
  149000    1.0197251   -7.3605816    47.378086  0.026497811  0.028384084            2 
  150000    1.0413932   -7.3212015    47.450847  0.026361582  0.028316612            2 
  151000    1.0211313   -7.3601843    47.466515  0.026195648  0.028247496            2 
  152000    1.0370703    -7.322773    47.974907  0.026302032  0.028178651            1 
  153000    1.0254258   -7.3525374    48.235562  0.026272092  0.028111747            2 
  154000    1.0203813    -7.367325    48.446963  0.026215889  0.028045944            1 
  155000    1.0109256   -7.3726723     48.70892  0.026187591  0.027983103            2 
  156000    1.0222687   -7.3604447    49.010275  0.026180702  0.027921107            2 
  157000    1.0134456   -7.4042868    49.182872  0.026105559  0.027856953            3 
  158000    1.0258841   -7.4039326    49.401845  0.026055825  0.027795227            2 
  159000    1.0378566   -7.3769303    49.618968  0.026005748   0.02773356            2 
  160000    1.0003215   -7.3691958    49.775923   0.02592496   0.02766981            2 
  161000    1.0216364   -7.4054086    50.061848   0.02591193  0.027605525            1 
  162000     1.031983   -7.4064044    50.282776  0.025865626  0.027541205            3 
  163000    1.0102279   -7.4086791    50.603437  0.025870878  0.027478913            5 
  164000    1.0005271   -7.4586934    50.939167  0.025883723  0.027417968            2 
  165000    1.0218106   -7.3707437    51.216554  0.025866946  0.027359161            2 
  166000    1.0109732   -7.4068997    51.351688   0.02577896  0.027300015            2 
  167000   0.99732387   -7.4369708    51.548943  0.025723025  0.027242715            1 
  168000   0.99272268   -7.4107362    51.583378  0.025586993  0.027181175            2 
  169000   0.98422176   -7.4320745    51.622929  0.025455093  0.027118081            2 
  170000     1.002759   -7.4097049    51.930604  0.025456178   0.02705436            2 
  171000   0.99733079   -7.4321991    52.156043  0.025417175  0.026989319            2 
  172000   0.98796928    -7.440701    52.445274  0.025409532  0.026923527            1 
  173000    1.0076693   -7.4528557    52.312472  0.025198686  0.026859054            1 
  174000    1.0141244   -7.4527996    52.675372  0.025227669  0.026794042            1 
  175000   0.98774346   -7.4837792    52.801373  0.025143511  0.026729078            4 
  176000   0.98968139   -7.4794787    53.155556   0.02516835  0.026662877            1 
  177000   0.98458155   -7.4205346    53.218927  0.025055992   0.02659505            1 
  178000   0.97915819   -7.4386961     53.36108  0.024981779  0.026527118            2 
  179000   0.97600088   -7.4345988    53.401421  0.024860997  0.026456307            2 
  180000   0.97286601    -7.496543    53.580642  0.024805853  0.026386374            3 
  181000   0.96582842   -7.5070976    53.753592  0.024748431  0.026317829            2 
  182000   0.98207249   -7.4963046    53.941438  0.024698461  0.026249167            3 
  183000   0.98478043   -7.4862393     54.00153  0.024590861  0.026179622            1 
  184000   0.95990782   -7.4489185    54.514632  0.024689598  0.026111706            2 
  185000   0.99061293   -7.5159332    54.424036  0.024515331  0.026043004            5 
  186000   0.96190622   -7.4768609    54.702316  0.024508206  0.025972788            1 
  187000   0.96817811   -7.5067616    54.666096  0.024361005  0.025901121            2 
  188000   0.98636672   -7.5348975    54.736124  0.024262466  0.025828885            5 
  189000   0.97015412   -7.4579542    54.827925   0.02417457  0.025755698            1 
  190000   0.94796733   -7.4944689    54.859948  0.024061381  0.025680574            1 
  191000   0.95547976   -7.4711445    55.057546  0.024021617  0.025604885            1 
  192000   0.95918241   -7.4996253    55.195052  0.023956186  0.025530009            1 
  193000   0.96638029    -7.519153    55.495499  0.023961787  0.025456055            1 
  194000   0.95410303   -7.5215197    55.442983  0.023815714  0.025381612            2 
  195000   0.95308814   -7.5095872    55.692295  0.023800126  0.025307262            2 
  196000   0.96421803   -7.5127752    55.805928   0.02372701  0.025231821            2 
  197000   0.93960726   -7.5025541    55.980721  0.023680508  0.025157119            1 
  198000   0.93849004   -7.5431926    55.997942  0.023568157   0.02508236            2 
  199000   0.94248669   -7.5349401    56.160026  0.023517599  0.025007513            1 
  200000   0.96622307   -7.5512892    56.189583  0.023412326  0.024931861            4 
  201000   0.93386587   -7.5097737    56.467098  0.023410903  0.024856399            1 
  202000   0.96122981   -7.5358126    56.797517  0.023431319  0.024782048            1 
  203000   0.93695457   -7.5219419    56.825383  0.023327333  0.024707964            2 
  204000   0.96187835   -7.5971123    56.698342  0.023161088  0.024633488            1 
  205000    0.9134519   -7.5735373    57.005669  0.023173036  0.024559362            2 
  206000   0.94212505   -7.5414984    57.184824   0.02313302  0.024485679            2 
  207000   0.91353987   -7.5973328     57.10622  0.022989621   0.02441169            2 
  208000    0.9398639   -7.5805003    57.262376  0.022941657  0.024337056            5 
  209000    0.9241152   -7.5794964    57.522085   0.02293544  0.024263726            1 
  210000   0.91574987   -7.5916184    57.669477  0.022884713   0.02419103            1 
  211000   0.94839285   -7.6036136    57.689424  0.022784133  0.024117222            6 
  212000   0.92495849   -7.5846865    58.013641  0.022804104  0.024045345            1 
  213000   0.93128979    -7.617007    58.053166  0.022712506  0.023973623            3 
  214000   0.93455661   -7.5866983    58.230343  0.022675367  0.023901364            2 
  215000    0.9259761   -7.6127771    58.232224   0.02257063  0.023829759            1 
  216000   0.91247976   -7.6398318    58.470802   0.02255818  0.023757665            3 
  217000   0.92110585    -7.605711    58.576229  0.022494711   0.02368537            3 
  218000   0.91189141   -7.6305296    58.619853  0.022408201  0.023613017            2 
  219000   0.92124423   -7.6193369    58.773931   0.02236451   0.02354142            1 
  220000   0.90309249   -7.6147926    58.683374  0.022228551  0.023468805            4 
  221000   0.91493209    -7.610298    58.830525  0.022183456  0.023395212            4 
  222000   0.90982647   -7.6247993    58.924569  0.022118832  0.023321688            2 
  223000   0.90484152   -7.6403187    59.010382  0.022051712  0.023248891            4 
  224000   0.90529615   -7.6715337      59.4602   0.02212061  0.023176979            1 
  225000   0.91248943   -7.6647838    59.412278  0.022004547  0.023105711            2 
  226000   0.90744204   -7.6313896    59.666452  0.022000904  0.023035078            3 
  227000   0.89964663   -7.6591184    59.992027  0.022023505   0.02296526            4 
  228000    0.8935908   -7.6529907    59.972998  0.021919955  0.022895995            2 
  229000   0.89305514   -7.6876133    59.972651  0.021824109  0.022827033            3 
  230000   0.90157054   -7.6546254    60.032646  0.021750959   0.02275762            1 
  231000   0.91362928   -7.6168007    60.183807   0.02171133  0.022688369            6 
  232000   0.87396679   -7.6675392    60.219195  0.021630458  0.022618965            2 
  233000   0.88579673   -7.6508553    60.553341  0.021657132  0.022550449            1 
  234000   0.89600856   -7.6574282     60.67173  0.021606741  0.022482709            1 
  235000   0.87057396   -7.6926224     60.55725  0.021474202  0.022415461            2 
  236000   0.91468204   -7.6711305    60.850975  0.021486926      0.02235            2 
  237000   0.90410218   -7.7070382    60.937574  0.021426714  0.022283981            1 
  238000   0.89013401   -7.6489052    61.334208  0.021475563  0.022218366            2 
  239000   0.90244955   -7.6561395    61.340886  0.021388036  0.022154466            3 
  240000   0.88560566   -7.6971471    61.561054  0.021375366  0.022091576            3 
  241000   0.86481979   -7.6945688    61.512317  0.021269819  0.022027708            2 
  242000   0.88662004   -7.6949973    61.578966  0.021204878  0.021963461            5 
  243000   0.87183762   -7.7112687    61.719159  0.021165692  0.021899313            1 
  244000   0.87080004   -7.7013418    61.976018  0.021166673   0.02183588            2 
  245000   0.88482213     -7.71746    62.189796  0.021152992    0.0217731            2 
  246000   0.88791469   -7.7190015    62.112164  0.021040706  0.021710528            2 
  247000   0.87916432   -7.7323616    62.022867  0.020925394  0.021646675            2 
  248000   0.87826013   -7.7546168    62.035559  0.020845282  0.021581542            2 
  249000   0.86863844   -7.7526473    61.931514  0.020726745  0.021515684            1 
  250000    0.8768952   -7.7265852    62.233764  0.020744588  0.021450453            1 
  251000   0.87262267    -7.720518    62.253962  0.020668646  0.021385503            4 
  252000   0.88610729   -7.7403212    62.484711  0.020662934  0.021321277            3 
  253000   0.84081474   -7.7358567    62.721382  0.020659217  0.021257898            1 
  254000   0.87490139   -7.7478891    62.680311  0.020564406  0.021194838            3 
  255000   0.85888475   -7.7587725    62.906063  0.020557537  0.021131949            3 
  256000      0.84359     -7.75986    62.623748  0.020385335  0.021068408            2 
  257000   0.85673437    -7.773904    62.848102  0.020378762  0.021005024            1 
  258000   0.86014095   -7.7804791    62.926022  0.020324942   0.02094179            3 
  259000   0.86603791   -7.7571363    63.040982  0.020283456  0.020879036            2 
  260000   0.85142161   -7.8015514     63.17573  0.020248631  0.020816359            2 
  261000   0.83623562   -7.7626843    63.439583  0.020255295   0.02075459            3 
  262000   0.84285742   -7.7599425    63.611294    0.0202326  0.020693035            2 
  263000   0.85495344   -7.7713766    63.591241  0.020149316  0.020632922            1 
  264000   0.85180207   -7.7720847    63.761025  0.020126586  0.020573296            5 
  265000   0.84543065   -7.7934984    63.917158  0.020099735  0.020513462            5 
  266000   0.84060076   -7.7950123    63.883449  0.020013612  0.020454046            2 
  267000    0.8519729   -7.7841305    64.077112  0.019999099  0.020395123            1 
  268000   0.83935729   -7.8415033    64.015597  0.019905347  0.020336062            1 
  269000   0.83833575   -7.8171582    64.286011  0.019915121  0.020277252            1 
  270000   0.85645816   -7.8588016    64.123505  0.019791205  0.020217421            2 
  271000   0.84140234   -7.8314418     64.29972  0.019772362  0.020157485            2 
  272000   0.84321653   -7.8080193    64.229627  0.019678194  0.020097884            2 
  273000   0.84389415   -7.8170408    64.456534  0.019675377   0.02003817            2 
  274000   0.82866761   -7.8228128    64.503179  0.019617755  0.019978639            2 
  275000   0.81261201    -7.812528    64.549936  0.019560587  0.019919284            1 
  276000   0.81517313   -7.8449565    64.572763  0.019496607  0.019860423            3 
  277000   0.81452662   -7.8459087    64.642616  0.019447237  0.019801608            2 
  278000   0.84160241   -7.8408606    64.675802  0.019387231  0.019742788            1 
  279000   0.82483586   -7.8363266    64.836079  0.019365615  0.019684069            2 
  280000   0.83089401   -7.8425031    64.859649  0.019303467  0.019625271            1 
  281000   0.81188243   -7.8439164    65.010407   0.01927948  0.019567039            2 
  282000   0.82096023    -7.844686     65.04699  0.019221924  0.019509589            2 
  283000   0.82740169   -7.8540006    65.248957  0.019213474  0.019452486            2 
  284000   0.80243603   -7.8654607    65.001192   0.01907312  0.019395046            2 
  285000   0.81761128   -7.8291164    65.204506  0.019065645  0.019337193            1 
  286000   0.81784585   -7.8663167    65.424519  0.019063088  0.019279796            1 
  287000   0.82377104   -7.8734328    65.336281  0.018971045  0.019222634            2 
  288000   0.80085334   -7.8591545    65.461926   0.01894153  0.019165301            2 
  289000   0.79313396   -7.8836244    65.460788   0.01887566  0.019107976            3 
  290000   0.81083236   -7.8763697    65.271801  0.018756264  0.019050261            2 
  291000    0.8082951    -7.875472    65.543146  0.018769515  0.018992695            2 
  292000   0.81976229   -7.8714356     65.50752  0.018695068  0.018935712            1 
  293000   0.78815462   -7.8739111    65.657837  0.018674015  0.018879029            3 
  294000   0.78062842   -7.8947641    65.729389  0.018630779  0.018822083            1 
  295000   0.78061138   -7.9385319    65.698782  0.018558978  0.018765076            2 
  296000   0.77450271   -7.9426536    65.882651  0.018548044    0.0187085            2 
  297000   0.79122751   -7.9338252    65.740356  0.018445667  0.018652031            2 
  298000   0.79049093   -7.9422491    65.658327   0.01836083  0.018595204            3 
  299000   0.79808494   -7.9305567    65.884981  0.018362592  0.018538641            1 
  300000   0.78639947   -7.9730209    65.820466  0.018283463  0.018481936            3 
  301000   0.77691008   -7.9371505    65.751257   0.01820356  0.018425157            2 
  302000   0.77814131   -7.9573161     65.93449  0.018193844  0.018368393            2 
  303000   0.76303321   -7.9594007    65.969149   0.01814333  0.018311904            3 
  304000   0.80631998   -7.9228381     66.09576  0.018118355  0.018255922            1 
  305000   0.80069984    -7.950511    66.266932  0.018105719  0.018200022            4 
  306000   0.77768064   -7.9609332    66.181075  0.018023169  0.018144526            4 
  307000   0.77361601   -7.9611955    66.122566  0.017948579  0.018088872            4 
  308000   0.77947552   -7.9364285    66.507343  0.017994411  0.018033639            4 
  309000   0.77708622   -7.9752814     66.13268  0.017835135  0.017978448            3 
  310000   0.76173746   -7.9765018    66.280334  0.017817294  0.017923467            3 
  311000   0.79418286   -7.9586693    66.354154  0.017779784  0.017868065            2 
  312000   0.76709684    -7.949354    66.137115  0.017664828  0.017812614            4 
  313000   0.77962362   -7.9612945    66.545267  0.017717057  0.017757528            3 
  314000   0.77034603   -7.9602834    66.720637  0.017707175  0.017703234            3 
  315000   0.76779091    -7.982425     66.67608  0.017639175  0.017649312            3 
  316000   0.75279592   -7.9589693    66.699834  0.017589619   0.01759573            1 
  317000   0.75671776   -7.9980419    66.797895  0.017559909  0.017542051            2 
  318000   0.74617893   -8.0019938    66.641149  0.017463613  0.017488376            2 
  319000   0.74226404   -8.0060583    66.687796  0.017421054  0.017434676            2 
  320000   0.75644241   -7.9883031    66.774035  0.017389072  0.017381043            1 
  321000   0.76003973   -8.0339127    66.854898  0.017355892  0.017327514            2 
  322000   0.75529633   -8.0118857    66.764038  0.017278478  0.017273526            3 
  323000   0.74782077   -8.0294539    66.802072  0.017234797   0.01721976            6 
  324000   0.75792495   -8.0229614    66.982564  0.017228026  0.017166524            4 
  325000   0.75334993   -8.0109869    66.951864  0.017167145   0.01711364            1 
  326000   0.74768506   -8.0284358    66.932476  0.017109529  0.017060546            1 
  327000   0.75345993   -8.0381061    67.083841   0.01709578  0.017007613            3 
  328000    0.7385745   -8.0493325    67.010413  0.017025003  0.016954974            1 
  329000   0.75114018   -8.0588453    66.984465  0.016966683  0.016902086            2 
  330000   0.73519032   -8.0470972    66.902433  0.016894554  0.016849051            3 
  331000   0.74035585   -8.0674012    67.001938  0.016868564  0.016795955            1 
  332000   0.74032561   -8.0756581    66.826987  0.016773842  0.016742634            3 
  333000   0.73081091   -8.0885114    66.813327  0.016720052  0.016689052            3 
  334000   0.73153875   -8.0827388    66.999865  0.016716533  0.016635718            2 
  335000   0.75274536   -8.0846577    66.910699  0.016644452  0.016582516            1 
  336000   0.72463603   -8.0569501    67.075556  0.016635802  0.016529776            2 
  337000   0.71767167   -8.0691424    67.065304  0.016583903  0.016477521            4 
  338000   0.72966844   -8.0690968    67.088775  0.016540625  0.016425613            3 
  339000   0.71796553    -8.066451    67.242165  0.016529539  0.016373978            2 
  340000     0.716814   -8.1015113    67.163166   0.01646156  0.016322296            5 
  341000    0.7063012    -8.088216    67.129838  0.016405141    0.0162705            4 
  342000   0.73314542   -8.1232301    67.167378   0.01636632  0.016218717            2 
  343000   0.71380677    -8.129401    67.096543  0.016301395  0.016166636            5 
  344000   0.71572897   -8.1173825    67.142437  0.016265125  0.016114688            4 
  345000   0.71743854   -8.1317282    67.193104  0.016230218  0.016063024            5 
  346000   0.70741094   -8.1298233    67.173699  0.016178636  0.016011277            2 
  347000   0.70062197   -8.1246482    67.050722  0.016102479   0.01595988            2 
  348000   0.72131877   -8.1308423     67.11585  0.016071803  0.015908282            3 
  349000   0.71923511   -8.1510163    67.040637  0.016007793  0.015856912            2 
  350000   0.73207238   -8.1489193    67.174545  0.015993939  0.015805646            4 
  351000    0.6988215   -8.1540826    67.165078  0.015946125  0.015754647            3 
  352000   0.70588743   -8.1357842    67.228565  0.015915853  0.015703684            1 
  353000   0.70784078   -8.1424017    67.210703  0.015866549  0.015652856            4 
  354000   0.70037788   -8.1421476    67.155222  0.015808668  0.015602088            3 
  355000   0.69375535   -8.1697485    67.162809  0.015765918  0.015551547            2 
  356000   0.70666186   -8.1597624    67.428667  0.015783864  0.015501008            2 
  357000   0.69851796   -8.1699906    67.240864  0.015695813  0.015450611            1 
  358000   0.69184072   -8.1841548    67.366583  0.015681234  0.015400554            3 
  359000   0.69323471   -8.1572887     67.19704  0.015598199  0.015350524            2 
  360000   0.67963657   -8.1849422    67.197016  0.015554865   0.01530026            1 
  361000   0.71063917   -8.1988009    67.337929  0.015544305  0.015250293            2 
  362000   0.68192596   -8.1992411     67.09627  0.015445734  0.015200379            1 
  363000   0.68933902   -8.2158176    67.149411  0.015415383  0.015150402            3 
  364000   0.69132003   -8.1939424    67.251533  0.015396413  0.015100502            2 
  365000   0.67509252   -8.1883717    67.195119  0.015341351  0.015050619            3 
  366000   0.69248798   -8.2078658    67.048724  0.015266103  0.015000716            2 
  367000   0.68981443   -8.2053867    67.205683  0.015260146  0.014951125            3 
  368000   0.66205399   -8.2141324    67.085387  0.015191437   0.01490156            4 
  369000   0.67700029   -8.2422063    67.194043  0.015174806   0.01485223            1 
  370000   0.67714017   -8.2275525    67.168973  0.015128147  0.014803105            2 
  371000   0.67951356    -8.251646    67.165491  0.015086588   0.01475395            2 
  372000   0.66985683   -8.2378399    67.362523  0.015090171  0.014705064            3 
  373000   0.68565781   -8.2303523    67.193976  0.015012059  0.014656395            2 
  374000   0.65769183   -8.2304172     67.20308  0.014973948  0.014607919            2 
  375000   0.66466323   -8.2529451    67.076155  0.014905812  0.014559582            2 
  376000   0.66750712    -8.276214    67.311068  0.014918233  0.014511398            2 
  377000   0.66853544   -8.2420932    67.196703  0.014853383  0.014463403            3 
  378000   0.67835224   -8.2437017    67.212044   0.01481747  0.014415684            2 
  379000    0.6684445   -8.2364205    67.267253  0.014790513  0.014368015            2 
  380000   0.64851987   -8.2706638    67.214536   0.01474003  0.014320398            3 
  381000   0.64250851   -8.2664705    67.228012   0.01470429  0.014272861            4 
  382000   0.64793402   -8.2666537    67.353619  0.014693198   0.01422552            2 
  383000   0.63976967   -8.2515128    67.253756  0.014633106  0.014178425            5 
  384000   0.65497814   -8.2542106    67.222531  0.014588223  0.014131342            4 
  385000   0.64730792   -8.2591077    67.253235  0.014556977  0.014084443            9 
  386000   0.64511126   -8.2772219    67.241127  0.014516651  0.014037717            1 
  387000   0.65594608   -8.2785175    67.110548  0.014451022  0.013990824            3 
  388000   0.65284855   -8.2769104    67.282806  0.014450774  0.013944067            2 
  389000   0.64160363   -8.2859164    67.113576  0.014377373  0.013897484            1 
  390000   0.64416715   -8.2619635    67.177892   0.01435425  0.013851123            1 
  391000    0.6431148   -8.3119386    67.134488  0.014308288  0.013804769            2 
  392000   0.62892735   -8.2896539    67.202719  0.014286292  0.013758385            1 
  393000   0.62855247   -8.2793134    67.233047  0.014256371   0.01371247            4 
  394000   0.63726561   -8.3144123    67.025932  0.014176381  0.013666606            1 
  395000   0.62971958   -8.3004422    67.062558  0.014148219  0.013620827            2 
  396000   0.63914739    -8.319153    67.052519  0.014110378  0.013575134            3 
  397000   0.62873284   -8.3154666    67.082881  0.014081209  0.013529652            2 
  398000   0.63804041   -8.3059101    67.005524  0.014029632  0.013484281            2 
  399000   0.64094741   -8.3218491    67.128678  0.014020192  0.013439055            4 
  400000   0.63911937   -8.3250335    67.147107  0.013988981  0.013394033            2 
  401000   0.63186461   -8.3254267    66.984443  0.013920292  0.013349104            2 
  402000   0.61222885    -8.348353    66.985319  0.013885845  0.013304392            3 
  403000    0.6262267   -8.3480807     67.04991  0.013864746   0.01325961            2 
  404000   0.63941463   -8.3113456    67.040839  0.013828556  0.013215106            5 
  405000   0.60667842   -8.3511733      67.1538  0.013817654  0.013170641            3 
  406000   0.61550298   -8.3503491    67.001586  0.013752378  0.013126335            3 
  407000   0.61350398   -8.3537621    67.049316  0.013728361  0.013082232            2 
  408000   0.61003463   -8.3714703    67.036428  0.013692081  0.013038103            2 
  409000   0.60506178   -8.3614705    67.004243  0.013652046  0.012994125            3 
  410000   0.61465507   -8.3619326    66.947042  0.013607122    0.0129503            3 
  411000   0.60673036   -8.3635826    67.025085  0.013589839  0.012906663            2 
  412000   0.61062427   -8.3849329    67.004457  0.013552681  0.012863216            4 
  413000   0.61148649   -8.3697954    66.921042  0.013503035  0.012819832            2 
  414000    0.6104318   -8.3939762    67.027852  0.013491919  0.012776708            1 
  415000   0.59874175   -8.3527027    66.958183  0.013445418  0.012733569            3 
  416000   0.60046775    -8.406299    66.935813  0.013408616  0.012690544            2 
  417000   0.61038233   -8.3984915    66.922994    0.0133739  0.012647694            1 
  418000   0.60174363   -8.3886566    66.781893  0.013313775  0.012604924            3 
  419000   0.60671804   -8.4052939    66.832705  0.013292105   0.01256247            3 
  420000   0.60925816   -8.4267838    66.812752  0.013256498   0.01252005            2 
  421000   0.59349566   -8.4065157    66.822283  0.013226897  0.012477871            2 
  422000   0.58225015   -8.3933514    66.698165  0.013171044  0.012435814            3 
  423000   0.58622679   -8.4136232    66.800983  0.013160162  0.012393954            3 
  424000   0.59953383   -8.3993358    66.740983  0.013117332  0.012352164            4 
  425000   0.59051389   -8.4010699    66.754853  0.013089187  0.012310579            2 
  426000   0.59422465   -8.4059855    66.661084  0.013040118  0.012268989            3 
  427000   0.58632434   -8.3957045    66.809788    0.0130386  0.012227605            3 
  428000   0.59226878   -8.4064543    66.801072  0.013006439  0.012186382            3 
  429000   0.58629524   -8.4124855    66.820202  0.012979837  0.012145251            4 
  430000   0.59169829   -8.4394844    66.651578  0.012916972  0.012104255            5 
  431000   0.58304085   -8.4182733    66.712921  0.012898863  0.012063395            6 
  432000    0.5765548   -8.4312986    66.782582  0.012882443  0.012022815            2 
  433000   0.58200073   -8.4236715    66.776996  0.012851616   0.01198228            4 
  434000   0.56667518   -8.4436447    66.816871   0.01282966   0.01194198            3 
  435000   0.56795781   -8.4450478    66.720228  0.012781653  0.011901736            5 
  436000   0.57887623   -8.4415196    66.879336  0.012782748  0.011861695            1 
  437000   0.57396098   -8.4606784    66.706563   0.01272055  0.011821746            3 
  438000   0.57499731   -8.4419774    66.777278  0.012704962  0.011781996            2 
  439000   0.57281538   -8.4620622    66.692907  0.012660005  0.011742386            3 
  440000   0.57459407   -8.4517882    66.626944  0.012618739  0.011702929            5 
  441000   0.56405445   -8.4578378    66.673629  0.012598947  0.011663597            3 
  442000    0.5650362   -8.4801878    66.606331  0.012557755  0.011624427            2 
  443000   0.56130786   -8.4675825    66.715888  0.012550017  0.011585369            4 
  444000   0.55681911   -8.4784525    66.668144   0.01251279  0.011546422            3 
  445000   0.56366324   -8.4538052    66.739378  0.012498011  0.011507746            5 
  446000   0.56323448   -8.4590339    66.651105  0.012453495  0.011469281            2 
  447000    0.5480153   -8.4690116    66.627972  0.012421322  0.011430906            2 
  448000   0.55332448   -8.4752428    66.680788   0.01240342  0.011392622            2 
  449000    0.5523241   -8.4806438    66.602882  0.012361337  0.011354472            2 
  450000   0.55066992    -8.479331    66.626587  0.012338257  0.011316537            3 
  451000   0.55179736   -8.4824947    66.673186   0.01231951  0.011278761            2 
  452000   0.54154907   -8.4948926    66.612089   0.01228099  0.011241197            4 
  453000   0.54135511   -8.4786457    66.791705  0.012286921  0.011203715            1 
  454000   0.54128249   -8.4857227      66.6297  0.012230121  0.011166399            4 
  455000   0.53383182   -8.4880902     66.59594  0.012197059   0.01112925            2 
  456000   0.52930212    -8.495972     66.54567  0.012161124  0.011092256            3 
  457000   0.54238431   -8.5013236      66.6196  0.012147994  0.011055363            3 
  458000   0.52754655   -8.5050717    66.696258  0.012135418  0.011018556            2 
  459000   0.53011409   -8.5186318    66.633411  0.012097569  0.010981994            2 
  460000   0.53055811   -8.5240236    66.514708  0.012049766  0.010945519            2 
  461000   0.54104153   -8.5193801    66.484731  0.012018209  0.010909223            4 
  462000   0.52452889   -8.4985583    66.586511  0.012010554  0.010872988            2 
  463000   0.52975998   -8.5180045    66.527326  0.011973961  0.010836985            2 
  464000   0.52020665   -8.5201775    66.551489  0.011952494  0.010801037            2 
  465000   0.53091319   -8.5224984    66.551946  0.011926872  0.010765291            3 
  466000   0.51891293   -8.5261901    66.623164  0.011914014  0.010729628            1 
  467000   0.52089469   -8.5404948    66.526685  0.011871286  0.010694091            3 
  468000   0.52817793   -8.5357152    66.462764  0.011834538  0.010658752            5 
  469000   0.52741352   -8.5273649    66.626015  0.011838311  0.010623567            2 
  470000   0.52064924   -8.5203513     66.47804  0.011786887   0.01058846            1 
  471000   0.51545411   -8.5139043      66.4899   0.01176396  0.010553505            1 
  472000   0.51615706   -8.5469418    66.470057  0.011735533  0.010518629            1 
  473000   0.51711529    -8.534688    66.485084  0.011713369  0.010483919            3 
  474000   0.50612257   -8.5384312     66.46441  0.011685023  0.010449356            3 
  475000   0.50763237   -8.5765063    66.457519  0.011659214  0.010414899            2 
  476000   0.51684065   -8.5547834    66.464177  0.011635885  0.010380564            2 
  477000   0.50198426   -8.5739871    66.422249  0.011604167  0.010346398            2 
  478000   0.49107392   -8.5789597    66.461278  0.011586694  0.010312391            2 
  479000   0.49639759   -8.5822312    66.413398  0.011554175  0.010278478            2 
  480000   0.50913402   -8.5651597    66.337363  0.011516903  0.010244778            1 
  481000   0.49352874   -8.5557714    66.441839   0.01151106  0.010211131            2 
  482000   0.48836339   -8.5868252    66.282335  0.011459601  0.010177749            2 
  483000   0.48723501    -8.575116    66.487478  0.011471269  0.010144425            1 
  484000   0.49473539   -8.5537822    66.339201  0.011422039  0.010111249            3 
  485000   0.48636205     -8.58318    66.333569  0.011397521  0.010078202            1 
  486000   0.50560504   -8.5945884     66.33547  0.011374395  0.010045258            2 
  487000   0.49755252   -8.6066154    66.420373  0.011365567  0.010012466            2 
  488000   0.48877985   -8.5855667    66.358448  0.011331702  0.009979746            2 
  489000   0.49162755    -8.584942    66.325634  0.011302937 0.0099471778            2 
  490000   0.48807503   -8.5824987    66.377215  0.011288642  0.009914825            1 
  491000   0.47252655   -8.6019045    66.358477  0.011262471 0.0098825854            1 
  492000   0.48305967   -8.6185256    66.307783  0.011230993 0.0098504866            4 
  493000   0.47169652   -8.6023597    66.356467  0.011216441 0.0098185134            1 
  494000   0.47457571   -8.6048896    66.354061   0.01119333 0.0097866805            2 
  495000   0.48565702    -8.602579     66.29187  0.011160248  0.009754965            2 
  496000   0.46963701   -8.6167069     66.34539  0.011146739 0.0097234258            1 
  497000    0.4736107   -8.6162515     66.37453  0.011129197 0.0096920008            2 
  498000   0.47857651   -8.6224241    66.221828  0.011081296 0.0096607292            1 
  499000   0.46439707   -8.6254335    66.317752  0.011075109 0.0096295471            1 
  500000    0.4752356   -8.6162532    66.364736  0.011060789 0.0095984806            2 
  501000   0.46546475    -8.617081    66.363191  0.011038455  0.009567563            3 
  502000   0.45696916   -8.6142253    66.254165  0.010998367 0.0095367435            2 
  503000   0.46202897   -8.6137001    66.270411  0.010979193  0.009506079            1 
  504000   0.45963479   -8.6324241    66.190076  0.010944126 0.0094754626            2 
  505000   0.46502901   -8.6141764    66.276687  0.010936747 0.0094449938            2 
  506000   0.46529805   -8.6292786     66.30407  0.010919643 0.0094146092            2 
  507000     0.461928   -8.6321099    66.195853  0.010880318 0.0093843594            2 
  508000   0.43941912   -8.6346597    66.264278  0.010870124 0.0093542235            2 
  509000   0.45736599   -8.6379614    66.191552  0.010836862 0.0093242539            4 
  510000   0.45904884   -8.6262761    66.291837  0.010831999 0.0092943904            2 
  511000   0.45404626   -8.6430446    66.173828  0.010791557 0.0092646293            3 
  512000   0.46639599   -8.6588431    66.167153  0.010769393 0.0092350485            1 
Loop time of 1190.7 on 48 procs for 500000 steps with 4000 atoms

Performance: 72562.418 tau/day, 419.921 timesteps/s
99.4% CPU use with 48 MPI tasks x no OpenMP threads

MPI task timing breakdown:
Section |  min time  |  avg time  |  max time  |%varavg| %total
---------------------------------------------------------------
Pair    | 73.817     | 79.43      | 84.951     |  32.0 |  6.67
Neigh   | 7.7334     | 8.1606     | 8.4959     |   6.6 |  0.69
Comm    | 76.124     | 81.988     | 88.54      |  35.1 |  6.89
Output  | 0.8388     | 0.83934    | 0.84835    |   0.1 |  0.07
Modify  | 1006.7     | 1009.1     | 1011.3     |   3.1 | 84.75
Other   |            | 11.22      |            |       |  0.94

Nlocal:        83.3333 ave          92 max          75 min
Histogram: 1 5 4 5 10 10 4 5 3 1
Nghost:        2063.48 ave        2087 max        2041 min
Histogram: 4 4 1 7 6 7 11 4 2 2
Neighs:        13369.6 ave       15069 max       11647 min
Histogram: 1 3 6 7 9 7 5 2 4 4
FullNghs:      26738.2 ave       29767 max       23905 min
Histogram: 2 3 5 7 9 8 8 3 2 1

Total # of neighbors = 1283436
Ave neighs/atom = 320.85900
Neighbor list builds = 26784
Dangerous builds = 0

#clear
#
#next RN
#
#jump SELF
Total wall time: 0:19:53
