
units lj                  # Use reduced LJ style units
atom_style atomic         # Uncharged point particles
atom_modify map hash      # Needed for indexing of clusters etc
                          # Used to be able to find where atoms are in relation to each other.

lattice fcc 1.0 spacing 1 1 1
Lattice spacing in x,y,z = 1.5874011 1.5874011 1.5874011
region box block 0 10 0 10 0 10 units lattice
create_box 2 box
Created orthogonal box = (0.0000000 0.0000000 0.0000000) to (15.874011 15.874011 15.874011)
  3 by 4 by 4 MPI processor grid
create_atoms 1 box
Created 4000 atoms
  using lattice units in orthogonal box = (0.0000000 0.0000000 0.0000000) to (15.874011 15.874011 15.874011)
  create_atoms CPU = 0.003 seconds
set type 1 type/fraction 2 0.39 78393
Setting atom values ...
  1580 settings made for type/fraction
mass 1 1.0
mass 2 1.0
pair_style lj/cut  3.5
pair_modify tail  yes
pair_coeff 1  1  1.0  1.0   # Intearaction between 1 and 1 set with epsilon = 1 and sigma = 1
pair_coeff 1  2  1.5  0.8
pair_coeff 2  2  0.5  0.88

write_data data.0
System init for write_data ...
Neighbor list info ...
  update every 1 steps, delay 10 steps, check yes
  max neighbors/atom: 2000, page size: 100000
  master list distance cutoff = 3.8
  ghost atom cutoff = 3.8
  binsize = 1.9, bins = 9 9 9
  1 neighbor lists, perpetual/occasional/extra = 1 0 0
  (1) pair lj/cut, perpetual
      attributes: half, newton on
      pair build: half/bin/atomonly/newton
      stencil: half/bin/3d
      bin: standard
WARNING: Not all mixed pair coeffs generated from mixing. Use write_data with 'pair ij' option to store all pair coeffs. (../write_data.cpp:312)


#############################
#   M E L T   S Y S T E M   #
#############################

velocity all create 2.4 3143649 mom yes dist gaussian # Assign velocities
                                                    # Temperature 2.4, random number seed, zero linear momentum
                                                                                # Gaussian distribution

timestep 0.002   # simulation timestep
thermo 1000       # output thermodynamic data every 1000 steps bf 100

# Define a fix  in this case with index 1 applied to all
# particles in the simulation. This fix is for simulations
# in the anisotropic NPT ensemble. Note that we use the MTK
# correction.
fix 1 all npt temp 2.4 2.4 0.1 iso 5.68 5.68 0.5 mtk yes tchain 5 pchain 5 # Use NPT ensemble
                                                                         # Set temperature and pressure and damping
                                                                         # Numbers of thermostats in chain and in barostat
run 10000          # run for 10000 steps
Per MPI rank memory allocation (min/avg/max) = 3.642 | 3.644 | 3.648 Mbytes
Step Temp E_pair E_mol TotEng Press Volume 
       0          2.4   -5.9084669            0   -2.3093669   -4.1681406         4000 
    1000    2.4116359   -5.0570154            0   -1.4404659    5.6145536    3908.9751 
    2000    2.4142049   -5.0858961            0   -1.4654942     5.694563    3891.4305 
    3000    2.4358265   -5.1266176            0   -1.4737912    5.5326589     3880.572 
    4000    2.3586552   -5.0809452            0   -1.5438469    5.2828313    3917.6248 
    5000    2.4287135   -4.9694648            0   -1.3273054    5.8159132    3933.5854 
    6000    2.3938669   -5.0651843            0   -1.4752816    5.1840589    3934.9211 
    7000    2.4456458   -5.0113822            0   -1.3438306      5.61927    3933.7389 
    8000    2.3963238   -5.0227264            0   -1.4291393    5.8779841    3898.9925 
    9000    2.4265288   -5.0406764            0   -1.4017932    5.7419353    3914.8277 
   10000    2.4464691   -5.1199875            0   -1.4512013    5.9055221     3858.545 
Loop time of 2.49208 on 48 procs for 10000 steps with 4000 atoms

Performance: 693396.386 tau/day, 4012.711 timesteps/s
99.6% CPU use with 48 MPI tasks x no OpenMP threads

MPI task timing breakdown:
Section |  min time  |  avg time  |  max time  |%varavg| %total
---------------------------------------------------------------
Pair    | 1.1017     | 1.1708     | 1.2513     |   3.0 | 46.98
Neigh   | 0.20474    | 0.21519    | 0.22337    |   0.9 |  8.64
Comm    | 0.77144    | 0.84821    | 0.94604    |   3.9 | 34.04
Output  | 0.00023609 | 0.000241   | 0.00031303 |   0.0 |  0.01
Modify  | 0.21683    | 0.24255    | 0.28501    |   4.3 |  9.73
Other   |            | 0.01506    |            |       |  0.60

Nlocal:        83.3333 ave          92 max          75 min
Histogram: 3 2 7 3 10 9 5 3 5 1
Nghost:        1682.46 ave        1709 max        1654 min
Histogram: 4 0 8 1 7 9 10 4 4 1
Neighs:        9887.90 ave       11440 max        8498 min
Histogram: 3 0 4 9 8 14 4 4 1 1

Total # of neighbors = 474619
Ave neighs/atom = 118.65475
Neighbor list builds = 905
Dangerous builds = 205

# Equilibrate just above the melting temperature to avoid step fn in T

fix 1 all npt temp 1.25 1.25 0.1 iso 5.68 5.68 0.5 mtk yes tchain 5 pchain 5
run 2000
Per MPI rank memory allocation (min/avg/max) = 3.643 | 3.645 | 3.649 Mbytes
Step Temp E_pair E_mol TotEng Press Volume 
   10000    2.4464691   -5.1199875            0   -1.4512013    5.9055221     3858.545 
   11000      1.25692   -7.0218159            0   -5.1369073    5.8928504     3099.669 
   12000    1.2513761   -7.0419384            0   -5.1653435    5.6819307    3102.0811 
Loop time of 0.594043 on 48 procs for 2000 steps with 4000 atoms

Performance: 581776.168 tau/day, 3366.760 timesteps/s
99.6% CPU use with 48 MPI tasks x no OpenMP threads

MPI task timing breakdown:
Section |  min time  |  avg time  |  max time  |%varavg| %total
---------------------------------------------------------------
Pair    | 0.26564    | 0.28816    | 0.30568    |   1.9 | 48.51
Neigh   | 0.03849    | 0.041071   | 0.044078   |   0.6 |  6.91
Comm    | 0.19781    | 0.21707    | 0.2423     |   2.4 | 36.54
Output  | 5.0699e-05 | 5.1759e-05 | 6.6835e-05 |   0.0 |  0.01
Modify  | 0.039274   | 0.043003   | 0.046082   |   0.9 |  7.24
Other   |            | 0.00469    |            |       |  0.79

Nlocal:        83.3333 ave          91 max          77 min
Histogram: 2 2 13 4 4 9 6 7 0 1
Nghost:        1946.10 ave        1966 max        1926 min
Histogram: 1 4 3 4 8 8 13 3 3 1
Neighs:        12306.7 ave       13725 max       11096 min
Histogram: 3 4 6 6 5 11 8 3 0 2

Total # of neighbors = 590723
Ave neighs/atom = 147.68075
Neighbor list builds = 143
Dangerous builds = 8

#############################
# L I N E A R  Q U E N C H  #
#############################

# Define solid atoms. This closely follows ten Wolde  Ruiz-Montero and Frenkel  Faraday Discuss  1996  104  93-110
# Compute components of the per-atom q6 vector
compute q6 all orientorder/atom degrees 1 6 components 6 nnn NULL cutoff 1.3 # compute the Q6 parameter.
                                                                             # Use all neighbours within 1.3 unit cell.

# get number of connections
compute coord_number all coord/atom orientorder q6 0.5

# An atom is solid if it has 8 or more connections (of a possible 14)
variable is_solid atom c_coord_number>=8
group solid dynamic all var is_solid    # Must be dynamic to update
dynamic group solid defined

# do clustering
compute cluster solid cluster/atom 1.3 # Create a cluster where all atoms within are solid and max 1.3 units from another member

# define chunks one chunk per cluster
compute clus_chunks solid chunk/atom c_cluster nchunk every compress yes  # Says which atoms are in which chunk

# count the size of each chunk
compute size_chunks solid property/chunk clus_chunks count


# Find the maximum entry in the vector of chunk sizes
variable max_n equal max(c_size_chunks)


# Thermo style which includes this variable
# thermo_style custom step temp pe vol v_max_n

thermo ${N}  # Print the thermo information every 100 steps
thermo 1000  

# Reset the npt fix at a lower temperature (below freezing)
fix 1  all npt temp  ${temp} ${temp}  0.1  iso  5.68  5.68  0.5  mtk yes tchain  5  pchain  5
fix 1  all npt temp  0.45 ${temp}  0.1  iso  5.68  5.68  0.5  mtk yes tchain  5  pchain  5
fix 1  all npt temp  0.45 0.45  0.1  iso  5.68  5.68  0.5  mtk yes tchain  5  pchain  5

dump dmp2 all dcd ${N} traj.dcd
dump dmp2 all dcd 1000 traj.dcd


compute msd all msd com yes
variable twopoint equal c_msd[4]/6/(step*dt+1.0e-6)
fix 9 all vector 10 c_msd[4]
variable fit equal slope(f_9)/6/(10*dt)
thermo_style custom step temp pe c_msd[4] v_twopoint v_fit v_max_n

fix 1 all npt temp 1.25 ${temp} 0.1 iso 5.68 5.68 0.5 mtk yes tchain 5 pchain 5
fix 1 all npt temp 1.25 0.45 0.1 iso 5.68 5.68 0.5 mtk yes tchain 5 pchain 5
run 5000000 # 5000000  # Run for this many steps
Neighbor list info ...
  update every 1 steps, delay 10 steps, check yes
  max neighbors/atom: 2000, page size: 100000
  master list distance cutoff = 3.8
  ghost atom cutoff = 3.8
  binsize = 1.9, bins = 8 8 8
  4 neighbor lists, perpetual/occasional/extra = 1 3 0
  (1) pair lj/cut, perpetual
      attributes: half, newton on
      pair build: half/bin/atomonly/newton
      stencil: half/bin/3d
      bin: standard
  (2) compute orientorder/atom, occasional
      attributes: full, newton on
      pair build: full/bin/atomonly
      stencil: full/bin/3d
      bin: standard
  (3) compute coord/atom, occasional
      attributes: full, newton on
      pair build: full/bin/atomonly
      stencil: full/bin/3d
      bin: standard
  (4) compute cluster/atom, occasional
      attributes: full, newton on
      pair build: full/bin/atomonly
      stencil: full/bin/3d
      bin: standard
Per MPI rank memory allocation (min/avg/max) = 9.820 | 9.829 | 9.835 Mbytes
Step Temp PotEng c_msd[4] v_twopoint v_fit v_max_n 
   12000    1.2513761   -7.0419384 9.6043815e-31 6.6697091e-33 8.3333333e+20            3 
   13000    1.2333634   -7.0534215   0.49243129 0.0031566107  0.039649592            1 
   14000    1.2558018   -7.1390681   0.95282029 0.0056715491  0.039117023            1 
   15000    1.2164592   -7.0843688    1.3660672  0.007589262  0.037629021            1 
   16000    1.2449058   -7.0554769    1.7598727 0.0091660032  0.036293212            1 
   17000    1.2067556   -7.1055096    2.1510976  0.010544596  0.035521539            2 
   18000     1.283511   -7.0750345     2.563413  0.011867653  0.034762923            2 
   19000    1.2830255   -7.1275254    2.9800488  0.013070389  0.034635327            3 
   20000    1.2495298   -7.0609078    3.4342878  0.014309532   0.03455417            2 
   21000    1.2584927   -7.0993652    3.8672013  0.015346037  0.034781386            2 
   22000    1.2466558   -7.0951043    4.2880797  0.016242726  0.034978612            2 
   23000    1.2419856   -7.0951635    4.7746733   0.01729954  0.035212252            1 
   24000    1.2527059   -7.1398166    5.2031547  0.018066509  0.035426035            1 
   25000     1.223685   -7.0982868     5.600273  0.018667576  0.035528888            5 
   26000    1.2308348   -7.0918863    6.0662669  0.019443163  0.035596577            1 
   27000    1.2642528    -7.088652    6.4483449  0.019902299  0.035631877            1 
   28000    1.2321945    -7.113307    6.9156961  0.020582429  0.035641358            2 
   29000    1.2558334   -7.0895819    7.3355418  0.021079143  0.035632302            2 
   30000    1.2726605   -7.0802214    7.7457437  0.021515954   0.03565595            3 
   31000    1.2418297    -7.105004    8.1907251  0.022018078  0.035664264            3 
   32000    1.2609302   -7.0684755    8.8448252  0.023033399  0.035822326            3 
   33000    1.2426484   -7.1424674    9.2975984  0.023478783   0.03607478            1 
   34000    1.2415664    -7.073158    9.7195037  0.023822313  0.036251851            1 
   35000     1.233448    -7.057167    10.161396    0.0241938  0.036414925            1 
   36000    1.2457964   -7.1020533    10.508663  0.024325609  0.036474245            2 
   37000     1.275149   -7.0742005    10.866038  0.024473059  0.036462646            2 
   38000    1.2496621   -7.0770941    11.407709  0.025016906  0.036457445            1 
   39000    1.2200371   -7.0832511    11.878554  0.025381524  0.036492622            1 
   40000    1.2375635   -7.1309702    12.248694  0.025518111  0.036500853            2 
   41000    1.2530946   -7.0763628    12.763131  0.025941322  0.036536033            1 
   42000    1.2485337   -7.0916721    13.155197  0.026101581  0.036588075            2 
   43000    1.2168354   -7.1087685    13.536738  0.026233987  0.036583124            1 
   44000    1.2437269   -7.0488358    14.006297  0.026527077  0.036557649            1 
   45000    1.2204045   -7.0603992    14.435699  0.026732776  0.036546437            2 
   46000    1.2388246   -7.1215682    14.807452  0.026825094  0.036542576            1 
   47000     1.239888    -7.048557    15.345234  0.027207862  0.036515311            2 
   48000    1.2353867   -7.0945759    15.799145  0.027429071  0.036516441            3 
   49000    1.2344001   -7.1068998    16.215811  0.027577909  0.036528871            2 
   50000    1.2441787   -7.1309042    16.634956  0.027724926  0.036533413            2 
   51000    1.2396206     -7.09566    17.088646  0.027922624  0.036531396            1 
   52000    1.2325762   -7.1230844    17.631447  0.028255523  0.036563459            1 
   53000    1.2515083   -7.0424565    18.275432  0.028734956  0.036617015            1 
   54000    1.2611916   -7.0693099    18.772704  0.028970222  0.036705414            3 
   55000    1.2420332    -7.089138    19.017102  0.028813791  0.036768462            2 
   56000    1.2127021    -7.102457    19.393809  0.028859834  0.036796248            2 
   57000    1.2608314   -7.1076278    19.959158  0.029180055  0.036830635            1 
   58000    1.2444139   -7.1065653    20.507191  0.029464355  0.036879792            1 
   59000    1.2360621   -7.0600796     20.96893  0.029617133  0.036923591            1 
   60000    1.2242258   -7.1405414    21.335325  0.029632396  0.036956852            5 
   61000    1.2403943   -7.1357415    21.860108  0.029863535  0.037018128            2 
   62000    1.2761288   -7.0985014    22.344745  0.030033259  0.037062989            1 
   63000    1.2725958   -7.1639603    22.758661  0.030104049  0.037104104            1 
   64000     1.264278   -7.1115384    23.291488  0.030327459  0.037144809            1 
   65000     1.258717   -7.1067065    23.747517  0.030445535  0.037186817            1 
   66000    1.2371164   -7.0729314    24.522321  0.030962527  0.037257603            2 
   67000    1.2621964   -7.1091163     24.74666  0.030779428  0.037331472            1 
   68000    1.2107494   -7.1072892    25.112622  0.030775271  0.037370905            1 
   69000    1.2401876   -7.1465871    25.617829  0.030939407  0.037403536            1 
   70000     1.195085   -7.1174687    26.168354  0.031152802   0.03744279            1 
   71000    1.2387907   -7.1239066    26.665368   0.03129738  0.037490413            1 
   72000    1.2149764   -7.1108044    27.273746  0.031566836  0.037553076            3 
   73000    1.2476016   -7.1051632     27.71737  0.031640833  0.037613658            1 
   74000    1.2365235   -7.0971525    28.069281   0.03160955  0.037662765            2 
   75000    1.2119303   -7.1435773    28.507052  0.031674502  0.037700554            1 
   76000    1.2410371   -7.1422329    29.012598   0.03181206  0.037744322            2 
   77000    1.2403504    -7.106403     29.26777  0.031675076  0.037769875            1 
   78000    1.2250409    -7.110196    29.577477  0.031599869  0.037766751            2 
   79000    1.2444798   -7.1566537    29.886079    0.0315254  0.037752505            2 
   80000    1.2236059   -7.1038189    30.381903  0.031647815  0.037741735            2 
   81000    1.2573703   -7.1092108      30.9827  0.031875206  0.037746083            1 
   82000    1.2415175   -7.0648262    31.376533  0.031886721  0.037748331            1 
   83000    1.2551083   -7.0556205    32.156516  0.032285659  0.037752498            1 
   84000    1.2284506    -7.101711     32.37186   0.03211494   0.03775945            1 
   85000    1.2260296   -7.0539711    32.966352  0.032319953  0.037769931            2 
   86000    1.2222203   -7.1152213    33.341708  0.032307857  0.037783751            1 
   87000    1.2503979    -7.115344    34.097301   0.03266025  0.037807223            2 
   88000     1.237348   -7.0998755    34.479008  0.032650576  0.037834099            2 
   89000    1.2307752   -7.0789116    35.010791  0.032781639  0.037860488            1 
   90000    1.2442344   -7.1131422    35.068514  0.032470846   0.03786705            1 
   91000    1.2293019   -7.0993128    35.395249  0.032413231  0.037857886            2 
   92000    1.2534518    -7.130274    35.855365  0.032477686  0.037842641            1 
   93000    1.2152591   -7.1275526    36.347902  0.032569804  0.037829808            2 
   94000    1.2329433   -7.1348954    36.644996  0.032486699  0.037815468            1 
   95000    1.2486386   -7.1129712    37.038316  0.032489751  0.037793403            1 
   96000    1.2449195   -7.1409413     37.58436  0.032625313  0.037773668            2 
   97000    1.2345537   -7.0879528    38.073755  0.032709411  0.037760897            1 
   98000    1.2311622   -7.1083373     38.18927  0.032473869  0.037742537            1 
   99000    1.2516691   -7.1694874    38.580506  0.032475173    0.0377201            1 
  100000    1.2589096   -7.1566558    39.110663  0.032592219  0.037696203            2 
  101000    1.2235175   -7.1134925    39.479547  0.032573884  0.037664328            2 
  102000    1.2728919   -7.1125159    39.961822  0.032648547  0.037633273            2 
  103000    1.2541009   -7.1384318    40.127593   0.03246569  0.037597251            2 
  104000    1.2106647   -7.1221012    40.459338  0.032419341  0.037554078            2 
  105000    1.2262702   -7.1685443      40.9308  0.032484762  0.037512002            1 
  106000    1.2703103   -7.0952187    41.560739  0.032673537  0.037476536            1 
  107000    1.2372819   -7.1500226    41.936706  0.032660986  0.037442241            2 
  108000    1.2133274   -7.0543732    42.637542  0.032899338  0.037414054            3 
  109000    1.2346517   -7.1104886    42.811794  0.032730729  0.037384558            2 
  110000    1.2483782   -7.1223548    43.255991   0.03276969  0.037358202            1 
  111000    1.2105643   -7.1242045    43.492121  0.032651743  0.037331511            1 
  112000    1.2627401   -7.1435936     44.06583  0.032787076  0.037299408            1 
  113000    1.2206559   -7.1554812    44.340744  0.032699663  0.037267536            4 
  114000    1.2144469   -7.1009001    44.909489  0.032828574  0.037235889            2 
  115000    1.2105979   -7.1363456    44.895509  0.032532977  0.037199073            1 
  116000    1.2172178   -7.1749764    45.273524  0.032524083  0.037154359            2 
  117000    1.2117463   -7.1256678    45.857555  0.032662076  0.037114171            1 
  118000    1.2097192    -7.142459    46.406107  0.032772674  0.037075201            1 
  119000    1.2153298   -7.1391477    46.633515  0.032656523  0.037038878            2 
  120000    1.2494192   -7.0699276    47.295226  0.032843907  0.037006664            2 
  121000    1.2177631   -7.0815977    47.639949  0.032809882   0.03697019            1 
  122000    1.2515227   -7.1486563    47.796435  0.032647838   0.03693243            1 
  123000    1.2164024   -7.1309264    48.270924  0.032703878   0.03689487            5 
  124000    1.2237415   -7.1773367    48.500863  0.032594666  0.036854195            3 
  125000    1.2479634   -7.1323985    48.924587  0.032616391  0.036812238            1 
  126000     1.253235   -7.1613944    49.438962  0.032697726  0.036772825            2 
  127000    1.2241683   -7.1669791    49.704025  0.032614189  0.036733911            2 
  128000    1.2386749   -7.1335534     50.33751  0.032771816  0.036696536            4 
  129000    1.2545201   -7.1104483     50.43664  0.032581809  0.036652876            2 
  130000    1.2236826   -7.1381218    50.646321   0.03246559  0.036606049            1 
  131000    1.2257769   -7.1537864    51.464714  0.032738367  0.036563933            3 
  132000    1.2610681   -7.1247044    51.626368  0.032592404  0.036525874            1 
  133000    1.2162203   -7.1098405    52.162982  0.032683572  0.036486915            2 
  134000     1.249864   -7.1523847    52.479765   0.03263667  0.036448236            1 
  135000    1.2155825   -7.1897403    52.824968  0.032608005   0.03640656            2 
  136000    1.2236326   -7.1023956     53.33528  0.032680931   0.03636824            1 
  137000     1.236468   -7.1605633    53.676009  0.032649641  0.036330838            4 
  138000    1.2246232   -7.1750683    53.941213  0.032573196  0.036291309            1 
  139000    1.2370352   -7.1672428    54.317381  0.032564377  0.036255651            1 
  140000    1.2285707   -7.1510344    54.841192  0.032643567  0.036216466            1 
  141000    1.2271337   -7.1630811    55.206401  0.032627896  0.036180521            2 
  142000    1.2665702    -7.138314    55.506877  0.032574459  0.036143546            2 
  143000    1.2170942   -7.1151138    56.265465  0.032788733  0.036111789            1 
  144000    1.2507449   -7.1624357    56.750657  0.032841815   0.03608693            2 
  145000    1.2390913   -7.1241961    57.200408  0.032873798  0.036061289            1 
  146000    1.2659294   -7.1566004    57.625594  0.032891321  0.036040317            1 
  147000    1.2477905   -7.1253609    58.191607  0.032988439  0.036021099            1 
  148000    1.2237253   -7.1409245    58.388783  0.032876567  0.036001762            2 
  149000     1.244298    -7.122921    59.132432   0.03307183  0.035981089            1 
  150000    1.2270674   -7.1368369    59.304071  0.032946706  0.035960078            2 
  151000    1.2483581   -7.1210517    59.728801  0.032962914  0.035939333            1 
  152000    1.2327344   -7.1530444    59.733072  0.032748395  0.035917227            2 
  153000    1.2240916   -7.1558021    60.376508  0.032884808  0.035892021            2 
  154000    1.2241823   -7.1278477    60.356299  0.032660335  0.035863467            3 
  155000    1.2117741   -7.1483414    60.880771  0.032731597  0.035836334            2 
  156000    1.2084061   -7.1270171     61.57775  0.032894097  0.035809115            1 
  157000    1.2086384   -7.1457325    61.801013  0.032803085  0.035782554            1 
  158000    1.2101505   -7.1304035    62.147026  0.032777967  0.035756957            2 
  159000    1.2323255   -7.1388295     62.53862  0.032777054  0.035729275            2 
  160000    1.2313393   -7.2058987    62.668185  0.032639679  0.035702555            3 
  161000    1.2378966    -7.187222    63.376048  0.032803337  0.035676463            1 
  162000    1.2176345   -7.1442279    63.529316  0.032679689  0.035650061            2 
  163000    1.2278414    -7.155066     64.32426  0.032885613  0.035624973            1 
  164000     1.218553   -7.1213649    64.709943  0.032881068  0.035603156       -1e+20 
  165000    1.2349904   -7.1068577    65.528673  0.033095289  0.035584541            1 
  166000    1.2415274   -7.1764208     65.71933  0.032991631  0.035568681            1 
  167000    1.2079442   -7.1612235    66.067358  0.032967743  0.035552283            2 
  168000    1.2130739   -7.1632293    66.615038  0.033043173  0.035538034            2 
  169000    1.2216395   -7.1544063    67.282552  0.033176801  0.035530237            3 
  170000    1.2317083   -7.1344065    67.554863  0.033115129  0.035522391            1 
  171000    1.2444956   -7.1380472    68.367978  0.033317728  0.035515111            2 
  172000    1.2204833   -7.1156035    68.916067  0.033389567  0.035508814            3 
  173000    1.2546486   -7.1448798    69.210239  0.033338266  0.035503891            1 
  174000    1.2219973    -7.111748    69.773255   0.03341631  0.035500437            2 
  175000    1.2306188   -7.1808678    69.828026  0.033251441  0.035497218            2 
  176000    1.2042023   -7.0951782    70.491615  0.033376712  0.035491699            1 
  177000    1.2364414   -7.1442915    70.639915  0.033257964  0.035486354            1 
  178000    1.2137029   -7.1558096    71.273705   0.03336784  0.035479219            1 
  179000    1.2213372   -7.1314301    71.421556  0.033250259  0.035474022            1 
  180000    1.2137774    -7.142062    71.646629  0.033169736  0.035466351            1 
  181000    1.2240401   -7.1317309    72.339378  0.033305422  0.035456746            1 
  182000    1.2242572   -7.1557962    72.286365  0.033098152  0.035444903            1 
  183000     1.225702   -7.1536296    72.934174  0.033212283  0.035430543            4 
  184000    1.2437182   -7.1301496    72.967137  0.033046711  0.035415182            1 
  185000    1.2394835    -7.142653    73.507981  0.033111703  0.035402215            1 
  186000    1.2267131   -7.1378687    73.879636  0.033100195  0.035388603            2 
  187000    1.2306903   -7.1388421    74.140146  0.033039281  0.035373865            3 
  188000    1.2092584   -7.1395521    74.857791  0.033181645  0.035357837            1 
  189000    1.2205287   -7.1955464    74.775572  0.032969829  0.035342233            2 
  190000    1.2351155   -7.1570775    75.616409  0.033165092  0.035325165            1 
  191000    1.2284533   -7.1033002    75.935161  0.033130524  0.035311037            2 
  192000    1.2297565   -7.2091699    76.367596  0.033145658  0.035297534            1 
  193000     1.243641   -7.1549363     76.78536  0.033154301  0.035286719            1 
  194000     1.209558   -7.1586662     77.55687  0.033314806   0.03527695            1 
  195000    1.1992247   -7.1571956    77.567861  0.033148658  0.035267309            1 
  196000    1.2418747   -7.0942411    78.588907  0.033413651  0.035258773            1 
  197000    1.2091897   -7.1766233    78.881336  0.033367739  0.035252707            3 
  198000    1.2081557   -7.1557513    79.584111  0.033494996  0.035247993            1 
  199000    1.2027519   -7.1573117    79.773049  0.033405799  0.035243244            1 
  200000    1.2164517   -7.1143371    80.228236  0.033428432  0.035239447            2 
  201000    1.2138714   -7.1711825    80.874375  0.033530006   0.03523769            4 
  202000    1.1899669   -7.1332847    80.923597  0.033384322  0.035234191            2 
  203000    1.2011865   -7.1555644    81.275518  0.033364334  0.035229528            1 
  204000    1.1947693   -7.1318046    81.845687  0.033433696  0.035221886            1 
  205000    1.2165333   -7.1691149    82.003732   0.03333485  0.035214057            1 
  206000    1.2353478   -7.1101978    82.330877  0.033305371  0.035206371            2 
  207000    1.2383239   -7.1193449    82.969969  0.033401759  0.035198285            1 
  208000    1.1951251   -7.1382379    83.528989   0.03346514  0.035192822            1 
  209000    1.2135971   -7.1478654    83.805457  0.033415254  0.035187694            2 
  210000    1.2396363   -7.1492551    84.043739   0.03335069  0.035181812            2 
  211000    1.2188704     -7.22403    84.439524  0.033348943  0.035178371            5 
  212000    1.2262917   -7.2119078    85.125661  0.033461345  0.035174876            2 
  213000    1.2146552   -7.1887908    85.599607  0.033489674  0.035172162            1 
  214000    1.2212707   -7.1679983    85.927948  0.033461039  0.035171232            1 
  215000    1.1993736   -7.1215461     86.72049  0.033612593  0.035171745            1 
  216000    1.2268572   -7.2029221    86.451172  0.033353075  0.035168421            1 
  217000    1.2055587   -7.1946091    87.346282  0.033543119  0.035164731            1 
  218000    1.2005357   -7.1898771    87.584783  0.033480421   0.03516061            1 
  219000    1.2005053   -7.1711202    88.090185  0.033519857  0.035157481            1 
  220000    1.2370718   -7.1706073    88.653749  0.033580966  0.035157896            2 
  221000    1.2362833   -7.1881988    88.754699  0.033467081  0.035157157            1 
  222000    1.2143556   -7.1709914    89.312447  0.033525693  0.035155887            2 
  223000    1.2290615   -7.1821365    89.736596  0.033533855  0.035154707            3 
  224000    1.2100682   -7.2014486    89.879841  0.033437441  0.035149815            1 
  225000    1.2107805   -7.1508973    90.496575   0.03351725  0.035143193            3 
  226000    1.2460074   -7.1694367    90.760646  0.033466315  0.035137587            1 
  227000    1.2332293   -7.1617246    90.738815  0.033310872  0.035130022            2 
  228000    1.2084325   -7.1387234    91.154481  0.033316696  0.035121924            1 
  229000     1.225593   -7.1739025    91.619507  0.033340432  0.035112043            1 
  230000    1.2053448   -7.1617699    91.545706  0.033168734  0.035101986            5 
  231000    1.2139713   -7.1432463    92.106023  0.033227281  0.035089139            2 
  232000    1.2177517   -7.2110037    92.241607  0.033132761  0.035074521            1 
  233000    1.2184413   -7.1915315    92.605363  0.033120659  0.035059476            1 
  234000    1.2047824   -7.2072307    92.831953  0.033059812  0.035045688            2 
  235000     1.245122   -7.1277559    93.558475  0.033176764  0.035032381            6 
  236000    1.2295841   -7.1271943    93.997631  0.033191254  0.035020393            1 
  237000    1.1957074   -7.1729166    94.144327  0.033102787  0.035006755            1 
  238000    1.2171147   -7.1852978    94.148503  0.032965162  0.034991717            1 
  239000    1.2306228   -7.1849904    94.428741  0.032924945  0.034974352            3 
  240000    1.2197467   -7.2128355    94.823243  0.032924737  0.034955357            3 
  241000    1.2168107   -7.1920699    94.927066   0.03282402   0.03493545            1 
  242000    1.2123866   -7.1639395    95.546487  0.032901683  0.034913972            2 
  243000    1.1928546    -7.208506    95.710525  0.032822539  0.034894587            1 
  244000     1.242856   -7.2112019    95.900243  0.032752815  0.034875384            2 
  245000     1.228396    -7.178224    96.667992  0.032880269  0.034856769            2 
  246000    1.1900655   -7.1361701    97.522584  0.033036106  0.034838881            2 
  247000    1.2110805   -7.1692023    97.524319  0.032902941    0.0348231            1 
  248000    1.2176314   -7.1436862    97.842582  0.032877212  0.034805256            1 
  249000    1.1862259   -7.1569513    98.482557  0.032959356  0.034788554            1 
  250000    1.2053058   -7.1370846    99.133217  0.033044406  0.034771853            1 
  251000    1.2143704   -7.1448434      99.6393  0.033080777  0.034755118            1 
  252000    1.2204911    -7.226371    99.374846  0.032862052   0.03473858            2 
  253000    1.2148221   -7.1522479      100.158  0.032990117  0.034722461            2 
  254000    1.2220916   -7.2128063    100.27817  0.032899663  0.034705762            1 
  255000    1.2091002   -7.1948345    100.64411  0.032890231   0.03468762            1 
  256000       1.2133   -7.1842591    101.22689   0.03295146  0.034673145            1 
  257000    1.2122983   -7.1773966    101.83403  0.033020113  0.034660596            3 
  258000    1.2333578   -7.1207256     102.4369  0.033086854  0.034647495            1 
  259000    1.2085075   -7.1819704    102.29811  0.032914451   0.03463388            2 
  260000    1.1901414   -7.1911851    102.90036  0.032980886  0.034620166            1 
  261000    1.1849634   -7.2026687    102.93389  0.032865227  0.034605117            1 
  262000    1.2106819   -7.1540927    103.78072  0.033009135  0.034590365            2 
  263000    1.2234983   -7.1583087    103.89319  0.032919263  0.034576795            2 
  264000    1.2173263   -7.1611803    104.20257  0.032892225  0.034562613            1 
  265000    1.1907383   -7.1495905     104.9908  0.033015974  0.034549908            5 
  266000    1.1868165   -7.1812845    105.39338  0.033017976  0.034538287            1 
  267000     1.201918   -7.1822846    105.61528  0.032963572  0.034524885            1 
  268000    1.2046095   -7.2024285    105.47335  0.032796441  0.034511132            4 
  269000    1.2050146   -7.1661874     106.2504  0.032915241  0.034495352            2 
  270000    1.2418571   -7.1920743     106.3115  0.032812193  0.034480432            3 
  271000     1.218364   -7.1849628    106.83473  0.032852007  0.034465562            2 
  272000    1.2287668   -7.1249911    107.94562  0.033071575  0.034451828            1 
  273000    1.1929087   -7.2058771    107.73947  0.032887506   0.03443977            2 
  274000    1.2173274   -7.2089742    108.47853  0.032992255  0.034428945            1 
  275000    1.2076787   -7.2221453    108.72022  0.032945522  0.034420481            2 
  276000    1.1826413   -7.1948608    109.12276  0.032947694  0.034411155            2 
  277000    1.2212351   -7.2237455    109.74803  0.033016855  0.034400416            2 
  278000    1.2260048   -7.1859553    110.18842  0.033030102  0.034389947            1 
  279000    1.2326634   -7.2549199    110.07193  0.032876922  0.034378092            1 
  280000    1.2025177   -7.2257093    110.78288  0.032971094  0.034368025            2 
  281000    1.2124528   -7.1910288    111.18903  0.032974208  0.034357791            1 
  282000    1.2273431   -7.1503401    111.89742  0.033066613  0.034347814            2 
  283000    1.2246837   -7.1870839    112.04291  0.032992612  0.034338723            2 
  284000    1.2307745   -7.1810021    112.28851  0.032948508  0.034328761            2 
  285000    1.2182676   -7.1920347    112.76049  0.032970903  0.034317864            2 
  286000    1.2080179   -7.1844287    112.84418  0.032880006   0.03430718            4 
  287000    1.1973809   -7.1592744    113.78284  0.033037991  0.034296597            1 
  288000     1.212951   -7.2335116    113.21889  0.032760097  0.034285748            1 
  289000    1.1992318   -7.1487607    114.16976  0.032920923  0.034274136            1 
  290000    1.1990916   -7.1450273    114.35779  0.032861434  0.034262259            2 
  291000    1.1864629   -7.1933458     114.4681  0.032780096  0.034249275            2 
  292000    1.2058891     -7.18145    115.16021  0.032865357  0.034236236            1 
  293000    1.1949579   -7.1976233    115.20818  0.032766832  0.034222587            1 
  294000    1.2172775   -7.2187545     115.7117    0.0327981  0.034210624            1 
  295000    1.2069278   -7.1577547    116.45497  0.032896883  0.034199096            4 
  296000    1.1939926   -7.2094163    116.84874  0.032896604  0.034187919            2 
  297000    1.2202522   -7.2033017    116.95492  0.032815634  0.034177796            1 
  298000    1.1683687   -7.1970065    118.17651  0.033047122  0.034167793            1 
  299000    1.2195652   -7.2443182    117.37391  0.032712907  0.034156733            2 
  300000    1.1819697   -7.2222951    118.37651  0.032882364  0.034145382            3 
  301000    1.2004043   -7.2097055    118.32181  0.032757975  0.034133381            2 
  302000    1.1881388   -7.2195976    119.06285  0.032853988  0.034122095            1 
  303000    1.1985009   -7.2057693    118.86752  0.032691838  0.034110295            3 
  304000    1.1989568   -7.1806132    119.73122  0.032821058  0.034098449            1 
  305000    1.2015477   -7.2023704    119.65148  0.032691662  0.034086659            3 
  306000    1.1918881   -7.2269199    119.73719  0.032608168  0.034074427            2 
  307000    1.1981479   -7.2035309    120.41328  0.032685471  0.034060405            2 
  308000     1.188506    -7.220859    120.61638  0.032634301  0.034045814            1 
  309000    1.2180947   -7.2022056    120.82333  0.032584501  0.034030444            2 
  310000    1.1912379   -7.2092725    121.35796  0.032623109  0.034016188            1 
  311000    1.2040715    -7.191656    121.56697  0.032574215  0.034002474            1 
  312000    1.2234628   -7.1588883    122.28811  0.032662423   0.03398907            1 
  313000    1.2094283   -7.1872859    122.65412  0.032655516  0.033977019            2 
  314000    1.2166085   -7.2157919    122.56235  0.032527163  0.033963664            2 
  315000    1.1956137   -7.1913972     123.3855  0.032641667  0.033948693            1 
  316000    1.2232565   -7.1993606    123.71392  0.032624979  0.033935107            2 
  317000    1.1928615   -7.2207153    124.30517   0.03267749    0.0339211            2 
  318000    1.1913841   -7.1522594    124.97188  0.032749445  0.033908263            2 
  319000     1.211947    -7.196409    125.11515  0.032684207   0.03389685            2 
  320000    1.1804872    -7.180907    125.08539  0.032574321   0.03388449            2 
  321000    1.2309422    -7.177008    125.48717  0.032577148  0.033871579            2 
  322000    1.2195658   -7.1925661     125.8761  0.032576631  0.033858508            2 
  323000    1.1940431   -7.2126231    126.45523  0.032625189  0.033846523            2 
  324000    1.2000006   -7.2004216    126.37394  0.032503585  0.033834645            1 
  325000     1.188204   -7.2075708    127.12066  0.032595041  0.033822177            1 
  326000     1.184195   -7.1636412    127.31915  0.032545794  0.033809932            2 
  327000    1.2129481   -7.2149583    127.63741  0.032527373  0.033798367            1 
  328000     1.199538    -7.213735    127.95433  0.032508721  0.033786994            1 
  329000    1.2093684   -7.1740887     129.0298  0.032682319  0.033774934            1 
  330000     1.212945   -7.2078309    128.50763  0.032451421  0.033763084            1 
  331000    1.1971095   -7.2093006    129.08581  0.032498946  0.033749237            2 
  332000    1.1896837   -7.1984977    129.69489  0.032553939  0.033736244            3 
  333000    1.2174882   -7.1994106     129.7038  0.032458409  0.033724375            3 
  334000    1.1985581   -7.2233917    129.78831  0.032382314  0.033711269            1 
  335000    1.2095806   -7.2328247    130.60604  0.032489065  0.033698352            1 
  336000    1.2206094   -7.2420131    130.60664  0.032392521  0.033686058            3 
  337000    1.1931573    -7.185314    131.33048  0.032475391  0.033674587            3 
  338000    1.1392489   -7.1951419    131.92462  0.032525793  0.033661686            1 
  339000     1.185967   -7.1940279    131.94157  0.032434014  0.033649084            3 
  340000    1.2014128   -7.2100444    132.49219  0.032473577  0.033636464            1 
  341000    1.2115644   -7.1626021    132.85314  0.032466554  0.033623488            2 
  342000    1.1844273   -7.2042392    132.93968   0.03239271   0.03361038            1 
  343000    1.2237275   -7.2056259    133.35029  0.032398029   0.03359856            2 
  344000    1.1920141   -7.2270274    133.16967  0.032260093  0.033585996            2 
  345000    1.1770378   -7.2250632     133.5441  0.032257029  0.033572598            2 
  346000    1.1866846   -7.2023474    134.60405  0.032419088  0.033559365            2 
  347000    1.1742237    -7.207255    134.48112  0.032296139  0.033546999            1 
  348000    1.2213092   -7.2255135    135.07366  0.032345225  0.033534481            1 
  349000    1.2175063   -7.1895774    135.43723  0.032339358   0.03352177            2 
  350000    1.1965328   -7.2727302    135.16155  0.032181321  0.033508587            1 
  351000     1.180996   -7.2647754    135.70485  0.032218625  0.033494416            1 
  352000    1.1937927   -7.1995315    136.40884   0.03229376  0.033480207            1 
  353000    1.2112266   -7.1965125    136.79201  0.032292731  0.033468285            2 
  354000    1.1974336   -7.1977638    137.89894  0.032462086   0.03345672            3 
  355000    1.1681713   -7.1870932    138.17538  0.032435535  0.033444768            4 
  356000    1.1813846   -7.1771461    137.82852  0.032263229  0.033432617            1 
  357000    1.1865787   -7.2130834    138.35171  0.032294983  0.033420374            1 
  358000    1.1800729   -7.1920249     138.8813  0.032328048  0.033408201            1 
  359000    1.1934629   -7.2451371    139.23437  0.032319955  0.033395504            1 
  360000    1.1896548   -7.1994346     139.8686  0.032376991  0.033383325            1 
  361000    1.1760897   -7.1399049    140.43653  0.032418405  0.033372092            2 
  362000    1.1676874    -7.223939     140.5525  0.032355548  0.033360803            2 
  363000    1.1993622   -7.2041366    140.88709  0.032343225  0.033349082            1 
  364000    1.1943327    -7.185374    141.43869  0.032380651  0.033338143            2 
  365000    1.1817114   -7.1885358    141.90213  0.032397747   0.03332816            1 
  366000    1.1985538   -7.1865691    142.05372  0.032343744   0.03331899            2 
  367000    1.1701677   -7.2232203     142.4339  0.032341939  0.033308997            1 
  368000    1.1874213   -7.2023995    143.15135  0.032416519  0.033299807            3 
  369000    1.1957811   -7.1951057    143.30203  0.032362699  0.033289921            1 
  370000    1.1576896   -7.2403335    143.72379  0.032370222  0.033279819            3 
  371000     1.180909     -7.19197     144.0349  0.032352852  0.033270668            2 
  372000    1.2103759   -7.2004623    144.15033  0.032291741  0.033260267            1 
  373000    1.2009567   -7.2396783    143.98457  0.032168135  0.033248891            1 
  374000    1.1377635   -7.2451062    144.95981  0.032299422  0.033238508            2 
  375000    1.1868814   -7.2170642    144.82206   0.03218268   0.03322757            1 
  376000    1.1765775   -7.1865709    145.19128  0.032178919  0.033215616            2 
  377000    1.2282749   -7.2605811    145.03323  0.032058627   0.03320312            2 
  378000    1.2071854   -7.2118147    146.34987  0.032264081  0.033190614            1 
  379000    1.1886384   -7.2355797    145.93057  0.032086757  0.033178391            1 
  380000    1.2066109    -7.274602    146.18858  0.032058898  0.033167274            2 
  381000    1.1991472   -7.2800629    146.76246  0.032100275  0.033154985            2 
  382000    1.2034219   -7.2490099     146.8205  0.032028905  0.033143465            1 
  383000    1.1925258   -7.2667131    147.87485  0.032174685  0.033132059            3 
  384000    1.2079112   -7.2284638    147.88365  0.032092806  0.033121028            1 
  385000    1.1850002   -7.2533098    147.86005   0.03200434  0.033109616            1 
  386000    1.1916816   -7.2430253    148.32923  0.032022718   0.03309766            1 
  387000    1.1681602   -7.2357381    148.94341  0.032072224  0.033085891            1 
  388000    1.2105132   -7.2364156     149.7135  0.032154962  0.033075308            1 
  389000    1.1883802   -7.2335683    149.72032  0.032073761  0.033064555            4 
  390000    1.1955345   -7.2279566    150.23393  0.032101266    0.0330537            1 
  391000    1.1960477   -7.2073965    150.84608  0.032149634  0.033044371            1 
  392000    1.1889311   -7.2033978    151.44439   0.03219481  0.033034551            2 
  393000    1.1753565   -7.2629876    151.65826  0.032158241  0.033025222            2 
  394000    1.2027989      -7.2036    152.31437  0.032215392  0.033016096            1 
  395000    1.1876393   -7.2858812    151.93515  0.032053829  0.033006491            1 
  396000    1.2036669   -7.2226325    152.55823  0.032104005  0.032995229            2 
  397000    1.1946792   -7.2475712     152.6346  0.032039168   0.03298409            1 
  398000    1.2289982   -7.2148788    153.19356  0.032075704  0.032973514            4 
  399000    1.2069787   -7.2469879    153.00325  0.031955566  0.032962475            1 
  400000    1.1592213   -7.2342915    153.75594  0.032032487  0.032951285            2 
  401000    1.1817023   -7.2542772    154.76935  0.032163206  0.032939933            2 
  402000    1.1863755   -7.2056637    154.82968  0.032095704  0.032929247            3 
  403000    1.1928589   -7.2250445    155.22068  0.032096915  0.032920165            5 
  404000    1.1951287   -7.2167176     155.8485  0.032146969  0.032910332            2 
  405000    1.2083598   -7.2468098    156.07303  0.032113791  0.032900949            1 
  406000    1.2076698   -7.2308772       156.42  0.032105911  0.032891917            1 
  407000    1.1808574   -7.2531501      156.575  0.032058763  0.032882941            1 
  408000    1.2096401   -7.2375796    157.37342  0.032143264  0.032874485            1 
  409000    1.1800991   -7.1994411    157.56792  0.032104304  0.032865636            1 
  410000    1.1811497    -7.236527     157.7508  0.032063171  0.032856333            1 
  411000    1.1816226    -7.288587     158.0212  0.032039984  0.032847336            1 
  412000    1.2213302   -7.2044853    158.63591  0.032086551  0.032838321            1 
  413000    1.1930874    -7.250918    159.20709   0.03212411  0.032829142            3 
  414000    1.1932665   -7.2576689    158.59237   0.03192278  0.032820358            1 
  415000    1.1982601   -7.1947833    159.84459  0.032097307  0.032811663            2 
  416000    1.1812427   -7.2446032    160.30589  0.032112557  0.032803314            1 
  417000    1.1737976   -7.2649352    160.38699  0.032051757   0.03279493            2 
  418000    1.1728662   -7.2247772     160.9683  0.032090968  0.032786262            2 
  419000     1.195342   -7.2382241    161.17027  0.032054549  0.032778185            2 
  420000    1.1899645   -7.2490786     161.1733  0.031978829  0.032769813            2 
  421000    1.1996896   -7.2765488    161.51814  0.031971127   0.03276135            3 
  422000     1.178351   -7.2069641    162.08342  0.032006994  0.032752148            2 
  423000     1.179102   -7.2734854    161.30833  0.031778632  0.032742243            1 
  424000    1.2063411   -7.2677038    163.04754  0.032045507   0.03273246            1 
  425000    1.1932317   -7.2544799    163.05564  0.031971694  0.032723619            1 
  426000    1.1960464   -7.2236089    163.85145  0.032052319  0.032714771            5 
  427000    1.1917174   -7.2112385    163.60213  0.031928596  0.032705224            3 
  428000    1.1899003   -7.2445358    163.88564  0.031909197  0.032695963            2 
  429000    1.1935241   -7.2068729    164.46773  0.031947889  0.032686255            2 
  430000    1.1733562    -7.282694    163.94757  0.031772785  0.032675881            2 
  431000    1.1856009   -7.2548303    164.85113  0.031873768  0.032664754            1 
  432000    1.1861421   -7.2333214    165.11948  0.031851751  0.032654164            1 
  433000    1.1649476   -7.2356668    165.28598  0.031810235  0.032643602            1 
  434000    1.1584584   -7.2753191       164.77  0.031637865   0.03263247            2 
  435000    1.1698113   -7.2564386     166.1826  0.031835748  0.032621696            1 
  436000    1.1572701   -7.2164948    166.48111  0.031819784  0.032611886            4 
  437000    1.1526501   -7.2467644    166.90326  0.031827472  0.032601443            1 
  438000    1.1790272   -7.2648952    166.95365  0.031764393  0.032590656            1 
  439000    1.1963543   -7.2670639    166.66189  0.031636654  0.032579602            1 
  440000    1.1859526    -7.242172    167.80699  0.031781627  0.032569099            1 
  441000    1.2162441   -7.2674971    167.84812  0.031717332  0.032557995            3 
  442000     1.172088   -7.2650978    168.71824  0.031809622  0.032547743            1 
  443000    1.1730826   -7.2338019     169.4599  0.031877333  0.032537932            1 
  444000    1.1897528   -7.2665877    170.26195  0.031956071  0.032528635            1 
  445000    1.1860469   -7.2336073    170.34808  0.031900389  0.032519545            2 
  446000    1.2061804   -7.2610543     170.4463  0.031847216  0.032510717            1 
  447000     1.174013   -7.2427921    170.18847  0.031727903  0.032501425            2 
  448000    1.1891172   -7.2507734    171.32408  0.031868318  0.032492588            1 
  449000    1.1698448   -7.3071084    171.50699  0.031831289  0.032484001            2 
  450000    1.1957934   -7.2376316    172.06461  0.031863817  0.032475781            1 
  451000    1.1711924   -7.2131931     172.4652  0.031867183  0.032468675            1 
  452000    1.1852222   -7.2515569    172.86139  0.031869725   0.03246114            3 
  453000    1.1707558   -7.2337506    173.86073   0.03198321  0.032454307            2 
  454000    1.1788958   -7.2338193    174.29014  0.031991582  0.032448052            3 
  455000     1.173585   -7.2783588     174.4019   0.03194174  0.032442248            2 
  456000    1.1603676   -7.2361792    175.24023  0.032024896  0.032436513            1 
  457000    1.1893079   -7.2918844    174.85234  0.031884088  0.032430722            4 
  458000    1.1581281   -7.2521315    175.06167   0.03185256    0.0324247            2 
  459000    1.1959658   -7.2820217    175.40681  0.031845826  0.032418462            1 
  460000    1.1909446   -7.2016543    176.45609  0.031966684  0.032411831            2 
  461000     1.184758   -7.2575901    176.71759  0.031944611  0.032404997            2 
  462000    1.1745361   -7.2108536    177.06211   0.03193761  0.032397681            3 
  463000    1.1605677   -7.2535543    177.44137  0.031936891  0.032390404            1 
  464000    1.1589275   -7.2913451    177.73747  0.031921242  0.032383608            1 
  465000    1.1773338   -7.2625199    178.33924  0.031960437  0.032377841            3 
  466000    1.1763475   -7.2513911    178.79597  0.031973528  0.032372379            1 
  467000    1.1538254   -7.2575889    179.62916   0.03205374  0.032367597            3 
  468000    1.1726396   -7.2517723    179.50085  0.031962402  0.032363159            3 
  469000    1.1680001   -7.2650597    179.73758  0.031936314  0.032357459            3 
  470000    1.1496763   -7.2253518    180.81599  0.032059572   0.03235244            2 
  471000    1.1944334   -7.2532427    181.41562  0.032097598  0.032348234            4 
  472000    1.1709085   -7.2574097    181.69138   0.03207828  0.032343563            1 
  473000    1.1882279   -7.2460149    181.68575  0.032009469  0.032338857            1 
  474000    1.1791419   -7.2781113    181.60834   0.03192833  0.032334493            2 
  475000    1.1786486   -7.2585218    181.83691  0.031901212  0.032329087            1 
  476000    1.1767043   -7.2864135    181.96529  0.031856668  0.032324173            3 
  477000    1.1862503   -7.2690364     182.3856  0.031863313  0.032318951            2 
  478000    1.1634945   -7.2837272    182.62385  0.031838188  0.032312814            2 
  479000    1.1787538   -7.2838652    182.50718  0.031751423  0.032306076            1 
  480000    1.1827605   -7.2654963    183.15583  0.031797886  0.032299363            1 
  481000    1.1836989   -7.2410796    183.51877  0.031794659  0.032292156            1 
  482000    1.1673896    -7.272445    184.03911  0.031818656  0.032285915            1 
  483000    1.1663843   -7.2503297     184.9829  0.031915615  0.032280024            2 
  484000    1.1705649   -7.2862913    184.97437  0.031848205  0.032274739            3 
  485000     1.154143   -7.2440283    185.48875  0.031870919  0.032269022            2 
  486000    1.1215599   -7.2567269    186.41968  0.031964966  0.032263508            2 
  487000    1.1743598   -7.2896925    186.01383  0.031829882  0.032257947            1 
  488000    1.1631336   -7.2546968    186.51818  0.031850782  0.032251645            1 
  489000    1.1392132   -7.3156759    186.01982  0.031700719  0.032245931            2 
  490000    1.1819277   -7.2819065     186.9765  0.031798724  0.032239749            4 
  491000    1.1727647   -7.2353149    187.48017  0.031819445  0.032233979            1 
  492000    1.2011226   -7.2864884    187.71654  0.031794807   0.03222869            1 
  493000    1.1749389   -7.2655717     188.9837  0.031944506  0.032223972            2 
  494000    1.1568738   -7.2844559    189.42293  0.031953936   0.03222006            2 
  495000    1.1725557   -7.2730802     189.8628  0.031963434  0.032216118            3 
  496000    1.1937298   -7.2191372    190.97827  0.032086404  0.032212631            1 
  497000    1.1755656   -7.2469423    191.09096  0.032040738  0.032209705            2 
  498000    1.1710345   -7.2902986     191.1808  0.031991432  0.032206984            3 
  499000    1.1890447   -7.2453412    192.07995   0.03207748  0.032203794            1 
  500000    1.1790607   -7.2711179    191.89036  0.031981726  0.032200711            1 
  501000    1.1645127   -7.2916255    191.93189  0.031924799  0.032197329            4 
  502000      1.16977   -7.2608571    192.72218  0.031992394  0.032194064            1 
  503000    1.1403346   -7.2581183    193.67879  0.032087274  0.032191407            1 
  504000    1.2105237   -7.3041065    193.35654  0.031970327  0.032188952            1 
  505000     1.181224   -7.2899613    193.80724  0.031981393  0.032186129            1 
  506000    1.1749817   -7.2567319    194.32013  0.032002656  0.032183169            1 
  507000    1.1900958   -7.2496388    194.56202  0.031979293  0.032180974            1 
  508000    1.1618469   -7.2415051    195.45628  0.032063038  0.032178229            1 
  509000     1.202062   -7.2637891    196.20615  0.032122814  0.032176396            2 
  510000     1.142271   -7.2924748    195.45374  0.031936886  0.032173702            1 
  511000    1.1883288   -7.2729804    195.99487  0.031962634  0.032170127            2 
  512000    1.1652669   -7.2507405    196.97794  0.032060211  0.032166961            1 
  513000    1.1521282   -7.2638495    196.44587  0.031911285   0.03216362            1 
  514000    1.1647509   -7.2939282    196.72672  0.031894735  0.032160473            2 
  515000    1.1784296   -7.2905466    197.82405  0.032010364  0.032157905            2 
  516000    1.1586566   -7.2457016    198.91807  0.032125011  0.032155383            1 
  517000    1.1827767   -7.2826672    197.99747  0.031914486  0.032152222            1 
  518000    1.1675497   -7.2603405    198.63933  0.031956135  0.032149447            1 
  519000    1.1518387   -7.2785283    198.74005  0.031910733  0.032147131            1 
  520000    1.1477139   -7.2731543    198.97527  0.031887063  0.032144185            2 
  521000    1.1657246   -7.2304329    200.42027  0.032056984  0.032141809            2 
  522000    1.1884437   -7.2814878    199.26521  0.031811176  0.032139131            4 
  523000    1.1634051   -7.2853373    200.08951  0.031881693  0.032136295            1 
  524000    1.1492576   -7.2623324    200.66717  0.031912718   0.03213304            1 
  525000    1.1881795   -7.2975214    200.36133  0.031803386   0.03212891            1 
  526000    1.1733793   -7.2747018    201.16195  0.031869764   0.03212482            2 
  527000    1.1536533   -7.2433298    200.99712  0.031783225  0.032119829            1 
  528000    1.1505408   -7.2836402     201.2372  0.031760922  0.032114813            5 
  529000    1.1397707   -7.3078362    201.79836  0.031789282   0.03210987            1 
  530000    1.1520656   -7.2785947    202.37906  0.031820606  0.032104862            1 
  531000    1.1648598   -7.2372733    203.22868  0.031894017  0.032100436            1 
  532000    1.1546749   -7.2806954    202.72625  0.031755366  0.032096125            1 
  533000    1.1783226   -7.2546741    203.59346  0.031831373  0.032091757            2 
  534000    1.1375096   -7.2868079    203.63986  0.031779004  0.032087368            2 
  535000    1.1700716   -7.2392678    204.76202  0.031894395  0.032083614            1 
  536000    1.1450274   -7.2850577    204.97903  0.031868631  0.032079804            2 
  537000    1.1629989   -7.2571046    205.19173  0.031842292  0.032076254            1 
  538000    1.1484261   -7.2867803    205.64427  0.031853202  0.032071954            3 
  539000    1.1812417   -7.3174429    205.71862  0.031805601  0.032067925            1 
  540000    1.1684319    -7.234054    207.10422  0.031960527  0.032063946            1 
  541000    1.1588194    -7.258787    206.21325   0.03176421  0.032059439            1 
  542000    1.1674287   -7.2526434    206.89111  0.031809827  0.032055492            2 
  543000    1.1740238   -7.2588184    207.30897  0.031815373  0.032051695            3 
  544000    1.1623087   -7.3444571    207.10521  0.031725675  0.032048115            1 
  545000    1.1605694   -7.2854436    207.57168  0.031738789   0.03204369            2 
  546000    1.1653396   -7.3123998    208.16302  0.031770913  0.032039658            2 
  547000    1.1529062   -7.2449443    208.47597  0.031760507  0.032035238            2 
  548000    1.1707351   -7.2821302    208.74589  0.031743597  0.032031229            2 
  549000    1.1617265   -7.3113674    209.43116  0.031789794  0.032027122            2 
  550000     1.160698   -7.2591736    209.84178   0.03179421  0.032023613            1 
  551000    1.1835985   -7.2802281     210.1555  0.031783953  0.032019796            2 
  552000    1.1519487   -7.2740326     210.7683  0.031818886   0.03201655            1 
  553000    1.1789635   -7.2708944    211.46687  0.031866617  0.032013293            2 
  554000    1.1726413   -7.3154109    210.82366  0.031712344  0.032010095            3 
  555000    1.1684944   -7.2746219    211.30397  0.031727323  0.032005993            2 
  556000    1.1819235   -7.2969308    212.71255  0.031881378  0.032001947            1 
  557000    1.1594903   -7.3461856     212.2539  0.031755521   0.03199785            2 
  558000    1.1515513    -7.326284    211.99698  0.031660242  0.031992983            2 
  559000    1.1603304    -7.312746    212.21508  0.031636118  0.031989171            2 
  560000    1.1643164     -7.28124    214.09853    0.0318599  0.031984686            2 
  561000      1.12758   -7.2961455    213.91496   0.03177584  0.031980565            1 
  562000    1.1757343   -7.2762239    214.63192  0.031825611  0.031977037            2 
  563000    1.1503679   -7.3028472     213.6964   0.03163061  0.031973465            2 
  564000    1.1638807   -7.2797888    215.29248  0.031810355  0.031969347            4 
  565000    1.1498021   -7.2933526    214.98696  0.031708992  0.031964907            1 
  566000    1.1746807   -7.2905835    215.74812  0.031765035  0.031960718            2 
  567000    1.1557728   -7.3116653    215.40814  0.031659044  0.031957039            1 
  568000    1.1505116   -7.3197485    216.41734  0.031751371  0.031953659            3 
  569000    1.1628795   -7.3000717    217.15007  0.031802881  0.031950162            2 
  570000    1.1433243   -7.3058865    217.10064  0.031739859  0.031946851            4 
  571000    1.1562031   -7.2749849    217.26448  0.031708184  0.031943509            2 
  572000    1.1677383   -7.3086831    217.76555   0.03172575  0.031940088            2 
  573000    1.1388141   -7.3129273     218.2138  0.031735574  0.031936489            2 
  574000    1.1379881   -7.3118234    218.16276  0.031672874  0.031932644            1 
  575000    1.1490406    -7.254864    219.32268  0.031785896  0.031928886            1 
  576000    1.1763023   -7.2577575    220.54857  0.031908069  0.031925564            1 
  577000    1.1627287   -7.2861926    220.24413    0.0318088  0.031922715            1 
  578000    1.1604177    -7.328827    220.20129  0.031747591  0.031919542            1 
  579000    1.1476711   -7.3341258    220.42363  0.031724759  0.031916077            1 
  580000    1.1614213   -7.2796775    220.84846    0.0317311  0.031913132            1 
  581000    1.1375401   -7.3256567    221.65337  0.031791936  0.031910652            3 
  582000    1.1328943   -7.2866463    221.97359   0.03178316  0.031907922            3 
  583000    1.1510708   -7.3243044     222.2809  0.031772569  0.031905779            4 
  584000    1.1580868   -7.3005753    222.79702  0.031791812  0.031902965            2 
  585000    1.1652312   -7.2949548    223.35395  0.031816802  0.031899922            2 
  586000     1.157468   -7.3462894    222.90048   0.03169802  0.031896904            2 
  587000    1.1710399    -7.274776    223.84496  0.031778103  0.031893337            1 
  588000    1.1440712   -7.3098456     224.2326  0.031778997  0.031889968            1 
  589000    1.1604525   -7.3024377    223.92622  0.031681695  0.031886686            3 
  590000    1.1665512   -7.3419817    224.08233  0.031650046  0.031882911            2 
  591000    1.1612995   -7.2617761    225.43523  0.031787257  0.031879633            1 
  592000    1.1750316   -7.3090298     224.8854  0.031656165  0.031876136            1 
  593000    1.1424188   -7.3368729    224.82451  0.031594225  0.031872396            2 
  594000    1.1483652   -7.2880277    226.09588  0.031719399   0.03186847            3 
  595000    1.1524305   -7.3201988    225.31539  0.031556777  0.031864419            3 
  596000    1.1802262   -7.2959759      226.218  0.031630033  0.031860875            1 
  597000    1.1383216   -7.2780668    226.56482  0.031625464  0.031857225            2 
  598000    1.1497502   -7.3057176    227.15261  0.031654488  0.031853148            5 
  599000    1.1646334   -7.3197552    227.02949  0.031584515  0.031849274            2 
  600000    1.1577524   -7.2999309     227.5283  0.031601153  0.031845521            4 
  601000    1.1463038   -7.2763889    228.34951   0.03166244  0.031841687            2 
  602000    1.1373299   -7.3391529    227.75778  0.031527931  0.031837589            3 
  603000    1.1594837   -7.3194188    228.78427  0.031617506  0.031833809            3 
  604000    1.1349378   -7.2984648    229.55999  0.031672184  0.031830302            1 
  605000    1.1578122   -7.3281601    229.85852  0.031660953  0.031826809            2 
  606000    1.1707178   -7.3510518    229.72934  0.031590943  0.031823489            1 
  607000    1.1775572   -7.2977246    230.19691   0.03160309  0.031820341            1 
  608000    1.1428027   -7.2926974    231.10712  0.031675866  0.031817099            3 
  609000    1.1698007   -7.2566522    230.85641  0.031589547  0.031813367            1 
  610000    1.1320313   -7.3065804    231.63465  0.031644078  0.031809644            1 
  611000    1.1610347   -7.2946458    231.52794  0.031577733  0.031805791            1 
  612000     1.156233   -7.3089441    232.49095  0.031657265  0.031802043            2 
  613000    1.1483006   -7.3128634    232.09775  0.031552169  0.031797877            2 
  614000    1.1481231   -7.3096387    232.97929  0.031620425  0.031793722            1 
  615000    1.1440885   -7.3217882    232.89764  0.031557946  0.031789727            2 
  616000    1.1521458   -7.3490744    232.96161  0.031515369  0.031785499            2 
  617000    1.1762519   -7.2900145    234.03114  0.031608744  0.031781301            3 
  618000    1.1550472   -7.3038865      234.063  0.031561893   0.03177714            1 
  619000    1.1649848   -7.3166997    234.58451  0.031581113  0.031772924            3 
  620000    1.1503451    -7.298945    234.63689  0.031537217  0.031768946            3 
  621000    1.1467774   -7.3427556    235.19489  0.031561311  0.031764673            2 
  622000    1.1675842   -7.3026637    235.67563  0.031574977  0.031761025            2 
  623000    1.1575263   -7.2841246     236.0332  0.031572124  0.031757391            1 
  624000    1.1777882   -7.2928482    236.06939  0.031526361  0.031753379            3 
  625000     1.128808   -7.3111224     236.7805  0.031570734  0.031749453            1 
  626000    1.1403608   -7.3067364    236.67394  0.031506115   0.03174527            1 
  627000    1.1748282   -7.3146003     236.9853  0.031497249   0.03174099            1 
  628000    1.1421564   -7.3252383    236.81322  0.031424259  0.031736375            2 
  629000    1.1513878   -7.3374535    237.51992  0.031467928  0.031731818            1 
  630000    1.1486255   -7.2913705    238.60549  0.031561573  0.031727878            2 
  631000     1.140064   -7.2958726    238.91583   0.03155254  0.031724295            1 
  632000    1.1370739   -7.3195343    239.34308   0.03155895  0.031720409            1 
  633000    1.1621778   -7.3191044    239.11767   0.03147942  0.031716575            2 
  634000    1.1545441   -7.2852359    239.99219  0.031544714   0.03171286            1 
  635000     1.141162   -7.3022149    240.49706  0.031561293  0.031709094            1 
  636000    1.1827563   -7.2787868    240.99163  0.031576471  0.031705408            2 
  637000    1.1294973   -7.3538147    240.45076  0.031456143  0.031701058            2 
  638000    1.1673565   -7.3189184    240.60115  0.031426482  0.031696805            1 
  639000    1.1891437   -7.2886449    241.40759  0.031482472  0.031691966            1 
  640000    1.1265205   -7.3377584    240.18981  0.031274715   0.03168647            1 
  641000    1.1430779   -7.3244196    240.92752   0.03132183  0.031680819            2 
  642000    1.1661272    -7.268062    241.05804  0.031289984  0.031675183            1 
  643000    1.1568546    -7.320296    241.17873  0.031256963   0.03166952            2 
  644000    1.1432075   -7.3129344    241.35316  0.031230998  0.031664006            1 
  645000    1.1461205   -7.3135747    241.95479  0.031260309  0.031657744            3 
  646000    1.1557775    -7.317596    241.39943  0.031140277  0.031651339            2 
  647000    1.1472595   -7.3027727    242.53235  0.031238066  0.031645342            1 
  648000    1.1541472   -7.3250828    242.97841  0.031247223  0.031639167            1 
  649000    1.1550689   -7.3257928    243.46088  0.031261027  0.031633047            2 
  650000    1.1385801   -7.3386018    243.04284  0.031159338  0.031626961            1 
  651000    1.1550667   -7.3167888    243.21983  0.031134131   0.03162066            1 
  652000    1.1379205   -7.3448094    243.67179  0.031144145  0.031614478            2 
  653000    1.1484007   -7.3074986    243.84254  0.031118241  0.031608077            2 
  654000    1.1272911     -7.32856    244.52141  0.031157162  0.031601688            1 
  655000    1.1179862   -7.3245712    244.09967  0.031055938  0.031594694            2 
  656000    1.1395242   -7.3623785    243.88199  0.030980944  0.031587409            2 
  657000    1.1370944   -7.3072759    245.94193  0.031195069  0.031580649            1 
  658000    1.1572756   -7.3583503    245.18676  0.031052022  0.031574023            4 
  659000    1.1653578   -7.3331014    245.41249  0.031033445  0.031566994            2 
  660000    1.1427765   -7.3201747    246.29983  0.031098463   0.03155966            1 
  661000    1.1614839   -7.3113938    247.01135  0.031141119   0.03155266            2 
  662000     1.126457   -7.3526383    246.86158  0.031075224  0.031545975            3 
  663000    1.1452315    -7.351565      246.567  0.030991328   0.03153913            2 
  664000    1.1452057   -7.3176562    247.81433  0.031101195  0.031532292            1 
  665000    1.1505155    -7.322312    247.75076  0.031046461  0.031525678            2 
  666000    1.1280479   -7.2656689    249.48022  0.031216243   0.03151949            1 
  667000    1.1575901   -7.3432629    249.10209    0.0311222  0.031513199            2 
  668000    1.1302073   -7.3633336    248.79064  0.031036757   0.03150696            3 
  669000    1.1392722   -7.3362636    249.56903  0.031087323  0.031500526            3 
  670000    1.1293715   -7.3483382    250.74751  0.031187501   0.03149436            1 
  671000    1.1454796   -7.2905543    250.77966  0.031145014  0.031488614            1 
  672000    1.1439713   -7.2911326    251.48643  0.031186313  0.031482921            1 
  673000    1.1838663   -7.3283508    251.00396  0.031080233  0.031477037            2 
  674000    1.1433215   -7.3415092    250.82232  0.031011661  0.031471051            2 
  675000    1.1622771   -7.3368996    251.10215  0.031000266  0.031464678            1 
  676000    1.1446972   -7.3494663    251.42926  0.030994732  0.031458374            1 
  677000    1.1315414   -7.2886356    252.91166  0.031131421  0.031452081            3 
  678000    1.1273932   -7.3615427    252.22943  0.031001651  0.031445625            1 
  679000    1.1617232   -7.3568726    252.31333   0.03096629  0.031439441            1 
  680000    1.1609629   -7.3516699    252.65929  0.030963148  0.031432896            1 
  681000    1.1442734   -7.3295225    253.12009  0.030974069  0.031426505            1 
  682000    1.1272815   -7.3747601    253.99062  0.031035022   0.03142033            3 
  683000    1.1744499   -7.3869218    253.76712  0.030962314  0.031413838            1 
  684000    1.1584471   -7.3670732    254.84617   0.03104851  0.031407646            2 
  685000    1.1381071   -7.3404514    255.54144  0.031087766  0.031401202            1 
  686000    1.1511528   -7.3320269     254.9953  0.030976106  0.031395106            2 
  687000    1.1510035   -7.3262966    255.64625  0.031009977  0.031389209            1 
  688000    1.1515509   -7.3531801    255.97418  0.031004624   0.03138339            1 
  689000    1.1277213   -7.3166547     256.7934  0.031058709  0.031377575            3 
  690000    1.1384063   -7.3552161    256.47636  0.030975406  0.031371145            1 
  691000     1.143955   -7.3412443    256.79957  0.030969557  0.031365196            4 
  692000    1.1508355   -7.3070683    256.27752  0.030861936  0.031359044            2 
  693000    1.1355415    -7.367806    257.04523   0.03090972  0.031353106            1 
  694000    1.1503674   -7.3840878    257.58291  0.030929744  0.031346832            3 
  695000    1.1461641   -7.3359997      258.842   0.03103621  0.031341015            2 
  696000    1.1490861   -7.3361916    258.82671  0.030989789  0.031335184            2 
  697000    1.1223679   -7.3463778    259.18675  0.030988372  0.031328997            2 
  698000     1.142405   -7.3592459    259.69467  0.031004616  0.031322812            2 
  699000    1.1499742   -7.3596111     260.7786  0.031089485  0.031316848            1 
  700000    1.1585186   -7.3152791    259.99224  0.030951458  0.031310895            2 
  701000    1.1311274   -7.3485035     260.1446  0.030925416   0.03130488            2 
  702000    1.1628434   -7.3357718    261.12449  0.030997684  0.031299252            2 
  703000    1.1268542   -7.3621602    260.97196   0.03093551  0.031293499            4 
  704000    1.1325028    -7.328782    261.63505  0.030970058  0.031287376            1 
  705000    1.1218795   -7.3149445    261.55543  0.030916717  0.031281363            1 
  706000    1.1488581   -7.3734563    262.30577  0.030961493  0.031275491            2 
  707000    1.1337328   -7.3159994    262.56473  0.030948224  0.031269568            2 
  708000    1.1491854   -7.3688114    262.48681   0.03089534  0.031263536            2 
  709000    1.1302017   -7.3169376    263.35922  0.030954304  0.031257428            2 
  710000    1.1344059    -7.366486    264.00357  0.030986335  0.031251303            1 
  711000    1.1274781   -7.3435921    263.98081  0.030940085  0.031245359            1 
  712000    1.1180454    -7.321122     264.2653  0.030929928  0.031239171            3 
  713000    1.1076515   -7.3336159    263.78787  0.030830747   0.03123286            1 
  714000    1.1834282   -7.3693137    264.49155  0.030869696  0.031227033            2 
  715000    1.1186559   -7.3381767    265.52423   0.03094688   0.03122111            2 
  716000    1.1363892   -7.3950791    264.54459  0.030789641  0.031215294            2 
  717000    1.1381457   -7.3204492    265.26866  0.030830853  0.031209226            1 
  718000    1.1192075   -7.3646914    266.07364  0.030881342   0.03120312            1 
  719000    1.1419557   -7.3165968    266.09493  0.030840859  0.031196999            2 
  720000    1.1363822   -7.3592928    265.82027  0.030766235  0.031190937            4 
  721000    1.1191795   -7.3638967    266.70449  0.030825761  0.031185124            1 
  722000    1.1383062   -7.3825933    266.26376  0.030732197   0.03117888            1 
  723000     1.113146     -7.36874    267.11119  0.030787366  0.031172772            3 
  724000    1.1416777   -7.3407147    267.47161  0.030786327  0.031166557            2 
  725000    1.1127196   -7.3332246    268.22687  0.030830674   0.03115996            2 
  726000    1.1053636   -7.3347248    267.76348  0.030735018  0.031153611            2 
  727000    1.1373013   -7.3215772    268.41979  0.030767973  0.031147463            2 
  728000    1.1423678   -7.3662823    268.80277  0.030769548  0.031141939            1 
  729000    1.1546346   -7.3647951    269.39667   0.03079523   0.03113615            1 
  730000    1.1141724   -7.3537048    269.32796  0.030745201  0.031130379            1 
  731000     1.150839   -7.3545626    270.76608  0.030867086  0.031124687            1 
  732000    1.1478341   -7.3335287    270.15633  0.030755502  0.031119006            3 
  733000    1.1211477   -7.3326632    270.90949  0.030799169  0.031112635            1 
  734000    1.1521881   -7.3658835    270.97626  0.030764789  0.031106344            2 
  735000    1.1109629   -7.3175613    271.91873  0.030829787   0.03110022            1 
  736000    1.1533449   -7.3182502    272.54646  0.030858974  0.031094608            2 
  737000    1.1392961   -7.3489695    271.11373  0.030655103  0.031088653            1 
  738000    1.1427399   -7.3253818    272.63672  0.030785538  0.031082752            1 
  739000    1.1437846   -7.3216225    273.68312  0.030861877   0.03107709            4 
  740000     1.139085    -7.331533    273.21188  0.030767103   0.03107137            3 
  741000    1.1535502   -7.3673495      272.911  0.030691745   0.03106538            2 
  742000     1.138789   -7.3836256    273.02266  0.030662922  0.031059738            2 
  743000    1.1339157   -7.3696341    274.20049  0.030753756  0.031054058            1 
  744000     1.137358   -7.3718056    274.72063   0.03077068  0.031048604            3 
  745000    1.1049339   -7.3417019    275.05458  0.030766731  0.031043536            2 
  746000    1.1409709     -7.38675    275.25669  0.030748066  0.031038747            2 
  747000    1.1131585   -7.3415698    276.16711  0.030808469  0.031033493            2 
  748000    1.1367755   -7.3244558    277.29153   0.03089255  0.031028453            1 
  749000    1.1394003   -7.3274965    277.13366   0.03083374  0.031023543            1 
  750000     1.134606   -7.3762313     276.0004  0.030666711   0.03101834            2 
  751000    1.1363108   -7.3479581    277.17997  0.030756765  0.031013047            1 
  752000     1.148902   -7.3303001    277.85125  0.030790254  0.031007429            3 
  753000     1.132871   -7.3411732    277.14815  0.030671553  0.031001819            2 
  754000    1.1286355   -7.3217429    276.59581  0.030569829  0.030995626            1 
  755000    1.1204328   -7.3669534    277.60182  0.030640378  0.030989313            3 
  756000    1.1395163    -7.343935    278.34572  0.030681848  0.030983212            1 
  757000    1.1190098   -7.3106208    278.97651  0.030710757  0.030976971            2 
  758000    1.1418086   -7.3817626    278.25051  0.030590426  0.030970809            2 
  759000    1.1403222   -7.3669587    278.35392  0.030561475  0.030964805            4 
  760000    1.1362529   -7.3638675    278.66988  0.030555907  0.030958228            1 
  761000    1.1424409   -7.3034195    280.06458  0.030668483  0.030951813            2 
  762000    1.1316634   -7.3584573    279.76512  0.030595485  0.030945786            1 
  763000    1.0965133   -7.3144944    281.06047  0.030696862  0.030939504            2 
  764000    1.1027567   -7.3887964    279.59821  0.030497187  0.030933385            2 
  765000     1.125368   -7.3841074    280.19183  0.030521985  0.030926736            2 
  766000    1.1272094   -7.4421557    279.13357  0.030367011  0.030919816            1 
  767000    1.1084289   -7.3567945    281.47396  0.030581699  0.030913111            1 
  768000    1.1562173   -7.3531576     281.0688  0.030497917  0.030906644            1 
  769000    1.1000862   -7.3526969    281.71477  0.030528258  0.030900013            2 
  770000    1.1470442   -7.3638029    281.41869  0.030456568   0.03089339            2 
  771000    1.1391251   -7.3930418    280.58072  0.030326494  0.030886507            3 
  772000    1.1236381    -7.341516    282.75681  0.030522108  0.030879704            1 
  773000    1.1104543   -7.3578519    281.90925  0.030391251  0.030872699            3 
  774000    1.1352442   -7.3685763    282.52494  0.030418275  0.030865698            1 
  775000    1.1089256   -7.3826695    282.45431  0.030371431  0.030858492            2 
  776000    1.1228478   -7.3744365    283.49636  0.030444197  0.030851255            3 
  777000    1.1270319    -7.387055    283.24146  0.030377677  0.030844172            2 
  778000    1.1237395   -7.3832888    283.49268   0.03036554  0.030837138            1 
  779000    1.1133343   -7.3580731    284.07139  0.030388467   0.03082972            1 
  780000    1.1338204   -7.3580254    283.85492   0.03032638  0.030822237            1 
  781000    1.1103048   -7.3940891    284.25927  0.030330695  0.030814871            2 
  782000    1.1388221   -7.3584578    285.46079  0.030419948  0.030807205            2 
  783000     1.124752   -7.3336611    284.01103  0.030226802  0.030799983            1 
  784000    1.1195281   -7.3125665     285.9454  0.030393856    0.0307926            1 
  785000    1.1502304   -7.3173101     285.5197  0.030309947   0.03078506            1 
  786000    1.1273532   -7.3657834    285.63448  0.030283553  0.030777345            2 
  787000    1.1286976    -7.328549    286.23483  0.030308643   0.03076951            1 
  788000    1.1031603   -7.3756735    285.82121  0.030226439  0.030761633            2 
  789000    1.1375949   -7.4213001    285.49696  0.030153882  0.030753942            3 
  790000    1.1086843   -7.3642633    286.48253  0.030219676  0.030745911       -1e+20 
  791000     1.140875   -7.3688958    287.03169  0.030239327  0.030738252            2 
  792000    1.1534294   -7.3840452    286.28688  0.030122778  0.030730544            2 
  793000    1.1317257    -7.343189    286.33741  0.030090102  0.030722357            1 
  794000    1.1269304   -7.3836612    287.05322  0.030127332  0.030713945            4 
  795000    1.1119006   -7.3957528    287.77598  0.030165197  0.030705414            3 
  796000    1.1175631   -7.3934742    287.30849   0.03007836   0.03069725            1 
  797000    1.1225075   -7.3395487    288.13372  0.030126906     0.030689            5 
  798000    1.1152172   -7.3847557    287.73258  0.030047262  0.030680905            3 
  799000    1.1203113   -7.4160729    287.79366  0.030016026  0.030672378            2 
  800000    1.1159689    -7.413013     288.6065  0.030063177  0.030663774            2 
  801000    1.1330054   -7.3524597    289.21136  0.030088572  0.030655741            2 
  802000    1.1073056   -7.4052541     289.5881  0.030090201  0.030648125            1 
  803000    1.1079618   -7.3890332    289.18434  0.030010828  0.030640304            2 
  804000    1.1241908   -7.3439781    290.88247   0.03014951   0.03063265            3 
  805000    1.1368804   -7.3157012    291.09337  0.030133889  0.030625306            2 
  806000    1.1245832   -7.4057838    291.12911  0.030100197   0.03061773            2 
  807000     1.101062   -7.4323885    291.47271   0.03009838  0.030610309            2 
  808000    1.1456803   -7.3439215    292.86519  0.030204743  0.030603055            3 
  809000    1.1315019   -7.4265985    293.14474  0.030196204  0.030595607            2 
  810000    1.1271515   -7.3525016    292.51054  0.030093677  0.030588079            4 
  811000    1.1232637   -7.3987176    292.53746  0.030059336  0.030580622            3 
  812000    1.1170738   -7.4166193    292.80451  0.030049724  0.030572886            1 
  813000      1.12911   -7.4028313    293.61707  0.030096051   0.03056509            2 
  814000    1.1127731   -7.3890386    294.08036  0.030106506  0.030557329            3 
  815000    1.0972998   -7.3905403    294.55771  0.030118375  0.030549842            1 
  816000    1.1100285   -7.3859904    294.26256  0.030051323  0.030542174            3 
  817000    1.1205955   -7.3724665    295.29463  0.030119812   0.03053448            1 
  818000    1.1070078   -7.3851524    293.86887  0.029937741  0.030526506            3 
  819000    1.1230702   -7.3746887    295.23893  0.030040591  0.030518589            2 
  820000    1.1222897   -7.4097647    295.41761  0.030022115  0.030510667            1 
  821000    1.1411706   -7.3491862    295.17268  0.029960686  0.030502742            3 
  822000    1.1318056   -7.3669364     296.5759  0.030066494  0.030494961            4 
  823000    1.1256689   -7.3808906    295.24954   0.02989566  0.030487459            3 
  824000     1.115237      -7.4022    296.72752  0.030008851  0.030479659            1 
  825000    1.1089292   -7.4162374     296.1328  0.029912404  0.030471757            2 
  826000    1.1016818   -7.3542956    298.11529  0.030076199  0.030463892            1 
  827000     1.116161   -7.3455297    297.37811   0.02996555  0.030456715            2 
  828000     1.115402   -7.3855634    297.68768  0.029960515  0.030449378            3 
  829000    1.1057414   -7.4022429    297.99054   0.02995482   0.03044195            1 
  830000    1.0863796   -7.3966617    298.00548  0.029920229  0.030434409            1 
  831000    1.1278983    -7.419877    299.16628   0.03000063  0.030426898            1 
  832000    1.1221044   -7.3760013    299.10717  0.029958651  0.030419329            1 
  833000    1.1243866   -7.4351085     298.7832  0.029890276  0.030411844            3 
  834000    1.1160423   -7.3923824    300.22349   0.02999835  0.030404571            1 
  835000    1.1005266   -7.3780918    299.28229  0.029868492  0.030397257            1 
  836000    1.0986876   -7.3603856    300.86206  0.029990237  0.030389671            1 
  837000    1.1049239   -7.4357126    298.90542    0.0297596  0.030381562            2 
  838000    1.1300433    -7.388685    299.00021  0.029733513  0.030373296            1 
  839000    1.1208025   -7.3925431    300.42924  0.029840012  0.030365321            2 
  840000    1.1432495   -7.4208704    300.72356  0.029833686  0.030357571            2 
  841000    1.1109029    -7.382972    302.59487  0.029983637  0.030349971            2 
  842000    1.0882908   -7.4269977    301.39874  0.029829645  0.030342457            4 
  843000    1.1242373   -7.3646732    303.16566  0.029968927  0.030335161            1 
  844000    1.1114611   -7.3508672    303.17287   0.02993413  0.030327753            2 
  845000    1.1303603   -7.4006128    302.37933  0.029820446   0.03032001            1 
  846000    1.1172977    -7.402702    302.14349  0.029761967  0.030312196            2 
  847000    1.1193921   -7.3989335    303.18261  0.029829065  0.030304306            3 
  848000    1.1255429    -7.396976    301.30481  0.029609356  0.030296112            4 
  849000    1.1226792   -7.4035875    303.22144  0.029762607  0.030287726            1 
  850000    1.1183698   -7.3501542    303.70448  0.029774949  0.030279447            2 
  851000    1.1012645   -7.3595063      303.322  0.029702507  0.030271286            2 
  852000    1.1186254   -7.4299698    302.59893  0.029596922  0.030262739            2 
  853000     1.118141   -7.3742023     304.2571  0.029724219  0.030254103            2 
  854000    1.1238509   -7.4212961    304.06755  0.029670916  0.030245877            2 
  855000    1.1170793   -7.3825018    303.78161  0.029608344  0.030237186            1 
  856000    1.0891596   -7.4298828    303.82479  0.029577958   0.03022884            1 
  857000    1.1142386   -7.3534755    305.24631  0.029681671  0.030220002            2 
  858000    1.0902548   -7.4604943    303.79948  0.029506554  0.030211056            2 
  859000    1.1164563   -7.3872782    304.97328  0.029586077  0.030202107            3 
  860000    1.1075572   -7.3507563    305.03532  0.029557686  0.030192994            2 
  861000    1.1293823   -7.4473135    304.38513  0.029460427  0.030183717            1 
  862000    1.1046163   -7.4032035    305.26607  0.029511414  0.030174468            1 
  863000    1.1185327   -7.3917186    305.07375  0.029458647  0.030165527            1 
  864000    1.1048329   -7.3930174    305.90613  0.029504835  0.030156399            1 
  865000    1.1080083   -7.3877309    306.77731  0.029554654  0.030147487            1 
  866000    1.1108586   -7.4543672    305.90917  0.029436987  0.030138698            1 
  867000    1.1280118   -7.3634425    306.70804  0.029479819   0.03012955            2 
  868000     1.114617   -7.3650517    307.87165   0.02955757   0.03012061            2 
  869000    1.1218182   -7.3966894     306.7475  0.029415756  0.030111719            1 
  870000    1.1311439   -7.4074413    307.75083  0.029478049  0.030102667            3 
  871000    1.1126814   -7.4009974    307.88544  0.029457084   0.03009359            2 
  872000    1.1107437   -7.4039867     307.5822  0.029394324  0.030084622            2 
  873000     1.097733   -7.4326351    307.70482  0.029372358  0.030075497            1 
  874000    1.1388137   -7.3645258    309.83615  0.029541967  0.030066334            2 
  875000    1.0999631   -7.4194636    308.65971  0.029396163  0.030057506            1 
  876000    1.1305069   -7.3775517    310.34143  0.029522587  0.030048562            2 
  877000     1.099559   -7.4064629    308.10016  0.029275956  0.030039687            3 
  878000      1.12263   -7.4065837    308.35705  0.029266994  0.030030535            2 
  879000    1.1250563   -7.4314723    309.59271  0.029350845  0.030021164            1 
  880000    1.1135847   -7.4114402    309.31863  0.029291537  0.030011989            2 
  881000    1.1177534   -7.3817272     311.2859  0.029444372  0.030002872            1 
  882000    1.1049581   -7.4220658     310.0832  0.029297354  0.029994062            2 
  883000    1.1034909   -7.4003721    310.97085  0.029347947   0.02998526            3 
  884000    1.1268964   -7.3724561    311.61733  0.029375691  0.029976587            1 
  885000    1.1141874   -7.4152327    311.53121  0.029334389  0.029967617            1 
  886000    1.1141194   -7.4510274    311.96658  0.029342229  0.029958823            2 
  887000    1.1058849   -7.4396141    312.78741  0.029386266  0.029950024            1 
  888000    1.0882574   -7.3914504    314.03338  0.029470099  0.029941401            2 
  889000    1.1214149   -7.4267075    312.53054  0.029296076  0.029932849            3 
  890000    1.1236959   -7.4254811    312.58274  0.029268047  0.029924007            2 
  891000    1.0900372   -7.4035281    313.64774  0.029334805  0.029915764            2 
  892000     1.118883   -7.4081509    314.32861  0.029365528  0.029907134            1 
  893000    1.1067372   -7.4248051    314.75315  0.029372261  0.029898776            6 
  894000    1.0937802   -7.3959685    314.93261  0.029356134  0.029890481            2 
  895000     1.123943   -7.4226611     314.6424  0.029296313  0.029882202            1 
  896000    1.1186064   -7.3948983    315.56947  0.029349839  0.029873689            3 
  897000    1.1195189   -7.4185417    314.79079  0.029244778  0.029865343            1 
  898000    1.1011434   -7.3976368    316.40296  0.029361819  0.029857171            3 
  899000    1.0927925   -7.4117039    316.86634  0.029372112  0.029848922            2 
  900000    1.1047643   -7.4359587     315.3957  0.029203306  0.029840924            1 
  901000    1.1327019   -7.3915391    316.81495   0.02930216  0.029832821            1 
  902000    1.0749044   -7.4198278    317.60202  0.029342389  0.029824804            2 
  903000    1.1299546   -7.4372203    318.29135  0.029373509  0.029816937            2 
  904000    1.1132257   -7.4542231    318.35819  0.029347178  0.029809045            2 
  905000    1.0868797   -7.4430251    318.86125  0.029361073  0.029801157            1 
  906000    1.1216035   -7.3936911    319.19134  0.029359027  0.029793314            2 
  907000    1.0968953   -7.4211486    318.32473  0.029247035  0.029784937            3 
  908000    1.0859591   -7.3921215    318.63677  0.029243463    0.0297768            1 
  909000    1.1107199   -7.3914725     320.5722  0.029388724  0.029768706            2 
  910000    1.1066347     -7.42273    319.39736  0.029248842  0.029760638            2 
  911000    1.1299129   -7.4140358    318.71794  0.029154586  0.029752619            1 
  912000    1.1128946    -7.427129    320.56281  0.029291193  0.029744524            1 
  913000    1.0949711   -7.4427292    319.63633  0.029174547  0.029736294            1 
  914000    1.1133226   -7.4382419    320.62124  0.029232425  0.029728032            2 
  915000    1.1130673    -7.436597    321.76399  0.029304553   0.02972015            2 
  916000    1.1252331   -7.4168342    321.74953  0.029271245  0.029712222            4 
  917000    1.1014096   -7.4191404    321.39194  0.029206828  0.029704346            1 
  918000    1.0985394   -7.4566213    322.09305  0.029238657  0.029696185            1 
  919000    1.0968503   -7.4112791    322.44136  0.029238426  0.029687958            3 
  920000    1.1011662    -7.443425      322.573  0.029218569  0.029679695            2 
  921000    1.0980942    -7.428962    322.50729  0.029180898  0.029671148            1 
  922000    1.0950386   -7.5101348    321.98567  0.029102103  0.029662724            2 
  923000    1.1085121   -7.4045925    323.04022  0.029165784  0.029654243            2 
  924000    1.1149532   -7.4238991    323.60232  0.029184913  0.029645975       -1e+20 
  925000    1.0929354   -7.4230729    322.71579  0.029073495  0.029637506            2 
  926000    1.0914385   -7.4172323    324.52493  0.029204907  0.029629063            1 
  927000    1.0981632   -7.4134889    324.11221  0.029136301  0.029620705            1 
  928000     1.101199   -7.4653137    322.79378   0.02898651  0.029612394            1 
  929000    1.1131821   -7.4497982    323.59241  0.029026947  0.029603813            2 
  930000    1.1093598   -7.4189465    324.60301  0.029086291  0.029595262            1 
  931000     1.122637   -7.3837982    325.19371  0.029107923  0.029586868            2 
  932000     1.091991   -7.4450281    324.88203  0.029048822  0.029578555            3 
  933000    1.0764651   -7.4491378     325.3578  0.029060182  0.029570234            1 
  934000    1.0860954   -7.4775792    325.03698  0.029000444  0.029561865            2 
  935000    1.0837156   -7.4165275    326.68426  0.029116244    0.0295535            1 
  936000    1.0958529   -7.4566349    326.16093  0.029038544  0.029545385            2 
  937000     1.104849   -7.4474961    327.02939  0.029084791  0.029537234            2 
  938000    1.0831248   -7.4463893    326.53214  0.029009608  0.029528957            2 
  939000    1.0993645   -7.3927418    327.26786  0.029044006  0.029520899            2 
  940000    1.0881005    -7.474252    327.72451  0.029053591  0.029512754            2 
  941000    1.0924412   -7.4051654    327.70924  0.029021363  0.029504803            1 
  942000    1.1094512   -7.4261667     328.6776  0.029076221  0.029496919            2 
  943000    1.0881387   -7.4099124    328.33661  0.029015254  0.029489128            3 
  944000    1.0976377   -7.4238336    329.02955  0.029045688  0.029481062            1 
  945000     1.105979   -7.4249623    327.82883  0.028909068  0.029472747            1 
  946000    1.0838093   -7.4337415    329.70041  0.029043376  0.029464257            3 
  947000    1.0874785   -7.4380167    329.10862  0.028960632  0.029455627            2 
  948000     1.130162   -7.4319433    328.13192  0.028844226  0.029446792            1 
  949000    1.1175839   -7.4326113    328.66213  0.028860391  0.029438032            5 
  950000    1.1166995   -7.4422283    328.97935  0.028857838  0.029429346            2 
  951000    1.0933517   -7.4211635     329.6283  0.028884358  0.029420903            2 
  952000    1.0869853   -7.4277083    329.77071  0.028866484  0.029412206            1 
  953000     1.089462   -7.4169416    329.87578  0.028845381  0.029403338            1 
  954000    1.0797425   -7.4108593     329.8945  0.028816781   0.02939455            3 
  955000    1.0857478   -7.4529438    329.73063  0.028772307  0.029385604            1 
  956000     1.121089   -7.4327741    329.41234  0.028714465  0.029376498            1 
  957000    1.0913048   -7.4590633    329.90594  0.028727441  0.029367267            1 
  958000    1.0985235   -7.4645373    329.81501  0.028689545  0.029358085            1 
  959000    1.1013274   -7.4086248    331.54161  0.028809664  0.029349212            6 
  960000     1.094265    -7.438314    331.06631  0.028738395   0.02934027            2 
  961000    1.0898227   -7.4454907    329.90817  0.028608062  0.029331206            1 
  962000    1.0998322   -7.4187655    331.28923  0.028697958  0.029322082            2 
  963000    1.0824169   -7.4487942    330.80953  0.028626647  0.029312972            4 
  964000    1.0947145   -7.4282831    332.75328   0.02876498  0.029303841            2 
  965000    1.0813631   -7.4307375    333.07573  0.028763016  0.029295037            2 
  966000     1.102993   -7.4497576     332.1514  0.028653503  0.029286296            2 
  967000    1.0944125     -7.43896    332.91684  0.028689834  0.029277201            3 
  968000    1.0797899   -7.4477897    333.01296  0.028668471  0.029268069            3 
  969000    1.1064103   -7.4842565    333.28726  0.028662475  0.029259064            3 
  970000    1.0845592    -7.475639    332.48787   0.02856425  0.029249953            1 
  971000    1.0936485   -7.4421359    333.13742  0.028590578  0.029240886            1 
  972000    1.1009307   -7.4235018    334.06267  0.028640489  0.029231844            1 
  973000    1.0910739   -7.4594356    335.45786  0.028730546  0.029222796            3 
  974000    1.0907393   -7.3987794    335.76572  0.028727389  0.029213788            2 
  975000    1.1191506   -7.4454916    334.61619  0.028599674  0.029204933            1 
  976000    1.1111609   -7.4135537    335.19005  0.028619369  0.029195699            2 
  977000    1.0815597   -7.4357832    335.04423  0.028577638  0.029186438            4 
  978000    1.1123109   -7.4104908    336.88159  0.028704976   0.02917734            4 
  979000    1.0890852   -7.4437296    335.06961  0.028521417  0.029168333            2 
  980000    1.0877904   -7.4623834    335.56236  0.028534214   0.02915945            3 
  981000    1.0906173   -7.4658404    336.66878  0.028599115  0.029150412            6 
  982000    1.0992678   -7.4584428    336.35855  0.028543666  0.029141427            3 
  983000    1.0875409   -7.4538438    337.09345  0.028576929   0.02913247            2 
  984000    1.1020877   -7.4774745    337.41848  0.028575413  0.029123516            2 
  985000    1.0861038   -7.4439096    337.98773  0.028594562  0.029114598            2 
  986000    1.0847937   -7.3816595    338.81943  0.028635855    0.0291059            3 
  987000    1.1054651   -7.4785777    338.33294  0.028565766  0.029097148            1 
  988000    1.0947599   -7.4587704    337.76178  0.028488679  0.029088379            1 
  989000    1.0545869   -7.4618284    338.37844  0.028511833  0.029079556            4 
  990000    1.1162585   -7.4892065    338.58879   0.02850074  0.029070644            1 
  991000    1.0650688   -7.4567088    339.13588  0.028517985  0.029061745            1 
  992000    1.0827528   -7.4341463    339.26523  0.028500103  0.029052689            1 
  993000     1.078088   -7.4788622    339.19529  0.028465533  0.029043988            2 
  994000    1.1181505   -7.4643416    339.25185  0.028441637  0.029035085            4 
  995000    1.1032905    -7.410576    341.38263   0.02859151  0.029026364            3 
  996000    1.0748387   -7.4888631    339.83024  0.028432918  0.029017473            1 
  997000    1.0885759   -7.4711219    339.93699  0.028413323  0.029008446            3 
  998000    1.0809612   -7.4503045    341.09115  0.028481225  0.028999529            1 
  999000    1.0703583   -7.4049968    340.99145  0.028444398  0.028990842            3 
 1000000     1.092706   -7.4708676    342.22971  0.028519143   0.02898224            1 
 1001000    1.0848503   -7.4339115    342.51025  0.028514007  0.028973725            2 
 1002000    1.0784946   -7.4686888    341.66732  0.028415446  0.028964944            2 
 1003000    1.1020612   -7.4619868    342.46765   0.02845361  0.028956435            2 
 1004000    1.1056391    -7.498975    342.60715  0.028436848  0.028947823            1 
 1005000     1.080983   -7.4327947    343.93959  0.028519037  0.028939481            1 
 1006000    1.0866065   -7.4345382    344.01443  0.028496888   0.02893116            1 
 1007000    1.0981182   -7.4455164    343.67802   0.02844075   0.02892269            3 
 1008000     1.088177   -7.4745506    344.22936  0.028458115  0.028914265            1 
 1009000    1.0950789   -7.4114036     345.4959  0.028534514  0.028905823            1 
 1010000    1.0936904   -7.4462388    344.24941  0.028403416  0.028897399            3 
 1011000    1.0802883   -7.4671319    344.81578  0.028422006  0.028889007            2 
 1012000    1.0888112   -7.4575948    345.27557  0.028431782  0.028880755            1 
 1013000    1.0789759    -7.491204    345.09804  0.028389111  0.028872194            1 
 1014000     1.096392   -7.5243564    344.72057  0.028330093  0.028863633            2 
 1015000     1.124718   -7.5074233    345.01912  0.028326693  0.028855089            3 
 1016000     1.106329   -7.5009546    345.90806  0.028371724  0.028846644            1 
 1017000    1.1105039   -7.4351966    345.91157  0.028344114  0.028838153            2 
 1018000    1.0804235   -7.4328529    346.79722   0.02838877  0.028829954            1 
 1019000    1.0748706   -7.4622477    347.00084  0.028377563  0.028821474            2 
 1020000    1.0742878   -7.4667957    346.59378  0.028316485  0.028813026            1 
 1021000    1.0809338   -7.4826047    346.49227  0.028280466  0.028804519            3 
 1022000    1.1020221   -7.5195219    346.41733  0.028246684  0.028795674            1 
 1023000    1.0858882   -7.4613586    347.44814  0.028303042  0.028787019            3 
 1024000    1.1099241   -7.4504387    347.54921  0.028283627  0.028778535            1 
 1025000    1.0820864   -7.4485476    348.02232  0.028294497  0.028769944            3 
 1026000    1.0842792   -7.4730478    348.22277  0.028283201  0.028761271            1 
 1027000    1.0955663   -7.4330915    348.64439  0.028289873  0.028752646            1 
 1028000    1.0834694    -7.471257    347.31883  0.028154899  0.028743893            3 
 1029000    1.0843276    -7.468688    347.51968  0.028143803  0.028734948            2 
 1030000    1.0663119   -7.4663929    348.81617  0.028221373  0.028726277            1 
 1031000    1.0603123    -7.443149    349.07196  0.028214675  0.028717549            2 
 1032000    1.0725049   -7.4646062    349.48259  0.028220494  0.028708735            4 
 1033000    1.0994141   -7.4663573    349.63726  0.028205652  0.028700101            3 
 1034000    1.0860675   -7.5368483    349.12518  0.028137104  0.028691428            2 
 1035000    1.0721526   -7.4856649    350.08315  0.028187049  0.028682563            1 
 1036000    1.0801159   -7.4932116    349.66944  0.028126564  0.028673769            3 
 1037000    1.0745719   -7.4655794    350.61314  0.028175277  0.028665262            2 
 1038000    1.0804651   -7.4904416    350.50788  0.028139682  0.028656812            2 
 1039000    1.0613768   -7.4658511    351.92458  0.028226226  0.028648204            4 
 1040000    1.0803612   -7.4603858    351.27877  0.028147337  0.028639699            2 
 1041000    1.0965247   -7.5150297    350.26387  0.028039054  0.028631075            1 
 1042000    1.0715049    -7.442492    353.46139  0.028267865  0.028622732            1 
 1043000    1.0953295    -7.458473    352.69993  0.028179924   0.02861451            2 
 1044000    1.1009219   -7.4797621    352.43396  0.028131702  0.028606008            2 
 1045000    1.0796564   -7.4573247    352.66508  0.028123212  0.028597271            1 
 1046000    1.0852288   -7.4776349    353.21713  0.028140307  0.028588778            2 
 1047000    1.1196215   -7.4920535    353.82538  0.028161842  0.028580076            1 
 1048000    1.0762376   -7.4767179     352.4418  0.028024952  0.028571344            1 
 1049000    1.0924033   -7.4842798    354.09584  0.028129635  0.028562691            2 
 1050000    1.0884518   -7.4944185    352.11203  0.027945399  0.028553907            2 
 1051000    1.0797051   -7.5021324    352.98344  0.027987904  0.028545082            4 
 1052000    1.0872658   -7.4213022    354.66696  0.028094658  0.028536239            1 
 1053000      1.08471    -7.480727     354.8739  0.028084354  0.028527665            3 
 1054000    1.0720855   -7.5182962    354.57966  0.028034445  0.028518966            1 
 1055000    1.0798814   -7.4564164    355.13738  0.028051926  0.028510374            1 
 1056000    1.0865251   -7.4536373     356.0284  0.028095676  0.028502042            2 
 1057000    1.0951304   -7.5268463    355.52009   0.02802902  0.028493683            2 
 1058000    1.0688151   -7.4624278    357.62234  0.028168111   0.02848551            2 
 1059000    1.0913821   -7.4447168    356.68861  0.028068037  0.028477375            1 
 1060000    1.0690697   -7.4815952    356.88658  0.028057121  0.028469071            2 
 1061000    1.0879992   -7.4521884     357.2299  0.028057643  0.028460748            4 
 1062000    1.0740113   -7.4635662    358.02148  0.028093337  0.028452279            1 
 1063000    1.1089913   -7.4816151    356.78414  0.027969907  0.028443838            2 
 1064000     1.087164   -7.4726004    357.59593    0.0280072  0.028435336            1 
 1065000    1.0801495   -7.4897394    357.54481  0.027976902  0.028426873            1 
 1066000    1.0841636   -7.4651317    358.63414  0.028035814   0.02841825            1 
 1067000     1.080262   -7.4932888    357.38377  0.027911884  0.028409668            3 
 1068000     1.069271   -7.5041092    357.97319  0.027931741  0.028401074            2 
 1069000    1.0675832   -7.4977886     357.9165  0.027901193  0.028392404            3 
 1070000    1.0803685   -7.4707886    358.27437  0.027902988  0.028383908            3 
 1071000    1.0854432   -7.5145154    358.11019   0.02786416  0.028375255            3 
 1072000    1.0710082   -7.4816112     358.6432  0.027879602  0.028366424            2 
 1073000    1.1049978   -7.4748258    359.37398  0.027910375  0.028357908            1 
 1074000    1.1056119   -7.5053168    360.08778  0.027939772  0.028349459            1 
 1075000    1.0900901   -7.5218366    359.09158  0.027836557   0.02834092            2 
 1076000    1.0870869    -7.511124    359.67227  0.027855659  0.028332352            4 
 1077000    1.0985569   -7.4521374    361.22095  0.027949624  0.028323918            2 
 1078000    1.0752884    -7.491089    360.17114  0.027842543  0.028315683            3 
 1079000    1.0606049   -7.5089306    361.70852  0.027935474  0.028307315            2 
 1080000    1.1212041   -7.4762997    361.42483  0.027887718  0.028298911            1 
 1081000    1.0695042   -7.4618021    362.51352  0.027945846  0.028290475            4 
 1082000    1.0729688   -7.4986822    361.31178  0.027827463  0.028282169            1 
 1083000    1.0756135   -7.4998425     361.9633  0.027851901  0.028273804            1 
 1084000    1.1082775   -7.5034471    361.27653  0.027773411  0.028265588            3 
 1085000    1.0796772   -7.4879141    363.44436  0.027914313  0.028257286            1 
 1086000    1.0774045   -7.5139128    363.20608  0.027870325  0.028248995            2 
 1087000     1.108755   -7.5007419    362.55376  0.027794677  0.028240654            1 
 1088000    1.0822945   -7.4652528    363.78606  0.027863516  0.028232264            2 
 1089000    1.0807826   -7.4838832    363.10563  0.027785861  0.028223856            2 
 1090000    1.1048126   -7.5259025    361.87121  0.027665995  0.028215011            4 
 1091000    1.0824599   -7.5012851     364.7287  0.027858899  0.028206318            3 
 1092000    1.0805191   -7.4975174    363.47175  0.027737466  0.028197821            2 
 1093000    1.0859027   -7.5538003    362.71141  0.027654118  0.028189011            2 
 1094000     1.076332    -7.477873    364.41442  0.027758563  0.028180288            1 
 1095000    1.0754388   -7.5083368    363.47809  0.027661955   0.02817166            1 
 1096000    1.0607023   -7.4811881    365.16515   0.02776499  0.028163199            2 
 1097000    1.0807154   -7.4275767    364.93459  0.027722166  0.028154858            1 
 1098000    1.0766492   -7.5456552    363.93883  0.027621344  0.028146329            1 
 1099000    1.1037215   -7.4881747    365.68164  0.027728362  0.028137842            1 
 1100000    1.0553066   -7.4608254    365.00664  0.027652018  0.028129238            2 
 1101000     1.070191   -7.5193694      364.412  0.027581895  0.028120679            2 
 1102000    1.0629177   -7.4995954    365.15021   0.02761269  0.028111982            1 
 1103000    1.0961212   -7.4789788    365.72362  0.027630977  0.028103294            2 
 1104000    1.0591194   -7.4757998    366.28573   0.02764838  0.028094787            3 
 1105000    1.0908342   -7.5225375     365.4958  0.027563786  0.028086014            2 
 1106000    1.0634153   -7.4890683    365.58665  0.027545709  0.028077348            1 
 1107000    1.0760277   -7.5270441    365.44966  0.027510513  0.028068598            2 
 1108000    1.0755461    -7.491702    367.16447  0.027614657  0.028059845            2 
 1109000    1.0643143   -7.5058121    366.98777  0.027576478  0.028051125            2 
 1110000    1.0761548   -7.4862213    366.43633  0.027510235  0.028042456            1 
 1111000    1.0862337   -7.5057647     367.5709  0.027570574  0.028033536            1 
 1112000    1.0918293   -7.4827145    367.58519  0.027546852  0.028024858            1 
 1113000    1.0717008   -7.5198629    367.46307  0.027512958  0.028016053            1 
 1114000    1.0774396   -7.4843363    368.21587  0.027544574  0.028007112            2 
 1115000    1.0728359   -7.4933824    369.83227  0.027640678  0.027998395            2 
 1116000    1.0675442   -7.4692881    368.61229  0.027524812  0.027989848            1 
 1117000    1.0618445   -7.5171145    368.46224  0.027488976   0.02798109            1 
 1118000    1.0829396   -7.5021969     369.9314  0.027573897  0.027972366            1 
 1119000    1.0527366   -7.4830943      369.296  0.027501936  0.027963668            2 
 1120000    1.0807182   -7.5007661    369.45423  0.027489154   0.02795514            1 
 1121000    1.0538038   -7.5376779    368.37463  0.027384376  0.027946469            5 
 1122000    1.0802206   -7.4883983    370.16526  0.027492963  0.027937759            3 
 1123000    1.0832016   -7.5349524    368.76092  0.027364271   0.02792893            1 
 1124000    1.0458431   -7.5066219    370.71058  0.027484474  0.027920187            1 
 1125000    1.0663285   -7.5415736    369.65914  0.027382159  0.027911438            1 
 1126000    1.0715077   -7.5271961    370.37191  0.027410591  0.027902539            1 
 1127000    1.0637939   -7.5268287    371.39533  0.027461944  0.027893617            1 
 1128000    1.0772508   -7.5078055     370.9305  0.027403258  0.027884954            3 
 1129000    1.0640225   -7.4995633     371.5752  0.027426572  0.027876309            2 
 1130000    1.0763742   -7.5238995    371.18417  0.027373464  0.027867595            2 
 1131000    1.0737794   -7.5303059     371.7916  0.027394017  0.027858857            4 
 1132000    1.0811505   -7.4965455    372.88808  0.027450536  0.027850214            2 
 1133000    1.0759239   -7.4706701    373.56263  0.027475922  0.027841595            2 
 1134000    1.0461777    -7.520382    373.61506  0.027455545  0.027833035            3 
 1135000    1.0598237   -7.5330438    371.47324    0.0272741  0.027824332            2 
 1136000    1.0528807   -7.5512418    372.88796   0.02735387  0.027815578            1 
 1137000    1.0686049   -7.5312029    372.75306  0.027319925  0.027806919            2 
 1138000    1.0923807   -7.5304976    373.87435  0.027378028   0.02779819            3 
 1139000    1.0599649   -7.5331926    373.93271  0.027358261  0.027789331            1 
 1140000    1.0714354    -7.530796    372.81934  0.027252876  0.027780576            3 
 1141000    1.0634869   -7.4980662     372.8805  0.027233458  0.027771777            2 
 1142000    1.0720468   -7.4841462    374.05481  0.027295301  0.027762872            1 
 1143000    1.0668015   -7.5058717    373.32902  0.027218505  0.027754109            2 
 1144000    1.0835761   -7.5107779    374.32302   0.02726712  0.027745193            1 
 1145000     1.060732   -7.5541278    373.14472  0.027157549  0.027736214            2 
 1146000    1.0719122   -7.5090099     374.9033  0.027261729  0.027727252            1 
 1147000    1.0774631   -7.5356984     374.4884  0.027207818  0.027718258            1 
 1148000    1.0682415    -7.509224    374.21127     0.027164  0.027709285            3 
 1149000    1.0837883   -7.5557658     374.5662  0.027166101  0.027700421            2 
 1150000     1.086447   -7.5237749    375.82272   0.02723353   0.02769148            7 
 1151000    1.0638949   -7.5237444     375.2946  0.027171633  0.027682575            1 
 1152000    1.0802543    -7.486961    376.42119  0.027229542  0.027673668            2 
 1153000    1.0795841   -7.4980669    377.54583  0.027287209  0.027664927            1 
 1154000    1.0720444   -7.5112842    377.13154  0.027233646  0.027656243            1 
 1155000    1.0596656   -7.4963393    378.77772   0.02732884  0.027647787            1 
 1156000    1.0712596   -7.5514682    378.21216  0.027264429   0.02763936            2 
 1157000    1.0829054   -7.5051877    378.76174  0.027280448   0.02763103            1 
 1158000    1.0630899   -7.5169202    379.58581  0.027316192  0.027622798            2 
 1159000    1.0265338   -7.5139392    379.65835  0.027297839  0.027614598            1 
 1160000     1.090623   -7.5432111    378.93426  0.027222288  0.027606285            1 
 1161000    1.0282633   -7.5047721    379.76538  0.027258497  0.027597986            1 
 1162000    1.0742868   -7.5521707    379.52733  0.027217967  0.027589661            3 
 1163000     1.082363   -7.5276451     380.2196  0.027244168  0.027581417            2 
 1164000    1.0550454   -7.5302397     379.6421  0.027179417  0.027573027            1 
 1165000    1.0491416   -7.5225826     380.1736  0.027194106  0.027564609            3 
 1166000    1.0646453   -7.5227975    380.94692  0.027226052   0.02755618            1 
 1167000    1.0740932    -7.547929    380.34089  0.027159447  0.027547695            1 
 1168000    1.0718367   -7.5018259    380.46006  0.027144696  0.027539155            1 
 1169000    1.0549567   -7.5286759     380.4873  0.027123417    0.0275304            3 
 1170000    1.0479563   -7.5181929    380.57872  0.027106746  0.027521738            1 
 1171000    1.0798118   -7.5293453    380.00131  0.027042507  0.027513138            1 
 1172000    1.0794648    -7.514752    380.70362   0.02706937  0.027504349            2 
 1173000    1.0453837   -7.4675237    380.83487  0.027055617  0.027495651            2 
 1174000    1.0563769   -7.5495437    380.60657  0.027016366  0.027486868            2 
 1175000    1.0363335   -7.5353766    381.17492  0.027033682  0.027478129            1 
 1176000    1.0829228    -7.501443    382.27546  0.027088681  0.027469506            2 
 1177000    1.0510353   -7.4819759    383.54306  0.027155414  0.027460911            2 
 1178000     1.094939   -7.5376382    383.52499  0.027131083  0.027452376            1 
 1179000    1.0857391   -7.5381538    382.00829  0.027000868  0.027443672            2 
 1180000    1.0816143   -7.5034689    383.33561  0.027071724  0.027435102            2 
 1181000    1.0712989   -7.4871551    384.46519  0.027128506  0.027426721            3 
 1182000    1.0582834   -7.5552184    383.05247  0.027005955  0.027418267            2 
 1183000    1.0842466   -7.5208551    384.18072  0.027062604  0.027409708            4 
 1184000    1.0866327   -7.5600629    384.40639   0.02705563  0.027401324            2 
 1185000    1.0445832   -7.6062037    383.30302  0.026955205  0.027392859            2 
 1186000    1.0800501   -7.5398737     385.2821  0.027071536  0.027384269            2 
 1187000    1.0637494   -7.5071489    384.32657  0.026981647  0.027375966            2 
 1188000    1.0527827   -7.5511965    383.95305  0.026932734  0.027367534            1 
 1189000    1.0593904   -7.4971389    386.69401  0.027102187  0.027359226            2 
 1190000    1.0698749   -7.5413891    384.61242  0.026933643     0.027351            1 
 1191000    1.0618538   -7.5208383    385.66855  0.026984925  0.027342602            3 
 1192000     1.034227   -7.5428488     386.7102  0.027035109  0.027334258            2 
 1193000    1.0735035   -7.5084351    386.62554  0.027006534  0.027326018            4 
 1194000    1.0682641   -7.5212233     387.2276  0.027025935  0.027317824            1 
 1195000    1.0756053   -7.5326196    387.51543  0.027023391  0.027309679            1 
 1196000    1.0654704   -7.5355138    388.15205  0.027045154  0.027301706            3 
 1197000    1.0506774   -7.5843557    387.91108  0.027005784  0.027293707            1 
 1198000    1.0483388   -7.4953535    388.82435  0.027046769  0.027285824            3 
 1199000    1.0615441   -7.5200737    388.83456  0.027024921  0.027277877            1 
 1200000    1.0642707   -7.5964074     387.8496     0.026934  0.027269804            2 
 1201000    1.0546122   -7.5455075    388.62842  0.026965614  0.027261742            3 
 1202000    1.0584499   -7.5271894    388.86403  0.026959514  0.027253775            2 
 1203000    1.0681047   -7.5608048    389.07189  0.026951502  0.027245944            1 
 1204000    1.0627563   -7.5168015    390.65301  0.027038553  0.027238069            3 
 1205000    1.0657694   -7.5704272    389.10744  0.026909229  0.027230147            1 
 1206000    1.0587286    -7.520113     390.5174  0.026984342  0.027222269            3 
 1207000    1.0588009   -7.5191829    391.92998  0.027059513    0.0272145            3 
 1208000    1.0618829     -7.55841    390.18356  0.026916637  0.027206745            2 
 1209000    1.0540409   -7.5150971    390.79012  0.026936181  0.027198915            1 
 1210000    1.0665729   -7.5084529    392.02276  0.026998812  0.027191138            3 
 1211000    1.0491943   -7.5294061    390.82154  0.026893857   0.02718329            3 
 1212000    1.0694669   -7.5420139    391.85742  0.026942892   0.02717536            2 
 1213000    1.0817145   -7.5309824    390.95271  0.026858526  0.027167439            1 
 1214000     1.070586   -7.4896207     393.2937  0.026997096  0.027159955            1 
 1215000    1.0458503   -7.5048941    393.83871  0.027012257  0.027152492            2 
 1216000    1.0639923   -7.5618182    392.68689  0.026911108  0.027144806            1 
 1217000    1.0761434   -7.5478417    392.86289  0.026901047  0.027137238            3 
 1218000    1.0648961   -7.5642613    391.42963  0.026780899  0.027129627            5 
 1219000    1.0726545     -7.55566      393.509   0.02690108  0.027121921            2 
 1220000    1.0651615   -7.5506465    392.99842  0.026844154  0.027114265            2 
 1221000    1.0528295   -7.5652906    393.34911  0.026846103  0.027106485            2 
 1222000     1.059441     -7.56228     393.4369  0.026830121  0.027098659            5 
 1223000    1.0570664    -7.541892    394.33671  0.026869495  0.027090756            2 
 1224000    1.0533399    -7.541428    394.68956  0.026871566  0.027082982            8 
 1225000    1.0495831   -7.5871703    394.37125  0.026827976  0.027075179            3 
 1226000     1.049518   -7.5211976    396.00519  0.026917156  0.027067411            3 
 1227000    1.0569632   -7.5455766    395.49416  0.026860511  0.027059914            1 
 1228000    1.0466513   -7.5296962    396.60227  0.026913835  0.027052349            1 
 1229000    1.0472783   -7.5283289    396.75525  0.026902309  0.027044919            3 
 1230000    1.0596364   -7.5361219    396.28418  0.026848521  0.027037492            2 
 1231000    1.0461198   -7.5068343     397.1635  0.026886237  0.027030019            1 
 1232000    1.0516681   -7.5366571    397.47304  0.026885352  0.027022669            2 
 1233000    1.0746807   -7.5558377    397.49782  0.026865222  0.027015226            2 
 1234000     1.081463   -7.5172518    398.18671  0.026889972  0.027007738            2 
 1235000    1.0600768   -7.5644484    398.33969  0.026878522  0.027000253            2 
 1236000    1.0481627   -7.5192489     398.3445    0.0268571  0.026992916            2 
 1237000    1.0581231    -7.526863    397.24655  0.026761422  0.026985484            1 
 1238000    1.0495573   -7.5410644    397.88076  0.026782496  0.026978017            4 
 1239000    1.0731785   -7.5360579    398.54125  0.026805303  0.026970665            1 
 1240000    1.0707814   -7.5058604    398.95161  0.026811264  0.026963275            4 
 1241000    1.0511694   -7.5654559    398.77924  0.026778085   0.02695595            3 
 1242000    1.0612301   -7.5629581    399.23885  0.026787362  0.026948709            2 
 1243000    1.0640527   -7.5620928    399.23562  0.026765595  0.026941292            1 
 1244000    1.0365492   -7.5503511    399.66425  0.026772793  0.026933859            1 
 1245000     1.060895   -7.5654118    398.60916  0.026680666  0.026926429            1 
 1246000    1.0596722   -7.5041222    401.57324  0.026857493  0.026919268            1 
 1247000    1.0571976   -7.5591899    400.46652  0.026761997  0.026912007            2 
 1248000    1.0694049   -7.5663354     401.3139  0.026797135  0.026904685            2 
 1249000    1.0384212   -7.5881849    400.92829  0.026749953  0.026897235            2 
 1250000    1.0337886    -7.507604    401.41874  0.026761249  0.026890015            2 
 1251000    1.0450255   -7.5234231    402.77145  0.026829966  0.026882776            1 
 1252000    1.0447088    -7.550854    403.22676  0.026838842  0.026875633            2 
 1253000    1.0585314   -7.5506753    402.63994  0.026778394  0.026868592            1 
 1254000    1.0462635   -7.5003037     404.7792  0.026899203  0.026861606            2 
 1255000    1.0402627   -7.5298943    404.25974  0.026843276  0.026854749            1 
 1256000    1.0427506   -7.5136949    404.79734  0.026857573  0.026847806            2 
 1257000    1.0530291   -7.5636433    403.31381  0.026737855  0.026840842            1 
 1258000    1.0641114   -7.5244109     403.3371  0.026718144  0.026833784            2 
 1259000    1.0513544   -7.5515819    403.35427  0.026698058  0.026826704            4 
 1260000    1.0361895   -7.5719848    403.55499  0.026690145  0.026819634            1 
 1261000     1.074958   -7.5725636    405.04637  0.026767537  0.026812633            2 
 1262000    1.0468451   -7.5061297    406.20673  0.026822949   0.02680577            4 
 1263000     1.037124   -7.5489418    406.38145  0.026813239  0.026799083            4 
 1264000    1.0630019   -7.5680225    405.67613  0.026745525  0.026792142            2 
 1265000    1.0401563   -7.5620387    407.22537  0.026826441  0.026785174            2 
 1266000    1.0443623   -7.5545665    406.08608  0.026730258  0.026778383            2 
 1267000    1.0406301   -7.5406796    407.05362  0.026772798  0.026771502            2 
 1268000    1.0483306   -7.5505643    406.57657  0.026720332  0.026764652            1 
 1269000    1.0421477   -7.5787346    406.00817   0.02666195  0.026757686            2 
 1270000     1.039858   -7.5851658    407.03183  0.026708125  0.026750672            1 
 1271000    1.0440628   -7.5351655    407.99411  0.026750204  0.026743817            1 
 1272000    1.0205902   -7.5443944    407.37668  0.026688724  0.026736835            3 
 1273000    1.0416333   -7.5756436    407.41403  0.026670204  0.026729857            3 
 1274000     1.034646    -7.586171    405.18698  0.026503596  0.026722889            2 
 1275000    1.0481523   -7.5443824    407.49951  0.026633955  0.026715758            2 
 1276000    1.0516569   -7.5616507    407.65357  0.026623143  0.026708623            3 
 1277000    1.0478144   -7.5493063    407.97651  0.026623369   0.02670139            1 
 1278000    1.0534444   -7.5696643    407.34338  0.026561253   0.02669428            2 
 1279000    1.0643958    -7.559605    408.07006  0.026587833    0.0266871            1 
 1280000    1.0459965   -7.5471576    408.31259  0.026582851  0.026679842            3 
 1281000    1.0567136   -7.5600321    409.35928   0.02663019  0.026672738            2 
 1282000    1.0581107   -7.5642678    409.35547   0.02660917  0.026665584            2 
 1283000    1.0358817   -7.5656488    409.90087  0.026623855  0.026658546            1 
 1284000    1.0468171   -7.5460041    409.31609  0.026565167  0.026651476            1 
 1285000    1.0331865   -7.5859814    409.44301  0.026552724  0.026644337            3 
 1286000    1.0337017   -7.5761251    409.35108   0.02652612  0.026637064            1 
 1287000     1.040331   -7.5454038    408.34202  0.026440172  0.026629768            3 
 1288000    1.0585523   -7.5437402    410.21707   0.02654096  0.026622434            5 
 1289000    1.0260612   -7.5596354    410.41661  0.026533269  0.026615257            1 
 1290000    1.0541799   -7.6116457    409.88389  0.026478287  0.026608129            2 
 1291000    1.0359202   -7.5840582    410.62005  0.026505296  0.026601126            3 
 1292000    1.0534094   -7.5906476    409.33554  0.026401931  0.026594031            7 
 1293000    1.0497631   -7.5600752    411.84552  0.026543279  0.026587055            2 
 1294000    1.0346366   -7.5672076    411.67366  0.026511699  0.026579921            1 
 1295000    1.0570338   -7.5946954    411.22458  0.026462328  0.026572827            3 
 1296000    1.0227649   -7.5505912     412.1482  0.026501299  0.026565475            2 
 1297000    1.0397975   -7.5601405     411.8169   0.02645958  0.026558185            2 
 1298000    1.0556819   -7.5619456    411.79332  0.026437681  0.026550753            3 
 1299000     1.034364   -7.5817428    410.53238  0.026336437  0.026543309            2 
 1300000    1.0440005   -7.5743381    411.73105  0.026393016  0.026535781            1 
 1301000     1.042865   -7.5886387    411.07402  0.026330644  0.026528325            2 
 1302000    1.0467936   -7.5720689    413.20282  0.026446673  0.026520927            2 
 1303000    1.0445166   -7.5746162    411.12395  0.026293422   0.02651345            2 
 1304000    1.0404122   -7.5643986    411.51461  0.026298224  0.026506015            1 
 1305000    1.0351005   -7.6148514     411.5517   0.02628044  0.026498436            2 
 1306000    1.0431734   -7.6140575     410.8103   0.02621301  0.026490778            1 
 1307000    1.0371144   -7.5382568    412.57504  0.026305473  0.026483154            2 
 1308000    1.0375771   -7.5894224    412.27985  0.026266555  0.026475602            1 
 1309000    1.0480013   -7.5579775    412.64213  0.026269553  0.026467887            4 
 1310000     1.064319   -7.6128033    411.51449  0.026177766  0.026460205            2 
 1311000    1.0349742   -7.5840808     413.1367  0.026260914  0.026452301            3 
 1312000    1.0214984   -7.5861973     412.6629  0.026210804  0.026444474            3 
 1313000    1.0225754   -7.5663234     412.3195  0.026169047  0.026436638            1 
 1314000    1.0457281   -7.6085569    412.81036  0.026180261  0.026428766            2 
 1315000    1.0426211     -7.57237    413.27207  0.026189612  0.026420902            1 
 1316000    1.0257573   -7.5971204    412.88448  0.026145167  0.026413079            1 
 1317000    1.0577801   -7.5984147    413.24077   0.02614786   0.02640511            1 
 1318000    1.0283383   -7.5832677    413.89882  0.026169627  0.026397101            1 
 1319000    1.0288921   -7.5963907    413.25752   0.02610927  0.026389187            1 
 1320000    1.0726804   -7.5447552     413.9157  0.026131042   0.02638122            2 
 1321000    1.0251216   -7.5886414    413.66891  0.026095692  0.026373344            2 
 1322000    1.0337725   -7.6182383    412.59283  0.026008121  0.026365291            2 
 1323000     1.040804   -7.5697181    414.37427  0.026100672  0.026357327            2 
 1324000     1.035743   -7.5364862    414.78813  0.026107007  0.026349381            3 
 1325000    1.0329331    -7.601026    414.48387  0.026068168  0.026341578            1 
 1326000    1.0543969   -7.6173054    413.68438  0.025998264  0.026333575            3 
 1327000    1.0350935   -7.5749613    415.27401  0.026078499  0.026325564            3 
 1328000    1.0251153   -7.5858357    414.58456  0.026015598   0.02631761            3 
 1329000    1.0267541   -7.5811236    417.17015  0.026158148  0.026309773            2 
 1330000    1.0291795   -7.6070258    415.10169  0.026008878  0.026301743            2 
 1331000    1.0537697   -7.5679287     415.0927  0.025988774  0.026293689            4 
 1332000    1.0295552   -7.6070019    414.99198  0.025962962  0.026285711            2 
 1333000    1.0214698   -7.5770189    415.92362  0.026001727  0.026277637            1 
 1334000    1.0361148   -7.6012853    415.68429  0.025967285  0.026269595            2 
 1335000      1.03666    -7.620758    417.36293  0.026052617  0.026261557            2 
 1336000    1.0339558   -7.5603486    416.63582  0.025987763  0.026253635            3 
 1337000     1.052089   -7.6064153     416.2115  0.025941879  0.026245769            1 
 1338000    1.0341847   -7.6209354    417.80346   0.02602164  0.026237866            1 
 1339000    1.0428551    -7.611312    417.72081  0.025997063  0.026229994            2 
 1340000    1.0381345   -7.6351183     417.6975  0.025976212   0.02622211            1 
 1341000    1.0440346    -7.602692    418.66529  0.026016983  0.026214312            3 
 1342000    1.0468052    -7.586308    417.59407  0.025931077  0.026206423            2 
 1343000    1.0181077   -7.6149715    419.40066  0.026023868  0.026198525            1 
 1344000     1.045723   -7.6128037     418.9252  0.025975025  0.026190703            2 
 1345000    1.0304924     -7.60289     419.4021   0.02598526  0.026183037            3 
 1346000    1.0537888   -7.5615228     419.5522  0.025975248  0.026175454            1 
 1347000    1.0485755   -7.5872509    419.83385  0.025973388  0.026167838            1 
 1348000    1.0202013   -7.6134721    419.27289  0.025919442  0.026160129            5 
 1349000     1.023526   -7.5924563    420.81924  0.025995752  0.026152619            2 
 1350000     1.024689   -7.6153421    420.82526  0.025976868  0.026145017            3 
 1351000    1.0527064   -7.5964709    422.25085  0.026045574  0.026137419            2 
 1352000    1.0381572   -7.5729988    422.42257  0.026036894  0.026129897            2 
 1353000    1.0243395   -7.5824217    422.36062  0.026013835  0.026122454            3 
 1354000    1.0207524   -7.6089302    422.39078  0.025996478  0.026115146            2 
 1355000    1.0491524   -7.6259567    421.99466  0.025952931  0.026107791            2 
 1356000     1.061589   -7.5984049    423.08621  0.026000873  0.026100515            2 
 1357000     1.029836   -7.6142763    423.15128  0.025985709  0.026093121            3 
 1358000    1.0249273   -7.6177722    421.85716   0.02588716  0.026085684            5 
 1359000    1.0184378   -7.6144441    422.93815  0.025934397   0.02607825            3 
 1360000    1.0491699   -7.5980364    422.35117  0.025879361  0.026070918            2 
 1361000    1.0451081   -7.5808214    423.48214  0.025929595  0.026063414            2 
 1362000    1.0455967   -7.6280606    422.68654  0.025861878  0.026055988            2 
 1363000    1.0124927   -7.6059805    422.76241  0.025847543  0.026048554            2 
 1364000     1.048073    -7.578309    423.79652  0.025891772  0.026041136            2 
 1365000    1.0608352   -7.5937837    425.02594   0.02594786  0.026033564            2 
 1366000    1.0326909   -7.6380579    422.31298  0.025763359  0.026025934            1 
 1367000    1.0112607   -7.6138979    424.46003  0.025875398   0.02601843            3 
 1368000    1.0105819   -7.6025257    425.07279   0.02589381  0.026011029            2 
 1369000    1.0320406   -7.6326351     425.0926  0.025876102  0.026003553            1 
 1370000    1.0195819   -7.6510159    423.91231  0.025785421  0.025996145            1 
 1371000    1.0318235   -7.5662884    427.88523  0.026008098  0.025988856            1 
 1372000    1.0397968   -7.6215638    426.17636  0.025885347  0.025981779            2 
 1373000    1.0396931   -7.5740998    426.60403  0.025892451  0.025974521            2 
 1374000    1.0201265   -7.6358279    425.10763   0.02578285  0.025967312            2 
 1375000    1.0336475   -7.5761785     428.1122  0.025946194  0.025960111            2 
 1376000    1.0420888   -7.6574602    426.76198  0.025845565  0.025952932            5 
 1377000    1.0394117   -7.6072038    428.04795   0.02590462  0.025945684            2 
 1378000    1.0324101   -7.6191479    427.28896  0.025839922  0.025938417            2 
 1379000    1.0178735   -7.5912834    427.36376  0.025825705   0.02593117            1 
 1380000    1.0470728   -7.5760342     428.4149  0.025870465  0.025924051            2 
 1381000    1.0257394   -7.5828273    428.05452  0.025829986  0.025916859            3 
 1382000    1.0392375   -7.6312592    427.53875  0.025780195  0.025909496            3 
 1383000     1.010945   -7.6353287    428.12502   0.02579688  0.025902188            2 
 1384000    1.0287659   -7.6544063    427.28279  0.025727528  0.025894758            2 
 1385000     1.026522   -7.6170186    429.34352  0.025832944  0.025887351            2 
 1386000    1.0261736    -7.637082    428.14775  0.025742409  0.025879931            1 
 1387000    1.0337148   -7.6151289    429.57649  0.025809691   0.02587272            5 
 1388000      1.01338   -7.6172502    430.19605  0.025828293  0.025865623            1 
 1389000    1.0165285   -7.6192909    429.67477  0.025778424   0.02585841            5 
 1390000    1.0409032   -7.6433726    430.67904  0.025820086  0.025851139            2 
 1391000    1.0142844   -7.5851289    429.71295  0.025743647  0.025843865            2 
 1392000    1.0229683   -7.5872443    430.69318  0.025783835  0.025836742            4 
 1393000    1.0111654   -7.6273585     430.3651  0.025745699  0.025829546            1 
 1394000    1.0173428   -7.6066171    430.75679  0.025750645  0.025822385            2 
 1395000     1.026875   -7.6330016     431.0692  0.025750848   0.02581519            4 
 1396000    1.0289376      -7.5888    431.26654  0.025744182  0.025808009            2 
 1397000    1.0253869   -7.5825158    432.81734  0.025818262  0.025800793            1 
 1398000    1.0022091   -7.5874654    430.94331  0.025688085  0.025793543            4 
 1399000    1.0188987   -7.6194851    430.88413  0.025666198  0.025786167            2 
 1400000     1.034567   -7.6534288     430.1059  0.025601542  0.025778516            2 
 1401000    1.0210272   -7.5868856    431.96734  0.025693989  0.025770996            1 
 1402000      1.01094   -7.6127212    430.65231  0.025597498  0.025763551            2 
 1403000    1.0396281   -7.5838339    432.51479  0.025689878  0.025756097            3 
 1404000    1.0349594   -7.6140093    432.92771  0.025696089  0.025748756            2 
 1405000    1.0380702   -7.6162467    433.02577  0.025683616  0.025741493            2 
 1406000    1.0355213   -7.6458963    430.93965  0.025541705  0.025734012            1 
 1407000    1.0254042   -7.5733912    432.00717  0.025586778  0.025726601            2 
 1408000    1.0116879   -7.5896227    433.38676  0.025650258  0.025719298            4 
 1409000    1.0305796    -7.624975    432.94478  0.025605913  0.025711904            3 
 1410000     1.026821    -7.633872    432.93797   0.02558735  0.025704379            3 
 1411000    1.0289683   -7.6066317    433.38499  0.025595617  0.025696993            1 
 1412000    1.0336313   -7.6158057    433.48721  0.025583523   0.02568972            3 
 1413000    1.0394267   -7.6108323    432.51661  0.025508175  0.025682295            1 
 1414000    1.0342376   -7.6442394    433.02238  0.025519942  0.025674834            1 
 1415000    1.0479857   -7.6162907    432.70123  0.025482993  0.025667398            2 
 1416000    1.0115337   -7.6125598    433.76129  0.025527383  0.025659948            2 
 1417000    1.0280279   -7.5993548    434.17362  0.025533617  0.025652596            1 
 1418000    1.0010212   -7.6101881     435.2088  0.025576446  0.025645277            2 
 1419000    1.0254767   -7.6249169    435.47754  0.025574203  0.025638015            2 
 1420000    1.0262698    -7.647407    434.25199  0.025484272  0.025630718            4 
 1421000     1.030078   -7.6102787    434.01469  0.025452422  0.025623437            2 
 1422000    1.0037371   -7.6452769    435.07685  0.025496768   0.02561609            3 
 1423000    1.0210428   -7.6297517    436.46329  0.025560042  0.025608716            2 
 1424000    1.0283537   -7.6209126    436.16993  0.025524925  0.025601512            5 
 1425000    1.0322941   -7.6104621    437.30597  0.025573448  0.025594394            5 
 1426000    1.0306764   -7.6416042    437.78027  0.025583232  0.025587183            3 
 1427000    1.0230128   -7.6040029    437.42329  0.025544457  0.025580069            4 
 1428000    1.0154314   -7.6142906    437.40036  0.025525231  0.025573022            1 
 1429000    1.0214397   -7.6069492    437.91474  0.025537365  0.025566012            2 
 1430000    1.0442365   -7.6326558    438.02325   0.02552583  0.025559066            1 
 1431000    1.0151484   -7.6123796    438.20376  0.025518505  0.025552001            1 
 1432000    1.0173622   -7.5872566     439.0215  0.025548272  0.025545006            3 
 1433000    1.0068924   -7.6343324    437.93352  0.025467173  0.025538077            1 
 1434000    1.0347121   -7.5971296    440.12979  0.025577045  0.025531106            2 
 1435000    1.0202325   -7.6932515    437.55289  0.025409576  0.025524141            3 
 1436000    1.0326028   -7.6352067    438.53748  0.025449018  0.025517092            1 
 1437000    1.0389536   -7.6087053    438.07508  0.025404493  0.025510144            1 
 1438000    1.0273264   -7.6285584    440.35014  0.025518668   0.02550321            2 
 1439000    1.0331878    -7.653305    439.38843  0.025445242   0.02549621            1 
 1440000    1.0093213   -7.6226025    440.45565  0.025489332  0.025489301            5 
 1441000    1.0028587   -7.6170217    441.47386  0.025530526  0.025482434            2 
 1442000     1.007772   -7.6405553    440.82332  0.025475227  0.025475732            3 
 1443000    1.0142736   -7.6340656    440.94168  0.025464407  0.025468959            1 
 1444000     1.040987   -7.6575622    440.32208  0.025411016  0.025462052            4 
 1445000   0.99471678   -7.6321699    441.80206  0.025478781  0.025455088            2 
 1446000    1.0255364    -7.656284    439.95017  0.025354436  0.025448151            5 
 1447000     1.040882    -7.587125    442.32883  0.025473902   0.02544118            1 
 1448000    1.0393544   -7.6312495    440.96193  0.025377643  0.025434142            2 
 1449000     1.014053   -7.6622007    440.40064  0.025327849  0.025427042            2 
 1450000    1.0125867   -7.6685017    441.09122   0.02535007  0.025419802            2 
 1451000    1.0124105   -7.6461996    441.21788  0.025339874  0.025412668            2 
 1452000    1.0010857   -7.6348252    441.21962  0.025322522  0.025405528            1 
 1453000    1.0229027   -7.5909045    443.93738  0.025460965  0.025398469            5 
 1454000    1.0486919   -7.6285102    442.06446  0.025336111  0.025391491            1 
 1455000    1.0348403   -7.6644283    443.34248  0.025391895  0.025384475            1 
 1456000    1.0062053    -7.612599    442.75323  0.025340729  0.025377493            6 
 1457000    1.0040239   -7.6218615    442.93307  0.025333623  0.025370626            1 
 1458000    1.0308771    -7.634433    444.21901  0.025389747  0.025363868            2 
 1459000    1.0197564   -7.6560019    442.32812  0.025264343  0.025357042            5 
 1460000    1.0484627   -7.6255563    444.32272  0.025360886  0.025350246            5 
 1461000     1.024781   -7.6517026    445.18531  0.025392728  0.025343483            2 
 1462000     1.046986   -7.6268194    444.42119  0.025331805  0.025336546            2 
 1463000    1.0324043   -7.6276218    445.22713  0.025360397  0.025329696            1 
 1464000    1.0207292   -7.6435027     445.3266  0.025348736   0.02532293            1 
 1465000    1.0037259   -7.6206229    445.80754  0.025358791  0.025316131            3 
 1466000    1.0030864   -7.6907297    443.78768  0.025226676  0.025309287            1 
 1467000    1.0196196   -7.6279992    446.37687  0.025356559  0.025302427            1 
 1468000    1.0190549   -7.6322118    446.33943  0.025337161   0.02529564            1 
 1469000    1.0052752   -7.6171232    447.60451  0.025391678  0.025289159            2 
 1470000    1.0159354   -7.6307466    447.05356  0.025343172  0.025282521            1 
 1471000    1.0198415   -7.6313671    445.91275  0.025261316  0.025275814            2 
 1472000    1.0320097   -7.6298789    446.30107  0.025266139  0.025269061            3 
 1473000    1.0092063   -7.6504164    447.14477  0.025296717   0.02526238            2 
 1474000    1.0237544   -7.6354919    447.93044  0.025323973  0.025255708            1 
 1475000    1.0243567   -7.6450385    448.16177  0.025319874  0.025248981            2 
 1476000    1.0262214    -7.637123    448.84907  0.025341524  0.025242286            3 
 1477000   0.98499224   -7.6229152    448.66685  0.025314085  0.025235742            1 
 1478000    1.0040911   -7.6606609    448.04225  0.025261741  0.025229017            1 
 1479000    1.0302488   -7.6280745     448.0047  0.025242546  0.025222325            3 
 1480000    1.0124638   -7.6641166    448.36122  0.025245564  0.025215564            3 
 1481000    1.0048214   -7.6394807    449.17346  0.025274221  0.025208998            2 
 1482000    1.0092548   -7.6427952    448.53711  0.025221385  0.025202396            2 
 1483000    1.0208755   -7.6468939    449.52984  0.025260162  0.025195881            1 
 1484000   0.98952066   -7.6199164     450.1907   0.02528025   0.02518922            8 
 1485000    1.0277023   -7.6401428    450.37914  0.025273801  0.025182605            1 
 1486000    1.0229579   -7.6445207    449.98581  0.025234736  0.025176023            5 
 1487000    1.0250939   -7.6860514    449.28193  0.025178319  0.025169214            1 
 1488000   0.98715649   -7.6616741    450.36697  0.025222164  0.025162507            2 
 1489000    1.0069225   -7.6841555    449.73597  0.025169911  0.025155826            3 
 1490000   0.99969308   -7.6337517    450.12838  0.025174965  0.025149053            2 
 1491000    1.0155378   -7.6565186    450.64323  0.025186856  0.025142249            1 
 1492000    1.0220678   -7.6420722    449.92604  0.025129917  0.025135504            2 
 1493000   0.99966405   -7.6675377     449.4809   0.02508824  0.025128702            4 
 1494000    1.0259066   -7.6300024     450.5745  0.025132447  0.025121902            2 
 1495000    1.0118477    -7.574108    452.41295  0.025218113  0.025115197            2 
 1496000    1.0139036   -7.6436338    451.02922  0.025124177  0.025108547            2 
 1497000    1.0122804   -7.6720067    451.03461  0.025107693   0.02510175            3 
 1498000    1.0288738   -7.6563013    451.50367  0.025117026  0.025094937            1 
 1499000    1.0045552   -7.6757457    450.86683  0.025064867  0.025088021            3 
 1500000     1.009798   -7.6976795    450.45586  0.025025326  0.025081194            2 
 1501000    1.0032393   -7.6856905    450.38315  0.025004616  0.025074251            4 
 1502000    0.9919783   -7.6550978    450.88761  0.025015957  0.025067335            6 
 1503000    1.0231543   -7.6548096     452.8725  0.025109364  0.025060414            6 
 1504000    1.0259726   -7.6673447    452.15111  0.025052699  0.025053508            2 
 1505000    1.0254331   -7.6715262    453.27537  0.025098304  0.025046638            2 
 1506000    1.0056197   -7.6705949    452.09026  0.025016061  0.025039734            2 
 1507000   0.99325013   -7.6386005    453.32423  0.025067697  0.025032959            1 
 1508000    1.0152843   -7.6112164    455.04105  0.025145947  0.025026268            3 
 1509000    1.0060511   -7.6690562    453.79898  0.025060691    0.0250195            1 
 1510000    1.0101307   -7.6392389    454.74544  0.025096327  0.025012929            2 
 1511000    1.0243258   -7.6446539    454.72038  0.025078335  0.025006306            2 
 1512000    1.0000125   -7.6283122    455.64792   0.02511287  0.024999575            4 
 1513000    1.0250697   -7.6681003    455.03848  0.025062706  0.024992879            2 
 1514000    1.0045017   -7.6472307     454.9808  0.025042976  0.024986169            1 
 1515000    1.0282884   -7.6265373    456.35865  0.025102236  0.024979524            4 
 1516000     1.010031   -7.6098665    456.65496  0.025101966  0.024972914            2 
 1517000    1.0181576   -7.6209287    455.23144   0.02500722  0.024966279            1 
 1518000     1.018645   -7.6589278    455.60547   0.02501128  0.024959588            6 
 1519000    1.0258537   -7.6595188    455.11266  0.024967778  0.024952815            4 
 1520000    1.0183475   -7.6574533    456.81468  0.025044665  0.024946219            1 
 1521000    1.0094415   -7.6318261    456.37511  0.025004115  0.024939528            1 
 1522000    1.0042698   -7.6775339     456.7977  0.025010825  0.024932857            2 
 1523000    1.0002714   -7.6470175    458.34245  0.025078926  0.024926343            1 
 1524000    1.0059769    -7.678114     457.2612  0.025003346  0.024919828            2 
 1525000   0.99622334   -7.6573754    456.43808  0.024941972  0.024913318            2 
 1526000   0.98962119   -7.6780317    457.41355  0.024978896  0.024906642            2 
 1527000    1.0195425   -7.7095347    455.99699  0.024885232  0.024899869            2 
 1528000    1.0019681   -7.6423797    456.95258  0.024921061  0.024893108            3 
 1529000    1.0378993   -7.6833189     457.0089  0.024907832  0.024886363            3 
 1530000   0.99930377   -7.6681294    457.32261  0.024908639  0.024879609            1 
 1531000    1.0088079   -7.6450946    458.99146  0.024983206  0.024873044            2 
 1532000    1.0190859   -7.6742802    458.32162  0.024930462  0.024866457            3 
 1533000   0.99318454   -7.6845011      458.991  0.024950587  0.024859864            1 
 1534000    1.0157364   -7.6858951     458.6396  0.024915232   0.02485313            1 
 1535000    1.0308663   -7.7038532     456.8224  0.024800347  0.024846408            1 
 1536000    1.0078855   -7.6870411     457.8913  0.024842193  0.024839702            1 
 1537000    1.0201095   -7.6591277    458.56883  0.024862764  0.024833008            1 
 1538000    1.0056855   -7.6714858    458.45627    0.0248405  0.024826269            1 
 1539000    1.0038968   -7.6325698    462.14793  0.025024254  0.024819588            1 
 1540000   0.99380841   -7.6569007      459.421  0.024860444  0.024812959            1 
 1541000    1.0033314   -7.6820648    460.35401  0.024894766  0.024806264            1 
 1542000   0.98342626   -7.6291219     459.9456   0.02485655   0.02479952            3 
 1543000   0.99952733   -7.6879454    460.39152  0.024864524  0.024792847            4 
 1544000   0.99137937   -7.7046104     458.9565  0.024770968  0.024786075            2 
 1545000   0.99784582   -7.6700836    460.43527  0.024834696  0.024779272            2 
 1546000    0.9825177   -7.6306225    461.68183  0.024885825  0.024772715            2 
 1547000   0.99945145   -7.6802099    461.86077  0.024879378  0.024766228            7 
 1548000   0.99341028   -7.6341732    461.08784  0.024821697  0.024759694            2 
 1549000    0.9915443   -7.6440864     461.9329  0.024851135  0.024753096            2 
 1550000    1.0283672   -7.6543599    461.77466  0.024826595  0.024746627            3 
 1551000    1.0317213   -7.6591588    461.25246   0.02478253  0.024739955            3 
 1552000   0.99325368   -7.6498631    462.12726  0.024813534  0.024733284            1 
 1553000    1.0136234    -7.653361    463.17311  0.024853676  0.024726651            1 
 1554000    1.0163818   -7.6428764    461.80953  0.024764561  0.024720129            5 
 1555000    0.9966883   -7.6960465    461.88293  0.024752568  0.024713431            2 
 1556000    1.0101984   -7.6212475    462.29254  0.024758598  0.024706787            2 
 1557000   0.99255981    -7.668675    461.70702  0.024711359  0.024700124            4 
 1558000    1.0063454    -7.657068    462.28554  0.024726441  0.024693525            1 
 1559000     1.008618   -7.6965789    461.67632  0.024678016  0.024686812            4 
 1560000   0.98597728   -7.7272911    461.58508  0.024657323  0.024680052            1 
 1561000    1.0105767    -7.682838    462.61919  0.024696732  0.024673429            1 
 1562000    0.9903319   -7.6947548     463.5688  0.024731584  0.024666836            1 
 1563000    1.0024387   -7.6572849     464.8907  0.024786239  0.024660198            1 
 1564000   0.99020441   -7.7235081    462.18533  0.024626243  0.024653595            1 
 1565000    0.9862241   -7.6600386    464.55107  0.024736478  0.024646906            4 
 1566000   0.98415447   -7.6956698    465.88834  0.024791844  0.024640241            2 
 1567000    1.0054322   -7.6784867    464.18031   0.02468519  0.024633652            1 
 1568000    0.9979308   -7.7074708    464.35124  0.024678531  0.024627097            1 
 1569000    1.0183748   -7.6600355    464.01831   0.02464512  0.024620449            2 
 1570000    1.0032591   -7.7015437    465.08903  0.024686254  0.024613762            2 
 1571000   0.99904377     -7.67596    465.56399  0.024695735  0.024607178            1 
 1572000   0.99826956   -7.6800076    465.49102  0.024676157  0.024600634            2 
 1573000    1.0129482   -7.6929661    465.85305  0.024679649  0.024594071            3 
 1574000    1.0081251    -7.676777    466.95568  0.024722347  0.024587435            3 
 1575000   0.99549593   -7.7344668    463.30777  0.024513638  0.024580642            1 
 1576000    1.0135588    -7.699314    465.02198  0.024588725  0.024573825            3 
 1577000   0.98850126   -7.6657527    467.06583  0.024681137  0.024567148            2 
 1578000     1.009448   -7.6896618    465.78966  0.024598102   0.02456046            3 
 1579000    1.0203258   -7.6831391    465.02572  0.024542206  0.024553823            1 
 1580000    1.0079845   -7.6556992    466.38655  0.024598446  0.024547135            2 
 1581000    0.9953891   -7.6876701    465.27784  0.024524449  0.024540358            1 
 1582000   0.99544156     -7.70015     466.0177  0.024547919  0.024533463            1 
 1583000   0.99394826   -7.7363763    465.32037  0.024495703   0.02452654            2 
 1584000    0.9966541   -7.7010337    466.42926  0.024538576  0.024519652            2 
 1585000    1.0029743   -7.7088807    466.44729  0.024524043  0.024512936            2 
 1586000    1.0068186   -7.6956074    466.42342  0.024507326  0.024506162            1 
 1587000   0.99033717   -7.7142527    466.75035   0.02450905  0.024499471            1 
 1588000   0.99071429   -7.7009175    468.11762  0.024565366  0.024492618            2 
 1589000   0.99953584   -7.6746407     466.6947  0.024475283  0.024485838            3 
 1590000   0.97810514   -7.7094196    467.03226  0.024477582  0.024478968            5 
 1591000   0.98854845    -7.694678    467.78876  0.024501821  0.024472133            2 
 1592000   0.98243825   -7.6949132    467.25665  0.024458576  0.024465285            1 
 1593000    1.0004245   -7.7238098    466.94419  0.024426878  0.024458338            3 
 1594000   0.98470633   -7.6943912    465.79473   0.02435146  0.024451421            6 
 1595000   0.99479522   -7.7040111    468.59548  0.024482522  0.024444562            1 
 1596000   0.99165066   -7.6672911    468.37169  0.024455498  0.024437718            1 
 1597000   0.99109293   -7.6315847    469.83785   0.02451669  0.024430839            2 
 1598000   0.99329739   -7.6869747    469.04329  0.024459913  0.024424032           10 
 1599000    1.0165418   -7.7111037    468.57117  0.024420011  0.024417083            2 
 1600000    1.0052503   -7.7139008    469.01711  0.024427975   0.02441029            3 
 1601000   0.97604395   -7.6847288    470.22984   0.02447584  0.024403423            5 
 1602000    1.0061143   -7.7469258    466.86989  0.024285783  0.024396402            1 
 1603000   0.95429636   -7.6825297    469.99355  0.024433019  0.024389523            2 
 1604000    1.0012942   -7.6749005    470.15578  0.024426215  0.024382726            1 
 1605000    1.0005369   -7.6994813    469.25877  0.024364422  0.024375911            3 
 1606000    1.0065284   -7.7123955    469.10715  0.024341384  0.024369073            4 
 1607000   0.99267257    -7.762107    470.37237  0.024391847  0.024362161            2 
 1608000    1.0014214   -7.7369623    468.88436  0.024299563  0.024355175            7 
 1609000    0.9922265   -7.6947587    470.82564  0.024385003  0.024348216            3 
 1610000   0.99181761   -7.7071102    468.12979  0.024230321  0.024341307            3 
 1611000   0.98942222    -7.712214    471.45993  0.024387541  0.024334446            1 
 1612000   0.98204794   -7.6910022    471.03844  0.024350623  0.024327605            1 
 1613000   0.99255741   -7.7023892    470.78794  0.024322584  0.024320887            1 
 1614000   0.96738078   -7.7116235    470.64308  0.024300035  0.024314066            2 
 1615000   0.96465097   -7.6859927    471.30141  0.024318958  0.024307128            2 
 1616000   0.98551369   -7.7278832    472.28285   0.02435452  0.024300191            1 
 1617000   0.98787252   -7.7146365     472.2686  0.024338724  0.024293282            3 
 1618000   0.97169435   -7.6953742    472.01035  0.024310381  0.024286551            4 
 1619000   0.98738499   -7.6784534    472.39416   0.02431512  0.024279908            2 
 1620000    1.0096367   -7.7063956    473.54888   0.02435951  0.024273378            1 
 1621000   0.98407281   -7.6992646    474.06683   0.02437111  0.024266728            3 
 1622000   0.99468925   -7.7441242    472.72952  0.024287378  0.024260047            2 
 1623000   0.99133407   -7.7154308    472.65346  0.024268508  0.024253201            2 
 1624000     1.008595   -7.7399309    472.05589  0.024222901  0.024246442            4 
 1625000   0.98739178   -7.7122902    473.01354  0.024257105  0.024239728            2 
 1626000   0.96955128    -7.717651    474.34545  0.024310447   0.02423299            4 
 1627000   0.98166814   -7.7025223    474.39722  0.024298157  0.024226279            6 
 1628000   0.98439609   -7.7345535    473.68597  0.024246825  0.024219623            2 
 1629000   0.97247894   -7.6490169    475.42765  0.024321038  0.024213061            1 
 1630000   0.98471761   -7.6814689    476.83975   0.02437831  0.024206608            3 
 1631000    1.0004346   -7.7222741    473.98495  0.024217502  0.024200028            2 
 1632000   0.99632057   -7.6638864     474.4354  0.024225664  0.024193483            3 
 1633000   0.98778221   -7.6526621    475.91553  0.024286361  0.024186926            1 
 1634000   0.97841598   -7.6966468    475.98907  0.024275248  0.024180341            2 
 1635000   0.98608414   -7.7342095    475.70815  0.024246083  0.024173681            2 
 1636000   0.97335904    -7.690744    476.32878  0.024262876  0.024167005            2 
 1637000   0.98722628   -7.7702501    477.47289  0.024306297  0.024160414            3 
 1638000   0.97299319   -7.7024359    477.63858  0.024299887  0.024153857            2 
 1639000    1.0037502   -7.7500783    476.81073   0.02424297  0.024147302            2 
 1640000   0.97577671   -7.7417161    475.40576  0.024156797  0.024140817            3 
 1641000   0.97669487   -7.7405812    476.26304   0.02418561  0.024134244            2 
 1642000   0.99077002   -7.7291291    476.44783  0.024180259  0.024127599            2 
 1643000   0.95922906   -7.6640208     477.8719  0.024237771  0.024121034            1 
 1644000   0.97594879   -7.6908305    478.22565   0.02424096  0.024114483            2 
 1645000    1.0003095   -7.7147837    477.65268  0.024197198  0.024107816            4 
 1646000    0.9775441   -7.6775872    478.03478  0.024201842  0.024101283            2 
 1647000   0.97777318   -7.6770647    478.31846  0.024201501   0.02409473            4 
 1648000   0.96791825   -7.7093955    477.17456  0.024128973  0.024088167            1 
 1649000   0.99526209   -7.7185806    476.93246  0.024102106  0.024081607            2 
 1650000   0.98092405   -7.7234454    478.34758  0.024158969  0.024074984            1 
 1651000   0.97666168   -7.7270963    478.51857  0.024152966  0.024068424            1 
 1652000   0.96583156   -7.7173451    477.74896  0.024099524  0.024061798            3 
 1653000   0.98078552   -7.7223758    477.68374  0.024081656  0.024055073            4 
 1654000   0.97854566   -7.7207138    479.07031  0.024136956  0.024048397            2 
 1655000   0.97277177   -7.7193854    478.75492  0.024106492  0.024041685            3 
 1656000    1.0005685   -7.7492748    477.27275  0.024017349  0.024034918            2 
 1657000    1.0124787   -7.6966564    480.53317  0.024166826  0.024028189            4 
 1658000     0.983686   -7.6918115     480.0158  0.024126246  0.024021552            1 
 1659000   0.99249708   -7.7199312    477.91793  0.024006325  0.024014905            2 
 1660000   0.99923452   -7.6602501    480.94109  0.024143629  0.024008336            3 
 1661000   0.98465693   -7.7138242    479.51031   0.02405731  0.024001837            2 
 1662000   0.98955686   -7.6914088    480.70223  0.024102599  0.023995267            2 
 1663000   0.98754105   -7.6803298    480.64834  0.024085405  0.023988668            1 
 1664000   0.97681387   -7.7287812    480.07587  0.024042261  0.023982057            3 
 1665000   0.99106158   -7.7246711    480.98452  0.024073299  0.023975439            3 
 1666000   0.98885546   -7.7142232    481.09834  0.024064543  0.023968809            1 
 1667000   0.98417465   -7.7422874    479.87594  0.023988999  0.023962222            3 
 1668000   0.98522348   -7.7355405    480.83519  0.024022541  0.023955608            2 
 1669000   0.99118805   -7.7331759    482.48662  0.024090604  0.023948962            3 
 1670000   0.98427971   -7.6960571    481.70737  0.024037294  0.023942325            3 
 1671000   0.98493817   -7.7165412    482.18119  0.024046539  0.023935789            5 
 1672000   0.99518474   -7.7307357    480.91951  0.023969274  0.023929123            2 
 1673000    1.0008399   -7.7128061    482.62746  0.024040021  0.023922464            5 
 1674000   0.97915088   -7.7285477    481.05033  0.023947149  0.023915751            4 
 1675000   0.99360313   -7.6783905    480.49187  0.023905068   0.02390903            2 
 1676000   0.98469883   -7.7037475    482.61955  0.023996597  0.023902323            1 
 1677000   0.98118901   -7.7679136    480.21903  0.023863001  0.023895541            2 
 1678000   0.97550258   -7.7435007    480.99127  0.023887131  0.023888728            2 
 1679000   0.97505714   -7.7286247    483.09476  0.023977306  0.023882004            1 
 1680000   0.96922359   -7.7432925    480.97516  0.023857895   0.02387527            2 
 1681000    0.9808115   -7.7470679    482.86699  0.023937487  0.023868567            2 
 1682000   0.96513436   -7.7447132    482.66979  0.023913486  0.023861848            2 
 1683000   0.99874255   -7.7232434    481.98722  0.023865479  0.023855114            2 
 1684000   0.97692423   -7.7163899     482.8057   0.02389181  0.023848299            1 
 1685000   0.98665231   -7.6820903    482.60092  0.023867504  0.023841649            2 
 1686000   0.96278469   -7.7297195      483.363  0.023891014   0.02383486            1 
 1687000   0.98241594   -7.7393943    482.95963  0.023856927  0.023828086            2 
 1688000   0.97226401   -7.7271922    483.12706   0.02385106  0.023821249            2 
 1689000   0.96858665    -7.721342    483.61163  0.023860846  0.023814406            4 
 1690000    1.0013224   -7.7257129    483.38465  0.023835535  0.023807597            1 
 1691000   0.97610461   -7.7313129    483.86756  0.023845238   0.02380079            1 
 1692000   0.99111214   -7.7489357    483.17507  0.023797038  0.023794078            3 
 1693000    1.0065587   -7.7107933    484.99489  0.023872558  0.023787354            3 
 1694000   0.99219322    -7.730128    484.06977  0.023812956  0.023780652            4 
 1695000   0.98549739   -7.6922984    483.64983  0.023778261  0.023773923            3 
 1696000   0.95538052   -7.7270822    483.59882  0.023761734  0.023767138            2 
 1697000   0.99756968   -7.7478432    484.58089  0.023795958  0.023760319            2 
 1698000   0.99912639   -7.7484011    483.31914   0.02372002  0.023753604            2 
 1699000    1.0054616   -7.7556385    485.34598  0.023805473  0.023746849            2 
 1700000   0.98283899   -7.7594251    484.77121  0.023763294  0.023740068            4 
 1701000   0.99429768   -7.7199918    486.33919  0.023826141  0.023733348            2 
 1702000   0.96362674   -7.7564806    486.03767  0.023797379  0.023726679            2 
 1703000   0.97664588   -7.7733887    485.61848  0.023762893  0.023719977            3 
 1704000   0.98698557   -7.7535496    486.56558  0.023795265   0.02371327            3 
 1705000   0.97110611   -7.7414003    485.93295  0.023750389  0.023706564            1 
 1706000    0.9600885   -7.7369936    486.04567  0.023741973    0.0236999            4 
 1707000   0.97960063   -7.7355337    487.35408  0.023791939  0.023693305            2 
 1708000   0.99010937    -7.759539    487.58505  0.023789278    0.0236866            1 
 1709000   0.99021279    -7.726193    487.12916  0.023753128  0.023679968            2 
 1710000   0.97175477   -7.7299404    487.60499  0.023762426  0.023673339            3 
 1711000   0.96956973   -7.7586727    486.51977  0.023695683  0.023666724            4 
 1712000    1.0005733   -7.7432229    487.32805  0.023721186  0.023660052            4 
 1713000   0.98117635    -7.712131    488.03083  0.023741527   0.02365339            1 
 1714000   0.97522112   -7.7598787    486.04672   0.02363121  0.023646712            2 
 1715000   0.99468257   -7.7052647    487.13573  0.023670346  0.023639994            1 
 1716000   0.99248616   -7.7343001    487.10044  0.023654839  0.023633312            2 
 1717000   0.98150292   -7.7006445    490.40392  0.023801394  0.023626757            2 
 1718000   0.97810367   -7.7722929    488.19741  0.023680511  0.023620139            4 
 1719000    1.0128245   -7.7499589     489.2013  0.023715401  0.023613497            2 
 1720000   0.97072905   -7.7383834    488.45363  0.023665389  0.023606816            1 
 1721000   0.96416189   -7.7302289     488.5862  0.023658058  0.023600119            2 
 1722000   0.97426112    -7.729681    488.76088  0.023652772  0.023593479            2 
 1723000   0.97838907   -7.7781612    487.99106  0.023601812  0.023586716            2 
 1724000   0.96629894   -7.7660021    487.69957  0.023574032  0.023579985            2 
 1725000   0.98655507   -7.7212689    490.88852  0.023714421  0.023573331            2 
 1726000   0.95350667   -7.7889088    487.54637  0.023539319  0.023566647            2 
 1727000   0.96606482   -7.7435245    491.27301  0.023705511  0.023559926            1 
 1728000   0.97062232    -7.760997    488.73851  0.023569565  0.023553284            1 
 1729000   0.97280216   -7.7799453      489.727  0.023603576  0.023546539            3 
 1730000   0.97684991   -7.7621444    489.48991  0.023578512   0.02353981            2 
 1731000   0.96466217   -7.7682241    489.20572  0.023551209  0.023533108            2 
 1732000   0.99136513    -7.754642    489.49305  0.023551436  0.023526341            2 
 1733000   0.94439912   -7.7100418    491.86105  0.023651714  0.023519631            2 
 1734000   0.96602398   -7.7841236    490.96496   0.02359501  0.023512989            5 
 1735000   0.96543449   -7.7832982    491.34284   0.02359956  0.023506402            3 
 1736000   0.97655326   -7.7648917    491.61742  0.023599147   0.02349967            1 
 1737000   0.95464482   -7.7473609    491.31367  0.023570988     0.023493            3 
 1738000   0.96586925   -7.8067311    489.26309  0.023459105  0.023486291            1 
 1739000   0.96688888   -7.7337486    490.83707   0.02352104  0.023479653            1 
 1740000   0.95236599   -7.7495325    491.91189  0.023558998  0.023473073            3 
 1741000   0.95631674   -7.7500426    491.42583  0.023522201   0.02346633            2 
 1742000   0.95536026   -7.7589641    491.80119  0.023526655  0.023459677            2 
 1743000   0.96476492   -7.7714622     491.1225  0.023480709  0.023453034            1 
 1744000   0.96646787   -7.7597435    491.62973  0.023491482   0.02344639            1 
 1745000   0.96140978   -7.7592757    491.72466  0.023482553  0.023439657            1 
 1746000   0.97943097   -7.7202906    492.81505  0.023521146  0.023432993            3 
 1747000   0.96056384   -7.7671998    491.51578  0.023445706  0.023426383            1 
 1748000   0.97524592   -7.7246222    494.15848   0.02355828  0.023419738            1 
 1749000   0.97951678   -7.7560159    494.47156  0.023559727  0.023413127            2 
 1750000   0.96924488   -7.7160697    492.99588  0.023475994  0.023406513            2 
 1751000   0.97919355   -7.7556997    493.60285  0.023491474  0.023399993            1 
 1752000   0.96562156    -7.745132    493.07472  0.023452945    0.0233934            3 
 1753000   0.95762726   -7.7311272    493.34925  0.023452617  0.023386852            1 
 1754000   0.96138157   -7.7679768    492.94328  0.023419958  0.023380256            1 
 1755000   0.96927224   -7.7394649    493.94118  0.023453997  0.023373592            3 
 1756000   0.95908458   -7.7683583    493.41279  0.023415565  0.023366843            2 
 1757000   0.96300479   -7.7477889    493.69539  0.023415642  0.023360027            5 
 1758000   0.95926163   -7.7296572    493.58826  0.023397244  0.023353225            2 
 1759000   0.97952525   -7.7500576    492.59758  0.023337009  0.023346416            2 
 1760000   0.96954738   -7.7309988    494.04743  0.023392397   0.02333966            2 
 1761000   0.94949782   -7.7535464    493.09643  0.023334111  0.023332869            1 
 1762000   0.96397711   -7.7414331    493.40219  0.023335328  0.023326054            3 
 1763000   0.96660452   -7.7725341    492.31434  0.023270672  0.023319129            2 
 1764000    0.9427646   -7.7662718    493.27257  0.023302748  0.023312181            2 
 1765000   0.96800866    -7.733414    495.02147  0.023372118   0.02330528            3 
 1766000   0.97255552   -7.7657318    493.01615  0.023264258  0.023298509            4 
 1767000   0.98050645   -7.7911949    493.64657  0.023280823  0.023291677            1 
 1768000   0.97137281    -7.772873    493.90764   0.02327996  0.023284807            4 
 1769000   0.97433776   -7.7816997    493.76056  0.023259872   0.02327793            1 
 1770000   0.96638741   -7.7192063    493.87915  0.023252314  0.023271116            3 
 1771000    0.9792957   -7.7951427    494.15832  0.023252321  0.023264275            4 
 1772000   0.95321083   -7.7418938    494.17867  0.023240156  0.023257365            1 
 1773000   0.96444995    -7.745412    495.66795  0.023297046    0.0232505            3 
 1774000   0.97485612   -7.7797066    495.14503  0.023259349  0.023243611            3 
 1775000   0.97131433    -7.751733    496.16381  0.023294076  0.023236792            2 
 1776000   0.93805022   -7.7613049     495.7284  0.023260529   0.02322992            1 
 1777000   0.96743491   -7.7680413    494.74708   0.02320142  0.023223021            4 
 1778000   0.98520111   -7.7867647    496.19759  0.023256355  0.023216111            2 
 1779000   0.97471338    -7.718065    495.93242  0.023230861  0.023209221            7 
 1780000   0.98644358   -7.7429794    497.01678  0.023268576    0.0232024            1 
 1781000   0.98861897   -7.7429111    497.43695  0.023275171  0.023195591            2 
 1782000   0.95537647   -7.7787914    495.89121  0.023189824  0.023188789            1 
 1783000   0.97011811   -7.7618177    496.57671  0.023208857  0.023181929            2 
 1784000   0.97335479   -7.7795021    496.35351  0.023185422  0.023175046            3 
 1785000   0.97778015   -7.7978089    496.91783  0.023198778  0.023168163            1 
 1786000   0.96676351   -7.7746611    496.37104  0.023160276  0.023161286            2 
 1787000   0.97083008    -7.774141     497.7528  0.023211751   0.02315444            7 
 1788000   0.95923699   -7.7944038    495.43688  0.023090831  0.023147486            2 
 1789000   0.96526228   -7.7801914    496.05976  0.023106939  0.023140519            3 
 1790000   0.95521483   -7.7708143    496.02726  0.023092517  0.023133522            1 
 1791000   0.98738385    -7.772193    496.54019  0.023103489  0.023126559            2 
 1792000   0.96026824   -7.7592745    496.85485  0.023105229  0.023119697            5 
 1793000    0.9679041   -7.7678578    498.31275  0.023160102  0.023112804            3 
 1794000   0.96562706    -7.824416    496.09936  0.023044378  0.023105948            3 
 1795000   0.95709666   -7.7720991    497.30436  0.023087482  0.023098998            2 
 1796000   0.95539893   -7.7765891    497.29837  0.023074349  0.023092077            1 
 1797000   0.97947618   -7.7613116    497.56322  0.023073791  0.023085176            2 
 1798000   0.98954732   -7.8167886    497.76392  0.023070259  0.023078271            3 
 1799000   0.95142731   -7.7637195    498.14896  0.023075271  0.023071331            2 
 1800000   0.97127388   -7.7917217    496.82445  0.023001132  0.023064432            1 
 1801000    0.9684952   -7.7473585    499.73883  0.023123211  0.023057588            1 
 1802000   0.95806085   -7.7896801    497.07693  0.022987279  0.023050631            4 
 1803000   0.95157845   -7.7541002    498.34378  0.023033083  0.023043727            2 
 1804000   0.96461219   -7.7761066    498.80468  0.023041606  0.023036794            2 
 1805000   0.97400172   -7.7674089    497.84911  0.022984724  0.023029784            3 
 1806000   0.96533916   -7.7696981     499.1406  0.023031589  0.023022793            3 
 1807000   0.97962907    -7.788146    498.52576  0.022990489  0.023015796            4 
 1808000   0.96658849   -7.8057511    498.28618   0.02296673  0.023008842            2 
 1809000   0.97313235   -7.7661351    499.03932  0.022988729   0.02300181            1 
 1810000   0.96308717   -7.7814188    498.85279   0.02296744  0.022994802            2 
 1811000   0.93531562   -7.7854736    497.82354  0.022907396  0.022987741            4 
 1812000    0.9566039   -7.8026996    499.68588  0.022980403  0.022980709            1 
 1813000   0.95543366   -7.8303199    497.93638  0.022887313  0.022973642            2 
 1814000   0.93300025   -7.8002952    498.90159  0.022919037  0.022966584            3 
 1815000   0.96910812   -7.7356961    499.49603  0.022933702  0.022959608            2 
 1816000    0.9551101   -7.8120439    497.96982  0.022851038  0.022952649            4 
 1817000   0.95211006   -7.7638726    499.79778  0.022922298  0.022945745            3 
 1818000    0.9542377   -7.7848949     499.8516  0.022912156  0.022938857            2 
 1819000   0.95947296    -7.761217     499.9315  0.022903221  0.022931994            2 
 1820000   0.95413095   -7.7601997    500.94773  0.022937167  0.022925136            1 
 1821000   0.97614959   -7.7914931    500.12498   0.02288692  0.022918313            2 
 1822000   0.95111375   -7.7862968    501.02079  0.022915331  0.022911489            4 
 1823000   0.96240259   -7.8213729    499.78875  0.022846441  0.022904566            5 
 1824000   0.96164891   -7.8169459    501.33453  0.022904538  0.022897632            1 
 1825000   0.95233918   -7.7839024    502.95291  0.022965886  0.022890822            2 
 1826000   0.96335929   -7.7731677    502.08505  0.022913703  0.022884012            2 
 1827000   0.95003602   -7.7970261    502.06191  0.022900106  0.022877218            1 
 1828000   0.96916805   -7.7597337    502.73452   0.02291824  0.022870487            1 
 1829000   0.96386592   -7.7696367    503.21708  0.022927696  0.022863733            1 
 1830000   0.93325198   -7.8094153     502.5404  0.022884353  0.022856955            2 
 1831000   0.94837393   -7.7675662    503.53124  0.022916951  0.022850116            5 
 1832000   0.97206891    -7.767703    502.85214  0.022873551  0.022843336            3 
 1833000     0.962345   -7.8087544    502.44397  0.022842515  0.022836516            2 
 1834000   0.95889085   -7.8003744    503.58748  0.022882019   0.02282969            2 
 1835000   0.95967163   -7.7894225    502.15375  0.022804439  0.022822915            3 
 1836000   0.94490163   -7.7851854    503.07844  0.022833989  0.022816115            3 
 1837000   0.94398276   -7.7681506    504.33302  0.022878471   0.02280938            3 
 1838000   0.96369678   -7.7757353    505.95986  0.022939783   0.02280271            7 
 1839000   0.95018404   -7.7841868    504.40685  0.022856935  0.022796052            1 
 1840000   0.94817709   -7.7826334    503.73459  0.022814067  0.022789296            2 
 1841000   0.95480587   -7.7697194     504.0204  0.022814612  0.022782492            3 
 1842000   0.96038145   -7.8456426    503.80268  0.022792376  0.022775707            2 
 1843000   0.95195155   -7.8273355    503.55541  0.022768829   0.02276887            2 
 1844000   0.95884683   -7.8293695    503.51269  0.022754551  0.022762048            2 
 1845000   0.95024416   -7.8085523    503.08676  0.022722979  0.022755136            4 
 1846000   0.95754085   -7.7920869    504.76336  0.022786356   0.02274826            3 
 1847000   0.95245465   -7.8140395    503.15735  0.022701559   0.02274149            2 
 1848000   0.95542674   -7.8157442    505.24825  0.022783561  0.022734671            2 
 1849000   0.94441344   -7.8385067    506.50523  0.022827891  0.022727834            2 
 1850000   0.95163323   -7.8196627    504.58785  0.022729183  0.022720974            2 
 1851000   0.97502909   -7.8128924    506.08672  0.022784383  0.022714104            1 
 1852000   0.96096396   -7.7877235    506.16275  0.022775502  0.022707292            2 
 1853000    0.9622324   -7.7775453    506.32124  0.022770338  0.022700519            2 
 1854000   0.99162951   -7.8326195    505.37449  0.022715502  0.022693738            1 
 1855000   0.94412189   -7.8213031     506.5643  0.022756707  0.022686995            4 
 1856000   0.94284704   -7.8070473    507.17427  0.022771833  0.022680311            3 
 1857000    0.9662614   -7.7990615    505.80657  0.022698195  0.022673616            1 
 1858000   0.95583452   -7.7912091    506.44873   0.02271478  0.022666976            4 
 1859000    0.9713562   -7.8283992    505.22006  0.022647483  0.022660256            2 
 1860000     0.945196   -7.7861076    507.53197  0.022738887  0.022653506            2 
 1861000   0.96132352   -7.8262557    506.58183  0.022684123  0.022646776            4 
 1862000   0.96091425   -7.8250199    506.57555  0.022671659  0.022639947            2 
 1863000   0.95671307   -7.8261086    506.65568  0.022663074  0.022633258            4 
 1864000   0.96260962   -7.8368575     506.5661  0.022646911  0.022626497            1 
 1865000   0.95327262   -7.8345341    506.75745  0.022643318  0.022619666            1 
 1866000   0.96765712   -7.8169496     506.6243  0.022625237  0.022612842            1 
 1867000   0.95771034   -7.8259668     506.8746   0.02262429  0.022605993            2 
 1868000   0.95312731   -7.8319378    506.27132  0.022585266  0.022599161            3 
 1869000   0.95515538   -7.8188368    508.26762  0.022662191  0.022592348            1 
 1870000   0.94242391   -7.7902291    507.49419  0.022615606  0.022585548            2 
 1871000    0.9516726   -7.8493952    506.48446  0.022558545  0.022578749            2 
 1872000   0.95469138   -7.7994495    507.99483   0.02261373   0.02257199            2 
 1873000   0.95671703   -7.8119096    508.87143  0.022640658  0.022565248            4 
 1874000   0.95573316   -7.7857239    509.51623   0.02265725  0.022558567            4 
 1875000   0.96796317   -7.8534996     507.9343  0.022574858  0.022551787            2 
 1876000    0.9479947   -7.7999718    508.08053   0.02256932  0.022545031            3 
 1877000   0.94347425   -7.8262712    508.34251  0.022568927  0.022538291            2 
 1878000   0.96096228   -7.7981229    510.33674    0.0226454  0.022531543            2 
 1879000   0.95420245   -7.8423769    508.68648   0.02256016  0.022524826            2 
 1880000    0.9552581   -7.8185145    508.91325  0.022558211  0.022518113            4 
 1881000   0.93097871   -7.8214264    507.87333  0.022500147  0.022511368            2 
 1882000    0.9508518   -7.8150323    508.50345  0.022516093  0.022504645            3 
 1883000   0.95051435   -7.7507958    509.83638  0.022563125  0.022497921            3 
 1884000   0.94578542   -7.8150176    509.53566  0.022537848  0.022491225            2 
 1885000   0.94230842   -7.7968597    510.46126  0.022566811  0.022484503            4 
 1886000   0.96532814   -7.8591315    509.71089   0.02252169  0.022477803            2 
 1887000    0.9567001   -7.7575793     509.0922  0.022482432  0.022471105            1 
 1888000   0.92614143   -7.8117566    509.74966  0.022499544  0.022464396            2 
 1889000   0.94537317   -7.8271472     510.5454  0.022522737  0.022457659            5 
 1890000   0.95187835   -7.8150483    511.10709  0.022535586  0.022451011            2 
 1891000   0.95185851   -7.8353183    509.56276  0.022455612  0.022444312            3 
 1892000    0.9572825   -7.8203184    510.22031  0.022472706  0.022437564            2 
 1893000   0.94409599   -7.8157048     510.0947  0.022455305  0.022430928            2 
 1894000   0.94112613   -7.8406326     510.8801  0.022478005  0.022424202            2 
 1895000   0.94164274   -7.8150046    510.13216  0.022433252  0.022417486            4 
 1896000   0.94125061   -7.8449494    508.52582  0.022350818  0.022410742            1 
 1897000   0.96264848   -7.8663924    510.25572  0.022415029  0.022403931            1 
 1898000   0.95169962   -7.8279036    510.63944  0.022420067   0.02239716            3 
 1899000   0.95326475   -7.8415309    511.28742  0.022436696  0.022390416            1 
 1900000   0.92819983    -7.831973    511.17287  0.022419863  0.022383761            2 
 1901000   0.94361888   -7.8156325    512.47614    0.0224652  0.022377071            3 
 1902000   0.94086415   -7.8367096    511.51554  0.022411301  0.022370343            2 
 1903000   0.95895515    -7.813515    512.20564  0.022429744  0.022363553            2 
 1904000   0.94260752   -7.7876276    512.52928  0.022432129   0.02235684            2 
 1905000   0.94301908   -7.7945344    512.71407  0.022428437  0.022350112            2 
 1906000   0.95178743   -7.8086257     513.0889  0.022433058  0.022343439            1 
 1907000    0.9537111   -7.8011645    511.70895  0.022360992  0.022336692            1 
 1908000   0.95526752   -7.8165315    513.95198  0.022447239  0.022329999            1 
 1909000   0.94890985    -7.833687    512.72491  0.022381915  0.022323277            2 
 1910000   0.93967491   -7.8099897    513.50697  0.022404318  0.022316623            4 
 1911000   0.92167501   -7.8334568    512.82206  0.022362727  0.022309975            1 
 1912000   0.96511219   -7.8176325    512.82756  0.022351271  0.022303347            1 
 1913000   0.94504836    -7.803058    512.78593  0.022337773  0.022296676            2 
 1914000   0.94652576   -7.8402631    513.57646  0.022360522  0.022289968            1 
 1915000   0.94798863   -7.8239378    512.71064  0.022311168  0.022283241            2 
 1916000   0.93246309   -7.8104659    512.73595  0.022300624  0.022276531            2 
 1917000   0.94443765   -7.8122001    514.42743  0.022362521  0.022269837            2 
 1918000   0.94000316   -7.8452184    513.17733  0.022296547  0.022263183            3 
 1919000   0.92462036   -7.8089196      513.907  0.022316614  0.022256512            6 
 1920000   0.93228467   -7.8211049    514.47641  0.022329705  0.022249832            2 
 1921000   0.92883809   -7.8140477    514.35458  0.022312796  0.022243195            4 
 1922000   0.93977495   -7.8384198    513.08926  0.022246326  0.022236514            1 
 1923000   0.93621994    -7.881422    512.74698  0.022219925  0.022229702            5 
 1924000   0.93483343   -7.8486782    513.37585  0.022235614  0.022222903            2 
 1925000   0.95322275   -7.8287993    514.52729  0.022273908  0.022216139            1 
 1926000   0.93988506   -7.8057311    515.04683  0.022284823  0.022209365            4 
 1927000   0.95028326    -7.834429    513.25007  0.022195557   0.02220259            1 
 1928000   0.95727939   -7.7914302    515.15584  0.022266418  0.022195801            5 
 1929000   0.94782177   -7.8233068    513.76847   0.02219494  0.022189056            3 
 1930000   0.93934793   -7.8166772    514.99866  0.022236557  0.022182327            3 
 1931000   0.96096215   -7.8467452    514.53195    0.0222049  0.022175502            1 
 1932000   0.94578724   -7.8347931     515.0894  0.022217452  0.022168792            1 
 1933000   0.95253129    -7.808068    514.99138  0.022201732   0.02216205            6 
 1934000   0.95297543   -7.8124974    514.64983  0.022175536  0.022155321            1 
 1935000   0.94209145   -7.8359744    513.62574  0.022119972  0.022148489            2 
 1936000   0.94893074   -7.8476281    515.78023  0.022201284  0.022141548            2 
 1937000   0.92051872   -7.8212643    515.02918  0.022157511  0.022134642            2 
 1938000   0.92215015   -7.8440975     515.2177  0.022154184  0.022127743            3 
 1939000   0.94071387   -7.8387282    514.67634  0.022119492  0.022120779            1 
 1940000   0.94889422    -7.873806    514.12953  0.022084602  0.022113817            1 
 1941000   0.94386242   -7.8758965    512.84783  0.022018197  0.022106752            6 
 1942000   0.93651644   -7.8480334    514.69727   0.02208622  0.022099729            3 
 1943000   0.94645257   -7.8587019    515.33495  0.022102202  0.022092739            1 
 1944000   0.94987787   -7.8565018    513.37902  0.022006988  0.022085803            3 
 1945000   0.93930764    -7.839532    513.89878  0.022017942  0.022078874            2 
 1946000   0.92656665   -7.8208466    514.80992  0.022045646  0.022072029            4 
 1947000   0.94916224   -7.8646804     515.8537  0.022078998  0.022065102            2 
 1948000   0.92688568   -7.8591465    515.87071  0.022068391  0.022058096            5 
 1949000   0.93372896   -7.8040162    516.96684  0.022103935  0.022051131            2 
 1950000   0.97049492   -7.8944127    514.23853  0.021976005  0.022044125            2 
 1951000   0.93365988   -7.8507503     515.2209  0.022006702   0.02203708            3 
 1952000   0.94511115   -7.8522288    515.00883  0.021986374  0.022030067            3 
 1953000    0.9221912   -7.8249453    516.21216  0.022026462  0.022023116            2 
 1954000    0.9406967   -7.7984825    516.64094  0.022033476  0.022016186            2 
 1955000   0.92537223   -7.8348475    514.33288  0.021923823  0.022009259            2 
 1956000   0.93347831   -7.8058724     516.6375    0.0220108  0.022002309            2 
 1957000   0.94616006   -7.8292795    514.93424  0.021927024  0.021995352            2 
 1958000   0.91633651   -7.8530375    515.54934  0.021942004  0.021988369            2 
 1959000   0.93843397   -7.8200281    515.82978  0.021942734  0.021981392            5 
 1960000   0.94254912   -7.8334206    515.53758  0.021919115  0.021974398            3 
 1961000   0.93592072   -7.8377197    515.98116  0.021926788  0.021967361            1 
 1962000    0.9451732   -7.8679155    514.39007  0.021848032  0.021960366            1 
 1963000   0.93644141   -7.8498306    515.82266  0.021897719   0.02195334            1 
 1964000   0.93825649   -7.8695736    515.56235  0.021875524  0.021946258            2 
 1965000    0.9384535   -7.8582782    516.11213  0.021887707  0.021939154            1 
 1966000   0.92803992   -7.8390988    516.03503  0.021873306  0.021932153            2 
 1967000   0.92098857   -7.8082147    515.90848  0.021856824  0.021925188            1 
 1968000   0.92794188   -7.8451905    516.22367  0.021859065  0.021918231            1 
 1969000   0.92706442   -7.8784435    515.81874  0.021830825  0.021911256            4 
 1970000   0.93797856   -7.8417129    518.79351   0.02194558  0.021904313            9 
 1971000   0.94862881   -7.8183318    518.10691  0.021905416  0.021897359            3 
 1972000   0.93261988    -7.840749      518.267  0.021901073  0.021890426            2 
 1973000   0.91891417   -7.8727485    517.77581  0.021869227  0.021883524            3 
 1974000   0.94362596   -7.8383869    516.14295  0.021789216  0.021876558            3 
 1975000   0.93760881   -7.8403344    518.95587  0.021896872  0.021869532            2 
 1976000   0.93796304    -7.872912    516.44008  0.021779693  0.021862502            2 
 1977000   0.92532955   -7.8851972    516.95999  0.021790592  0.021855478            2 
 1978000   0.95660531   -7.8533204     516.5921  0.021764075  0.021848446            2 
 1979000   0.92977382   -7.8693742    517.75518  0.021802054  0.021841481            2 
 1980000   0.92996033   -7.8713542    516.95637  0.021757423  0.021834404            2 
 1981000   0.93847512   -7.8593507    518.66199  0.021818189  0.021827374            1 
 1982000   0.93127008   -7.8733723    517.25846   0.02174817  0.021820269            2 
 1983000   0.92810571   -7.8802517    518.09713  0.021772446  0.021813209            6 
 1984000   0.92306827   -7.8552238    519.38939  0.021815751  0.021806205            2 
 1985000   0.94326502   -7.8467184    518.55016  0.021769528  0.021799213            2 
 1986000   0.91211542   -7.8768824    517.86686  0.021729895  0.021792184            1 
 1987000    0.9221576   -7.8533831    518.55472  0.021747807   0.02178515            2 
 1988000   0.93638094   -7.8533512    519.11548  0.021760374  0.021778079            2 
 1989000   0.93915642   -7.8991392    517.81323  0.021694873  0.021771008            2 
 1990000   0.92502589   -7.8560752    518.99065  0.021733277  0.021763895            3 
 1991000   0.94688305   -7.8639076    517.25153   0.02164957  0.021756786            2 
 1992000   0.91754498   -7.8622192    518.44931   0.02168881  0.021749728            2 
 1993000   0.91849313   -7.8371234    517.38645  0.021633486  0.021742618            2 
 1994000   0.93856041   -7.8554171    518.28061  0.021660006  0.021735485            2 
 1995000   0.95072078    -7.842955    517.25383  0.021606258  0.021728289            2 
 1996000   0.91166177   -7.8759666    517.22675  0.021594303  0.021721111            1 
 1997000   0.92373808   -7.8784739    518.02041  0.021616608  0.021713985            3 
 1998000   0.92684263   -7.8788602    516.68575  0.021550123  0.021706818            1 
 1999000   0.92797032   -7.8664117    518.88905  0.021631193  0.021699679            1 
 2000000   0.91789056   -7.8415509    518.40329  0.021600137  0.021692495            2 
 2001000   0.92832063   -7.8729412    519.20191  0.021622601  0.021685346            2 
 2002000   0.94575308    -7.865524     518.7832  0.021594372  0.021678244            4 
 2003000   0.93823509   -7.8095955     519.8079  0.021626223  0.021671198            7 
 2004000   0.91933557   -7.8339201    519.03976   0.02158349  0.021664086            2 
 2005000   0.93689225   -7.8589287    520.61448  0.021638175  0.021656987            3 
 2006000   0.91870201   -7.8591378     519.9129  0.021598243  0.021649951            3 
 2007000   0.93059494   -7.8465844    519.36338  0.021564665  0.021642825            2 
 2008000   0.91831774   -7.8693426    520.23113  0.021589937  0.021635682            1 
 2009000   0.93645323    -7.892247    520.09007  0.021573339   0.02162858            1 
 2010000    0.9295756   -7.8618556    519.61452  0.021542891  0.021621419            3 
 2011000   0.94344587   -7.8728205    520.44887  0.021566752  0.021614336            2 
 2012000    0.9191688   -7.8457775    520.65838  0.021564711  0.021607239            3 
 2013000    0.9315771   -7.8334571     521.3092  0.021580941  0.021600237            3 
 2014000   0.94791206   -7.8447786    520.51942  0.021537546  0.021593173            1 
 2015000    0.9211998   -7.8558811    520.45076  0.021524018  0.021586119            2 
 2016000   0.92440025   -7.8597801    520.81417  0.021528364  0.021579119            2 
 2017000   0.91723514   -7.8666014    521.07832  0.021528604  0.021572059            1 
 2018000   0.92774475   -7.8897649    520.53615  0.021495546  0.021564981            3 
 2019000   0.90318874   -7.8398748    522.41534  0.021562462  0.021557992            1 
 2020000   0.91766127    -7.881461    520.71698  0.021481723  0.021550937            1 
 2021000   0.92401042    -7.844313     520.2904  0.021453505  0.021543846            1 
 2022000   0.93354491    -7.872817    522.47432  0.021532901  0.021536837            3 
 2023000   0.93052666   -7.8409031    521.68543  0.021489761   0.02152985            3 
 2024000   0.92608959   -7.8720785    522.41073  0.021509005  0.021522909            3 
 2025000   0.91260623    -7.879266    522.69661  0.021510148  0.021515887            3 
 2026000   0.92115926   -7.8604427    522.43629  0.021488824  0.021508904            2 
 2027000   0.89535933   -7.8897116    523.21158  0.021510096  0.021501972            5 
 2028000   0.93000781   -7.8842151    524.23643  0.021541602  0.021495054            1 
 2029000   0.95093713   -7.8880719    522.35665  0.021453781  0.021488156            2 
 2030000   0.91699767   -7.8650241    522.77334  0.021460318  0.021481242            3 
 2031000   0.92753072   -7.8737604    524.85544  0.021535182  0.021474355            2 
 2032000    0.9012459   -7.8792576    524.00612  0.021489752  0.021467447            2 
 2033000   0.92399571   -7.8863717    523.43494  0.021455769  0.021460533            2 
 2034000   0.92565002   -7.8772555    523.53246  0.021449216   0.02145365            3 
 2035000   0.92757868   -7.9231914    521.98453  0.021375288  0.021446698            2 
 2036000   0.92746974   -7.8841611    524.03419  0.021448682  0.021439699            1 
 2037000   0.95369058   -7.8947014    522.93516  0.021393191  0.021432757            2 
 2038000    0.9509498   -7.8878843    524.29985  0.021438495  0.021425778            3 
 2039000   0.95210996   -7.8851844    523.68279  0.021402762  0.021418792            3 
 2040000    0.8978856   -7.9106672    525.00705  0.021446366  0.021411836            2 
 2041000   0.92648156   -7.8896101    524.09288  0.021398533  0.021404867            3 
 2042000   0.91678149   -7.8612247    525.01609   0.02142573  0.021397894            1 
 2043000   0.91466323    -7.912719    523.73166  0.021362851   0.02139092            1 
 2044000   0.90524234   -7.8974018    523.79712  0.021355068  0.021383972            4 
 2045000    0.9288987   -7.8651577    524.29344  0.021364851  0.021377035            2 
 2046000   0.93991297   -7.8683847    523.77261  0.021333195  0.021370101            1 
 2047000    0.9228055   -7.8954138    524.06428  0.021334647  0.021363121            1 
 2048000   0.93302218   -7.8324607    524.42568  0.021338936  0.021356274            2 
 2049000   0.91732987   -7.8965415    523.47443  0.021289834   0.02134933            3 
 2050000    0.9086954   -7.8999719    523.90928  0.021297125  0.021342361            3 
 2051000   0.93272343   -7.9295293     523.4513  0.021268134  0.021335351            4 
 2052000   0.94631576   -7.9280876    522.94301  0.021237127  0.021328283            2 
 2053000    0.9282794   -7.9129372    523.71572  0.021258147  0.021321201            1 
 2054000   0.92503159   -7.8937565    525.10496  0.021304161  0.021314178            5 
 2055000   0.91664307   -7.9021644    523.71269  0.021237335  0.021307178            1 
 2056000   0.88856391   -7.8989711     525.1959  0.021287123  0.021300157            3 
 2057000   0.92245599   -7.8838225    524.79372  0.021260481  0.021293199            3 
 2058000   0.90061862   -7.8865242    525.04666  0.021260393   0.02128625            1 
 2059000   0.92095883   -7.9337469    524.61659  0.021232661  0.021279296            1 
 2060000   0.93834654   -7.9039325    525.48169   0.02125735  0.021272305            2 
 2061000   0.94735225   -7.8726722    525.30849  0.021240033  0.021265345            2 
 2062000   0.93731004   -7.8892435    525.40157  0.021233494  0.021258381            1 
 2063000   0.91484111   -7.8818569    526.08759  0.021250912  0.021251354            1 
 2064000   0.92700969   -7.9494372    525.10489   0.02120094  0.021244344            1 
 2065000   0.90722652   -7.8926607     524.9686  0.021185174  0.021237354            6 
 2066000   0.90598782   -7.8953667    525.27256   0.02118718  0.021230358            2 
 2067000   0.92544647   -7.8596714    526.93133  0.021243805  0.021223447            2 
 2068000   0.92364146   -7.8792304    527.41374  0.021252971  0.021216585            1 
 2069000     0.908864    -7.845208    527.25949  0.021236487  0.021209708            1 
 2070000   0.93108491   -7.8517088      528.349  0.021270089  0.021202848            7 
 2071000   0.91172728    -7.900728    527.56278  0.021228182  0.021195989            2 
 2072000   0.93052341   -7.8871459    527.23308  0.021204677  0.021189053            2 
 2073000   0.93645852   -7.8594672    527.12537  0.021190118  0.021182143            1 
 2074000   0.92020052   -7.8996773    527.37207  0.021189813  0.021175307            2 
 2075000   0.91673542   -7.8579923    527.13898   0.02117024  0.021168397            5 
 2076000    0.9176964   -7.8475096    528.50808     0.021215  0.021161506            1 
 2077000   0.90865833   -7.9095493    527.34757  0.021158224  0.021154605            3 
 2078000   0.89768408   -7.8946027    526.14425  0.021099786   0.02114765            1 
 2079000   0.92201415   -7.9247874    527.40383  0.021140125  0.021140686            1 
 2080000   0.92609538   -7.9061955    527.75397  0.021143989  0.021133724            3 
 2081000   0.89689253   -7.9304091    526.49229  0.021083305  0.021126772            3 
 2082000   0.92209077   -7.8910755    526.06623  0.021056125  0.021119774            1 
 2083000   0.91111645   -7.9234636    526.37059  0.021058193  0.021112716            1 
 2084000    0.9213538   -7.9081255    527.34828  0.021087183  0.021105723            3 
 2085000   0.92360739   -7.8743368    528.01112  0.021103562  0.021098771            2 
 2086000   0.91741206   -7.8760393    528.72803  0.021122085   0.02109186            3 
 2087000   0.92856324     -7.88018    527.70928  0.021071286  0.021084962            3 
 2088000   0.90605445   -7.9094197    526.78028  0.021024117  0.021078027            2 
 2089000   0.92739183   -7.9011194    527.39892  0.021038732  0.021071107            1 
 2090000   0.90374834   -7.8861918    526.68855  0.021000341  0.021064076            2 
 2091000   0.93790603   -7.9127777    528.76541  0.021073067  0.021057055            2 
 2092000   0.91213611   -7.8671966    529.00936  0.021072712   0.02105011            2 
 2093000   0.90985173   -7.9031761    527.96895  0.021021219  0.021043208            3 
 2094000   0.90872508   -7.9085311    529.12151  0.021057048   0.02103626            3 
 2095000   0.91337544   -7.9034131    527.78649  0.020993894  0.021029292            2 
 2096000   0.91887178    -7.906948    528.82065  0.021024994  0.021022314            3 
 2097000   0.89368075    -7.923224    527.69368  0.020970183  0.021015286            3 
 2098000   0.92413236   -7.8809189    528.32636  0.020985318  0.021008287            1 
 2099000   0.92188999   -7.9013095    528.21323  0.020970828  0.021001295            3 
 2100000   0.92813145   -7.8951258    530.09684  0.021035589  0.020994302            3 
 2101000   0.92776657   -7.8825801    529.33947  0.020995537   0.02098737            1 
 2102000   0.89513512   -7.8864372    530.31162  0.021024089  0.020980448            2 
 2103000   0.89476537   -7.9027341    529.28179  0.020973284   0.02097355            3 
 2104000   0.91501624   -7.9031163    530.19602  0.020999526  0.020966672            3 
 2105000   0.88886389   -7.8965262     529.6735  0.020968864  0.020959781            4 
 2106000   0.91323989   -7.9003288    529.51508  0.020952639  0.020952888            2 
 2107000   0.91071526   -7.9161761    529.64962  0.020948016   0.02094597            3 
 2108000   0.91822938   -7.8704687    529.85987  0.020946389  0.020939071            1 
 2109000   0.90602205   -7.9260785    529.19637  0.020910241  0.020932117            3 
 2110000   0.93159295   -7.9186346     529.0092  0.020892938  0.020925075            3 
 2111000   0.90289838   -7.9307103    530.16247  0.020928567   0.02091812            2 
 2112000   0.89797113   -7.8955406    529.90849  0.020908637  0.020911196            2 
 2113000   0.90195703   -7.9213049     528.6018  0.020847208   0.02090426            2 
 2114000   0.91802968   -7.9115286    529.66673  0.020879325  0.020897342            2 
 2115000   0.90509576   -7.9011565    530.14108  0.020888143  0.020890466            3 
 2116000   0.91374426    -7.925356    531.45383  0.020929971  0.020883565            2 
 2117000   0.90884083   -7.9402602    530.79631  0.020894202  0.020876652            1 
 2118000   0.90013408   -7.8974195     532.4534  0.020949536  0.020869753            2 
 2119000   0.89744784   -7.9199583    530.21211  0.020851507  0.020862912            2 
 2120000   0.92412592   -7.9012003    531.42575  0.020889377  0.020856092            2 
 2121000    0.9011407   -7.9108672    531.09215  0.020866421   0.02084925            2 
 2122000   0.92058849   -7.9462039    531.16822  0.020859575  0.020842417            1 
 2123000   0.88772211    -7.936378    531.25053   0.02085298  0.020835539            3 
 2124000    0.9258002   -7.9101229    531.43389  0.020850357  0.020828643            1 
 2125000   0.91111297   -7.9277257    532.93766  0.020899516  0.020821819            1 
 2126000    0.8905552   -7.9260045    531.54737   0.02083519  0.020815012            4 
 2127000   0.90585773   -7.9298411    532.75236  0.020872605  0.020808193            1 
 2128000    0.9096047   -7.8727835    533.38059  0.020887398  0.020801397            2 
 2129000   0.92001094   -7.9110763    531.63542  0.020809277  0.020794617            1 
 2130000   0.91934828    -7.955905    530.66188  0.020761419  0.020787763            2 
 2131000   0.91684757   -7.9309156    531.52534  0.020785443  0.020780889            1 
 2132000   0.91319518   -7.9556857    531.96894  0.020793033  0.020774026            1 
 2133000   0.89453729    -7.910078    532.96955  0.020822376  0.020767167            7 
 2134000   0.91906632   -7.9553123    531.30619  0.020747664  0.020760273            2 
 2135000   0.92896024   -7.9358846    533.25123  0.020813865  0.020753402            1 
 2136000   0.90765165   -7.9151643     533.3899  0.020809531  0.020746577            4 
 2137000   0.91384062   -7.8933279    533.23546  0.020793771  0.020739796            2 
 2138000   0.91799131   -7.9096693    534.32792  0.020826626  0.020733013            2 
 2139000   0.91155365   -7.9373382    532.71829   0.02075418   0.02072618            1 
 2140000   0.91326983   -7.9210435    532.74239   0.02074542  0.020719293            2 
 2141000   0.90258026    -7.933356    533.25045  0.020755506  0.020712436            3 
 2142000    0.8902307   -7.9212771    533.65399  0.020761515  0.020705567            2 
 2143000   0.90688776   -7.9323377    534.30192  0.020777023  0.020698646            1 
 2144000   0.91854924    -7.900041    533.90321  0.020751835  0.020691789            7 
 2145000   0.90650723   -7.9080272    532.50215  0.020687729   0.02068497            2 
 2146000   0.90408859   -7.9196514    532.58203  0.020681191  0.020678156            1 
 2147000   0.90185804   -7.9364617    532.83057  0.020681205  0.020671305            1 
 2148000   0.90687564   -7.9117849    533.96646  0.020715645  0.020664473            7 
 2149000   0.90475284   -7.9285088    534.11314  0.020711693   0.02065762            2 
 2150000   0.91715047   -7.9585072    533.98909  0.020697252  0.020650777            4 
 2151000    0.8965681   -8.0021543    533.00204  0.020649389  0.020643871            3 
 2152000   0.89278324    -7.927895    533.91022  0.020674962  0.020636951            2 
 2153000   0.92166512   -7.9682032    533.53504  0.020650838  0.020630066            3 
 2154000   0.91810475   -7.9671091    533.02702  0.020621596  0.020623225            2 
 2155000   0.92118402    -7.946173    533.39022  0.020626072   0.02061644            2 
 2156000   0.90044386    -7.965457    533.10577  0.020605511  0.020609645            2 
 2157000   0.91074821   -7.9291149    535.35541   0.02068287  0.020602869            3 
 2158000   0.91618668   -7.9618639    534.12996  0.020625964   0.02059612            2 
 2159000   0.90555594   -7.9394538    534.16622   0.02061781  0.020589374            2 
 2160000     0.891473   -7.9289779    537.51034  0.020737282   0.02058266            1 
 2161000   0.90066527   -7.9216013     537.2737   0.02071856  0.020575954            2 
 2162000   0.89826488   -7.9096205    535.27882  0.020632085  0.020569241            2 
 2163000   0.90617352   -7.9686227     535.4077  0.020627512  0.020562527            3 
 2164000   0.89292998   -7.8851615    536.16365   0.02064709  0.020555809            3 
 2165000   0.89674151   -7.9417492    534.40071  0.020569696  0.020549097            1 
 2166000   0.90645356    -7.969752    534.58185  0.020567169  0.020542339            1 
 2167000   0.91672641   -7.9348938     536.4179  0.020628284  0.020535602            1 
 2168000   0.91503789   -7.9235181    536.26027   0.02061271  0.020528864            1 
 2169000   0.90383895   -7.9030389    536.33378  0.020606031   0.02052212            2 
 2170000    0.9170954   -7.9214931    534.48556  0.020525559  0.020515416            2 
 2171000   0.89956234   -7.9457782    536.18305  0.020581263  0.020508659            3 
 2172000   0.91328821   -7.8986949     536.7406  0.020593178  0.020501898            3 
 2173000   0.90768738   -7.9156875    537.51574  0.020613428  0.020495225            3 
 2174000   0.90729941     -7.93834    535.89302  0.020541744  0.020488536            2 
 2175000    0.8947191   -7.9239927    535.92028  0.020533344   0.02048181            2 
 2176000   0.89732952   -7.9104287    535.66829  0.020514258  0.020475046            2 
 2177000   0.90298804   -7.9239003    535.49333  0.020498137  0.020468261            3 
 2178000   0.91276978   -7.9618036    536.18889  0.020515339  0.020461508            2 
 2179000   0.90178567   -7.9637994    535.52746  0.020480628  0.020454661            2 
 2180000   0.90652842   -7.9030539    536.09292  0.020492849    0.0204479            2 
 2181000   0.90699106   -7.9618398    535.83975  0.020473779   0.02044116            2 
 2182000   0.90494975    -7.927457    538.65084  0.020571755  0.020434473            2 
 2183000   0.89478502     -7.94306    538.29664  0.020548811  0.020427757            4 
 2184000   0.91335247   -7.9251788    538.16755  0.020534476   0.02042107            3 
 2185000    0.9037584   -7.9329165    536.94843  0.020478582  0.020414388            3 
 2186000   0.90610178   -7.9672142    536.70133  0.020459795  0.020407707            4 
 2187000   0.90376352   -7.9424323    537.28956  0.020472853  0.020401011            3 
 2188000   0.90271642   -7.9192233    538.65901  0.020515654  0.020394383            3 
 2189000   0.89349098    -7.902067    538.73023  0.020508993  0.020387775            2 
 2190000   0.89722319   -7.9494677    539.37214  0.020524054  0.020381106            4 
 2191000   0.89781014   -7.9418475    538.33047  0.020475068  0.020374471            2 
 2192000   0.89204786   -7.9491392    539.10553  0.020495192  0.020367851            4 
 2193000   0.89630223   -7.9283159    537.77461  0.020435272  0.020361249            3 
 2194000    0.8953001   -7.9709938    538.08471  0.020437736  0.020354623            3 
 2195000    0.8969928   -7.9334433     538.4284  0.020441473  0.020348005            3 
 2196000   0.90183006   -7.9189724    540.71447  0.020518916  0.020341423            2 
 2197000   0.90510553   -7.9438739    539.06048   0.02044684  0.020334823            9 
 2198000   0.89795136   -7.9407716    538.44351  0.020414146  0.020328169            1 
 2199000   0.89869456   -7.9493741    539.36305  0.020439709  0.020321519            1 
 2200000   0.88784656   -7.9261161    540.65697  0.020479431  0.020314884            2 
 2201000   0.89264979   -7.9140865    539.52668  0.020427332  0.020308233            5 
 2202000   0.89551727   -7.9383498    540.00034   0.02043598  0.020301611            3 
 2203000   0.90676782   -7.9505218    539.20699  0.020396694  0.020295048            1 
 2204000   0.88134252   -7.9685587    539.31326  0.020391457  0.020288463            4 
 2205000   0.89819845   -7.9257002    541.34687  0.020459066  0.020281856            2 
 2206000   0.91900219   -7.9605908    540.68489  0.020424784  0.020275291            1 
 2207000   0.90569285   -7.9192748    540.32685  0.020402011  0.020268727            4 
 2208000    0.8933333   -7.9553241    538.99176  0.020342382  0.020262128            2 
 2209000   0.90301605   -7.9505229    539.77318  0.020362652  0.020255546            2 
 2210000    0.9075324    -7.965667    537.55641   0.02026985  0.020248925            2 
 2211000   0.89218324   -7.9496505    540.90646  0.020386946  0.020242259            4 
 2212000   0.89496035   -7.9562428     540.3768  0.020357776  0.020235595            3 
 2213000   0.90165498   -7.9732749    540.73993  0.020362251  0.020228947            3 
 2214000   0.89312201   -7.9262071    541.66995  0.020388059  0.020222378            2 
 2215000   0.89615433   -7.9717784    539.54594  0.020298944  0.020215765            8 
 2216000   0.90114929   -7.9716675    539.87425   0.02030213  0.020209109            4 
 2217000    0.8922028   -8.0010138     539.6358   0.02028401  0.020202522            3 
 2218000   0.89211365   -7.9383372    540.25883  0.020298273   0.02019589            1 
 2219000   0.92053291   -7.9634754    538.99321  0.020241596  0.020189295            3 
 2220000    0.8997636   -7.9095846     542.0764  0.020348213  0.020182723            4 
 2221000   0.88938728    -7.941474    542.34772  0.020349232  0.020176151            2 
 2222000   0.90136223   -7.9524857    541.35193  0.020302728  0.020169581            4 
 2223000   0.90555652   -7.9958328    539.48069  0.020223448  0.020162995            2 
 2224000   0.89922487   -7.9792669    542.55003  0.020329363  0.020156395            1 
 2225000   0.88687423    -7.976172    541.81343  0.020292638  0.020149864            2 
 2226000   0.87779126   -7.9209435    543.73204  0.020355347  0.020143387            1 
 2227000   0.89739437   -7.9324066    542.04807  0.020283194  0.020136936            1 
 2228000   0.89013664   -7.9545196    541.61283  0.020257811  0.020130431            3 
 2229000   0.91187016   -7.9405584    544.10131  0.020341757  0.020124005            2 
 2230000   0.89032428   -7.9438916    543.50495  0.020310349  0.020117576            2 
 2231000    0.8930028   -7.9503745    544.05862  0.020321927  0.020111154            1 
 2232000    0.8745297   -7.9566404    542.68367  0.020261487  0.020104661            2 
 2233000   0.89301092   -7.9501539    543.80084  0.020294105  0.020098162            4 
 2234000   0.88705167   -7.9547726    542.46219  0.020235086  0.020091675            1 
 2235000   0.93449538    -7.950346    543.22129  0.020254336  0.020085199            2 
 2236000   0.89095856   -7.9554097    543.17944  0.020243718  0.020078724            2 
 2237000   0.90734146   -7.9569776    543.99597  0.020265086   0.02007228            3 
 2238000   0.88658254   -7.9315077    543.91479  0.020253008  0.020065823            3 
 2239000   0.87328417   -7.9308601    543.41404  0.020225325  0.020059394            1 
 2240000   0.88450945   -7.9718508    545.05898  0.020277492  0.020052973            2 
 2241000   0.89625415   -7.9483399    544.75058  0.020256975  0.020046538            4 
 2242000   0.91206711   -7.9708482    543.24732  0.020192065  0.020040164            3 
 2243000   0.90127363   -7.9350865    544.72766  0.020238062  0.020033783            2 
 2244000   0.88844347   -7.9824342    543.42161  0.020180541  0.020027371            3 
 2245000    0.8906235   -7.9644383    544.87057  0.020225337  0.020020932            1 
 2246000   0.89175134   -7.9397466    545.55907  0.020241877  0.020014564            7 
 2247000   0.89394212   -7.9782395    544.31492  0.020186728   0.02000814            4 
 2248000    0.9074897   -7.9772055    545.34974  0.020216108  0.020001644            1 
 2249000   0.89643725   -7.9758557    544.37949  0.020171168  0.019995225            3 
 2250000   0.88117922   -7.9427638    545.29548  0.020196129  0.019988824            7 
 2251000    0.8709443    -7.986757    545.01179  0.020176654  0.019982402            5 
 2252000   0.87945019   -7.9684577    544.77407  0.020158898  0.019975985            3 
 2253000   0.88385016   -7.9504603    545.31962  0.020170129  0.019969563            1 
 2254000    0.9188431   -7.9902731    544.67815  0.020137465  0.019963115            2 
 2255000   0.90208728   -7.9770746    545.60422  0.020162757  0.019956732            2 
 2256000    0.8947752   -7.9567207    544.87674  0.020126948   0.01995034            1 
 2257000   0.89662723   -8.0193691    544.26778  0.020095546  0.019943907            1 
 2258000   0.90004667   -7.9892853    545.58866  0.020135395   0.01993746            4 
 2259000   0.89632415   -7.9873538    545.34656  0.020117551  0.019931034            3 
 2260000    0.8907899   -7.9714836    546.22311   0.02014097  0.019924594            1 
 2261000   0.89203366   -7.9597841     544.9634  0.020085633  0.019918209            3 
 2262000   0.87881538   -7.9644429     544.3183  0.020052988  0.019911836            1 
 2263000   0.88802731   -7.9801424    546.09678  0.020109618  0.019905472            2 
 2264000   0.92084072   -7.9981116    546.02434  0.020098069  0.019899092            1 
 2265000   0.89655598   -7.9729985    546.88462  0.020120847  0.019892729            1 
 2266000   0.89196654   -7.9924772    546.15674  0.020085199  0.019886403            2 
 2267000   0.88019286   -7.9871401    547.36936  0.020120915  0.019880048            2 
 2268000    0.8874305   -7.9454007    546.34321  0.020074339  0.019873745            3 
 2269000   0.88864213   -7.9561182    547.90038  0.020122682  0.019867428            3 
 2270000   0.90890286   -7.9634211    547.61728  0.020103424  0.019861162            2 
 2271000   0.90857117   -7.9951549    547.43533  0.020087895  0.019854838           10 
 2272000      0.87646   -7.9740229    549.18514  0.020143234  0.019848608            1 
 2273000   0.91434217   -7.9599682    547.30291  0.020065365   0.01984237            1 
 2274000   0.89065833   -8.0124726    547.31561  0.020057007  0.019836085            1 
 2275000   0.88674679   -7.9961451    547.03017  0.020037735  0.019829748            2 
 2276000   0.89015739   -7.9721872    547.50125  0.020046179  0.019823433            2 
 2277000   0.90125186   -7.9935703      547.415  0.020034219  0.019817148            3 
 2278000   0.86417022   -7.9760386    549.23967  0.020092174  0.019810842            2 
 2279000   0.87650799   -7.9901643    547.53687  0.020021094  0.019804537            2 
 2280000   0.89057823   -8.0337553    546.26301  0.019965753  0.019798196            2 
 2281000   0.88340177   -8.0106678     546.4686  0.019964511  0.019791883            2 
 2282000   0.90013095   -7.9868898    547.95938  0.020010202  0.019785588            2 
 2283000   0.88247268   -8.0069088    546.14984  0.019935386  0.019779284            2 
 2284000   0.87756874   -7.9941655    547.83681  0.019988208  0.019772941            1 
 2285000   0.88599077   -7.9934694    547.66883  0.019973334  0.019766652            2 
 2286000   0.87967045    -7.987403    548.05295    0.0199786  0.019760331            2 
 2287000   0.88879556   -7.9874864    548.41173  0.019982937  0.019754044            1 
 2288000   0.89582443   -7.9579246    547.72362  0.019949141  0.019747788            1 
 2289000   0.88453758    -7.989642    549.02472  0.019987794   0.01974156            2 
 2290000   0.89480501   -7.9740677    548.85471  0.019972879  0.019735295            2 
 2291000   0.89122968   -8.0033832    548.26996  0.019942891  0.019729009            4 
 2292000   0.89289592    -8.018179    548.59973   0.01994618  0.019722667            3 
 2293000   0.88928523   -7.9954183    550.07078  0.019990943  0.019716384            3 
 2294000   0.89521612   -7.9656191    549.32842  0.019955261  0.019710143            1 
 2295000   0.87272926   -7.9782103    548.21865  0.019906269  0.019703877            2 
 2296000   0.88865305   -7.9993369    547.81984  0.019883124  0.019697608            2 
 2297000   0.88387225   -7.9980018     548.5345  0.019900396  0.019691336            1 
 2298000   0.88500678   -7.9982797     549.8095  0.019937971  0.019685062            3 
 2299000   0.87796008   -7.9993687    547.85224  0.019858353  0.019678768            5 
 2300000   0.88234594   -8.0129841    548.45411  0.019871526   0.01967248            4 
 2301000   0.89382708   -7.9957563    548.84027  0.019876875  0.019666204            1 
 2302000   0.88664208   -7.9374308    550.91402  0.019943311  0.019659989            3 
 2303000   0.88452088   -7.9446369    551.23574  0.019946292  0.019653823            1 
 2304000   0.88697926   -7.9380741    551.52431  0.019948072  0.019647659            2 
 2305000   0.87245228   -7.9371147    550.56592  0.019904769  0.019641477            2 
 2306000   0.88101087   -7.9565701    550.29428  0.019886321  0.019635284            3 
 2307000   0.90625226   -7.9700186    550.08503  0.019870142  0.019629069            5 
 2308000   0.86109318   -7.9962759    549.39131  0.019836486  0.019622807            7 
 2309000   0.87862021   -8.0247022    550.00234  0.019849947  0.019616561            3 
 2310000   0.89245737   -7.9907304    550.55612  0.019861332  0.019610325            2 
 2311000   0.89484515      -7.9871    551.10931  0.019872685  0.019604149            2 
 2312000    0.8857406   -7.9675534      552.806  0.019925245  0.019597989            6 
 2313000    0.8794271   -7.9790384    552.50552  0.019905805  0.019591907            2 
 2314000   0.87260283   -7.9782181    551.63992   0.01986603  0.019585773            2 
 2315000   0.86843103   -7.9527577    553.23096  0.019914721  0.019579634            2 
 2316000    0.8663652    -7.987603    552.16693  0.019867837  0.019573516            1 
 2317000   0.86493701   -7.9928858    551.00789  0.019817576   0.01956732            3 
 2318000   0.89360458   -7.9841992    552.04498  0.019846311  0.019561153            2 
 2319000   0.88629331   -8.0170905    551.12249  0.019804603   0.01955498            3 
 2320000   0.87369178    -7.998257    550.78388  0.019783904  0.019548741            4 
 2321000   0.88392011   -7.9843145    551.60474  0.019804852  0.019542526            4 
 2322000   0.88744588   -8.0068969    550.67425  0.019762929  0.019536263            3 
 2323000   0.87121801   -7.9959756    550.02552  0.019731149  0.019530019            1 
 2324000   0.86709366   -7.9998603    552.23806  0.019801996  0.019523751            2 
 2325000   0.88502653   -8.0065027     551.1348  0.019753935  0.019517517            2 
 2326000   0.87478556    -7.972646    553.83113  0.019842044  0.019511299            2 
 2327000   0.88546121    -8.002249    551.16096  0.019737894  0.019505065            2 
 2328000   0.87152681   -8.0091027    551.31603  0.019734967  0.019498833            2 
 2329000   0.89131038   -7.9992813     550.3319   0.01969128  0.019492545            3 
 2330000   0.88634057   -8.0232985    550.39753  0.019685176  0.019486262            3 
 2331000   0.88723669   -7.9959834    553.37259   0.01978309  0.019479988            4 
 2332000   0.85976812   -7.9886561    551.03273  0.019690992  0.019473734            2 
 2333000   0.88025478   -7.9933151     550.2834  0.019655787  0.019467469            2 
 2334000   0.86488816   -8.0070631    550.79485  0.019665626  0.019461171            3 
 2335000   0.85394185   -8.0482461    551.36102   0.01967741  0.019454841            2 
 2336000   0.89907002   -8.0121785    550.80835   0.01964927  0.019448513            1 
 2337000   0.89714805   -8.0025411    551.55839  0.019667608  0.019442218            2 
 2338000   0.87748343   -7.9940144    551.28994  0.019649627  0.019435961            4 
 2339000    0.8830238   -7.9748934    552.77088  0.019693989  0.019429728            3 
 2340000   0.87497967   -8.0154314    551.56029   0.01964246  0.019423512            2 
 2341000   0.86415891   -7.9852132    552.89349  0.019681528  0.019417323            2 
 2342000   0.87552196   -7.9873086    553.27141  0.019686572   0.01941114            1 
 2343000   0.87563846   -8.0038882    553.11367  0.019672559  0.019404929            2 
 2344000   0.87481707   -8.0073822    553.59336   0.01968122  0.019398706            2 
 2345000   0.87042907   -7.9707987    553.64884  0.019674799  0.019392485            4 
 2346000   0.88477164    -8.030949    552.96512  0.019642126  0.019386234            2 
 2347000   0.87320223   -8.0325831     551.9343  0.019597156  0.019379981            3 
 2348000   0.88060409   -8.0380738    551.15718  0.019561229   0.01937369            2 
 2349000   0.85196386   -8.0254555    551.47492  0.019564174   0.01936745            2 
 2350000   0.89590553   -8.0324505    552.59736  0.019595651  0.019361185            6 
 2351000   0.87385694   -8.0405781    552.12937  0.019570728  0.019354972            2 
 2352000   0.87132699   -8.0199259    552.65249  0.019580941  0.019348713            3 
 2353000   0.88465005   -8.0165901    552.80782  0.019578121  0.019342509            2 
 2354000   0.86437357    -8.012582    552.97897  0.019575863  0.019336287            4 
 2355000   0.86705344   -8.0191065    554.30825  0.019614588   0.01933012            1 
 2356000   0.87162879   -8.0269156    552.68205  0.019548743  0.019323895            1 
 2357000    0.8645469   -8.0156143    553.15213  0.019557069  0.019317653            1 
 2358000   0.88791499   -8.0296235    552.16682  0.019513953  0.019311435            2 
 2359000   0.87903712   -8.0289493    552.59647  0.019520859  0.019305206            3 
 2360000   0.86173942   -8.0273286    553.57529   0.01954715  0.019299005            3 
 2361000   0.86930612    -8.009913    553.22937  0.019526661  0.019292771            6 
 2362000   0.86980461   -8.0254877    553.38006  0.019523711  0.019286549            2 
 2363000   0.88231271   -8.0174513    554.87776  0.019568266  0.019280319            3 
 2364000   0.86587033    -8.040482    554.95014   0.01956254  0.019274106            1 
 2365000   0.86961588   -8.0194125    554.94631  0.019554133  0.019267885            1 
 2366000   0.86390779   -7.9968541    553.92103  0.019509757  0.019261686            1 
 2367000   0.87523748   -8.0206075    553.59771  0.019490132   0.01925546            1 
 2368000   0.85728274   -8.0106887    553.78588  0.019488523  0.019249252            5 
 2369000   0.87353782   -8.0524567    553.94028  0.019485728   0.01924301            3 
 2370000   0.88431336   -8.0323371    553.64669  0.019467183  0.019236817            3 
 2371000   0.87616851   -8.0138845    553.98247  0.019470774  0.019230586            6 
 2372000   0.87444356   -8.0499379    552.71833  0.019418154  0.019224323            1 
 2373000   0.87065772   -8.0555305     552.8353  0.019414079  0.019218062            3 
 2374000   0.87751812   -8.0870639    552.79151  0.019404364  0.019211779            2 
 2375000   0.87632359   -8.0134114    554.14542  0.019443699  0.019205502            4 
 2376000   0.87878949   -8.0409509     554.4855  0.019447443  0.019199233            2 
 2377000   0.88188874   -8.0493521    554.83713  0.019451589  0.019192964            2 
 2378000   0.86497664    -8.057713    553.57956   0.01939934  0.019186706            2 
 2379000   0.89822562   -8.0157816    554.56472  0.019425694  0.019180474            2 
 2380000   0.88412653   -7.9829886    554.91417  0.019429768  0.019174283            2 
 2381000   0.85336928   -7.9774546    556.34642  0.019471735  0.019168084            1 
 2382000   0.87358162   -8.0149497    554.93284  0.019414107    0.0191619            4 
 2383000   0.87154744   -8.0221494    554.92011  0.019405515  0.019155655            2 
 2384000   0.88592044   -8.0497223    552.85728  0.019325269  0.019149399            3 
 2385000   0.89089738   -8.0118957    553.75692    0.0193486  0.019143129            2 
 2386000   0.88180342   -8.0150216    556.01795  0.019419459  0.019136899            2 
 2387000   0.87107334   -8.0353784    554.66027  0.019363925   0.01913067            2 
 2388000   0.88073496   -7.9785548    554.90986  0.019364526  0.019124421            3 
 2389000   0.84821665   -8.0325354    555.81858  0.019388119  0.019118236            1 
 2390000   0.86333851   -8.0633492    554.93189   0.01934909  0.019111995            3 
 2391000   0.89194459   -8.0017615    555.52627  0.019361713    0.0191058            2 
 2392000   0.87959115   -8.0226208    555.59145  0.019355889  0.019099555            3 
 2393000    0.8792585   -8.0258352    555.35859  0.019339692  0.019093306            2 
 2394000   0.86546987    -8.014851    555.73919  0.019344862  0.019087071            3 
 2395000    0.8636731   -8.0110901    556.29158  0.019356005  0.019080834            5 
 2396000    0.8778809   -8.0508257     555.5439  0.019321922  0.019074582            2 
 2397000   0.85969884   -8.0278724    555.34792  0.019307048  0.019068335            1 
 2398000   0.87077833   -8.0171924    555.26816  0.019296225  0.019062113            3 
 2399000    0.8655803   -8.0243769    555.33568  0.019290527  0.019055909            2 
 2400000   0.87623165   -8.0276637    555.70885  0.019295446  0.019049663            2 
 2401000    0.8452013   -8.0336131    554.35494  0.019240419  0.019043412            2 
 2402000   0.88178671   -8.0276844     555.8696  0.019284957  0.019037149            3 
 2403000   0.86151191   -8.0168375    556.01901  0.019282113  0.019030899            2 
 2404000   0.85108737   -8.0037868    556.76046  0.019299794  0.019024696            2 
 2405000    0.8865959   -8.0441101    555.15631  0.019236185  0.019018478            2 
 2406000   0.86920184   -8.0468579    555.52464  0.019240948  0.019012221            1 
 2407000   0.85385258   -8.0054539    556.95555  0.019282494  0.019005997            2 
 2408000   0.87547328    -8.017498    557.10662  0.019279714  0.018999785            7 
 2409000   0.88240879   -8.0161226    556.32119  0.019244541  0.018993591            4 
 2410000   0.84992633   -8.0428448    555.38682  0.019204247  0.018987356            2 
 2411000   0.87996193   -8.0400004    556.44323  0.019232795  0.018981155            1 
 2412000   0.87157601   -8.0483458    556.62519  0.019231108  0.018974922            6 
 2413000   0.86792915   -8.0240773     557.1247  0.019240389  0.018968714            3 
 2414000   0.85537109    -8.048099    556.70952  0.019218086  0.018962511            2 
 2415000   0.86437014    -8.034216    556.36106  0.019198104  0.018956302            3 
 2416000   0.85403735   -8.0533283    557.34494  0.019224094  0.018950114            2 
 2417000   0.84679173   -8.0749522    555.44073  0.019150487  0.018943892            2 
 2418000   0.88382321   -8.0420155    557.82422  0.019224711  0.018937703            3 
 2419000   0.86712922   -8.0135986    557.53352  0.019206749  0.018931596            2 
 2420000   0.85242056   -8.0059771    558.00612  0.019215087  0.018925438            1 
 2421000   0.86190032   -8.0242545    558.47419  0.019223261  0.018919357            2 
 2422000   0.84680693   -8.0176946    557.42193   0.01917912  0.018913227            1 
 2423000   0.86993057   -8.0453104    556.94041  0.019154643  0.018907092            2 
 2424000   0.87650953   -8.0225775    557.50889  0.019166285  0.018900963            1 
 2425000   0.85779781   -8.0407948    557.26414   0.01914997  0.018894756            2 
 2426000   0.86965462   -8.0603156     557.4549   0.01914863  0.018888567            3 
 2427000   0.85777234   -8.0314128    556.77001  0.019117223  0.018882392            1 
 2428000   0.86033681   -8.0210943    558.68157  0.019174958  0.018876249            2 
 2429000   0.84914937   -8.0350756    557.71023  0.019133739  0.018870124            2 
 2430000   0.85370334   -8.0428893    556.84819  0.019096303  0.018863963            1 
 2431000   0.87510764   -8.0202401    557.33603  0.019105171  0.018857781            2 
 2432000   0.86161645   -8.0837468    556.38549  0.019064744  0.018851603            3 
 2433000   0.87839494   -8.0335432    558.26583  0.019121312  0.018845418            3 
 2434000   0.87063168   -8.0191884    557.63219  0.019091762  0.018839274            3 
 2435000   0.87010468   -8.0657131    558.14757   0.01910156  0.018833118            2 
 2436000   0.86112186   -8.0350133    557.53173  0.019072651   0.01882694            2 
 2437000   0.86186863   -8.0372275    559.16374  0.019120631    0.0188208            1 
 2438000   0.86754556   -8.0540767     557.7605  0.019064824  0.018814678            2 
 2439000    0.8667341    -8.053475    557.49412  0.019047906  0.018808533            2 
 2440000   0.85264344   -8.0232325    559.44084  0.019106586  0.018802393            2 
 2441000   0.85429618   -8.0676073     558.5142  0.019067124  0.018796264            1 
 2442000   0.85992503   -8.0400023    558.96129  0.019074573  0.018790155            4 
 2443000   0.86203811   -8.0245362    559.07137   0.01907052  0.018784034            1 
 2444000   0.86360645   -8.0670676    558.70677  0.019050285  0.018777957            2 
 2445000   0.86123734   -8.0494666    559.12464  0.019056736  0.018771823            2 
 2446000   0.86046986    -8.052175    560.23521  0.019086782  0.018765763            1 
 2447000   0.84435874   -7.9971036    561.57644  0.019124657  0.018759702            3 
 2448000    0.8530484   -8.0733872    558.21908  0.019002556  0.018753599            2 
 2449000   0.86403802   -8.0246048    560.18799  0.019061794  0.018747496            1 
 2450000   0.87781171   -7.9972625    561.61014  0.019102386  0.018741447            3 
 2451000   0.85406169   -8.0495864    560.00325  0.019039958  0.018735422            2 
 2452000   0.84146897   -8.0656483    559.97787  0.019031331  0.018729358            7 
 2453000   0.86703422   -8.0622532    559.73812  0.019015427  0.018723245            2 
 2454000   0.85212286   -8.0432483    560.94294  0.019048592  0.018717176            4 
 2455000   0.85998365   -8.0678011    560.88256  0.019038783  0.018711126            1 
 2456000   0.88578728   -8.0276949    560.33774  0.019012546  0.018705059            1 
 2457000   0.86752561   -8.0545013    560.07024  0.018995735  0.018698967            5 
 2458000   0.85797442   -8.0759652    560.00287  0.018985723   0.01869288            2 
 2459000   0.88595767   -8.0603556    560.19407  0.018984481  0.018686792            2 
 2460000   0.84214211   -8.0560285    559.78655  0.018962959  0.018680731            4 
 2461000   0.86505404   -8.0638084    560.12773  0.018966806  0.018674657            2 
 2462000   0.83344411   -8.0691424    560.23939  0.018962882  0.018668575            2 
 2463000   0.85304908   -8.0458709    560.66188  0.018969478  0.018662495            4 
 2464000   0.84232855    -8.056929    561.22503  0.018980825   0.01865642            3 
 2465000   0.84245102   -8.0842952    558.51866  0.018881631  0.018650317            2 
 2466000   0.85362154   -8.0313627    560.81431  0.018951551  0.018644248            2 
 2467000   0.86369197   -8.0362988    561.55727  0.018968966  0.018638235            3 
 2468000   0.84669432   -8.0372445    562.53683  0.018994355  0.018632225            3 
 2469000   0.84968062   -8.0557168    560.77124   0.01892707  0.018626189            2 
 2470000   0.86068944    -8.056973    561.56777  0.018946281  0.018620141            2 
 2471000   0.85116472   -8.0676429    562.54179  0.018971462  0.018614146            1 
 2472000   0.87683039   -8.0562296    561.22357  0.018919349  0.018608122            2 
 2473000   0.86359621   -8.0638426    560.64891  0.018892334  0.018602096            2 
 2474000   0.84233573   -8.0715622    559.66875  0.018851683  0.018596062            1 
 2475000   0.83920703   -8.0883429    561.21457  0.018896114  0.018589997            2 
 2476000   0.86879678   -8.1025931    559.96558  0.018846445  0.018583939            4 
 2477000   0.84556373   -8.0845753    562.40301  0.018920839  0.018577872            1 
 2478000    0.8334547   -8.0665582    561.81864  0.018893551  0.018571808            2 
 2479000   0.86265914    -8.088301    561.78945  0.018884949  0.018565737            4 
 2480000     0.840819   -8.0355707     561.9603  0.018883075  0.018559672            2 
 2481000   0.84114719   -8.0745272     561.3303  0.018854303  0.018553603            2 
 2482000   0.85489762   -8.0887566     561.1177  0.018839568  0.018547563            2 
 2483000    0.8576889   -8.0765487    561.17265  0.018833825  0.018541498            3 
 2484000   0.84442165   -8.0848706    561.31078  0.018830877  0.018535454            4 
 2485000   0.85756816   -8.0801714     561.0528  0.018814648  0.018529341            2 
 2486000   0.85895005   -8.0909283    561.26092  0.018814056  0.018523222            2 
 2487000   0.83731628   -8.0706675    561.10681  0.018801327  0.018517109            2 
 2488000    0.8510409   -8.0658183    560.54284  0.018774881  0.018511037            1 
 2489000   0.85167822   -8.0727943    562.53351  0.018833986  0.018504991            2 
 2490000   0.87956354   -8.0697074    562.13276  0.018813011  0.018498959            2 
 2491000   0.87567084    -8.048694    562.75942  0.018826422  0.018492975            1 
 2492000   0.85291066   -8.0350889     562.4492  0.018808494   0.01848702            2 
 2493000   0.85603879   -8.0333033    562.25926    0.0187946  0.018481089            1 
 2494000   0.84181943   -8.0373832    564.71199  0.018869019  0.018475149            8 
 2495000    0.8597821   -8.0815619    562.82456  0.018798416  0.018469181            1 
 2496000   0.83870931   -8.1003592    563.50477  0.018813594  0.018463174            9 
 2497000   0.84058106   -8.0741308    563.35386  0.018801023  0.018457179            1 
 2498000    0.8500893   -8.1147035     562.4315  0.018762727  0.018451206            2 
 2499000   0.82317328   -8.0484989    564.10663  0.018811079  0.018445246            1 
 2500000   0.83803812   -8.0887898    562.45536  0.018748512  0.018439269            2 
 2501000   0.87245618   -8.0824286    562.71852  0.018749784  0.018433284            1 
 2502000   0.86288386   -8.0730528    561.81138  0.018712076  0.018427324            3 
 2503000   0.84823224   -8.0894136    562.95355  0.018742627  0.018421356            2 
 2504000   0.85266115   -8.1019546    561.53777  0.018688025  0.018415335            1 
 2505000    0.8460753   -8.0917393    562.86881  0.018724844  0.018409328            2 
 2506000    0.8444566     -8.06159     564.4167  0.018768845  0.018403363            2 
 2507000   0.84493042   -8.0837822    563.26796  0.018723174  0.018397392            2 
 2508000   0.84191903   -8.0879013    562.05631  0.018675449  0.018391396            3 
 2509000   0.85089892   -8.0915753    564.86772  0.018761383    0.0183854            1 
 2510000   0.84622647   -8.0877005    564.94425  0.018756449  0.018379423            2 
 2511000   0.84765564   -8.1098924     562.8425  0.018679228  0.018373449            1 
 2512000   0.85572593   -8.0968481    563.76737  0.018702474  0.018367466            2 
 2513000   0.85001619   -8.0608231    563.82286  0.018696872  0.018361473            3 
 2514000   0.85022439   -8.0580331    564.47508  0.018711054  0.018355503            2 
 2515000   0.85956003   -8.0512117     563.7157  0.018678453  0.018349546            1 
 2516000   0.85210658   -8.0771564    563.64077  0.018668547  0.018343548            3 
 2517000   0.85455061    -8.071321    563.24103  0.018647895  0.018337576            2 
 2518000   0.85845943   -8.0735504    563.93397  0.018663422  0.018331548            3 
 2519000   0.84215659   -8.0594552    564.43322   0.01867253  0.018325556            4 
 2520000   0.85677328   -8.0834176    562.99445  0.018617541  0.018319539            3 
 2521000   0.84619052   -8.0780032    564.34549  0.018654816   0.01831351            1 
 2522000     0.847112   -8.0741434    563.90595  0.018632895  0.018307485            2 
 2523000   0.83761783   -8.0608111    564.94727  0.018659905   0.01830149            2 
 2524000   0.86739331   -8.0659414    564.02964  0.018622215   0.01829552            1 
 2525000    0.8478066   -8.1013714    562.90656  0.018577774  0.018289528            3 
 2526000   0.85240223   -8.0855285    562.70592    0.0185638  0.018283498            1 
 2527000   0.85335921   -8.0792638    563.27251  0.018575139  0.018277497            3 
 2528000   0.86623562   -8.0723221    564.12687  0.018595954   0.01827148            2 
 2529000   0.86508156   -8.0906787    562.48047  0.018534351  0.018265444            3 
 2530000   0.85411446    -8.068788    565.02171  0.018610728  0.018259415            1 
 2531000   0.84264177   -8.0422749     564.4425  0.018584305  0.018253388            1 
 2532000   0.84737674   -8.0801927    564.85794  0.018590638  0.018247387            5 
 2533000   0.85679408   -8.0640949     564.6697  0.018577106  0.018241411            5 
 2534000   0.84167067   -8.0776501    564.31363  0.018558065  0.018235407            3 
 2535000   0.85195619   -8.1152221    563.17644  0.018513361  0.018229391            5 
 2536000   0.84816229   -8.0768265    564.21824  0.018540294   0.01822333            3 
 2537000   0.84839995   -8.0879163    563.07056  0.018495288  0.018217281            2 
 2538000   0.84435487   -8.0753864    564.90972  0.018548389   0.01821122            2 
 2539000    0.8631183    -8.069654    563.73415  0.018502499  0.018205202            4 
 2540000   0.82026291    -8.081141    565.17589  0.018542516  0.018199192            5 
 2541000   0.82952462   -8.0969738    564.62783  0.018517245   0.01819316            3 
 2542000    0.8596729   -8.1299277    563.29216  0.018466174  0.018187076            1 
 2543000   0.85391431   -8.1100121    563.36563   0.01846132  0.018181004            1 
 2544000     0.834859   -8.0906897    562.90517  0.018438979  0.018174927            5 
 2545000   0.84724714   -8.0958256    564.59321  0.018487007  0.018168857            2 
 2546000   0.82151668   -8.0765068    564.45807  0.018475323  0.018162816            3 
 2547000   0.83896584   -8.0795162    562.97806  0.018419646  0.018156812            5 
 2548000   0.83995704    -8.082578    565.93764  0.018509211  0.018150814            2 
 2549000   0.85039595   -8.1053618    564.76688  0.018463675  0.018144818            3 
 2550000   0.84566031   -8.0929569     564.2806  0.018440543  0.018138817            2 
 2551000   0.84739268   -8.0917414    564.67602  0.018446231  0.018132841            2 
 2552000    0.8340245   -8.1290406    563.10601  0.018387735  0.018126823            2 
 2553000   0.83597685   -8.0729787    566.50731  0.018491556   0.01812083            3 
 2554000   0.86280188   -8.1078076    564.80389  0.018428736  0.018114849            1 
 2555000   0.85100473   -8.0683001    566.21954  0.018467695  0.018108912            2 
 2556000   0.85711583   -8.1247132     564.6921  0.018410671  0.018102931            2 
 2557000   0.84630859   -8.1051339    564.34581  0.018392185  0.018096944            2 
 2558000   0.82902231   -8.1017811    565.75942  0.018431047   0.01809098            6 
 2559000   0.83083989   -8.1367673    564.88904  0.018395501  0.018084978            1 
 2560000   0.84980969   -8.1034953    565.60032  0.018411469  0.018078965            2 
 2561000   0.85955017   -8.0878105    566.72111  0.018440749  0.018073018            2 
 2562000   0.84500635   -8.0810096    566.45377  0.018424856  0.018067104            4 
 2563000   0.83966737   -8.1067571    564.92009  0.018367801  0.018061145            1 
 2564000   0.85092636   -8.0778534    565.86856  0.018391464  0.018055163            5 
 2565000   0.85049436   -8.0753146    565.66348  0.018377631  0.018049177            1 
 2566000    0.8557194   -8.0988996    565.45571  0.018363721  0.018043203            1 
 2567000    0.8486274   -8.0842024    566.67132   0.01839603  0.018037229            6 
 2568000   0.82788156   -8.0858227    566.04593  0.018368572  0.018031243            2 
 2569000   0.84720996   -8.1180172    565.31692  0.018337775  0.018025236            2 
 2570000   0.84349141   -8.1193981    565.64511  0.018341281   0.01801927            1 
 2571000   0.83783877   -8.1028304    563.86002  0.018276287  0.018013282            4 
 2572000   0.84790378   -8.1197677    565.43727  0.018320285  0.018007323            2 
 2573000   0.82669056   -8.1134764    563.94351  0.018264785  0.018001332            2 
 2574000   0.85081397    -8.108339    565.24069  0.018299686  0.017995335            5 
 2575000   0.84746949   -8.1412711    564.61434  0.018272309  0.017989319            2 
 2576000   0.84366281   -8.0727555    567.60682  0.018362022  0.017983355            1 
 2577000   0.83860815   -8.1407791    564.83397   0.01826523  0.017977376            4 
 2578000   0.84011368   -8.0981321    566.41182  0.018309148  0.017971384            2 
 2579000   0.82829966   -8.1146915    565.98553  0.018288275  0.017965384            2 
 2580000    0.8305383   -8.1382527    565.33336  0.018260121  0.017959367            1 
 2581000   0.82953353   -8.0926223    566.73818  0.018298404  0.017953399            3 
 2582000   0.85221561   -8.1094682    567.33124  0.018310458  0.017947435            2 
 2583000   0.84126435   -8.1208145    566.16551  0.018265761  0.017941454            2 
 2584000   0.82969159   -8.1174782     567.1904  0.018291744  0.017935487            1 
 2585000   0.84813124   -8.1237652    565.44156   0.01822829  0.017929521            3 
 2586000   0.83109413   -8.1019011    567.11381  0.018275129  0.017923584            1 
 2587000   0.84722015   -8.1309799    566.42112  0.018245752  0.017917647            4 
 2588000   0.82029499   -8.0774272    568.67143  0.018311161  0.017911744            2 
 2589000   0.85781386   -8.1170563    567.26817  0.018258922  0.017905868            3 
 2590000   0.83836715   -8.0863307    567.89091  0.018271908  0.017899976            2 
 2591000   0.83384974   -8.0960642    567.92074  0.018265816  0.017894099            3 
 2592000   0.83700085   -8.1108969    568.24052   0.01826905  0.017888207            1 
 2593000    0.8268685   -8.1126657    568.10823  0.018257753   0.01788231            2 
 2594000   0.82640441   -8.1016002    567.80204  0.018240878  0.017876436            2 
 2595000   0.83157997   -8.1314281    566.94645  0.018206373  0.017870502            2 
 2596000   0.82944881   -8.1102303     567.0532  0.018202786  0.017864605            5 
 2597000   0.84647465   -8.1268205    568.36641  0.018237916  0.017858753            2 
 2598000   0.85130592   -8.0797656    568.16461  0.018224423  0.017852882            2 
 2599000    0.8383285   -8.0924579     567.1516   0.01818493  0.017847051            2 
 2600000   0.84005509   -8.1353638    567.71086  0.018195861   0.01784116            2 
 2601000   0.82493072   -8.1119891    569.33606  0.018240935   0.01783528            1 
 2602000   0.85300708   -8.1069192    567.98325  0.018190598  0.017829405            2 
 2603000    0.8319666   -8.1314845    568.86824  0.018211943  0.017823559            1 
 2604000   0.83811542   -8.1157383    568.97954  0.018208511  0.017817705            2 
 2605000   0.84032462   -8.1079171    569.58025  0.018220737  0.017811863            2 
 2606000   0.82838205   -8.1174692    568.70163  0.018185649  0.017806003            2 
 2607000   0.82114401   -8.1219541     569.1148  0.018191881  0.017800135            1 
 2608000   0.83134103   -8.0994679    569.37378  0.018193181  0.017794263            1 
 2609000   0.83721882   -8.1054288    568.63913  0.018162742  0.017788411            2 
 2610000    0.8112854   -8.1176157    568.88851  0.018163746  0.017782554            2 
 2611000   0.83378005   -8.0805023    567.67851   0.01811817  0.017776743            2 
 2612000   0.85339151   -8.0864086    569.05224  0.018155061  0.017770898            2 
 2613000   0.84570185   -8.1113373    569.59258  0.018165346  0.017765033            2 
 2614000    0.8509824   -8.1482711    568.44739  0.018121888  0.017759175            4 
 2615000   0.84018304   -8.0919616    569.66158  0.018153651  0.017753336            3 
 2616000   0.83406317   -8.1157434    567.66515  0.018083115  0.017747506            3 
 2617000   0.82184671   -8.1267585    567.67393  0.018076485  0.017741653            4 
 2618000   0.80946746   -8.1278816    567.81773  0.018074157  0.017735795            2 
 2619000   0.83788875   -8.1291754    568.72557  0.018096143  0.017729924            3 
 2620000   0.82680392    -8.146201    566.81893  0.018028592  0.017724067            3 
 2621000   0.82892109   -8.1366489    569.10466  0.018094387  0.017718198            3 
 2622000   0.81302079   -8.1839349    568.48151  0.018067681  0.017712332            2 
 2623000   0.84411855   -8.1890041    568.12049  0.018049323  0.017706475            4 
 2624000   0.85811547   -8.1256823     570.5327  0.018119052  0.017700657            3 
 2625000    0.8284189   -8.1483935    570.81619  0.018121149  0.017694864            5 
 2626000   0.83635286    -8.118041    570.92282  0.018117632  0.017689044            2 
 2627000   0.81344665   -8.1449497    569.17929  0.018055427   0.01768321            1 
 2628000   0.84224097    -8.155142     570.3135  0.018084523  0.017677371            3 
 2629000   0.83259649   -8.1673923    570.06053  0.018069625  0.017671527            1 
 2630000   0.81761026   -8.1237285    570.23445  0.018068265  0.017665699            2 
 2631000   0.83626207   -8.1835851    568.23872  0.017998186  0.017659894            2 
 2632000    0.8268009   -8.1649401    570.28584  0.018056163  0.017654103            2 
 2633000   0.83353814   -8.1532937    569.92078  0.018037751  0.017648303            2 
 2634000   0.82039942   -8.1344954    570.11542  0.018037061  0.017642506            1 
 2635000   0.83022409    -8.155793    569.69724   0.01801699  0.017636709            5 
 2636000   0.84065315   -8.1323452     569.8034  0.018013512  0.017630926            2 
 2637000   0.83294484   -8.1216297    570.22684  0.018020062  0.017625112            1 
 2638000   0.82729269   -8.1505111    570.41314  0.018019116  0.017619303            2 
 2639000   0.82824836   -8.1501142    568.83069  0.017962318  0.017613491            3 
 2640000   0.83309869    -8.150241    570.23193  0.017999745  0.017607642            2 
 2641000    0.8195384   -8.1629723    571.20875  0.018023752  0.017601813            2 
 2642000   0.81299275   -8.1327625    569.85063  0.017974093  0.017596017            3 
 2643000    0.8275763   -8.1556523    569.84464  0.017967103  0.017590192            4 
 2644000   0.83437688   -8.1447617    569.57543  0.017951823  0.017584367            2 
 2645000   0.82750778   -8.1422116    569.49482  0.017942496  0.017578538            3 
 2646000   0.82832643   -8.1243388    570.17546  0.017957151  0.017572727            1 
 2647000   0.83646748   -8.1484339    571.23721  0.017983793  0.017566945            4 
 2648000   0.83499159   -8.1525497    570.20016  0.017944366  0.017561151            1 
 2649000   0.82903265   -8.1206457    571.83559   0.01798904  0.017555367            1 
 2650000    0.8342773   -8.1618972    570.85723  0.017951485  0.017549584            2 
 2651000   0.83421062   -8.1516688    570.96471  0.017948092  0.017543795            5 
 2652000   0.82184132   -8.1588873    572.21894  0.017980736  0.017538035            6 
 2653000   0.80842586   -8.1198997    573.48331  0.018013673  0.017532309            1 
 2654000   0.82571795   -8.1433488    572.02088  0.017960967  0.017526531            6 
 2655000   0.82110328   -8.1531787    571.46371  0.017936714  0.017520738            5 
 2656000   0.82488497   -8.1608983    570.37487  0.017895798  0.017514938            1 
 2657000   0.83615901    -8.163219    570.61161  0.017896488  0.017509183            2 
 2658000   0.81362561   -8.1560619    571.40648  0.017914675  0.017503433            2 
 2659000   0.82572567   -8.1658629    570.79515  0.017888779  0.017497666            4 
 2660000    0.8485166   -8.1807688     570.5402  0.017874067  0.017491878            1 
 2661000   0.82528311    -8.138423    572.30905  0.017922744  0.017486113            2 
 2662000   0.83257235   -8.1805428    571.25563  0.017883034  0.017480339            2 
 2663000   0.81278413   -8.1351962    571.25499  0.017876298  0.017474556            1 
 2664000   0.83459483   -8.1872692    570.68643  0.017851803   0.01746875            4 
 2665000   0.79377261   -8.2039839     569.5174  0.017808549  0.017462927            6 
 2666000   0.83827913   -8.1243868    573.27709  0.017919389  0.017457165            1 
 2667000   0.83235846   -8.1156551     574.1547  0.017940092  0.017451441            2 
 2668000   0.82224577   -8.1327307    571.70701  0.017856915  0.017445745            6 
 2669000   0.81430864   -8.1658734    572.69089  0.017880944  0.017440049            4 
 2670000   0.82876326   -8.1543607    573.77397  0.017908051  0.017434299            4 
 2671000   0.81415367   -8.1468752    572.58703  0.017864315  0.017428561            2 
 2672000   0.82278043   -8.1466395    573.76422  0.017894343  0.017422866            2 
 2673000   0.82793417   -8.1680254    572.01266  0.017833042  0.017417138            3 
 2674000   0.81305114   -8.1633373    571.30612  0.017804354  0.017411395            3 
 2675000   0.82594174   -8.1217413    573.21992  0.017857318  0.017405663            2 
 2676000   0.83442699   -8.1494643    572.69167  0.017834195  0.017399955            2 
 2677000   0.80284038   -8.1577287    572.71676  0.017828314  0.017394237            2 
 2678000   0.82922316   -8.1147759    574.06805  0.017863706  0.017388527            4 
 2679000   0.82155179   -8.1584629    572.81936  0.017818196  0.017382846            2 
 2680000   0.83936401   -8.1196033    573.38661  0.017829186  0.017377205            7 
 2681000   0.82110249   -8.1320062    572.15735  0.017784326  0.017371539            1 
 2682000   0.82112312   -8.1413219    573.20443   0.01781023  0.017365885            3 
 2683000   0.83533917   -8.1331548    574.09741  0.017831327  0.017360246            3 
 2684000   0.81306716   -8.1334977    574.39911  0.017834051  0.017354573            3 
 2685000   0.81422435   -8.1622301      574.096  0.017818001  0.017348946            2 
 2686000   0.82081114   -8.1543983    574.23551  0.017815696  0.017343353            3 
 2687000   0.82970646   -8.1831358    573.59562   0.01778922   0.01733774            3 
 2688000   0.81351126   -8.1333377    574.60716  0.017813962  0.017332108            5 
 2689000   0.81261057   -8.1423108    573.75425  0.017780905  0.017326487            2 
 2690000   0.81098592   -8.1481179    574.47611  0.017796658  0.017320817            5 
 2691000   0.82193691   -8.1561576    573.26687  0.017752597  0.017315185            4 
 2692000   0.81520218   -8.1658169    573.14314  0.017742173  0.017309513            2 
 2693000   0.80956776     -8.17211    573.75108  0.017754396   0.01730384            4 
 2694000    0.8255671   -8.1775437    573.83846  0.017750509  0.017298171            5 
 2695000   0.84060957   -8.1442714    574.52623  0.017765189  0.017292516            3 
 2696000   0.82155042   -8.1633452    575.03707   0.01777439  0.017286873            2 
 2697000   0.83875569   -8.1774902     572.7458  0.017697003  0.017281234            3 
 2698000   0.81917736   -8.1868402    573.96133  0.017727988  0.017275591            2 
 2699000   0.83131452   -8.1766496     574.4241  0.017735708  0.017269949            2 
 2700000   0.81113821   -8.1737039    573.10889  0.017688546  0.017264318            7 
 2701000   0.83214907   -8.1830777    573.94494  0.017707792  0.017258635            2 
 2702000   0.80943632   -8.1887933    573.15812  0.017676971  0.017252929            3 
 2703000   0.83488597   -8.1580178    573.80353   0.01769033  0.017247282            2 
 2704000   0.81129207   -8.1717467    573.14856  0.017663602  0.017241658            1 
 2705000   0.81453491    -8.189804    573.69901   0.01767403  0.017235983            2 
 2706000   0.81199882   -8.1798657     574.8148   0.01770186  0.017230314            1 
 2707000   0.82023083   -8.1844834    574.48872  0.017685283   0.01722465            3 
 2708000   0.82243507   -8.1799941     574.2005  0.017669882  0.017218949            6 
 2709000   0.82118264   -8.1615361    574.71886  0.017679305  0.017213288            4 
 2710000   0.82664299   -8.1724925    574.21513  0.017657292  0.017207628            4 
 2711000   0.81438166   -8.1589529     574.7187  0.017666258  0.017201967            8 
 2712000   0.83419147   -8.1525861    574.16227  0.017642646  0.017196347            3 
 2713000   0.81851496   -8.1707183    574.34971    0.0176419  0.017190729            3 
 2714000   0.80846067   -8.1238945    575.03339  0.017656393  0.017185123            3 
 2715000   0.82352025   -8.1539748     574.2467  0.017625743  0.017179515            5 
 2716000   0.82478614   -8.1641604    575.41507  0.017655102  0.017173929            1 
 2717000   0.81641203    -8.175752     575.8741  0.017662682   0.01716833            3 
 2718000   0.82483001   -8.1901057    575.07478  0.017631677  0.017162706            1 
 2719000    0.8338561   -8.1847436    575.35949  0.017633919  0.017157067            2 
 2720000   0.83532886    -8.155065    574.89273  0.017613135  0.017151448            1 
 2721000   0.82415352   -8.1677219    575.81098  0.017634784  0.017145848            1 
 2722000   0.81537222   -8.1623512    575.08226  0.017605996   0.01714023            3 
 2723000   0.80696684   -8.1814293    575.15453  0.017601742  0.017134616            2 
 2724000   0.81474805   -8.1667378    574.51194  0.017575622  0.017128978            5 
 2725000   0.81381279   -8.1761557    574.69775  0.017574855  0.017123352            2 
 2726000   0.81673619   -8.1584453    573.79699  0.017540871  0.017117722            2 
 2727000   0.82569045   -8.1620275    575.24804  0.017578781  0.017112088            2 
 2728000   0.83896341   -8.1943771    574.09677  0.017537169  0.017106457            4 
 2729000   0.80893865   -8.1751431    575.15276  0.017562989  0.017100812            1 
 2730000   0.81869087   -8.1681678    575.30843  0.017561308  0.017095202            2 
 2731000    0.8118122   -8.1440769    575.72115  0.017567471  0.017089576            3 
 2732000    0.8378979   -8.1797861    575.00708  0.017539259  0.017083972            5 
 2733000   0.81205769   -8.1797202    575.48671  0.017547466  0.017078359            1 
 2734000   0.79848062   -8.1643639    574.93298   0.01752417  0.017072762            4 
 2735000   0.80860566   -8.1703692    575.57098  0.017537202  0.017067141            4 
 2736000   0.80255825   -8.2024977    574.45884  0.017496919  0.017061535            8 
 2737000   0.82149395   -8.1904779      574.316  0.017486177  0.017055942            1 
 2738000   0.82203537   -8.1560923    576.11145  0.017534437  0.017050356            4 
 2739000   0.80761552   -8.1740085    576.72864  0.017546813  0.017044751            3 
 2740000   0.83539856   -8.1462151    577.10613   0.01755189  0.017039166            2 
 2741000    0.8074286   -8.1791751    576.14382   0.01751623  0.017033602            3 
 2742000   0.81182322   -8.1508027    577.98154  0.017565692  0.017028018            6 
 2743000   0.81664788   -8.1989206    575.56008  0.017485724  0.017022422            2 
 2744000   0.82047437   -8.1666172    575.90049  0.017489689   0.01701684            3 
 2745000   0.83600176   -8.1988324    575.63747  0.017475333  0.017011246            4 
 2746000   0.80257591   -8.2040784    576.01827  0.017480525  0.017005653            7 
 2747000   0.82381405   -8.2163642    575.51697  0.017458954  0.017000028            2 
 2748000   0.81828494   -8.1852226    575.97723  0.017466558  0.016994439            5 
 2749000   0.81736589   -8.1749155      575.828  0.017455681  0.016988864            1 
 2750000   0.81559274   -8.1891738    577.82678  0.017509902  0.016983284            2 
 2751000   0.81284596   -8.1726125    576.34549  0.017458666   0.01697771            3 
 2752000   0.83357119   -8.1890495      575.573   0.01742893  0.016972104            2 
 2753000   0.81769613   -8.1786338    577.07802  0.017468157  0.016966499            2 
 2754000   0.81128019   -8.1726903    576.76106  0.017452223  0.016960901            1 
 2755000   0.81594477   -8.1872244    575.34062  0.017402923   0.01695528            3 
 2756000   0.80251225    -8.212518      575.806   0.01741068  0.016949645            5 
 2757000   0.80346776   -8.1877073     576.5948  0.017428207  0.016944017            4 
 2758000   0.79956063   -8.1826568    576.93368  0.017432127  0.016938399            2 
 2759000   0.82347871   -8.1640271      576.085  0.017400175  0.016932787            1 
 2760000   0.81897951   -8.1543882    577.04037  0.017422717  0.016927197            2 
 2761000   0.81673728   -8.2143556     574.9765  0.017354114   0.01692158            2 
 2762000   0.80302891   -8.1866624    576.42094  0.017391411  0.016915973            1 
 2763000   0.83603344   -8.1866821    575.44331  0.017355631  0.016910367            2 
 2764000   0.80984616   -8.1911976    576.11019  0.017369458  0.016904785            3 
 2765000   0.80201053   -8.1878666    575.75801  0.017352562  0.016899197            1 
 2766000   0.81134435   -8.1836278    575.36307   0.01733439  0.016893562            2 
 2767000   0.81749896   -8.2262821    574.91281  0.017314565  0.016887951            3 
 2768000   0.81205957   -8.2217989    575.37977  0.017322368  0.016882308            1 
 2769000   0.80708547   -8.2264358    576.25616  0.017342487  0.016876674            3 
 2770000   0.79724921   -8.1905048    575.46522  0.017312431  0.016871081            4 
 2771000   0.79852761   -8.1841677    575.88013  0.017318661  0.016865471            3 
 2772000    0.8190144   -8.2054355    575.43051  0.017298897  0.016859867            2 
 2773000    0.7927808   -8.1870776    576.57134  0.017326942  0.016854269            2 
 2774000   0.81566138   -8.1934918    576.92467  0.017331311  0.016848676            2 
 2775000   0.80918002   -8.1717266    575.50966  0.017282572   0.01684309            2 
 2776000   0.80170297   -8.1802208    576.58616  0.017308662  0.016837504           10 
 2777000   0.79212338   -8.1784366    578.06796  0.017346896   0.01683193            2 
 2778000   0.80707578   -8.1712629    576.50273  0.017293698  0.016826321            2 
 2779000   0.79355637   -8.1795089    576.40553  0.017284561  0.016820708            3 
 2780000    0.8160852   -8.1873325     575.7222   0.01725786  0.016815119            2 
 2781000   0.81249356   -8.1958622    577.02617  0.017290728  0.016809525            1 
 2782000   0.80326398   -8.1977443    576.94015  0.017281936  0.016803943            2 
 2783000   0.82912323   -8.2230078    575.24206  0.017224879  0.016798353            2 
 2784000    0.8293584   -8.2255086    575.46029  0.017225224  0.016792757            2 
 2785000    0.8021917   -8.2037452    576.41665  0.017247656  0.016787141            4 
 2786000   0.81820507   -8.1788729    577.52403  0.017274588  0.016781559            2 
 2787000   0.78738427   -8.1542301    578.07812  0.017284958  0.016776001            5 
 2788000   0.81688855   -8.1721302     576.9184  0.017244094  0.016770439            2 
 2789000   0.79533738    -8.189823    576.50443  0.017225542  0.016764901            1 
 2790000   0.79981247    -8.187779    576.40557  0.017216415  0.016759335            3 
 2791000   0.81990833   -8.1619454    577.06821  0.017230031   0.01675375            2 
 2792000   0.80538897   -8.2127239     577.2907  0.017230501  0.016748162            1 
 2793000   0.82459805   -8.2072857     577.5104  0.017230887  0.016742572            4 
 2794000   0.80647918    -8.189929    577.08045  0.017211896   0.01673698            3 
 2795000   0.80181234   -8.1905007    577.27187  0.017211445  0.016731389            5 
 2796000   0.78578554   -8.1745166    578.08665  0.017229573  0.016725836            4 
 2797000   0.81203604    -8.186319    576.68235  0.017181574  0.016720262            7 
 2798000   0.80329025   -8.1971125    577.12623  0.017188654  0.016714699            3 
 2799000   0.81155575   -8.1853819    577.56174  0.017195479  0.016709153            2 
 2800000   0.79952772   -8.1707846     576.7926  0.017166446  0.016703613            1 
 2801000   0.79877463    -8.210155    576.54802  0.017153041  0.016698043            4 
 2802000   0.77835156   -8.1970966    576.60523  0.017148621  0.016692473            2 
 2803000   0.80582033   -8.2350787    576.57422  0.017141581  0.016686875            2 
 2804000   0.81807035   -8.2199866    576.38753  0.017129919  0.016681304            2 
 2805000   0.78913187   -8.2176861    576.86101  0.017137879  0.016675731            1 
 2806000   0.80157197    -8.250643      577.529   0.01715161  0.016670147            4 
 2807000   0.80502854   -8.2137309    577.30187  0.017138756  0.016664554            3 
 2808000   0.79765673   -8.2032736     577.8655   0.01714938  0.016658966            3 
 2809000   0.80832648   -8.2291456    577.03027  0.017118496  0.016653375            2 
 2810000   0.79762143   -8.2315364    576.83366  0.017106573  0.016647771            3 
 2811000   0.80842288   -8.2290133    577.40509  0.017117428  0.016642171            1 
 2812000   0.79982381   -8.2383479    577.02252  0.017100004   0.01663659            4 
 2813000   0.81033448   -8.2416358    575.77799  0.017057056  0.016630965            1 
 2814000   0.79143625      -8.2345    576.35571  0.017068103  0.016625353            1 
 2815000   0.79006021   -8.2071183    576.86416  0.017077092  0.016619767            1 
 2816000   0.80720794   -8.2277775     576.9005  0.017072103  0.016614168            4 
 2817000   0.81736607   -8.2139204    577.61364  0.017087139  0.016608545            2 
 2818000   0.80447363   -8.2397929    576.83991  0.017058195   0.01660294            1 
 2819000   0.81667489   -8.2159991    578.03197  0.017087382  0.016597359            2 
 2820000    0.8124066   -8.2107336    577.91301  0.017077808   0.01659178            4 
 2821000   0.79257378   -8.1950629    577.99939  0.017074306  0.016586199            3 
 2822000   0.79596153   -8.2225526    578.95995   0.01709662  0.016580603            3 
 2823000   0.79731631   -8.2359595     578.2106  0.017068444  0.016575041            2 
 2824000   0.78233553   -8.2145415    577.78393  0.017049809  0.016569506            4 
 2825000   0.80319134   -8.1799932    578.83606   0.01707481  0.016563992            4 
 2826000   0.80858388   -8.1924719      578.761  0.017066555   0.01655846            3 
 2827000   0.80374631   -8.1794938    577.87808  0.017034491  0.016552926            3 
 2828000   0.80991795   -8.2149177    577.38014  0.017013795  0.016547379            2 
 2829000   0.80804604   -8.2300206    579.25787  0.017063093  0.016541835            1 
 2830000   0.79819688   -8.2338416    577.15642  0.016995183  0.016536294            2 
 2831000   0.79814765   -8.2214957    578.33871  0.017023982  0.016530755            3 
 2832000   0.80004347   -8.2179772    578.12839  0.017011782  0.016525216            2 
 2833000   0.78334244   -8.2346068    577.10344  0.016975628  0.016519675            2 
 2834000   0.79729352   -8.2482604    577.93299   0.01699403  0.016514122            4 
 2835000   0.81413111   -8.2308297    578.43617  0.017002827  0.016508576            1 
 2836000   0.80088167   -8.2103903    578.98788  0.017013043  0.016503033            4 
 2837000   0.81376844   -8.2096251    579.29947  0.017016199  0.016497526            3 
 2838000    0.7840937   -8.1920918    578.26197  0.016979738   0.01649201            4 
 2839000   0.79561075   -8.2010076    578.34287  0.016976132  0.016486494            2 
 2840000   0.80929728   -8.2058278     579.2407  0.016996499   0.01648098            1 
 2841000   0.78836437   -8.1768527     580.2397   0.01701982  0.016475456            2 
 2842000   0.79751483   -8.2319812    578.80268  0.016971695  0.016469949            2 
 2843000   0.79734263   -8.1960708    580.10732  0.017003967  0.016464455            2 
 2844000   0.79213076   -8.2159448     579.5533  0.016981754  0.016458981            3 
 2845000   0.79547733   -8.2315508    578.46077  0.016943783  0.016453493            3 
 2846000   0.78958777   -8.2207277    579.24665  0.016960841  0.016448013            7 
 2847000   0.79037429   -8.2408505    577.62055  0.016907287  0.016442534            6 
 2848000   0.80240525   -8.2266822    579.62509  0.016960004  0.016437037            8 
 2849000   0.79774382   -8.2322741    579.28091  0.016943983  0.016431542            5 
 2850000   0.79490563   -8.2175265    578.94629  0.016928254  0.016426055            6 
 2851000   0.80465108   -8.2202341    579.54165  0.016939718  0.016420588            3 
 2852000   0.79381545   -8.2119337    579.86959  0.016943361  0.016415147            1 
 2853000   0.78755543   -8.1942906    579.84405  0.016936676  0.016409691            2 
 2854000    0.7951921   -8.2172253    579.72131  0.016927158  0.016404209            2 
 2855000   0.79251099   -8.2365796    579.83877  0.016924658  0.016398695            4 
 2856000   0.79459822   -8.2548177    578.10222  0.016868062  0.016393167            3 
 2857000   0.79129918   -8.2479322    577.55246  0.016846122   0.01638764            4 
 2858000   0.77679323   -8.2681167    576.08169  0.016797343  0.016382094            2 
 2859000   0.79938831   -8.2596285    577.99331  0.016847188  0.016376531            1 
 2860000   0.78375726   -8.2269638    577.41461  0.016824435  0.016370987            1 
 2861000   0.78852351    -8.261032    578.01126  0.016835933  0.016365442            3 
 2862000   0.78485222   -8.2398961    579.96708  0.016886999  0.016359916            1 
 2863000   0.80412603   -8.2398812     578.7355  0.016845253  0.016354381            2 
 2864000   0.79129081    -8.221877    579.63322  0.016865492  0.016348856            3 
 2865000   0.82623127   -8.2322321    577.77857  0.016805659  0.016343333            4 
 2866000   0.77159822   -8.2337532    578.90179  0.016832455  0.016337814            2 
 2867000   0.79116165   -8.2280983    578.83641  0.016824683  0.016332299            4 
 2868000   0.78934541   -8.2246103    579.40546  0.016835352  0.016326806            2 
 2869000   0.80233107   -8.2428038    579.24883  0.016824934  0.016321309            1 
 2870000   0.79043144   -8.2082313    580.22566  0.016847435  0.016315828            4 
 2871000   0.78696981    -8.210566     578.1236  0.016780553  0.016310349            3 
 2872000   0.80589408   -8.2153397    579.49056  0.016814373   0.01630487            2 
 2873000   0.78186813   -8.1977594    579.58582  0.016811284  0.016299396            2 
 2874000   0.78578566   -8.2566636    578.10248  0.016762424  0.016293924            2 
 2875000   0.77003442   -8.2223635    578.17741  0.016758765  0.016288402            3 
 2876000   0.79916489   -8.2303592    578.10549  0.016750854  0.016282897            3 
 2877000   0.81064361   -8.2644188    579.03182  0.016771864  0.016277394            3 
 2878000   0.80024634   -8.2234713    579.24092  0.016772091  0.016271881            1 
 2879000   0.78176309   -8.2188228    579.36752  0.016769929  0.016266391            2 
 2880000   0.79620869   -8.2012277    580.43757  0.016795069  0.016260889            2 
 2881000   0.78281597   -8.2685609    580.04001  0.016777739  0.016255388            2 
 2882000   0.77253228   -8.2509788    581.07509  0.016801847  0.016249892            3 
 2883000    0.7829906   -8.2776562    578.07298  0.016709243  0.016244384            3 
 2884000   0.81609055   -8.2500123    578.29226  0.016709786  0.016238874            2 
 2885000   0.78064181   -8.2221551    579.65639  0.016743397  0.016233398            2 
 2886000   0.79669288   -8.2850339    579.92446  0.016745335  0.016227904            3 
 2887000   0.77130657   -8.2548954    579.00872  0.016713103  0.016222409            2 
 2888000   0.78776709   -8.2632916    578.37877  0.016689138   0.01621689            2 
 2889000   0.77642014   -8.2532352    579.63851  0.016719698  0.016211389            2 
 2890000   0.78901843   -8.2582443    578.45418  0.016679763  0.016205904            4 
 2891000   0.78601051   -8.2427584    580.04681  0.016719901  0.016200414            2 
 2892000   0.78505054   -8.2551183    579.88426  0.016709436  0.016194942            2 
 2893000   0.77674725   -8.2773227    578.03269  0.016650325  0.016189436            4 
 2894000    0.7899847   -8.2550445     579.0529  0.016673949  0.016183938            3 
 2895000   0.77804563   -8.2630123    579.52648  0.016681822  0.016178449            2 
 2896000   0.79143871   -8.2314686    579.42402  0.016673113  0.016172972            2 
 2897000   0.78413401   -8.2423157    580.80823  0.016707175  0.016167481            3 
 2898000   0.78325244   -8.2425085    581.42121  0.016719036  0.016162011            3 
 2899000   0.79397652   -8.2268502    581.05185  0.016702652  0.016156567            2 
 2900000   0.79265716   -8.2488814    579.58819  0.016654833  0.016151139            3 
 2901000   0.78626536   -8.2296393    580.23596    0.0166677  0.016145708            3 
 2902000   0.78161157   -8.2697123    579.70131  0.016646603  0.016140273            3 
 2903000   0.77807662   -8.2004364    582.67467  0.016726222  0.016134853            2 
 2904000   0.80833447   -8.2360343    580.56372  0.016659886  0.016129435            1 
 2905000   0.78597246   -8.2336493    580.65468  0.016656761  0.016124028            2 
 2906000   0.79367977    -8.242603    580.03691  0.016633313  0.016118611            3 
 2907000   0.78523562   -8.2104544    582.69808  0.016703878  0.016113209            3 
 2908000   0.79760843   -8.2271608    580.85495  0.016645316    0.0161078            2 
 2909000   0.79404692   -8.2544589    580.49433  0.016629264  0.016102413            2 
 2910000   0.77558988   -8.2319836    581.35663  0.016648243  0.016097015            3 
 2911000   0.78567081   -8.2640051    579.90235  0.016600892  0.016091583            1 
 2912000    0.7751761   -8.2471277    580.57677  0.016614491  0.016086124            2 
 2913000   0.79064524   -8.2558623    580.44936  0.016605142  0.016080693            2 
 2914000   0.77078945     -8.26365    580.42133  0.016598642  0.016075288            3 
 2915000   0.78437008    -8.272635     580.1667  0.016585669  0.016069862            4 
 2916000   0.77977232   -8.2477058    581.87954  0.016628931  0.016064439            2 
 2917000   0.78719194   -8.2416567      580.076  0.016571706  0.016059037            3 
 2918000   0.78740221   -8.2669943    580.20872  0.016569817  0.016053643            2 
 2919000   0.79932332   -8.2698787    579.41623  0.016541516  0.016048232            1 
 2920000   0.76792627   -8.2517624    581.24833  0.016588137  0.016042791            7 
 2921000   0.78485493   -8.2618469    579.96063  0.016545721  0.016037345            3 
 2922000   0.78544588   -8.2729386    580.89512   0.01656671  0.016031892            3 
 2923000   0.76800896   -8.2705593    578.90693   0.01650436  0.016026443            4 
 2924000   0.77498491   -8.2826435    580.71708  0.016550304  0.016021008            1 
 2925000   0.78773912   -8.2628641    579.81673  0.016518995  0.016015575            2 
 2926000   0.79595685    -8.242303    581.34393  0.016556845  0.016010152            2 
 2927000   0.78234949   -8.2355676    582.44447  0.016582521  0.016004748            3 
 2928000   0.77901542   -8.2275484     582.1026  0.016567128  0.015999322            2 
 2929000   0.77625415   -8.2574893    581.25496  0.016537355  0.015993927            3 
 2930000   0.76528281   -8.2509744    580.98433  0.016524014  0.015988528            2 
 2931000   0.77299694   -8.2668989    580.97971  0.016518245  0.015983103            3 
 2932000   0.78681366   -8.2673419    580.72142   0.01650527  0.015977671            8 
 2933000   0.76947594   -8.2523432    581.12534  0.016511119  0.015972239            3 
 2934000   0.79182748   -8.2900151    579.92331  0.016471351  0.015966792            5 
 2935000   0.78058026    -8.237432    580.61785  0.016485459  0.015961368            3 
 2936000   0.77899127   -8.2686087    580.73868  0.016483273  0.015955942            1 
 2937000   0.77794046   -8.2762818    580.39755  0.016467982  0.015950533            6 
 2938000    0.7897177   -8.2867062    580.06724  0.016453008   0.01594512            1 
 2939000   0.78926684   -8.2504341    581.96524  0.016501226  0.015939703            2 
 2940000   0.79305711   -8.2833367    581.34344  0.016477989  0.015934303            5 
 2941000   0.78662816   -8.2473978    581.47551  0.016476128  0.015928904            2 
 2942000   0.76480962   -8.2539618    580.67043  0.016447723  0.015923519            2 
 2943000   0.78291032   -8.2596203    580.49393  0.016437137  0.015918121            4 
 2944000   0.77434597   -8.3105754     580.9331  0.016443985  0.015912731            2 
 2945000   0.79825413   -8.2899529    580.09378  0.016414651  0.015907338            1 
 2946000   0.78659536   -8.2645845    581.19391  0.016440199  0.015901938            4 
 2947000    0.7875433   -8.2402786    582.66039  0.016476088  0.015896578            3 
 2948000   0.78012091   -8.2483219    582.56195  0.016467717  0.015891204            2 
 2949000   0.79105529   -8.2638435    581.18412  0.016423198  0.015885811            2 
 2950000   0.77301038   -8.2659081    581.41643  0.016424193  0.015880412            2 
 2951000   0.78728728   -8.2943148    580.34785  0.016388452  0.015875007            4 
 2952000   0.78685973   -8.2703003    580.97675  0.016400654  0.015869599            7 
 2953000   0.76524719   -8.2937116    580.92026  0.016393506  0.015864177            2 
 2954000   0.76545133   -8.2872602    580.28112  0.016369926  0.015858745            1 
 2955000   0.77719998   -8.2965196    579.58096  0.016344641  0.015853314            1 
 2956000   0.77974937   -8.2888484    580.36765  0.016361289    0.0158479            1 
 2957000   0.77980532    -8.279968     579.9703  0.016344558   0.01584248            1 
 2958000   0.77192971   -8.2910551    580.34304  0.016349534  0.015837041            3 
 2959000   0.76456702   -8.3023385    580.82816   0.01635767   0.01583162            3 
 2960000     0.768125    -8.267959    580.43508  0.016341078  0.015826197            2 
 2961000   0.77713651   -8.2885834    580.17325   0.01632819  0.015820791            4 
 2962000   0.78214088   -8.2691114    581.86815  0.016370362   0.01581537            2 
 2963000   0.78065416   -8.2717744    581.25986  0.016347729  0.015809953            3 
 2964000   0.76579254   -8.2880434    580.49633  0.016320747  0.015804547            2 
 2965000   0.77407754   -8.2741424    579.88108  0.016297951  0.015799149            3 
 2966000   0.76182598   -8.2684467    581.16537  0.016328539  0.015793754            4 
 2967000   0.77439896   -8.2721543     579.9301  0.016288341  0.015788347            3 
 2968000   0.77262853   -8.2922575     581.5484  0.016328291  0.015782938            2 
 2969000   0.77479457   -8.3046356    582.07262  0.016337505  0.015777531            1 
 2970000   0.77921037    -8.284509    580.90581  0.016299265  0.015772125            1 
 2971000   0.77392422   -8.2854207    581.37484  0.016306935  0.015766712            2 
 2972000   0.78076059   -8.2868182    580.60568  0.016279881  0.015761301            3 
 2973000   0.78925118   -8.3010992    579.37549  0.016239923  0.015755901            1 
 2974000   0.77557844    -8.294895    580.88661  0.016276805   0.01575051            1 
 2975000   0.77816357   -8.2613386    581.24128  0.016281268  0.015745132            3 
 2976000    0.7602443    -8.273184    580.88363  0.016265783  0.015739761            2 
 2977000   0.78126043   -8.2578902    581.04437  0.016264818  0.015734376            2 
 2978000   0.74702649    -8.310788    580.30114  0.016238559  0.015729004            5 
 2979000   0.76377883   -8.2811081    582.06146   0.01628235  0.015723598            4 
 2980000    0.7669136    -8.289292    581.62765  0.016264755  0.015718216            5 
 2981000   0.77284983   -8.2934631     581.2474  0.016248669  0.015712836            2 
 2982000   0.77349688   -8.2756054    581.91186  0.016261789  0.015707478            3 
 2983000   0.77166282   -8.2613148    582.34448  0.016268423  0.015702119            4 
 2984000   0.78801226   -8.3020231    582.71273  0.016273255  0.015696751            4 
 2985000   0.77219602   -8.3154421    581.20098    0.0162256  0.015691376            3 
 2986000   0.78516058   -8.2670665    582.57082  0.016258395  0.015686007            1 
 2987000   0.77489811   -8.2730464    581.95824  0.016235862  0.015680659            5 
 2988000   0.76730821   -8.3229766    581.66902  0.016222362  0.015675306            5 
 2989000   0.77968171   -8.3010113    582.69659  0.016245584   0.01566995            2 
 2990000   0.75740044   -8.2980907     582.6199  0.016238013   0.01566461            2 
 2991000   0.77629146   -8.2944662    582.17684   0.01622024  0.015659264            5 
 2992000   0.78483594   -8.2869244    581.76246  0.016203277  0.015653941            1 
 2993000   0.77916243   -8.2609841    583.28549  0.016240269  0.015648604            3 
 2994000   0.77224024   -8.2892678    581.76789  0.016192604  0.015643265            2 
 2995000   0.79121603   -8.3033726    580.50255  0.016151991  0.015637901            6 
 2996000   0.76568473   -8.3190005    582.01972  0.016188799  0.015632533            8 
 2997000    0.7755514   -8.3011244    581.01031  0.016155331  0.015627164            3 
 2998000   0.77373653   -8.2921185     580.7153  0.016141742  0.015621806            3 
 2999000   0.76504883     -8.29363    581.09639  0.016146949  0.015616435            1 
 3000000   0.75106473   -8.3119193    581.72897  0.016159138  0.015611076            4 
 3001000    0.7616885   -8.3179295    581.58567  0.016149774  0.015605706            3 
 3002000   0.77061611   -8.3252633     581.4151   0.01613966  0.015600311            1 
 3003000   0.78919697   -8.3295547    581.37896  0.016133282  0.015594941            3 
 3004000   0.78545276   -8.3165883    580.29275  0.016097779  0.015589547            2 
 3005000   0.77231334   -8.3030113    580.93016  0.016110099  0.015584165            2 
 3006000   0.78878014   -8.2913712    581.51242  0.016120881  0.015578794            1 
 3007000   0.75986497   -8.3144304    581.32778  0.016110403  0.015573406            2 
 3008000   0.78860899   -8.2960706    580.83357  0.016091356  0.015568035            1 
 3009000   0.76697494   -8.3250132    580.26964   0.01607039  0.015562666            4 
 3010000    0.7720935   -8.2868759      581.883  0.016109718    0.0155573            3 
 3011000   0.77404317   -8.2952068    582.21137  0.016113455  0.015551944           16 
 3012000   0.76600745   -8.2847627    583.32936  0.016139037  0.015546586            9 
 3013000   0.77166377   -8.2904329    582.25362  0.016103928   0.01554125            3 
 3014000   0.76200306   -8.3023394    581.16362  0.016068448  0.015535904            2 
 3015000   0.77360115   -8.3082757    582.47557   0.01609938  0.015530565            5 
 3016000   0.78040879    -8.324607    582.94138  0.016106913  0.015525235            1 
 3017000   0.76156859   -8.3032623    581.55335  0.016063235  0.015519897            7 
 3018000   0.77262111   -8.3040603    582.03772  0.016071287  0.015514557            2 
 3019000   0.77283246   -8.2928312     581.6057  0.016054038  0.015509211            3 
 3020000   0.77250175   -8.3026185    583.03156  0.016088067  0.015503866            1 
 3021000   0.77677593   -8.3284935    583.26153  0.016089086  0.015498514            2 
 3022000   0.76937092   -8.3259675    582.35925  0.016058881   0.01549317            3 
 3023000    0.7731003   -8.3553449    581.35186  0.016025798  0.015487822            3 
 3024000   0.77588307   -8.3366385    580.87466  0.016007348  0.015482472            1 
 3025000   0.76001268   -8.3198747    581.48424  0.016018849  0.015477115            4 
 3026000   0.77929657   -8.3073793    581.42379  0.016011891  0.015471775            2 
 3027000   0.77813285   -8.3096518    581.81948  0.016017495  0.015466434            1 
 3028000   0.76192215   -8.3174418    581.84458  0.016012896  0.015461087            4 
 3029000   0.76696441   -8.3000061    582.42764   0.01602365  0.015455745            4 
 3030000   0.75447643   -8.2976328    583.02625  0.016034825  0.015450413            2 
 3031000   0.76198202   -8.2879227    582.67925  0.016019995  0.015445078            2 
 3032000   0.77253722   -8.3440299    580.73309  0.015961222  0.015439737            2 
 3033000   0.76146434   -8.3357181    581.37743  0.015973663  0.015434388            7 
 3034000   0.75527262   -8.3228618     584.5244  0.016054834  0.015429036            8 
 3035000   0.75829684   -8.3152313    582.02708  0.015980974  0.015423677            1 
 3036000   0.74139904   -8.3148964    580.92991  0.015945595  0.015418313            8 
 3037000    0.7479774   -8.2913097    582.62179  0.015986768  0.015412953            3 
 3038000   0.77870441   -8.3284191     582.1197  0.015967734  0.015407628            2 
 3039000   0.75478518   -8.3157518    581.81247  0.015954055  0.015402293            2 
 3040000   0.76029436   -8.3329729    580.64633   0.01591684  0.015396956            7 
 3041000   0.76289227    -8.333753    581.28194  0.015929024  0.015391603            1 
 3042000   0.76783348   -8.3118035    581.65027  0.015933878  0.015386258            2 
 3043000   0.77446357   -8.3252544    581.70366  0.015930104  0.015380926            9 
 3044000    0.7829724   -8.3368733    582.05439  0.015934472  0.015375587            2 
 3045000    0.7626623   -8.3389275    580.61272  0.015889784   0.01537024            1 
 3046000   0.76826807   -8.3398462    581.90895   0.01592003  0.015364877            5 
 3047000   0.77356471   -8.3194107    583.12309  0.015948011  0.015359536            4 
 3048000   0.75596183   -8.3241473    582.18709  0.015917188  0.015354214            2 
 3049000   0.75255868   -8.3088574    581.49227  0.015892978  0.015348891            5 
 3050000   0.76335255   -8.3204661    581.93813  0.015899949  0.015343574            4 
 3051000   0.77000671   -8.3365236    581.95238  0.015895127  0.015338224            3 
 3052000   0.76529118   -8.3545905    581.41249  0.015875177  0.015332892            3 
 3053000   0.75394455   -8.3418182    582.68811  0.015904796   0.01532756            2 
 3054000   0.74658086   -8.3399344    581.67251  0.015871876  0.015322207            2 
 3055000    0.7417124   -8.3402574    581.28969  0.015856238  0.015316853            2 
 3056000   0.75276553   -8.3467542     581.9119  0.015868017  0.015311518            2 
 3057000   0.75206515   -8.3513075    581.16775   0.01584254  0.015306172            4 
 3058000   0.77614996   -8.3292327    582.06905  0.015861921  0.015300809            2 
 3059000   0.76183097   -8.3756705    580.11636   0.01580354  0.015295455            2 
 3060000   0.74948742   -8.3476741    581.29638  0.015830511  0.015290103            3 
 3061000   0.74919589   -8.3664926    580.79103  0.015811582  0.015284765            5 
 3062000   0.77339161   -8.3442482    580.34997  0.015794415  0.015279419            8 
 3063000   0.76490415   -8.3256265    582.03799  0.015835183  0.015274083            3 
 3064000   0.74635716   -8.3403801    581.96524  0.015828036  0.015268759            2 
 3065000   0.75736861   -8.3351085    581.88351   0.01582065  0.015263435            6 
 3066000   0.76573876   -8.3346209     581.5721  0.015807026  0.015258114            6 
 3067000   0.73904921   -8.3360278    582.76347  0.015834243  0.015252791            6 
 3068000   0.75421818    -8.317857    581.94975  0.015806979  0.015247494            9 
 3069000    0.7580523   -8.3436099     582.2609  0.015810278  0.015242191            3 
 3070000   0.75017751   -8.3535438    580.86853  0.015767333  0.015236869            3 
 3071000   0.76101536   -8.3423024    581.39626  0.015776518  0.015231566            2 
 3072000   0.75158075   -8.3420824    582.28911  0.015795603   0.01522624            2 
 3073000   0.74920103   -8.3403992    581.74211  0.015775629  0.015220914            6 
 3074000   0.75818794   -8.3529848    580.28793  0.015731076  0.015215589            1 
 3075000   0.76439454   -8.3489305    580.92865  0.015743324  0.015210291            1 
 3076000   0.74541917   -8.3596959    582.08255  0.015769467  0.015204986            3 
 3077000   0.76840456   -8.3428446    582.79345  0.015783595  0.015199691            2 
 3078000   0.77395767   -8.3327366    583.06051  0.015785697  0.015194402            8 
 3079000   0.75676433   -8.3404947    583.37328  0.015789035  0.015189132            2 
 3080000   0.75517928   -8.3370861    580.99282  0.015719503  0.015183853            2 
 3081000   0.75812387   -8.3627444    583.07159  0.015770626  0.015178587            2 
 3082000   0.74116377   -8.3487612     583.1442  0.015767472  0.015173321            4 
 3083000   0.74532269   -8.3628924    583.16916  0.015763033  0.015168062            4 
 3084000   0.77652032   -8.3533585     583.6289  0.015770344  0.015162804            2 
 3085000   0.76810253   -8.3248581    582.98252  0.015747772  0.015157544            2 
 3086000    0.7599668   -8.3493658    582.49668   0.01572955  0.015152301            4 
 3087000   0.75189027   -8.3404638    582.62394  0.015727889  0.015147045            3 
 3088000   0.76657093   -8.3654248    581.77667  0.015699932   0.01514178            2 
 3089000   0.77656255   -8.3641774    583.20677   0.01573343  0.015136517            5 
 3090000   0.75497642   -8.3505145    583.63212  0.015739809  0.015131248            2 
 3091000   0.76399228   -8.3541487    581.51645  0.015677678  0.015125983            3 
 3092000   0.76138844   -8.3444288    584.02428  0.015740197  0.015120749            2 
 3093000   0.72743936   -8.3460327    583.47412  0.015720286  0.015115514            6 
 3094000   0.77637218   -8.3602368    582.08576  0.015677811  0.015110279            2 
 3095000   0.76687861   -8.3457751    584.11193    0.0157273  0.015105037            1 
 3096000   0.76281436   -8.3599464    583.16138  0.015696635  0.015099802            2 
 3097000   0.74850293   -8.3582382    582.89156  0.015684306  0.015094559            4 
 3098000   0.76718397   -8.3672508     582.1481  0.015659245  0.015089319            7 
 3099000      0.74779   -8.3676537     582.9361  0.015675382  0.015084079            1 
 3100000   0.75577813   -8.3737076    583.04712   0.01567331  0.015078833            4 
 3101000     0.776449   -8.3649029    582.65235  0.015657647  0.015073577            4 
 3102000     0.766807   -8.3836058    581.91743  0.015632856  0.015068336            3 
 3103000   0.76019231   -8.3970541    581.76399  0.015623697  0.015063077            2 
 3104000   0.76468562   -8.3705974    583.26765  0.015659033  0.015057837            3 
 3105000   0.75230123   -8.3619196    583.50482  0.015660355  0.015052603            4 
 3106000   0.74644013   -8.3645619    582.33853  0.015624021  0.015047348            5 
 3107000    0.7467252   -8.3484671    584.15894  0.015667818  0.015042093            3 
 3108000   0.76480639   -8.3642664    583.47819  0.015644525  0.015036853            2 
 3109000   0.74731467   -8.3746365    582.92789  0.015624742  0.015031613            3 
 3110000   0.76461353   -8.3727371    582.98579   0.01562127  0.015026361            2 
 3111000   0.75132415   -8.3566818    583.00701  0.015616817  0.015021113            3 
 3112000   0.75360609   -8.3588764    582.82848  0.015607018  0.015015862            2 
 3113000   0.76572641   -8.3594886    581.63355  0.015570017  0.015010624            2 
 3114000   0.74715762   -8.3788627    583.50258  0.015615034  0.015005391            3 
 3115000   0.75739218   -8.3894989    582.49844  0.015583158  0.015000156            7 
 3116000   0.75160603   -8.3805696    581.99757  0.015564762   0.01499491            5 
 3117000   0.76552651   -8.3817137    583.60707  0.015602798  0.014989686            4 
 3118000   0.75979273   -8.3761827    583.19631  0.015586816  0.014984465            4 
 3119000   0.75237664   -8.3459938    583.94437  0.015601805  0.014979245            4 
 3120000   0.73243866   -8.3665154    584.13316  0.015601847   0.01497404            2 
 3121000   0.76223585   -8.3902664     582.3051  0.015548038  0.014968828            2 
 3122000    0.7507097   -8.3384204    585.24494  0.015621528  0.014963606            7 
 3123000   0.74157672   -8.3687023    583.66616  0.015574398  0.014958411            2 
 3124000   0.76280705   -8.3584898    583.30739  0.015559843    0.0149532            1 
 3125000   0.74462847   -8.3735323    582.27317  0.015527285  0.014947982            1 
 3126000   0.74739575   -8.3676754    583.33647  0.015550663  0.014942777            3 
 3127000   0.74658897   -8.3511248    583.30482  0.015544846  0.014937568            4 
 3128000   0.75948095   -8.3645206    583.74643  0.015551642  0.014932377            2 
 3129000   0.76135125    -8.373429    583.51217  0.015540433  0.014927178            2 
 3130000   0.74036188   -8.3377954    583.91692  0.015546244  0.014921991            2 
 3131000   0.73548122   -8.3309397    583.46025  0.015529124  0.014916802            3 
 3132000   0.76871067   -8.3588184     583.0814  0.015514086  0.014911594            4 
 3133000   0.74063939   -8.3715871    581.64822  0.015471013  0.014906371            4 
 3134000    0.7635415   -8.3607202    584.47638  0.015541278  0.014901144            3 
 3135000   0.74560341   -8.4083571    581.89779  0.015467778  0.014895914            2 
 3136000   0.73069864   -8.3864937    583.55586  0.015506905  0.014890677           10 
 3137000   0.75231274   -8.3806153    581.79791  0.015455263  0.014885459            3 
 3138000   0.75046266   -8.3926852    582.05628  0.015457199  0.014880227            2 
 3139000   0.76389364   -8.3666135    584.33744  0.015512834  0.014875002            4 
 3140000   0.74442293   -8.4033319    582.64854  0.015463072  0.014869767            2 
 3141000   0.75127555   -8.3552894    582.06695  0.015442719  0.014864543            3 
 3142000    0.7454127   -8.3769841     582.4932  0.015449109  0.014859323            1 
 3143000   0.74508493   -8.3650904    583.33823  0.015466598  0.014854116            4 
 3144000   0.74349747   -8.3420864    581.58741  0.015415273  0.014848915            2 
 3145000   0.76718494   -8.3649278     583.1388  0.015451479  0.014843724            1 
 3146000   0.74118473   -8.3608821    582.78442   0.01543718  0.014838532            5 
 3147000   0.74412782   -8.3773281    582.49671  0.015424656  0.014833341            4 
 3148000   0.75801056   -8.3718786    583.05165  0.015434447  0.014828136            3 
 3149000   0.74276322   -8.3856795    582.65161  0.015418959   0.01482293            3 
 3150000   0.75591898   -8.3744984    582.62116  0.015413258  0.014817736            7 
 3151000   0.74814205   -8.3656981    582.10423  0.015394696  0.014812546            3 
 3152000   0.75904634   -8.3615535    582.48819  0.015399963  0.014807351            3 
 3153000   0.75106659   -8.3821536     583.2769  0.015415924  0.014802159            1 
 3154000   0.76293098    -8.383542    583.07177  0.015405616  0.014796977            2 
 3155000   0.75236973   -8.3896402    583.98129  0.015424757  0.014791789            3 
 3156000   0.74275169   -8.3754526    582.98563  0.015393579  0.014786607            3 
 3157000   0.73600963   -8.3723391    584.05397  0.015416904  0.014781425            2 
 3158000   0.73639222   -8.3564425    583.41993  0.015395291  0.014776271            2 
 3159000   0.72815785   -8.3479527    584.62174   0.01542212  0.014771097            3 
 3160000    0.7635349   -8.4139727    583.09345  0.015376937   0.01476592            4 
 3161000    0.7512537   -8.3563158    584.25514  0.015402698   0.01476075            3 
 3162000   0.75044699   -8.3892242    583.67946  0.015382655  0.014755599            3 
 3163000   0.73692835   -8.3559684     583.5051  0.015373198  0.014750436            2 
 3164000   0.75268375   -8.3643507    584.03038  0.015382174  0.014745286            2 
 3165000    0.7471329   -8.3887592    583.84457  0.015372422  0.014740143            2 
 3166000   0.74586723   -8.3882861    583.17752  0.015350008  0.014734987            2 
 3167000   0.73774946   -8.3950673    582.71669  0.015333036  0.014729845            3 
 3168000   0.74517396     -8.38462    583.61356  0.015351788  0.014724704            5 
 3169000   0.73899924    -8.406834    583.41242  0.015341654   0.01471956            3 
 3170000   0.73109395   -8.3721385     583.2435  0.015332374  0.014714419            4 
 3171000   0.72625987    -8.372695    584.08373   0.01534962  0.014709281            2 
 3172000   0.74849991    -8.361889    582.71541  0.015308833  0.014704146            2 
 3173000   0.73529661   -8.3809384    583.21585  0.015317151  0.014699012            2 
 3174000   0.74621617   -8.3858638    584.04595   0.01533412  0.014693878            2 
 3175000   0.75874856   -8.3840536     585.4307  0.015365635  0.014688765            3 
 3176000   0.74786613   -8.4079529     584.2162  0.015328931  0.014683638            1 
 3177000   0.75268064   -8.3783937    583.46414  0.015304379  0.014678511            2 
 3178000   0.74157738   -8.3907735     585.1636  0.015344126  0.014673391            3 
 3179000   0.74755494   -8.3793026    584.00781  0.015309002  0.014668256            3 
 3180000   0.74355881   -8.3979845    584.15158  0.015307955  0.014663159            2 
 3181000   0.76114358   -8.3691494    584.81144   0.01532043  0.014658045            2 
 3182000    0.7448907   -8.3646707    583.97032  0.015293587  0.014652928            6 
 3183000   0.73824658   -8.3599502    583.36682  0.015272982  0.014647815            1 
 3184000   0.74271581   -8.3634442    584.11562  0.015287783  0.014642712            1 
 3185000   0.74047508   -8.3918276    583.16301  0.015258059  0.014637617            5 
 3186000    0.7451779   -8.3517536    584.27815  0.015282438  0.014632528            4 
 3187000   0.75027914   -8.3787588    583.30246   0.01525213  0.014627434            3 
 3188000   0.74203779   -8.3619289    585.45125  0.015303514  0.014622355            5 
 3189000   0.72521596   -8.3898456    583.26196  0.015241506  0.014617284            1 
 3190000   0.72715405   -8.3784606     584.9016  0.015279561  0.014612201            4 
 3191000   0.74497195   -8.3713808    584.75593  0.015270969  0.014607126            2 
 3192000    0.7431588   -8.3634465    585.80825  0.015293657  0.014602059            4 
 3193000    0.7577535   -8.3440387      586.209  0.015299327  0.014597008            2 
 3194000   0.76042847   -8.3739002    584.55909   0.01525149  0.014591956            1 
 3195000   0.73454071   -8.3887498    583.39263  0.015216292  0.014586882            3 
 3196000   0.75737936   -8.3758091    585.20092  0.015258681  0.014581809            2 
 3197000   0.73263066    -8.357113    585.02131  0.015249226  0.014576746            4 
 3198000   0.73335388   -8.3478477    584.38873  0.015227974  0.014571689            2 
 3199000   0.73533482   -8.3700649    585.27284  0.015246245  0.014566607            2 
 3200000   0.73978765   -8.3891872    583.47769  0.015194731  0.014561536            3 
 3201000   0.74309359   -8.3899348    584.25263  0.015210159  0.014556465            3 
 3202000   0.72318295   -8.3889742    583.34873  0.015181884  0.014551383            6 
 3203000   0.74476299   -8.4062682    584.60642  0.015209866  0.014546314            3 
 3204000    0.7300517   -8.3670322    585.74491   0.01523473  0.014541261            8 
 3205000   0.72950789   -8.3771914    584.48051  0.015197101  0.014536193            8 
 3206000   0.74123255   -8.3444129    586.26267  0.015238684  0.014531129            2 
 3207000   0.73082531   -8.3597655     584.6828   0.01519288  0.014526082            3 
 3208000   0.73273915   -8.3904482    584.59123  0.015185765  0.014521023            3 
 3209000   0.73983052   -8.3659499    583.17155  0.015144166  0.014515962            3 
 3210000   0.74347119   -8.3771005    585.59186  0.015202281  0.014510919            9 
 3211000   0.73862678   -8.3674529    584.87638  0.015178978  0.014505879            7 
 3212000    0.7585162   -8.3852027    585.17897  0.015182103  0.014500849            2 
 3213000   0.73631045   -8.3908645    584.43226  0.015158011   0.01449582            4 
 3214000   0.72929557   -8.4013814    582.95597  0.015115017  0.014490779            3 
 3215000   0.73603938    -8.414513    584.97941  0.015162763   0.01448575            3 
 3216000   0.73133646   -8.3815964    585.06256  0.015160203  0.014480693            1 
 3217000   0.71686118   -8.3903771    585.09377  0.015156299  0.014475659            3 
 3218000   0.76084178   -8.3715503    585.82587  0.015170548  0.014470641            1 
 3219000   0.74902275   -8.3765982    585.01004  0.015144715  0.014465615            2 
 3220000   0.72426337    -8.380655    585.95488  0.015164464  0.014460581            2 
 3221000   0.72293133   -8.3999751    584.87764  0.015131886  0.014455555            9 
 3222000    0.7321642   -8.4056846    585.31556  0.015138515  0.014450537            2 
 3223000   0.72724325   -8.4151098     585.0578  0.015127154  0.014445514            1 
 3224000   0.74591525   -8.3860779    584.51016  0.015108306  0.014440482            1 
 3225000   0.74645067   -8.3644111    586.45029  0.015153754  0.014435486            1 
 3226000   0.73922348    -8.368463    584.19561  0.015090814  0.014430481            2 
 3227000   0.73553029   -8.3816421    585.94276  0.015131256  0.014425473            4 
 3228000   0.75686506   -8.3872383     585.2561  0.015108842   0.01442047            2 
 3229000   0.73491755   -8.4136973    585.96801  0.015122536   0.01441547            2 
 3230000   0.73076422   -8.4121474    586.63569   0.01513508  0.014410475            3 
 3231000   0.72908753   -8.4207427    584.67808  0.015079905  0.014405467            2 
 3232000    0.7518297   -8.4101763    584.01789  0.015058217   0.01440045            5 
 3233000   0.74170458   -8.4101648    584.43402  0.015064286  0.014395427            2 
 3234000   0.70918092   -8.3927748    584.03316  0.015049298  0.014390422            6 
 3235000   0.73368367   -8.3992739    584.98472  0.015069158  0.014385417            2 
 3236000   0.74156283   -8.4320408    584.14153  0.015042788  0.014380409            4 
 3237000    0.7219538   -8.4008261    584.77084  0.015054341  0.014375415            2 
 3238000   0.74961992   -8.4152089    585.56996  0.015070259  0.014370435            2 
 3239000   0.75840337   -8.4133969    585.91145  0.015074392   0.01436544            1 
 3240000   0.74451732   -8.4239604    584.34399  0.015029424  0.014360447            2 
 3241000   0.72983806   -8.4188101    584.82872   0.01503725  0.014355452            2 
 3242000   0.73124177   -8.4201694    585.24237  0.015043244  0.014350451            3 
 3243000   0.74148682   -8.4488019     585.1608   0.01503651  0.014345443            7 
 3244000   0.71640789    -8.407119    585.35054  0.015036748   0.01434044            3 
 3245000   0.73295419   -8.3998163    585.23328  0.015029103  0.014335442            3 
 3246000   0.72333404   -8.4590653    585.60247  0.015033951  0.014330436            4 
 3247000   0.73252023   -8.4493072    585.41859  0.015024602  0.014325447            3 
 3248000   0.74592346   -8.4043069    586.28724  0.015042263  0.014320454            3 
 3249000   0.71997087   -8.4247073    585.27748  0.015011734  0.014315468            3 
 3250000   0.72713712   -8.4212662    586.38605   0.01503554   0.01431049            6 
 3251000   0.72407372   -8.4307527    584.86981  0.014992049  0.014305514            3 
 3252000    0.7328714   -8.4095786    585.76608  0.015010406  0.014300551            4 
 3253000    0.7460674   -8.4225574    585.63876   0.01500253  0.014295575            5 
 3254000   0.71383907   -8.4201863    585.53343  0.014995222  0.014290601            3 
 3255000   0.73724088   -8.4303311    585.80556  0.014997582  0.014285627            2 
 3256000   0.73033319   -8.4113626    583.98657  0.014946421   0.01428065            1 
 3257000   0.72318806   -8.4467975    584.54094  0.014956016  0.014275656            4 
 3258000   0.72119376   -8.4217094    586.32064  0.014996947  0.014270663            3 
 3259000   0.71995338   -8.4170802     585.3934  0.014968636  0.014265692            1 
 3260000   0.74432653   -8.4138977    584.68715  0.014945991  0.014260714            2 
 3261000    0.7155394   -8.4226589    586.06474  0.014976611  0.014255734            5 
 3262000   0.73558527   -8.4055826    585.83469  0.014966143  0.014250745            2 
 3263000   0.72610458    -8.382649    585.08927  0.014942519  0.014245764            6 
 3264000   0.72354704   -8.4136001      585.243  0.014941866   0.01424079            6 
 3265000   0.73622739   -8.4296949    585.18099  0.014935707  0.014235828            4 
 3266000   0.73394937   -8.4080281    585.15613  0.014930499   0.01423084            3 
 3267000   0.74283374    -8.422912    584.90599  0.014919549  0.014225865            3 
 3268000   0.71828984    -8.447679    584.64441  0.014908313  0.014220887            5 
 3269000   0.73998355   -8.4322475    584.93533  0.014911169  0.014215902            2 
 3270000   0.73662971   -8.4204092    584.29094  0.014890187  0.014210922            5 
 3271000   0.71837573   -8.4452007    585.02165  0.014904251  0.014205946            1 
 3272000   0.71820662   -8.4400843    585.76518  0.014918632  0.014200974            5 
 3273000   0.73600018   -8.4332066    583.96216  0.014868168  0.014195991            1 
 3274000   0.71920347   -8.4347952     585.7219  0.014908417  0.014191013            1 
 3275000   0.72158384   -8.4314489    584.36904  0.014869441  0.014186043            1 
 3276000   0.70525216   -8.4124204    584.24306  0.014861698  0.014181087            2 
 3277000   0.73118993   -8.4143817    585.36419  0.014885673  0.014176131            3 
 3278000   0.72456219   -8.4618266      585.131  0.014875203  0.014171169            1 
 3279000   0.73147283   -8.4148518     585.7931  0.014887494  0.014166215            4 
 3280000   0.72077989   -8.4173095    585.28355  0.014870009  0.014161269            2 
 3281000   0.72284886   -8.4484872    585.16318  0.014862419  0.014156326            1 
 3282000   0.72070666   -8.4207717    586.02784  0.014879846  0.014151384            2 
 3283000   0.71889244   -8.4173792    584.53402  0.014837395   0.01414644            3 
 3284000   0.74421717   -8.4155702    585.35513  0.014853713  0.014141504            2 
 3285000   0.72552119   -8.4259273    585.13786   0.01484368  0.014136554            1 
 3286000   0.72140906   -8.4183482    585.06378  0.014837284  0.014131603            3 
 3287000   0.72671405   -8.4343723    586.40934  0.014866883  0.014126641            2 
 3288000   0.72899858   -8.4112431    583.97108  0.014800565  0.014121684            4 
 3289000   0.71231603   -8.4281449    585.39536  0.014832152  0.014116734            2 
 3290000   0.72801958   -8.4176029    584.82443  0.014813182  0.014111794            1 
 3291000   0.73206725   -8.4055268    584.98056  0.014812634  0.014106848            2 
 3292000   0.72201375   -8.4204646    585.01377  0.014808975  0.014101912            5 
 3293000   0.72722227   -8.4149569    584.68319  0.014796113  0.014096959            2 
 3294000   0.72297972   -8.4337181    584.90929  0.014797341  0.014092008            1 
 3295000   0.72727855   -8.4381087    585.42293   0.01480584  0.014087055            5 
 3296000   0.72152118   -8.4513772    585.18921  0.014795439  0.014082108            9 
 3297000   0.71862491   -8.3961218    587.10993  0.014839499  0.014077162            3 
 3298000   0.71827554   -8.4105143    584.65662  0.014773009  0.014072228            6 
 3299000    0.7221402   -8.4184689    585.18942   0.01478199  0.014067299            3 
 3300000   0.73502787   -8.4334656    585.34443  0.014781425  0.014062345            6 
 3301000   0.72404325   -8.4403812    584.79994  0.014763202  0.014057399            8 
 3302000   0.70779295    -8.453993    585.02781  0.014764481  0.014052461            3 
 3303000   0.72220754   -8.4187108     585.3063  0.014767038  0.014047523            2 
 3304000   0.72021776   -8.4475568    585.13012  0.014758124   0.01404258            5 
 3305000   0.71893315   -8.4462685    585.59599  0.014765406  0.014037642            3 
 3306000   0.73235514   -8.4434732    584.93399  0.014744253  0.014032708            1 
 3307000   0.71814529   -8.4445586    584.36225  0.014725387  0.014027773            7 
 3308000   0.72381834   -8.4387123     583.4802  0.014698715  0.014022849            5 
 3309000   0.71906248   -8.4490308    584.54186   0.01472101  0.014017923            6 
 3310000   0.73509699   -8.4287153    584.77825  0.014722514  0.014013008            2 
 3311000   0.72638898   -8.4100732    585.27817   0.01473065  0.014008093            3 
 3312000   0.71426397   -8.4404012    584.56026  0.014708139  0.014003175            4 
 3313000   0.72062064   -8.4360026    585.60843  0.014730064  0.013998259            1 
 3314000   0.72785292   -8.4569328    584.06337  0.014686767  0.013993342            8 
 3315000   0.71560855   -8.4144939    583.97265  0.014680056  0.013988424            1 
 3316000   0.71500822   -8.4342292    584.97071  0.014700711  0.013983499            1 
 3317000   0.71311168   -8.4526436    584.69714  0.014689406  0.013978573            3 
 3318000   0.71648462   -8.4487835    583.79436  0.014662306  0.013973638            4 
 3319000   0.72693766   -8.4361673    584.75181  0.014681928  0.013968703            5 
 3320000   0.72011871   -8.4434667    586.36602  0.014718022  0.013963776            3 
 3321000   0.72708279   -8.4320064    586.28113  0.014711461  0.013958852            3 
 3322000   0.71889224   -8.4855308    583.83675  0.014645714  0.013953906            1 
 3323000   0.70863749   -8.4597669    584.98237  0.014670036   0.01394897            2 
 3324000   0.73247693   -8.4679869    584.77643   0.01466046  0.013944027            2 
 3325000   0.71342111   -8.4650143    584.23133  0.014642389  0.013939089            5 
 3326000   0.71995431    -8.455662     583.6374  0.014623106  0.013934151            5 
 3327000   0.72230386   -8.4651594    583.60679  0.014617944    0.0139292            1 
 3328000   0.71941701   -8.4608875    584.76219  0.014642483  0.013924267            2 
 3329000   0.69604348   -8.4425256    584.57307   0.01463335  0.013919322            1 
 3330000   0.72479254   -8.4424161    585.25199  0.014645946  0.013914386            2 
 3331000   0.71403385   -8.4604027    584.61088   0.01462551  0.013909453            3 
 3332000   0.71259647   -8.4456444    584.18776  0.014610538  0.013904516            2 
 3333000   0.72645823   -8.4620615    584.23942  0.014607446  0.013899587            3 
 3334000   0.72299072   -8.4570818    585.01171  0.014622368  0.013894649            3 
 3335000   0.71442336   -8.4610068    585.34045  0.014626198  0.013889708            2 
 3336000   0.70669567   -8.4792873    584.07405  0.014590179  0.013884773            5 
 3337000   0.73004209   -8.4634314     584.0799  0.014585953  0.013879826            1 
 3338000   0.72034238   -8.4875028    584.38098    0.0145891  0.013874878            2 
 3339000    0.7245668   -8.4831738    584.32798  0.014583408   0.01386993            3 
 3340000   0.71872124   -8.4730621    585.16743  0.014599986  0.013864982            2 
 3341000   0.72121829   -8.4833713     584.0418   0.01456754  0.013860039            3 
 3342000   0.71414479   -8.4452486    585.45991  0.014598541  0.013855109            2 
 3343000   0.72464337   -8.4470219    584.23618   0.01456367  0.013850191            2 
 3344000   0.72544472    -8.453484    583.87489  0.014550311  0.013845268            2 
 3345000   0.72508038   -8.4791675    582.50788  0.014511905  0.013840349            3 
 3346000   0.71950879   -8.5003689    584.17299  0.014549038  0.013835416            3 
 3347000   0.72459421   -8.4665493    584.17426  0.014544723  0.013830483            3 
 3348000   0.71092688   -8.4659728    584.43947   0.01454698  0.013825554            5 
 3349000   0.71208275   -8.4555542    583.33457  0.014515143  0.013820622            2 
 3350000   0.71637973    -8.479991    584.10495  0.014529974  0.013815699            2 
 3351000   0.71262286   -8.4788233     584.5039  0.014535559  0.013810787            6 
 3352000   0.71960582   -8.4796668    584.80088  0.014538606  0.013805856            3 
 3353000   0.71523095   -8.4659712    582.51536  0.014477467  0.013800933            1 
 3354000   0.71098744   -8.4902199    582.97153  0.014484485  0.013796006            2 
 3355000   0.70822422   -8.4743506     583.4316  0.014491595  0.013791069            2 
 3356000   0.70863434   -8.4484521    582.75678   0.01447052   0.01378614            1 
 3357000   0.73693918   -8.4515033    583.72421  0.014490225  0.013781222            3 
 3358000   0.72656066   -8.4663747    584.80723  0.014512786  0.013776306            5 
 3359000   0.70838457   -8.4854847    583.77716   0.01448291  0.013771412            2 
 3360000   0.71997208   -8.4797109    583.97944  0.014483617  0.013766507            4 
 3361000    0.7160478   -8.5047513    583.88685  0.014477012  0.013761608            3 
 3362000   0.71358175   -8.4602924    583.20095  0.014455705  0.013756697            2 
 3363000   0.71014685   -8.4837624    583.81492   0.01446662  0.013751807            1 
 3364000   0.71997672    -8.472867    583.83874   0.01446291  0.013746906            2 
 3365000   0.72430322   -8.4850865     584.5824  0.014477028  0.013742002            3 
 3366000   0.70317262   -8.4881788    583.09392  0.014435876  0.013737111            5 
 3367000    0.7107005   -8.4750868      584.553  0.014467701  0.013732214            2 
 3368000   0.70103864   -8.4784591    583.58669  0.014439497  0.013727319            3 
 3369000   0.70707038   -8.4651724    583.65444  0.014436886  0.013722425            2 
 3370000   0.71956423   -8.4611435    584.50183  0.014453557  0.013717543            2 
 3371000   0.69279795   -8.5001644    585.53462    0.0144748  0.013712658            1 
 3372000   0.71481581   -8.4809006    584.75582  0.014451261  0.013707783            1 
 3373000   0.70723568   -8.4902399    583.42693  0.014414145  0.013702904            3 
 3374000   0.71073882   -8.4949374    583.92018  0.014422055  0.013698024            2 
 3375000   0.70358451   -8.5272148    585.01345  0.014444777   0.01369314            6 
 3376000    0.7051981   -8.4993784    584.13029  0.014418698  0.013688254            3 
 3377000   0.68427876   -8.4868739    584.72845  0.014429189  0.013683382            4 
 3378000   0.70516968   -8.4828341    584.10557  0.014409551  0.013678502            3 
 3379000   0.71522418   -8.5026125    583.58943  0.014392558  0.013673624            4 
 3380000   0.70991884   -8.5065515    582.45038  0.014360216  0.013668732            5 
 3381000   0.69579763   -8.4873639    584.50741   0.01440667  0.013663844            4 
 3382000   0.70789554   -8.4850318    584.32086  0.014397814  0.013658964            4 
 3383000   0.72234402   -8.5014831    585.09499  0.014412627  0.013654083            7 
 3384000   0.72487233   -8.4978421    583.10671  0.014359405  0.013649216            4 
 3385000   0.71606056   -8.4658954    585.32104  0.014409676  0.013644347            2 
 3386000   0.71156075   -8.4942486     583.5218  0.014361139   0.01363948            2 
 3387000   0.72373066   -8.4943977    584.67048  0.014385161  0.013634611            4 
 3388000   0.72273071   -8.4741656    584.72258  0.014382196  0.013629749            7 
 3389000   0.70311049   -8.4930461    584.38017  0.014369533  0.013624895            7 
 3390000   0.70216286   -8.5075493    584.60652  0.014370858  0.013620029            4 
 3391000   0.72610257   -8.5214853    584.61243  0.014366766  0.013615159            2 
 3392000   0.69414893   -8.4868391    584.08758  0.014349636  0.013610299            3 
 3393000   0.71224311   -8.5185191    584.53153   0.01435631  0.013605445            3 
 3394000   0.70652031   -8.4759484    584.81328  0.014358998  0.013600594            2 
 3395000   0.70151559   -8.5108086     584.7338  0.014352818  0.013595746            2 
 3396000   0.70080461   -8.5126289    583.28593  0.014313063  0.013590896            2 
 3397000   0.70549906   -8.4642566    584.58337  0.014340677  0.013586063            2 
 3398000   0.72078641   -8.4763049    584.60364  0.014336954  0.013581225            3 
 3399000   0.70945368   -8.5104982    583.99023  0.014317697  0.013576389            2 
 3400000   0.71846464   -8.4978239    583.49378  0.014301318  0.013571544            2 
 3401000   0.70155533   -8.4823117    584.85509  0.014330469  0.013566702            3 
 3402000   0.71178965     -8.51601    583.67924  0.014297453  0.013561852            1 
 3403000   0.69976854   -8.5066476     583.8315  0.014296981  0.013556999            2 
 3404000   0.70434546    -8.492112    584.28567  0.014303899  0.013552156            2 
 3405000   0.69842073   -8.5048798    583.65534  0.014284272   0.01354732            2 
 3406000   0.70191104   -8.5277786    583.51904  0.014276743   0.01354247            1 
 3407000   0.70026422   -8.4995867    584.02904  0.014285027   0.01353762            2 
 3408000   0.71981292   -8.5206182    583.51087  0.014268165  0.013532767            1 
 3409000   0.71165102   -8.5373664    583.28131  0.014258368  0.013527905            3 
 3410000   0.71436313   -8.5089579    584.85387  0.014292617  0.013523046            2 
 3411000    0.7154294   -8.5031684    583.87817  0.014264589  0.013518196            3 
 3412000   0.72036428   -8.4893449    583.41066   0.01424899  0.013513352            5 
 3413000   0.70936301   -8.4862284    584.48089  0.014270947  0.013508516            2 
 3414000   0.70833421    -8.498267    583.25111  0.014236748  0.013503688            2 
 3415000    0.7093849   -8.4932595    584.68055  0.014267461  0.013498857            1 
 3416000   0.68230805   -8.4891582    584.78435  0.014265817  0.013494042            3 
 3417000   0.71184165   -8.5163747    584.21082  0.014247654  0.013489236            1 
 3418000   0.69213785   -8.4962358    584.03095  0.014239101  0.013484425            2 
 3419000   0.70895455   -8.4725222    584.87026  0.014255393  0.013479615            2 
 3420000   0.70544752   -8.4771645    583.95667  0.014228964  0.013474817            2 
 3421000   0.71993668   -8.4859817    585.06227  0.014251736  0.013470017            4 
 3422000   0.70536155    -8.501631    584.75197  0.014240015   0.01346522            3 
 3423000   0.69177702   -8.4881287    583.35438   0.01420183  0.013460427            3 
 3424000   0.70563656   -8.4755728    583.67903  0.014205584  0.013455631            2 
 3425000   0.70957303    -8.511596    584.05377  0.014210554  0.013450836            1 
 3426000   0.70384319    -8.488659    584.07916  0.014207024  0.013446038            1 
 3427000   0.70082713    -8.516164      584.617  0.014215957  0.013441233            2 
 3428000   0.69105173    -8.507915    584.18819  0.014201385   0.01343643            2 
 3429000   0.69395291   -8.4933678    583.98754  0.014192368  0.013431637            2 
 3430000   0.72245346   -8.4990351     584.7327  0.014206334  0.013426834            7 
 3431000   0.70787367   -8.5053956    584.00038  0.014184406  0.013422039            2 
 3432000   0.71802088   -8.5150453    584.03059  0.014181007  0.013417239            4 
 3433000   0.70427025   -8.5220586    583.16053  0.014155756  0.013412436            3 
 3434000   0.70327584   -8.4917466    585.01761    0.0141967  0.013407628            4 
 3435000   0.71364212   -8.5104514    585.07716  0.014194012  0.013402825            1 
 3436000   0.69273594   -8.5242926    583.44527  0.014150302  0.013398017            4 
 3437000   0.70288688   -8.5111256    584.55941  0.014173199  0.013393209            1 
 3438000   0.69420123   -8.5091394    583.51191  0.014143686  0.013388402            2 
 3439000   0.71040226   -8.5046134    584.82618   0.01417142  0.013383604            2 
 3440000   0.70802757    -8.512618    583.70447  0.014140128  0.013378799            2 
 3441000   0.71989832   -8.5011561    585.53785  0.014180419  0.013374006            4 
 3442000      0.70566   -8.5097583    583.81202  0.014134515  0.013369219            2 
 3443000   0.70377148   -8.5180359    583.40816  0.014120635   0.01336442            2 
 3444000    0.7147952   -8.5219065    583.87517  0.014127835  0.013359625            3 
 3445000    0.6999539   -8.5364473    583.65163  0.014118327  0.013354832            2 
 3446000   0.70274653    -8.502655    584.74456   0.01414066  0.013350043            2 
 3447000   0.67474541   -8.5028443    584.04013  0.014119527  0.013345264            4 
 3448000   0.70080646   -8.4937443    584.90718  0.014136388  0.013340498            2 
 3449000   0.68991175   -8.5143489    583.97418  0.014109746  0.013335734            3 
 3450000   0.68663569   -8.4760226    585.08716   0.01413254  0.013330981            4 
 3451000   0.70084574    -8.502985    584.20487   0.01410714  0.013326241            2 
 3452000   0.71310039   -8.4926117    584.15633  0.014101881  0.013321482            2 
 3453000   0.69549208   -8.4835305    584.40944  0.014103906  0.013316733            1 
 3454000    0.6992086   -8.5298993    583.30633  0.014073208  0.013311979            1 
 3455000   0.69854692   -8.5240517    585.21442  0.014115157  0.013307224            3 
 3456000   0.69901901   -8.5251616    584.91765  0.014103917  0.013302483            3 
 3457000   0.69692669   -8.5240572      584.063  0.014079235  0.013297732            4 
 3458000   0.70881179   -8.5077232    584.45366  0.014084578  0.013292971            1 
 3459000   0.69618225   -8.5229366    583.81537  0.014065129   0.01328822            2 
 3460000   0.69481284   -8.4944419    585.09335  0.014091844  0.013283477            2 
 3461000   0.69958663   -8.4989461    586.18599  0.014114081  0.013278734            3 
 3462000   0.70061523   -8.5030959    583.28298  0.014040126  0.013273995            4 
 3463000   0.69709369   -8.5230568    583.52096  0.014041798  0.013269256            2 
 3464000   0.69567891   -8.4859328     585.0807  0.014075267  0.013264512            4 
 3465000    0.6834284   -8.5026227    584.41537  0.014055204  0.013259779            3 
 3466000   0.68819859   -8.5246446     584.3643  0.014049921  0.013255031            3 
 3467000   0.69597439   -8.5523016    583.57743  0.014026955  0.013250278            4 
 3468000   0.69702591   -8.4861554    585.04218  0.014058107  0.013245534            3 
 3469000    0.7105306   -8.5300642    582.57235  0.013994723  0.013240789            3 
 3470000   0.69653616   -8.5137053    584.47924  0.014036485  0.013236037            3 
 3471000   0.70587476   -8.5493845    583.65887  0.014012745  0.013231279            2 
 3472000   0.69750885    -8.522271    583.12821  0.013995973   0.01322652            6 
 3473000   0.70291263   -8.5534184    582.98946  0.013988614  0.013221773            2 
 3474000   0.69280548     -8.52143    584.81997  0.014028497  0.013217026            2 
 3475000    0.6983771   -8.5360054    582.47901  0.013968322  0.013212267            6 
 3476000   0.70903204   -8.5077242     584.4273  0.014011011  0.013207505            5 
 3477000   0.68376125   -8.5304206    583.18677   0.01397725   0.01320274            2 
 3478000   0.68753866   -8.5563236     583.0859  0.013970814  0.013197968            2 
 3479000   0.69962886    -8.520995    583.75938  0.013982931  0.013193204            4 
 3480000   0.69331107   -8.5214124    583.04176  0.013961728  0.013188449            6 
 3481000   0.68370658   -8.5373151     583.4364  0.013967165  0.013183693            4 
 3482000   0.68173423   -8.5706489    581.93822  0.013927298  0.013178945            5 
 3483000   0.70683972   -8.5438708    584.08364   0.01397463  0.013174192            2 
 3484000   0.69075854   -8.5448735    584.23903  0.013974336  0.013169443            3 
 3485000   0.69215838   -8.5424601    583.36798  0.013949497  0.013164697            4 
 3486000   0.70443874   -8.5545398    582.97832  0.013936181  0.013159958            4 
 3487000   0.68737253   -8.5266823    583.37068  0.013941561  0.013155211            7 
 3488000   0.69483295   -8.5390709    582.35887  0.013913391  0.013150457            3 
 3489000   0.68442383   -8.5453773    583.53762  0.013937557  0.013145709            3 
 3490000   0.68281922   -8.5232917    583.63383   0.01393586  0.013140975            2 
 3491000   0.69959253   -8.5328705     583.2685  0.013923148  0.013136239            2 
 3492000   0.68714074   -8.5611725    582.69273   0.01390542  0.013131514            1 
 3493000   0.69941175    -8.527664    584.15059   0.01393622  0.013126792            4 
 3494000   0.67809516   -8.5507199     584.1382  0.013931936  0.013122068            2 
 3495000    0.6920714   -8.5354906    584.63901  0.013939891  0.013117342            2 
 3496000   0.70008165   -8.5473327    584.07631   0.01392249  0.013112622            1 
 3497000   0.69993907   -8.5405291     583.2435  0.013898663  0.013107913            3 
 3498000    0.6977095   -8.5227755    584.76458  0.013930927  0.013103211            2 
 3499000   0.69496792   -8.5298033    584.06388  0.013910257  0.013098504            3 
 3500000   0.70825037   -8.5398585     583.4726  0.013892205  0.013093797            3 
 3501000   0.70382541    -8.563519     583.7661  0.013895223  0.013089091            2 
 3502000   0.69161275   -8.5463172    585.29235  0.013927573  0.013084388            3 
 3503000   0.67798263   -8.5406243    583.84366  0.013889135  0.013079705            3 
 3504000    0.7000726   -8.5339593    584.84309   0.01390894  0.013075022            2 
 3505000   0.68642645   -8.5359702    583.99716  0.013884859  0.013070336            2 
 3506000   0.68191205   -8.5559666    583.70017  0.013873839   0.01306565            3 
 3507000   0.68167407   -8.5307847    583.72028  0.013870361  0.013060967            3 
 3508000   0.68919399   -8.5269559    584.52882  0.013885614  0.013056293            3 
 3509000   0.68495314   -8.5316111    583.17062  0.013849402  0.013051611            2 
 3510000   0.66571424    -8.522066    585.37454  0.013897781  0.013046932            2 
 3511000   0.69350332   -8.5200958    583.92695  0.013859464  0.013042248            3 
 3512000   0.70415668   -8.5616055    583.53515  0.013846221  0.013037557            2 
 3513000   0.69000729   -8.5375807    584.47837  0.013864654  0.013032873            2 
 3514000   0.69018596   -8.5508931    583.63795  0.013840779  0.013028189            3 
 3515000   0.68742659   -8.5663359    583.12719  0.013824732  0.013023512            1 
 3516000   0.68052948   -8.5823739    583.98246  0.013841071  0.013018831            2 
 3517000   0.69760332   -8.5719817    583.58648  0.013827753  0.013014161            1 
 3518000   0.69450327   -8.5527886    584.19755  0.013838297  0.013009489            2 
 3519000   0.68986203   -8.5524882    584.96831  0.013852617  0.013004819            1 
 3520000    0.6805142   -8.5603862    584.51802  0.013838021   0.01300015            3 
 3521000   0.69934565   -8.5497468    584.32336  0.013829484  0.012995482            2 
 3522000   0.68988271   -8.5811893    584.13319  0.013821058  0.012990814            3 
 3523000   0.69051291   -8.5498298    584.60174  0.013828218   0.01298615            1 
 3524000   0.69655574   -8.5446427    583.50412  0.013798338  0.012981494            2 
 3525000    0.6807035   -8.5465485    584.13947  0.013809444   0.01297684            1 
 3526000   0.70412057   -8.5572487    583.69321   0.01379498  0.012972179            1 
 3527000   0.68866814   -8.5573345    584.03606   0.01379917  0.012967519            2 
 3528000   0.68509756   -8.5618194    583.36358  0.013779374  0.012962862           10 
 3529000    0.6936387   -8.5668191    584.18087  0.013794769   0.01295821            3 
 3530000   0.67187009   -8.5466778    584.94125  0.013808811   0.01295356            3 
 3531000   0.67555347   -8.5410334    583.09141  0.013761243  0.012948914            3 
 3532000   0.68251303   -8.5372154    583.21583  0.013760283  0.012944274            2 
 3533000    0.6863975   -8.5532469     583.5158  0.013763463   0.01293963            3 
 3534000   0.69478718    -8.563103     584.8614  0.013791299  0.012934989            2 
 3535000   0.68232364   -8.5477059    584.72032  0.013784072  0.012930345            2 
 3536000   0.69422862   -8.5746056    583.81688  0.013758882  0.012925698            4 
 3537000   0.67253715   -8.5851498    584.09729  0.013761599  0.012921051            4 
 3538000   0.68973698   -8.5935596    583.49728  0.013743576  0.012916409            2 
 3539000   0.71359443   -8.5576021    584.14657  0.013754982  0.012911762            3 
 3540000   0.67836638   -8.5746854    583.16655  0.013728026  0.012907122            1 
 3541000   0.68159614   -8.5808794    584.04299  0.013744775  0.012902495            3 
 3542000    0.6976716   -8.5625836    584.27283  0.013746302  0.012897861            4 
 3543000   0.70322265   -8.5594902    583.67913  0.013728458  0.012893235            2 
 3544000   0.67516999   -8.5831031    582.60005  0.013699211    0.0128886            1 
 3545000   0.70392767   -8.5838265    583.23228  0.013710209  0.012883963            3 
 3546000   0.67755865   -8.5759513     584.1912  0.013728878  0.012879338            1 
 3547000    0.6728882   -8.5591769    584.46901  0.013731534  0.012874709            1 
 3548000   0.67830544   -8.5756969    583.75262  0.013710837  0.012870085            1 
 3549000   0.68450399   -8.5537449    584.03864   0.01371369   0.01286546            4 
 3550000   0.68438847   -8.5771208    583.37865  0.013694335  0.012860827            2 
 3551000   0.69301849   -8.5600376    583.80193  0.013700411  0.012856209            1 
 3552000   0.68499308    -8.574289    584.09501   0.01370343  0.012851583            3 
 3553000     0.677762   -8.5555598    584.22954  0.013702729  0.012846964            2 
 3554000   0.68504607   -8.5721008    583.05725  0.013671385  0.012842338            2 
 3555000   0.67153195    -8.580179    583.48587  0.013677587  0.012837716            2 
 3556000   0.68741316   -8.5630858     582.8845  0.013659648  0.012833101            2 
 3557000   0.67717807   -8.5762888    582.99825  0.013658473  0.012828497            1 
 3558000   0.69005021   -8.5672175    584.20918  0.013682996  0.012823875            5 
 3559000    0.6856781   -8.5637532    583.87941  0.013671429  0.012819272            3 
 3560000   0.67243324   -8.5628384    583.41715  0.013656768  0.012814662            3 
 3561000   0.67635969   -8.5742116    583.05927  0.013644558  0.012810051            1 
 3562000    0.6635584   -8.5748587    582.81599  0.013635036  0.012805433            3 
 3563000   0.69274482   -8.5562615    582.95617  0.013634488  0.012800815            4 
 3564000   0.68477884   -8.5463654    584.38123  0.013663983  0.012796211            2 
 3565000   0.66735115   -8.5460768    583.77432  0.013645963  0.012791618            7 
 3566000   0.67392337   -8.6044658    582.46215  0.013611473  0.012787017            6 
 3567000   0.67178048   -8.5599554    582.90355  0.013617969  0.012782419            4 
 3568000   0.66662953   -8.5599801     583.4726  0.013627443  0.012777815            2 
 3569000   0.67096189   -8.5679298    582.93613  0.013611098  0.012773209            3 
 3570000   0.67582879   -8.5726601    583.17455  0.013612851  0.012768609            2 
 3571000   0.67952955   -8.5678231    583.69673  0.013621225  0.012764008            3 
 3572000   0.68559396   -8.5791173    583.78523  0.013619476  0.012759404            6 
 3573000   0.68444923   -8.5732998    583.44248   0.01360767  0.012754809            5 
 3574000   0.68630272   -8.5779403    583.30306  0.013600612  0.012750218            3 
 3575000   0.67332211   -8.5663195    583.64143  0.013604695  0.012745627            5 
 3576000   0.67470756   -8.5617006    583.58124  0.013599488  0.012741035            2 
 3577000   0.68054109   -8.5797049    582.78624  0.013577165  0.012736451            2 
 3578000   0.66993352   -8.5736577    582.80198  0.013573737  0.012731856            3 
 3579000   0.68413446   -8.5555734    583.69021  0.013590626  0.012727266            3 
 3580000   0.70976525   -8.5762906    583.62754  0.013585371  0.012722686            1 
 3581000   0.68908766   -8.5825774    583.57934  0.013580456  0.012718101            4 
 3582000   0.66939903    -8.602134    584.03698  0.013587311  0.012713515            3 
 3583000   0.66999416   -8.5931506     583.3135  0.013566692  0.012708937            4 
 3584000   0.67548052   -8.5795035    583.02482  0.013556195  0.012704366            4 
 3585000   0.68544742   -8.5535622    584.68535  0.013591012  0.012699799            5 
 3586000   0.68337624   -8.5879497    583.85805  0.013567997  0.012695237            3 
 3587000   0.67699825   -8.5805504     583.3183  0.013551675  0.012690673            2 
 3588000   0.67592423    -8.558128    583.45142   0.01355099  0.012686114            2 
 3589000   0.67646327   -8.5622811    582.85624  0.013533395  0.012681564            5 
 3590000   0.68997775    -8.570854    583.84595  0.013552599  0.012677007            3 
 3591000   0.67863387   -8.5624502    582.69711  0.013522164  0.012672449            4 
 3592000   0.67887793   -8.5492549    582.89595  0.013523013  0.012667883            2 
 3593000   0.67752433   -8.5728952    582.88283  0.013518945  0.012663313            4 
 3594000   0.69284841   -8.5884249     583.5661  0.013531026  0.012658761            1 
 3595000   0.66943813   -8.5595903    584.02806  0.013537971  0.012654208            2 
 3596000   0.67831748   -8.5891129    583.07452  0.013512109  0.012649654            2 
 3597000   0.69415283   -8.5697603    583.21233  0.013511545  0.012645101            2 
 3598000   0.65924517   -8.5525892    582.83279  0.013498999   0.01264055            8 
 3599000   0.68162116   -8.5814035    583.42704  0.013509008  0.012636003            4 
 3600000   0.67832402   -8.5772214    583.11716  0.013498082  0.012631461            2 
 3601000    0.6659811   -8.5894805    583.32074  0.013499045  0.012626917            4 
 3602000   0.68015294   -8.5900725    582.45145  0.013475186  0.012622366            6 
 3603000   0.66063998   -8.5662933    583.41411  0.013493712   0.01261782            2 
 3604000   0.66510832    -8.576862     582.9523  0.013479289   0.01261328            5 
 3605000   0.69082421   -8.5781817    583.58916  0.013490272  0.012608739            3 
 3606000   0.67983738   -8.5575052     583.5424   0.01348545  0.012604195            4 
 3607000   0.68070164   -8.5846234    583.12269  0.013472015  0.012599652            3 
 3608000   0.67475196    -8.558614    584.56573  0.013501611  0.012595114            9 
 3609000   0.67081147   -8.5646541    583.22406   0.01346689  0.012590588            2 
 3610000   0.67211657   -8.5540984    584.44891  0.013491434  0.012586066            4 
 3611000   0.66865365   -8.5713679    583.15703  0.013457884  0.012581542            1 
 3612000   0.67843659   -8.5597011    582.99566  0.013450435  0.012577012            3 
 3613000   0.67761501   -8.5682494    582.62801  0.013438232  0.012572486            2 
 3614000   0.65516698   -8.5586644     582.9818  0.013442672  0.012567969            4 
 3615000   0.66783699   -8.5717628    583.22942  0.013444662  0.012563451            2 
 3616000   0.67309068   -8.5752067    584.42905   0.01346859  0.012558937            1 
 3617000   0.66820234   -8.5632577    583.39005  0.013440928  0.012554429            2 
 3618000   0.68700316   -8.5740943    583.20289  0.013432902  0.012549918            6 
 3619000   0.68082801   -8.5646817    583.31453  0.013431761  0.012545393            2 
 3620000   0.69157752   -8.5696703     585.2353  0.013472267  0.012540881            4 
 3621000   0.65263079   -8.5634189    583.78454  0.013435159  0.012536369            6 
 3622000   0.67096665   -8.5878671    583.19911  0.013417981  0.012531856            5 
 3623000   0.67547003   -8.5817854    583.52395  0.013421749  0.012527339            5 
 3624000   0.67787011   -8.5941801    582.58217  0.013396389  0.012522818            4 
 3625000   0.66459867   -8.6064178    582.27404   0.01338561  0.012518292            5 
 3626000   0.66523845   -8.5989328    583.25283  0.013404413  0.012513776            1 
 3627000   0.68363288   -8.5705669    583.94524  0.013416626  0.012509275            2 
 3628000   0.65448993    -8.570732    584.26389  0.013420247  0.012504767            3 
 3629000   0.65947711   -8.5876094    582.89593  0.013385137  0.012500261            3 
 3630000   0.66616235   -8.5884479    583.10185  0.013386177  0.012495759            2 
 3631000   0.66332846   -8.5699455    583.09109  0.013382243  0.012491261            2 
 3632000   0.68845084   -8.5826511    583.08092  0.013378325  0.012486762            5 
 3633000   0.68035641   -8.5710474    583.34534  0.013380708  0.012482267            2 
 3634000    0.6564173   -8.5724649     583.2408  0.013374628  0.012477776            2 
 3635000   0.65744664   -8.6051006    582.40272  0.013351736  0.012473277            2 
 3636000   0.66813608   -8.5938767    583.12151  0.013364538  0.012468773            2 
 3637000   0.67799131   -8.5759911    583.08849  0.013360107   0.01246428            1 
 3638000   0.66590245   -8.5991819    581.95937   0.01333057   0.01245978            2 
 3639000   0.66892861   -8.5784082    583.65223  0.013365673  0.012455283            2 
 3640000   0.67604016   -8.5769394     583.4892  0.013358269  0.012450786            3 
 3641000    0.6805601   -8.5794878    581.98879   0.01332026  0.012446291            1 
 3642000   0.66222778   -8.5803854    582.50516  0.013328418  0.012441785            3 
 3643000   0.66638218   -8.5894358    584.09817  0.013361199  0.012437301            3 
 3644000   0.65932272    -8.594158    583.31483  0.013339618  0.012432812            6 
 3645000   0.67263725   -8.6052494    582.57373  0.013319015  0.012428318            5 
 3646000   0.65662475   -8.5979798    582.89553  0.013322717  0.012423826            1 
 3647000   0.64846835   -8.5909419    582.14751  0.013301972  0.012419329            1 
 3648000   0.65974588   -8.5780938    583.79388  0.013335935  0.012414839            3 
 3649000    0.6603833   -8.6278286    583.40308  0.013323355   0.01241035            3 
 3650000     0.664956   -8.6088878    583.58304  0.013323814  0.012405863            2 
 3651000   0.66079943   -8.5652997    583.07663  0.013308606  0.012401372            2 
 3652000   0.65886506   -8.5993803    582.15351  0.013283897  0.012396887            3 
 3653000    0.6779719    -8.615315     583.2548  0.013305384  0.012392395            4 
 3654000   0.64733241   -8.5961013    583.54969  0.013308468  0.012387904            1 
 3655000   0.67140226   -8.6392336    581.10129  0.013249003   0.01238341            1 
 3656000   0.69091668   -8.6102374    582.70967   0.01328204  0.012378923            1 
 3657000   0.66621391   -8.6264335    582.55977  0.013274992  0.012374442            1 
 3658000   0.67731822    -8.597504    583.00296   0.01328146  0.012369963            1 
 3659000   0.66119286   -8.6011782    582.21934  0.013259983  0.012365487            1 
 3660000   0.68175251   -8.6060179    581.78279   0.01324642  0.012361009            1 
 3661000   0.67505295   -8.6184054    582.43357  0.013257616  0.012356531            3 
 3662000   0.66328224   -8.6301009    582.78713  0.013262041  0.012352044            2 
 3663000   0.66427807   -8.6304418     582.6683  0.013255717  0.012347564            1 
 3664000   0.65558477   -8.6249562    582.82997  0.013255776  0.012343092            3 
 3665000   0.66257891   -8.6086263    582.17185  0.013237195  0.012338609            2 
 3666000   0.67072404   -8.6071828    582.76326  0.013247028  0.012334138            2 
 3667000   0.65094635   -8.6213076    582.49164  0.013237243  0.012329665            2 
 3668000   0.65376698   -8.6142692    581.95263  0.013221388  0.012325185            3 
 3669000   0.66462273   -8.6067625    582.94622  0.013240352  0.012320711            2 
 3670000   0.66135559   -8.6049374    581.85657  0.013212002  0.012316237            3 
 3671000   0.67735698   -8.5854166    582.06095  0.013213042  0.012311763            1 
 3672000   0.67473832    -8.633086    582.67628  0.013223409   0.01230729            3 
 3673000   0.67982564   -8.6437606    582.83468  0.013223402  0.012302823            1 
 3674000   0.65189425   -8.6198791    582.41409  0.013210263  0.012298353            3 
 3675000   0.66560753    -8.613075    582.47924  0.013208146  0.012293885            2 
 3676000   0.65772801   -8.6370821    580.89521  0.013168644  0.012289417            2 
 3677000   0.65189542   -8.6130716    581.97186  0.013189463  0.012284947            2 
 3678000    0.6703077   -8.6030759     581.0039  0.013163946  0.012280486            2 
 3679000   0.67284452   -8.6264277    581.65714  0.013175164  0.012276022            2 
 3680000   0.67048084   -8.6164798    582.69657  0.013195122  0.012271561            2 
 3681000   0.67247403     -8.61733    581.40861  0.013162379  0.012267099            5 
 3682000   0.66517934   -8.6119447    582.74332  0.013189012  0.012262636            2 
 3683000   0.67660677   -8.6256564    581.72001  0.013162277   0.01225817            3 
 3684000   0.65583532   -8.6364317    582.44564  0.013175118  0.012253705            3 
 3685000   0.67802762   -8.6232888    582.93267  0.013182557  0.012249235            3 
 3686000    0.6662509   -8.6353745    581.13847  0.013138417  0.012244776            2 
 3687000   0.66088047   -8.6260672    581.48833  0.013142761  0.012240319            3 
 3688000   0.66134468   -8.6458229    581.23879  0.013133559  0.012235865            6 
 3689000   0.65174727   -8.6463741    582.78301  0.013164882  0.012231399            3 
 3690000   0.66300845   -8.6297768    581.01047  0.013121284  0.012226944            2 
 3691000    0.6648161    -8.643352    581.48185  0.013128372  0.012222488            3 
 3692000   0.66822728   -8.6267715     581.9168  0.013134634  0.012218033            2 
 3693000   0.67346216   -8.6469439    581.38743  0.013119131  0.012213583            2 
 3694000    0.6665969   -8.6526315    580.88343   0.01310421  0.012209138            3 
 3695000   0.66722676   -8.6306979    580.71637  0.013096896  0.012204684            2 
 3696000     0.674566   -8.6225652     581.2581  0.013105567   0.01220024            3 
 3697000   0.66071707   -8.6389529    581.28733  0.013102681    0.0121958            2 
 3698000   0.65637165   -8.6101762    580.75406  0.013087121  0.012191364            4 
 3699000   0.65003754   -8.6215933    582.82544  0.013130248  0.012186934            2 
 3700000   0.65589695     -8.61948    581.75428  0.013102574  0.012182496            1 
 3701000   0.65681018   -8.6387205    580.44602  0.013069576  0.012178057            2 
 3702000   0.66679448   -8.6349193    581.85744  0.013097817  0.012173626            3 
 3703000   0.68764753   -8.6209873    581.62669  0.013089087  0.012169194            4 
 3704000   0.66573246   -8.6512628    581.54444  0.013083703   0.01216476            1 
 3705000   0.65240531   -8.6172322      582.493  0.013101507  0.012160329            2 
 3706000   0.66512562   -8.6379512    581.49802  0.013075598  0.012155905            3 
 3707000   0.64993039   -8.6378736    581.75171  0.013077774  0.012151487            4 
 3708000   0.65653988   -8.6390836    582.38917  0.013088574  0.012147066            3 
 3709000   0.65476502   -8.6057812    582.20061  0.013080808  0.012142649            1 
 3710000   0.66928031   -8.6120447    581.89616  0.013070444  0.012138238            5 
 3711000   0.66048793   -8.6287065    581.73852  0.013063382  0.012133832            3 
 3712000   0.65282124   -8.6189466    582.01074  0.013065974  0.012129423            1 
 3713000   0.65096365   -8.6257561    581.84918  0.013058829  0.012125024            3 
 3714000   0.67308597    -8.611566    582.32929  0.013066085  0.012120622            2 
 3715000   0.64387148   -8.6267172    582.76949  0.013072443  0.012116224            5 
 3716000   0.67495025   -8.6266991    581.82997  0.013047855  0.012111832            2 
 3717000   0.65231659   -8.6454836    581.69752  0.013041376  0.012107437            3 
 3718000   0.66489633   -8.6356294    582.28688  0.013051078  0.012103042            3 
 3719000   0.64545435   -8.6198022    581.69627  0.013034334  0.012098654            2 
 3720000   0.65678699   -8.6371694    581.14854   0.01301856  0.012094256            2 
 3721000   0.63779201   -8.6162326    581.48698  0.013022641  0.012089865            5 
 3722000   0.65798864    -8.635965    582.09053  0.013032656  0.012085476            4 
 3723000   0.66281364   -8.6243954    582.61029  0.013040789  0.012081092            2 
 3724000   0.65652133   -8.6409322    582.78896  0.013041285  0.012076704            3 
 3725000   0.66445729   -8.6488668    581.36847  0.013006006  0.012072323            4 
 3726000   0.64054556    -8.628964     582.7616  0.013033673  0.012067945            3 
 3727000   0.65990256   -8.6317688    581.58386  0.013003843  0.012063577            2 
 3728000   0.64809822   -8.6289492    581.82429  0.013005729  0.012059197            2 
 3729000   0.64670755   -8.6260015    581.87434   0.01300336  0.012054823            4 
 3730000   0.64635348   -8.6354708    582.28961  0.013009151  0.012050451            3 
 3731000   0.64587301   -8.6235724    582.56472  0.013011809  0.012046082            6 
 3732000   0.65142699   -8.6297052    581.69743  0.012988956  0.012041708            2 
 3733000   0.65426929    -8.623732    583.36371  0.013022674   0.01203734            5 
 3734000   0.64802777   -8.6439372     581.6486   0.01298091  0.012032969            3 
 3735000   0.65163855   -8.6527667     581.5354  0.012974909  0.012028599            3 
 3736000   0.65095846   -8.6330841    581.69593  0.012975016  0.012024228            3 
 3737000   0.65641237    -8.635036    581.38396  0.012964587  0.012019861            5 
 3738000   0.64880968   -8.6545636    582.31662  0.012981911  0.012015496            1 
 3739000   0.66111821   -8.6551726    581.72918  0.012965347  0.012011128            3 
 3740000   0.64498435   -8.6315437    580.83954  0.012942058  0.012006769            2 
 3741000   0.63409921   -8.6399721    581.89293  0.012962063  0.012002416            2 
 3742000   0.66013152   -8.6542768    580.83035  0.012934936  0.011998057            3 
 3743000   0.66209171    -8.627306    582.42743  0.012967037  0.011993702            5 
 3744000   0.65728417   -8.6433943    581.03196  0.012932513   0.01198934            3 
 3745000   0.66609457   -8.6411848    581.84684  0.012947193  0.011984983            4 
 3746000   0.65751592   -8.6437815    581.25209  0.012930506  0.011980627            2 
 3747000   0.65719186   -8.6408577    581.08118  0.012923254  0.011976269            3 
 3748000   0.63327408   -8.6572641    581.85951  0.012937111  0.011971914            3 
 3749000   0.66429442   -8.6462157    581.41558  0.012923793  0.011967563            4 
 3750000   0.66197488   -8.6380344    581.32102  0.012918245  0.011963215            3 
 3751000   0.66222499   -8.6484007    581.06266  0.012909061  0.011958874            2 
 3752000   0.65004665   -8.6484978     581.7489  0.012920862  0.011954532            5 
 3753000   0.64608027   -8.6200836    582.47253  0.012933487  0.011950192            4 
 3754000   0.64841191   -8.6907598    581.09384  0.012899437  0.011945851            2 
 3755000   0.66897383   -8.6242847    581.65489  0.012908453  0.011941512            2 
 3756000   0.64947156     -8.64753    582.15154  0.012916035  0.011937171            5 
 3757000   0.64946325    -8.642488    580.54734  0.012877015  0.011932828            2 
 3758000   0.65518878   -8.6495001    580.89114  0.012881212  0.011928492            3 
 3759000   0.65016944   -8.6445218    581.77513  0.012897382  0.011924162            2 
 3760000   0.64798725   -8.6195799    581.15765  0.012880267  0.011919837            2 
 3761000   0.64441708    -8.655252    581.64856   0.01288772  0.011915513            2 
 3762000   0.65622514   -8.6397783    582.08008  0.012893852  0.011911194            3 
 3763000   0.66055738   -8.6360615    581.61676  0.012880166  0.011906878            2 
 3764000   0.63486323    -8.606904    581.57997  0.012875929   0.01190256            2 
 3765000   0.66064796    -8.654185    582.68116  0.012896883  0.011898238            2 
 3766000   0.63691471   -8.6201228    582.05587  0.012879622  0.011893918            3 
 3767000   0.65630783   -8.6477758    580.84524  0.012849421  0.011889594            2 
 3768000   0.65908683   -8.6460717    580.83635  0.012845814   0.01188528            2 
 3769000   0.64741155   -8.6426427    582.15437  0.012871548  0.011880958            3 
 3770000   0.66546016   -8.6351943    581.09918  0.012844809  0.011876645            5 
 3771000   0.63179765   -8.6335605    581.70454  0.012854781  0.011872336            2 
 3772000   0.64913067    -8.661059    581.37317  0.012844052  0.011868027            3 
 3773000   0.64159246   -8.6567891    581.53805  0.012844289  0.011863716            1 
 3774000   0.65121979   -8.6523619    581.34771  0.012836683  0.011859397            2 
 3775000    0.6409244   -8.6501316    581.42148  0.012834911  0.011855088            1 
 3776000   0.65674089   -8.6743591     582.0039  0.012844366  0.011850774            4 
 3777000   0.64709276   -8.6432139    581.80819  0.012836647  0.011846461            3 
 3778000   0.64602655   -8.6426532    582.02482  0.012838028  0.011842149            4 
 3779000   0.64508401   -8.6867541    581.38884  0.012820606   0.01183784            4 
 3780000   0.65124316   -8.6431875    581.10177  0.012810886  0.011833527            2 
 3781000   0.65637152    -8.648931    581.31508  0.012812199  0.011829222            1 
 3782000    0.6518494   -8.6532673    581.46571   0.01281213  0.011824925            2 
 3783000   0.64208896    -8.652209    581.43395  0.012808044  0.011820625            2 
 3784000    0.6507372     -8.67393    581.00339  0.012795177  0.011816326            4 
 3785000   0.64738392   -8.6686795    581.12511  0.012794476  0.011812021            3 
 3786000   0.64528896   -8.6447046    581.32098  0.012795408  0.011807721            3 
 3787000   0.65151526   -8.6651997    581.28743  0.012791291  0.011803431            2 
 3788000   0.64224221   -8.6573423    581.73113  0.012797675  0.011799136            2 
 3789000   0.66352309     -8.67855    581.60471  0.012791517  0.011794847            2 
 3790000   0.63589079   -8.6473443    580.51209  0.012764118  0.011790555            2 
 3791000   0.63948612   -8.6724262    581.50876   0.01278266  0.011786264            1 
 3792000    0.6482596     -8.66888    582.03753  0.012790909  0.011781981            2 
 3793000   0.62753967   -8.6704902    581.57826  0.012777447  0.011777697            2 
 3794000   0.64240509   -8.6745784    583.09557  0.012807406  0.011773417            2 
 3795000    0.6481315   -8.6795887    581.43368  0.012767538  0.011769143            4 
 3796000   0.62986612   -8.6731323    581.31106  0.012761483  0.011764864            2 
 3797000   0.64471487   -8.6566157    580.66359  0.012743912  0.011760599            2 
 3798000   0.65132685   -8.6680682    582.32547   0.01277702  0.011756326            2 
 3799000   0.64839371    -8.672763    580.46251  0.012732792  0.011752055            6 
 3800000   0.62724124   -8.6624763     581.8102  0.012758996  0.011747788            2 
 3801000   0.64041936   -8.6816037    581.25803  0.012743533  0.011743521            3 
 3802000    0.6361471   -8.6927904    580.04189  0.012713526  0.011739249            2 
 3803000   0.64291617   -8.6618475    580.21852  0.012714053  0.011734986            2 
 3804000   0.62901829   -8.6541705    581.04685  0.012728857  0.011730726            2 
 3805000   0.64321031   -8.6551498    581.04271  0.012725421   0.01172646            3 
 3806000   0.64808328   -8.6555622    581.51088  0.012732328  0.011722203            3 
 3807000   0.62889101   -8.6490953    580.99751  0.012717746  0.011717944            4 
 3808000   0.65578637   -8.6640468    581.26926  0.012720353  0.011713689            3 
 3809000   0.64660539   -8.6657936    580.96189  0.012710289  0.011709427            1 
 3810000    0.6281716   -8.6515733    581.66474  0.012722326  0.011705176            1 
 3811000   0.63934167   -8.6717483    580.93452   0.01270302  0.011700923            1 
 3812000   0.64325281   -8.6508586    580.65464  0.012693569  0.011696662            3 
 3813000   0.64097455   -8.6572689    581.33868   0.01270519  0.011692403            3 
 3814000   0.62462261   -8.6814251    580.25712  0.012678228  0.011688146            6 
 3815000   0.62966638   -8.6833907    581.21067  0.012695733  0.011683889            3 
 3816000   0.63261575    -8.657479    581.10714  0.012690145  0.011679637            6 
 3817000   0.65375304   -8.6660881    581.60045  0.012697591  0.011675392            2 
 3818000   0.64558386   -8.6882322    581.50948   0.01269228  0.011671148            1 
 3819000   0.64308526   -8.6743961    581.47676  0.012688242  0.011666901            2 
 3820000   0.64289509   -8.6677577    581.21821   0.01267928  0.011662658            2 
 3821000   0.64387369   -8.6604647    581.19812  0.012675524  0.011658416            3 
 3822000   0.64393708   -8.6738106    580.84719  0.012664556  0.011654174            2 
 3823000   0.63999877   -8.6645927     581.3769   0.01267279  0.011649933            1 
 3824000    0.6346055   -8.6752126    581.30477  0.012667904  0.011645695            1 
 3825000   0.64258155   -8.6785026    580.26108  0.012641854  0.011641456            3 
 3826000   0.65622079    -8.671589    581.31669  0.012661541  0.011637222            3 
 3827000   0.63936677   -8.6840103    580.49225  0.012640281  0.011632991            4 
 3828000   0.64220535   -8.6526791    581.39371  0.012656603  0.011628759            3 
 3829000   0.63216421   -8.6792878    579.89252  0.012620626  0.011624529            2 
 3830000    0.6537548   -8.6818262    580.38057   0.01262795  0.011620299            2 
 3831000    0.6329108   -8.6656529     581.7763  0.012655014  0.011616073            7 
 3832000   0.63736483   -8.6972544    581.05929  0.012636119  0.011611855            5 
 3833000   0.64182191   -8.6845261    580.56272  0.012622026  0.011607633            3 
 3834000   0.63836143   -8.7037606    580.94898   0.01262713  0.011603407            2 
 3835000   0.64077035   -8.6892821    580.80253  0.012620655  0.011599178            1 
 3836000   0.64506007   -8.6804119    581.73174  0.012637551  0.011594959            4 
 3837000   0.66380396   -8.6791942    581.06837   0.01261985   0.01159074            3 
 3838000    0.6337081   -8.6732935    580.90153  0.012612939  0.011586526            2 
 3839000   0.63072953   -8.6923334    579.83047  0.012586404  0.011582317            4 
 3840000   0.64368917   -8.6832946    581.72901  0.012624328  0.011578112            2 
 3841000   0.63089845   -8.6850661    581.44567  0.012614894  0.011573903            4 
 3842000   0.62809378   -8.6728598    581.90163    0.0126215    0.0115697            2 
 3843000   0.63393052    -8.685324    581.43843  0.012608171  0.011565495            5 
 3844000   0.64608895   -8.6784207     580.6147  0.012587034  0.011561292            5 
 3845000   0.64764207   -8.6739692    581.83947  0.012610305  0.011557096            5 
 3846000   0.64366085   -8.6937161    580.43713  0.012576641  0.011552896           11 
 3847000   0.63780501   -8.6825355    581.09643  0.012587653  0.011548693            4 
 3848000   0.63361048   -8.6866516    581.26578   0.01258805  0.011544495            2 
 3849000   0.64966857   -8.6636021    581.34732  0.012586544  0.011540299            3 
 3850000   0.63110387   -8.7031448    579.86872  0.012551271  0.011536106            5 
 3851000   0.62861816   -8.6768158    581.01223  0.012572757  0.011531903            2 
 3852000   0.62605616   -8.6747471    581.80751  0.012586697  0.011527705            3 
 3853000   0.63084045   -8.6740416    581.03621  0.012566749  0.011523515            2 
 3854000   0.63862246   -8.7006204    580.17679  0.012544905  0.011519325            4 
 3855000   0.62736105   -8.6777097    580.87659  0.012556779  0.011515134            4 
 3856000   0.63238383   -8.6712902    580.91728  0.012554402  0.011510954            1 
 3857000   0.62730692   -8.6922509     580.3202  0.012538247  0.011506768            3 
 3858000   0.62584151   -8.6839326    580.29345  0.012534419  0.011502584            1 
 3859000   0.64619853   -8.6799591    580.26035  0.012530456  0.011498406            3 
 3860000   0.63564765   -8.6972492     579.3147  0.012506794   0.01149422            4 
 3861000   0.64011296   -8.6985215    580.43088  0.012527646  0.011490037            2 
 3862000   0.64631253   -8.6697123    580.49208  0.012525722  0.011485856            6 
 3863000   0.63333073   -8.6825278    580.49718   0.01252259  0.011481681            3 
 3864000   0.62869728   -8.7036859    580.49729  0.012519352  0.011477508            2 
 3865000   0.64382519   -8.7083996    580.40896  0.012514208  0.011473333            3 
 3866000   0.64513232   -8.6850641    580.78539  0.012519085  0.011469158            3 
 3867000   0.61923211   -8.6852684    580.12842   0.01250169  0.011464989            3 
 3868000   0.64849053   -8.6752221    580.33749  0.012502962   0.01146082            7 
 3869000   0.64039153   -8.6885099    580.54613  0.012504224  0.011456656            3 
 3870000   0.63567489    -8.708574    580.47769   0.01249952  0.011452499            1 
 3871000    0.6399874   -8.7031217    579.86285  0.012483055  0.011448334            3 
 3872000   0.63154125   -8.6982301    581.39385  0.012512781  0.011444185            1 
 3873000   0.62689949    -8.676607    580.75249   0.01249575  0.011440026            2 
 3874000   0.63207776   -8.7081586    580.18659  0.012480352  0.011435865            1 
 3875000   0.63454777   -8.6941878    579.48512  0.012462046  0.011431701            5 
 3876000   0.63485285   -8.7061725    579.94599  0.012468739  0.011427541            2 
 3877000   0.63009664   -8.7078345    581.26413  0.012493855  0.011423378            5 
 3878000   0.63290404   -8.6885175    580.54118  0.012475099  0.011419222            2 
 3879000   0.62313768   -8.7235531    580.33273  0.012467404  0.011415066            4 
 3880000   0.62337698   -8.6849786    579.18818  0.012439609  0.011410911            3 
 3881000   0.62719432   -8.6966357    580.97197  0.012474705  0.011406757            2 
 3882000    0.6242203   -8.6957444    580.06563  0.012452036  0.011402611            2 
 3883000   0.65268214   -8.7128345    580.30546  0.012453976  0.011398462            2 
 3884000   0.62363455    -8.692495    579.98145  0.012443818  0.011394312            2 
 3885000   0.63744173   -8.7185489    580.28096  0.012447039  0.011390165            3 
 3886000   0.63159536   -8.7101187    580.64682  0.012451682  0.011386023            2 
 3887000   0.61929707   -8.7075917    579.01383  0.012413469  0.011381879            3 
 3888000    0.6224819   -8.6969857    578.90289  0.012407898  0.011377729            2 
 3889000   0.63683982    -8.686978     580.5657  0.012440338  0.011373587            4 
 3890000   0.62872772   -8.6996522     579.5417  0.012415204  0.011369452            4 
 3891000   0.63347078   -8.6860241    580.43565  0.012431158  0.011365319            3 
 3892000   0.63288739   -8.7019486    581.13223  0.012442879  0.011361179            1 
 3893000   0.62051876   -8.6998377    580.42487  0.012424541  0.011357043            3 
 3894000   0.63321184   -8.7160176    580.25778  0.012417775  0.011352913            3 
 3895000   0.62683125   -8.7051607    579.42296  0.012396726  0.011348779            2 
 3896000   0.64314869   -8.7105046    579.81094  0.012401842  0.011344645            1 
 3897000   0.62859494    -8.694892    579.79299  0.012398276  0.011340513            2 
 3898000   0.63895091   -8.7234112    579.23233   0.01238311   0.01133638            1 
 3899000   0.63621284   -8.7096887    580.38741  0.012404621  0.011332256            3 
 3900000   0.64454963   -8.7066637    579.13377  0.012374653  0.011328124            3 
 3901000    0.6250625   -8.7117549    580.09841  0.012392088  0.011323999            6 
 3902000   0.63309137   -8.7059282    580.87735  0.012405547  0.011319873            4 
 3903000   0.63187239   -8.7075497    580.66669  0.012397871   0.01131575            3 
 3904000   0.61468879   -8.6880312     580.2447  0.012385688  0.011311623            2 
 3905000   0.63029016   -8.7398063    579.49564  0.012366531  0.011307505            2 
 3906000   0.63817479   -8.7209654    579.45427  0.012362482  0.011303384            4 
 3907000    0.6232087   -8.6910392    579.21222  0.012354155  0.011299273            5 
 3908000   0.63031447   -8.7034987    580.41346  0.012376609  0.011295161            4 
 3909000   0.63156381   -8.7011269    579.83191  0.012361045  0.011291051            4 
 3910000   0.60950695   -8.6988207    579.75879  0.012356326  0.011286939            5 
 3911000   0.63440224   -8.7024995    579.88623  0.012355882  0.011282831            7 
 3912000   0.61418035    -8.700288    580.33688  0.012362323  0.011278723           12 
 3913000   0.63137248    -8.712047    580.62767  0.012365356  0.011274613            4 
 3914000   0.61980006   -8.6898471    579.36181  0.012335246  0.011270504           12 
 3915000   0.63103626   -8.6886655    579.38155  0.012332515  0.011266399            7 
 3916000    0.6225878   -8.6812485    579.93836  0.012341215  0.011262297            3 
 3917000   0.63351882   -8.6959144    579.42293  0.012327098  0.011258192            6 
 3918000   0.60756774    -8.732732    578.97865  0.012314502  0.011254092            3 
 3919000   0.62432091   -8.6853007    579.13449  0.012314674   0.01124999            3 
 3920000   0.61841787   -8.6965581    579.24588    0.0123139  0.011245895            3 
 3921000   0.63740265    -8.685774    579.87216   0.01232407  0.011241801            3 
 3922000     0.625634    -8.697315    579.03277  0.012303093  0.011237706            4 
 3923000   0.61569253   -8.6901999    579.83913  0.012317086  0.011233606            1 
 3924000    0.6035701   -8.6896858    580.87059  0.012335852  0.011229518            2 
 3925000   0.61943721   -8.7289035    578.92685  0.012291441  0.011225424            2 
 3926000   0.61675333   -8.7184648    580.21091  0.012315565  0.011221334            6 
 3927000   0.63838477   -8.7417792    579.13414  0.012289579  0.011217239            6 
 3928000   0.62138013   -8.7209517    579.10531  0.012285839  0.011213145            2 
 3929000   0.62517149   -8.7116705     579.4985  0.012291052  0.011209055            3 
 3930000   0.61512637   -8.7158223    579.33001  0.012284351  0.011204966            5 
 3931000   0.61967829   -8.7253686    580.39114  0.012303721  0.011200879            3 
 3932000   0.61923665   -8.7217298    579.16772  0.012274664  0.011196797            4 
 3933000   0.61860743   -8.7100783    579.76736  0.012284248  0.011192718            7 
 3934000   0.61123387   -8.7111424    579.53528  0.012276209   0.01118864            6 
 3935000   0.61207674   -8.7043385    579.37664   0.01226973  0.011184558            9 
 3936000   0.61075123   -8.7125311    578.85575  0.012255584  0.011180482            4 
 3937000   0.61818445    -8.705308    579.94419   0.01227551   0.01117641            4 
 3938000   0.61607091   -8.7232228    579.38455   0.01226055  0.011172335            3 
 3939000   0.61246551   -8.7204207    578.97246  0.012248719  0.011168266            5 
 3940000   0.62143144   -8.7147102    579.20779  0.012250588  0.011164202            4 
 3941000   0.61993699    -8.714181    580.00795  0.012264399  0.011160134            8 
 3942000   0.62307362   -8.7182526    579.47177  0.012249953  0.011156072            2 
 3943000   0.62814457   -8.7171136     579.4104  0.012245549  0.011152007            4 
 3944000   0.62147641   -8.7219351    578.90541  0.012231774  0.011147954            2 
 3945000   0.63284435   -8.7162465    579.77707  0.012247086   0.01114389            2 
 3946000   0.62582073   -8.7183596    579.95644  0.012247771   0.01113983            2 
 3947000   0.63410487    -8.705054    578.71569  0.012218472  0.011135779            2 
 3948000   0.61507533   -8.7166041    579.41287  0.012230093  0.011131727            2 
 3949000   0.61817016   -8.7145016    579.41256  0.012226989  0.011127674            2 
 3950000   0.61960374   -8.7241623    579.53418  0.012226459  0.011123624            4 
 3951000   0.61566841    -8.711037     578.1391   0.01219394   0.01111957            7 
 3952000   0.63376714   -8.7172366    579.65996  0.012222924  0.011115518            8 
 3953000   0.60794852   -8.7144685    579.53181  0.012217131   0.01111147            6 
 3954000   0.62540709   -8.7039375    579.32472  0.012209676  0.011107423            3 
 3955000   0.62222382    -8.727551     579.8685  0.012218047  0.011103378            5 
 3956000   0.62067742   -8.7162329    579.91551  0.012215949  0.011099334            4 
 3957000   0.62706449   -8.7384689    580.27398  0.012220411  0.011095294            2 
 3958000   0.62858542   -8.7443257    578.48968  0.012179756  0.011091243            2 
 3959000   0.62510854   -8.7029469    578.83872  0.012184026  0.011087203            4 
 3960000    0.6246941   -8.7212095    578.91081  0.012182467  0.011083165            2 
 3961000   0.62958997   -8.7355217    579.10462  0.012183468  0.011079124            3 
 3962000   0.62018143   -8.7199017    578.13447  0.012159988  0.011075086            1 
 3963000   0.61694619   -8.7029965    578.99563  0.012175028  0.011071049            2 
 3964000   0.62315982   -8.7175988    578.98741  0.012171784  0.011067016            2 
 3965000   0.62404572     -8.71694     578.9695  0.012168338  0.011062979            2 
 3966000   0.62042959   -8.7362906    579.20024  0.012170118  0.011058942            2 
 3967000   0.62059588   -8.7336033    579.18426  0.012166714  0.011054911            2 
 3968000   0.60763691   -8.7239355    578.19295  0.012142829  0.011050881            3 
 3969000   0.62117355   -8.7256626    579.09014  0.012158607  0.011046853            3 
 3970000   0.62439451   -8.7227394    578.18274  0.012136497  0.011042822            5 
 3971000   0.63950102   -8.7404399    578.69367  0.012144163  0.011038799            3 
 3972000   0.60866714   -8.7388323    577.76119  0.012121542  0.011034774            3 
 3973000   0.62920569    -8.742887    578.12951  0.012126217  0.011030752            4 
 3974000   0.61558001   -8.7291057    578.82897  0.012137833  0.011026729            2 
 3975000   0.62685575   -8.7264905    577.98385  0.012117062  0.011022705            3 
 3976000   0.60375096   -8.7226951    579.20668  0.012139644   0.01101868            4 
 3977000   0.59780013   -8.7266776    578.83746  0.012128855  0.011014663            2 
 3978000   0.59329097   -8.7306648     578.8262   0.01212557  0.011010651            1 
 3979000   0.60984361    -8.734624     578.9485  0.012125084  0.011006635            3 
 3980000   0.62615804   -8.7271444    578.32097  0.012108898  0.011002621            2 
 3981000   0.61074526   -8.7310601    579.02934  0.012120684  0.010998605            2 
 3982000   0.61860824   -8.7420091    578.78924  0.012112616  0.010994593            3 
 3983000   0.61320431   -8.7449458    580.00555  0.012135023  0.010990587            3 
 3984000   0.61649456   -8.7191824    578.13551  0.012092861  0.010986584            5 
 3985000   0.61373756   -8.7277964     578.7797  0.012103298  0.010982582            3 
 3986000   0.61429671   -8.7445879    577.93714  0.012082646  0.010978578            5 
 3987000   0.60725806   -8.7476604    578.38257  0.012088926   0.01097457            4 
 3988000   0.62100463   -8.7531342    579.23877  0.012103786   0.01097057            5 
 3989000   0.60821673   -8.7521253    579.09707  0.012097791  0.010966571            5 
 3990000   0.59662443   -8.7418034    578.74142  0.012087331  0.010962573            2 
 3991000   0.59525066   -8.7415135    578.96727  0.012089018  0.010958579            4 
 3992000   0.60404408   -8.7365848    579.26728  0.012092253  0.010954586            6 
 3993000   0.60694913   -8.7195143    579.41637  0.012092336  0.010950599            3 
 3994000   0.62322903   -8.7412018    577.32781  0.012045731   0.01094661            2 
 3995000   0.61879135   -8.7237269    578.89849   0.01207548  0.010942622            2 
 3996000   0.61489498   -8.7428805    579.52611  0.012085546   0.01093864            5 
 3997000   0.61191752    -8.743388    578.91266  0.012069733  0.010934659            3 
 3998000   0.61208504   -8.7343753     578.5455  0.012059061  0.010930677            7 
 3999000   0.60951186   -8.7382621    578.33087  0.012051573   0.01092669            5 
 4000000   0.62342508   -8.7435615    577.93226  0.012040255  0.010922708            5 
 4001000    0.6212765   -8.7316497    578.94448  0.012058329  0.010918731            6 
 4002000   0.61348896   -8.7450575    578.26771  0.012041223  0.010914757            5 
 4003000   0.60919297   -8.7341054    579.46885   0.01206322  0.010910783            1 
 4004000   0.60798371   -8.7499938    577.76635  0.012024774   0.01090681            4 
 4005000   0.61199807   -8.7591687    578.84624  0.012044241  0.010902842            2 
 4006000   0.60612131   -8.7248398    579.13651  0.012047273  0.010898871            4 
 4007000   0.61465686   -8.7236062    579.10014   0.01204351  0.010894906            1 
 4008000   0.59552979   -8.7390593    578.59584   0.01203002  0.010890942            3 
 4009000   0.61339585    -8.729755    580.00655  0.012056343  0.010886985            3 
 4010000    0.6115874   -8.7334976    578.71834  0.012026566  0.010883031            3 
 4011000   0.61128446   -8.7297857    579.54093  0.012040658  0.010879075            6 
 4012000   0.60900266   -8.7499404    578.58968  0.012017898  0.010875117            3 
 4013000   0.60769092    -8.750683    578.74135  0.012018053  0.010871161            2 
 4014000   0.60847381   -8.7399529    577.66315  0.011992675  0.010867206            3 
 4015000   0.61431209   -8.7437255    579.04738  0.012018418  0.010863253            2 
 4016000   0.60656867   -8.7125547    578.42252  0.012002459  0.010859304            2 
 4017000   0.62407206    -8.730165     578.5043  0.012001168  0.010855361            3 
 4018000     0.602058    -8.736324     579.2393  0.012013425  0.010851425            2 
 4019000    0.6284603   -8.7274058     579.3467  0.012012663  0.010847488            3 
 4020000   0.59524771   -8.7436116    578.29584   0.01198789  0.010843551            2 
 4021000   0.61623524   -8.7335134    579.06481  0.012000846  0.010839616            2 
 4022000   0.60894129   -8.7281692    579.15839  0.011999801  0.010835681            2 
 4023000   0.60470535   -8.7315429    579.73558  0.012008774  0.010831748            4 
 4024000   0.61200457   -8.7318926    578.45529  0.011979276  0.010827814            2 
 4025000   0.60898954   -8.7431456    579.02734  0.011988144  0.010823879            4 
 4026000   0.60128926   -8.7385693     578.4881  0.011974004  0.010819954            1 
 4027000   0.61930945    -8.740782    578.15171   0.01196407  0.010816019            4 
 4028000   0.62387024    -8.730593    579.47836  0.011988546  0.010812093            2 
 4029000    0.6214515   -8.7427043    579.19648   0.01197974  0.010808169            1 
 4030000   0.60799311   -8.7435707    578.14393  0.011955003  0.010804243            3 
 4031000   0.61237813   -8.7346936    579.80168  0.011986308  0.010800318            4 
 4032000   0.60080509   -8.7512352    579.45686  0.011976208  0.010796392            3 
 4033000   0.61706645   -8.7604179    578.32429  0.011949837  0.010792467            2 
 4034000   0.59953184   -8.7414064    578.56201  0.011951785   0.01078854            2 
 4035000    0.6047882   -8.7407895    577.34315   0.01192365  0.010784617            3 
 4036000   0.61457367    -8.735282    577.49903  0.011923914  0.010780689            5 
 4037000   0.61473703   -8.7532074    578.10295  0.011933427  0.010776768            5 
 4038000   0.60990148   -8.7640913    578.75266   0.01194388  0.010772845            3 
 4039000   0.60531087   -8.7440565     579.4823  0.011955977  0.010768929            4 
 4040000   0.61504003   -8.7595679    578.56582  0.011934113  0.010765007            6 
 4041000   0.62332029   -8.7521918    579.37474  0.011947842  0.010761089            5 
 4042000   0.59441238    -8.747963    578.75726  0.011932155  0.010757178            2 
 4043000   0.61005385   -8.7672245    578.95396  0.011933258  0.010753268            2 
 4044000   0.60113043    -8.749535    577.42653  0.011898832  0.010749361            3 
 4045000   0.59451325   -8.7600392    578.67259  0.011921561  0.010745449            3 
 4046000   0.59530439   -8.7690835    578.55101  0.011916111  0.010741534            2 
 4047000   0.59922951   -8.7322313    577.94255  0.011900637   0.01073762            1 
 4048000   0.60677667   -8.7578933    578.73669  0.011914046  0.010733713            3 
 4049000   0.59865629   -8.7628509    577.24985  0.011880502  0.010729805            4 
 4050000   0.59348685   -8.7718358    578.03756  0.011893777  0.010725896            4 
 4051000    0.5960993   -8.7698143    577.72774  0.011884468  0.010721993            3 
 4052000   0.61262278   -8.7604632    578.93744  0.011906413  0.010718094            4 
 4053000   0.59157135   -8.7540329      577.881  0.011881754  0.010714196            2 
 4054000   0.61129204   -8.7576235     578.4583   0.01189069  0.010710301            2 
 4055000   0.61082774   -8.7781311     578.3476  0.011885483  0.010706409            2 
 4056000   0.60068996   -8.7495255    577.56146  0.011866401  0.010702518            2 
 4057000   0.61145615   -8.7662158    576.75191  0.011846847  0.010698627            3 
 4058000   0.60133295   -8.7571986    578.40028  0.011877778  0.010694743            2 
 4059000    0.6074532   -8.7588084     577.7844  0.011862207  0.010690859            2 
 4060000   0.60509405   -8.7445055    577.76308  0.011858848  0.010686973            2 
 4061000   0.60131679   -8.7600533    577.47424  0.011850001  0.010683086            3 
 4062000   0.60638497   -8.7621649    577.82261   0.01185423  0.010679196            2 
 4063000   0.60213032   -8.7494414    577.58573  0.011846454  0.010675317            2 
 4064000   0.60474697   -8.7515857     578.2623  0.011857413  0.010671435            2 
 4065000   0.58168328   -8.7501008    578.35091  0.011856312  0.010667556            4 
 4066000   0.61184135   -8.7570287    577.53618  0.011836698  0.010663675            2 
 4067000   0.59628486    -8.744692     578.2747   0.01184892    0.0106598            5 
 4068000   0.59995192   -8.7503142    578.07149  0.011841845   0.01065593            1 
 4069000   0.61220131    -8.757648    577.23359  0.011821774  0.010652053            2 
 4070000   0.60611764   -8.7723163    577.73274   0.01182909   0.01064818            3 
 4071000   0.60119228   -8.7369342    577.30636  0.011817456  0.010644311            3 
 4072000   0.59111665   -8.7549645    578.00207  0.011828791  0.010640443            3 
 4073000   0.59329138    -8.758068    577.83879  0.011822547   0.01063657            1 
 4074000   0.60596171   -8.7575035     578.1992  0.011827017  0.010632706            2 
 4075000     0.602011   -8.7711386    577.86693   0.01181732  0.010628845            2 
 4076000   0.61232032    -8.760548    577.97934  0.011816719  0.010624984            1 
 4077000   0.60229001   -8.7562967    577.97419  0.011813715  0.010621128            1 
 4078000   0.60570671   -8.7822229    578.10297   0.01181345  0.010617267            3 
 4079000   0.61218794   -8.7589802    578.23332  0.011813217  0.010613414            2 
 4080000   0.59612626   -8.7652604    578.25107  0.011810684  0.010609562            4 
 4081000   0.59396988   -8.7469366    577.04885   0.01178324  0.010605713            3 
 4082000   0.60757303   -8.7780058    577.77792  0.011795238  0.010601858            2 
 4083000   0.59018497   -8.7521181    577.93714  0.011795599  0.010598017            2 
 4084000   0.62357927   -8.7751827    577.20642    0.0117778  0.010594171            5 
 4085000   0.59705229   -8.7526885    577.96655  0.011790423  0.010590324            4 
 4086000    0.5809867   -8.7560211    576.79238  0.011763591  0.010586484            3 
 4087000   0.59412664   -8.7642025    577.51635  0.011775474  0.010582642            5 
 4088000   0.60282673   -8.7655355    577.45698  0.011771383  0.010578805            3 
 4089000   0.59658259   -8.7625171     577.8374  0.011776257  0.010574963            2 
 4090000   0.60882274   -8.7833508    577.15245  0.011759422   0.01057112            2 
 4091000   0.59903052    -8.765087    577.84302  0.011770615  0.010567284            1 
 4092000   0.59225653   -8.7771491    577.95291  0.011769976  0.010563448            2 
 4093000   0.58989232   -8.7674506    577.96272    0.0117673  0.010559618            2 
 4094000   0.58598813   -8.7669634    577.73222  0.011759734  0.010555787            3 
 4095000   0.61239137   -8.7762248    577.49388  0.011752012  0.010551962            3 
 4096000   0.59438454   -8.7623492    578.53093  0.011770242  0.010548134            3 
 4097000   0.60180645    -8.750151     578.4375  0.011765469  0.010544308            3 
 4098000   0.58934642    -8.780986    577.67405  0.011747073  0.010540482            3 
 4099000    0.6005752    -8.782529    577.29405  0.011736481  0.010536654            1 
 4100000   0.59978893   -8.7872262    577.30182  0.011733777  0.010532829            2 
 4101000   0.59370467   -8.7902008    578.21277  0.011749426  0.010529006            6 
 4102000   0.58819325   -8.7902613    578.14022  0.011745088  0.010525187            2 
 4103000   0.60484552   -8.7759788    579.01924  0.011760079   0.01052137            1 
 4104000   0.59600325   -8.7767586    577.57767  0.011727942  0.010517553            3 
 4105000   0.59184493   -8.7715142    578.13263  0.011736351  0.010513736            2 
 4106000    0.5986992   -8.7876564    577.76215  0.011725973  0.010509924            2 
 4107000   0.58793965   -8.7735594    576.32081  0.011693872  0.010506112            1 
 4108000   0.60762586   -8.7698524    578.00753  0.011725242  0.010502305            1 
 4109000   0.59130202   -8.7846017    578.92318  0.011740958  0.010498502            1 
 4110000   0.58958427   -8.7994878    576.85889  0.011696247  0.010494694            2 
 4111000   0.60403041   -8.7690984    579.35388  0.011743977  0.010490896            2 
 4112000   0.57522895   -8.7811504    577.11497  0.011695748  0.010487099            3 
 4113000   0.59317258   -8.7944255     577.2688  0.011696021  0.010483293            2 
 4114000   0.61120385   -8.7817217    578.21544  0.011712353  0.010479496            3 
 4115000   0.59473749   -8.7586551    578.72085  0.011719742  0.010475703            2 
 4116000   0.59959911   -8.7659748    578.07304  0.011703779   0.01047191            3 
 4117000   0.59623208   -8.7780598    577.34809  0.011686262  0.010468119            2 
 4118000   0.59624519   -8.7734577     578.1231  0.011699108  0.010464328            1 
 4119000   0.58975585    -8.784574    578.90107  0.011712007  0.010460534            2 
 4120000   0.60061298   -8.7564073    577.97028  0.011690337  0.010456745            3 
 4121000   0.59572121   -8.7858181    577.43254  0.011676627  0.010452957            3 
 4122000   0.59564134   -8.7774166    577.08991  0.011666867  0.010449172            1 
 4123000   0.59463778   -8.7827758    577.25225  0.011667318  0.010445386            2 
 4124000   0.58428912   -8.7829333    577.87719  0.011677118  0.010441607            3 
 4125000   0.58574281   -8.7704488    578.23437  0.011681502  0.010437832            2 
 4126000     0.584974   -8.7884971    577.34599  0.011660729  0.010434054            2 
 4127000   0.57787992   -8.7997408    577.62804  0.011663598  0.010430275            2 
 4128000    0.5918715   -8.7694023    577.62388  0.011660689  0.010426496            2 
 4129000   0.59545595   -8.7641519    577.71595  0.011659723  0.010422726            3 
 4130000   0.58711864   -8.8002297    577.24706  0.011647439  0.010418956            2 
 4131000   0.59728948   -8.7718139     578.3057  0.011665975  0.010415185            2 
 4132000   0.59977615   -8.7705771    577.37354  0.011644352  0.010411412            2 
 4133000   0.60260555   -8.7767774    576.85304   0.01163104  0.010407643            2 
 4134000   0.58900966   -8.7756034    577.64366  0.011644163  0.010403874            2 
 4135000   0.59410526   -8.8058268    577.40948  0.011636628  0.010400108            1 
 4136000   0.58751272   -8.7745142    577.58514  0.011637354  0.010396343            2 
 4137000   0.58254396   -8.7857369    577.78393  0.011638545  0.010392582            1 
 4138000   0.58045864   -8.7649583    577.61667  0.011632364  0.010388823            2 
 4139000   0.60174006    -8.782785    577.70021  0.011631236  0.010385066            3 
 4140000   0.59853199   -8.8002174    578.13306  0.011637139  0.010381308            2 
 4141000   0.59460373   -8.7740037    577.94995  0.011630644  0.010377553            3 
 4142000   0.58823446   -8.7835538    577.55115  0.011619812  0.010373802            3 
 4143000   0.58653453   -8.7959406     578.7016  0.011640148  0.010370051            3 
 4144000   0.58572136   -8.7796296    578.04886  0.011624213    0.0103663            3 
 4145000   0.59518361    -8.796358     577.6369  0.011613126   0.01036255            2 
 4146000   0.58990671   -8.7882905    578.37931  0.011625247  0.010358802            3 
 4147000   0.58535832   -8.7764991    577.58823  0.011606548  0.010355058            2 
 4148000   0.58165392   -8.7652693    577.62904  0.011604569  0.010351321            1 
 4149000    0.6032462   -8.7848532    575.88214  0.011566685   0.01034758            2 
 4150000   0.59025608   -8.8129777    577.00197  0.011586385  0.010343845            1 
 4151000   0.58791201   -8.8006613    577.90701  0.011601763  0.010340107            3 
 4152000   0.58593973   -8.7793695    577.12793  0.011583332   0.01033637            2 
 4153000   0.58632479   -8.8017815     577.0816  0.011579613  0.010332639            6 
 4154000   0.59487383   -8.7933099    577.27129  0.011580631  0.010328899            2 
 4155000   0.59404059   -8.7878256    577.81574  0.011588763  0.010325164            3 
 4156000    0.5900952   -8.7935852    576.71063  0.011563816  0.010321429            2 
 4157000   0.58381276   -8.8018192    578.10642  0.011589015  0.010317697            1 
 4158000   0.57767054   -8.7904056    577.05296  0.011565115  0.010313963            1 
 4159000   0.59883795   -8.8152183    576.77665  0.011556798  0.010310233            2 
 4160000    0.5854435   -8.8007491    577.53296   0.01156917  0.010306503            1 
 4161000   0.58808886     -8.78282    577.87701   0.01157328  0.010302779            3 
 4162000   0.59579555   -8.8187869    577.79303  0.011568818  0.010299057            2 
 4163000   0.58560918   -8.7860695    578.64371  0.011583067  0.010295337            3 
 4164000   0.59170864   -8.7776771    577.16487   0.01155069  0.010291617            2 
 4165000   0.58503694   -8.8133863    576.80231  0.011540662  0.010287896            2 
 4166000   0.57988465   -8.7919667    577.20359  0.011545919  0.010284176            4 
 4167000   0.57888063    -8.785295    576.67844  0.011532646   0.01028046            6 
 4168000   0.59517601   -8.8122463    577.62955  0.011548895  0.010276741            4 
 4169000   0.57366507   -8.8096343     578.4298  0.011562121  0.010273028            1 
 4170000   0.58379423   -8.7933372    577.40198  0.011538809  0.010269317            3 
 4171000   0.58026112   -8.7981559    577.26105  0.011533226  0.010265609            2 
 4172000   0.57848245   -8.8251846    576.73089  0.011519872  0.010261897            5 
 4173000   0.58135493   -8.8075677    578.25908  0.011547629  0.010258189            4 
 4174000    0.5850374   -8.8049627    576.96445  0.011519015  0.010254483            2 
 4175000   0.58372709   -8.8080282    576.88922  0.011514755  0.010250775            2 
 4176000   0.59331435   -8.8119902    577.80866  0.011530345  0.010247068            3 
 4177000   0.57691596   -8.7987417    577.48596  0.011521147  0.010243367            3 
 4178000   0.57776285   -8.7933126    576.40329  0.011496795  0.010239663            1 
 4179000   0.58004222   -8.8034028    577.27591  0.011511444  0.010235963            1 
 4180000   0.57340814    -8.782003    576.63681  0.011495949   0.01023227            3 
 4181000   0.56857387   -8.8071859    577.77726   0.01151593  0.010228572            3 
 4182000   0.58119702   -8.8126725    577.38877  0.011505435  0.010224882            2 
 4183000   0.60067277   -8.8014633     577.2442  0.011499805  0.010221188            3 
 4184000    0.5783632    -8.809021    577.24389   0.01149705  0.010217499            2 
 4185000    0.5704918   -8.8110572    577.10135  0.011491465  0.010213811            3 
 4186000   0.58423434   -8.8106273    576.76753  0.011482074  0.010210124            3 
 4187000   0.58342943   -8.8004445    577.51747  0.011494257  0.010206437            2 
 4188000   0.58428786   -8.8020511    577.61712  0.011493496  0.010202756            2 
 4189000   0.57866519   -8.8224926    577.59331  0.011490278  0.010199076            4 
 4190000   0.58458355   -8.7951929    577.01082  0.011475951  0.010195397            2 
 4191000   0.57569847   -8.8052711    576.73321  0.011467693  0.010191724            4 
 4192000   0.59117173   -8.7814899    576.83332  0.011466947  0.010188046            2 
 4193000   0.56701494   -8.8083071    577.54113   0.01147828   0.01018438            3 
 4194000   0.57560317   -8.8160345    577.05842  0.011465952  0.010180704            3 
 4195000   0.57582077   -8.8045046    576.28051  0.011447765  0.010177031            2 
 4196000   0.56533569   -8.7970377    576.76156  0.011454591  0.010173358            1 
 4197000   0.57300174   -8.7862721    578.18213  0.011480068  0.010169688            3 
 4198000   0.58105353   -8.7985268    576.32407  0.011440449  0.010166017            2 
 4199000   0.56437401   -8.7969963    577.16175  0.011454349  0.010162347            2 
 4200000   0.57818127   -8.8032387    576.90788  0.011446585  0.010158678            2 
 4201000   0.56552207   -8.8092156    576.24145  0.011430641  0.010155013            2 
 4202000   0.58788066   -8.7992674     576.9888  0.011442742   0.01015135            3 
 4203000   0.59145077   -8.7952969    577.20555  0.011444317  0.010147689            1 
 4204000   0.57986375   -8.8266535    576.57477  0.011429091  0.010144027            2 
 4205000   0.57905201   -8.8119323    577.19634  0.011438691  0.010140366            3 
 4206000   0.57502649   -8.8198731    576.26631  0.011417545  0.010136709            3 
 4207000   0.57744118   -8.8220484    576.41153  0.011417707  0.010133052            2 
 4208000   0.57553124   -8.8083687    576.37565  0.011414283  0.010129396            3 
 4209000    0.5855512   -8.8209743    576.71833  0.011418356  0.010125735            2 
 4210000   0.56942827   -8.8120119    576.90705  0.011419379  0.010122085            3 
 4211000   0.56695345   -8.8136108    576.44774  0.011407578  0.010118436            2 
 4212000   0.58407438   -8.8125577    576.62441  0.011408365  0.010114788            5 
 4213000   0.57579116   -8.7961111    577.67805  0.011426498  0.010111139            3 
 4214000   0.58418294   -8.8343828    576.19849  0.011394528  0.010107495            3 
 4215000   0.57755843    -8.827581    576.89249  0.011405546   0.01010385            2 
 4216000   0.57564766   -8.8206345    577.66164  0.011418043  0.010100208            4 
 4217000   0.57529919   -8.8180917       577.32  0.011408584  0.010096568            2 
 4218000   0.57078923   -8.8322433    575.99554  0.011379713  0.010092925            5 
 4219000   0.57026444   -8.8176612     577.1332  0.011399486  0.010089289            8 
 4220000   0.57066129   -8.8260958    577.12919  0.011396706  0.010085651            4 
 4221000   0.58337076   -8.8101182    576.97384  0.011390939  0.010082012            1 
 4222000   0.58390286   -8.8365704    576.34478  0.011375825  0.010078379            3 
 4223000   0.58075906   -8.8251039    577.19678  0.011389943  0.010074745            4 
 4224000   0.57227385   -8.8201454    576.97504  0.011382872  0.010071116            3 
 4225000   0.56492054   -8.8062177    577.39611  0.011388483  0.010067488            5 
 4226000   0.58075473   -8.8151967    576.60174  0.011370124  0.010063856            2 
 4227000   0.58181062   -8.8036357    576.21822  0.011359873   0.01006023            2 
 4228000   0.57320382   -8.8134109     577.4181  0.011380836  0.010056604            2 
 4229000   0.57541653   -8.7946788    576.98938  0.011369697  0.010052987            3 
 4230000    0.5751864   -8.8222405    576.51082  0.011357581  0.010049369            2 
 4231000    0.5694813   -8.8178655    576.30127   0.01135077  0.010045755            3 
 4232000   0.56372588   -8.8075153    576.63137  0.011354587  0.010042136            3 
 4233000   0.57054243   -8.8108291    576.72906  0.011353828   0.01003852            2 
 4234000   0.57082844   -8.7979333    577.77981  0.011371827  0.010034906            3 
 4235000   0.58632558   -8.8129985     577.1111  0.011355984  0.010031296            2 
 4236000   0.57978118   -8.8138242    576.88161  0.011348788  0.010027686            2 
 4237000    0.5650707    -8.805569    576.86834  0.011345849   0.01002408            2 
 4238000   0.57616364   -8.8223308    576.38023  0.011333574  0.010020469            3 
 4239000   0.57825302   -8.8171051    575.63348   0.01131622  0.010016866            3 
 4240000   0.57252433   -8.8113169    576.26411  0.011325945  0.010013262            3 
 4241000   0.58113846   -8.8032221    577.85388  0.011354513   0.01000966            1 
 4242000    0.5771743   -8.8315614    576.43084  0.011323881  0.010006065            6 
 4243000   0.56066587   -8.8286966     577.7416  0.011346956  0.010002468            3 
 4244000    0.5674487   -8.7972431    576.00406  0.011310165 0.0099988722            3 
 4245000   0.57630908   -8.8275602     576.8552  0.011324209 0.0099952782            3 
 4246000   0.56969365   -8.8227885    577.45835  0.011333379 0.0099916859            3 
 4247000   0.57894532   -8.8146443    576.04471  0.011302973 0.0099880916            1 
 4248000   0.56657215    -8.807905    576.40086  0.011307299 0.0099844951            1 
 4249000    0.5648211   -8.8246633    576.62895  0.011309111 0.0099809044            1 
 4250000   0.56615779   -8.8276554    578.23447  0.011337931  0.009977315            3 
 4251000   0.56326752   -8.8030243    576.56354  0.011302508 0.0099737255            3 
 4252000   0.56030204   -8.8210317    577.02392  0.011308873 0.0099701365            5 
 4253000   0.56832931   -8.8156079    576.72185  0.011300295   0.00996655            2 
 4254000   0.56830176   -8.8108715    577.58722  0.011314591 0.0099629612            2 
 4255000   0.58399796   -8.8319823    576.92129  0.011298889 0.0099593755            2 
 4256000   0.57458277   -8.8115244    576.46047  0.011287212 0.0099557933            2 
 4257000   0.57196343   -8.8198683    576.65002  0.011288271 0.0099522135            3 
 4258000   0.57280231   -8.8360762    576.37275  0.011280193 0.0099486358            4 
 4259000   0.56623717   -8.8098407    576.80061  0.011285916 0.0099450588            4 
 4260000   0.57627276   -8.8148786    576.78666  0.011282994 0.0099414873            2 
 4261000   0.57053353   -8.8165282    576.13352  0.011267573  0.009937913            3 
 4262000   0.57155847   -8.8223594    576.29475  0.011268081  0.009934341            2 
 4263000   0.58171167   -8.8215558    576.62943   0.01127198 0.0099307731            2 
 4264000   0.55596862   -8.8323273    576.44452  0.011265723 0.0099272034            2 
 4265000    0.5535172   -8.8258228    576.63336  0.011266771 0.0099236355            3 
 4266000   0.57139705   -8.8385687    576.41198  0.011259806 0.0099200692            2 
 4267000   0.57324952   -8.8188548      577.251  0.011273553 0.0099165093            5 
 4268000   0.57150509   -8.8055906    577.17053   0.01126934 0.0099129485            5 
 4269000    0.5620156   -8.8139198    577.57563  0.011274608 0.0099093895            2 
 4270000   0.56883659   -8.8198435    575.93457  0.011239941 0.0099058296            2 
 4271000   0.57301603   -8.8145251    576.46738  0.011247705 0.0099022745            4 
 4272000   0.57052803   -8.8223427    577.19477  0.011259261 0.0098987157            2 
 4273000   0.56758389   -8.8196264    576.93907  0.011251639 0.0098951634            5 
 4274000    0.5629402   -8.8281838     575.9341  0.011229412 0.0098916108            2 
 4275000   0.57345939   -8.8267336    575.37906  0.011215966 0.0098880627            3 
 4276000   0.56763862   -8.8241257    576.40372  0.011233312 0.0098845179            2 
 4277000    0.5568618   -8.8178792    576.45258  0.011231638 0.0098809734            2 
 4278000   0.56513345   -8.8202099    576.66279  0.011233107 0.0098774259            3 
 4279000   0.55552973   -8.8221734    575.73542  0.011212422 0.0098738824            5 
 4280000   0.56452046   -8.8246459    576.96374  0.011233718 0.0098703364            4 
 4281000   0.56002131   -8.8253832     575.9507  0.011211374 0.0098667912            3 
 4282000   0.56808517     -8.83904    576.51217  0.011219683 0.0098632528            3 
 4283000   0.55916289   -8.8216291    576.60178  0.011218807 0.0098597125            3 
 4284000   0.56577914   -8.8092289     576.0693   0.01120583 0.0098561733            3 
 4285000   0.57572311   -8.8364374      575.889  0.011199708 0.0098526362            4 
 4286000   0.56401313   -8.8111325    576.13763  0.011201929 0.0098490997            3 
 4287000   0.56061402    -8.808532    576.37073  0.011203847 0.0098455631            2 
 4288000   0.56527612   -8.8340444    576.13447  0.011196643 0.0098420311            3 
 4289000   0.56708952   -8.8337391    576.43859  0.011199941  0.009838496            2 
 4290000   0.56534156   -8.8204826    576.89345  0.011206166 0.0098349634            3 
 4291000   0.57491996   -8.8231859    575.81663  0.011182642 0.0098314322            3 
 4292000   0.56123158   -8.8428672    576.18955  0.011187278  0.009827903            2 
 4293000   0.56400866   -8.8387904    575.76069  0.011176347 0.0098243793            2 
 4294000   0.56313021   -8.8417741     575.9547  0.011177509 0.0098208552            3 
 4295000   0.56854596   -8.8332093    575.67284  0.011169438 0.0098173358            3 
 4296000   0.55554542   -8.8334208    575.14697  0.011156637  0.009813812            6 
 4297000   0.56464284   -8.8549232     575.6915  0.011164601 0.0098102901            3 
 4298000   0.55831073   -8.8222279    575.07334  0.011150018  0.009806768            4 
 4299000   0.56258202   -8.8376052    576.26799  0.011170582 0.0098032492            3 
 4300000   0.56198038    -8.820767    576.47621   0.01117202 0.0097997316            3 
 4301000    0.5557396    -8.837702     576.4674  0.011169251 0.0097962194            2 
 4302000   0.57764916   -8.8298295    575.59609  0.011149777 0.0097927074            4 
 4303000   0.56371506   -8.8269952    576.88364  0.011172121 0.0097892004            2 
 4304000   0.56005214   -8.8234332    575.89399  0.011150364 0.0097856957            2 
 4305000   0.56059593   -8.8219047     575.1298  0.011132981 0.0097821896            4 
 4306000   0.57760036   -8.8495711    576.15997  0.011150332  0.009778688            1 
 4307000   0.55443905   -8.8216798    576.88824  0.011161834 0.0097751843            4 
 4308000     0.567072   -8.8209474    576.72784   0.01115614 0.0097716815            5 
 4309000   0.55363989   -8.8332023     576.1539  0.011142452 0.0097681856            3 
 4310000   0.56074521   -8.8281676    576.62915  0.011149055 0.0097646853            2 
 4311000   0.56527748   -8.8411886     575.7066  0.011128636 0.0097611913            3 
 4312000   0.55660992   -8.8319178    576.98174  0.011150698 0.0097576972            2 
 4313000    0.5618301   -8.8390025    575.31964  0.011115999 0.0097542047            5 
 4314000   0.57219788   -8.8422347    576.31841  0.011132715 0.0097507142            3 
 4315000   0.54653342   -8.8433612    575.99284  0.011123848 0.0097472221            3 
 4316000   0.56295658   -8.8399952    576.76106  0.011136103 0.0097437311            3 
 4317000   0.54322706   -8.8318852    575.21553  0.011103689 0.0097402396            3 
 4318000   0.55302805   -8.8658559    575.65158  0.011109533 0.0097367524            4 
 4319000   0.56027954   -8.8491844     575.5503  0.011105007 0.0097332675            2 
 4320000   0.56069483   -8.8447063    575.38254    0.0110992 0.0097297813            3 
 4321000   0.56008624   -8.8363772     576.0119  0.011108769  0.009726295            4 
 4322000   0.55281043   -8.8392303    575.93149  0.011104649 0.0097228136            2 
 4323000   0.55567979   -8.8534043    576.38913  0.011110902 0.0097193306            4 
 4324000   0.54923623   -8.8520365    575.11161  0.011083711 0.0097158511            4 
 4325000   0.55397912   -8.8472228    577.17362  0.011120879 0.0097123769            3 
 4326000   0.53965187   -8.8430247    575.68328  0.011089599 0.0097089003            3 
 4327000   0.54993812   -8.8454794    575.85556  0.011090354 0.0097054279            3 
 4328000   0.56379645   -8.8128936    576.70613  0.011104169 0.0097019582            5 
 4329000   0.56053293   -8.8285481    576.26808  0.011093172 0.0096984903            3 
 4330000   0.55565893   -8.8616415    576.50062  0.011095085 0.0096950189            3 
 4331000   0.57379773   -8.8345862    576.61423  0.011094709 0.0096915517            5 
 4332000   0.56883715   -8.8250683    576.11409  0.011082527 0.0096880858            1 
 4333000   0.54797806   -8.8419603    576.05718  0.011078875 0.0096846247            3 
 4334000   0.56607117   -8.8336793      576.137  0.011077853 0.0096811584            4 
 4335000   0.56139806   -8.8366331    576.22792  0.011077046 0.0096776972            4 
 4336000   0.55493438    -8.831671    575.82747  0.011066795 0.0096742423            2 
 4337000   0.55861096   -8.8272737    576.61245  0.011079326 0.0096707877            2 
 4338000   0.54681126   -8.8429875    575.07177  0.011047176 0.0096673282            2 
 4339000   0.55415787   -8.8339065    576.17592  0.011065836 0.0096638723            1 
 4340000   0.55433977    -8.838183    574.97956  0.011040314 0.0096604212            3 
 4341000   0.55538073   -8.8354543     575.2015  0.011042031 0.0096569643            1 
 4342000   0.56109895   -8.8466795    575.56431  0.011046452 0.0096535153            2 
 4343000   0.55768421   -8.8458138    576.41394  0.011060211  0.009650066            3 
 4344000   0.54101124   -8.8359813    576.26072  0.011054725  0.009646619            3 
 4345000    0.5622933    -8.839252    574.40846  0.011016656 0.0096431703            3 
 4346000   0.55674709   -8.8549407    575.09392  0.011027265 0.0096397253            2 
 4347000   0.55573889   -8.8436247    576.26749  0.011047226 0.0096362796            3 
 4348000   0.56778748   -8.8460867    575.56906  0.011031299 0.0096328372            3 
 4349000   0.55227937   -8.8568348    576.98537  0.011055901 0.0096293952            3 
 4350000   0.56515769   -8.8406422    575.88111  0.011032205 0.0096259529            3 
 4351000   0.55657421   -8.8299061    575.61176  0.011024511 0.0096225197            3 
 4352000   0.55785403   -8.8435352    575.61071  0.011021958 0.0096190859            2 
 4353000   0.55899793   -8.8445785    576.07689   0.01102835 0.0096156534            4 
 4354000   0.55999859   -8.8480047    575.56672  0.011016053 0.0096122232            1 
 4355000   0.55485281   -8.8450894    576.29536  0.011027466 0.0096087896            5 
 4356000   0.54822149   -8.8558885    575.47279  0.011009198 0.0096053604            4 
 4357000   0.55520226   -8.8385848    575.72479  0.011011491 0.0096019305            4 
 4358000   0.55124277   -8.8401751    575.37409  0.011002258 0.0095985017            1 
 4359000   0.54303205   -8.8405694    576.28819  0.011017209 0.0095950754            3 
 4360000   0.56306116   -8.8532299    576.32179  0.011015325 0.0095916511            2 
 4361000   0.56450348   -8.8469542    575.74369  0.011001752 0.0095882275            3 
 4362000   0.56772827   -8.8398893    575.75637  0.010999472 0.0095848058            5 
 4363000   0.54555959   -8.8610655    575.51278  0.010992298 0.0095813878            3 
 4364000   0.55429624   -8.8300121    575.86621  0.010996529 0.0095779669            2 
 4365000   0.55514101   -8.8612735    575.12545  0.010979867 0.0095745486            6 
 4366000   0.55338828    -8.853285    575.52356  0.010984951 0.0095711319            3 
 4367000   0.55365024   -8.8633514    576.18181  0.010994997  0.009567716            1 
 4368000   0.53536643   -8.8544892    575.89446  0.010986997 0.0095643001            2 
 4369000   0.54790291   -8.8689896    575.59456  0.010978762 0.0095608926            4 
 4370000   0.54689161   -8.8411593    575.42774  0.010973069 0.0095574805            3 
 4371000   0.55132972   -8.8341525    575.26378  0.010967433 0.0095540708            3 
 4372000   0.55199554   -8.8673691    576.51455  0.010988765 0.0095506671            2 
 4373000    0.5534646   -8.8610372    575.53189  0.010967526 0.0095472623            2 
 4374000   0.54873969   -8.8437935    575.77237    0.0109696 0.0095438597            3 
 4375000   0.56010664   -8.8565687    575.78824  0.010967395 0.0095404554            4 
 4376000   0.55085093   -8.8473845     575.0778   0.01095136  0.009537055            2 
 4377000   0.55649694   -8.8571229    576.84396  0.010982483 0.0095336586            3 
 4378000   0.55760809   -8.8476393    575.86616  0.010961363  0.009530262            2 
 4379000   0.54194922   -8.8341188    575.15202   0.01094527 0.0095268656            2 
 4380000   0.55933474   -8.8587385    576.43769  0.010967232 0.0095234713            6 
 4381000   0.55204114   -8.8515386    575.12522  0.010939763 0.0095200821            2 
 4382000   0.54927097   -8.8576619    575.38786  0.010942261 0.0095166951            4 
 4383000   0.56467234   -8.8338571    575.19074  0.010936017 0.0095133092            2 
 4384000   0.54920541   -8.8419135    576.26772  0.010953994 0.0095099227            4 
 4385000   0.55572014   -8.8419323    576.01061   0.01094661 0.0095065366            2 
 4386000   0.54391107   -8.8668249    575.29401  0.010930499 0.0095031531            2 
 4387000   0.55761488   -8.8553937    575.88738  0.010939279 0.0094997701            3 
 4388000   0.54319256   -8.8512629    574.98937  0.010919731 0.0094963892            3 
 4389000   0.55899429   -8.8700947    576.06763  0.010937716 0.0094930109            6 
 4390000   0.54257716   -8.8642454    575.68518  0.010927965 0.0094896308            2 
 4391000   0.54277465   -8.8373414    575.26665  0.010917533 0.0094862503            4 
 4392000   0.54710867   -8.8569446    575.45652   0.01091865 0.0094828747            4 
 4393000   0.54440355     -8.84238    576.16011  0.010929511 0.0094794972            2 
 4394000   0.55391956   -8.8511865    575.81888  0.010920552 0.0094761241            2 
 4395000   0.54969092    -8.866945    574.93507   0.01090131 0.0094727514            2 
 4396000   0.54923354   -8.8773376    575.11966  0.010902329 0.0094693819            3 
 4397000   0.53530575   -8.8501155    575.76331  0.010912048 0.0094660135            3 
 4398000   0.55575614   -8.8649495    574.43748  0.010884445 0.0094626468            2 
 4399000   0.55639749   -8.8658162    575.65626  0.010905059 0.0094592754            3 
 4400000   0.55445901   -8.8601579    576.16751  0.010912263 0.0094559108            1 
 4401000   0.54460565   -8.8756566    575.44668  0.010896135 0.0094525494            1 
 4402000   0.55466814   -8.8763466      574.333  0.010872577 0.0094491839            2 
 4403000   0.54483507   -8.8639006    575.93454  0.010900419 0.0094458214            3 
 4404000   0.54613191    -8.860049    575.77115  0.010894852 0.0094424605            2 
 4405000   0.54800464   -8.8594539    575.79715  0.010892871    0.0094391            4 
 4406000   0.55275546   -8.8687923    575.56509  0.010886009 0.0094357404            3 
 4407000   0.55727045   -8.8651975    575.37051   0.01087986 0.0094323854            2 
 4408000   0.54546201   -8.8418182    575.86254  0.010886694 0.0094290321            2 
 4409000   0.55584653   -8.8607042    575.18405    0.0108714 0.0094256769            4 
 4410000   0.55031574   -8.8590133    576.00792  0.010884503 0.0094223276            3 
 4411000   0.54717589   -8.8797104      575.904  0.010880073 0.0094189797            2 
 4412000   0.54690268   -8.8559178    575.55528   0.01087102 0.0094156331            3 
 4413000   0.54083187   -8.8553767    574.96483  0.010857407  0.009412284            5 
 4414000   0.54642161   -8.8669034    574.59579   0.01084798 0.0094089381            2 
 4415000   0.54207943   -8.8733359    575.47154  0.010862052 0.0094055907            3 
 4416000    0.5480617   -8.8642473    575.22861  0.010855008 0.0094022474            3 
 4417000   0.53431353   -8.8881586    575.54587  0.010858536 0.0093989024            2 
 4418000    0.5534634   -8.8779898    576.58577  0.010875694 0.0093955587            4 
 4419000   0.54378967    -8.866728    575.15654   0.01084628 0.0093922215            1 
 4420000   0.55457772   -8.8417575    575.26544  0.010845879 0.0093888849            2 
 4421000    0.5356529   -8.8584868    576.28853  0.010862711 0.0093855523            2 
 4422000    0.5484658   -8.8679717    575.15949  0.010838977 0.0093822188            5 
 4423000   0.53577918   -8.8567993    574.82946  0.010830309 0.0093788865            3 
 4424000   0.53747662   -8.8735426     575.2774  0.010836298 0.0093755545            4 
 4425000   0.54606137   -8.8758651    575.42773   0.01083668 0.0093722232            7 
 4426000   0.54658567   -8.8659998     575.3055  0.010831931 0.0093688924            2 
 4427000   0.55023691   -8.8764943    574.62436  0.010816662 0.0093655624            2 
 4428000   0.54608676   -8.8604931    574.71737   0.01081597 0.0093622329            1 
 4429000   0.54590721     -8.83991    575.57937  0.010829747 0.0093589071            3 
 4430000   0.54165723    -8.866806    575.87232  0.010832813 0.0093555817            4 
 4431000    0.5548705   -8.8658185    575.87369  0.010830394  0.009352255            3 
 4432000   0.54278038   -8.8645004     575.3969  0.010818985 0.0093489296            1 
 4433000   0.53625916   -8.8767087    575.19011  0.010812657 0.0093456032            2 
 4434000   0.54187578   -8.8677108    575.38608  0.010813902 0.0093422829            2 
 4435000   0.53679648   -8.8536804    575.85997  0.010820368 0.0093389639            2 
 4436000   0.54426348   -8.8879197    574.35742  0.010789702 0.0093356488            1 
 4437000   0.54253449   -8.8761178    575.39824  0.010806819 0.0093323339            3 
 4438000   0.53118616   -8.8849785    574.68974   0.01079108 0.0093290191            3 
 4439000   0.54919552   -8.8904157    575.15424  0.010797369 0.0093257033            1 
 4440000   0.53354175    -8.869644    575.24904  0.010796716 0.0093223916            3 
 4441000   0.54196694   -8.8481909    575.60557  0.010800975 0.0093190814            2 
 4442000   0.55003299   -8.8624101     575.3808  0.010794327 0.0093157718            3 
 4443000   0.54027799   -8.8857182    575.01646  0.010785064  0.009312463            1 
 4444000   0.54582947   -8.8530575    574.51835  0.010773296 0.0093091593            2 
 4445000   0.55042942   -8.8929815    574.70739  0.010774417 0.0093058554            2 
 4446000    0.5494068   -8.8856854    575.31679  0.010783416   0.00930255            2 
 4447000   0.54944109   -8.8643147    574.82334  0.010771744 0.0092992468            2 
 4448000   0.53256806   -8.8554336    575.55767   0.01078308 0.0092959495            1 
 4449000   0.54457936   -8.8777047    574.88153  0.010767991 0.0092926495            2 
 4450000    0.5329812   -8.8629594    574.83173  0.010764639 0.0092893521            1 
 4451000   0.53790029   -8.8909595    574.82826  0.010762156 0.0092860536            3 
 4452000   0.53821897   -8.8804081    575.08835  0.010764607 0.0092827561            1 
 4453000   0.54437651   -8.8826437    575.07095  0.010761864 0.0092794624            2 
 4454000    0.5493116   -8.9055455    573.83835  0.010736386 0.0092761689            1 
 4455000   0.52995116   -8.8881685    574.84861  0.010752873  0.009272879            3 
 4456000   0.53460405   -8.8639834     574.5553  0.010744975 0.0092695873            2 
 4457000   0.53236347   -8.8882258    575.40669  0.010758483 0.0092662985            1 
 4458000    0.5450559   -8.8698192    574.06733  0.010731033 0.0092630103            3 
 4459000   0.53032626   -8.8851902    574.91475  0.010744464 0.0092597204            1 
 4460000    0.5334275   -8.8796933     574.7124  0.010738274 0.0092564338            1 
 4461000    0.5473643   -8.8850323    575.22622  0.010745465 0.0092531532            1 
 4462000   0.53365242   -8.8702859    575.25503  0.010743595 0.0092498721            2 
 4463000   0.52912857   -8.8660498    575.45949  0.010745005 0.0092465933            1 
 4464000   0.52659711   -8.8788041     575.3319  0.010740216 0.0092433161            5 
 4465000   0.53660746   -8.8802995    575.25699  0.010736413  0.009240039            2 
 4466000    0.5383905   -8.8831573    575.42673  0.010737176  0.009236762            6 
 4467000   0.53793684   -8.8847195    574.22179  0.010712294  0.009233486            1 
 4468000   0.54474991   -8.8851155    574.49604  0.010715011 0.0092302147            5 
 4469000   0.54393504   -8.8903189    575.36087   0.01072874 0.0092269435            4 
 4470000   0.54399629   -8.8888339    574.63693  0.010712844 0.0092236739            1 
 4471000   0.52750354    -8.885668    574.93205  0.010715948 0.0092204055            2 
 4472000   0.54588054   -8.8883788    575.58258  0.010725674 0.0092171407            1 
 4473000   0.52461165   -8.8969289    574.64697  0.010705846 0.0092138768            2 
 4474000   0.54058985   -8.8797239    573.86183  0.010688829  0.009210613            4 
 4475000   0.53427368    -8.889727     574.6797   0.01070167 0.0092073472            2 
 4476000    0.5422975   -8.8946496    574.89626  0.010703311  0.009204086            2 
 4477000   0.53003591    -8.861618    574.96808  0.010702257 0.0092008279            2 
 4478000   0.53895588   -8.8538979    575.07327  0.010701825 0.0091975701            1 
 4479000   0.53577875   -8.8740929    574.42007  0.010687283 0.0091943132            1 
 4480000   0.53057069   -8.8957769    575.19978  0.010699401 0.0091910587            1 
 4481000   0.54086146    -8.882579    574.90336    0.0106915 0.0091878054            4 
 4482000   0.52863785   -8.8965263    575.21918  0.010694987 0.0091845535            2 
 4483000   0.54070841   -8.8801228    574.21201  0.010673879 0.0091813019            2 
 4484000   0.53413996   -8.8758567    574.36934  0.010674423 0.0091780536            4 
 4485000   0.54476465   -8.8892982    575.03689  0.010684446 0.0091748054            2 
 4486000   0.54422997   -8.8771683    575.48496  0.010690388 0.0091715645            4 
 4487000   0.53947004   -8.8919619     575.0233  0.010679431 0.0091683225            1 
 4488000   0.52461301   -8.8617543     574.7212  0.010671442 0.0091650799            2 
 4489000   0.52724878   -8.8600145    574.74476  0.010669503 0.0091618342            2 
 4490000   0.52573726   -8.8890753    573.88908  0.010651245 0.0091585945            3 
 4491000   0.54029929   -8.8820597    574.42964  0.010658904 0.0091553546            2 
 4492000   0.54151035   -8.8780107    575.01696  0.010667427 0.0091521172            4 
 4493000   0.53207995   -8.8941099    574.86744  0.010662279 0.0091488805            2 
 4494000   0.51767304    -8.869236    575.27321  0.010667431 0.0091456457            1 
 4495000   0.53271964   -8.8884974    574.93949  0.010658871 0.0091424071            2 
 4496000   0.51317561     -8.88839    574.65642  0.010651253  0.009139173            2 
 4497000   0.52941685   -8.8973055    575.17049  0.010658411 0.0091359404            1 
 4498000   0.53169314    -8.890988    574.56327  0.010644792 0.0091327147            2 
 4499000   0.54047999   -8.8735309    575.19894    0.0106542  0.009129488            4 
 4500000    0.5195386   -8.8777341    574.24449  0.010634157 0.0091262612            4 
 4501000   0.52313371   -8.8659706    574.31914  0.010633177  0.009123037            2 
 4502000   0.51338031   -8.8831089    574.96482  0.010642767 0.0091198157            3 
 4503000   0.52406605   -8.9074221    573.80744  0.010618984 0.0091165921            1 
 4504000    0.5311643   -8.8924701    574.57782   0.01063088 0.0091133719            6 
 4505000   0.52979068   -8.8824359    575.40278  0.010643781 0.0091101529            4 
 4506000   0.52352186   -8.8915207      574.993   0.01063384 0.0091069348            3 
 4507000    0.5484035   -8.8832475    574.21922  0.010617174 0.0091037176            1 
 4508000   0.53727189   -8.8992195    573.99064  0.010610593 0.0091005009            2 
 4509000   0.52603648   -8.8763655    575.45319   0.01063527 0.0090972885            1 
 4510000   0.53225716   -8.8949167    574.65493  0.010618162 0.0090940745            2 
 4511000   0.52203801   -8.9024695    574.91216   0.01062056 0.0090908625            2 
 4512000   0.51996269   -8.8792342    573.66435   0.01059516 0.0090876521            3 
 4513000   0.52823465   -8.8949384    574.93671  0.010616307  0.009084446            2 
 4514000   0.53427747   -8.8838137    573.81209  0.010593193 0.0090812428            6 
 4515000    0.5351394   -8.8830868    574.16588  0.010597377 0.0090780402            3 
 4516000   0.53315834   -8.8839145    574.52164  0.010601595 0.0090748391            2 
 4517000   0.52763151   -8.9050161    573.64276  0.010583034 0.0090716362            4 
 4518000   0.52336769   -8.9160272    573.77952  0.010583214 0.0090684362            1 
 4519000   0.52952256   -8.8854645    574.17109  0.010588093 0.0090652385            2 
 4520000   0.52315706   -8.8896455    573.77163  0.010578386 0.0090620437            2 
 4521000   0.52356033   -8.8810052    574.58833  0.010591099 0.0090588485            2 
 4522000   0.52170296   -8.8951409    574.13592   0.01058042 0.0090556545            2 
 4523000    0.5267188   -8.8795495    575.30807  0.010599677 0.0090524615            2 
 4524000   0.52754633   -8.9149756    573.76375  0.010568887 0.0090492712            2 
 4525000   0.52341809   -8.8727692    574.92953  0.010588021 0.0090460847            3 
 4526000   0.53542832   -8.8986695    574.59506  0.010579523 0.0090428952            4 
 4527000   0.52731297   -8.8952846    574.26443    0.0105711 0.0090397079            6 
 4528000   0.51770552   -8.8845912    574.15486  0.010566749 0.0090365221            4 
 4529000   0.54174192   -8.9052115    574.07143   0.01056288 0.0090333361            8 
 4530000   0.53004284   -8.8929676    574.85306  0.010574928 0.0090301552            3 
 4531000   0.52873769    -8.905702    574.53837  0.010566806  0.009026973            2 
 4532000   0.52608798   -8.8816543    573.74564  0.010549898 0.0090237893            1 
 4533000   0.52708275   -8.8853135    574.32546   0.01055823 0.0090206096            3 
 4534000   0.52384693   -8.9079951    573.99568   0.01054984 0.0090174305            2 
 4535000   0.53108455   -8.9015835    574.14107  0.010550185 0.0090142559            3 
 4536000   0.51502717   -8.9035771    574.08216  0.010546777 0.0090110823            3 
 4537000   0.52330122   -8.9010408     573.9803  0.010542581 0.0090079109            1 
 4538000   0.52644739    -8.883721    574.87647  0.010556715 0.0090047385            2 
 4539000   0.52668659   -8.9283239     574.4862  0.010547224 0.0090015698            2 
 4540000   0.52761262   -8.8819681    574.69499  0.010548733 0.0089984012            1 
 4541000   0.52545454    -8.894405    575.02296  0.010552429 0.0089952324            2 
 4542000   0.51413776   -8.8829842    575.26262  0.010554503 0.0089920655            2 
 4543000   0.51804824   -8.9034936    574.54245  0.010538969  0.008988901            3 
 4544000   0.52594479   -8.8957394    573.20993  0.010512213 0.0089857367            3 
 4545000   0.51953991   -8.9048437     574.8757  0.010540442  0.008982575            4 
 4546000    0.5377966   -8.8911744    574.49578  0.010531159 0.0089794154            2 
 4547000   0.52584305   -8.9094081    574.09436  0.010521486 0.0089762599            1 
 4548000   0.53263055   -8.8995931    575.32005  0.010541631 0.0089731025            2 
 4549000   0.52346027   -8.8897961     573.9637  0.010514467 0.0089699439            2 
 4550000   0.52672478   -8.9084056    574.38567  0.010519884 0.0089667864            2 
 4551000   0.53045029   -8.9074238    573.78625  0.010506597 0.0089636343            2 
 4552000   0.52703208   -8.9050084    573.66702  0.010502106   0.00896048            3 
 4553000   0.51720175   -8.8942375    573.79571  0.010502155 0.0089573283            3 
 4554000   0.53272611   -8.8987029    574.71815  0.010516728 0.0089541792            3 
 4555000   0.52338396   -8.9122924    574.55879  0.010511504 0.0089510342            3 
 4556000   0.52007281   -8.8950354    574.52834  0.010508639 0.0089478885            4 
 4557000   0.53522349   -8.9175731    574.52297  0.010506235 0.0089447436            3 
 4558000    0.5222308   -8.9196127    574.54938  0.010504413 0.0089416014            1 
 4559000    0.5223897    -8.904309    573.57682  0.010484332 0.0089384573            2 
 4560000   0.52779945   -8.9314582    573.50007   0.01048063 0.0089353146            4 
 4561000    0.5274738   -8.9115531    574.26637  0.010492333 0.0089321723            1 
 4562000   0.51695004   -8.8922453    573.77375  0.010481034 0.0089290328            3 
 4563000    0.5106912   -8.9029623    574.38763  0.010489949 0.0089258968            4 
 4564000   0.51933016   -8.9110612     573.0306  0.010462873  0.008922761            3 
 4565000   0.53040861   -8.9044057    573.62357  0.010471405 0.0089196274            2 
 4566000   0.50759391   -8.9174048    574.17764  0.010479224 0.0089164949            1 
 4567000   0.52591688   -8.8946512    574.13724  0.010476192 0.0089133637            1 
 4568000   0.52407079   -8.9043493    574.04903   0.01047229 0.0089102334            3 
 4569000   0.52588362   -8.9189312    574.42936  0.010476934 0.0089071074            3 
 4570000   0.52356278   -8.8992402    574.12139  0.010469026 0.0089039802            4 
 4571000   0.52106903   -8.9107098    573.66017  0.010458327 0.0089008529            4 
 4572000   0.53022447    -8.890838      573.568   0.01045436 0.0088977266            3 
 4573000   0.52171188   -8.9101036    574.01209  0.010460166 0.0088946069            2 
 4574000   0.52336391   -8.9061435    574.81405   0.01047249  0.008891486            2 
 4575000   0.52243306   -8.9166585    574.35236  0.010461792 0.0088883646            1 
 4576000   0.51989479   -8.9032493    574.59895  0.010463996 0.0088852455            3 
 4577000   0.52533456   -8.9034222    573.83536  0.010447807 0.0088821277            3 
 4578000   0.52580268   -8.9151684    575.03589  0.010467378 0.0088790096            2 
 4579000    0.5158047   -8.9110046    573.22588  0.010432152 0.0088758907            3 
 4580000    0.5143842   -8.9038721    574.10879  0.010445939 0.0088727772            2 
 4581000   0.52297604   -8.9150257    573.92157  0.010440253 0.0088696647            3 
 4582000   0.52304693   -8.8991978    574.23125  0.010443606 0.0088665533            3 
 4583000   0.52527115   -8.9120987    574.23145  0.010441331 0.0088634442            2 
 4584000   0.52392314   -8.9091476    573.89886  0.010433007 0.0088603357            6 
 4585000   0.52355541   -8.9097164    573.75933  0.010428196 0.0088572276            3 
 4586000   0.52322713   -8.9196966    575.11431  0.010450544  0.008854123            2 
 4587000   0.51420256   -8.8955345    574.47642  0.010436677 0.0088510224            2 
 4588000    0.5229578   -8.9032728    573.29626  0.010412966 0.0088479213            3 
 4589000   0.52192639   -8.8939429    573.22757   0.01040945 0.0088448242            2 
 4590000   0.52184564   -8.9213559    573.97698  0.010420788 0.0088417259            3 
 4591000   0.52524743   -8.9038797    573.58462  0.010411396 0.0088386285            2 
 4592000   0.50700877   -8.9210683    574.48873  0.010425536  0.008835531            5 
 4593000   0.51915541   -8.9011553    574.21109  0.010418229 0.0088324336            3 
 4594000   0.52859304   -8.9184585    573.45257  0.010402202 0.0088293409            2 
 4595000   0.50589724   -8.9060248    573.28452   0.01039689 0.0088262465            2 
 4596000   0.50324024   -8.9194402    573.99448  0.010407501 0.0088231547            2 
 4597000   0.51300684   -8.9187248    573.89436  0.010403422 0.0088200623            4 
 4598000   0.51590129   -8.9083616    573.74469  0.010398447 0.0088169718            1 
 4599000   0.51376537   -8.9296728    572.77715  0.010378654 0.0088138852            2 
 4600000   0.51973959   -8.9018622    574.04377  0.010399344 0.0088107967            2 
 4601000   0.51547615   -8.9064678    572.80137  0.010374581 0.0088077106            6 
 4602000   0.51280391   -8.8937465    573.66381  0.010387944 0.0088046317            2 
 4603000   0.50917158   -8.9096841    573.39493  0.010380819 0.0088015488            4 
 4604000   0.51979864   -8.8972398    574.34334  0.010395731 0.0087984702            4 
 4605000   0.51195518    -8.910827    573.74104  0.010382574  0.008795388            2 
 4606000   0.51486759   -8.9275105    573.09263  0.010368589 0.0087923071            2 
 4607000   0.51540252   -8.9193089    574.33903  0.010388883 0.0087892299            2 
 4608000   0.50745028   -8.9073335    573.93654   0.01037935 0.0087861533            4 
 4609000   0.50788798   -8.9196164    574.54437  0.010388088 0.0087830766            2 
 4610000   0.50933466   -8.9165777    573.58838  0.010368554 0.0087800007            2 
 4611000   0.52257299   -8.9195711     572.8267  0.010352539 0.0087769274            3 
 4612000   0.50937592   -8.9167514    573.85624  0.010368897 0.0087738554            1 
 4613000   0.51341055   -8.9109787    573.75527  0.010364825 0.0087707823            3 
 4614000   0.51457083   -8.9184289    573.50509   0.01035806 0.0087677121            4 
 4615000   0.51035634    -8.926763    573.43527  0.010354555 0.0087646437            2 
 4616000   0.51307941   -8.9044248    573.64394  0.010356079 0.0087615768            3 
 4617000   0.51483302   -8.9119927     573.7146  0.010355112 0.0087585125            1 
 4618000   0.51379047   -8.9287171    574.12018  0.010360188 0.0087554468            3 
 4619000   0.51008154   -8.9140031    573.60822  0.010348709  0.008752383            2 
 4620000   0.51653966   -8.9070497    574.59427  0.010364254 0.0087493239            2 
 4621000   0.50753819   -8.9161077    574.11359  0.010353343 0.0087462645            4 
 4622000   0.51153937   -8.9162281    574.02936  0.010349585 0.0087432069            3 
 4623000   0.51837027   -8.9041171    573.52414  0.010338239 0.0087401527            4 
 4624000   0.49540934   -8.9100774      574.313   0.01035022 0.0087370979            1 
 4625000   0.50893991   -8.9184617    572.78577  0.010320464 0.0087340431            3 
 4626000   0.49920116   -8.9156387    573.16246  0.010325019 0.0087309931            2 
 4627000   0.51313376   -8.9071964     572.9922  0.010319721 0.0087279419            2 
 4628000   0.51679838   -8.9378523     573.6506  0.010329347 0.0087248937            2 
 4629000   0.51163388    -8.927593    573.17893  0.010318624 0.0087218432            2 
 4630000   0.51453876   -8.9179247    574.09778  0.010332933 0.0087187978            2 
 4631000   0.51597261   -8.9025696    574.19247  0.010332406 0.0087157535            3 
 4632000   0.51341568   -8.9265669    573.49963  0.010317711  0.008712712            2 
 4633000   0.50285119   -8.9298935    573.66671  0.010318489 0.0087096709            2 
 4634000    0.5134065   -8.9370823     573.2023  0.010307911 0.0087066304            2 
 4635000   0.51033505   -8.9351532    573.53766  0.010311716 0.0087035901            3 
 4636000    0.5224046   -8.9144455    573.03611  0.010300476 0.0087005525            3 
 4637000   0.51195315   -8.9444043    573.72712  0.010310674 0.0086975203            2 
 4638000   0.50836161   -8.9130666    573.71322  0.010308201  0.008694485            1 
 4639000   0.50235477   -8.9135664    573.37423  0.010299889 0.0086914515            1 
 4640000   0.50640606   -8.9167106    573.77252  0.010304823 0.0086884214            2 
 4641000   0.51968306   -8.9167003    574.10805  0.010308627 0.0086853925            3 
 4642000   0.51487324   -8.9285243    573.26852  0.010291335 0.0086823629            3 
 4643000   0.50958611   -8.9268862    574.18314  0.010305534 0.0086793342            1 
 4644000   0.50630611   -8.9269041    573.90736  0.010298366 0.0086763093            2 
 4645000   0.52368374   -8.9217925    574.20566  0.010301501 0.0086732845            2 
 4646000   0.49877638   -8.9262654    574.18295  0.010298876 0.0086702593            3 
 4647000   0.51032986   -8.9287432    573.75248  0.010288941 0.0086672336            1 
 4648000   0.51599879   -8.9278506    573.40979  0.010280583   0.00866421            2 
 4649000   0.51047516   -8.9226067    574.11296  0.010290976 0.0086611909            1 
 4650000   0.50676055   -8.9351716    573.32475  0.010274637 0.0086581744            1 
 4651000   0.51085236   -8.9245282    574.13197  0.010286891 0.0086551562            3 
 4652000   0.50513055   -8.9310892    573.20771  0.010268123 0.0086521426            1 
 4653000   0.49722819   -8.9104149      573.167  0.010265187 0.0086491277            3 
 4654000   0.50994139   -8.9262389    573.53619  0.010269592 0.0086461136            2 
 4655000   0.50474155   -8.9199711    572.93603  0.010256642 0.0086431014            2 
 4656000   0.50492812   -8.9216144    574.14904   0.01027615 0.0086400917            7 
 4657000   0.51321455   -8.9357023    572.87682  0.010251178 0.0086370819            2 
 4658000   0.50440158   -8.9244049    573.55264  0.010261068 0.0086340721            2 
 4659000   0.51408666   -8.9246818    572.62542   0.01024228 0.0086310649            2 
 4660000   0.51202392   -8.9241259    573.63966   0.01025822 0.0086280605            2 
 4661000   0.50512686   -8.9429428     573.4249  0.010252179 0.0086250577            3 
 4662000   0.50550446   -8.9186565    572.96801  0.010241813 0.0086220518            4 
 4663000   0.49874335     -8.94896    573.27718  0.010245142 0.0086190456            2 
 4664000   0.48933434   -8.9513562    573.00635  0.010238107 0.0086160442            2 
 4665000   0.50965107   -8.9381145    572.95844  0.010235056 0.0086130418            4 
 4666000   0.50573467   -8.9453623    573.62148  0.010244704  0.008610043            4 
 4667000   0.50335736   -8.9474579    573.32305   0.01023718 0.0086070458            4 
 4668000   0.50036373   -8.9484799    573.98142  0.010246741 0.0086040506            2 
 4669000   0.50714941   -8.9209085    573.65733  0.010238762 0.0086010557            2 
 4670000   0.50739639   -8.9386126    573.14398  0.010227409 0.0085980647            2 
 4671000   0.50544561   -8.9463393    573.07496  0.010223988 0.0085950732            4 
 4672000   0.50651684    -8.943055    572.77852  0.010216512 0.0085920842            2 
 4673000   0.50310842   -8.9339178    573.39489  0.010225317 0.0085890922            2 
 4674000    0.5007508    -8.949106    573.64045  0.010227508 0.0085861072            3 
 4675000   0.49954299   -8.9189702    572.97138  0.010213394 0.0085831224            2 
 4676000   0.50078909    -8.923906    573.66196  0.010223517 0.0085801353            2 
 4677000    0.5013381   -8.9267597    573.53514  0.010219071 0.0085771525            1 
 4678000   0.49308157   -8.9280572    573.92814  0.010223887 0.0085741715            2 
 4679000   0.49105792    -8.931275    573.60777  0.010215997 0.0085711921            3 
 4680000   0.51377719   -8.9371834    573.49428  0.010211793 0.0085682154            2 
 4681000   0.50126472   -8.9267371    572.73113  0.010196025 0.0085652369            3 
 4682000   0.50636507   -8.9319007    573.46939  0.010206988 0.0085622619            2 
 4683000   0.50699501   -8.9289204    573.60614  0.010207242 0.0085592834            2 
 4684000   0.49952601    -8.932456    573.39469    0.0102013 0.0085563092            2 
 4685000   0.51271034   -8.9384802    572.99713  0.010192051 0.0085533378            1 
 4686000     0.510328   -8.9116875    572.95758  0.010189173 0.0085503643            2 
 4687000   0.49724525   -8.9467921    572.77039  0.010183671 0.0085473915            2 
 4688000   0.49749682   -8.9356023    572.60419  0.010178544 0.0085444214            2 
 4689000   0.48996254   -8.9565432    573.40574  0.010190619 0.0085414487            2 
 4690000   0.50741892    -8.931618    572.95069   0.01018036 0.0085384822            2 
 4691000   0.49735034   -8.9311626    573.13824  0.010181522 0.0085355147            3 
 4692000   0.51078817   -8.9379381     573.1251  0.010179119 0.0085325486            1 
 4693000   0.49169225   -8.9276399    573.19555  0.010178201 0.0085295841            2 
 4694000   0.50024962   -8.9458177    573.63322  0.010183802 0.0085266206            2 
 4695000   0.49624799   -8.9311016    573.57363  0.010180576 0.0085236606            3 
 4696000   0.50446393   -8.9454922    572.72033  0.010163265 0.0085207002            2 
 4697000   0.49317952   -8.9369737    572.48786  0.010156977 0.0085177432            4 
 4698000   0.51118929   -8.9392135    573.27876  0.010168844 0.0085147871            3 
 4699000   0.50406937   -8.9321092    573.12517  0.010163956 0.0085118324            5 
 4700000   0.50281946   -8.9207505    572.23205  0.010145958 0.0085088783            4 
 4701000   0.51120092   -8.9374297    572.88367  0.010155351 0.0085059237            3 
 4702000   0.49204223   -8.9413269    573.14083  0.010157749  0.008502973            3 
 4703000    0.4863817   -8.9483868    573.57259   0.01016324 0.0085000231            3 
 4704000   0.50592823   -8.9381717    573.58659  0.010161327 0.0084970764            3 
 4705000   0.50936332   -8.9565711    573.45709  0.010156874 0.0084941257            2 
 4706000   0.49979767   -8.9293738    572.78816   0.01014287 0.0084911798            1 
 4707000   0.50327795   -8.9246381    573.46102  0.010152628  0.008488233            1 
 4708000   0.48773998   -8.9494588    572.73218   0.01013757 0.0084852892            2 
 4709000   0.50237969   -8.9369439    573.38211  0.010146919  0.008482347            3 
 4710000   0.50652214   -8.9334277    574.00264  0.010155744 0.0084794058            2 
 4711000    0.4987376   -8.9384559    573.16933  0.010138848 0.0084764687            3 
 4712000   0.50555483   -8.9367751    572.93861  0.010132616 0.0084735304            3 
 4713000   0.49211409   -8.9458354    572.47724  0.010122308 0.0084705927            4 
 4714000    0.4970867   -8.9432694    572.23297  0.010115842 0.0084676575            1 
 4715000   0.50131205   -8.9390541    573.44799  0.010135171 0.0084647235            2 
 4716000   0.48669036   -8.9428071    572.18415   0.01011069 0.0084617894            3 
 4717000   0.49115105   -8.9431775    573.87323  0.010138387 0.0084588546            2 
 4718000   0.49857812   -8.9428211    571.82149  0.010099998 0.0084559217            3 
 4719000   0.48869023   -8.9357713    573.57874  0.010128889 0.0084529921            4 
 4720000   0.49195749   -8.9312795       573.65  0.010128001 0.0084500625            3 
 4721000   0.48995645    -8.950258    573.23173  0.010118473 0.0084471356            2 
 4722000   0.49432583     -8.94824     573.1853  0.010115511 0.0084442097            3 
 4723000   0.50240536   -8.9504492    572.94773  0.010109177 0.0084412844            3 
 4724000    0.4923976   -8.9434301    572.15977  0.010093137 0.0084383622            3 
 4725000   0.50157155   -8.9605079    572.88306  0.010103758 0.0084354408            2 
 4726000   0.48912839    -8.948319    573.29374  0.010108861  0.008432523            4 
 4727000   0.49860606   -8.9765442    573.08904  0.010103114 0.0084296024            3 
 4728000   0.48835611   -8.9488516     573.5469  0.010109047 0.0084266855            3 
 4729000   0.49800645   -8.9367049    573.57582  0.010107419 0.0084237734            2 
 4730000   0.50011208    -8.968854    573.08816  0.010096691 0.0084208597            3 
 4731000   0.50316246   -8.9454813    572.90342  0.010091302 0.0084179466            2 
 4732000   0.49799022   -8.9460634    572.53692  0.010082716 0.0084150372            3 
 4733000   0.50290611   -8.9377587    572.86231  0.010086314 0.0084121279            2 
 4734000    0.4914559   -8.9429401    572.68153  0.010081001 0.0084092213            3 
 4735000   0.50557567    -8.954356    573.37933  0.010091153 0.0084063144            1 
 4736000   0.49358276   -8.9530465     573.3668  0.010088802 0.0084034109            3 
 4737000   0.49147863    -8.935776    572.57111  0.010072675 0.0084005086            2 
 4738000   0.49708251   -8.9412783    572.45325  0.010068476 0.0083976062            3 
 4739000   0.49491313   -8.9547687    573.16549  0.010078875 0.0083947047            5 
 4740000   0.48642465   -8.9398385    573.12665  0.010076066 0.0083918032            2 
 4741000    0.4839829   -8.9577718     573.3045  0.010077067 0.0083889025            3 
 4742000   0.48647406   -8.9407464    572.76774  0.010065509 0.0083860047            3 
 4743000   0.49044672     -8.96352    573.52543    0.0100767 0.0083831092            2 
 4744000   0.48067518   -8.9248863    573.12448  0.010067532 0.0083802122            3 
 4745000   0.49071623   -8.9476247    573.01652  0.010063514 0.0083773133            2 
 4746000   0.49368527    -8.939251    572.40418  0.010050642 0.0083744179            3 
 4747000   0.50858137   -8.9413689    573.34057  0.010064963 0.0083715229            1 
 4748000   0.48600199    -8.945628    573.99356  0.010074304 0.0083686293            2 
 4749000    0.4819981   -8.9480481    573.57542  0.010064846 0.0083657376            2 
 4750000   0.48410442   -8.9494167    572.52259  0.010044256 0.0083628495            2 
 4751000   0.51088175   -8.9620882     573.5729  0.010060564 0.0083599607            2 
 4752000   0.50771815   -8.9511707    572.73713  0.010043791 0.0083570748            2 
 4753000   0.49486087   -8.9584462    573.02093  0.010046654 0.0083541891            1 
 4754000   0.49297564   -8.9400526    572.67147  0.010038415 0.0083513065            2 
 4755000   0.49350578   -8.9434925    572.62484  0.010035486 0.0083484209            2 
 4756000   0.49875077   -8.9564832    573.00968  0.010040119  0.008345538            2 
 4757000   0.49347813   -8.9472018    572.19278  0.010023698 0.0083426561            2 
 4758000   0.49764079   -8.9492575    572.84409  0.010032999 0.0083397781            3 
 4759000   0.48766941   -8.9493209     572.7578  0.010029379 0.0083369028            1 
 4760000   0.48726763   -8.9551776    572.79133   0.01002786 0.0083340246            1 
 4761000   0.48821642   -8.9559894    572.59185  0.010022262 0.0083311491            3 
 4762000   0.50205929   -8.9357938    572.60402   0.01002037 0.0083282754            2 
 4763000   0.47330812   -8.9572638    571.80308  0.010004253 0.0083254012            3 
 4764000   0.49345914   -8.9605892    572.41386  0.010012837 0.0083225276            3 
 4765000   0.49687896   -8.9504591    573.20891   0.01002464 0.0083196579            2 
 4766000   0.49516373   -8.9439167    572.94622  0.010017943 0.0083167895            1 
 4767000   0.48848979   -8.9472649    573.20316  0.010020334 0.0083139204            2 
 4768000   0.49485409   -8.9434122    572.05887 0.0099982324 0.0083110545            3 
 4769000   0.48947341   -8.9431957    572.50305  0.010003898 0.0083081893            2 
 4770000   0.48868801    -8.957357    572.99135  0.010010331 0.0083053281            2 
 4771000   0.48768801   -8.9668414     573.6072   0.01001899 0.0083024656            2 
 4772000    0.4980811   -8.9466841    573.64031  0.010017468 0.0082996044            1 
 4773000   0.48958231   -8.9632748     572.6973 0.0099989053 0.0082967443            2 
 4774000    0.4842651   -8.9527837    573.46555  0.010010221  0.008293884            2 
 4775000   0.49315575   -8.9634461    572.12698 0.0099847641 0.0082910245            3 
 4776000   0.47908669   -8.9597477    573.42244  0.010005277   0.00828817            3 
 4777000   0.48842126    -8.965002     572.9089  0.009994224 0.0082853149            3 
 4778000   0.48898785   -8.9517617     572.2842  0.009981237 0.0082824591            2 
 4779000    0.4894954    -8.965811     572.9038 0.0099899525  0.008279607            2 
 4780000   0.49133313   -8.9672356     572.3165 0.0099776238 0.0082767568            2 
 4781000   0.47876158   -8.9439403    572.71817  0.009982538 0.0082739062            1 
 4782000   0.48724037    -8.951848    572.46452 0.0099760302 0.0082710551            1 
 4783000   0.48592785   -8.9514587    572.69087 0.0099778882  0.008268208            3 
 4784000   0.48235661   -8.9686892    572.71482 0.0099762197 0.0082653615            2 
 4785000   0.48434465   -8.9563387    572.09998 0.0099634271  0.008262516            3 
 4786000   0.48717683   -8.9511219    573.02526 0.0099774561 0.0082596741            4 
 4787000   0.49355103   -8.9566064    572.76353 0.0099708157 0.0082568317            3 
 4788000   0.49341407    -8.951614    572.21901  0.009959256 0.0082539926            1 
 4789000   0.49671647   -8.9552822    572.03414 0.0099539594 0.0082511527            2 
 4790000   0.48536758   -8.9636798    571.85146 0.0099487032 0.0082483132            2 
 4791000   0.49701465    -8.958975    572.68972 0.0099612071 0.0082454734            2 
 4792000   0.49182128   -8.9449756    572.67761 0.0099589178 0.0082426364            2 
 4793000   0.48995027   -8.9531536    571.59868 0.0099380813 0.0082398015            1 
 4794000   0.48280344      -8.9729    572.24717 0.0099472808 0.0082369694            2 
 4795000   0.48705786   -8.9639697     572.6879 0.0099528659 0.0082341351            3 
 4796000   0.47440179   -8.9673872    571.81754 0.0099356675 0.0082313028            1 
 4797000   0.47817696   -8.9696623    572.24502 0.0099410225 0.0082284713            2 
 4798000   0.47128508   -8.9618055    572.61305 0.0099453426 0.0082256424            3 
 4799000   0.47644506   -8.9899043    572.68382 0.0099444992  0.008222813            4 
 4800000   0.48668784   -8.9659742    573.27883 0.0099527574 0.0082199857            1 
 4801000   0.48346601   -8.9764096    573.60691 0.0099563791 0.0082171603            3 
 4802000   0.48429839    -8.961361    572.23252 0.0099304547 0.0082143342            2 
 4803000   0.47282363   -8.9611917    572.03037 0.0099248797 0.0082115124            4 
 4804000   0.48380099   -8.9474584    572.92763 0.0099383783 0.0082086902            2 
 4805000    0.4902534   -8.9698149    572.28625 0.0099251865 0.0082058693            1 
 4806000   0.48143725   -8.9596476    571.55883 0.0099105083 0.0082030491            2 
 4807000   0.47760045   -8.9752936    572.01939 0.0099164308 0.0082002271            2 
 4808000   0.49133633   -8.9386404    572.28071 0.0099188974 0.0081974109            1 
 4809000   0.48894482   -8.9759293     571.8815 0.0099099171 0.0081945949            2 
 4810000   0.48512725    -8.970575    571.71905 0.0099050425 0.0081917794            4 
 4811000   0.48466456   -8.9556377    571.64444 0.0099016913 0.0081889638            4 
 4812000   0.47355349   -8.9671534    572.06961 0.0099069967 0.0081861515            1 
 4813000   0.48870973   -8.9834047    572.66182 0.0099151918 0.0081833393            3 
 4814000    0.4793921   -8.9547428    573.55084 0.0099285217 0.0081805287            1 
 4815000   0.48071731   -8.9535285    571.87678 0.0098974867 0.0081777202            3 
 4816000    0.4698963   -8.9918081    572.61427 0.0099081927 0.0081749118            1 
 4817000   0.48060595   -8.9490612    571.52766 0.0098873375 0.0081721031            1 
 4818000   0.47798315   -8.9495532    572.50783 0.0099022387  0.008169297            2 
 4819000   0.48776863   -8.9615184    572.25499 0.0098958115 0.0081664918            2 
 4820000   0.48061693   -8.9714647    572.01671 0.0098896388 0.0081636875            1 
 4821000   0.47723165   -8.9702922    572.09076 0.0098888674 0.0081608843            2 
 4822000   0.47789151   -8.9850911    571.75254 0.0098809716 0.0081580826            2 
 4823000   0.47783123   -8.9787566    571.87649 0.0098810645 0.0081552811            2 
 4824000   0.46651737   -8.9667117    573.15462 0.0099010955 0.0081524832            5 
 4825000   0.47726204   -8.9938501      572.637 0.0098901036  0.008149686            2 
 4826000   0.47882035   -8.9743843    571.73407 0.0098724629 0.0081468897            6 
 4827000   0.48079222   -8.9699932    571.66366 0.0098692021 0.0081440943            2 
 4828000   0.46779825   -8.9573086    571.99525 0.0098728813  0.008141302            2 
 4829000   0.47991746   -8.9751038    572.47181 0.0098790607 0.0081385102            1 
 4830000   0.48189566   -8.9791096    572.49688 0.0098774479 0.0081357176            3 
 4831000   0.47771721   -8.9819632    571.97535  0.009866407 0.0081329256            2 
 4832000   0.47272066    -8.977167    571.77366 0.0098608869 0.0081301354            2 
 4833000    0.4750088   -8.9824205    572.73084 0.0098753507 0.0081273484            4 
 4834000   0.48315811   -8.9859408    571.50206 0.0098521248 0.0081245613            4 
 4835000    0.4782354   -8.9739476    572.23015 0.0098626361 0.0081217749            2 
 4836000   0.47141335   -8.9878848    572.58058 0.0098666354 0.0081189897            2 
 4837000   0.47964018   -8.9690715    572.66023 0.0098659678 0.0081162066            2 
 4838000    0.4643991   -8.9724618     572.7594 0.0098656366 0.0081134238            5 
 4839000    0.4704128   -8.9649689    571.67639 0.0098449471 0.0081106424            2 
 4840000   0.47894031     -8.97841    571.99628 0.0098484209 0.0081078608            1 
 4841000   0.47416491   -8.9742964    571.47353 0.0098373878 0.0081050786            2 
 4842000   0.47698067   -8.9695424    571.71473 0.0098395073 0.0081022989            4 
 4843000   0.48706242   -8.9797788    572.22774 0.0098463029 0.0080995227            2 
 4844000   0.47143516   -8.9600897    572.70379 0.0098524599 0.0080967488            1 
 4845000   0.47862336   -8.9777758    572.18037 0.0098414236 0.0080939753            2 
 4846000   0.47446491   -8.9691813    571.46337  0.009827063 0.0080912019            3 
 4847000   0.48194777    -8.963636    571.62011 0.0098277305 0.0080884302            2 
 4848000   0.47088996   -8.9747339    572.01956 0.0098325694 0.0080856599            2 
 4849000   0.46543772   -8.9633888    571.78934 0.0098265853 0.0080828913            2 
 4850000   0.47958535   -8.9801823    572.67945 0.0098398531  0.008080122            1 
 4851000     0.467418   -8.9822421    571.74232 0.0098217261 0.0080773566            3 
 4852000    0.4745698   -8.9689932    571.88976 0.0098222341 0.0080745925            3 
 4853000   0.47235145   -8.9670489    572.79712  0.009835791 0.0080718316            1 
 4854000   0.47078113   -8.9712321    571.63337 0.0098137854 0.0080690712            2 
 4855000   0.48331717   -8.9991241    571.53395 0.0098100575 0.0080663104            1 
 4856000   0.47595448    -8.982963    571.77558 0.0098121839 0.0080635514            3 
 4857000   0.48077307   -8.9606779    572.34056 0.0098198573 0.0080607934            3 
 4858000    0.4715513   -8.9774026    571.62922 0.0098056336 0.0080580334            2 
 4859000   0.47644095    -8.982048    572.13695 0.0098123234 0.0080552784            3 
 4860000   0.47565725   -8.9637882    571.80184 0.0098045583  0.008052523            2 
 4861000   0.47415166   -8.9845495    571.50675 0.0097974824 0.0080497679            2 
 4862000   0.47364341   -8.9799129    571.68967 0.0097986025 0.0080470132            3 
 4863000   0.46948826   -8.9788944    571.88597 0.0097999515 0.0080442613            4 
 4864000    0.4764981   -8.9791999    571.95096 0.0097990502 0.0080415087            2 
 4865000   0.47437944    -8.988951    571.85919  0.009795464 0.0080387613            3 
 4866000   0.46851426   -8.9755773     572.2066 0.0097994007 0.0080360147            1 
 4867000   0.47785168   -8.9844459    571.68958 0.0097885348 0.0080332659            2 
 4868000   0.46950016   -8.9901083    571.14461 0.0097771947 0.0080305187            3 
 4869000   0.46899283   -8.9583002    572.44595 0.0097974592 0.0080277762            4 
 4870000   0.47404489   -8.9848146    572.02912 0.0097883148 0.0080250331            2 
 4871000    0.4692335   -8.9798827    571.94747 0.0097849085 0.0080222903            3 
 4872000   0.47361413   -8.9905314    572.04798 0.0097846192 0.0080195507            2 
 4873000   0.47799777   -8.9875689    571.37478  0.009771099 0.0080168093            1 
 4874000   0.48309005   -8.9806175    571.72494  0.009775081 0.0080140705            3 
 4875000   0.46943927   -8.9915274    572.10072 0.0097794994 0.0080113326            3 
 4876000   0.47645073   -8.9761477      571.969 0.0097752427 0.0080085971            1 
 4877000   0.47049024   -8.9917288    572.71945 0.0097860612 0.0080058624            2 
 4878000   0.47356141   -8.9782294    571.57403 0.0097644874 0.0080031273            4 
 4879000   0.46421459   -8.9942369    571.90342 0.0097681119 0.0080003929            1 
 4880000   0.46748852   -8.9849305    571.87075 0.0097655525 0.0079976594            3 
 4881000   0.47772183   -8.9770259    571.93821 0.0097647035  0.007994929            2 
 4882000   0.47675964   -8.9787635    570.75178 0.0097424515 0.0079921978            4 
 4883000   0.47832259   -8.9785987    572.07297 0.0097630038 0.0079894704            3 
 4884000    0.4805229   -8.9559958    571.97984 0.0097594158 0.0079867439            5 
 4885000   0.47280907   -8.9791696    571.98522 0.0097575098 0.0079840169            2 
 4886000   0.46276042   -8.9832952    572.18142  0.009758859 0.0079812909            1 
 4887000    0.4696751   -8.9820792    571.93971 0.0097527405 0.0079785679            3 
 4888000   0.46429099   -8.9867409    572.22412  0.009755594 0.0079758433            3 
 4889000   0.47090462   -8.9838981    571.66979 0.0097441499  0.007973122            1 
 4890000   0.47129408   -8.9859337    572.41866 0.0097549192 0.0079704034            2 
 4891000   0.46648125   -8.9726787    571.38285 0.0097352766 0.0079676844            2 
 4892000   0.45809349   -8.9867028    571.24456 0.0097309308 0.0079649652            2 
 4893000   0.45794593   -8.9810951    571.91029 0.0097402802 0.0079622501            2 
 4894000   0.46806835   -8.9785711    572.18152 0.0097429084 0.0079595359            1 
 4895000   0.46375009   -8.9941136    572.26233 0.0097422937 0.0079568233            3 
 4896000   0.46797565   -8.9845603    571.91863 0.0097344538 0.0079541097            2 
 4897000    0.4647415   -8.9733111    572.17227 0.0097367821 0.0079513976            2 
 4898000   0.46700901   -8.9899387      570.879  0.009712791 0.0079486855            2 
 4899000   0.46550515   -8.9781704    571.08632 0.0097143349 0.0079459764            3 
 4900000   0.46712623   -9.0020833    571.55448 0.0097203142 0.0079432667            4 
 4901000   0.46320264   -8.9847703    571.42384 0.0097161096 0.0079405616            3 
 4902000   0.47114933   -8.9933529    572.11968 0.0097259567 0.0079378564            2 
 4903000   0.46964488   -8.9997879    571.93279 0.0097207966 0.0079351514            1 
 4904000   0.46917544   -8.9806222     572.0765 0.0097212564 0.0079324506            2 
 4905000   0.47258254    -8.993809    571.86412 0.0097156663 0.0079297488            3 
 4906000   0.46914179   -8.9944455    571.53708 0.0097081309 0.0079270475            2 
 4907000   0.47530732   -8.9920289    570.59118 0.0096900887 0.0079243476            1 
 4908000   0.46858913   -9.0064387    571.13881 0.0096974126 0.0079216495            2 
 4909000    0.4582058   -8.9814201    572.42265 0.0097172312 0.0079189515            2 
 4910000   0.46114559   -8.9950158    571.58222 0.0097009881 0.0079162527            3 
 4911000   0.47235379    -8.999499    572.53282 0.0097151433 0.0079135579            2 
 4912000   0.46118818   -8.9788519     571.5938 0.0096972346 0.0079108628            3 
 4913000   0.46588547   -8.9965527    570.55179 0.0096775865   0.00790817            1 
 4914000   0.46651916   -8.9826487    570.91298 0.0096817423 0.0079054774            1 
 4915000   0.46706468   -8.9865302    572.11477 0.0097001487 0.0079027879            2 
 4916000   0.46655294   -8.9782595    571.36536 0.0096854719 0.0079000959            3 
 4917000   0.45373786    -9.002108    570.12114 0.0096624151 0.0078974043            2 
 4918000   0.45379863   -9.0207975    571.79407 0.0096887974  0.007894715            4 
 4919000   0.45892171   -9.0051329    570.71186  0.009668494 0.0078920271            1 
 4920000   0.47148326    -9.011212    572.24938 0.0096925707 0.0078893419            2 
 4921000   0.47122683    -8.993576    571.29921 0.0096745108 0.0078866565            2 
 4922000   0.46549601   -8.9891673    571.39231 0.0096741214 0.0078839717            2 
 4923000   0.45921007   -8.9985153    571.63662 0.0096762919 0.0078812895            2 
 4924000   0.46435514   -9.0016493    571.17547 0.0096665222 0.0078786069            2 
 4925000   0.46456729   -9.0036018    571.98465 0.0096782513 0.0078759266            2 
 4926000   0.46551471   -8.9927815     571.3029 0.0096647533 0.0078732477            2 
 4927000   0.46549773   -8.9872716    571.16829 0.0096605151 0.0078705685            3 
 4928000   0.47405212   -8.9907807    571.94564 0.0096716998 0.0078678948            2 
 4929000   0.45472463   -8.9838187      571.402 0.0096605464 0.0078652204            3 
 4930000   0.45885532    -9.011203      571.913 0.0096672244 0.0078625457            2 
 4931000   0.45889141   -8.9993859    571.00481 0.0096499156 0.0078598717            1 
 4932000   0.46902666   -8.9973554    571.63681 0.0096586376 0.0078572002            1 
 4933000    0.4744421   -9.0026977    571.31386 0.0096512241 0.0078545297            3 
 4934000   0.45980746   -9.0010101     570.9914 0.0096438218 0.0078518583            3 
 4935000   0.46127085   -8.9945108    571.13448 0.0096442836 0.0078491919            3 
 4936000   0.46559872   -8.9929844    571.94461 0.0096560071 0.0078465235            1 
 4937000   0.45758206    -8.989034    571.26738   0.00964262 0.0078438575            2 
 4938000    0.4545475   -8.9804174    571.79862 0.0096496324 0.0078411932            1 
 4939000   0.45756972   -8.9963826    571.09635 0.0096358296 0.0078385308            1 
 4940000   0.45716889    -8.983588    571.39291 0.0096388817 0.0078358713            1 
 4941000   0.45770635   -8.9950543    571.71681 0.0096423938 0.0078332101            1 
 4942000   0.47074034   -8.9907262    570.91757 0.0096269656 0.0078305513            1 
 4943000   0.46566426   -9.0015722    572.41089 0.0096501937 0.0078278927            2 
 4944000   0.46984965   -8.9877957    571.65995 0.0096355845 0.0078252362            1 
 4945000   0.45566604   -8.9979871    571.55516 0.0096318699 0.0078225797            2 
 4946000   0.46915603   -9.0046017    570.91321 0.0096191066 0.0078199244            2 
 4947000   0.47196319   -9.0006979    572.21942 0.0096391655 0.0078172702            1 
 4948000   0.45568125   -8.9967786    571.13071 0.0096188815 0.0078146163            2 
 4949000   0.45350377   -9.0003886    571.43969 0.0096221407 0.0078119641            5 
 4950000   0.46775495   -9.0018735    571.41302 0.0096197478 0.0078093141            2 
 4951000   0.46735872   -9.0017553    570.12807  0.009596177 0.0078066637            3 
 4952000   0.46563448   -9.0147472    571.64727 0.0096198047  0.007804016            3 
 4953000   0.46536582   -9.0094402    570.53838 0.0095992056  0.007801371            1 
 4954000   0.46158902   -8.9951551    571.86126 0.0096195205 0.0077987263            1 
 4955000   0.45260196   -8.9896071    571.31506 0.0096083933 0.0077960845            1 
 4956000   0.46054667   -8.9940261    570.37861 0.0095907084 0.0077934407            2 
 4957000   0.45427842   -9.0178866    571.76429 0.0096120686 0.0077908003            1 
 4958000    0.4549888   -9.0068207    571.01246 0.0095974933 0.0077881591            2 
 4959000   0.45738282   -9.0146299    570.89959 0.0095936611 0.0077855201            1 
 4960000   0.45470039   -8.9993734    571.13958  0.009595759  0.007782882            1 
 4961000   0.45809775    -8.991571    571.71606 0.0096035083 0.0077802466            1 
 4962000   0.45864138   -9.0052858     570.9816 0.0095892382 0.0077776084            1 
 4963000   0.45670243    -9.001914    571.49335 0.0095958989 0.0077749702            1 
 4964000   0.45862525   -8.9992785    570.59147 0.0095788254  0.007772335            3 
 4965000    0.4456401   -9.0114754    571.30237  0.009588828  0.007769701            2 
 4966000   0.46086688   -8.9979913    571.06115 0.0095828493 0.0077670682            1 
 4967000   0.45534781   -9.0101336    571.07787 0.0095812004 0.0077644363            1 
 4968000   0.45590932   -9.0042408    571.15642 0.0095805895 0.0077618067            1 
 4969000   0.46285309   -8.9993946     570.0735 0.0095605001 0.0077591772            2 
 4970000   0.45503193     -8.99804    570.94044 0.0095731127 0.0077565492            3 
 4971000   0.45869908   -9.0182905    570.71028 0.0095673286 0.0077539202            3 
 4972000   0.44976548   -9.0035483    571.72857 0.0095824714 0.0077512951            2 
 4973000   0.45031056   -9.0133249    570.96643 0.0095677731 0.0077486707            2 
 4974000   0.45328746    -9.011797    570.94389 0.0095654719 0.0077460472            2 
 4975000    0.4608299   -9.0180963    571.31595 0.0095697814 0.0077434273            1 
 4976000   0.45431541   -9.0005517    570.84603 0.0095599885 0.0077408079            2 
 4977000    0.4628465   -9.0101703    570.73492 0.0095562072 0.0077381899            3 
 4978000   0.45234694   -8.9996106    570.72135 0.0095540604 0.0077355707            2 
 4979000   0.44973984   -9.0051278    570.79854 0.0095534335 0.0077329512            1 
 4980000   0.44701819   -9.0262206    571.09964 0.0095565536 0.0077303335            1 
 4981000   0.46110194   -9.0048771    570.47364 0.0095441617 0.0077277171            3 
 4982000   0.44961142   -9.0114061    571.62671 0.0095615333 0.0077251025            2 
 4983000   0.45173504   -9.0014741    571.00611 0.0095492359 0.0077224886            2 
 4984000   0.46460035   -9.0008335    571.02632 0.0095476578 0.0077198773            2 
 4985000    0.4510305   -9.0148053    571.22798 0.0095491137 0.0077172666            2 
 4986000   0.46394312   -9.0162203    570.73139 0.0095388987 0.0077146565            2 
 4987000   0.45280345   -9.0067826    570.27268 0.0095293209 0.0077120471            2 
 4988000   0.45604379   -9.0210223    571.67854 0.0095508978 0.0077094406            4 
 4989000    0.4518415   -9.0071827    570.48792  0.009529096 0.0077068339            2 
 4990000   0.45801474   -9.0309244    570.82624 0.0095328363 0.0077042277            3 
 4991000   0.45616546   -9.0211101    571.09333 0.0095353859 0.0077016238            1 
 4992000   0.45836515   -9.0091224    570.65335 0.0095261309 0.0076990209            1 
 4993000   0.44478473   -9.0192831    570.68367 0.0095247291 0.0076964198            1 
 4994000   0.44748505    -9.023125    571.31738 0.0095333964 0.0076938181            3 
 4995000   0.46246626   -9.0323083    571.54145 0.0095352261 0.0076912172            2 
 4996000   0.45129723    -9.015076    571.22537 0.0095280453 0.0076886192            2 
 4997000   0.45534906   -9.0060633    570.65397 0.0095166095 0.0076860233            2 
 4998000    0.4576328   -9.0306629    570.29074 0.0095086491 0.0076834268            2 
 4999000   0.44813154   -9.0166256    570.41787 0.0095088663 0.0076808337            1 
 5000000   0.45431525   -9.0173878    571.17938 0.0095196563 0.0076782371            2 
 5001000   0.44824003     -9.02136    570.89491 0.0095130126 0.0076756419            2 
 5002000   0.45260843   -9.0136945    571.77887 0.0095258375 0.0076730506            2 
 5003000   0.45186357   -9.0065495    570.37082   0.00950048 0.0076704581            3 
 5004000   0.44867605   -9.0077819    571.80868 0.0095225266 0.0076678711            2 
 5005000   0.44954037   -9.0008292    571.49172 0.0095153466 0.0076652849            2 
 5006000   0.46537283   -9.0124664    570.80547  0.009502022 0.0076626986            2 
 5007000   0.45088225   -9.0155683    572.05626 0.0095209417  0.007660115            2 
 5008000   0.45278542   -9.0287675    570.46499 0.0094925617 0.0076575293            1 
 5009000   0.45399176   -9.0109311    570.30833 0.0094880604 0.0076549462            2 
 5010000   0.45178761   -9.0083348    570.31201 0.0094862278 0.0076523634            2 
 5011000   0.44755034   -9.0302138    571.27978 0.0095004287 0.0076497818            2 
 5012000   0.45881459    -9.011744    570.39874 0.0094838843 0.0076472028            1 
Loop time of 12467.8 on 48 procs for 5000000 steps with 4000 atoms

Performance: 69298.261 tau/day, 401.032 timesteps/s
99.4% CPU use with 48 MPI tasks x no OpenMP threads

MPI task timing breakdown:
Section |  min time  |  avg time  |  max time  |%varavg| %total
---------------------------------------------------------------
Pair    | 786.22     | 894.53     | 949.73     | 107.0 |  7.17
Neigh   | 81.19      | 85.057     | 88.794     |  21.5 |  0.68
Comm    | 791.68     | 846.47     | 955.12     | 111.7 |  6.79
Output  | 13.575     | 13.58      | 13.659     |   0.3 |  0.11
Modify  | 10493      | 10515      | 10537      |  10.3 | 84.34
Other   |            | 112.8      |            |       |  0.90

Nlocal:        83.3333 ave          93 max          75 min
Histogram: 1 1 9 8 11 6 7 2 0 3
Nghost:        2186.40 ave        2206 max        2166 min
Histogram: 1 2 5 4 13 9 4 4 3 3
Neighs:        14514.1 ave       16511 max       12417 min
Histogram: 2 0 5 9 7 11 6 3 2 3
FullNghs:      29026.5 ave       32549 max       26132 min
Histogram: 1 2 8 8 12 10 2 2 0 3

Total # of neighbors = 1393272
Ave neighs/atom = 348.31800
Neighbor list builds = 266969
Dangerous builds = 0

#clear
#
#next RN
#
#jump SELF
Total wall time: 3:27:51
