
units lj                  # Use reduced LJ style units
atom_style atomic         # Uncharged point particles
atom_modify map hash      # Needed for indexing of clusters etc
                          # Used to be able to find where atoms are in relation to each other.

lattice fcc 1.0 spacing 1 1 1
Lattice spacing in x,y,z = 1.5874011 1.5874011 1.5874011
region box block 0 10 0 10 0 10 units lattice
create_box 2 box
Created orthogonal box = (0.0000000 0.0000000 0.0000000) to (15.874011 15.874011 15.874011)
  3 by 4 by 4 MPI processor grid
create_atoms 1 box
Created 4000 atoms
  using lattice units in orthogonal box = (0.0000000 0.0000000 0.0000000) to (15.874011 15.874011 15.874011)
  create_atoms CPU = 0.010 seconds
set type 1 type/fraction 2 0.23 78393
Setting atom values ...
  954 settings made for type/fraction
mass 1 1.0
mass 2 1.0
pair_style lj/cut  3.5
pair_modify tail  yes
pair_coeff 1  1  1.0  1.0   # Intearaction between 1 and 1 set with epsilon = 1 and sigma = 1
pair_coeff 1  2  1.5  0.8
pair_coeff 2  2  0.5  0.88

write_data data.0
System init for write_data ...
Neighbor list info ...
  update every 1 steps, delay 10 steps, check yes
  max neighbors/atom: 2000, page size: 100000
  master list distance cutoff = 3.8
  ghost atom cutoff = 3.8
  binsize = 1.9, bins = 9 9 9
  1 neighbor lists, perpetual/occasional/extra = 1 0 0
  (1) pair lj/cut, perpetual
      attributes: half, newton on
      pair build: half/bin/atomonly/newton
      stencil: half/bin/3d
      bin: standard
WARNING: Not all mixed pair coeffs generated from mixing. Use write_data with 'pair ij' option to store all pair coeffs. (../write_data.cpp:312)


#############################
#   M E L T   S Y S T E M   #
#############################

velocity all create 2.4 9580093 mom yes dist gaussian # Assign velocities
                                                    # Temperature 2.4, random number seed, zero linear momentum
                                                                                # Gaussian distribution

timestep 0.002   # simulation timestep
thermo 1000       # output thermodynamic data every 1000 steps bf 100

# Define a fix  in this case with index 1 applied to all
# particles in the simulation. This fix is for simulations
# in the anisotropic NPT ensemble. Note that we use the MTK
# correction.
fix 1 all npt temp 2.4 2.4 0.1 iso 5.68 5.68 0.5 mtk yes tchain 5 pchain 5 # Use NPT ensemble
                                                                         # Set temperature and pressure and damping
                                                                         # Numbers of thermostats in chain and in barostat
run 10000          # run for 10000 steps
Per MPI rank memory allocation (min/avg/max) = 3.642 | 3.644 | 3.648 Mbytes
Step Temp E_pair E_mol TotEng Press Volume 
       0          2.4   -6.8530311            0   -3.2539311   -3.7471165         4000 
    1000    2.3965353    -4.885912            0   -1.2920077    5.5901794    4379.6769 
    2000    2.4517084   -4.8558825            0   -1.1792393    5.8783137    4367.0887 
    3000    2.3947399   -4.8790864            0   -1.2878746    5.5020644    4392.8713 
    4000    2.4013526   -4.8444247            0   -1.2432962    5.6436999    4390.3971 
    5000    2.4556894   -4.9006738            0   -1.2180606    5.5835308    4379.4425 
    6000    2.3509431   -4.9445397            0   -1.4190066    5.5713945    4357.5826 
    7000    2.3821583   -4.8440097            0   -1.2716656    5.6361005    4406.1837 
    8000     2.435349   -4.8711542            0   -1.2190439    5.6039785    4384.4532 
    9000    2.4601388   -4.9123853            0   -1.2230998    5.6251445    4365.7267 
   10000    2.4494042   -4.8945029            0   -1.2213152    5.6341972    4374.3972 
Loop time of 2.30841 on 48 procs for 10000 steps with 4000 atoms

Performance: 748567.486 tau/day, 4331.988 timesteps/s
99.6% CPU use with 48 MPI tasks x no OpenMP threads

MPI task timing breakdown:
Section |  min time  |  avg time  |  max time  |%varavg| %total
---------------------------------------------------------------
Pair    | 0.9957     | 1.057      | 1.1296     |   3.0 | 45.79
Neigh   | 0.19717    | 0.20616    | 0.22163    |   1.0 |  8.93
Comm    | 0.69408    | 0.7863     | 0.8643     |   4.4 | 34.06
Output  | 0.00023912 | 0.00024357 | 0.00031536 |   0.0 |  0.01
Modify  | 0.21984    | 0.24396    | 0.27817    |   3.2 | 10.57
Other   |            | 0.01475    |            |       |  0.64

Nlocal:        83.3333 ave          91 max          76 min
Histogram: 4 5 4 4 9 4 7 2 3 6
Nghost:        1546.88 ave        1571 max        1515 min
Histogram: 1 0 2 5 6 15 8 7 3 1
Neighs:        8722.12 ave        9957 max        7601 min
Histogram: 2 5 7 7 5 5 7 5 1 4

Total # of neighbors = 418662
Ave neighs/atom = 104.66550
Neighbor list builds = 909
Dangerous builds = 221

# Equilibrate just above the melting temperature to avoid step fn in T

fix 1 all npt temp 1.25 1.25 0.1 iso 5.68 5.68 0.5 mtk yes tchain 5 pchain 5
run 2000
Per MPI rank memory allocation (min/avg/max) = 3.643 | 3.645 | 3.649 Mbytes
Step Temp E_pair E_mol TotEng Press Volume 
   10000    2.4494042   -4.8945029            0   -1.2213152    5.6341972    4374.3972 
   11000    1.2322236   -6.6227858            0   -4.7749124    5.5972553     3563.328 
   12000    1.2439066   -6.6389284            0   -4.7735349     5.362714    3572.5475 
Loop time of 0.508646 on 48 procs for 2000 steps with 4000 atoms

Performance: 679450.378 tau/day, 3932.005 timesteps/s
99.7% CPU use with 48 MPI tasks x no OpenMP threads

MPI task timing breakdown:
Section |  min time  |  avg time  |  max time  |%varavg| %total
---------------------------------------------------------------
Pair    | 0.23223    | 0.25104    | 0.28018    |   2.0 | 49.36
Neigh   | 0.032225   | 0.034584   | 0.037306   |   0.6 |  6.80
Comm    | 0.13918    | 0.17022    | 0.19451    |   2.7 | 33.46
Output  | 4.7136e-05 | 4.8233e-05 | 6.3017e-05 |   0.0 |  0.01
Modify  | 0.042272   | 0.048222   | 0.053763   |   1.2 |  9.48
Other   |            | 0.004531   |            |       |  0.89

Nlocal:        83.3333 ave          91 max          74 min
Histogram: 2 4 4 4 7 4 5 11 4 3
Nghost:        1768.35 ave        1790 max        1738 min
Histogram: 1 2 4 7 2 10 3 6 10 3
Neighs:        10720.0 ave       11974 max        9218 min
Histogram: 2 2 4 5 9 3 10 4 5 4

Total # of neighbors = 514559
Ave neighs/atom = 128.63975
Neighbor list builds = 142
Dangerous builds = 13

#############################
# L I N E A R  Q U E N C H  #
#############################

# Define solid atoms. This closely follows ten Wolde  Ruiz-Montero and Frenkel  Faraday Discuss  1996  104  93-110
# Compute components of the per-atom q6 vector
compute q6 all orientorder/atom degrees 1 6 components 6 nnn NULL cutoff 1.3 # compute the Q6 parameter.
                                                                             # Use all neighbours within 1.3 unit cell.

# get number of connections
compute coord_number all coord/atom orientorder q6 0.5

# An atom is solid if it has 8 or more connections (of a possible 14)
variable is_solid atom c_coord_number>=8
group solid dynamic all var is_solid    # Must be dynamic to update
dynamic group solid defined

# do clustering
compute cluster solid cluster/atom 1.3 # Create a cluster where all atoms within are solid and max 1.3 units from another member

# define chunks one chunk per cluster
compute clus_chunks solid chunk/atom c_cluster nchunk every compress yes  # Says which atoms are in which chunk

# count the size of each chunk
compute size_chunks solid property/chunk clus_chunks count


# Find the maximum entry in the vector of chunk sizes
variable max_n equal max(c_size_chunks)


# Thermo style which includes this variable
# thermo_style custom step temp pe vol v_max_n

thermo ${N}  # Print the thermo information every 100 steps
thermo 1000  

# Reset the npt fix at a lower temperature (below freezing)
fix 1  all npt temp  ${temp} ${temp}  0.1  iso  5.68  5.68  0.5  mtk yes tchain  5  pchain  5
fix 1  all npt temp  0.45 ${temp}  0.1  iso  5.68  5.68  0.5  mtk yes tchain  5  pchain  5
fix 1  all npt temp  0.45 0.45  0.1  iso  5.68  5.68  0.5  mtk yes tchain  5  pchain  5

dump dmp2 all dcd ${N} traj.dcd
dump dmp2 all dcd 1000 traj.dcd


compute msd all msd com yes
variable twopoint equal c_msd[4]/6/(step*dt+1.0e-6)
fix 9 all vector 10 c_msd[4]
variable fit equal slope(f_9)/6/(10*dt)
thermo_style custom step temp pe c_msd[4] v_twopoint v_fit v_max_n

fix 1 all npt temp 1.25 ${temp} 0.1 iso 5.68 5.68 0.5 mtk yes tchain 5 pchain 5
fix 1 all npt temp 1.25 0.45 0.1 iso 5.68 5.68 0.5 mtk yes tchain 5 pchain 5
run 2000000 # 5000000  # Run for this many steps
Neighbor list info ...
  update every 1 steps, delay 10 steps, check yes
  max neighbors/atom: 2000, page size: 100000
  master list distance cutoff = 3.8
  ghost atom cutoff = 3.8
  binsize = 1.9, bins = 9 9 9
  4 neighbor lists, perpetual/occasional/extra = 1 3 0
  (1) pair lj/cut, perpetual
      attributes: half, newton on
      pair build: half/bin/atomonly/newton
      stencil: half/bin/3d
      bin: standard
  (2) compute orientorder/atom, occasional
      attributes: full, newton on
      pair build: full/bin/atomonly
      stencil: full/bin/3d
      bin: standard
  (3) compute coord/atom, occasional
      attributes: full, newton on
      pair build: full/bin/atomonly
      stencil: full/bin/3d
      bin: standard
  (4) compute cluster/atom, occasional
      attributes: full, newton on
      pair build: full/bin/atomonly
      stencil: full/bin/3d
      bin: standard
Per MPI rank memory allocation (min/avg/max) = 9.778 | 9.784 | 9.790 Mbytes
Step Temp PotEng c_msd[4] v_twopoint v_fit v_max_n 
   12000    1.2439066   -6.6389284 5.9164568e-34 4.1086504e-36 8.3333333e+20            1 
   13000    1.2536034   -6.6620034   0.56183848 0.0036015286  0.046214237            4 
   14000    1.2626083   -6.6681196       1.0831 0.0064470233  0.045369031            1 
   15000    1.2765051   -6.6919521    1.6283937 0.0090466314  0.045277831            1 
   16000    1.2536061   -6.6440324    2.1537775  0.011217591  0.044730992            2 
   17000    1.2570192   -6.6672906     2.678994  0.013132323  0.044362253            2 
   18000    1.2621037    -6.633046     3.185083  0.014745754  0.044115837            1 
   19000    1.2546077    -6.660416    3.6701994  0.016097365  0.043551683            2 
   20000    1.2464837    -6.661085     4.136938  0.017237241  0.043146598            1 
   21000    1.2306118   -6.6567909     4.582033   0.01818267  0.042570222            3 
   22000    1.2300465   -6.6952381    5.0800533  0.019242626   0.04203996            1 
   23000    1.2559266   -6.6938414    5.6522906  0.020479313  0.041892884            4 
   24000    1.2281139   -6.7002616    6.1029576  0.021190825  0.041894507            1 
   25000    1.2529122   -6.7188373    6.5133326  0.021711108  0.041669209            1 
   26000    1.2502481   -6.6685581    6.9746292   0.02235458  0.041421332            3 
   27000    1.2371484   -6.6910814    7.5049298  0.023163363  0.041272714            1 
   28000    1.2635292   -6.6635316    7.9908554  0.023782307  0.041128283            2 
   29000    1.2431354   -6.6681639    8.5241774  0.024494762  0.041046093            2 
   30000    1.2385926   -6.7039165    9.0063235  0.025017565  0.041049846            2 
   31000    1.2331835   -6.6362995    9.5143376  0.025576176   0.04106209            1 
   32000    1.2525682   -6.6639527    10.034801  0.026132295  0.041030495            1 
   33000    1.2262861   -6.6394068    10.583133  0.026725083  0.041095962            1 
   34000    1.2387993    -6.680773    11.137403  0.027297556  0.041204042            2 
   35000    1.2188144    -6.687466    11.666261  0.027776812  0.041313132            3 
   36000    1.2046441   -6.7293424     12.12008  0.028055739  0.041381753            1 
   37000    1.2271145   -6.6933776    12.730419  0.028672115  0.041492461            1 
   38000     1.249413   -6.7088234    13.311294  0.029191433  0.041666364            1 
   39000    1.2380571     -6.68639     13.84795  0.029589636  0.041799238            2 
   40000    1.2535921   -6.6977193    14.309798  0.029812079  0.041930926            1 
   41000    1.2485994   -6.6975022     14.70804   0.02989439  0.041991334            2 
   42000    1.2372322   -6.6744559    15.126774   0.03001344  0.041976012            1 
   43000     1.244934   -6.6900678    15.581942  0.030197561  0.041966475            2 
   44000    1.2634604   -6.6755066    16.086985  0.030467775  0.041917761            3 
   45000    1.2583325   -6.6840311    16.618006  0.030774085  0.041881499            1 
   46000    1.2413333   -6.7363091    17.099152  0.030976725  0.041858956            1 
   47000     1.249475   -6.6499429    17.697916  0.031379284  0.041857466            2 
   48000    1.2633808   -6.7001084    18.109274  0.031439711  0.041835139            1 
   49000    1.2220146   -6.6887811    18.643866  0.031707254   0.04181222            2 
   50000    1.2247282    -6.689264    19.097412  0.031829019  0.041792273            2 
   51000    1.2109715   -6.6695031    19.516164  0.031889157  0.041776935            1 
   52000    1.2562081    -6.652984    19.992964  0.032040007  0.041711921            1 
   53000    1.2050018   -6.7013512    20.406948  0.032086395  0.041648551            1 
   54000    1.2318601   -6.7090496    20.911163  0.032270313  0.041586682            2 
   55000    1.2414034   -6.7213162    21.265893   0.03222105  0.041514107            1 
   56000    1.2243439   -6.7070887    21.794959  0.032432974  0.041455348            3 
   57000    1.2460137   -6.7095262    22.461111  0.032837881  0.041441254            1 
   58000    1.2134991   -6.6769543    23.057204  0.033128166  0.041434465            1 
   59000    1.2205855   -6.6826931    23.588226  0.033316702   0.04145835            1 
   60000     1.213205   -6.6978466    24.109187  0.033484981  0.041470004            1 
   61000    1.2183011   -6.6500035    24.636822  0.033656861  0.041501341            3 
   62000    1.2307333   -6.7138645    24.931789  0.033510469  0.041483535            1 
   63000    1.2496141   -6.7049205    25.236463  0.033381564  0.041453149            2 
   64000    1.2313584    -6.752252    25.726516  0.033498068  0.041405288            1 
   65000    1.2281441   -6.7207281    26.174685  0.033557288  0.041344689            1 
   66000     1.216228   -6.7348837    26.539708  0.033509732  0.041288943            2 
   67000    1.1897034   -6.6656519    27.056344  0.033652169  0.041233208            1 
   68000     1.242417   -6.7169216    27.550744  0.033763166  0.041176428            1 
   69000    1.2179076   -6.6918046    27.829132  0.033610063  0.041118147            1 
   70000    1.2281669   -6.7351474    28.148434   0.03351004  0.041033549            1 
   71000    1.2491284   -6.7124697    28.533382  0.033489885  0.040935196            3 
   72000    1.2177376   -6.7004864    28.977966  0.033539312  0.040833385            4 
   73000     1.202796   -6.7619168    29.337565  0.033490371  0.040725449            1 
   74000    1.2221198   -6.7127143    29.890992  0.033661027  0.040630143            3 
   75000    1.2278645   -6.6880044    30.320484  0.033689427  0.040538965            1 
   76000    1.2551298   -6.7004866    30.678322  0.033638511   0.04044309            2 
   77000    1.2096524   -6.7384264    30.964866  0.033511759  0.040352633            2 
   78000    1.2275219   -6.7094255      31.6329  0.033795833  0.040264196            2 
   79000    1.2348945   -6.7530824    32.058781   0.03381728  0.040189927            1 
   80000    1.2050698   -6.7186975    32.759274  0.034124244  0.040130975            1 
   81000    1.2289567   -6.7597353    33.131124  0.034085519  0.040078534            1 
   82000    1.2306413   -6.7244062    33.560883  0.034106588  0.040029872            2 
   83000    1.2005857   -6.7247244    34.133042  0.034270122   0.03998123            1 
   84000    1.1855257    -6.706877    34.373926  0.034101117  0.039926348            2 
   85000    1.2165099   -6.7229744    34.782024  0.034100024  0.039868722            2 
   86000    1.2052197   -6.6745224    35.371545  0.034274753  0.039804447            2 
   87000    1.2222223   -6.7363855    35.846041  0.034335288  0.039757902            1 
   88000    1.2104759   -6.7306752    36.235272  0.034313704  0.039709386            2 
   89000     1.217757   -6.7193781    36.696375  0.034359902  0.039666855            3 
   90000    1.2163052   -6.7063732    37.376893  0.034608234  0.039630667            2 
   91000    1.2172677   -6.7094246    37.652889  0.034480667  0.039593917            1 
   92000    1.2232263   -6.7301631    37.959937  0.034384001  0.039549225            6 
   93000     1.202539   -6.7079392    38.490598  0.034489783  0.039502965            2 
   94000    1.2326057      -6.7533    38.834121  0.034427412  0.039462635            4 
   95000    1.2146324   -6.7617837    39.328571  0.034498746  0.039415623            2 
   96000    1.2268183   -6.7433088    39.905288  0.034640007  0.039379153            1 
   97000    1.2189585    -6.709345    40.392916  0.034701818  0.039353131            3 
   98000    1.2212777   -6.7284306    41.083994  0.034935369  0.039334649            1 
   99000    1.1768845   -6.6986497    41.797998    0.0351835    0.0393216            2 
  100000    1.2034803   -6.7441144    42.108738  0.035090615  0.039319699            1 
  101000    1.2212279   -6.7244763    42.663488  0.035200898  0.039313599            2 
  102000    1.2066687    -6.740359    43.178106   0.03527623  0.039311395            1 
  103000     1.209452    -6.716931    43.516203  0.035207284  0.039308207            1 
  104000    1.2289151   -6.7317485    43.952509  0.035218357  0.039303969            2 
  105000     1.248383   -6.7451974    44.489961  0.035309493  0.039291434            1 
  106000    1.2258341   -6.7499363    44.667961  0.035116321  0.039280398            1 
  107000    1.2025383   -6.7547279    45.249065  0.035240705  0.039272078            1 
  108000     1.195338   -6.7513209    45.868424  0.035392303  0.039264567            1 
  109000    1.2485079   -6.6928225    46.694396  0.035699079  0.039261523            2 
  110000    1.2166849   -6.7429268    46.901727  0.035531611  0.039259642            1 
  111000    1.1995767   -6.7339888    47.308993  0.035517262  0.039251569            1 
  112000     1.215117   -6.7170343    47.849814   0.03560254  0.039255829            2 
  113000     1.234814   -6.7123074    48.475607  0.035748973  0.039259201            3 
  114000    1.2049615   -6.7104067    48.919333  0.035759746  0.039264793            2 
  115000    1.1965885   -6.7727823     49.26399  0.035698543  0.039266405            2 
  116000    1.2166703   -6.7575082    49.764926  0.035750665  0.039266779            2 
  117000    1.2256422   -6.7637684    50.342129  0.035856217  0.039270372            1 
  118000    1.2124915   -6.7421513    50.862268  0.035919681   0.03927601            2 
  119000    1.2041071    -6.680492    51.278946  0.035909626  0.039278608            1 
  120000     1.224601   -6.7751421    51.664574  0.035878177  0.039285181            2 
  121000    1.2196438   -6.7406306    52.440377  0.036115962  0.039293369            2 
  122000     1.199223   -6.7740688    53.032213  0.036224189  0.039312564            2 
  123000    1.2139815   -6.7643697    53.343535  0.036140606   0.03932664            2 
  124000    1.2123681   -6.7763976    53.635184  0.036045151    0.0393327            3 
  125000     1.198515   -6.7557814    53.590665   0.03572711   0.03933017            4 
  126000    1.2064198   -6.7555038    54.210117  0.035853252  0.039319417            4 
  127000    1.2159643   -6.7758828    54.279434  0.035616426  0.039305018            3 
  128000     1.225812   -6.7591384     54.64597  0.035576803  0.039284881            2 
  129000    1.1973165   -6.7462249    55.021432   0.03554356  0.039255097            3 
  130000    1.2197181   -6.7708969    55.398536  0.035511882  0.039224281            2 
  131000    1.1883071   -6.7576701    56.059338  0.035661157  0.039196827            2 
  132000    1.1986669   -6.7772429    56.357176  0.035579025  0.039173074            2 
  133000    1.2041263   -6.7456782    57.002573  0.035715898  0.039147744            1 
  134000    1.1820484   -6.7488204    57.385748  0.035687654  0.039119782            1 
  135000    1.2088896   -6.7141019    58.069091  0.035845118  0.039096389            2 
  136000    1.1685967   -6.8020702    58.180695  0.035649935  0.039073031            3 
  137000    1.1779973   -6.7622384    58.720582  0.035718116  0.039050542            3 
  138000    1.2019825   -6.7309576    58.997007  0.035626212  0.039027167            2 
  139000    1.1863392   -6.7568043     59.67336  0.035775395  0.039008571            2 
  140000     1.190819   -6.7546866    60.095327  0.035771028  0.038986511            2 
  141000     1.195683   -6.7399144    60.587301  0.035808097   0.03896294            3 
  142000    1.2064048   -6.7545322    61.217268  0.035925626  0.038942586            3 
  143000    1.1859282   -6.7605073    61.608463  0.035902367  0.038925991            1 
  144000    1.2371169   -6.7388182    61.962198  0.035857753  0.038908681            2 
  145000    1.1910677   -6.8193028    62.095442  0.035687035  0.038887162            2 
  146000    1.1929014   -6.7770583    62.565375   0.03571083  0.038863943            1 
  147000    1.1876887   -6.7728767    62.875755  0.035643852  0.038840467            1 
  148000    1.1988701   -6.7558013    63.585787  0.035802808  0.038815119            1 
  149000    1.1784555   -6.7759445    63.685303  0.035618178  0.038790252            2 
  150000    1.2100032   -6.7967684    63.823823  0.035457679  0.038761669            2 
  151000    1.1776659   -6.7739471    64.569017  0.035634115  0.038734666            2 
  152000    1.1769053   -6.7741824    65.422915  0.035867826  0.038712211            1 
  153000    1.1950796    -6.799687    65.490316  0.035670107  0.038690284            4 
  154000    1.1735497   -6.7632568    65.806678  0.035609674  0.038664296            4 
  155000    1.1855408   -6.8066291    66.409124   0.03570383  0.038637127            1 
  156000    1.1715349   -6.8235212    66.499211  0.035523083  0.038610426            2 
  157000    1.1998781   -6.7757722    67.642157   0.03590348  0.038587596            1 
  158000    1.2278174   -6.7888829    67.700508  0.035707019  0.038567082            2 
  159000    1.2018873   -6.8148773    67.886732  0.035580048  0.038542676            2 
  160000    1.2072827   -6.7548667    68.667911  0.035764537  0.038517562            2 
  161000    1.1998756   -6.7858079    69.131113  0.035782149  0.038498682            4 
  162000    1.1832849   -6.8141507    69.165159  0.035578785  0.038478144            3 
  163000    1.2067787   -6.7597063     69.97923  0.035776702  0.038455343            2 
  164000    1.1846178   -6.7519949     70.16766  0.035654298   0.03843183            1 
  165000    1.1898147   -6.7864815    70.675926  0.035694912  0.038409628            3 
  166000    1.2002262   -6.7987189    70.968338  0.035626676  0.038385477            1 
  167000    1.1617276   -6.8158492    71.293427  0.035575562  0.038362062            2 
  168000    1.1917703   -6.7592741    71.683146  0.035557116  0.038335891            2 
  169000    1.1808328   -6.7704569     72.19218  0.035597722  0.038310827            1 
  170000    1.1827601   -6.7982097    72.511346  0.035544777  0.038284492            2 
  171000    1.1959173    -6.808605    73.009329  0.035579595  0.038259059            1 
  172000    1.2000124   -6.7958576    73.510322  0.035615466  0.038236651            3 
  173000    1.2130182   -6.7880093    73.984166  0.035637845  0.038215593            3 
  174000    1.1594621    -6.759868    74.523928  0.035691536  0.038193735            2 
  175000    1.1765585   -6.7767956    75.061623   0.03574363  0.038172864            2 
  176000    1.1750583   -6.8269145    75.071443  0.035545191  0.038151863            2 
  177000    1.1786201   -6.7569769    75.634907  0.035609655  0.038128368            2 
  178000    1.1735391   -6.7971503     75.96416  0.035563745  0.038103266            2 
  179000    1.1908359   -6.8199768    76.163729  0.035457974   0.03807892            1 
  180000    1.1715582   -6.7948967    76.880803  0.035592964  0.038053824            1 
  181000    1.1670556    -6.773031      77.3263  0.035601427  0.038031656            2 
  182000    1.1611974   -6.7783214    77.752478  0.035600951  0.038010828            5 
  183000    1.1782296   -6.7911621    78.140767  0.035583227  0.037988339            2 
  184000    1.1624682   -6.7991656    78.019511  0.035334923  0.037961378            4 
  185000    1.1925359   -6.8064025    78.672934  0.035438259  0.037932727            2 
  186000    1.1769182   -6.8176729    79.068326  0.035424877  0.037904396            2 
  187000    1.1824311   -6.8184441    79.633487  0.035487294   0.03787847            2 
  188000    1.1867699   -6.7921562    80.126543  0.035517085  0.037853338            1 
  189000    1.1954819   -6.7720586    80.518889  0.035502156  0.037830976            1 
  190000    1.2070771   -6.8191022    81.080042  0.035561422  0.037808329            2 
  191000    1.1908613   -6.8157362    81.279898  0.035462434  0.037786173            4 
  192000    1.1779874   -6.7859898    81.787364  0.035497988  0.037761874            2 
  193000    1.2130766   -6.7920058    82.294581  0.035533066  0.037738999            3 
  194000    1.1669643   -6.8010299     82.41481   0.03540155  0.037715966            2 
  195000    1.1915821   -6.7391857    83.184803  0.035549061  0.037691764            2 
  196000    1.1709887   -6.7973624    83.031343  0.035302442  0.037667588            3 
  197000    1.1816565   -6.7841567    83.546393  0.035341114  0.037640674            2 
  198000     1.184299   -6.8175475     84.03426  0.035367955  0.037615388            5 
  199000    1.2061567   -6.8169272    84.572144   0.03541547  0.037590728            1 
  200000    1.1894639   -6.7958157    84.816922  0.035340384  0.037568269            2 
  201000    1.1833141   -6.7989689    85.633805  0.035503236  0.037546084            1 
  202000    1.1538941   -6.8144664    85.928579  0.035449084  0.037527132            3 
  203000    1.1578071   -6.8000638    86.356713   0.03545021  0.037509407            2 
  204000    1.2013492   -6.7712788     86.98198  0.035531854  0.037490913            3 
  205000     1.159963   -6.8065712     87.51147  0.035573768  0.037475208            1 
  206000    1.1639767   -6.8127773    87.589496  0.035432644  0.037456542            3 
  207000    1.1619641   -6.8205417    88.067079  0.035453736  0.037437997            1 
  208000    1.1603453   -6.8321716    88.592751   0.03549389  0.037419854            1 
  209000    1.1683913   -6.8123833    88.882051  0.035439414  0.037402784            1 
  210000    1.1686664   -6.7906781    89.309351  0.035440219  0.037384294            2 
  211000    1.1605708   -6.8488566    89.616357  0.035393506    0.0373665            3 
  212000      1.15364   -6.8315237    89.931947  0.035350608   0.03734734            2 
  213000    1.1684706   -6.8029245    90.290897  0.035325077  0.037327664            1 
  214000    1.1619855   -6.8286348    90.461959   0.03522662  0.037306856            1 
  215000     1.177325   -6.8399489    91.246535  0.035366874  0.037285439            2 
  216000    1.1769892    -6.897995    91.766887  0.035403892  0.037265392            1 
  217000    1.1506405    -6.810157    91.882641  0.035285193  0.037246793            1 
  218000    1.1834928   -6.8487919    92.216642   0.03525101  0.037227808            3 
  219000    1.1829489   -6.8241502    92.789327  0.035307963  0.037208084            2 
  220000    1.1576124   -6.8250359    93.465851  0.035403731   0.03718947            1 
  221000     1.162552   -6.8011583    94.198646  0.035519851  0.037173241            2 
  222000    1.1643541   -6.8358469    94.122161  0.035331142  0.037155816            2 
  223000    1.1788913   -6.8423973    94.646796  0.035368758  0.037138835            3 
  224000    1.1630701   -6.8092268    94.878514  0.035297066  0.037123341            2 
  225000    1.1652108   -6.7641044    95.634913  0.035420338  0.037107695            1 
  226000    1.1465083   -6.8601611    95.788365  0.035320193   0.03709123            1 
  227000    1.1529876   -6.8310516    96.520622  0.035433415  0.037074539            1 
  228000    1.1903732   -6.8006413    96.768222  0.035368502  0.037059303            2 
  229000     1.140395   -6.8323812    97.139648  0.035349217  0.037040596            3 
  230000    1.1533587   -6.8239412    97.624003  0.035371016  0.037021934            4 
  231000    1.1615933   -6.8048467    97.614047  0.035214303  0.037001974            1 
  232000    1.1368258   -6.8368889    98.126291  0.035246512  0.036981852            2 
  233000    1.1871074   -6.8673919    98.718007   0.03530687  0.036962688            1 
  234000    1.1782969   -6.8946108    98.689713  0.035145909  0.036945564            2 
  235000    1.1467506   -6.7890365    99.673666  0.035345271   0.03693168            4 
  236000    1.1300096   -6.8128766    99.931811  0.035286656  0.036914341            2 
  237000    1.1674032   -6.8242649    99.986126  0.035156865  0.036894332            2 
  238000    1.1707898   -6.8818304    100.20118  0.035084445  0.036874803            2 
  239000    1.1233933   -6.8506181    100.87932  0.035174099  0.036856483            1 
  240000     1.142971    -6.844798    101.15555  0.035123456  0.036837513            1 
  241000    1.1537327   -6.8317014    101.51907  0.035103412  0.036817269            1 
  242000    1.1691618   -6.8470988    101.73125  0.035031422  0.036796847            1 
  243000    1.1607456   -6.8542448    102.43646    0.0351291  0.036777831            1 
  244000    1.1331757   -6.8493583    102.53198  0.035017754  0.036757866            2 
  245000     1.142023   -6.8499617    103.20598  0.035104076  0.036737771            1 
  246000    1.1575576   -6.8285284    103.72353  0.035136698  0.036719626            1 
  247000    1.1448166   -6.8688945    104.08499  0.035116394   0.03670377            7 
  248000     1.139898   -6.8644985    104.88457  0.035243469  0.036688822            2 
  249000    1.1590625   -6.8655172    105.07977  0.035167257  0.036674203            2 
  250000    1.1329243   -6.8626005    105.31919  0.035106396  0.036658326            1 
  251000    1.1639589   -6.8901435    105.42877  0.035002912  0.036641509            2 
  252000    1.1415125   -6.8821236    106.31615  0.035157458  0.036625091            1 
  253000    1.1362398   -6.8415706    106.67104  0.035135387  0.036609226            2 
  254000    1.1379768   -6.8623693     106.5349  0.034952395  0.036591827            3 
  255000    1.1512137   -6.8603947    107.02097  0.034974174  0.036574744            4 
  256000    1.1395345   -6.8726196    107.87173  0.035114496  0.036558923            2 
  257000    1.1132286   -6.8425546    108.22962  0.035093912  0.036543597            3 
  258000    1.1339264    -6.860973    108.51949  0.035051514  0.036527333            2 
  259000    1.1749408   -6.8664994    109.15959  0.035122134  0.036511534            4 
  260000    1.1456343   -6.8549826    109.33766  0.035044123  0.036496357            1 
  261000    1.1641493   -6.9017734    109.12484  0.034841903  0.036479347            4 
  262000    1.1472328   -6.8137789    110.34435  0.035096804  0.036463117            3 
  263000    1.1351164   -6.8765731    110.59284  0.035042091  0.036448031            3 
  264000     1.143078   -6.8731942    110.60419  0.034912939  0.036432127            2 
  265000    1.1459861   -6.8557645    111.31594  0.035005011  0.036413974            3 
  266000    1.1056927   -6.8916099    111.50793  0.034933563  0.036398465            2 
  267000    1.1415843   -6.8547772    112.07171  0.034978685  0.036382507            3 
  268000    1.1509014   -6.8745622    112.78416  0.035069702  0.036366846            3 
  269000    1.1386084   -6.8893885    112.85181  0.034960289  0.036352798            4 
  270000    1.1670952   -6.8549823    113.58316   0.03505653  0.036339005            1 
  271000    1.1301192   -6.9044318     113.5736  0.034924232  0.036323282            3 
  272000    1.1262727   -6.9110446    113.51932  0.034779205    0.0363055            2 
  273000    1.1562798   -6.8676819    114.21196  0.034863236  0.036287447            3 
  274000    1.1361322   -6.8527702    114.54962  0.034838692  0.036271792            2 
  275000    1.1293864   -6.8529282    115.38174  0.034964164  0.036255949            1 
  276000    1.1694298   -6.8757337     115.2575  0.034799968  0.036240241            1 
  277000    1.1529239   -6.8550312    115.61801  0.034782796  0.036223217            2 
  278000    1.1422146   -6.8584988    116.03613  0.034783013  0.036204859            3 
  279000    1.1363313   -6.8801024    115.69783  0.034557296  0.036185197            4 
  280000    1.1263332   -6.9254022    116.58173  0.034696943   0.03616567            3 
  281000    1.1345519   -6.8952495    117.07249  0.034719007  0.036146901            2 
  282000    1.1406424   -6.9159195     117.5063  0.034724084  0.036128809            1 
  283000    1.1372054    -6.859287    117.52396  0.034606585  0.036109996            2 
  284000    1.1072148   -6.8637175    117.70481  0.034537795  0.036090388            3 
  285000    1.1576667   -6.8923226     118.4834  0.034644269  0.036071304            2 
  286000    1.1179881   -6.9128906    118.79347  0.034613481   0.03605166            2 
  287000    1.1227436   -6.8693615    119.60313   0.03472797  0.036033483            2 
  288000    1.1427516   -6.9167489    119.92846  0.034701523   0.03601611            1 
  289000    1.1726128   -6.8956342     119.8009  0.034544665  0.035999945            3 
  290000    1.1394613   -6.8836608    120.80763  0.034714837  0.035982389            1 
  291000    1.1641878   -6.9001896    121.12096   0.03468527  0.035966528            2 
  292000    1.1067221   -6.8449235    121.76438  0.034750109  0.035950619            2 
  293000    1.1438125    -6.934386    121.81834  0.034646854   0.03593467            1 
  294000    1.1461461   -6.8951279    122.19825  0.034636692  0.035918342            2 
  295000    1.1037735   -6.8621334    122.36233  0.034565629  0.035901367            3 
  296000    1.1333962   -6.9138361    123.18185  0.034679576   0.03588391            2 
  297000    1.1135576   -6.8931485    123.47177  0.034644155  0.035867768            1 
  298000    1.1511761   -6.9039013    123.63297  0.034572979  0.035850248            3 
  299000    1.1090073   -6.8757007    123.79318  0.034502001  0.035832831            2 
  300000    1.1419759   -6.9207803    124.31137  0.034530936  0.035814581            3 
  301000    1.1397298   -6.9097213    123.90603  0.034303996  0.035797077            3 
  302000    1.1425952     -6.87494    124.86715  0.034455616  0.035778357            2 
  303000    1.1486267   -6.9258793    125.09318  0.034404064  0.035759652            3 
  304000    1.1376371    -6.896831    125.48079  0.034397147  0.035741111            3 
  305000    1.1252252   -6.9007201    125.77799  0.034365571  0.035723217            2 
  306000    1.1068088   -6.9138819    126.27956  0.034389859  0.035705961            2 
  307000    1.1373419   -6.8944447    126.93918  0.034456889  0.035689319            4 
  308000    1.1348137   -6.9066819    127.36261  0.034459581  0.035673022            2 
  309000    1.1402983   -6.8594418    128.03656  0.034529816  0.035656943            2 
  310000    1.1414304    -6.899554     128.0022  0.034409193  0.035640021            4 
  311000    1.1356636   -6.9563459    128.45493  0.034419862  0.035622423            3 
  312000    1.1319039   -6.9136799    128.98385  0.034450814  0.035605588            2 
  313000    1.1297328   -6.9017138    129.20256  0.034398978  0.035587988            2 
  314000    1.1245266   -6.9562542    128.89268  0.034207186    0.0355702            1 
  315000     1.118889   -6.8970375    129.58484  0.034281704  0.035550081            3 
  316000    1.1107548   -6.8604315    129.50369  0.034151817    0.0355297            3 
  317000    1.0952243   -6.9112402     130.0961  0.034199816   0.03550895            3 
  318000    1.1194261   -6.8852223    130.11476   0.03409716  0.035487885            1 
  319000     1.124118   -6.8946673     130.5898  0.034114369  0.035467059            3 
  320000    1.1113377   -6.9226531     130.4288  0.033965834  0.035445486            4 
  321000    1.1415037   -6.9034784    131.19009  0.034057656  0.035423438            1 
  322000    1.1272006    -6.922054    131.51238  0.034035295  0.035402007            1 
  323000    1.1163337    -6.915122    132.20723  0.034109193  0.035380832            3 
  324000    1.1329764   -6.9014105    132.57804   0.03409929  0.035360743            2 
  325000    1.1337667   -6.8913192    132.88167  0.034072223  0.035340724            1 
  326000    1.1226372   -6.9178754     133.3311  0.034082591  0.035320686            3 
  327000    1.1286141   -6.9277724    133.25993  0.033960227  0.035300524            2 
  328000    1.1136954   -6.8989411    134.05527  0.034058758  0.035279965            2 
  329000    1.1277394   -6.8925268    133.66267  0.033855793  0.035259778            4 
  330000    1.1188717    -6.898169    134.37101  0.033932072  0.035238712            1 
  331000    1.1349781    -6.934607    134.55885   0.03387685  0.035218027            1 
  332000     1.104503   -6.9063687    135.08418  0.033906671  0.035197259            1 
  333000     1.151096   -6.9073888    135.49344  0.033907268  0.035176222            1 
  334000    1.1427047   -6.8994974    135.78338  0.033878088   0.03515584            1 
  335000    1.1238675   -6.9303016    136.53974   0.03396511  0.035136025            5 
  336000    1.1373111   -6.9257842    136.73077  0.033911402  0.035116438            3 
  337000    1.1084227   -6.8980776    137.44595  0.033987624  0.035096839            4 
  338000    1.1162226   -6.9414437    137.92835  0.034006002  0.035078587            2 
  339000    1.1237792   -6.9041326    138.24727  0.033984088  0.035061681            2 
  340000    1.1054511   -6.8885483    139.01961  0.034073433   0.03504398            3 
  341000     1.138799   -6.9387246    138.95918  0.033958743  0.035026976            1 
  342000     1.124126   -6.9121292    139.20809    0.0339201   0.03500898            1 
  343000    1.1296924   -6.9463688    139.47718  0.033886583  0.034990329            1 
  344000    1.0912178   -6.9590369     139.4922  0.033791715  0.034972064            2 
  345000    1.1223967     -6.93153    139.88671   0.03378906  0.034952956            1 
  346000    1.0846674   -6.9416506    140.01832  0.033723102  0.034932926            1 
  347000    1.1037251    -6.884382    140.80971  0.033815972  0.034911642            2 
  348000    1.1146647   -6.9323526    140.16385  0.033564141   0.03489088            3 
  349000    1.1164923   -6.9435444    141.01895  0.033672147   0.03487004            5 
  350000     1.097406   -6.9038222    141.48435  0.033686751  0.034848909            2 
  351000    1.1201385   -6.9623102    141.21866  0.033527698  0.034828342            2 
  352000    1.1250715   -6.9669643    141.65895  0.033536683  0.034808074            2 
  353000    1.1323638   -6.9395606    142.30592  0.033594409  0.034788005            2 
  354000    1.0953762   -6.9483704    142.63983  0.033578115  0.034767091            2 
  355000    1.1291693   -6.8877632    143.51171  0.033688195  0.034747066            3 
  356000    1.0922232   -6.9355039     143.6404  0.033623689  0.034728045            1 
  357000    1.1324091   -6.9705232    143.79412  0.033565388  0.034708491            2 
  358000    1.0929422   -6.9247822    144.30576  0.033590726  0.034688545            2 
  359000     1.118329   -6.9357733    144.49153  0.033540281  0.034668987            2 
  360000     1.104431   -6.9707683    145.14842  0.033599171  0.034650468            2 
  361000    1.0947689     -6.94002    145.10068  0.033495077  0.034631385            2 
  362000    1.0978592   -6.9496488    145.40704  0.033473076  0.034612739            1 
  363000     1.110379   -6.8990588     146.4738  0.033625758  0.034593966            3 
  364000    1.1075238    -6.936995    146.40568  0.033517783  0.034575047            2 
  365000     1.117917   -6.9346195    146.82684  0.033522108  0.034556791            3 
  366000    1.0995184   -6.9337975    147.20805  0.033517315  0.034538791            1 
  367000    1.1189434   -6.9644215    147.37068  0.033462916   0.03452033            3 
  368000    1.1218686   -6.9468756    147.60154  0.033424261  0.034500845            4 
  369000    1.1160536   -6.9299523    148.01436  0.033426911  0.034481727            1 
  370000    1.1058196   -6.9852831    148.10162  0.033356222  0.034461979            3 
  371000    1.1094621   -6.9804277     148.6953  0.033399664  0.034442392            3 
  372000    1.0981445   -6.8901249    149.10192  0.033400969  0.034422633            2 
  373000    1.1173727   -6.9642396    149.31099   0.03335813  0.034402627            2 
  374000    1.0839629   -6.9635848    149.29176  0.033264653  0.034383206            4 
  375000    1.0996093   -6.9319259    149.36823   0.03319294  0.034363193            2 
  376000    1.0987557    -6.948686    150.45338  0.033345163  0.034343727            1 
  377000    1.1044244   -6.9797989    150.58826  0.033286531  0.034323985            2 
  378000    1.1163139   -6.9706434    150.90041  0.033267285  0.034303964            2 
  379000    1.0887492    -6.930855    151.37379  0.033283595  0.034284383            2 
  380000    1.1243399   -6.9896219    151.14153  0.033145072  0.034263976            5 
  381000    1.0887903     -6.95275    151.91315  0.033226848  0.034243217            2 
  382000    1.0925461   -6.9552691    152.59408  0.033288411   0.03422282            2 
  383000    1.0967582   -6.9355503    152.61948  0.033207024  0.034203694            2 
  384000    1.1142808   -6.9479042    153.45293  0.033301418  0.034185181            3 
  385000    1.1126991   -6.9214006     153.3737   0.03319777  0.034167119            1 
  386000    1.0667512   -6.9260665    154.52389   0.03336008  0.034149613            1 
  387000    1.1124743   -6.9760669    154.46202  0.033260556  0.034132572            2 
  388000    1.0822203   -6.9667722    154.91494  0.033272109  0.034114822            1 
  389000    1.0992681   -6.9459712    155.13992  0.033234774  0.034097718            1 
  390000    1.1057989   -6.9568879    155.67059  0.033262947  0.034080502            2 
  391000    1.1378415   -6.9709672    155.99502  0.033247021  0.034063466            1 
  392000    1.0964976   -6.9781376    155.73679  0.033107311  0.034046312            2 
  393000    1.0919281   -6.9669488    156.35321  0.033153777  0.034028491            3 
  394000    1.0837767   -6.9603883    157.00165  0.033206778  0.034011095            2 
  395000    1.1108593   -6.9323121    156.94167  0.033110058  0.033993455            2 
  396000     1.099577   -6.9474313    157.34022  0.033110315  0.033976397            1 
  397000    1.0866153   -6.9390462    157.94706  0.033154295  0.033959491            1 
  398000    1.1094435   -7.0055067     157.5061  0.032978665  0.033942021            3 
  399000    1.0977633   -6.9576244    157.92663  0.032983841  0.033925129            1 
  400000    1.1054307   -6.9439212    158.92887  0.033110181  0.033908258            4 
  401000    1.1046506   -6.9428224    159.20994  0.033086022  0.033891525            2 
  402000    1.1173406   -6.9676252    159.65144   0.03309524  0.033874945            2 
  403000    1.1001114   -6.9929164    160.01961   0.03308925  0.033858545            3 
  404000     1.099665   -6.9812523    160.84939  0.033178504  0.033842541            2 
  405000    1.1050141   -7.0126329    160.83561  0.033093748  0.033826171            2 
  406000    1.0920292   -6.9210063    161.18937  0.033084845  0.033810475            2 
  407000    1.0722638   -6.9387833    161.78481  0.033125473  0.033794926            1 
  408000    1.0892389   -6.9988097    161.51186  0.032988534  0.033778889            2 
  409000    1.0876798   -7.0257806    161.70258  0.032946736  0.033762911            2 
  410000    1.0808427   -6.9743413     162.2017  0.032967824  0.033746646            1 
  411000    1.0730074   -6.9884673    162.50416  0.032948937  0.033729941            1 
  412000    1.0944295   -6.9759651    162.53459  0.032875119  0.033712961            2 
  413000    1.0861698   -7.0158028    162.85142  0.032859448  0.033695871            3 
  414000    1.1026946   -7.0389405    162.99223  0.032808419  0.033678699            1 
  415000    1.0766804   -6.9640728    163.51832  0.032835003  0.033661601            2 
  416000    1.0816583   -7.0010856    163.35929  0.032724216  0.033644415            1 
  417000    1.0878234   -6.9847903    164.09941  0.032793648  0.033627337            3 
  418000    1.0891069   -7.0019209    165.24308  0.032943197  0.033610118            2 
  419000    1.0878392   -6.9865591    165.16124  0.032848297  0.033593045            1 
  420000    1.0902018   -7.0197437    165.19557  0.032776898  0.033575889            2 
  421000    1.0483153   -7.0347526    165.29317  0.032718363   0.03355864            3 
  422000    1.0842734   -6.9898694    166.06102  0.032792461  0.033541623            3 
  423000    1.0675604   -6.9857795    166.35562  0.032772974  0.033525025            2 
  424000    1.0911465   -6.9780921    166.65309  0.032754145    0.0335086            3 
  425000    1.0793842   -6.9475119    166.90198  0.032725878  0.033492142            3 
  426000      1.07906   -6.9807604    167.35762  0.032738188  0.033474813            1 
  427000    1.0680434   -6.9995373    167.12937  0.032616974  0.033457263            3 
  428000    1.0985594   -7.0212919    167.63088  0.032638411  0.033439712            2 
  429000    1.0627434   -7.0041257    167.84743  0.032604395  0.033422204            2 
  430000    1.0569902   -6.9840819    168.55332  0.032665372  0.033405157            2 
  431000    1.0957413   -7.0074143    168.71022  0.032619919  0.033388269            2 
  432000    1.0875479    -6.994782    168.83403  0.032568293  0.033370663            5 
  433000     1.092301   -6.9709918    169.82534  0.032683861  0.033353989            2 
  434000    1.1090603   -7.0468274    169.20234  0.032488928  0.033337109            2 
  435000    1.0772523   -6.9770968    170.58321  0.032678775  0.033320648            2 
  436000    1.0765235   -7.0267265    170.63867  0.032614425  0.033304062            2 
  437000    1.0860057   -7.0059013    170.33694  0.032482253  0.033286857            2 
  438000    1.0855183   -6.9961045    170.78795  0.032493903  0.033269565            1 
  439000    1.0651776   -7.0023045    171.46565  0.032548529  0.033252208            6 
  440000    1.0863563   -7.0019541    170.80922  0.032350232  0.033234451            2 
  441000    1.0796823   -7.0237076    171.02344  0.032317355  0.033215952            1 
  442000    1.0785369   -6.9942526    172.15098  0.032456822   0.03319823            1 
  443000    1.0703117   -6.9947252    171.64791  0.032288921  0.033179867            2 
  444000    1.0560741   -6.9887042    171.97779  0.032278113  0.033161047            2 
  445000    1.0690945   -7.0096851    172.12243  0.032232665  0.033142048            1 
  446000    1.0620542   -7.0025822     172.9809  0.032320796  0.033122462            3 
  447000    1.0814494   -7.0193026     172.8285  0.032220079  0.033103449            2 
  448000    1.0616248   -7.0088928    173.88113  0.032343959  0.033085147            2 
  449000    1.0786807   -7.0208341    173.82023  0.032260621  0.033067274            2 
  450000    1.0800104   -6.9848757    173.68609  0.032164091  0.033048524            2 
  451000      1.05363   -7.0250552    174.27847  0.032202231  0.033030044            3 
  452000    1.0877551   -7.0122264    174.56529  0.032183866   0.03301127            2 
  453000    1.0830881   -7.0499612    174.94048  0.032181839  0.032991873            3 
  454000     1.077011   -7.0117021    174.59297  0.032047168  0.032972706            3 
  455000    1.0759379   -7.0379941    175.02517  0.032055892  0.032954437            1 
  456000    1.0667846   -7.0109634    176.27667  0.032214303  0.032936038            2 
  457000    1.0791752   -7.0154035    176.20827  0.032131341  0.032917395            1 
  458000    1.0675649   -7.0157869    176.38686  0.032093679  0.032898558            2 
  459000     1.108995   -6.9929513    176.55937  0.032055078  0.032880244            3 
  460000    1.0757061   -7.0027361     177.0213  0.032069076  0.032861524            3 
  461000    1.0434065   -7.0088667    176.55633  0.031915461  0.032841982            2 
  462000    1.0609789    -7.014205    176.60195  0.031854609  0.032821661            1 
  463000    1.0631941   -6.9984575    177.78964  0.031999576   0.03280149            3 
  464000    1.0490545   -7.0485657    176.98567  0.031786219   0.03278102            2 
  465000    1.0809738   -7.0177719    178.05934  0.031910276  0.032760911            2 
  466000    1.0929124   -7.0477297    178.02813  0.031836217  0.032740331            3 
  467000    1.0686974   -7.0339894    178.79211  0.031904374  0.032720642            2 
  468000     1.058772   -7.0325514    178.54895  0.031792904  0.032700712            2 
  469000    1.0637367   -7.0425709    178.62167  0.031738037  0.032680519            2 
  470000    1.0803914    -7.039783    179.87314  0.031892401  0.032660933            1 
  471000     1.066248   -7.0257303    179.80137   0.03181199  0.032641918            2 
  472000     1.075717   -7.0235687    179.64418   0.03171684  0.032622446            3 
  473000    1.0776272   -7.0157326    180.33227  0.031771012  0.032602873            1 
  474000    1.0654377   -7.0180696    180.70562  0.031769624  0.032583158            2 
  475000    1.0782688   -7.0473206     181.1215  0.031775701   0.03256345            3 
  476000    1.0550649     -7.00282    181.32107  0.031743884  0.032544243            6 
  477000    1.0665295   -7.0357858      181.068  0.031633124  0.032524727            2 
  478000    1.0589792   -7.0245779     181.5469  0.031650436  0.032505497            2 
  479000     1.069976   -7.0331419    182.38267  0.031729761  0.032486078            2 
  480000    1.0330422   -7.0336759    182.08144  0.031611361  0.032466743            1 
  481000    1.0715403   -7.0216059    182.32132    0.0315872  0.032446652            2 
  482000    1.0409681   -7.0627114    182.64797  0.031578142  0.032427078            2 
  483000    1.0762341   -7.0491182    183.68363  0.031691448  0.032407699            2 
  484000    1.0661784   -7.0358904    183.50967  0.031596017  0.032388412            1 
  485000    1.0715606   -7.0440824    183.36195  0.031505489  0.032369074            1 
  486000    1.0735944   -7.0344847    183.85668  0.031525494   0.03234954            1 
  487000    1.0593152   -7.0396803    184.44163  0.031560854  0.032330244            2 
  488000    1.0368118   -7.0836926    183.91765  0.031406703  0.032310785            5 
  489000    1.0600115   -7.0837397     184.9964  0.031526312  0.032291009            2 
  490000    1.0685579   -7.0194417    185.98509  0.031630117  0.032272153            2 
  491000    1.0887247    -7.056924    185.97666  0.031564267  0.032253413            4 
  492000    1.0500595   -7.0642317     185.9322  0.031492582  0.032235124            2 
  493000    1.0778934   -7.0479345    185.89213  0.031421928  0.032216176            2 
  494000    1.0626463   -7.0430147    186.56835  0.031472393  0.032197313            3 
  495000    1.0730416     -7.05511    186.24842  0.031354952  0.032177996            1 
  496000    1.0655696   -7.0743645    186.57933  0.031347334   0.03215899            2 
  497000    1.0654828   -7.0571009     186.8641  0.031332009  0.032139884            3 
  498000     1.036785   -7.0556348    187.45292  0.031367623  0.032120481            4 
  499000    1.0477024   -7.0190349    187.57162  0.031324586  0.032102014            3 
  500000    1.0486617   -7.0417744    188.17477  0.031362462  0.032083739            4 
  501000    1.0804459    -7.048292    188.67633  0.031383288  0.032065189            1 
  502000    1.0538334   -7.0795949    188.67775  0.031321007  0.032046267            2 
  503000    1.0639798   -7.0840063     188.3023  0.031196537  0.032026816            3 
  504000    1.0523554   -7.0614575    189.10694  0.031267682  0.032007593            1 
  505000    1.0361889   -7.0999589    189.12101  0.031208088  0.031988016            2 
  506000    1.0610452   -7.0332003     190.1184  0.031310672  0.031968511            1 
  507000    1.0468334   -7.0036517    190.65266  0.031336729  0.031950355            2 
  508000    1.0343258   -7.0919712    190.27314  0.031212786   0.03193176            2 
  509000    1.0679045   -7.0516467    191.14087  0.031293528  0.031913503            2 
  510000    1.0543791   -7.0414766    191.34129  0.031264917  0.031895467            2 
  511000     1.047598   -7.0842392    191.31438  0.031199344  0.031877377            2 
  512000    1.0441555   -7.0532038    191.46312  0.031162617  0.031858772            2 
  513000    1.0490693    -7.072024    192.30185  0.031238117   0.03184034            3 
  514000    1.0552092   -7.1060481    192.70427  0.031242585  0.031822901            2 
  515000    1.0549364   -7.0379293    193.20022  0.031262172  0.031805332            1 
  516000    1.0882206   -7.1084767     192.9531  0.031161677  0.031787803            5 
  517000    1.0327451   -7.0937016    192.89684  0.031092334  0.031770236            1 
  518000    1.0488863    -7.072261    194.24622  0.031249392  0.031753302            3 
  519000    1.0715719   -7.0813489    194.20487  0.031182542  0.031736277            1 
  520000    1.0556396   -7.0624624    194.52861  0.031174456  0.031720045            3 
  521000    1.0385418   -7.1115661    194.50519  0.031110875  0.031702767            2 
  522000    1.0429743   -7.0696943    194.84554   0.03110561  0.031685193            2 
  523000     1.052995   -7.0641102    195.44622  0.031141844   0.03166756            3 
  524000    1.0634844   -7.0523923    195.77918  0.031135366  0.031650193            1 
  525000    1.0480266   -7.0851156    195.70355  0.031064055  0.031633065            2 
  526000    1.0341199   -7.0895929    195.76732  0.031015101  0.031615385            3 
  527000    1.0288914   -7.0753627    196.04566  0.031000263  0.031598021            2 
  528000    1.0374537   -7.1496628    195.75197  0.030895197  0.031580205            2 
  529000    1.0282896   -7.1197394    196.02335  0.030879544  0.031561752            2 
  530000    1.0220738   -7.0744877    196.99348  0.030973817  0.031543684            5 
  531000    1.0636185   -7.1140291    196.30942  0.030808133  0.031526095            3 
  532000     1.046927   -7.0829747    197.70769   0.03096925  0.031509036            4 
  533000    1.0446347   -7.0486644    197.74792  0.030917436  0.031491694            2 
  534000    1.0403589   -7.0441846    199.01672  0.031057541  0.031475108            1 
  535000      1.04956   -7.0849636    198.93076  0.030986099  0.031459136            1 
  536000    1.0035408     -7.08681    199.59361  0.031031345  0.031442815            2 
  537000    1.0464995   -7.1003905    199.72029  0.030993216  0.031426461            1 
  538000    1.0523662   -7.0785343    199.92465  0.030967263  0.031410097            2 
  539000    1.0398769   -7.0836006    200.15844  0.030945955  0.031393956            2 
  540000    1.0633191   -7.0904806    200.14318  0.030886294  0.031377364            5 
  541000    1.0403337   -7.0696909    200.98949  0.030959565  0.031360985            1 
  542000    1.0500671   -7.0627397    200.84501  0.030880229  0.031345019            2 
  543000    1.0508464   -7.0999687    201.12001  0.030865563   0.03132859            2 
  544000    1.0323286   -7.0923356    201.08356  0.030803241  0.031312393            3 
  545000    1.0570218   -7.1121969    201.67819  0.030837644  0.031296532            1 
  546000    1.0371688   -7.0907199    202.14346  0.030852176  0.031280613            2 
  547000    1.0598901   -7.1147004    202.42763  0.030839066  0.031264832            2 
  548000     1.039042   -7.0847615    203.24752  0.030907469  0.031248958            2 
  549000    1.0381719   -7.1180439    203.51955  0.030892464  0.031233384            1 
  550000    1.0342015   -7.0978521    204.26599  0.030949392  0.031218001            3 
  551000    1.0195207   -7.1193202    203.08671  0.030714869  0.031201923            2 
  552000     1.032766   -7.0695043    203.76948    0.0307623  0.031186212            2 
  553000    1.0406801   -7.0580586    204.06512  0.030751224  0.031169889            3 
  554000    1.0329032   -7.1377663    203.66849  0.030636054  0.031153283            2 
  555000    1.0493606    -7.107502    204.22981  0.030665136   0.03113625            4 
  556000    1.0169772   -7.1021564    205.27547  0.030766707  0.031119721            3 
  557000    1.0392648   -7.0877088    205.11866   0.03068801  0.031103477            3 
  558000    1.0124385   -7.0933886    205.06816  0.030625473  0.031087176            1 
  559000     1.022465   -7.0907475    205.46151  0.030629324  0.031071042            1 
  560000    1.0222106   -7.1000809    205.95164  0.030647566  0.031055185            1 
  561000     1.035426   -7.0861091    206.34529   0.03065141  0.031039521            3 
  562000    1.0202566    -7.120735    206.49995  0.030619803  0.031023811            2 
  563000    1.0172897   -7.0950108    207.31115  0.030685487  0.031008271            2 
  564000    1.0343057   -7.1529549    206.93808  0.030575957   0.03099275            7 
  565000    1.0236257    -7.118913    207.92445  0.030667322  0.030977412            2 
  566000    1.0327549   -7.1021598     208.5716  0.030708421  0.030962412            4 
  567000    1.0131588   -7.1096118    208.62551  0.030662186  0.030947355            2 
  568000    1.0260524   -7.1218458    207.54278  0.030449352  0.030932208            1 
  569000    1.0101054   -7.0984113    208.68886  0.030563688   0.03091742            2 
  570000    1.0186856   -7.1015697    209.41518  0.030616254  0.030902244            1 
  571000    1.0367815   -7.1265011    209.60948  0.030590993  0.030887321            3 
  572000   0.99507888    -7.124327    209.51314  0.030523476  0.030872419            2 
  573000    1.0334471   -7.1031125    210.27198  0.030580567   0.03085743            3 
  574000    1.0159534   -7.1472967    209.96533  0.030482772  0.030842133            2 
  575000    1.0174987    -7.146694    209.94193  0.030426367  0.030826538            2 
  576000    1.0227815   -7.1210583     211.0367   0.03053193  0.030811093            1 
  577000    1.0248195   -7.1351152    210.87872  0.030456199  0.030795619            2 
  578000    1.0255853   -7.1137858    211.13667  0.030440696  0.030780599            2 
  579000    1.0443222   -7.1092586    211.35477  0.030419513  0.030765725            1 
  580000    1.0239748    -7.105913    211.46727  0.030383228  0.030750349            1 
  581000    1.0184513   -7.1185351    211.56366  0.030344759  0.030735024            2 
  582000    1.0331348   -7.1166627    212.26804  0.030393476  0.030719129            2 
  583000    1.0382422   -7.1355254    212.15236  0.030324808  0.030703124            3 
  584000    1.0282711   -7.1329102     211.9856  0.030249087  0.030686836            3 
  585000    1.0295484    -7.089099    212.20027  0.030227959  0.030670727            2 
  586000    1.0139516    -7.127672    212.87339  0.030272097   0.03065433            2 
  587000    1.0126453   -7.1169867    212.37542  0.030149832  0.030638011            3 
  588000     1.019651   -7.1086289    213.15137  0.030208527  0.030621301            3 
  589000    1.0071704   -7.1201325    213.83308   0.03025369  0.030605051            3 
  590000    1.0113395   -7.1206248    213.60825  0.030170657  0.030588282            2 
  591000    1.0377069   -7.0905034    214.58847  0.030257821  0.030571748            4 
  592000    1.0053733   -7.1474532    213.87688  0.030106543  0.030555046            4 
  593000    1.0090445   -7.1419775    214.45864  0.030137527  0.030538891            1 
  594000     1.043879   -7.1411837    214.77317  0.030130917  0.030522365            2 
  595000    1.0106788   -7.1542339    215.27485   0.03015054  0.030506018            2 
  596000    1.0419348   -7.1300392     214.9217  0.030050573  0.030489717            1 
  597000    1.0241781   -7.1351628    214.98466  0.030009026  0.030473265            2 
  598000    1.0235413   -7.1119318    215.42615  0.030020366  0.030456531            2 
  599000    1.0033488     -7.14034     215.7295  0.030012452  0.030439457            2 
  600000   0.97812341   -7.1589861    215.85553  0.029979935  0.030422158            2 
  601000    1.0163348   -7.1334756    216.11256  0.029965691  0.030405296            1 
  602000   0.99938431   -7.1258622    216.77213  0.030007217  0.030388255            3 
  603000    1.0116662   -7.1314367    217.04529  0.029995204  0.030371474            4 
  604000    1.0270212   -7.1491816    216.97785  0.029936237  0.030354732            3 
  605000     1.021159   -7.1619935    216.59149  0.029833539  0.030337691            2 
  606000    1.0182782   -7.1437688    217.47115  0.029905273  0.030320519            1 
  607000    1.0224927   -7.1726909    216.98385  0.029789106  0.030303453            2 
  608000    1.0147458   -7.1367041    217.57327  0.029820898   0.03028652            2 
  609000    1.0186129   -7.1425321     216.9169  0.029682116   0.03026928            2 
  610000   0.98272087   -7.1253009    217.67331  0.029736791  0.030252278            2 
  611000    1.0264028    -7.175445    217.52041  0.029667268  0.030235008            2 
  612000    1.0232735   -7.1654517    217.80257  0.029657212  0.030217378            2 
  613000    1.0064368    -7.166618    217.86329  0.029617087    0.0301995            3 
  614000    1.0096722   -7.1509518    218.22879  0.029618456  0.030181303            2 
  615000    1.0259862   -7.1628858    218.28368  0.029577735  0.030163178            1 
  616000    1.0182978   -7.1285842    218.81951  0.029602206  0.030144932            2 
  617000    1.0257294   -7.1362144     218.2608  0.029478768  0.030126951            1 
  618000   0.99383957   -7.1446251    219.43417  0.029589289   0.03010914            2 
  619000     1.008643   -7.1792544     218.6177   0.02943157  0.030091228            3 
  620000    1.0063266   -7.1621973    220.01188  0.029571489  0.030073504            2 
  621000    0.9960096   -7.1982296    219.59033  0.029467302  0.030055983            2 
  622000   0.98075353   -7.1822739    220.41626  0.029530581  0.030038051            1 
  623000    1.0070235   -7.1640386    220.46598  0.029489831  0.030020266            1 
  624000    1.0068829   -7.1853491    221.05864   0.02952172  0.030002268            2 
  625000     1.005093   -7.1500666    221.02292  0.029469723  0.029984433            1 
  626000    1.0163333   -7.1723304    221.12091   0.02943569  0.029966862            2 
  627000    1.0205824   -7.1936925    221.27478  0.029409194   0.02994922            2 
  628000    1.0290572   -7.2035496     221.3727  0.029375359    0.0299315            3 
  629000    1.0039259   -7.1758697    222.38022  0.029462138  0.029913855            2 
  630000    1.0038991   -7.1846473     221.4104   0.02928709  0.029895853            3 
  631000     1.003571   -7.1661881    222.48849  0.029383055  0.029878336            3 
  632000    1.0068605    -7.225384    222.50849  0.029339199  0.029861093            2 
  633000    1.0040862   -7.1599126    223.19993  0.029383877  0.029843954            2 
  634000    1.0126364   -7.1809154    223.49239  0.029375972  0.029826412            2 
  635000    1.0020114   -7.1736985    223.68968  0.029355601  0.029808786            2 
  636000   0.98494503   -7.1732192    223.69545  0.029310201  0.029791027            1 
  637000    0.9981176   -7.1387011    223.92685   0.02929446  0.029773214            2 
  638000   0.98861525   -7.1699194    224.44155  0.029315772   0.02975538            1 
  639000   0.98234162   -7.1653037     223.9081  0.029200325  0.029737728            1 
  640000   0.97999644   -7.2066698    224.29805  0.029205476  0.029719876            9 
  641000   0.98338174   -7.1723701    225.23441  0.029281645  0.029701905            3 
  642000   0.99080649   -7.1443505    225.60538  0.029284188  0.029684543            3 
  643000   0.99108098   -7.2141454    225.02018  0.029162802  0.029666904            2 
  644000   0.97872306   -7.1670618     225.2636  0.029149016  0.029649057            2 
  645000   0.99449258   -7.1965231    225.81167  0.029174634  0.029631287            3 
  646000   0.99209525   -7.1873487    225.56387  0.029097506  0.029613284            2 
  647000    1.0127694   -7.1665321    225.73175  0.029074156  0.029595412            1 
  648000    1.0078978   -7.1800944    226.67482  0.029150568  0.029577602            7 
  649000   0.99157092   -7.1916168    226.61105  0.029097464  0.029559632            1 
  650000    1.0007954   -7.1939715    226.11052  0.028988529   0.02954197            4 
  651000   0.98426683   -7.1764121    226.49296  0.028992955  0.029524158            2 
  652000   0.98145758   -7.1756011    227.05659  0.029020525   0.02950637            1 
  653000   0.98546068   -7.1932184     227.4935   0.02903184   0.02948873            3 
  654000    1.0062643   -7.1557906    227.58161  0.028998676  0.029470801            2 
  655000     1.003393   -7.1916427    227.48868   0.02894258  0.029453115            3 
  656000   0.99279204   -7.2036153    228.16371  0.028984211  0.029435308            2 
  657000    0.9926404   -7.1730106    227.89535  0.028906057  0.029417644            2 
  658000     1.008501   -7.1814979    229.00881  0.029003142   0.02940044            2 
  659000    1.0090681   -7.2209294     229.0581  0.028965365  0.029383145            2 
  660000   0.98627371   -7.1859548    229.98943  0.029039069  0.029365899            1 
  661000   0.95727491   -7.1745039    229.65177  0.028952568  0.029348496            2 
  662000   0.97320041   -7.1921459     229.6967  0.028914488  0.029331479            2 
  663000    1.0072582   -7.1413105    230.31894  0.028949088  0.029314584            2 
  664000   0.98629553   -7.2277091    229.87744   0.02885008  0.029297273            3 
  665000   0.99411963   -7.1985766    230.61813  0.028899516  0.029279945            2 
  666000   0.97809433   -7.2327392    229.98335  0.028776695  0.029262121            2 
  667000   0.96033436   -7.2039777    230.88489  0.028846188  0.029244568            7 
  668000    1.0346442   -7.2143569    231.10772  0.028830804  0.029227218            6 
  669000   0.98889585    -7.228423    230.95648  0.028768869   0.02920959            3 
  670000   0.98839687   -7.1887713     231.0054  0.028732015   0.02919179            4 
  671000    0.9783103   -7.1445862    231.41106  0.028739576  0.029174306            2 
  672000   0.99347564   -7.2363847    230.97045  0.028642169  0.029156786            6 
  673000   0.97971448   -7.2480148     231.4493  0.028658903  0.029138859            2 
  674000   0.97520501    -7.201797    232.54061  0.028751312  0.029121022            1 
  675000   0.99059518   -7.2041545    231.98723  0.028640398  0.029103063            2 
  676000   0.98963583   -7.1839405     232.8938  0.028709788  0.029085251            3 
  677000   0.98965973   -7.2328059    232.12016  0.028572151  0.029067406            2 
  678000   0.98547861   -7.1848264    232.64232  0.028594189  0.029049397            3 
  679000    1.0009657   -7.2172532    232.40537  0.028522996  0.029031135            1 
  680000   0.99448913   -7.2189765    231.91004  0.028420348  0.029012393            2 
  681000    0.9722616   -7.2441145    231.96357  0.028385165  0.028993611            3 
  682000    0.9796521   -7.2518222    232.67496   0.02843047  0.028974828            2 
  683000   0.97502332   -7.2022073     233.0661  0.028436566  0.028956305            2 
  684000    1.0011936   -7.2097055    233.31271  0.028425038  0.028937756            3 
  685000    0.9860022   -7.1986961    233.23434  0.028374008  0.028919387            3 
  686000   0.99056563   -7.2389011    233.97209  0.028422265  0.028901245            2 
  687000   0.94386571   -7.2038453    233.76582  0.028355873  0.028882838            3 
  688000    0.9796393   -7.2184101    234.60417  0.028416203  0.028864477            1 
  689000   0.98317247   -7.1701264    234.16181  0.028321457  0.028846175            2 
  690000   0.95569672   -7.1941648    234.64357  0.028338595  0.028828029            2 
  691000   0.97304034   -7.2097787    235.19218  0.028363745  0.028810013            3 
  692000   0.98794166   -7.1982562    235.62579  0.028374974  0.028791804            1 
  693000   0.97730169   -7.2032292    234.95891  0.028253838  0.028773329            3 
  694000   0.99684581   -7.2071205    235.43509  0.028270304  0.028754843            4 
  695000   0.96891078   -7.2308652    235.76996   0.02826978  0.028736735            5 
  696000   0.96987662   -7.2220062     235.1661   0.02815686  0.028718564            3 
  697000   0.97803576   -7.2483561     235.7834  0.028190268  0.028700241            5 
  698000    0.9729425   -7.1973378    236.27451  0.028208513   0.02868209            2 
  699000   0.97446775   -7.2465962     236.1153  0.028149177  0.028663903            1 
  700000   0.98232852   -7.2005698    236.13168  0.028110915  0.028645706            4 
  701000   0.96503935   -7.2232377     237.0318  0.028177817  0.028627449            2 
  702000   0.96993392   -7.2342725    237.14672  0.028151319  0.028608815            3 
  703000   0.97295464   -7.2260157    237.22817   0.02812093  0.028590279            2 
  704000   0.96009374   -7.1951178    237.39917  0.028101227  0.028572239            2 
  705000    0.9760863   -7.2077471     237.6969   0.02809656  0.028554233            2 
  706000   0.95535558   -7.2078293    238.47676  0.028148815  0.028536156            1 
  707000   0.99810594   -7.2395538    237.60644  0.028006417  0.028517717            4 
  708000   0.97085123    -7.244289    237.91659  0.028003365  0.028499102            8 
  709000    0.9625045   -7.2559424    237.97146  0.027970317  0.028480692            3 
  710000   0.97376518   -7.2517712    238.70141  0.028016597  0.028462279            2 
  711000   0.98451307    -7.229128    238.83587  0.027992953  0.028443912            1 
  712000   0.97085874   -7.2487329    238.97735  0.027970196  0.028425863            2 
  713000    0.9678014   -7.2343004     239.2406  0.027961735   0.02840758            4 
  714000   0.97125469   -7.2050158    239.59766  0.027964246  0.028389487            1 
  715000   0.95372113   -7.2052062    239.38992  0.027900923  0.028371202            3 
  716000   0.97142837    -7.243824    239.51407  0.027876405  0.028352693            1 
  717000   0.96578241   -7.2622944    238.53154  0.027723331   0.02833408            2 
  718000   0.95325532   -7.2419074    238.69168  0.027703305  0.028314993            3 
  719000   0.96585837   -7.2187715    239.98988  0.027815239  0.028296246            3 
  720000    0.9628934   -7.2541248    239.47424  0.027716926  0.028277582            1 
  721000   0.95347532   -7.2712871    239.96475  0.027735176  0.028258729            2 
  722000   0.96861658   -7.2503904    239.69128  0.027665198  0.028240013            1 
  723000   0.99435676    -7.244194    241.04162  0.027782575  0.028221397            2 
  724000   0.97773943   -7.2835424    240.46039  0.027677301  0.028202978            1 
  725000   0.95870612   -7.2405581    241.69831  0.027781415  0.028184486            2 
  726000   0.94604697   -7.2762065    240.75149  0.027634469  0.028166099            2 
  727000   0.95391694   -7.2603076    241.53232  0.027685961  0.028147727            3 
  728000   0.96513867   -7.2384506    241.92823  0.027693249  0.028129513            6 
  729000    0.9698374    -7.229185     241.7798  0.027638295  0.028111499            7 
  730000   0.95030357   -7.2855304    241.62345  0.027582586  0.028093351            5 
  731000   0.97285844   -7.2324876    242.92024  0.027692686  0.028075503            2 
  732000   0.95167001   -7.2398274    243.14281  0.027680192  0.028057822            1 
  733000   0.98850924   -7.2676552    242.60422  0.027581198  0.028040437            3 
  734000   0.95861424   -7.2822782    243.86666  0.027686951  0.028022607            2 
  735000   0.98014745    -7.274651    243.00031  0.027551055  0.028004749            4 
  736000   0.94435063   -7.2652055    243.37019  0.027555502  0.027987006            2 
  737000   0.95912855   -7.3031862    244.26682  0.027619495  0.027969184            3 
  738000      0.95687   -7.2632828    243.58741  0.027505354  0.027951403            2 
  739000   0.97467417   -7.2239908    245.17248  0.027646874   0.02793395            1 
  740000   0.96122092   -7.2455573    244.99114  0.027589092  0.027916783            4 
  741000   0.97440903   -7.2573416    245.99577  0.027664841  0.027899623            2 
  742000   0.95919046   -7.2416663    245.20535  0.027538786  0.027882591            4 
  743000     0.967403   -7.2560191    245.41164  0.027524858  0.027865167            4 
  744000   0.96478508   -7.2599357    245.28001   0.02747312  0.027847751            4 
  745000   0.95390062   -7.2569963    245.71381  0.027484767  0.027830283            3 
  746000   0.95858585   -7.2674754    245.39444  0.027412248  0.027812766            4 
  747000   0.94331355   -7.2786935    245.38462  0.027374455  0.027795199            4 
  748000   0.94696956   -7.2937265    246.33677  0.027443936  0.027777588            2 
  749000    0.9562097   -7.2682003    247.02392  0.027483747  0.027759858            2 
  750000    0.9702881   -7.2800551    246.38641  0.027376268  0.027742406            1 
  751000   0.95454798   -7.2659806    246.56035  0.027359115  0.027724858            2 
  752000   0.96123388   -7.2957065    247.10537   0.02738313  0.027707202            3 
  753000   0.95131874   -7.2850801    247.34573  0.027373365  0.027689475            3 
  754000   0.93938093   -7.2241779    247.63048  0.027368532  0.027672111            2 
  755000   0.96045283   -7.2995126    247.31114  0.027297035  0.027654675            4 
  756000   0.93910228   -7.2967646    247.21153  0.027249948  0.027637109            2 
  757000   0.93778773   -7.2923792    247.10977  0.027202749  0.027619441            1 
  758000   0.97728391    -7.279553    248.04692   0.02726989  0.027601819            2 
  759000   0.95181776   -7.3227003    247.34319  0.027156696  0.027584142            3 
  760000   0.97594019   -7.2539485     248.4199  0.027239024  0.027566566            2 
  761000    0.9491206    -7.285905     247.8983  0.027146112  0.027549154            2 
  762000   0.94418871   -7.2888816    248.39049  0.027164314  0.027531242            2 
  763000   0.93469079   -7.2498871    248.53933  0.027144969  0.027513461            2 
  764000   0.95226384    -7.267855    247.94346  0.027044443  0.027495392            3 
  765000   0.95364529   -7.2493315    248.65493  0.027086594  0.027477407            2 
  766000   0.95979071   -7.2781977    249.24284  0.027115191  0.027459648            3 
  767000   0.94761761   -7.3006969     249.4435  0.027101641  0.027441722            3 
  768000   0.93917557   -7.3165282    249.30471  0.027051292  0.027423654            4 
  769000   0.95594325   -7.2796657    249.77331  0.027066895  0.027405829            1 
  770000   0.93637127   -7.2805923    249.71417  0.027025343  0.027388019            2 
  771000   0.95896219    -7.304117    248.99593   0.02691266  0.027370034            3 
  772000   0.97058907   -7.2577996    250.36105  0.027025156  0.027352306            3 
  773000   0.94781577   -7.2795855    250.62513  0.027018665  0.027334636            3 
  774000   0.94863435   -7.3006813    250.04235  0.026921011    0.0273168            2 
  775000   0.96657841   -7.2711305     250.9015  0.026978656  0.027298936            8 
  776000   0.94332434   -7.2731858    251.28677  0.026985263  0.027281172            2 
  777000   0.93037972   -7.2921953    251.09152  0.026929593  0.027263331            3 
  778000   0.94403139   -7.2449184    249.99552  0.026777583  0.027245497            3 
  779000   0.93038975    -7.275722    250.58029  0.026805764  0.027227447            3 
  780000   0.94032329   -7.3087746    250.84852  0.026800055  0.027209261            3 
  781000   0.96910558   -7.2981748    250.97214  0.026778931  0.027191454            2 
  782000   0.94640838   -7.3282843    250.37137  0.026680666  0.027173581            2 
  783000   0.94720711   -7.3091365     251.5443  0.026771424  0.027155574            3 
  784000   0.91204402   -7.2873862    252.11382  0.026797813  0.027137633            3 
  785000    0.9380513   -7.3241147    252.07864   0.02675994  0.027119969            6 
  786000   0.93384783   -7.2964176    252.42975   0.02676312  0.027102298            2 
  787000   0.94391235   -7.2936691    252.48054  0.026734492  0.027084761            5 
  788000   0.89758731   -7.3189456    252.66153  0.026719705  0.027066873            4 
  789000   0.94800433   -7.3383935    252.80646  0.026701147  0.027049064            4 
  790000   0.97478164   -7.2737782    253.42828  0.026732941  0.027031427            4 
  791000   0.93482466   -7.2807994    252.80162  0.026633125  0.027013777            2 
  792000   0.96019676   -7.3135283    253.03618  0.026624178  0.026996018            3 
  793000   0.92071735   -7.2940934    253.76291  0.026666972  0.026978371            2 
  794000   0.94064236   -7.3316855    254.03082  0.026661505  0.026960612            3 
  795000   0.94370773   -7.2906161    253.61668  0.026584558  0.026942811            2 
  796000   0.93613152   -7.3361811    253.22016  0.026509648  0.026924773            4 
  797000   0.93543514   -7.3551223    253.20592  0.026474897  0.026906595            4 
  798000    0.9274925    -7.306432    254.26228  0.026552034  0.026888537            3 
  799000   0.94086948   -7.2819625    254.11983  0.026503946  0.026870478            1 
  800000   0.90190738   -7.3205524    254.66128  0.026527216  0.026852571            2 
  801000   0.94197535   -7.3167397    254.92083  0.026521102  0.026834653            2 
  802000   0.93179843    -7.298791    254.78378  0.026473793  0.026816603            4 
  803000   0.95135494   -7.2897693    254.58304  0.026419992  0.026798658            2 
  804000   0.92711641   -7.2928647    255.03337  0.026433807  0.026780556            3 
  805000   0.93504469   -7.3220966    255.34627  0.026433361  0.026762517            2 
  806000   0.93857307   -7.3222605    255.70958  0.026438128  0.026744824            5 
  807000   0.94204972   -7.3465969    255.67657  0.026401959  0.026726996            1 
  808000   0.91616427   -7.3388395    255.35536  0.026336155  0.026709105            3 
  809000   0.93334298   -7.3005152    255.53169  0.026321765  0.026691198            2 
  810000   0.92155851   -7.3030539     256.2695  0.026365175  0.026673422            3 
  811000   0.92634449   -7.3369273     255.8748  0.026292109  0.026655459            2 
  812000   0.93674039   -7.2936376     256.1483  0.026287798  0.026637581            3 
  813000   0.92943705   -7.2971595    256.20496  0.026261271  0.026619737            2 
  814000   0.91100895   -7.3428349    256.35153  0.026244014  0.026602018            4 
  815000   0.93450016   -7.3082917     257.4279  0.026321871   0.02658416            3 
  816000   0.92672466   -7.3255953    256.38872  0.026183489  0.026566201            4 
  817000   0.93807447   -7.3286083    256.42552  0.026155194  0.026548163            3 
  818000   0.92853326   -7.3287885    256.76612  0.026157918  0.026530193            3 
  819000   0.92100203   -7.3482526    257.21432  0.026171583  0.026512582            3 
  820000   0.92409617   -7.3250347    257.99383  0.026218885  0.026494994            2 
  821000   0.92190625   -7.3208731    257.44526  0.026131269   0.02647745            2 
  822000   0.91771223   -7.3559257    257.86304  0.026141833  0.026459672            1 
  823000   0.92275393   -7.3484326     257.6731  0.026090837  0.026441937            2 
  824000   0.93293945   -7.3332048     257.7633  0.026068295  0.026424325            2 
  825000   0.92248721   -7.3218109    258.47474  0.026108559  0.026406716            2 
  826000    0.9008406   -7.3455272    258.11729  0.026040888  0.026389176            4 
  827000    0.9014482   -7.3127083    259.14589  0.026113048  0.026371628            1 
  828000    0.9249202   -7.3008796     258.8016   0.02604686  0.026354143            6 
  829000   0.92511883   -7.3580062    258.75294  0.026010549   0.02633628            4 
  830000   0.92612442   -7.3277213    258.68873  0.025972765  0.026318334            1 
  831000   0.91085825    -7.326941    259.02734  0.025975466  0.026300415            2 
  832000   0.89752285    -7.344473      259.272   0.02596875  0.026282608            2 
  833000   0.93256304   -7.3326086    259.81757  0.025992153  0.026264899            3 
  834000   0.92154613   -7.3775527    259.10273  0.025889561  0.026247135            2 
  835000   0.91806481    -7.346558       259.44  0.025892216  0.026229289            2 
  836000   0.91055326   -7.3321222    259.51256  0.025868477  0.026211094            3 
  837000   0.94345804   -7.3558932    259.67154  0.025853399  0.026193044            3 
  838000   0.88406879   -7.3612126    259.07401  0.025763128   0.02617502            3 
  839000   0.91562282     -7.35069    260.87503  0.025911306  0.026157206            3 
  840000   0.91229914   -7.3481931    259.93049  0.025786755  0.026139409            3 
  841000   0.93605543   -7.3509368    260.07405  0.025770318  0.026121406            1 
  842000   0.90376074   -7.3495561    260.30943  0.025763008  0.026103581            4 
  843000   0.90673033   -7.3463673    261.00538  0.025801243  0.026085868            3 
  844000   0.89613553    -7.344388    261.33328  0.025803049  0.026068209            2 
  845000   0.92915183   -7.3516444     260.7892  0.025718856  0.026050371            2 
  846000   0.92209969   -7.3819915    261.37626  0.025746282  0.026032528            2 
  847000   0.90057622   -7.3513594    261.26294  0.025704736  0.026014945            2 
  848000   0.91908954   -7.3918984    260.41254  0.025590855  0.025997153            4 
  849000   0.91965985   -7.3454193    261.15522   0.02563361  0.025979336            1 
  850000   0.91867931   -7.3522112    261.47842   0.02563514  0.025961683            2 
  851000   0.92121442   -7.3802259    261.60445  0.025617357  0.025943777            3 
  852000   0.90618732   -7.3761161    261.35004  0.025562406  0.025925941            4 
  853000   0.90873183   -7.3793058    262.53908  0.025648601  0.025908082            5 
  854000   0.90757523   -7.3696846    262.07327  0.025573114  0.025890191            2 
  855000   0.92827641    -7.354141    262.31343  0.025566611  0.025872277            4 
  856000   0.91983656    -7.360116     262.8014  0.025584249  0.025854546            2 
  857000    0.9078409   -7.3741693    262.34745  0.025510253  0.025836802            2 
  858000    0.9104578   -7.3480954     263.3903  0.025581809  0.025818993            2 
  859000   0.91169779   -7.3633843    262.46858  0.025462609  0.025801203            6 
  860000   0.90169234   -7.3581978     262.6527  0.025450843  0.025783472            2 
  861000   0.90103366   -7.4036007    262.53937  0.025410315   0.02576543            5 
  862000   0.90104094   -7.3873958    263.60106  0.025483475  0.025747467            2 
  863000    0.8921989   -7.3708681    263.54278  0.025448318  0.025729514            2 
  864000   0.91077435   -7.3914064    263.60734   0.02542509   0.02571151            2 
  865000   0.88710647   -7.3359983    263.47244  0.025382701  0.025693509            3 
  866000   0.92839963   -7.3562207    263.94256   0.02539863  0.025675611            2 
  867000   0.91026234    -7.401417    263.43185  0.025320247  0.025657738            3 
  868000   0.91048408   -7.4032105    263.70488  0.025317289  0.025639899            1 
  869000   0.90374709   -7.3757425    264.22482  0.025338015  0.025622105            3 
  870000   0.91643686   -7.3766047    263.87519  0.025275401  0.025604337            3 
  871000   0.89038955   -7.3664203    264.84554  0.025339221  0.025586612            4 
  872000    0.9021127   -7.3767871    265.02983  0.025327775  0.025569171            4 
  873000   0.89919568   -7.3880545    265.09631  0.025305108  0.025551803            3 
  874000   0.90850841    -7.393804    264.76914   0.02524496  0.025534507            4 
  875000   0.91254717   -7.3959707     264.9938  0.025237504  0.025517162            2 
  876000   0.91521464   -7.3540729    265.44017  0.025251157  0.025499817            3 
  877000   0.92724709   -7.4101344    265.52199   0.02523014  0.025482523            4 
  878000   0.92478024   -7.3830891     266.9594  0.025337832  0.025465353            6 
  879000   0.91314347   -7.3684086    266.12137  0.025229557  0.025448504            1 
  880000   0.90307722   -7.4011714    266.93719  0.025278143  0.025431648            3 
  881000   0.88617071   -7.3442939    267.40469  0.025293671  0.025414709            1 
  882000   0.89106256   -7.3884154     266.9862  0.025225453  0.025397869            1 
  883000   0.91038099   -7.3717855    267.06306   0.02520414  0.025380908            4 
  884000   0.90608576   -7.4000047    267.20165  0.025188693  0.025364119            3 
  885000     0.881444   -7.3779034    267.46419  0.025184952  0.025347274            3 
  886000   0.89459485    -7.327232    267.87123  0.025194811  0.025330523            2 
  887000   0.91249495   -7.3807233    267.21189  0.025104462  0.025313829            3 
  888000   0.92509903   -7.4192519    268.12668  0.025162039  0.025296907            2 
  889000   0.90390666   -7.4250585    268.42364  0.025161571  0.025280153            3 
  890000   0.89625872   -7.3911121    268.31278   0.02512292  0.025263345            2 
  891000    0.8918799   -7.4057517    268.32354  0.025095729  0.025246612            2 
  892000   0.91290916   -7.3793945    269.16019  0.025145758  0.025229932            2 
  893000   0.88111073   -7.3995079     268.9406  0.025097107  0.025213388            2 
  894000   0.89258015   -7.4359486    268.86599   0.02506208  0.025196626            2 
  895000   0.90406595   -7.4296534    269.23276  0.025068227  0.025180133            4 
  896000    0.8768201   -7.3803805    270.36201  0.025145276  0.025163786            2 
  897000   0.89532236   -7.3998007    269.13108  0.025002887  0.025147529            3 
  898000   0.89553635   -7.4059711    269.64192   0.02502245  0.025131151            2 
  899000   0.89069349   -7.4206043    269.36144  0.024968617  0.025114596            3 
  900000    0.9004002   -7.4008202    270.26311  0.025024362   0.02509822            2 
  901000   0.89487547   -7.4058869    269.14834  0.024893483  0.025081673            2 
  902000   0.88123693   -7.4216336    269.44305  0.024893113  0.025065033            3 
  903000   0.91255941   -7.4307141    271.06893   0.02501559  0.025048491            3 
  904000   0.89707855   -7.3693627    271.11977  0.024992604  0.025032215            4 
  905000   0.89902748   -7.3798478     270.5297  0.024910653  0.025015881            4 
  906000   0.89205244   -7.3922843    270.73197  0.024901763  0.024999446            3 
  907000   0.89086886   -7.4199795    270.26469  0.024831376  0.024983034            3 
  908000   0.90750007    -7.451071    270.47155  0.024823013  0.024966483            2 
  909000   0.89780286   -7.4082843     271.3045  0.024872066  0.024949952            5 
  910000   0.88053272   -7.4244826    271.09736  0.024825765  0.024933524            9 
  911000   0.88301908   -7.4093158    271.68563  0.024852326  0.024917086            2 
  912000   0.90010693   -7.4589384    271.60968  0.024818136   0.02490058            3 
  913000   0.88843218   -7.4290111    271.14645  0.024748672  0.024883855            3 
  914000   0.87636398   -7.4155121    271.02427  0.024710455  0.024867071            2 
  915000    0.8848794   -7.4294414    271.24126  0.024703211  0.024850522            3 
  916000   0.89771696   -7.4263251    271.34137   0.02468535   0.02483398            2 
  917000   0.89878516   -7.3997557    272.20548  0.024736957  0.024817464            4 
  918000   0.88904368   -7.4294523    272.36784   0.02472475  0.024800966            1 
  919000   0.90316035   -7.4102685    271.62187  0.024630202  0.024784248            2 
  920000    0.8816779   -7.4116489    272.53485  0.024686127  0.024767638            5 
  921000   0.89429038    -7.428466    272.38903  0.024646131   0.02475095            3 
  922000     0.873669   -7.4416654    272.43007  0.024623108  0.024734285            3 
  923000   0.90964047   -7.4338012    272.14161  0.024570387  0.024717784            1 
  924000    0.8780548   -7.4246616    272.75471   0.02459909   0.02470118            4 
  925000   0.88386578    -7.431994    272.90314  0.024585868  0.024684696            1 
  926000   0.87273077   -7.4446954     273.6445  0.024626035  0.024668176            3 
  927000   0.89675535   -7.4305538    272.66803   0.02451169  0.024651848            3 
  928000   0.87473353   -7.4322008    274.29958  0.024631787  0.024635678            3 
  929000   0.87950532   -7.3905981    274.53882  0.024626733  0.024619726            2 
  930000   0.88454347    -7.409312    275.04309  0.024645438  0.024603797            2 
  931000   0.88220995   -7.4482732     274.3497  0.024556901  0.024587903            3 
  932000   0.86866328    -7.430022    274.79594  0.024570452   0.02457194            2 
  933000   0.87469826   -7.4491139    274.49088   0.02451687  0.024556033            2 
  934000   0.89350493   -7.4359277     274.6829  0.024507754  0.024540036            3 
  935000   0.88511995   -7.4240245    275.14869  0.024523056   0.02452407            4 
  936000   0.88053477   -7.4348938    275.09138  0.024491754  0.024508192            1 
  937000   0.86579978   -7.4809249    274.49164  0.024412277  0.024492244            3 
  938000   0.89156033   -7.4202269    275.48991  0.024474938  0.024476341            3 
  939000   0.88008094   -7.4329769    274.94668  0.024400664  0.024460332            5 
  940000   0.88564523   -7.4595066    275.80509  0.024450806  0.024444287            2 
  941000   0.88010579   -7.4334224     275.8383  0.024427763  0.024428424            3 
  942000   0.87523321   -7.4213552    275.34337  0.024358048  0.024412485            2 
  943000   0.87694664   -7.4467612    275.37885  0.024335353  0.024396377            3 
  944000   0.85681171   -7.4172547    275.40917   0.02431225   0.02438027            2 
  945000   0.87902116   -7.4355943    275.89934  0.024329748  0.024363921            5 
  946000   0.89121788   -7.4257204    276.90424  0.024392551  0.024347832            3 
  947000   0.88612559   -7.4476547     276.1442  0.024299912  0.024331806            4 
  948000   0.87290104   -7.4773482    276.11402  0.024271627  0.024315754            2 
  949000   0.88950122   -7.4470873    276.45552  0.024276038  0.024299647            2 
  950000   0.87112572   -7.4504225    277.40914  0.024334135   0.02428379            3 
  951000   0.88927408   -7.4585656    276.71964  0.024248128  0.024267912            2 
  952000   0.87664968    -7.441687    276.96248  0.024243915  0.024252033            2 
  953000   0.87605718   -7.4639139    277.01832  0.024223358  0.024236064            4 
  954000   0.85787882   -7.4578366    277.67372  0.024255216  0.024220125            4 
  955000   0.86127524   -7.4352415    277.88929  0.024248629  0.024204304            6 
  956000   0.86310701   -7.4353141     277.7713  0.024212979  0.024188514            2 
  957000   0.91112686   -7.4473801    278.01572  0.024208962  0.024172708            1 
  958000   0.87253399   -7.4636544     277.5547  0.024143589  0.024156863            1 
  959000   0.86679868   -7.4494331    277.84545  0.024143679  0.024141043            4 
  960000   0.87079309   -7.4379596    278.33982  0.024161443  0.024124984            3 
  961000   0.86998614   -7.4508494    277.60393  0.024072488   0.02410916            3 
  962000   0.86161187   -7.4874984    278.27396  0.024105506  0.024093207            2 
  963000   0.84504383   -7.4623485    278.36385  0.024088253  0.024077325            3 
  964000    0.8586597   -7.4561026    278.12683  0.024042776  0.024061344            2 
  965000   0.86726082    -7.454583     278.5036  0.024050398  0.024045353            2 
  966000     0.852561   -7.4594443    278.67537  0.024040318  0.024029338            3 
  967000   0.87647226   -7.4351512    278.64152  0.024012541   0.02401336            1 
  968000   0.85612957   -7.4349459    279.31694   0.02404588  0.023997331            2 
  969000    0.8646701   -7.4443298    278.48454  0.023949479  0.023981296            3 
  970000   0.88369388   -7.4633051    278.63732  0.023937914  0.023965132            2 
  971000   0.85804725   -7.4815027    278.46732  0.023898671  0.023948985            5 
  972000    0.8604944   -7.5019276    278.16235  0.023847938  0.023932798            4 
  973000   0.85049138   -7.4941721    278.70983  0.023870318   0.02391662            3 
  974000   0.87892469   -7.4506929    278.80384  0.023853854  0.023900393            5 
  975000   0.87560593   -7.4954937     278.3739  0.023792641  0.023884184            2 
  976000   0.86514647   -7.4981925     278.7777  0.023802741   0.02386793            3 
  977000   0.87591694   -7.4771607    279.26713  0.023820124  0.023851662            2 
  978000     0.868201   -7.5095745    278.94587  0.023768394   0.02383535            8 
  979000    0.8478704   -7.4833896    279.73754  0.023811503  0.023819006            3 
  980000   0.85114873   -7.4935693    279.26945  0.023747402  0.023802682            1 
  981000   0.85315726   -7.4787256    279.60361  0.023751581  0.023786431            3 
  982000   0.86638516   -7.4863188    280.16157  0.023774743  0.023770373            3 
  983000   0.86547649   -7.4613499    280.43351   0.02377361  0.023754279            2 
  984000   0.84346421   -7.4922818    279.96976  0.023710176  0.023738189            2 
  985000   0.87024706   -7.4928849    280.43382  0.023725366  0.023722128            3 
  986000   0.85496271   -7.4710628    280.23112  0.023684172  0.023706053            5 
  987000   0.84684079   -7.4617191    280.15184  0.023653482   0.02369011            3 
  988000   0.85378348   -7.4577447    281.11395  0.023710691  0.023674152            1 
  989000   0.86024459   -7.4860761     280.2071  0.023610305  0.023658264            4 
  990000   0.86153137   -7.4729507    281.86826  0.023726284  0.023642367            2 
  991000   0.87200429   -7.5020743    280.65473  0.023600297  0.023626548            3 
  992000   0.84662088   -7.4983983    280.67265  0.023578011  0.023610636            2 
  993000   0.86092202   -7.4791628    280.80726  0.023565564  0.023594746            4 
  994000   0.85419163   -7.4921719    281.58065  0.023606694  0.023578869            2 
  995000   0.84534699   -7.5013595    281.22463  0.023553152  0.023563041            3 
  996000   0.85496156    -7.517584    281.95073  0.023590255  0.023547036            7 
  997000   0.84628669   -7.4855513    282.17024  0.023584942  0.023531176            4 
  998000   0.88524101   -7.4597077    281.55164  0.023509656  0.023515312            5 
  999000   0.83629305   -7.5150645    282.01768  0.023524998    0.0234995            1 
 1000000    0.8684403   -7.4786706    282.58047  0.023548372  0.023483771            2 
 1001000   0.86544991   -7.5001575    282.82206   0.02354496   0.02346809            2 
 1002000   0.84724846   -7.4878473       282.96  0.023532934  0.023452373            3 
 1003000   0.85904293   -7.4964306    283.20268  0.023529635  0.023436667            2 
 1004000   0.84698165   -7.4987617    283.20073  0.023506037  0.023421059            2 
 1005000   0.86524369   -7.5042737    282.18099  0.023398092  0.023405468            5 
 1006000   0.86457118   -7.5167556    283.19741   0.02345903  0.023389786            9 
 1007000   0.85457266   -7.5158119    283.33408  0.023447044  0.023374181            3 
 1008000   0.84396855   -7.5131145    282.91015  0.023388736  0.023358513            1 
 1009000   0.85906734   -7.5252851    283.59898  0.023422447  0.023342863            3 
 1010000    0.8495861   -7.5069881    283.60424   0.02339969  0.023327281            3 
 1011000    0.8495893   -7.5185307      283.414  0.023360864  0.023311657            2 
 1012000   0.82494305   -7.5225373    284.02691   0.02338825  0.023296098            2 
 1013000   0.83917409   -7.5290252    283.21966  0.023298754  0.023280612            4 
 1014000   0.86970512    -7.497375    283.58273  0.023305616  0.023265135            3 
 1015000   0.84551524   -7.4921337    284.82077    0.0233843  0.023249825            2 
 1016000   0.86003461   -7.5101122    284.50169  0.023335112  0.023234451            3 
 1017000   0.83770012   -7.5413619    283.80903  0.023255411  0.023219068            3 
 1018000   0.84076873   -7.5214113    284.95107  0.023326053  0.023203624            2 
 1019000    0.8341356   -7.5253553    284.87703  0.023297107  0.023188206            3 
 1020000   0.86453522   -7.4960388    284.55517  0.023247972  0.023172844            2 
 1021000   0.83367163   -7.5062741    285.08571  0.023268504  0.023157624            2 
 1022000    0.8351073   -7.5178396    284.67095  0.023211917  0.023142371            3 
 1023000   0.85184696   -7.4947939    285.18354  0.023230982  0.023127071            3 
 1024000   0.83167666   -7.5097343    285.06136  0.023198353  0.023111613            2 
 1025000   0.83400332    -7.539366    285.60479  0.023219902  0.023096239            2 
 1026000   0.85882748    -7.517116    285.96865  0.023226823  0.023080959            3 
 1027000   0.84426636   -7.5403982     285.0162  0.023126923   0.02306565            3 
 1028000   0.84012221   -7.5136558    285.31997   0.02312905  0.023050246            4 
 1029000   0.85841837   -7.5598118    285.88746  0.023152532  0.023034963            4 
 1030000   0.83815894   -7.5254031    286.18261  0.023153933  0.023019603            4 
 1031000   0.83558709   -7.5222162    285.95016  0.023112686  0.023004415            2 
 1032000    0.8594647    -7.495174    286.55434  0.023139077  0.022989332            4 
 1033000   0.83716122   -7.4899327    286.69365  0.023127916  0.022974306            3 
 1034000   0.84777765   -7.5355261    286.47609  0.023088015  0.022959077            3 
 1035000   0.84672623   -7.5361407    286.34109  0.023054838   0.02294381            2 
 1036000   0.84064445   -7.5212067     286.5759  0.023051472  0.022928411            4 
 1037000   0.83197761   -7.5435749    286.52277  0.023024973  0.022912996            4 
 1038000   0.83398928   -7.5458531    287.07058  0.023046771   0.02289763            3 
 1039000   0.83520738   -7.5527057    286.38165  0.022969333  0.022882304            3 
 1040000   0.86020742   -7.5193695    286.86346  0.022985854   0.02286708            2 
 1041000   0.82974795   -7.4928932    287.47757  0.023012934  0.022851952            2 
 1042000   0.83451777   -7.5328272    286.66809  0.022926111   0.02283668            3 
 1043000   0.84299598   -7.5198096    287.13271  0.022941252  0.022821355            4 
 1044000   0.82644843   -7.5473721    287.13359  0.022919348  0.022806072            5 
 1045000   0.84764867   -7.4995774    287.07311  0.022892592  0.022790856            4 
 1046000   0.84591002   -7.5568719    286.90186  0.022857064  0.022775544            2 
 1047000   0.85922648   -7.5760618    286.82275  0.022828936  0.022760156            3 
 1048000   0.84885751   -7.5552687    287.97963  0.022899144  0.022744896            1 
 1049000    0.8399004   -7.5759156    287.81899  0.022864553  0.022729668            4 
 1050000    0.8333365   -7.5387761    288.31287  0.022881974  0.022714495            2 
 1051000   0.84093029   -7.5413222    287.55961  0.022800476  0.022699298            3 
 1052000   0.82094485   -7.5326332    288.26526  0.022834701   0.02268406            3 
 1053000   0.84543936   -7.5541432    288.40622  0.022824171  0.022668877            3 
 1054000    0.8263092   -7.5668551    288.31652  0.022795424  0.022653694            4 
 1055000   0.84184648   -7.5022712    289.10572  0.022836155  0.022638521            4 
 1056000    0.8294354   -7.5489877    289.06486  0.022811306  0.022623422            3 
 1057000   0.83960926   -7.5368695    288.62914  0.022755372  0.022608297            7 
 1058000   0.83776509   -7.5623357    288.84381  0.022750773  0.022593041            3 
 1059000    0.8417041   -7.5698835    288.74183  0.022721264  0.022577772            3 
 1060000   0.83516351   -7.5481463    288.48103  0.022679326  0.022562468            5 
 1061000   0.84030445   -7.5311579     288.4744   0.02265743  0.022547156            4 
 1062000   0.82366555   -7.5552555    288.61069   0.02264679  0.022531835            4 
 1063000   0.82059094    -7.539094    288.24286   0.02259665  0.022516438            2 
 1064000   0.84327236   -7.5240872    289.00978  0.022635478  0.022501076            4 
 1065000   0.82788965   -7.5509028    288.99541  0.022613099  0.022485864            2 
 1066000   0.84997161    -7.569749     288.8627  0.022581512  0.022470529            2 
 1067000   0.82220664   -7.6095604    288.40094  0.022524285  0.022455153            3 
 1068000   0.83897293   -7.5496929    289.45905  0.022585756  0.022439763            4 
 1069000   0.82198814   -7.5651705    289.09983  0.022536625  0.022424465            4 
 1070000   0.83073449   -7.5323704    289.50229  0.022546907   0.02240914            3 
 1071000   0.82905807   -7.5765824    288.56012  0.022452546  0.022393873            3 
 1072000   0.84155601   -7.5668464    289.54738  0.022508347  0.022378568            2 
 1073000   0.81912068   -7.6014829    289.16329  0.022457541  0.022363222            2 
 1074000   0.82322198    -7.557844    289.56931  0.022468134  0.022347935            3 
 1075000   0.82940906   -7.5730394    289.40224  0.022434282  0.022332677            3 
 1076000     0.809214   -7.5375183    290.50992   0.02249922  0.022317474            3 
 1077000   0.83155894   -7.5651192    289.76584  0.022420755  0.022302282            2 
 1078000   0.82001177   -7.5692546    289.75169  0.022398863  0.022287176            2 
 1079000   0.80474295   -7.5842633    289.83206  0.022384311  0.022271842            2 
 1080000   0.82225072    -7.544141    290.86456  0.022443253  0.022256682            5 
 1081000   0.81985829   -7.5958507    289.59891  0.022324923  0.022241387            3 
 1082000    0.8280757   -7.5591963     289.9987  0.022335082   0.02222604            2 
 1083000   0.82613205   -7.5860558    290.12057  0.022323835  0.022210681            3 
 1084000   0.82366855   -7.5726914    290.05647  0.022298314  0.022195354            2 
 1085000   0.82652414   -7.5920409    289.22448  0.022213862  0.022180123            3 
 1086000   0.81233902   -7.5955051    290.42341  0.022285406  0.022164853            5 
 1087000   0.81018262   -7.5784251    290.32515  0.022257371   0.02214973            2 
 1088000   0.83256869   -7.5377763    291.45544  0.022323487  0.022134613            4 
 1089000   0.83101824   -7.5630511    290.62298  0.022239285  0.022119459            2 
 1090000   0.82374688   -7.5973204     289.9559  0.022167882  0.022104222            4 
 1091000   0.82347278   -7.5605365    290.76666  0.022209491  0.022089001            4 
 1092000   0.82157114   -7.5689741    291.41053  0.022238288  0.022073847            4 
 1093000   0.81723523   -7.5959441    291.18924   0.02220107  0.022058603            2 
 1094000   0.81766905   -7.5802804    291.03629  0.022169126  0.022043315            5 
 1095000   0.80611541   -7.5923975     291.4103  0.022177344   0.02202806            4 
 1096000   0.80695926    -7.571811    291.36579  0.022153725  0.022012841            3 
 1097000   0.82028887   -7.5921338    291.74597  0.022162411  0.021997548            5 
 1098000   0.79535343   -7.6277964    291.40935  0.022116678  0.021982198            4 
 1099000   0.81114657   -7.5977135    290.73691  0.022045565  0.021966935            3 
 1100000   0.82267405   -7.5934939    291.38717  0.022074786  0.021951681            2 
 1101000   0.80943258   -7.5949999    291.87742  0.022091842  0.021936562            2 
 1102000    0.8117148   -7.5785377    291.96933  0.022078746  0.021921411            5 
 1103000   0.80766622   -7.5681575    291.97023  0.022058797  0.021906303            2 
 1104000   0.81155142   -7.5892795    291.69632   0.02201814  0.021891186            2 
 1105000   0.80762837   -7.5855709    291.24741   0.02196436  0.021875976            5 
 1106000   0.83150444   -7.5892621    292.09799  0.022008589   0.02186082            3 
 1107000   0.84084622   -7.5919159    292.76365  0.022038817  0.021845627            2 
 1108000   0.81092168   -7.5831367    292.04213  0.021964661  0.021830531            5 
 1109000   0.81479486    -7.605584    291.52418  0.021905935  0.021815446            3 
 1110000   0.80600273   -7.5888034    292.21867  0.021938338  0.021800171            2 
 1111000     0.808245   -7.5980252    292.13191  0.021912084  0.021784982            2 
 1112000   0.82276341   -7.5847456    292.60622  0.021927924  0.021769935            3 
 1113000   0.80275668   -7.5610937    293.34939  0.021963866  0.021754931            4 
 1114000   0.82331815   -7.5919761    292.52419   0.02188242  0.021739909            3 
 1115000   0.81721252   -7.6065657    293.33037  0.021923047  0.021724945            2 
 1116000   0.81974743   -7.5541603    293.72948  0.021933205  0.021709979            2 
 1117000   0.79074122   -7.6148989     292.8191  0.021845651  0.021694977            2 
 1118000   0.79068032   -7.5958236    293.17792  0.021852856  0.021679889            6 
 1119000   0.81448174   -7.5979264    292.99107  0.021819412  0.021664816            3 
 1120000   0.79875033    -7.630074     293.0722  0.021805967  0.021649811            3 
 1121000   0.82904586   -7.5860694    293.54524   0.02182168  0.021634763            3 
 1122000   0.80180785   -7.5724725      293.426  0.021793375  0.021619744            2 
 1123000   0.80457781   -7.6203418     292.9838  0.021741155  0.021604714            2 
 1124000   0.81340715   -7.6024643    293.47006  0.021757864  0.021589766            2 
 1125000   0.80048046   -7.6119966    293.45446  0.021737367  0.021574761            3 
 1126000   0.79831152   -7.6051481    293.87118  0.021748903  0.021559719            3 
 1127000   0.81067797   -7.6187793    293.18285  0.021678708  0.021544587            3 
 1128000   0.79879496   -7.6255063    293.37476  0.021673667  0.021529271            3 
 1129000   0.82484309   -7.6418268    292.53585  0.021592549  0.021513958            3 
 1130000   0.81686107   -7.6412397    292.89192  0.021599699  0.021498738            2 
 1131000   0.80793276   -7.6084536    293.42526  0.021619898  0.021483542            4 
 1132000   0.79897987   -7.6411276    293.64518  0.021616989  0.021468466            2 
 1133000   0.79601875   -7.6441621    293.68104  0.021600547  0.021453287            3 
 1134000   0.78317671   -7.5992227    293.94646  0.021601004  0.021438149            2 
 1135000   0.79415676   -7.6135348    294.23127  0.021602883  0.021423214            2 
 1136000   0.81478594   -7.6186725    294.39539  0.021595906   0.02140827            4 
 1137000    0.8072641   -7.6215842    293.97388  0.021546019  0.021393347            2 
 1138000   0.77149977   -7.6092974        294.5  0.021565612  0.021378438            3 
 1139000   0.78489299   -7.6185393    294.59878  0.021553906  0.021363564            4 
 1140000   0.80104359   -7.6014264    294.75565  0.021546465  0.021348634            3 
 1141000   0.77726184   -7.6171719    295.00487  0.021545784  0.021333737            4 
 1142000   0.79282081   -7.6282568     294.4996  0.021490047  0.021318835            3 
 1143000   0.78802166   -7.6015886    295.76652  0.021563613  0.021304011            2 
 1144000   0.78578895   -7.6342526    294.46877  0.021450231   0.02128919            8 
 1145000   0.80389598   -7.6297191    295.26992  0.021489805  0.021274265            3 
 1146000   0.79889861   -7.6700488     294.1804  0.021391827  0.021259294            3 
 1147000   0.80550614   -7.6252882     294.9838  0.021431546  0.021244239            3 
 1148000   0.78034712   -7.6463056    294.43268  0.021372871  0.021229156            3 
 1149000   0.80268821   -7.6448864    294.72659  0.021375587  0.021214075            3 
 1150000   0.79825898   -7.6386192    294.30628  0.021326542  0.021198955            2 
 1151000   0.81184393   -7.6651107    294.60013  0.021329289   0.02118373            7 
 1152000   0.80023783   -7.6461796    294.36363  0.021293665  0.021168565            3 
 1153000   0.79478342    -7.655472    294.05299  0.021252746  0.021153332            3 
 1154000    0.7976594   -7.6504195    294.27382  0.021250276  0.021138116            1 
 1155000   0.81080858   -7.6614285    294.13587  0.021221925  0.021122894            2 
 1156000   0.79756884   -7.6289206    294.20203  0.021208336   0.02110776            3 
 1157000   0.78764672   -7.6524507     294.6038  0.021218942  0.021092652            2 
 1158000   0.79368069    -7.614548    295.02778   0.02123113  0.021077625            2 
 1159000   0.78746598   -7.6606871    294.40223  0.021167833  0.021062587            4 
 1160000   0.77693066   -7.6580577     294.8439  0.021181314  0.021047517            1 
 1161000   0.79661852   -7.6235645    294.57144  0.021143514  0.021032442            4 
 1162000   0.78404671   -7.6522501    295.15021  0.021166825  0.021017436            6 
 1163000   0.79345436   -7.6116127    295.38634  0.021165544   0.02100242            5 
 1164000   0.78539233   -7.6388271    295.57374  0.021160777  0.020987512            1 
 1165000   0.79922118   -7.6684722     295.4332  0.021132561  0.020972525            6 
 1166000   0.78784364   -7.6538899    296.20459  0.021169568  0.020957485            2 
 1167000   0.78548755   -7.6595426    296.24871  0.021154578  0.020942598            3 
 1168000   0.81043301   -7.6423213    297.35191  0.021215177  0.020927758            5 
 1169000   0.77980453    -7.665424    296.20753   0.02111545  0.020912958            3 
 1170000    0.7891538    -7.659767    295.68773   0.02106038  0.020898138            4 
 1171000   0.79334244   -7.6427057    296.00057  0.021064658   0.02088334            6 
 1172000   0.79618227   -7.6463101    295.93738  0.021042192  0.020868392            3 
 1173000   0.80619207   -7.6980916    295.68301  0.021006181  0.020853432            4 
 1174000   0.77884193   -7.6599959    296.10097  0.021017956  0.020838486            2 
 1175000   0.77966856    -7.653025    295.92941  0.020987902  0.020823544            4 
 1176000   0.78001647   -7.6905679    295.43853   0.02093527  0.020808555            3 
 1177000   0.76798381    -7.687503    295.84489  0.020946254  0.020793555            1 
 1178000   0.78166369   -7.6641547    296.83281  0.020998359  0.020778538            3 
 1179000   0.78780652    -7.663011    296.12134  0.020930262   0.02076349            2 
 1180000   0.77788086   -7.6897778     295.7436  0.020885847  0.020748446            4 
 1181000   0.79746734   -7.6615589    296.12922  0.020895372  0.020733375            3 
 1182000   0.77249653    -7.687626    296.09147  0.020875033  0.020718332            2 
 1183000    0.7827711   -7.6806111     296.3689   0.02087693  0.020703317            3 
 1184000   0.77729378   -7.6968017    295.77103  0.020817218  0.020688331            4 
 1185000   0.79713113   -7.6655836    296.52289  0.020852524   0.02067337            1 
 1186000   0.78386424   -7.6435688    296.49463  0.020832956  0.020658484            3 
 1187000   0.79679678   -7.6522376    297.13331  0.020860244  0.020643603            4 
 1188000   0.79132068   -7.6560194      297.188  0.020846521  0.020628693            4 
 1189000   0.78163765   -7.6536206    296.04592  0.020748943   0.02061372            5 
 1190000   0.77461221   -7.6655935    296.69632  0.020777053  0.020598853            3 
 1191000   0.77638254   -7.6642469    296.57096  0.020750837  0.020583925            2 
 1192000   0.76888556   -7.6762887    296.38538  0.020720454  0.020568992            4 
 1193000   0.78827273   -7.6638299    297.09607  0.020752729  0.020554034            3 
 1194000    0.7770123   -7.6779828    296.76657  0.020712352  0.020539089            3 
 1195000   0.76203936   -7.6487446    297.18617   0.02072428  0.020524203            9 
 1196000   0.79051584   -7.6557288    297.07878  0.020699469  0.020509383            2 
 1197000   0.77072002   -7.6807613    296.96296  0.020674113  0.020494445            4 
 1198000   0.76203721   -7.6621918    296.90572  0.020652874  0.020479515            2 
 1199000   0.76335365   -7.6621331    297.81432  0.020698799  0.020464656            4 
 1200000   0.76470025   -7.6804517    297.00858  0.020625596  0.020449794            2 
 1201000   0.77344995   -7.6852056    297.35473   0.02063244  0.020434898            4 
 1202000   0.76581753   -7.6981256    297.81796   0.02064739  0.020420055            8 
 1203000   0.77916684   -7.6753886    297.02415  0.020575239  0.020405247            5 
 1204000   0.76019264   -7.6590143    297.97977  0.020624292  0.020390434            3 
 1205000   0.76826075   -7.6733858    298.59871   0.02064998  0.020375697            4 
 1206000   0.75823629   -7.6970486    297.38122   0.02054873   0.02036092            5 
 1207000   0.78843006   -7.6905258    297.95213  0.020571122  0.020346135            4 
 1208000   0.77468256   -7.6926464    297.15243  0.020498926  0.020331194            2 
 1209000   0.76975768   -7.6991835    298.19836  0.020554064  0.020316344            1 
 1210000   0.76148374   -7.6874302    297.95708   0.02052046  0.020301458            9 
 1211000   0.75959694   -7.7191674    297.71499  0.020486856  0.020286652            2 
 1212000   0.78075878   -7.7072571     297.7122  0.020469761  0.020271929            4 
 1213000   0.77675089   -7.6885315    298.25702  0.020490314  0.020257151            2 
 1214000   0.77324271   -7.6992057    297.63891  0.020431007  0.020242401            2 
 1215000   0.77273744   -7.7124376    298.29756  0.020459366  0.020227676            3 
 1216000   0.75850599   -7.6870202    298.25151  0.020439385  0.020212979            6 
 1217000    0.7767267   -7.7287288    297.65499  0.020381744   0.02019826            8 
 1218000   0.79460216   -7.6832627    298.43696  0.020418511  0.020183534            3 
 1219000   0.78384801    -7.727364    298.24704  0.020388778  0.020168887            4 
 1220000   0.77125373   -7.7176378    298.53326  0.020391616  0.020154197            5 
 1221000   0.76531421   -7.7159117    299.05011  0.020410191  0.020139608            4 
 1222000   0.77765042   -7.7147014    298.97169   0.02038814  0.020125074            5 
 1223000   0.77306355   -7.7265329    299.10335  0.020380441  0.020110576            2 
 1224000   0.77766062   -7.6885234    298.59279   0.02032903  0.020096012            1 
 1225000   0.76877656   -7.7120612    298.76433  0.020324104  0.020081502            5 
 1226000   0.76704141   -7.6968989    299.22331  0.020338724  0.020067031            3 
 1227000   0.75625493    -7.710892    298.92848  0.020302124  0.020052471            2 
 1228000   0.75960006   -7.6964985    299.26877  0.020308684  0.020037969            2 
 1229000   0.77595327   -7.6960727    299.22842  0.020289424  0.020023459            3 
 1230000    0.7453058   -7.6916439    299.71297  0.020305757  0.020008977            4 
 1231000   0.76238796   -7.7011312    299.70809  0.020288931  0.019994462            3 
 1232000   0.75757043   -7.7290751    298.97356  0.020222779  0.019979872            4 
 1233000   0.76716498   -7.7205969    298.75116  0.020191346  0.019965246            3 
 1234000   0.76636172   -7.7130763    299.32518  0.020213748  0.019950667            2 
 1235000   0.76735654   -7.7044446    299.37063  0.020200447  0.019936054            3 
 1236000   0.75811426    -7.733166     299.1239  0.020167469  0.019921413            3 
 1237000   0.75532318   -7.7272974    298.54727  0.020112319  0.019906795            2 
 1238000   0.75631386   -7.7302036     298.7503   0.02010974  0.019892093            6 
 1239000   0.75150687    -7.740707    299.54486  0.020146951  0.019877433            5 
 1240000   0.77333119   -7.7468521    298.59038  0.020066558  0.019862718            4 
 1241000   0.75550487   -7.7354768    298.71578  0.020058809  0.019848062            4 
 1242000    0.7599608   -7.7160861     299.4589  0.020092519  0.019833391            4 
 1243000    0.7552385   -7.7398357    299.69409  0.020092122  0.019818767            3 
 1244000   0.75568601   -7.7279486    300.19172  0.020109306  0.019804151            9 
 1245000   0.77147888    -7.718587    299.47882  0.020045437  0.019789541            6 
 1246000   0.75527466   -7.7230804    298.76804  0.019981811  0.019775011            3 
 1247000     0.757153   -7.7396487    298.94531  0.019977634  0.019760402            3 
 1248000   0.74751019   -7.7316793    299.19669  0.019978412   0.01974575            5 
 1249000   0.76104153   -7.7345706    298.98361  0.019948199  0.019731048            2 
 1250000   0.76245846   -7.7293161    298.52119  0.019901413  0.019716335            2 
 1251000   0.77517639    -7.769319    298.55015  0.019887433  0.019701649            3 
 1252000   0.74210799   -7.7472253    298.72308  0.019883059  0.019686897            8 
 1253000   0.75202936    -7.709775    299.17276  0.019897098  0.019672163            3 
 1254000    0.7486479    -7.715702    299.42283  0.019897849  0.019657466            3 
 1255000    0.7465244   -7.7329995    299.60182  0.019893879  0.019642811            2 
 1256000   0.75314912   -7.7314912    300.02483  0.019906106  0.019628171            2 
 1257000   0.75213679   -7.7506214    299.21996  0.019836911  0.019613501            4 
 1258000    0.7553824    -7.733568    299.40905  0.019833668  0.019598856            3 
 1259000   0.73832815   -7.7347005    299.29893  0.019810625  0.019584265            2 
 1260000   0.75435277   -7.7291602    299.51502  0.019809195  0.019569664            3 
 1261000   0.73743121   -7.7255135    299.35889  0.019783167  0.019555012            4 
 1262000   0.75352584   -7.7009325    300.12537  0.019818104   0.01954045            4 
 1263000   0.78057199   -7.7627452    299.04576   0.01973118  0.019525894            3 
 1264000   0.74665592   -7.7353844    300.08922  0.019784363  0.019511283            4 
 1265000   0.75560907   -7.7707179     299.1204  0.019704901   0.01949664            2 
 1266000   0.74076662   -7.7158319    300.01031  0.019747914  0.019481951            2 
 1267000   0.74559366   -7.7450723    299.19783  0.019678889  0.019467378            5 
 1268000   0.75667361   -7.7547776    299.30808  0.019670615  0.019452775            7 
 1269000   0.74860392   -7.7292036     300.1854  0.019712726  0.019438104            2 
 1270000   0.74007896   -7.7773962    299.74043  0.019668007  0.019423467            3 
 1271000   0.73652856   -7.7246659    299.66282  0.019647444  0.019408824            8 
 1272000   0.73128701   -7.7537242    299.64046  0.019630533  0.019394121           11 
 1273000   0.76510656   -7.7755636    299.17187  0.019584438  0.019379431            3 
 1274000   0.73198317   -7.7212354    298.97673  0.019556301  0.019364719            5 
 1275000   0.75127995   -7.7574888    299.02409  0.019544058   0.01935002            4 
 1276000   0.73657413   -7.7565302    299.74612  0.019575896  0.019335305            3 
 1277000   0.74927501    -7.753208    300.52712  0.019611532  0.019320687            5 
 1278000   0.74503307   -7.7438537    299.87851  0.019553893     0.019306            7 
 1279000   0.75328414   -7.7342646    299.78311  0.019532389  0.019291412            3 
 1280000   0.74681906    -7.759006    300.04299  0.019534049  0.019276811            2 
 1281000    0.7485093   -7.7391518    299.67957  0.019495158  0.019262234            5 
 1282000   0.73546954   -7.7303893    300.34035  0.019522903  0.019247689            1 
 1283000   0.72975102   -7.7237541    299.80479  0.019472901  0.019233166            2 
 1284000   0.72284333   -7.7471718    299.93897  0.019466444   0.01921871            4 
 1285000   0.74487428   -7.7423073     300.6351   0.01949644   0.01920425            6 
 1286000   0.73726001   -7.7675886    300.93651   0.01950081  0.019189769            6 
 1287000   0.73769339   -7.7599298    300.42698  0.019452666  0.019175394            5 
 1288000   0.73230804   -7.7550948    300.41753  0.019436952  0.019160964           10 
 1289000   0.74531819   -7.7676848    299.81747  0.019383079  0.019146532            3 
 1290000   0.73688391   -7.7360346    301.00841  0.019444988  0.019132063            3 
 1291000   0.72493664   -7.7765607     300.3539  0.019387677  0.019117572            2 
 1292000   0.72622983    -7.759199    300.53855  0.019384581  0.019103149            2 
 1293000    0.7393189   -7.7936008     300.4423  0.019363386  0.019088718            3 
 1294000   0.73305828   -7.7923512    301.23388    0.0193994  0.019074278            1 
 1295000   0.73279287    -7.758322    300.72806   0.01935187  0.019059868            4 
 1296000   0.72850865   -7.7775764    300.75086  0.019338404  0.019045502            4 
 1297000   0.75291582   -7.7272076    300.98325  0.019338425  0.019031209            3 
 1298000   0.72543704   -7.7524495    301.31264  0.019344674  0.019016932            2 
 1299000   0.71002516   -7.7615291    301.26064  0.019326446  0.019002593           11 
 1300000   0.72831872   -7.7497093    301.79683  0.019345951  0.018988341            7 
 1301000   0.72110307    -7.779129    301.25795  0.019296564  0.018974063            3 
 1302000   0.72444857   -7.7934637    300.47081  0.019231363  0.018959742            2 
 1303000   0.74124905   -7.7808958    301.58541  0.019287888  0.018945434            3 
 1304000   0.73168275   -7.7819688    301.37439  0.019259611  0.018931146            3 
 1305000   0.72697925   -7.7748999      301.579  0.019257918  0.018916903            3 
 1306000   0.72750415   -7.8024444    301.19623  0.019218749  0.018902617            8 
 1307000   0.73967187   -7.7869737    301.61877  0.019230985  0.018888346            3 
 1308000   0.71403668    -7.766791    301.27669  0.019194489  0.018874109            4 
 1309000   0.73586485   -7.7627862    301.78795  0.019212373  0.018859846            2 
 1310000   0.72422365   -7.7907028     301.1643  0.019158034  0.018845608            5 
 1311000   0.71876559   -7.7905932    301.05091  0.019136213  0.018831332            3 
 1312000    0.7178311    -7.800405    300.37422  0.019078647  0.018817003            3 
 1313000    0.7307895   -7.8140539    300.65799  0.019082127  0.018802629            4 
 1314000   0.72935356   -7.7904183    301.89259  0.019145902  0.018788276           11 
 1315000   0.73358777   -7.7913752     301.3153  0.019094759  0.018773927            2 
 1316000    0.7236394   -7.8113528    300.60234  0.019035102   0.01875963            4 
 1317000   0.71913213   -7.8099004    301.58528  0.019082845  0.018745366            5 
 1318000   0.72228994   -7.7709799    301.21016  0.019044649  0.018731152            3 
 1319000    0.7213506    -7.803924    301.62878  0.019056658  0.018716998            6 
 1320000   0.72870362   -7.7889471    301.84302  0.019055746  0.018702833            5 
 1321000    0.7260756   -7.7713604    301.59789  0.019025857  0.018688652            6 
 1322000   0.72184124    -7.784808     301.6585  0.019015286  0.018674482            3 
 1323000   0.71805358   -7.8009842    301.46486  0.018988716  0.018660301            5 
 1324000   0.72405252   -7.8190087    301.33033  0.018965907  0.018646092            4 
 1325000   0.73299507   -7.8163473    300.81416   0.01891913  0.018631818            3 
 1326000   0.71688747   -7.7852642    301.88319  0.018972046  0.018617606            7 
 1327000   0.70859503   -7.7868343    301.25558  0.018918336  0.018603414            4 
 1328000   0.70743007   -7.8202066     301.0896  0.018893675  0.018589178            3 
 1329000   0.74558806   -7.8211592    301.68817  0.018916991  0.018574953            7 
 1330000   0.70621695   -7.8225757    301.77807    0.0189084  0.018560678            3 
 1331000   0.72378856   -7.8091463    301.57712  0.018881613  0.018546477            3 
 1332000   0.72587659   -7.8193726    301.59163  0.018868345  0.018532257            3 
 1333000   0.71518145   -7.8153468    300.98638  0.018816353  0.018518105            3 
 1334000   0.71939273   -7.7998795     301.6672  0.018844778  0.018503958            3 
 1335000   0.72074657   -7.8284644    300.76826  0.018774548   0.01848977            3 
 1336000   0.72086587    -7.826928     301.3918  0.018799388  0.018475522            4 
 1337000   0.71264401    -7.848519    301.05797  0.018764521  0.018461383            5 
 1338000   0.71005018   -7.8527032    301.40325  0.018772001  0.018447174            3 
 1339000   0.72024128   -7.8383354    301.03722  0.018735202  0.018432966            3 
 1340000   0.71360754   -7.8474448    300.99433  0.018718553  0.018418773            3 
 1341000   0.71599307   -7.8385941    301.21508  0.018718312  0.018404567            6 
 1342000   0.73380574   -7.8400609    301.58849  0.018727552  0.018390385            5 
 1343000    0.7256479   -7.8230349    301.50422  0.018708378  0.018376258            3 
 1344000   0.73278905   -7.8196556    301.68293  0.018705539  0.018362151            2 
 1345000   0.71655644   -7.8105004    302.53482  0.018744412  0.018348044            2 
 1346000   0.70878177   -7.8202677    301.36122  0.018657827  0.018334011            3 
 1347000    0.7224782   -7.8420189    301.88833  0.018676585  0.018319983            3 
 1348000   0.69309316   -7.8206239    302.58162   0.01870559  0.018306014            2 
 1349000   0.71375872   -7.8259361    302.54655  0.018689557  0.018292017            4 
 1350000   0.72092834   -7.8167724    302.45705  0.018670188  0.018278075            3 
 1351000   0.71308641    -7.812061    302.30201  0.018646806  0.018264117            3 
 1352000   0.72618992   -7.8141469    301.83102  0.018603983  0.018250167            3 
 1353000   0.70071156   -7.8238234    302.18919  0.018612293  0.018236169            2 
 1354000   0.71707403   -7.8227557    301.92679  0.018582397  0.018222199            1 
 1355000   0.72506789   -7.8494996     301.9236  0.018568487   0.01820822            4 
 1356000   0.70514233    -7.837235    302.39985  0.018584061  0.018194211            3 
 1357000   0.69955894   -7.8315737    302.44276  0.018573002  0.018180223            3 
 1358000    0.7081194   -7.8192282    302.33708   0.01855284  0.018166226            5 
 1359000   0.73388719   -7.8444259    302.39077  0.018542481   0.01815224            7 
 1360000   0.71678966   -7.8393332     302.3283  0.018525018  0.018138273            9 
 1361000   0.73017166   -7.8353061    301.93637  0.018487409  0.018124289            6 
 1362000   0.70664413   -7.8137025    301.87831  0.018470283  0.018110355            8 
 1363000    0.7112815   -7.8569724     301.9285    0.0184598   0.01809643            4 
 1364000   0.69492104    -7.822949    302.03116  0.018452539  0.018082545            3 
 1365000   0.70694244   -7.8495127    302.06059  0.018440817  0.018068652            2 
 1366000   0.71014147   -7.8520326    301.93872  0.018419883  0.018054789            6 
 1367000   0.71579916   -7.8743144    302.44584  0.018437322  0.018040888            4 
 1368000   0.71230822    -7.835655    302.77506    0.0184439  0.018027023            5 
 1369000   0.69434054    -7.852787    302.50409  0.018413933  0.018013158            2 
 1370000   0.71258624   -7.8321647    302.26343  0.018385853  0.017999287            3 
 1371000   0.70087774   -7.8664566    303.03659  0.018419438  0.017985441            4 
 1372000   0.69475527    -7.884912    302.23608  0.018357391   0.01797162            5 
 1373000   0.70629561   -7.8815805    302.81988  0.018379454  0.017957825            3 
 1374000   0.69132809   -7.8698088    302.80039  0.018364895  0.017944021            3 
 1375000   0.70074805   -7.8505482    302.93261  0.018359552  0.017930221            2 
 1376000   0.69902032   -7.8697619     301.9013  0.018283751  0.017916419            3 
 1377000   0.71133415   -7.8618303    302.80991  0.018325461  0.017902619            2 
 1378000   0.70979398   -7.8584637    303.19954  0.018335725  0.017888872            2 
 1379000   0.70262983   -7.8518589    302.89155  0.018303816  0.017875144            2 
 1380000   0.70353406   -7.8591319    302.91446  0.018291936  0.017861429            2 
 1381000   0.72520418   -7.8439411    302.77465  0.018270254  0.017847748            7 
 1382000   0.70325907   -7.8446138    303.45563  0.018298097  0.017834098            4 
 1383000   0.69559241   -7.8439789    303.24381  0.018272103  0.017820429            4 
 1384000   0.70304012   -7.8533031     302.8732  0.018236585   0.01780676            3 
 1385000    0.7024785   -7.8508191    303.16216  0.018240804  0.017793082            6 
 1386000   0.70229795   -7.8644628    303.25404  0.018233168  0.017779405            2 
 1387000   0.68968529   -7.8707174    302.81348  0.018193552  0.017765775            3 
 1388000   0.69528085   -7.8373147    303.37767  0.018214317  0.017752176            5 
 1389000   0.69692709   -7.8659654    302.91839   0.01817365   0.01773854            2 
 1390000   0.70743415   -7.8815424    302.75579  0.018150827   0.01772485            5 
 1391000   0.69576565   -7.8850492    302.45952  0.018120029  0.017711167            7 
 1392000   0.68994087   -7.8962412    302.75874  0.018124925  0.017697483            3 
 1393000   0.70429932   -7.8878088    302.29238  0.018084014  0.017683759            5 
 1394000   0.69627878   -7.8862545    302.55227  0.018086577  0.017670054            4 
 1395000   0.70936541   -7.8975668    302.92787  0.018096049  0.017656364            5 
 1396000   0.69354611   -7.9183884    301.97288  0.018026079  0.017642629            3 
 1397000   0.70163192   -7.8738835    302.76945  0.018060693  0.017628889            7 
 1398000   0.70092057   -7.9059363    302.62202  0.018038985  0.017615183           10 
 1399000   0.69281162    -7.886356     302.7987  0.018036615  0.017601463            5 
 1400000   0.70494179   -7.8762496    302.85819  0.018027273  0.017587794           12 
 1401000   0.70342714   -7.8668937    303.15897  0.018032296  0.017574161            4 
 1402000   0.69529969   -7.8703094    302.81155  0.017998785  0.017560509           11 
 1403000   0.69089946   -7.8685791    302.95233  0.017994317  0.017546851            6 
 1404000   0.69065817    -7.882623    302.92201  0.017979701  0.017533186            4 
 1405000   0.70717838    -7.867025     302.8734  0.017964021   0.01751959            3 
 1406000   0.68678867   -7.8809244    302.99632   0.01795853  0.017505954            5 
 1407000   0.69151682   -7.8810593    302.93016  0.017941848   0.01749234            4 
 1408000   0.68395411   -7.8648932    302.99894  0.017933176  0.017478696            3 
 1409000   0.70402865   -7.8950927    302.14667  0.017870042  0.017465065            3 
 1410000   0.69689879   -7.9074328    302.20571  0.017860857  0.017451431            7 
 1411000   0.69816096   -7.8952759    302.66628  0.017875401  0.017437761            5 
 1412000   0.68560674   -7.9046874    302.76963   0.01786884  0.017424064           14 
 1413000   0.69443861    -7.887743    301.86489  0.017802836   0.01741039            6 
 1414000   0.68346603   -7.8888067    302.95546  0.017854518  0.017396727            3 
 1415000   0.69407775   -7.8914217    302.47737  0.017813744  0.017383103            7 
 1416000   0.67977604   -7.9003503    302.49892  0.017802432  0.017369478            4 
 1417000   0.66804489      -7.9195    302.65508  0.017799052  0.017355829            2 
 1418000   0.68881678   -7.9075574    302.91096  0.017801537  0.017342166            7 
 1419000   0.67838427   -7.9139873    301.73476  0.017719918  0.017328457            4 
 1420000   0.67356594    -7.888847    302.25833  0.017738165  0.017314791            5 
 1421000   0.69577491   -7.9006539    302.52086  0.017741078  0.017301173            3 
 1422000   0.69910129   -7.9037989     303.0949  0.017762242  0.017287538           11 
 1423000   0.69258678   -7.8774848    303.07976  0.017748873  0.017273958            7 
 1424000    0.6764745   -7.9137624    302.76829  0.017718182  0.017260382            8 
 1425000   0.68593566   -7.9020689    302.59697  0.017695729  0.017246818           11 
 1426000   0.66742841   -7.9071386    302.86912  0.017699224  0.017233249            5 
 1427000   0.68317357   -7.9011849    302.72768  0.017678561  0.017219685            4 
 1428000   0.68591493   -7.9361911    301.89752  0.017617736  0.017206123            2 
 1429000   0.67821076   -7.9384794    302.38187  0.017633652  0.017192529            3 
 1430000    0.6828552   -7.9255924    301.98737  0.017598331  0.017178955            6 
 1431000    0.6867082   -7.9183139    302.56817  0.017619856  0.017165367            6 
 1432000   0.68128353   -7.9188711    302.10818  0.017580783  0.017151789            4 
 1433000   0.68320472   -7.9055499    301.89661  0.017556211  0.017138201            6 
 1434000   0.67861072    -7.933004    302.99919  0.017608042  0.017124631            3 
 1435000   0.68411653   -7.9390785    302.14272  0.017546035  0.017111116            6 
 1436000   0.68139616   -7.9262815    301.93281  0.017521635  0.017097553            5 
 1437000   0.68406581   -7.9036822    302.90807  0.017565998  0.017084022            5 
 1438000   0.67975975   -7.8905805    302.28399  0.017517617  0.017070517            4 
 1439000     0.676435    -7.922716    302.45753  0.017515493  0.017057025            7 
 1440000   0.67657584   -7.8903705    302.81244  0.017523868  0.017043559            3 
 1441000   0.67480129   -7.9013921    302.34938  0.017484929  0.017030096            4 
 1442000   0.67442052   -7.9080059     301.9134  0.017447607  0.017016649            3 
 1443000    0.6833132   -7.9111417    302.69996   0.01748094  0.017003156            5 
 1444000   0.68266428   -7.9035203    302.97811  0.017484886  0.016989728            3 
 1445000   0.67461012   -7.9365589    301.83238  0.017406712  0.016976264            6 
 1446000   0.66982999   -7.8951477    302.67604  0.017443294  0.016962803            5 
 1447000    0.6727071   -7.9501008    302.35632  0.017412827  0.016949349            4 
 1448000   0.68203069   -7.9284745    302.27153  0.017395921  0.016935871            4 
 1449000   0.66154758   -7.9427621     302.0436  0.017370807  0.016922429            8 
 1450000    0.6711995   -7.9393117    302.22557  0.017369286  0.016908948            5 
 1451000   0.68463308   -7.9565584    301.83085  0.017334646   0.01689547            4 
 1452000   0.65169538   -7.9300501    302.60225  0.017366979  0.016882028            4 
 1453000   0.67165069   -7.9267934    302.51526  0.017350038  0.016868629            2 
 1454000    0.6838131   -7.9361389    302.73503  0.017350701  0.016855239            4 
 1455000    0.6733952   -7.9290457      302.556  0.017328523  0.016841855            3 
 1456000   0.66086655   -7.9507915    302.95181  0.017339275  0.016828461            6 
 1457000   0.67108012   -7.9421319    302.47494    0.0173001  0.016815088            4 
 1458000   0.66093414   -7.9124142    303.25342  0.017332729  0.016801735            2 
 1459000   0.66775179   -7.9382618    302.20748  0.017261108  0.016788391            3 
 1460000   0.67473171   -7.9176425    302.09738  0.017243001  0.016775052            5 
 1461000   0.68683697    -7.935286    302.94732  0.017279679  0.016761764            8 
 1462000    0.6804289   -7.9453964    302.46194  0.017240192  0.016748457            5 
 1463000   0.65353534   -7.9519656    302.22721  0.017215038  0.016735123            2 
 1464000   0.66281661   -7.9484562    301.80013  0.017178969  0.016721812            4 
 1465000    0.6679109   -7.9375478    301.90086  0.017172972   0.01670847            5 
 1466000   0.66258371   -7.9381019    302.44747   0.01719233  0.016695146            3 
 1467000   0.68652825    -7.939961    303.00408  0.017212229   0.01668186            5 
 1468000   0.68467614   -7.9180267    302.45847  0.017169532  0.016668604            3 
 1469000   0.66828706   -7.9476912    302.16808   0.01714137  0.016655349            4 
 1470000   0.66401548   -7.9431688    302.92383  0.017172553   0.01664208            4 
 1471000   0.65197693   -7.9500466    302.87016  0.017157838  0.016628801            6 
 1472000   0.67637999   -7.9608503    302.55537  0.017128361  0.016615529            6 
 1473000   0.65566942   -7.9511337    302.30138  0.017102363  0.016602245            2 
 1474000    0.6598553   -7.9592595     302.7734  0.017117447  0.016588968            6 
 1475000   0.66119245   -7.9692805    302.31255  0.017079805  0.016575713            8 
 1476000   0.66202938   -7.9613325    302.60588  0.017084794  0.016562465            6 
 1477000   0.66916423   -7.9672947    301.77794  0.017026514  0.016549227            5 
 1478000   0.67066623   -7.9347241    302.51902  0.017056778  0.016535968           11 
 1479000    0.6640857   -7.9190654    302.36275  0.017036441   0.01652274            6 
 1480000   0.66534086   -7.9529999    302.55925  0.017035994  0.016509518           12 
 1481000   0.63604081   -7.9414996     301.6709  0.016974505  0.016496298            2 
 1482000   0.67045468   -7.9709175    302.16873  0.016991044   0.01648306            3 
 1483000   0.65659402   -7.9543535    302.22909  0.016982979  0.016469835            3 
 1484000   0.66620982   -7.9491518     301.9993  0.016958631  0.016456648            7 
 1485000   0.64475186   -7.9588526    301.92562  0.016943076  0.016443454            4 
 1486000   0.67589928   -7.9686745    301.82847  0.016926227  0.016430239            4 
 1487000   0.65724826   -7.9718213    301.64939  0.016904808  0.016417011            5 
 1488000   0.65348271   -7.9695666    302.20395  0.016924505  0.016403779            3 
 1489000   0.65790766   -7.9671943     302.6637  0.016938868  0.016390589            4 
 1490000   0.67157792   -7.9499091    302.12888  0.016897588  0.016377381            2 
 1491000   0.66505014   -7.9662203    302.38097  0.016900345  0.016364153            3 
 1492000   0.64389949   -7.9670729    302.21755   0.01687989  0.016350947            2 
 1493000   0.65899839   -7.9745284    302.16201  0.016865484  0.016337761            2 
 1494000    0.6564128    -7.961812    302.21226  0.016856998  0.016324615            2 
 1495000    0.6635902   -7.9509435    302.66234   0.01687081  0.016311463            5 
 1496000   0.65913206    -7.961014    302.06425  0.016826217  0.016298323            4 
 1497000   0.66053968   -7.9716068    301.63961  0.016791339  0.016285171            3 
 1498000   0.65745972    -7.973291    301.49813  0.016772259  0.016272031            5 
 1499000    0.6664368    -7.963802    301.99402  0.016788638   0.01625886            3 
 1500000   0.66686861   -7.9887651    302.39143  0.016799524  0.016245706            5 
 1501000   0.65340768   -7.9716831    302.35782  0.016786465  0.016232558            2 
 1502000   0.65223175   -7.9668256    302.09997  0.016760984  0.016219446            4 
 1503000    0.6647635   -7.9770191    302.08656  0.016749088  0.016206334            4 
 1504000   0.65494839    -7.984302    302.35825  0.016753006  0.016193189            8 
 1505000   0.65981551   -7.9892762     301.8783  0.016715299  0.016180063            6 
 1506000   0.65237097   -8.0054956    301.92359  0.016706706  0.016166958            2 
 1507000   0.65470762   -8.0018305    301.88814  0.016693659  0.016153831            3 
 1508000   0.64847336   -7.9871423    302.11834  0.016695311  0.016140736            5 
 1509000   0.64393809   -7.9911069    302.12528   0.01668463  0.016127669            5 
 1510000   0.63989525   -7.9707752    301.81421  0.016656413  0.016114663            2 
 1511000   0.64320738   -7.9739508    302.24176   0.01666897  0.016101626            6 
 1512000   0.63386893   -8.0063175    301.81263  0.016634294  0.016088609            4 
 1513000   0.65082097   -7.9848671    302.45615  0.016658744  0.016075617            3 
 1514000   0.64485051   -7.9750992    302.21768  0.016634615   0.01606264            4 
 1515000   0.64089371   -7.9848838    301.77344  0.016599199  0.016049636            5 
 1516000   0.63442633   -7.9970153    302.38154  0.016621676  0.016036661            4 
 1517000   0.65626655   -7.9743854    303.06143  0.016648068  0.016023723            4 
 1518000   0.65521861   -7.9881013    301.97405  0.016577407  0.016010761            4 
 1519000   0.64983202   -8.0192845    302.08778  0.016572733  0.015997784           11 
 1520000   0.64335221   -7.9952235    302.32552  0.016574864   0.01598481           11 
 1521000   0.65178188     -7.98729    302.33894  0.016564702  0.015971874            7 
 1522000   0.65323844   -7.9798238    302.71233  0.016574262  0.015958943           18 
 1523000   0.64018916   -7.9693236    301.85829   0.01651665  0.015946045            6 
 1524000   0.63946906   -7.9918822    302.46851  0.016539179  0.015933165            5 
 1525000   0.64178602   -7.9960362    302.53189  0.016531797  0.015920259            6 
 1526000   0.65917926   -7.9969173    302.71724  0.016531086  0.015907374            2 
 1527000   0.63928542   -7.9996623    302.58647  0.016513123  0.015894503            6 
 1528000   0.64310335   -8.0116637    302.60541  0.016503349  0.015881659            4 
 1529000   0.63183993   -8.0051875     301.9907  0.016459053  0.015868819            3 
 1530000   0.64676535   -8.0132369    302.48101     0.016475  0.015855988            4 
 1531000   0.63604827   -8.0174578    302.39641  0.016459635   0.01584317            2 
 1532000   0.61941223   -8.0158561    302.25464  0.016441179  0.015830313            7 
 1533000   0.64022637    -8.012452    301.68427  0.016399449  0.015817483            3 
 1534000   0.65999297    -8.008213    302.46943  0.016431412  0.015804679            2 
 1535000   0.65466723   -8.0324211    302.28592  0.016410745  0.015791879            3 
 1536000   0.63159131   -8.0097817    301.91745   0.01638007  0.015779074            2 
 1537000   0.63572161   -8.0000992    302.58904  0.016405825   0.01576628            3 
 1538000   0.62308693    -8.018759     302.2139  0.016374832  0.015753543            5 
 1539000   0.62783295   -8.0273362    302.25114  0.016366208  0.015740822            3 
 1540000    0.6580162   -8.0163514    302.17272  0.016351338  0.015728103            2 
 1541000   0.63231832   -8.0018718    302.54509  0.016360864  0.015715387            3 
 1542000   0.63880715   -7.9849019     302.8718  0.016367909  0.015702729            3 
 1543000   0.65187628   -7.9677682    302.54292   0.01633954  0.015690095            4 
 1544000   0.63982196   -7.9964021    301.94137   0.01629649  0.015677465            3 
 1545000   0.65617288   -8.0115549    302.36077  0.016308564  0.015664818            4 
 1546000   0.64832334   -8.0202607    302.34605  0.016297221  0.015652166            5 
 1547000   0.62376275   -8.0244364    302.45396    0.0162925  0.015639518            3 
 1548000   0.63295879   -8.0083473    302.21899  0.016269326  0.015626882            5 
 1549000   0.64872203   -8.0178335    302.28157  0.016262189  0.015614243            3 
 1550000   0.64535199    -8.013336    302.55848  0.016266585  0.015601631            5 
 1551000   0.64772315   -8.0335194    302.19694  0.016236672  0.015589012           10 
 1552000   0.63183632   -8.0176466     302.3855  0.016236335  0.015576406            9 
 1553000    0.6372921   -8.0230899    302.28749  0.016220621  0.015563832            6 
 1554000   0.63209774   -8.0221942     302.8886  0.016242417   0.01555128            5 
 1555000   0.62973266   -8.0100274    301.75475  0.016171209  0.015538719            3 
 1556000   0.63542613    -8.001401    302.11792  0.016180266  0.015526171            5 
 1557000   0.64300206   -8.0156765    302.41564  0.016185808  0.015513621            6 
 1558000   0.64173679   -8.0182494     302.3924  0.016174176  0.015501054            6 
 1559000   0.62087547   -8.0116255    302.20623   0.01615385  0.015488503            9 
 1560000   0.63547729   -8.0314875    301.87445  0.016125772  0.015475982            3 
 1561000   0.62144795    -8.038462    301.69413  0.016105815  0.015463481            3 
 1562000   0.64634707   -8.0202799    302.78015  0.016153444  0.015450978            5 
 1563000   0.63802892   -8.0289334    302.79489  0.016143895  0.015438488            3 
 1564000   0.62166619   -8.0312804    302.18656  0.016101159   0.01542599            2 
 1565000   0.62718482   -8.0107482    302.24599  0.016094036  0.015413486            4 
 1566000   0.62858863   -8.0406915    302.02055  0.016071762  0.015401017            5 
 1567000   0.63373717   -8.0333044    302.27576  0.016075078  0.015388554            3 
 1568000   0.61865384   -8.0370218    302.22373   0.01606206  0.015376079            4 
 1569000   0.63488694   -8.0271631    302.01972  0.016040988  0.015363608            7 
 1570000   0.61654641   -8.0382066    302.34512  0.016048042  0.015351174            4 
 1571000   0.62708145   -8.0412238    302.24017   0.01603226  0.015338719            5 
 1572000   0.62859541   -8.0434086     302.2498  0.016022572  0.015326267           12 
 1573000    0.6128935   -8.0645939    302.05934  0.016002296  0.015313846            5 
 1574000   0.62442599   -8.0228265    302.69008  0.016025523  0.015301426            3 
 1575000   0.62770428   -8.0509453    302.42397  0.016001268  0.015289038            4 
 1576000   0.60758016   -8.0352259    301.82022  0.015959191  0.015276632            7 
 1577000   0.62403685   -8.0396741    302.27292  0.015972993  0.015264226            5 
 1578000      0.61745   -8.0432422    302.06442   0.01595186  0.015251801            2 
 1579000   0.62534567   -8.0532066    302.14536  0.015946029  0.015239378           12 
 1580000   0.64035774   -8.0429031    302.06799  0.015931856  0.015226965            7 
 1581000   0.61765412   -8.0472198    301.74044  0.015904514  0.015214556           10 
 1582000   0.61557521   -8.0648287    302.22635  0.015920056  0.015202185            3 
 1583000   0.62499863    -8.032373    301.36397  0.015864602  0.015189804            2 
 1584000   0.62427716   -8.0322898    301.77624  0.015876275  0.015177443            4 
 1585000   0.63449728   -8.0517675    301.93045  0.015874366  0.015165084            4 
 1586000    0.6078102   -8.0368883    302.24811  0.015881048  0.015152739            4 
 1587000   0.62468428   -8.0236057    302.20776  0.015868923  0.015140419            6 
 1588000   0.62088581   -8.0462193    301.85839  0.015840596  0.015128134            3 
 1589000   0.60755456   -8.0574991    301.53865  0.015813858  0.015115823            4 
 1590000   0.61516786   -8.0560609    301.89585  0.015822634  0.015103525            2 
 1591000   0.60674985   -8.0611265    301.55706  0.015794944  0.015091229            4 
 1592000   0.60664607   -8.0497175    302.03262  0.015809915  0.015078928            6 
 1593000   0.60761525   -8.0755054     301.5948  0.015777087  0.015066624            5 
 1594000    0.6176727   -8.0708099    301.27994  0.015750729  0.015054338            4 
 1595000   0.61775517   -8.0511617    302.01958  0.015779497   0.01504207            4 
 1596000    0.6212381   -8.0544032    301.68622  0.015752204  0.015029798            6 
 1597000   0.61233395   -8.0679113    301.96617  0.015756949  0.015017529            4 
 1598000   0.61211859   -8.0394754    301.61076  0.015728554  0.015005274            7 
 1599000   0.62618136   -8.0797174     301.8621  0.015731817  0.014993016            4 
 1600000   0.62914735   -8.0742046     301.9714  0.015727677  0.014980757            4 
 1601000    0.6210741   -8.0679254      301.631  0.015700135  0.014968506            3 
 1602000   0.61480184   -8.0751845    301.17421  0.015666574  0.014956276           10 
 1603000   0.62481407   -8.0565226     302.3392  0.015717363  0.014944063            3 
 1604000   0.60956223   -8.0656811     301.4961  0.015663762  0.014931842            7 
 1605000   0.61371918   -8.0924538    301.58784  0.015658766  0.014919643            4 
 1606000    0.6174229   -8.1105256    301.67295  0.015653432    0.0149074            6 
 1607000   0.62357696   -8.0950332    301.75847  0.015648127  0.014895193            5 
 1608000   0.60916021   -8.0885213    301.40069  0.015619853  0.014882995            3 
 1609000   0.60007512   -8.0730976    301.71937   0.01562665  0.014870806            6 
 1610000   0.61235056   -8.0857998    301.94465  0.015628605  0.014858644            3 
 1611000   0.59882678   -8.0835905     301.3652   0.01558893  0.014846481            6 
 1612000   0.60703853   -8.0732852    301.65146  0.015594058   0.01483433            4 
 1613000   0.61828106   -8.0924787     301.2909  0.015565763  0.014822221            4 
 1614000    0.5976494   -8.0770853    301.87267  0.015586156  0.014810097            6 
 1615000   0.59800871   -8.1029712    301.63477  0.015564229  0.014797968            3 
 1616000   0.61463863   -8.1196571    301.26123  0.015535336  0.014785872            3 
 1617000   0.60328702   -8.1048319    301.93906  0.015560661  0.014773791            4 
 1618000   0.62047582   -8.0831643    301.67463  0.015537424  0.014761699            3 
 1619000   0.61739539    -8.107316    301.02247  0.015494259  0.014749598            3 
 1620000   0.61556801   -8.0789299    301.38787  0.015503491  0.014737529            2 
 1621000   0.61697668   -8.0906406    301.70109  0.015510029  0.014725453           13 
 1622000   0.61751554   -8.1109068    301.92883  0.015512168  0.014713392            4 
 1623000   0.60153851   -8.1036914    301.82545  0.015497302  0.014701347            6 
 1624000   0.60466402   -8.0663758    301.54983  0.015473616  0.014689297            4 
 1625000   0.60850029   -8.0935968    301.44599  0.015458769  0.014677255            2 
 1626000   0.60578202   -8.0932782    300.54888  0.015403284  0.014665225            2 
 1627000   0.58664528   -8.0983385    301.46119  0.015440544  0.014653218            7 
 1628000   0.60915105   -8.1001873    301.88797  0.015452906  0.014641219            9 
 1629000   0.60069074   -8.0857682    301.34841  0.015415818  0.014629222            3 
 1630000   0.60061639    -8.113241    301.42319  0.015410183  0.014617244            5 
 1631000   0.61575294   -8.1111695    301.20396  0.015389534  0.014605277            4 
 1632000   0.61157884   -8.0974031    301.86656  0.015413938  0.014593338            4 
 1633000   0.59995574   -8.1238467    301.49557  0.015385567  0.014581397            5 
 1634000   0.61901511   -8.1055338    301.45752  0.015374211  0.014569474            3 
 1635000    0.5890314   -8.0940975    301.58315   0.01537121   0.01455754            4 
 1636000   0.59267771   -8.1074222    301.34886  0.015349881  0.014545607            3 
 1637000   0.59246053    -8.123482    300.76821  0.015310945  0.014533687            4 
 1638000   0.61120592   -8.1088435    300.79093  0.015302754  0.014521765            2 
 1639000   0.60466079   -8.1128961    301.23209  0.015315848  0.014509868            2 
 1640000   0.59985023   -8.1112073    301.04197  0.015296848  0.014497996            6 
 1641000   0.58791303   -8.1138319    301.13613  0.015292308  0.014486121            3 
 1642000   0.59767303   -8.1108789    301.01275  0.015276733  0.014474252            3 
 1643000    0.5882934   -8.1158751    301.60256  0.015297351  0.014462418            4 
 1644000   0.61039377   -8.1065256    301.13954  0.015264575  0.014450589            3 
 1645000    0.5870847   -8.1092372     301.1217  0.015254392  0.014438747            4 
 1646000    0.5795909     -8.09324    301.33257  0.015255801  0.014426936            4 
 1647000   0.58241377   -8.1014444    301.27932  0.015243843  0.014415147            4 
 1648000    0.5938069   -8.1094462    301.32012  0.015236657  0.014403352            3 
 1649000   0.58721263   -8.1117941    301.73218   0.01524824  0.014391573            5 
 1650000   0.60482601   -8.1050543    301.38198  0.015221312  0.014379803            3 
 1651000   0.59116608   -8.1325484    301.84294  0.015235359  0.014368043            6 
 1652000       0.5855   -8.1282791    300.99474  0.015183351  0.014356281            4 
 1653000   0.60376805   -8.1410962    301.46473  0.015197859   0.01434452            7 
 1654000    0.5984459   -8.1287157    301.06161   0.01516836  0.014332755            4 
 1655000   0.59705106   -8.1280413    301.13641  0.015162961  0.014321006            4 
 1656000   0.60474166   -8.1173323    300.96164   0.01514501  0.014309278            3 
 1657000   0.59786548   -8.1141027     301.1795  0.015146827  0.014297549            3 
 1658000   0.58776691   -8.1138369    301.22257  0.015139856  0.014285816            7 
 1659000   0.58443555   -8.1138581    301.10579  0.015124864  0.014274111            8 
 1660000   0.59307334   -8.1122775    300.92846  0.015106851  0.014262422            3 
 1661000   0.59618236   -8.1023373    301.26858  0.015114819  0.014250745            5 
 1662000    0.5825949   -8.1237457    301.41246  0.015112939  0.014239083            4 
 1663000   0.59035111   -8.1316236    301.29323  0.015097877  0.014227428            3 
 1664000   0.59959584   -8.1290629    301.11744      0.01508  0.014215773            4 
 1665000   0.60077603   -8.1353162    301.77596  0.015103902  0.014204113            5 
 1666000   0.59603653   -8.1299145    300.81773  0.015046905  0.014192478            4 
 1667000   0.59148541   -8.1269577    300.93167  0.015043575  0.014180836            4 
 1668000   0.59919375   -8.1226451    300.70855  0.015023409  0.014169209            5 
 1669000    0.5754554   -8.1458653    300.61857  0.015009915  0.014157586            3 
 1670000   0.57500221   -8.1393896    300.87491  0.015013718  0.014145968            5 
 1671000   0.59295699    -8.139243    300.54746  0.014988403  0.014134373            5 
 1672000   0.58456219   -8.1416906    301.01574  0.015002778  0.014122776            4 
 1673000   0.58907824   -8.1447684     301.0649  0.014996259   0.01411119            2 
 1674000   0.58119275   -8.1427768    300.76479  0.014972361  0.014099616            4 
 1675000   0.56776424   -8.1527399    301.11179  0.014980686  0.014088052            8 
 1676000   0.59461062   -8.1478049    300.33797  0.014933272  0.014076477            8 
 1677000   0.59496324   -8.1359225    301.22062  0.014968228  0.014064932            6 
 1678000   0.58157274   -8.1389183    301.09006  0.014952824  0.014053389            6 
 1679000   0.58369255   -8.1626912    301.36419  0.014957524  0.014041862            4 
 1680000    0.5842929   -8.1405049    300.74647   0.01491798  0.014030346            6 
 1681000   0.58445207   -8.1503225    301.06018  0.014924657  0.014018832            4 
 1682000   0.58628473   -8.1478903    301.00195  0.014912899  0.014007327            4 
 1683000   0.57271807   -8.1456292    300.83746  0.014895893  0.013995833            6 
 1684000   0.58291353    -8.139724    301.02699  0.014896427  0.013984336            5 
 1685000   0.58250114    -8.144145    300.72263  0.014872534  0.013972847            4 
 1686000   0.58606259   -8.1420536    300.74155  0.014864648   0.01396136            6 
 1687000   0.58282248   -8.1523908    301.11953  0.014874507  0.013949897            5 
 1688000   0.59092484   -8.1626457     300.5019  0.014835204  0.013938457            3 
 1689000   0.58274887   -8.1666573    301.18094  0.014859924  0.013927043            5 
 1690000   0.57235432   -8.1597616    300.75631  0.014830193  0.013915626            4 
 1691000   0.58041512   -8.1544959    300.92507  0.014829739  0.013904202            4 
 1692000   0.57844532   -8.1407633    300.81878   0.01481574  0.013892793            5 
 1693000   0.57589358   -8.1348341    300.35284  0.014784054  0.013881393            5 
 1694000   0.56877218   -8.1511144    300.67994  0.014791418   0.01386999            7 
 1695000   0.57904504   -8.1436431    300.91659  0.014794326  0.013858597            7 
 1696000   0.56972596   -8.1517254    301.29577  0.014804234   0.01384721            3 
 1697000   0.58009271   -8.1498192    300.12474  0.014738005  0.013835825            4 
 1698000   0.57154829   -8.1800924    300.66671  0.014755924  0.013824469            6 
 1699000    0.5669301   -8.1803083    300.94272  0.014760777  0.013813127           10 
 1700000    0.5760374   -8.1609963    300.54955  0.014732821  0.013801789            4 
 1701000   0.56142621    -8.160694    300.64424  0.014728799  0.013790449            7 
 1702000   0.57291604   -8.1530796    300.71411  0.014723566   0.01377914            5 
 1703000   0.57903336   -8.1649248    300.60103  0.014709387  0.013767827            5 
 1704000    0.5840369   -8.1847545    299.89475  0.014666214  0.013756514            6 
 1705000   0.57230643   -8.1740347     300.2098  0.014673011  0.013745208            6 
 1706000   0.57622231   -8.1735401    300.55357  0.014681202  0.013733913            4 
 1707000   0.56579097   -8.1451158    300.64338  0.014676986  0.013722641           10 
 1708000   0.57670546   -8.1472244    300.96498  0.014684084  0.013711374            5 
 1709000   0.56634783   -8.1721828    300.55642   0.01465557  0.013700111            8 
 1710000   0.56287402   -8.1864586    300.32229  0.014635589  0.013688859            5 
 1711000   0.56344497   -8.1699272    300.13522  0.014617924   0.01367762            4 
 1712000   0.55976499    -8.168586    300.18361  0.014611741  0.013666389            7 
 1713000     0.558439   -8.1522461    300.95972  0.014640967  0.013655174            3 
 1714000   0.57442038   -8.1676501    300.76752   0.01462308  0.013643982            3 
 1715000   0.56829387    -8.180273    300.49821  0.014601468   0.01363279            3 
 1716000    0.5592971   -8.1739138    300.88689  0.014611834  0.013621608            6 
 1717000   0.56818951   -8.1658943    300.34476  0.014577012  0.013610442            6 
 1718000   0.56847618   -8.1786821    300.71995  0.014586726  0.013599284            6 
 1719000   0.57336897   -8.1616297    300.06059  0.014546276  0.013588116            4 
 1720000    0.5704238   -8.1816062    300.52062  0.014560107  0.013576965            4 
 1721000   0.57709811   -8.1800178    300.49865  0.014550584  0.013565828            9 
 1722000   0.56795123   -8.1672158    300.18622  0.014527014  0.013554679            4 
 1723000   0.56636425   -8.1791358    300.60891  0.014539027  0.013543544            4 
 1724000   0.56884418   -8.1837487    300.39688  0.014520344  0.013532425            7 
 1725000   0.54263594   -8.1754414    300.45626  0.014514795  0.013521326            6 
 1726000   0.56413319     -8.20743    300.23081  0.014495501  0.013510215            4 
 1727000   0.57130091   -8.1783638    300.11259  0.014481403  0.013499125            6 
 1728000   0.55844281    -8.186131    300.81265  0.014506783  0.013488056            7 
 1729000   0.56568413   -8.1789096    300.26056  0.014471783  0.013477004            5 
 1730000    0.5651022   -8.1845367    300.23618  0.014462244  0.013465953            4 
 1731000   0.55578787   -8.1890126    300.14434  0.014449467  0.013454917            3 
 1732000   0.54457701   -8.1712594     300.2968   0.01444846  0.013443884            4 
 1733000   0.55618793   -8.1905463    300.12699  0.014431958  0.013432854            3 
 1734000    0.5659436   -8.1640558     300.3618  0.014434919  0.013421823            5 
 1735000   0.56424182    -8.193852    300.33306  0.014425219  0.013410828            3 
 1736000   0.55449531   -8.1955915    300.37619   0.01441898  0.013399848            8 
 1737000   0.55767215   -8.1901842    299.87264  0.014386521   0.01338886            5 
 1738000   0.56246997   -8.1919864    300.08554  0.014388451  0.013377876            6 
 1739000   0.55889908   -8.1900269    299.91947  0.014372219  0.013366894            4 
 1740000   0.57132158    -8.188935    300.21104  0.014377923  0.013355924            5 
 1741000   0.56025817   -8.1772443    299.61485  0.014341128  0.013344989            7 
 1742000   0.56346639   -8.1965128    300.20972  0.014361353  0.013334051            6 
 1743000     0.551098   -8.1862662    299.88932  0.014337795  0.013323132            7 
 1744000    0.5517951   -8.1998549    300.35195  0.014351679  0.013312207            5 
 1745000   0.54215671   -8.1943857    300.34641   0.01434319  0.013301287            5 
 1746000   0.56007453   -8.1937916    299.73753  0.014305915  0.013290378            4 
 1747000   0.55330644   -8.1711793    300.15872  0.014317817  0.013279483            5 
 1748000   0.56779163   -8.1922666    300.56327  0.014328912  0.013268598            5 
 1749000   0.56122264   -8.2022342    299.63512  0.014276497  0.013257706            5 
 1750000   0.53678417   -8.2034341    299.98946  0.014285212   0.01324682            3 
 1751000   0.53693285   -8.2014333     299.9918  0.014277165  0.013235943            2 
 1752000   0.54070306   -8.1782339    299.95007  0.014267032  0.013225083            5 
 1753000   0.56080911   -8.1951996     299.8956  0.014256303  0.013214236            4 
 1754000   0.55653593   -8.1907266    300.11036  0.014258379  0.013203387            5 
 1755000   0.55504749   -8.1763341    300.53657  0.014270493  0.013192556            1 
 1756000   0.54577817   -8.2034777    300.05285   0.01423941  0.013181735            3 
 1757000   0.53866193   -8.2045179    300.02572  0.014230019  0.013170919            3 
 1758000   0.55722693    -8.209883    299.91174  0.014216521  0.013160097            3 
 1759000   0.56423881   -8.2125048    299.90182  0.014207969  0.013149296            4 
 1760000   0.55269561    -8.205158    299.82889  0.014196444   0.01313849            2 
 1761000   0.55845668   -8.2262503    299.94337  0.014193799  0.013127711            4 
 1762000   0.54494871   -8.2102988    300.54064  0.014213992   0.01311693            5 
 1763000   0.54762509   -8.2031196    299.66222  0.014164408  0.013106171            4 
 1764000   0.54817214   -8.1866427    299.58571  0.014152764   0.01309542            3 
 1765000   0.54737929   -8.2112363    300.11501  0.014169736  0.013084665            5 
 1766000   0.53687327     -8.20143    299.67303  0.014140856  0.013073943            3 
 1767000   0.54325827    -8.195096    299.73776  0.014135907  0.013063219            4 
 1768000   0.54923265   -8.2149862    300.07824  0.014143959  0.013052496            5 
 1769000   0.55946909   -8.2122561    299.62145  0.014114446  0.013041803            4 
 1770000   0.55589084   -8.2076409    299.76846  0.014113393  0.013031108            3 
 1771000     0.551153   -8.2182519    299.79396  0.014106624  0.013020424            4 
 1772000   0.54974966   -8.1930784    299.51687  0.014085632  0.013009749            4 
 1773000   0.54022181   -8.2193807    299.94047  0.014097597  0.012999084            3 
 1774000   0.55868059   -8.2254838    300.00765  0.014092806   0.01298844            4 
 1775000   0.54555679   -8.2111679    299.53895  0.014062861  0.012977808            3 
 1776000   0.54569459   -8.2102945    299.96921  0.014075132  0.012967171            6 
 1777000   0.54358445   -8.2364844     300.0924  0.014072988  0.012956557            2 
 1778000   0.54988129   -8.2234317    299.51374  0.014037952  0.012945943            3 
 1779000   0.54913627    -8.226123    299.35503  0.014022627  0.012935328            4 
 1780000    0.5416268   -8.2144916    299.70371  0.014031072  0.012924724            2 
 1781000   0.53520279    -8.213252    299.92037  0.014033332  0.012914139            4 
 1782000   0.54194022   -8.2287915     299.6075  0.014010826  0.012903561            4 
 1783000   0.54768149   -8.2102898    299.86225  0.014014874  0.012892998            3 
 1784000   0.53853073   -8.2379038    300.04286  0.014015455  0.012882439            3 
 1785000    0.5336823   -8.2385899    299.29343  0.013972616  0.012871885            2 
 1786000   0.55595394   -8.2310306    299.62498  0.013980262  0.012861337            4 
 1787000   0.54187905    -8.221988    299.85822  0.013983316  0.012850793            5 
 1788000   0.53798803   -8.2456214    299.14198  0.013942113  0.012840255            2 
 1789000   0.53417014   -8.2420475    299.51865  0.013951865  0.012829718            3 
 1790000   0.55045687   -8.2201792    299.84911  0.013959456  0.012819207            5 
 1791000   0.54563465   -8.2321115    299.60588  0.013940344  0.012808709            5 
 1792000   0.53174437   -8.2328903    299.58024  0.013931373  0.012798223            3 
 1793000   0.54797487   -8.2228177    299.67571   0.01392804   0.01278774            3 
 1794000   0.53907494   -8.2327932    299.81698  0.013926838   0.01277726            3 
 1795000   0.54348821   -8.2492055    299.27339  0.013893844  0.012766794            3 
 1796000   0.53624181   -8.2238031    299.72923  0.013907258  0.012756337            4 
 1797000   0.54237251   -8.2355737    299.30835  0.013880002  0.012745895            3 
 1798000   0.53751865    -8.247658    299.54984  0.013883474  0.012735456            4 
 1799000   0.54305486   -8.2283165    299.15037  0.013857253  0.012725029           12 
 1800000   0.53870428   -8.2460152    299.35588  0.013859068  0.012714605            2 
 1801000     0.533557   -8.2245503    299.54208  0.013859989  0.012704201            4 
 1802000   0.52205476   -8.2341178    299.05904  0.013829959  0.012693811            4 
 1803000    0.5327584   -8.2169496    298.79947  0.013810292  0.012683414            5 
 1804000    0.5448309   -8.2312043    299.68953  0.013843751  0.012673035            5 
 1805000    0.5413062   -8.2356218    299.54872  0.013829581  0.012662665            9 
 1806000   0.53353288     -8.24438    298.98425  0.013795877  0.012652298           11 
 1807000   0.53997947   -8.2516517    298.91746  0.013785162  0.012641949            6 
 1808000   0.53374981   -8.2356281    299.07795  0.013784935  0.012631589            4 
 1809000   0.52669629   -8.2431655    299.52313  0.013797822  0.012621242            6 
 1810000   0.52635494   -8.2308308    299.05131  0.013768477  0.012610914            5 
 1811000    0.5110645   -8.2494781    299.51982  0.013782433  0.012600593            6 
 1812000    0.5280645   -8.2192346    299.72873  0.013784434  0.012590291            3 
 1813000   0.52056891   -8.2467504    299.14275  0.013749896  0.012579995            4 
 1814000   0.53450182   -8.2311864    299.14283   0.01374232  0.012569706            3 
 1815000   0.53829049   -8.2626446     299.3355  0.013743595  0.012559428            3 
 1816000   0.52612979   -8.2629305    299.37237  0.013737719  0.012549172            6 
 1817000     0.526476   -8.2630555    299.08448  0.013716955  0.012538911            4 
 1818000   0.53115455   -8.2635932    299.32504  0.013720436  0.012528669            5 
 1819000    0.5303233   -8.2461412    298.84255  0.013690789  0.012518429            5 
 1820000   0.53916575   -8.2432719    299.51527  0.013714069  0.012508201            3 
 1821000   0.51788319   -8.2519817    299.04509  0.013685021  0.012497973            5 
 1822000   0.52231955   -8.2373564    298.96904  0.013674032  0.012487761            5 
 1823000   0.53215512   -8.2322401    298.84287  0.013660764  0.012477547            4 
 1824000   0.52735731   -8.2237013    299.50475  0.013683514  0.012467355            5 
 1825000    0.5268926   -8.2388448     299.4676   0.01367432  0.012457166           13 
 1826000   0.52946812   -8.2483295    299.23853  0.013656377  0.012446974            5 
 1827000   0.51352758    -8.227093    299.44963  0.013658531  0.012436801           15 
 1828000   0.51948397   -8.2517914    299.05454  0.013633048  0.012426641            9 
 1829000   0.51735076   -8.2514006    299.52737  0.013647137  0.012416496            4 
 1830000    0.5103822   -8.2431022    298.85092  0.013608876  0.012406366           11 
 1831000   0.52390402   -8.2367985    299.10278  0.013612906  0.012396226           11 
 1832000   0.51892159    -8.257707    299.41235  0.013619557  0.012386105            3 
 1833000    0.5198672   -8.2524468    299.23163  0.013603911  0.012375997            9 
 1834000   0.51465334   -8.2493446    298.81721  0.013577663  0.012365889            5 
 1835000    0.5169536   -8.2490863     299.3711  0.013595418  0.012355798            4 
 1836000   0.52517677    -8.253318    299.12965  0.013577054  0.012345705            4 
 1837000   0.51758529    -8.254055    299.13814  0.013570048   0.01233562            4 
 1838000   0.53006859   -8.2598493    299.31812  0.013570825  0.012325553            4 
 1839000   0.51613388   -8.2607363    298.95025  0.013546776  0.012315494           14 
 1840000   0.49458968   -8.2644642    298.56167  0.013521815   0.01230544            5 
 1841000     0.519532   -8.2581897    299.07988  0.013537927  0.012295401            3 
 1842000   0.51438063   -8.2563224     299.5606  0.013552326  0.012285376           10 
 1843000   0.52094942   -8.2661464    298.90235  0.013515208  0.012275345           12 
 1844000   0.50809672   -8.2551454    298.91772  0.013508574  0.012265327            4 
 1845000   0.51798461   -8.2678424       299.03  0.013506323  0.012255327            7 
 1846000   0.52186208   -8.2650524    299.36242  0.013514013  0.012245338            5 
 1847000   0.51211926   -8.2687277    298.80248  0.013481433  0.012235354            8 
 1848000   0.51127022   -8.2661586    298.78061  0.013473152  0.012225373           16 
 1849000   0.52260238   -8.2549402    299.33818  0.013490994  0.012215404           10 
 1850000   0.51288515   -8.2648383    299.21312  0.013478069  0.012205452           11 
 1851000   0.50619039   -8.2575145    299.29948  0.013474675  0.012195503            5 
 1852000   0.51082329   -8.2531506    299.06421  0.013456813  0.012185578            8 
 1853000   0.50559495   -8.2590036    298.65313  0.013431063   0.01217565            4 
 1854000   0.50896285   -8.2938856    298.91265  0.013435484  0.012165732            3 
 1855000   0.50316823   -8.2759068    299.18967  0.013440686  0.012155807            4 
 1856000   0.52190997   -8.2544223    298.56851  0.013405554  0.012145906            7 
 1857000    0.5202217   -8.2653479    298.93119  0.013414611  0.012136012            6 
 1858000   0.51920808    -8.266654    298.91649  0.013406732  0.012126137            4 
 1859000   0.51531495   -8.2814784    298.99872  0.013403206  0.012116269            4 
 1860000   0.51270068   -8.2670324    298.97878  0.013395107  0.012106411           12 
 1861000   0.51353611   -8.2649994    298.55549  0.013368955  0.012096565            3 
 1862000   0.51649471   -8.2673822    299.13565  0.013387739  0.012086729           18 
 1863000   0.51741091   -8.2644022    298.41953  0.013348521  0.012076901            7 
 1864000   0.49981913   -8.2841544    299.05005  0.013369548  0.012067082            3 
 1865000   0.49807275   -8.2717117    298.60515    0.0133425   0.01205727            4 
 1866000   0.52356224    -8.282286    298.58234  0.013334331  0.012047464            3 
 1867000   0.50014681   -8.2632443    298.69515  0.013332224  0.012037669            5 
 1868000   0.49724305   -8.2842699    298.65409  0.013323255  0.012027879            8 
 1869000   0.49821034   -8.2764032    298.63864  0.013315438  0.012018096            5 
 1870000   0.52451093   -8.2783355    298.96701  0.013322951  0.012008332            3 
 1871000    0.4979422    -8.271933    298.85977  0.013311053  0.011998583            4 
 1872000   0.50071029   -8.2682604    298.77767  0.013300288  0.011988845            4 
 1873000   0.50269751   -8.2713046    299.11389  0.013308146  0.011979113            4 
 1874000   0.49245496   -8.2871104      298.577   0.01327717  0.011969385            4 
 1875000   0.50544807   -8.2686594    299.22799  0.013299022  0.011959677            3 
 1876000   0.50569895   -8.2947217    298.66562  0.013266952  0.011949974            6 
 1877000   0.49898188   -8.2880389    298.73031  0.013262756  0.011940276            3 
 1878000   0.50650067   -8.2959872    298.54507  0.013247474  0.011930584            3 
 1879000   0.49862833   -8.2879126    298.46833   0.01323702    0.0119209            4 
 1880000   0.50336087   -8.2648307    298.60841  0.013236188  0.011911229            2 
 1881000   0.50457843   -8.2840543    298.47914  0.013223425  0.011901564            5 
 1882000   0.51541064   -8.2968483     298.0739  0.013198454  0.011891908            4 
 1883000    0.5060974   -8.2840901    298.35533    0.0132039  0.011882258            5 
 1884000   0.48506954   -8.2870611      298.304  0.013194621  0.011872609            3 
 1885000   0.50765436   -8.2757768    298.93666   0.01321559  0.011862987            4 
 1886000   0.50996035   -8.2915244    298.59883  0.013193656  0.011853375            5 
 1887000    0.4930698   -8.2833671    298.60224  0.013186815  0.011843762            4 
 1888000   0.51805369   -8.2895916    298.73285  0.013185595  0.011834169            3 
 1889000   0.50799641   -8.2644857    298.65734  0.013175284  0.011824586            7 
 1890000   0.51166873   -8.2928822    298.91364  0.013179614  0.011815008            5 
 1891000   0.49471802   -8.2950625    298.87777  0.013171063   0.01180544            5 
 1892000   0.49596107   -8.3007263    298.90909  0.013165481  0.011795886            3 
 1893000   0.50264951   -8.3080478    298.62273  0.013145921  0.011786334            3 
 1894000   0.49510596    -8.293212    298.76532  0.013145254  0.011776789            6 
 1895000   0.49489204   -8.3047148    298.50555  0.013126893  0.011767245            5 
 1896000   0.50119766   -8.2812096    298.02617    0.0130989  0.011757724            8 
 1897000   0.49466791   -8.2841248    298.48606  0.013112197  0.011748224            4 
 1898000    0.4883905   -8.2954491    298.49569  0.013105712  0.011738716            5 
 1899000   0.49245759   -8.2938614    298.13099  0.013082806  0.011729226            6 
 1900000    0.5045716   -8.2915015    298.81565   0.01310595  0.011719745            7 
 1901000   0.49337606   -8.2936201    298.71896  0.013094817  0.011710282            5 
 1902000   0.50487292   -8.3116833    298.68806  0.013086578  0.011700825            3 
 1903000   0.48926522   -8.2874743    297.89702  0.013045061   0.01169138            4 
 1904000   0.48817046   -8.3138301    298.75256  0.013075655  0.011681935            8 
 1905000   0.48382414   -8.2993595    298.03227  0.013037282  0.011672504            4 
 1906000   0.49773541   -8.2997709    298.32122  0.013043076  0.011663078            6 
 1907000   0.48694054   -8.3049735    298.53772  0.013045697  0.011653666            7 
 1908000   0.48670927   -8.3053233    298.63186  0.013042971  0.011644264            8 
 1909000   0.48402779   -8.3108599    298.13176  0.013014308  0.011634863            5 
 1910000   0.48591319   -8.2947709     298.2467  0.013012509  0.011625463            5 
 1911000   0.47972051    -8.300415    298.99957   0.01303853  0.011616082            4 
 1912000   0.49321996   -8.3037675    298.29239  0.013000889  0.011606708            7 
 1913000   0.48554017      -8.3044    298.57458  0.013006385  0.011597339            2 
 1914000   0.48977426    -8.319318    298.35841  0.012990178  0.011587981            4 
 1915000   0.48417156   -8.3079362     297.9414  0.012965248   0.01157863            5 
 1916000   0.48872223   -8.2948808    298.24635  0.012971744  0.011569287            4 
 1917000   0.49098033    -8.313306    298.05944  0.012956853  0.011559955            4 
 1918000   0.49836643   -8.3178948    298.37818  0.012963946  0.011550634            4 
 1919000   0.49924795   -8.3079875    298.08295   0.01294437  0.011541323            5 
 1920000   0.49071724   -8.3073117    298.33819  0.012948706  0.011532024            5 
 1921000   0.48236513   -8.3395294    298.35091  0.012942517  0.011522722            5 
 1922000   0.48152701   -8.3097932    298.22352   0.01293026  0.011513431            7 
 1923000   0.48615786    -8.304718    297.99044  0.012913436  0.011504157            7 
 1924000   0.48162311    -8.315819     298.6137  0.012933719  0.011494886            5 
 1925000   0.48681869   -8.3059686    297.64808  0.012885198  0.011485625            7 
 1926000   0.48251316    -8.321776    298.01817  0.012894521  0.011476373            3 
 1927000   0.47223686   -8.3264478    297.95457  0.012885079   0.01146712            6 
 1928000   0.47487623   -8.3247871    297.98032  0.012879509  0.011457882            5 
 1929000   0.49431645   -8.3175102    298.14392    0.0128799  0.011448651            3 
 1930000   0.46977536   -8.3236446    298.02573  0.012868123  0.011439427            6 
 1931000   0.48790622   -8.3163433    297.86107  0.012854353  0.011430215            5 
 1932000   0.47731009   -8.3190947    298.71812  0.012884667  0.011421012            3 
 1933000   0.47830624   -8.3069096    298.39382   0.01286402  0.011411817            7 
 1934000   0.47648396   -8.3197759    298.13887  0.012846384  0.011402637            6 
 1935000   0.48997535   -8.3336091    298.09743   0.01283796  0.011393465            4 
 1936000   0.48508558   -8.3355257    298.04284  0.012828979  0.011384302            4 
 1937000   0.47819325   -8.3167693    298.64718  0.012848356  0.011375151            4 
 1938000   0.48500741   -8.3116925     298.2649  0.012825288  0.011366003            6 
 1939000   0.48381523   -8.3425468    298.38381  0.012823784  0.011356867            8 
 1940000   0.47691867   -8.3301872    298.43351  0.012819309  0.011347735            5 
 1941000   0.48145853   -8.3468804     298.3069  0.012807269  0.011338626            5 
 1942000   0.47596976   -8.3421247    298.22265  0.012797059  0.011329521            5 
 1943000   0.47383415   -8.3287934    298.30013  0.012793795  0.011320419            4 
 1944000   0.47474545   -8.3112886    298.18131  0.012782121  0.011311325            5 
 1945000   0.46839505   -8.3265659      298.247  0.012778363  0.011302242            4 
 1946000   0.48067454   -8.3312933    298.29644  0.012773914  0.011293164            3 
 1947000   0.46555864   -8.3397835    297.78166   0.01274532  0.011284094            4 
 1948000   0.47160443   -8.3346184    297.64223  0.012732813  0.011275031            6 
 1949000   0.46309367   -8.3393872    298.16497   0.01274863  0.011265966            4 
 1950000   0.46235493   -8.3259728    297.99845  0.012734976  0.011256914            4 
 1951000   0.46381622   -8.3211574    297.92785  0.012725434  0.011247882            3 
 1952000   0.47333803   -8.3405901    297.72441  0.012710229  0.011238848            2 
 1953000   0.48604692   -8.3379222    297.38542  0.012689256  0.011229831            3 
 1954000   0.46575804   -8.3242781    297.85592  0.012702828  0.011220819            6 
 1955000   0.47051543   -8.3522405    298.15507  0.012709082  0.011211811            3 
 1956000   0.47652711   -8.3252058    298.00649  0.012696255  0.011202809            3 
 1957000   0.46507322   -8.3228254    297.89271  0.012684922  0.011193829            4 
 1958000    0.4791713   -8.3367968    298.39683  0.012699899  0.011184853            4 
 1959000   0.47322314   -8.3450162     297.6105  0.012659967  0.011175885            5 
 1960000   0.46461248   -8.3480403    297.67614  0.012656299  0.011166922            2 
 1961000   0.47290851   -8.3351465    297.70395  0.012651026  0.011157962            8 
 1962000   0.46917671    -8.348626    297.86725  0.012651514  0.011149015            6 
 1963000   0.46803106   -8.3376168    297.41988  0.012626077  0.011140079            4 
 1964000   0.46159019   -8.3320193    297.68142  0.012630746  0.011131161            3 
 1965000   0.46861902   -8.3451645     297.9575  0.012636026  0.011122246            2 
 1966000   0.45577877   -8.3463391    297.80882  0.012623297  0.011113339            4 
 1967000   0.46851371   -8.3537949    297.54671  0.012605775  0.011104438            5 
 1968000   0.47229183   -8.3351272    298.15171  0.012624988   0.01109555            5 
 1969000   0.46342415   -8.3548748    298.13592  0.012617908  0.011086669            8 
 1970000   0.46871446   -8.3352436    297.70176  0.012593137  0.011077805            7 
 1971000   0.47171584   -8.3358453    297.72839  0.012587874  0.011068945            5 
 1972000   0.46128299   -8.3424955    297.79463  0.012584289  0.011060093            4 
 1973000   0.47774073   -8.3561728    297.64893  0.012571758  0.011051239            4 
 1974000   0.46565543   -8.3500682    298.15084  0.012586577    0.0110424            5 
 1975000   0.45603286    -8.352855    297.46964  0.012551461  0.011033567            4 
 1976000   0.45348558   -8.3472229    297.42029  0.012543028  0.011024734            7 
 1977000   0.46497663   -8.3469797     298.0719   0.01256415  0.011015919            6 
 1978000   0.46175566    -8.347649    297.43882  0.012531127  0.011007102            5 
 1979000   0.47062042   -8.3571745    297.47102  0.012526151  0.010998304            5 
 1980000   0.46132078   -8.3526696    297.38317  0.012516127  0.010989511            7 
 1981000    0.4676213   -8.3604648    297.76701  0.012525955  0.010980728            4 
 1982000   0.46420394   -8.3517215    297.87023  0.012523975  0.010971952            8 
 1983000   0.46813205   -8.3528605     297.3741   0.01249681  0.010963191            6 
 1984000   0.46095087   -8.3489055    297.45563  0.012493936  0.010954439            5 
 1985000    0.4652808    -8.344709    297.71271  0.012498434  0.010945695            5 
 1986000   0.46178337   -8.3558977    297.87886  0.012499113   0.01093696            6 
 1987000        0.463   -8.3596996    297.60383  0.012481288  0.010928235            7 
 1988000   0.45491221   -8.3540538    297.40914  0.012466849  0.010919521            7 
 1989000   0.46475742   -8.3600558    297.71592  0.012473434   0.01091081            6 
 1990000   0.46149264   -8.3635545    297.47482  0.012457069  0.010902118            3 
 1991000   0.45626273   -8.3754054    297.64543  0.012457954  0.010893428            5 
 1992000   0.46369329   -8.3571821    297.71959  0.012454802  0.010884738            6 
 1993000   0.45477575   -8.3635841    297.64211  0.012445313  0.010876067            6 
 1994000   0.45519633   -8.3534444    297.54102  0.012434847  0.010867401            5 
 1995000   0.45837428   -8.3636353    297.80248  0.012439535  0.010858738            6 
 1996000    0.4429586   -8.3524195    297.72135  0.012429916   0.01085009            6 
 1997000   0.45648812   -8.3536336    298.09653  0.012439348  0.010841455            5 
 1998000   0.45667761    -8.358474    297.66261  0.012415024  0.010832822            3 
 1999000   0.45476058   -8.3553965    297.69798  0.012410288  0.010824204           11 
 2000000   0.45575278   -8.3777441    297.42026  0.012392511  0.010815586            5 
 2001000   0.45397542   -8.3783803    297.44132  0.012387195  0.010806985            5 
 2002000   0.45884027   -8.3617708    297.61308  0.012388157  0.010798385            4 
 2003000    0.4533171   -8.3663178    297.78588  0.012389161    0.0107898            9 
 2004000   0.44566032   -8.3590353    297.65358  0.012377478   0.01078122            7 
 2005000   0.45411079   -8.3774811    297.12144  0.012349187   0.01077264            3 
 2006000   0.45513103   -8.3684454    297.69908  0.012367027  0.010764076            5 
 2007000   0.45151046   -8.3677561    297.40951  0.012348842  0.010755519            6 
 2008000   0.44701466    -8.365279    297.67509  0.012353714  0.010746976            5 
 2009000   0.45155339   -8.3590933    297.16314  0.012326329  0.010738443            4 
 2010000   0.45392363   -8.3754477    297.55757  0.012336549  0.010729916            4 
 2011000   0.45664943   -8.3620501    297.50934  0.012328416  0.010721396            3 
 2012000   0.44666542   -8.3631504    297.18487   0.01230885  0.010712888            7 
Loop time of 4631.01 on 48 procs for 2000000 steps with 4000 atoms

Performance: 74627.418 tau/day, 431.872 timesteps/s
99.4% CPU use with 48 MPI tasks x no OpenMP threads

MPI task timing breakdown:
Section |  min time  |  avg time  |  max time  |%varavg| %total
---------------------------------------------------------------
Pair    | 298.47     | 314.12     | 332.65     |  43.4 |  6.78
Neigh   | 30.249     | 31.504     | 32.549     |  11.6 |  0.68
Comm    | 284.84     | 304.58     | 321.98     |  50.8 |  6.58
Output  | 4.1678     | 4.1704     | 4.2114     |   0.3 |  0.09
Modify  | 3926.6     | 3935.4     | 3943.3     |   5.9 | 84.98
Other   |            | 41.24      |            |       |  0.89

Nlocal:        83.3333 ave          89 max          76 min
Histogram: 3 1 2 9 6 4 8 6 2 7
Nghost:        1975.58 ave        1995 max        1959 min
Histogram: 5 2 2 10 6 6 13 2 1 1
Neighs:        12575.6 ave       14257 max       11243 min
Histogram: 5 4 5 8 4 9 5 5 2 1
FullNghs:      25152.5 ave       27072 max       22655 min
Histogram: 3 1 2 6 8 5 6 8 6 3

Total # of neighbors = 1207320
Ave neighs/atom = 301.83000
Neighbor list builds = 107334
Dangerous builds = 0

#clear
#
#next RN
#
#jump SELF
Total wall time: 1:17:14
