
units lj                  # Use reduced LJ style units
atom_style atomic         # Uncharged point particles
atom_modify map hash      # Needed for indexing of clusters etc
                          # Used to be able to find where atoms are in relation to each other.

lattice fcc 1.0 spacing 1 1 1
Lattice spacing in x,y,z = 1.5874011 1.5874011 1.5874011
region box block 0 10 0 10 0 10 units lattice
create_box 2 box
Created orthogonal box = (0.0000000 0.0000000 0.0000000) to (15.874011 15.874011 15.874011)
  3 by 4 by 4 MPI processor grid
create_atoms 1 box
Created 4000 atoms
  using lattice units in orthogonal box = (0.0000000 0.0000000 0.0000000) to (15.874011 15.874011 15.874011)
  create_atoms CPU = 0.003 seconds
set type 1 type/fraction 2 0.96 78393
Setting atom values ...
  3848 settings made for type/fraction
mass 1 1.0
mass 2 1.0
pair_style lj/cut  3.5
pair_modify tail  yes
pair_coeff 1  1  1.0  1.0   # Intearaction between 1 and 1 set with epsilon = 1 and sigma = 1
pair_coeff 1  2  1.5  0.8
pair_coeff 2  2  0.5  0.88

write_data data.0
System init for write_data ...
Neighbor list info ...
  update every 1 steps, delay 10 steps, check yes
  max neighbors/atom: 2000, page size: 100000
  master list distance cutoff = 3.8
  ghost atom cutoff = 3.8
  binsize = 1.9, bins = 9 9 9
  1 neighbor lists, perpetual/occasional/extra = 1 0 0
  (1) pair lj/cut, perpetual
      attributes: half, newton on
      pair build: half/bin/atomonly/newton
      stencil: half/bin/3d
      bin: standard
WARNING: Not all mixed pair coeffs generated from mixing. Use write_data with 'pair ij' option to store all pair coeffs. (../write_data.cpp:312)


#############################
#   M E L T   S Y S T E M   #
#############################

velocity all create 2.4 5833274 mom yes dist gaussian # Assign velocities
                                                    # Temperature 2.4, random number seed, zero linear momentum
                                                                                # Gaussian distribution

timestep 0.002   # simulation timestep
thermo 1000       # output thermodynamic data every 1000 steps bf 100

# Define a fix  in this case with index 1 applied to all
# particles in the simulation. This fix is for simulations
# in the anisotropic NPT ensemble. Note that we use the MTK
# correction.
fix 1 all npt temp 2.4 2.4 0.1 iso 5.68 5.68 0.5 mtk yes tchain 5 pchain 5 # Use NPT ensemble
                                                                         # Set temperature and pressure and damping
                                                                         # Numbers of thermostats in chain and in barostat
run 10000          # run for 10000 steps
Per MPI rank memory allocation (min/avg/max) = 3.642 | 3.644 | 3.648 Mbytes
Step Temp E_pair E_mol TotEng Press Volume 
       0          2.4   -2.8820212            0   0.71707882   -2.0430313         4000 
    1000    2.4462645   -1.7228917            0    1.9455877    5.6591437    4177.1569 
    2000    2.3683399   -1.6790295            0    1.8725922    5.5852915    4217.3469 
    3000    2.4159663    -1.716905            0    1.9061384    5.6423162    4177.3617 
    4000    2.3562064   -1.7144511            0    1.8189749    5.8546094    4139.2119 
    5000    2.4085966   -1.7064372            0    1.9055544    5.7383303    4181.3994 
    6000      2.38252   -1.7282427            0    1.8446438    5.9627295     4115.501 
    7000     2.316711   -1.7073978            0    1.7667999     5.738116    4150.8992 
    8000    2.3859149   -1.7302116            0     1.847766    5.5336189    4189.3986 
    9000    2.4455114   -1.6730675            0    1.9942826    5.8359885    4183.6137 
   10000    2.4324815   -1.7653019            0    1.8825083    5.5911982    4157.3411 
Loop time of 2.43313 on 48 procs for 10000 steps with 4000 atoms

Performance: 710195.111 tau/day, 4109.925 timesteps/s
99.5% CPU use with 48 MPI tasks x no OpenMP threads

MPI task timing breakdown:
Section |  min time  |  avg time  |  max time  |%varavg| %total
---------------------------------------------------------------
Pair    | 1.0465     | 1.1141     | 1.2046     |   3.5 | 45.79
Neigh   | 0.20458    | 0.21291    | 0.23117    |   1.0 |  8.75
Comm    | 0.7543     | 0.84465    | 0.92441    |   4.4 | 34.71
Output  | 0.00023716 | 0.00024276 | 0.00031016 |   0.0 |  0.01
Modify  | 0.2196     | 0.2464     | 0.27346    |   2.7 | 10.13
Other   |            | 0.01484    |            |       |  0.61

Nlocal:        83.3333 ave          92 max          75 min
Histogram: 3 4 5 4 8 9 6 3 4 2
Nghost:        1597.15 ave        1632 max        1571 min
Histogram: 3 4 7 9 12 0 8 2 0 3
Neighs:        9180.52 ave       10246 max        7893 min
Histogram: 2 1 4 4 10 8 6 5 3 5

Total # of neighbors = 440665
Ave neighs/atom = 110.16625
Neighbor list builds = 911
Dangerous builds = 239

# Equilibrate just above the melting temperature to avoid step fn in T

fix 1 all npt temp 1.25 1.25 0.1 iso 5.68 5.68 0.5 mtk yes tchain 5 pchain 5
run 2000
Per MPI rank memory allocation (min/avg/max) = 3.643 | 3.645 | 3.649 Mbytes
Step Temp E_pair E_mol TotEng Press Volume 
   10000    2.4324815   -1.7653019            0    1.8825083    5.5911982    4157.3411 
   11000    1.2484588   -2.6048676            0  -0.73264767    5.7249167     3259.531 
   12000    1.2504674   -2.6370327            0  -0.76180058    5.5814085    3256.3205 
Loop time of 0.628084 on 48 procs for 2000 steps with 4000 atoms

Performance: 550244.569 tau/day, 3184.286 timesteps/s
99.5% CPU use with 48 MPI tasks x no OpenMP threads

MPI task timing breakdown:
Section |  min time  |  avg time  |  max time  |%varavg| %total
---------------------------------------------------------------
Pair    | 0.2507     | 0.28092    | 0.32971    |   2.5 | 44.73
Neigh   | 0.037199   | 0.039784   | 0.04707    |   0.8 |  6.33
Comm    | 0.20595    | 0.25673    | 0.29029    |   2.9 | 40.88
Output  | 5.1666e-05 | 5.3141e-05 | 7.0777e-05 |   0.0 |  0.01
Modify  | 0.038123   | 0.045851   | 0.05471    |   2.6 |  7.30
Other   |            | 0.004739   |            |       |  0.75

Nlocal:        83.3333 ave          91 max          75 min
Histogram: 2 6 3 5 4 8 8 3 8 1
Nghost:        1884.67 ave        1921 max        1857 min
Histogram: 2 5 11 3 9 7 5 3 2 1
Neighs:        11732.5 ave       13332 max       10251 min
Histogram: 2 3 4 6 10 10 3 7 1 2

Total # of neighbors = 563160
Ave neighs/atom = 140.79000
Neighbor list builds = 141
Dangerous builds = 9

#############################
# L I N E A R  Q U E N C H  #
#############################

# Define solid atoms. This closely follows ten Wolde  Ruiz-Montero and Frenkel  Faraday Discuss  1996  104  93-110
# Compute components of the per-atom q6 vector
compute q6 all orientorder/atom degrees 1 6 components 6 nnn NULL cutoff 1.3 # compute the Q6 parameter.
                                                                             # Use all neighbours within 1.3 unit cell.

# get number of connections
compute coord_number all coord/atom orientorder q6 0.5

# An atom is solid if it has 8 or more connections (of a possible 14)
variable is_solid atom c_coord_number>=8
group solid dynamic all var is_solid    # Must be dynamic to update
dynamic group solid defined

# do clustering
compute cluster solid cluster/atom 1.3 # Create a cluster where all atoms within are solid and max 1.3 units from another member

# define chunks one chunk per cluster
compute clus_chunks solid chunk/atom c_cluster nchunk every compress yes  # Says which atoms are in which chunk

# count the size of each chunk
compute size_chunks solid property/chunk clus_chunks count


# Find the maximum entry in the vector of chunk sizes
variable max_n equal max(c_size_chunks)


# Thermo style which includes this variable
# thermo_style custom step temp pe vol v_max_n

thermo ${N}  # Print the thermo information every 100 steps
thermo 1000  

# Reset the npt fix at a lower temperature (below freezing)
fix 1  all npt temp  ${temp} ${temp}  0.1  iso  5.68  5.68  0.5  mtk yes tchain  5  pchain  5
fix 1  all npt temp  0.45 ${temp}  0.1  iso  5.68  5.68  0.5  mtk yes tchain  5  pchain  5
fix 1  all npt temp  0.45 0.45  0.1  iso  5.68  5.68  0.5  mtk yes tchain  5  pchain  5

dump dmp2 all dcd ${N} traj.dcd
dump dmp2 all dcd 1000 traj.dcd


compute msd all msd com yes
variable twopoint equal c_msd[4]/6/(step*dt+1.0e-6)
fix 9 all vector 10 c_msd[4]
variable fit equal slope(f_9)/6/(10*dt)
thermo_style custom step temp pe c_msd[4] v_twopoint v_fit v_max_n

fix 1 all npt temp 1.25 ${temp} 0.1 iso 5.68 5.68 0.5 mtk yes tchain 5 pchain 5
fix 1 all npt temp 1.25 0.45 0.1 iso 5.68 5.68 0.5 mtk yes tchain 5 pchain 5
run 5000000 # 5000000  # Run for this many steps
Neighbor list info ...
  update every 1 steps, delay 10 steps, check yes
  max neighbors/atom: 2000, page size: 100000
  master list distance cutoff = 3.8
  ghost atom cutoff = 3.8
  binsize = 1.9, bins = 8 8 8
  4 neighbor lists, perpetual/occasional/extra = 1 3 0
  (1) pair lj/cut, perpetual
      attributes: half, newton on
      pair build: half/bin/atomonly/newton
      stencil: half/bin/3d
      bin: standard
  (2) compute orientorder/atom, occasional
      attributes: full, newton on
      pair build: full/bin/atomonly
      stencil: full/bin/3d
      bin: standard
  (3) compute coord/atom, occasional
      attributes: full, newton on
      pair build: full/bin/atomonly
      stencil: full/bin/3d
      bin: standard
  (4) compute cluster/atom, occasional
      attributes: full, newton on
      pair build: full/bin/atomonly
      stencil: full/bin/3d
      bin: standard
Per MPI rank memory allocation (min/avg/max) = 9.814 | 9.820 | 9.826 Mbytes
Step Temp PotEng c_msd[4] v_twopoint v_fit v_max_n 
   12000    1.2504674   -2.6370327 3.1601768e-30 2.1945671e-32 8.3333333e+20            2 
   13000    1.2305281   -2.6218753    1.1168039 0.0071589992  0.095485626            1 
   14000    1.2256094   -2.6169561    2.3713955  0.014115449  0.099566936            1 
   15000    1.2476639   -2.6200009    3.5153872  0.019529928   0.10075604            3 
   16000    1.2406361   -2.6414771    4.7300856  0.024635862  0.099698573            1 
   17000    1.2383196   -2.6311744    5.8411698  0.028633185  0.099254217            2 
   18000    1.2558334   -2.6573681    7.1682046  0.033186131  0.099365761            2 
   19000    1.2468493   -2.6055669    8.5627786  0.037556046   0.10066575            1 
   20000    1.2687853   -2.6243991    9.8809427  0.041170593   0.10249843            2 
   21000    1.2409169   -2.6061258    10.996822  0.043638181   0.10304986            2 
   22000    1.2264406   -2.6126221    12.269522  0.046475462   0.10300806            1 
   23000    1.2478823   -2.6065252    13.478308  0.048834447   0.10309006            1 
   24000    1.2366226   -2.6418091    14.612988  0.050739542   0.10304948            1 
   25000    1.2383171   -2.6171716    15.721427  0.052404757   0.10244928            2 
   26000     1.246508   -2.6083773    16.894786  0.054149954   0.10185729            1 
   27000    1.2617152   -2.6487146    18.194809  0.056156818   0.10163826            1 
   28000    1.2456928    -2.658329    19.352952   0.05759807   0.10143791            1 
   29000    1.2206733   -2.6043671    20.511717  0.058941715   0.10138244            2 
   30000    1.2611827   -2.6279937    21.603183   0.06000884   0.10120862            1 
   31000    1.2567299   -2.6259089    22.616284   0.06079646   0.10079475            1 
   32000     1.240406   -2.6238931    23.954992   0.06238279    0.1004034            1 
   33000    1.2916629   -2.6455405    25.155802  0.063524752    0.1002456            1 
   34000    1.2464658   -2.6199764    26.603012   0.06520346   0.10020869            1 
   35000    1.2676741   -2.6421323    27.957799  0.066566187   0.10036576            1 
   36000    1.2394849   -2.6509784    29.010057   0.06715291   0.10045774            2 
   37000    1.2532052   -2.6126376    30.266461  0.068167704   0.10052785            1 
   38000    1.2585399   -2.6655273     31.94034  0.070044604   0.10081875            3 
   39000    1.2540573    -2.651329    33.314367  0.071184543   0.10120278            1 
   40000     1.244617   -2.6570848    34.613682  0.072111836    0.1015968            1 
   41000    1.2689364   -2.6359796    36.002633  0.073176082   0.10200461            1 
   42000    1.2577899   -2.6294515     37.37066  0.074148133   0.10238159            3 
   43000    1.2492053   -2.6576032    38.665862  0.074933839   0.10270426            3 
   44000    1.2578622   -2.6366851    40.199049  0.076134561   0.10310283            1 
   45000    1.2552396   -2.6171734    41.329798  0.076536662   0.10349306            3 
   46000    1.2227807   -2.6416656    42.713645   0.07737979   0.10376588            1 
   47000    1.2341555    -2.649182    43.613292  0.077328532   0.10399883            1 
   48000    1.2515799   -2.6437772    44.863524  0.077888062   0.10417732            1 
   49000    1.2488716   -2.6588764    46.244137  0.078646491   0.10432521            2 
   50000    1.2416497   -2.6478812    47.571381  0.079285635   0.10450324            3 
   51000    1.2382463   -2.6350579    49.116917  0.080256399    0.1047016            1 
   52000    1.2422552   -2.6337205    50.503997  0.080935892   0.10492665            1 
   53000    1.2556949   -2.6425433    51.788108  0.081427842   0.10513165            1 
   54000    1.2489438   -2.6572584    53.326074  0.082293324   0.10533527            2 
   55000    1.2339354   -2.6242024    54.507804  0.082587581   0.10551919            3 
   56000    1.2431356   -2.6687975    55.201542  0.082145151    0.1056632            1 
   57000    1.2597724   -2.6242862    56.848814    0.0831123   0.10572649            2 
   58000     1.224656   -2.6318784    57.812648  0.083064149   0.10578979            1 
   59000    1.2750334   -2.6328052    59.197247   0.08361193   0.10580989            1 
   60000    1.2453997   -2.6236442    60.199969  0.083611067   0.10580938            1 
   61000    1.2271347   -2.6303258    61.252398  0.083678139    0.1057821            1 
   62000    1.2329875   -2.6655293    62.528119  0.084043171   0.10574082            1 
   63000    1.2547914   -2.6671236    63.939779  0.084576427   0.10570985            1 
   64000    1.2501612   -2.6317081    65.158668  0.084842016   0.10569638            1 
   65000     1.233846   -2.6294091     66.53246  0.085298025   0.10567939            3 
   66000    1.2259011   -2.6252874    67.585115   0.08533474   0.10563382            2 
   67000    1.2541191   -2.6441581    68.314043  0.084967714   0.10554244            2 
   68000    1.2270604   -2.6375036    69.477838  0.085144409   0.10544212            1 
   69000    1.2464021   -2.6439417     71.16238  0.085944902   0.10535776            3 
   70000    1.2177201   -2.6450654    72.024988  0.085744032   0.10525836            1 
   71000    1.2766923   -2.6521243     73.15336   0.08586075   0.10519875            3 
   72000    1.2236403   -2.6313982    74.536556  0.086269162   0.10512175            1 
   73000    1.2160401   -2.6271865    75.612812  0.086315995   0.10503169            2 
   74000    1.2524492   -2.6470107    76.746613  0.086426365   0.10494017            2 
   75000    1.2726497   -2.6705023    78.541634  0.087268481   0.10486924            1 
   76000    1.2290935   -2.6271712    79.762978  0.087459406   0.10487423            2 
   77000    1.2325203   -2.6650559    81.364202  0.088056495   0.10488278            1 
   78000    1.2342105   -2.6610655    82.700596  0.088355337   0.10489795            1 
   79000    1.2487657   -2.6337151    83.519686  0.088100934   0.10490064            1 
   80000    1.2471664   -2.6076984    84.917264  0.088455482   0.10489105            1 
   81000    1.2548503   -2.6207797    86.803799   0.08930432   0.10490262            2 
   82000    1.2442739   -2.6209168    87.914292  0.089343792   0.10492967            1 
   83000    1.2524001    -2.658493    89.013625  0.089371109   0.10499349            1 
   84000    1.2636199   -2.6668078    90.499664  0.089781412   0.10502914            1 
   85000    1.2473422   -2.6733365    91.706167  0.089908006   0.10505932            1 
   86000    1.2376565   -2.6445083    93.372882  0.090477598   0.10508658            1 
   87000    1.2390331   -2.6243579    94.573254  0.090587407   0.10511637            1 
   88000    1.2434605   -2.6302559    95.287383  0.090234264    0.1051332            1 
   89000    1.2171497    -2.694178    96.398057  0.090260352   0.10513955            1 
   90000     1.240705   -2.6335918    97.930519  0.090676406   0.10513367       -1e+20 
   91000    1.2450176    -2.639275    99.381684  0.091008868   0.10515458            4 
   92000    1.2251237   -2.6328489    100.52228  0.091052791   0.10518515            4 
   93000    1.2389565   -2.6649714    102.24876  0.091620753   0.10519476            1 
   94000    1.2202003   -2.6692683    103.43361  0.091696461   0.10521135            1 
   95000    1.2484681   -2.6536113    104.22012   0.09142116   0.10523225            3 
   96000    1.2407633   -2.6444058    105.54222  0.091616506   0.10525809            1 
   97000    1.2205876   -2.6580042    106.70847  0.091673946   0.10526846            2 
   98000    1.2402134   -2.6814691     107.8393  0.091700083   0.10527091            3 
   99000    1.2341962   -2.6574407    109.24744  0.091959123   0.10529405            1 
  100000    1.2247854   -2.6362425    111.27844  0.092732033   0.10533192            2 
  101000     1.228663   -2.6275026    111.72553  0.092182779   0.10535069            4 
  102000    1.2508732    -2.625028    112.97742  0.092301811   0.10534181            1 
  103000    1.2440135   -2.6202196    114.28918  0.092466974   0.10530762            3 
  104000    1.2382685   -2.6332924    115.59619  0.092625151    0.1052755            2 
  105000    1.2285322    -2.607064    116.37807   0.09236355   0.10523488            1 
  106000     1.258988   -2.6343931    116.94969  0.091941582   0.10519164            2 
  107000    1.2404267   -2.6353442    118.28461  0.092121973   0.10513996            1 
  108000    1.2031847    -2.645103    119.52826  0.092228597   0.10507206            1 
  109000    1.2401897   -2.6463265    120.91986  0.092446375   0.10502262            1 
  110000    1.2484938   -2.6531585    122.06285  0.092471856   0.10496201            1 
  111000    1.2088061   -2.6713202    122.82134  0.092208212   0.10490468            1 
  112000    1.2608581   -2.6342299    124.18007  0.092395887   0.10484612            1 
  113000    1.2101509   -2.6361442    126.18624  0.093057697   0.10480834            2 
  114000    1.2097368   -2.6300549    126.92855  0.092784024    0.1047733            2 
  115000    1.2351559   -2.6334693    128.36827  0.093020482   0.10473694            2 
  116000    1.2069104   -2.6397809    130.07203  0.093442551   0.10470893            1 
  117000    1.2396164   -2.6369535    131.46492  0.093635983   0.10469528            2 
  118000    1.2391152   -2.6750251    132.76393   0.09375984   0.10469055            1 
  119000    1.2595199   -2.6532708    133.82853  0.093717457   0.10468986            2 
  120000    1.2208205   -2.6078952    135.63963  0.094194189   0.10469812            1 
  121000    1.2399626   -2.6451072     137.0349  0.094376653   0.10471233            1 
  122000    1.2220624   -2.6607651    137.38313  0.093840934   0.10470771            2 
  123000     1.238345   -2.6512527    139.93529  0.094807107   0.10471876            1 
  124000    1.2145617   -2.6624352    139.47745  0.093734847   0.10471102            2 
  125000    1.2267645   -2.6554615    142.11125  0.094740832   0.10470462            1 
  126000    1.2497558   -2.6288841    142.77019  0.094424725   0.10471424            2 
  127000    1.2258087    -2.656433    144.10272   0.09455559   0.10471908            1 
  128000    1.2439281   -2.6493629    145.23595  0.094554654   0.10472242            3 
  129000    1.2200126   -2.6212284    147.05839  0.094998957   0.10471157            2 
  130000    1.2293512    -2.632108    148.41937  0.095140623   0.10471924            1 
  131000    1.2184868   -2.6280572    149.27251  0.094957064   0.10472174            1 
  132000    1.2261198   -2.6474845    150.76428  0.095179471   0.10473623            2 
  133000    1.2147758   -2.6548754    151.65636  0.095022784   0.10474866            1 
  134000    1.2215408    -2.664016    153.06023  0.095186711   0.10476353            2 
  135000    1.2590296   -2.6502221    153.68202  0.094865443   0.10476399            1 
  136000    1.2454768   -2.6182785    156.31657  0.095782209   0.10476809            1 
  137000    1.2353233   -2.6440767    157.63348  0.095884113   0.10477731            2 
  138000    1.2430977   -2.6212711    158.31475  0.095600694    0.1047868            1 
  139000    1.2143186   -2.6318031    160.27006  0.096085167   0.10479232            4 
  140000    1.2113826   -2.6504321    161.74111  0.096274468   0.10479617            1 
  141000    1.1908052    -2.633512     161.6194  0.095519742   0.10480461            2 
  142000    1.2259891   -2.6395105    162.94498  0.095624986   0.10481121            2 
  143000    1.2132067   -2.6716764     163.9199  0.095524419   0.10480657            2 
  144000    1.2357611    -2.636993    166.35374  0.096269525   0.10480809            1 
  145000    1.2176989   -2.6449529    167.27819  0.096136892   0.10482948            2 
  146000    1.2558675   -2.6708013    168.19707  0.096002896   0.10484487            1 
  147000    1.2411662   -2.6397833     169.8206  0.096270181   0.10485915            3 
  148000    1.2266437   -2.6275901    171.50018  0.096565416   0.10487882            1 
  149000    1.2312556   -2.6751314    172.28168  0.096354405   0.10489076            1 
  150000    1.2256429   -2.6771628    173.80951  0.096560839   0.10489635            2 
  151000    1.2115248   -2.6642489    174.97389  0.096563955   0.10489444            1 
  152000    1.2623848   -2.6687335    175.76162  0.096360536   0.10489389            2 
  153000    1.2150611     -2.65619     178.0064  0.096953377   0.10488687            3 
  154000    1.2221649   -2.6708762    177.74953   0.09618481   0.10488624            1 
  155000    1.2192052   -2.6312514    179.44007  0.096473158   0.10488389            2 
  156000    1.2196105   -2.6606349     179.9874  0.096147117   0.10487061            1 
  157000    1.2589056   -2.6904001    180.37515  0.095740525   0.10485304            2 
  158000    1.2367883   -2.6961807    182.34361  0.096172788   0.10482661            2 
  159000     1.225884   -2.6629459    183.70276  0.096280271   0.10480741            1 
  160000    1.2312784   -2.6469195    184.80176  0.096250918   0.10478702            2 
  161000    1.1860687   -2.6446518    186.77999  0.096677014   0.10477639            1 
  162000    1.2045867   -2.6429758    187.56062  0.096481798   0.10476947            1 
  163000    1.2403413    -2.647538    188.44394  0.096341484   0.10475969            2 
  164000    1.2015012    -2.656107    189.87115  0.096479244   0.10475706            1 
  165000    1.2256871   -2.6321151      191.905  0.096921715   0.10475089            2 
  166000    1.2265111   -2.6726695    193.26902    0.0970226   0.10474553            1 
  167000    1.2235153   -2.6594639    195.51637  0.097563059   0.10474633            1 
  168000    1.2146341   -2.6489655     195.5172  0.096982738   0.10474115            1 
  169000    1.2409638   -2.6702602    197.06644  0.097172799   0.10473012            3 
  170000    1.2114104   -2.6444071    198.10857  0.097112042    0.1047283            4 
  171000    1.2677571   -2.6667569    199.45163  0.097198651   0.10472114            1 
  172000     1.223877   -2.6447484    200.13379  0.096964045   0.10471396            2 
  173000    1.2142636   -2.6914182    200.02476  0.096351041   0.10469169            2 
  174000    1.2270382   -2.6575384    202.19785   0.09683805   0.10467523            1 
  175000    1.2116579   -2.6199394    203.97558  0.097131229   0.10466567            1 
  176000    1.2049886   -2.6747986    204.71428  0.096929112    0.1046586            1 
  177000    1.1992436   -2.6263606     206.8073    0.0973669   0.10464722            3 
  178000    1.2260293   -2.6529517    208.23015  0.097486023   0.10463401            1 
  179000    1.2095954   -2.6394213    209.05497  0.097325405   0.10461967            2 
  180000    1.2416023   -2.6597712    209.90739  0.097179348   0.10460355            3 
  181000    1.2169826   -2.6556081    210.92401  0.097110504   0.10459626            2 
  182000    1.2245319   -2.6851978    213.18894  0.097613983   0.10459063            2 
  183000    1.2275463   -2.6732398    213.34034  0.097149515   0.10458654            1 
  184000    1.2220021   -2.6564623    215.04545   0.09739377   0.10458239            3 
  185000    1.2235235   -2.6446419     216.2139  0.097393647   0.10457382            2 
  186000     1.224829   -2.6410667    219.31923  0.098261305   0.10457059            2 
  187000    1.2165053   -2.6488558     218.9883   0.09758837   0.10456951            3 
  188000    1.2237155   -2.6469315    220.81824  0.097880427   0.10455765            2 
  189000    1.2100589   -2.6844866    220.04206  0.097020308   0.10453841            4 
  190000    1.2237166   -2.6460029    222.78812  0.097714087   0.10451343            2 
  191000    1.2040711   -2.7070241    222.88574  0.097245087   0.10449481            1 
  192000    1.2269893   -2.6808323    225.47753  0.097863512   0.10447583            1 
  193000    1.2203724   -2.6638392    225.64447  0.097428525   0.10445959            3 
  194000    1.2202951   -2.6594233    226.38467  0.097244274   0.10444135            2 
  195000    1.2066036   -2.6463169    228.26186  0.097547803    0.1044223            3 
  196000    1.2123549    -2.645394      230.253  0.097896682   0.10441039            2 
  197000    1.2152304    -2.672069    229.79914  0.097207758   0.10439125            2 
  198000    1.2219003   -2.6874237     232.5867  0.097890023   0.10438295            2 
  199000    1.2099374   -2.6472772    234.01775  0.097997383   0.10437455            1 
  200000    1.1986878   -2.6878775    234.29215   0.09762173   0.10436532            1 
  201000    1.1989744   -2.6443328    235.95885  0.097827053   0.10435187            1 
  202000    1.2154619   -2.6545796    237.07661  0.097803884   0.10434466            1 
  203000    1.2079548   -2.6407181    240.33272   0.09865875   0.10434849            2 
  204000    1.2185205    -2.656756    240.97127  0.098435975   0.10434808            2 
  205000     1.207599   -2.6613402    242.15606  0.098437422   0.10434648            1 
  206000    1.2104536   -2.6719261    243.57577  0.098533886    0.1043504            2 
  207000     1.225654   -2.6772959    245.40383   0.09879381   0.10435775            2 
  208000    1.2158318   -2.6119825    246.29465  0.098675741   0.10436618            2 
  209000    1.2329212    -2.686037     247.4146  0.098650159    0.1043672            3 
  210000    1.2317107    -2.667204    247.73479  0.098307456   0.10436575            1 
  211000    1.2005707   -2.6551882      250.775   0.09904226   0.10436826            1 
  212000    1.2008374   -2.6558684     250.4788  0.098458648   0.10437293            4 
  213000    1.2073351   -2.6514935    250.80329  0.098123351   0.10437914            2 
  214000    1.1996689     -2.67811    252.36309  0.098272233   0.10438208            1 
  215000    1.2309514   -2.6498797    255.37997  0.098984483   0.10439157            1 
  216000    1.1810893    -2.643606    256.85467  0.099095166   0.10440618            6 
  217000    1.2006638   -2.6702743    256.96474  0.098680775   0.10441517       -1e+20 
  218000    1.2170625   -2.6806622    259.33329  0.099133519   0.10442813            1 
  219000    1.2103115   -2.6773626    259.32538  0.098677848   0.10443986            2 
  220000    1.2167613    -2.648947    261.30259  0.098978252   0.10444357            2 
  221000    1.2233774   -2.6572487    263.85815  0.099494024   0.10444526            2 
  222000     1.205539   -2.6699997    263.36574  0.098861013   0.10444672            2 
  223000    1.2148606   -2.7061901     264.4011  0.098804596   0.10445001            3 
  224000    1.1811593   -2.6792321    266.52997  0.099155493   0.10445214            2 
  225000    1.2079342   -2.6982895    266.62855  0.098751313   0.10445514            3 
  226000    1.2205103   -2.6753461    267.91432  0.098788464   0.10446324            3 
  227000    1.2128326   -2.6438323    270.82539  0.099421948   0.10447411            1 
  228000    1.2001066   -2.6889859    270.69781  0.098939258   0.10448021            1 
  229000    1.2057218   -2.6737998    271.49436  0.098797074   0.10448641            2 
  230000    1.2145049   -2.6523016    275.13183  0.099685445   0.10449603            1 
  231000    1.2275545   -2.6757745    277.10665  0.099966324   0.10451295            1 
  232000    1.1948598   -2.6777099    276.00529  0.099139832   0.10452116            2 
  233000    1.2194796   -2.6648789    276.86625  0.099022262   0.10452857            3 
  234000    1.2386062   -2.6907412    279.64196  0.099587592   0.10453528            1 
  235000    1.2019775   -2.6560613    281.53832  0.099836283   0.10454873       -1e+20 
  236000    1.2298039   -2.6664693    281.12353  0.099266783   0.10456308            3 
  237000    1.2032432    -2.663752    283.81433  0.099794068   0.10457745            2 
  238000    1.1866836    -2.659006    285.76605   0.10005814   0.10459476            1 
  239000     1.204175   -2.6682699    283.99127  0.099020665   0.10460351            1 
  240000    1.2192285   -2.6626238    286.60862  0.099516881   0.10461491            1 
  241000     1.222199   -2.6663118    287.56305  0.099433974   0.10462732            1 
  242000    1.2224882   -2.6857194     290.0077  0.099864911   0.10463869            2 
  243000    1.2242565   -2.6608746    291.25105  0.099880333    0.1046487            1 
  244000     1.202266   -2.7013281    292.04981  0.099743789   0.10465354            3 
  245000    1.2168347   -2.6744869    292.98266  0.099653965   0.10466087            2 
  246000    1.2183881   -2.6370877    293.84773  0.099541915   0.10467217            2 
  247000    1.2060156   -2.6955202    295.52782  0.099705741   0.10468196            2 
  248000     1.219591   -2.6715681    295.27854  0.099219939   0.10468485            1 
  249000    1.1924628    -2.654613    297.45273  0.099549105   0.10467961            3 
  250000    1.2156366   -2.6821875    297.72968  0.099243227   0.10467156            2 
  251000     1.215683   -2.6650693    299.60331  0.099469892   0.10466642            1 
  252000    1.2280619    -2.679555    298.82811  0.098818819   0.10465509            1 
  253000     1.224634   -2.6686424    299.28047  0.098577229   0.10464084            2 
  254000    1.2165696   -2.6443522    302.85316  0.099361273   0.10462562            2 
  255000    1.2171465   -2.6679918    302.52806  0.098865379   0.10460517            2 
  256000    1.2305194   -2.6765802    304.31564   0.09906108   0.10458413            2 
  257000    1.2217901   -2.6852291    303.52836  0.098420351   0.10456181            1 
  258000    1.1859311   -2.6519922    307.06787  0.099182127   0.10454149            1 
  259000     1.208601   -2.7091807    307.64288  0.098984197   0.10452217            2 
  260000    1.2380005    -2.639456    309.76899  0.099284932   0.10450734            1 
  261000    1.2010564    -2.670102    310.62866   0.09917901   0.10449334            1 
  262000     1.214404   -2.6889081    311.53638  0.099089179   0.10447626            1 
  263000    1.2014351    -2.678511    313.17058  0.099230223   0.10446292            2 
  264000    1.2481046   -2.6414311    314.83749  0.099380519   0.10444927            4 
  265000     1.222605   -2.6627127    316.54576   0.09954269   0.10443985            3 
  266000    1.1818443   -2.6869731    317.34208  0.099417945   0.10443236            3 
  267000    1.1859056   -2.6645501    319.08456  0.099589437   0.10442721            2 
  268000    1.2007417   -2.6923175    318.75492  0.099115337   0.10442218            2 
  269000    1.2149341   -2.6769746    322.45263  0.099892388   0.10441648            1 
  270000    1.2413662   -2.6612485    322.33826  0.099487118   0.10441708            2 
  271000     1.197304   -2.7029569    322.77657  0.099254787   0.10441269            1 
  272000    1.1871351   -2.6988146    324.91586  0.099545299   0.10440712            1 
  273000    1.1831601   -2.6846976    326.17806  0.099565952   0.10440422            1 
  274000    1.2122323   -2.6818082    326.66371  0.099350276   0.10440147            2 
  275000    1.2284099   -2.6840241    327.84973  0.099348404   0.10439434            2 
  276000    1.1991257   -2.6969308    330.11037  0.099671005   0.10439081            3 
  277000    1.2298205    -2.693489    331.57753  0.099752567   0.10438457            1 
  278000    1.2168585    -2.684016    329.96134  0.098909275   0.10437133            1 
  279000    1.1896874   -2.6547419    332.20373  0.099224532   0.10435779            4 
  280000    1.2021075   -2.6565156    335.03477  0.099712728   0.10434923            1 
  281000    1.1963928   -2.6689975    336.38338  0.099757825   0.10433791            1 
  282000    1.2355743   -2.7007813    335.88279  0.099256143   0.10432899            1 
  283000    1.1909419   -2.6796982    336.67961   0.09914005   0.10431727            2 
  284000    1.2246747   -2.6955995    338.46123   0.09931374   0.10430466            2 
  285000     1.223041    -2.692053    339.75703  0.099344159   0.10429013            4 
  286000    1.2431021   -2.6708754    340.85334  0.099316241   0.10427968            1 
  287000    1.1809173   -2.6808602    341.73012  0.099224774    0.1042662            2 
  288000    1.1974813   -2.7023237    340.63302  0.098562796   0.10424563            1 
  289000    1.1853793   -2.6591467    345.38758  0.099592729   0.10422392            4 
  290000    1.2423989   -2.6550815     346.8918  0.099681552   0.10421188            4 
  291000    1.2208817   -2.6690069    346.86054  0.099330053   0.10419907            2 
  292000    1.2158761   -2.6782433    347.92002  0.099292243   0.10418204            1 
  293000    1.2116094    -2.670153    350.51314  0.099690882   0.10416499            1 
  294000    1.2109739   -2.7176825    349.93728  0.099188571   0.10414783            1 
  295000    1.2068445   -2.6724271    350.80687  0.099097985   0.10413121            2 
  296000     1.211984   -2.6997454    352.22203  0.099161608   0.10411564            2 
  297000    1.2089287   -2.6751847    352.71807   0.09896691   0.10410131            2 
  298000    1.1932935   -2.7331216    352.62107  0.098607681   0.10408521            1 
  299000    1.2214401   -2.6496358     356.4925  0.099356883   0.10406742            2 
  300000    1.2127412   -2.6693477    357.10427   0.09919563   0.10405208            3 
  301000    1.1872679    -2.658235    358.68634  0.099304082   0.10403529            1 
  302000    1.1947558   -2.7067478    358.68256  0.098974215   0.10401677            1 
  303000     1.188303   -2.6993113    358.96116  0.098724192   0.10399361            1 
  304000    1.2179362    -2.673148    360.88702  0.098927363   0.10397055            2 
  305000    1.2156451   -2.6787807    360.86038  0.098595731   0.10394508            1 
  306000    1.1921277   -2.6616103    361.79823   0.09852893   0.10391492            2 
  307000    1.1747738    -2.660674     364.5108  0.098944299   0.10388451            2 
  308000    1.1899471   -2.7017758    362.26816  0.098016278    0.1038578            2 
  309000    1.1938875    -2.666667    365.56482   0.09858814   0.10383182            3 
  310000    1.1995631   -2.7048363    366.72134  0.098581006   0.10380347            1 
  311000    1.2140156   -2.6689239    365.44341    0.0979216   0.10377228            3 
  312000    1.2133075   -2.6735494    368.12131  0.098322998   0.10373884            2 
  313000    1.1936366   -2.6764436    369.21735  0.098300678   0.10371082            4 
  314000    1.2226422   -2.6584102    372.50914  0.098861237   0.10368352            1 
  315000    1.2406533   -2.6382432    374.22367  0.099000971   0.10365641            1 
  316000    1.2082122   -2.6689869    374.54655  0.098772825   0.10363184            2 
  317000    1.2109116   -2.6836607    373.53012  0.098194038   0.10360545            2 
  318000    1.2027218   -2.6838903    377.23201  0.098855348   0.10357884            2 
  319000     1.188199   -2.7071273    378.10194  0.098772711   0.10355907            1 
  320000    1.2137262   -2.7035052    379.73618  0.098889631   0.10353893            1 
  321000    1.1922097   -2.6815426    381.85099  0.099130579   0.10351905            1 
  322000    1.1689007   -2.6678933    382.56144  0.099006583   0.10350036            1 
  323000    1.2046313    -2.700695    384.89375  0.099301792   0.10348115            1 
  324000    1.2053196    -2.682739    387.29414  0.099612689   0.10346753            3 
  325000    1.2102124   -2.7138932    386.42918  0.099084405   0.10345135            1 
  326000    1.2389524   -2.6795621    385.44392  0.098528608   0.10343483            3 
  327000    1.1998318   -2.6840559    387.95703  0.098867745   0.10341613            2 
  328000    1.1987487   -2.6985077     388.7018  0.098755538   0.10339328            2 
  329000    1.1944768   -2.7025253    389.20075   0.09858175   0.10337359            2 
  330000    1.2050396    -2.668917    393.68251  0.099414776   0.10335467            2 
  331000    1.2252729   -2.6663417    393.53125  0.099076346   0.10333712            1 
  332000    1.1944578   -2.6807674    394.21442  0.098949403   0.10332029            1 
  333000    1.2178954   -2.6825743    395.36578  0.098940384    0.1033052            7 
  334000    1.2130532    -2.697106    396.44301  0.098912926   0.10328727            4 
  335000    1.2055553   -2.7030422    395.74345  0.098443645   0.10326732            4 
  336000    1.1857142   -2.6820237    399.94178  0.099191909   0.10324727            2 
  337000     1.219343   -2.6956132    399.00925  0.098666976   0.10323065            1 
  338000    1.2148668   -2.6858131    399.47612  0.098490168   0.10320844            1 
  339000    1.1787985   -2.6655363    401.30855  0.098650086   0.10318785            3 
  340000    1.1712789    -2.684858    404.09568  0.099043059    0.1031683            1 
  341000    1.1990805    -2.690368    404.16999  0.098770771   0.10314714            1 
  342000    1.2221024   -2.6922937    404.10506  0.098466144   0.10312939            1 
  343000    1.1811563   -2.7033707    405.81478  0.098594455   0.10311232            1 
  344000     1.202809   -2.6868373    408.25418  0.098898783   0.10309537            1 
  345000    1.2001932   -2.6953665    410.26942  0.099098893   0.10307936            2 
  346000    1.2059327   -2.6980954    409.21141  0.098557662   0.10306054            2 
  347000    1.1950301   -2.6693397    411.53841  0.098832471   0.10303949            2 
  348000    1.1903471   -2.6801459     410.4681   0.09829217   0.10301632            1 
  349000    1.1879919   -2.6851914    413.82427  0.098811907   0.10299103            2 
  350000    1.1772267   -2.6979567    413.83152  0.098531314   0.10296529            2 
  351000    1.2117039    -2.689282     414.5407  0.098418968   0.10294093            1 
  352000    1.1698866   -2.6748912    417.65914  0.098877638    0.1029187            3 
  353000    1.1746001   -2.6271393    417.17633  0.098483552     0.102897            1 
  354000    1.1962836   -2.7183456    415.62097   0.09783921   0.10287255            3 
  355000      1.20907   -2.6392365    418.29587  0.098191518   0.10284565            1 
  356000    1.2087042   -2.7053229    418.43221  0.097947616   0.10281625            2 
  357000    1.1705476    -2.685527    420.30088   0.09810945   0.10278746            1 
  358000    1.1932317   -2.7004408    421.98449  0.098227303   0.10275753            1 
  359000     1.181911    -2.701556    422.47341   0.09806718   0.10272915            1 
  360000     1.174035   -2.6712638    422.47041  0.097794076   0.10269764            2 
  361000    1.1763546   -2.6790573    425.62616  0.098251654   0.10267052            4 
  362000    1.1732741   -2.6835874    426.01724  0.098070268   0.10264186            2 
  363000    1.1851989   -2.6927083    427.52874  0.098147094    0.1026116            3 
  364000    1.2056958   -2.6771195     426.4655  0.097634042   0.10257997            1 
  365000    1.1834421   -2.6964621    429.04022  0.097954388   0.10254696            1 
  366000    1.1848324   -2.7088999    431.38347  0.098220279   0.10251795            3 
  367000    1.1966545   -2.6575004    430.69307  0.097795883   0.10249146            3 
  368000    1.2036376   -2.7226533    434.04382  0.098288907    0.1024658            2 
  369000    1.2081469   -2.7072395    435.41865  0.098333029   0.10244127            2 
  370000    1.1918493   -2.6799386    436.45346  0.098300329   0.10241899            2 
  371000    1.2123083   -2.6746057     438.2457  0.098437937    0.1023961            1 
  372000    1.1905098   -2.6918474    438.80116  0.098297752   0.10237366            2 
  373000    1.1820121   -2.6785533    438.07413  0.097871788   0.10234889            1 
  374000    1.2091271    -2.680518    441.46775  0.098366255   0.10232357            2 
  375000     1.170927   -2.7003036    441.99344  0.098220765   0.10230084            2 
  376000    1.1912334   -2.6888396    442.34358   0.09803714   0.10227881            2 
  377000    1.1977421   -2.6842012    443.40477  0.098011664   0.10225273            2 
  378000    1.2139528   -2.7184632    445.38181   0.09818823   0.10222531            3 
  379000    1.2093258   -2.6803393    445.45377  0.097944981    0.1021972            1 
  380000    1.1714936   -2.6889398    446.43084    0.0979015   0.10216959            1 
  381000    1.1903367   -2.7007481    448.40062  0.098075376   0.10214232            1 
  382000    1.2025176   -2.6922722    448.09145  0.097751189   0.10211607            1 
  383000    1.1917496   -2.7065837    449.60575  0.097825446   0.10209003            2 
  384000    1.1816649   -2.7020606     448.7331  0.097381314   0.10206008            2 
  385000    1.1613027   -2.6895442    451.17922   0.09765784   0.10202851            1 
  386000    1.2098628   -2.7333597    451.13848  0.097396044    0.1020016            1 
  387000    1.2095757   -2.7252677    453.20226  0.097588773   0.10197299            2 
  388000    1.1944619   -2.6931217    456.39947   0.09802394    0.1019499            1 
  389000    1.1867091   -2.6757766    459.35739  0.098405611   0.10192779            3 
  390000    1.1680897   -2.7154136    459.16684  0.098112573    0.1019079            2 
  391000    1.1907363   -2.6650465    460.66443  0.098180826   0.10188662            1 
  392000    1.1664722   -2.6912572     461.2959  0.098064605   0.10186732            4 
  393000    1.1886762   -2.7667525    460.37513  0.097619833    0.1018461            2 
  394000    1.1889223   -2.6999455    463.21806  0.097973362   0.10182281            1 
  395000    1.1987779   -2.6890003    464.55125  0.098006594   0.10180198            2 
  396000     1.198193   -2.6712882     468.1746  0.098521591   0.10178392            1 
  397000    1.1984554   -2.6936393    468.80355  0.098405447   0.10176487            1 
  398000    1.1914109   -2.6655414    468.06051  0.098002619    0.1017456            4 
  399000    1.1768223   -2.6879878    471.04606  0.098380548   0.10172597            1 
  400000    1.1793145   -2.6854816    469.84123  0.097883589   0.10170773            3 
  401000    1.1534555   -2.7024549    470.99468  0.097879194   0.10168753            1 
  402000    1.1957044   -2.6940379     473.6116  0.098178193   0.10166734            2 
  403000    1.1938765   -2.6815385    475.41545  0.098307578   0.10165212            4 
  404000    1.1552471   -2.6751479    475.86722  0.098157429   0.10163646            1 
  405000    1.1586279   -2.6964942    479.74585  0.098713138   0.10162018            2 
  406000    1.1841822   -2.6960684    480.03126  0.098528584   0.10160384            1 
  407000    1.1648091   -2.7013799    483.31271  0.098958375   0.10159251            1 
  408000    1.1942267   -2.6632746    485.03817  0.099068253   0.10158428            1 
  409000    1.1995734   -2.7131516    480.84278  0.097971226    0.1015723            5 
  410000    1.1780237   -2.7167608    485.02856   0.09858304   0.10156067            1 
  411000     1.153519   -2.6879288    486.06716  0.098553763    0.1015461            1 
  412000    1.2243099   -2.6674813    486.96525  0.098496208   0.10153295            2 
  413000    1.1907514   -2.7100617    486.26427  0.098116277   0.10151934            1 
  414000    1.1746566   -2.6524798    488.74621  0.098378866   0.10150459            2 
  415000    1.1765011   -2.7002794     488.8878  0.098170241   0.10148871            1 
  416000    1.1960066   -2.7053707    491.02112  0.098361602     0.101473            2 
  417000    1.1721466   -2.6855669    490.22486  0.097966599   0.10145504            2 
  418000    1.1842455   -2.6981654    494.27223  0.098539122   0.10143979            2 
  419000    1.1740583   -2.6849061    492.30637  0.097912962   0.10142556            1 
  420000    1.1728435   -2.6861883    497.23012   0.09865677   0.10141142            2 
  421000     1.172392   -2.7044084    498.63973  0.098701452   0.10139777            1 
  422000    1.1834981   -2.7060179    500.35485   0.09880625   0.10138612            1 
  423000    1.1943429   -2.7320705    497.37933  0.097986472   0.10137271            2 
  424000    1.1618135   -2.7021519    504.89032  0.099231588   0.10135878            3 
  425000    1.1845505   -2.7001301    502.57341  0.098543806   0.10134639            1 
  426000    1.1748942    -2.703935    505.24259  0.098834623   0.10133465            2 
  427000     1.153282   -2.7103498    504.91425  0.098539081    0.1013233            1 
  428000    1.2050416   -2.7171229    507.09999  0.098734421   0.10131166            1 
  429000     1.178709   -2.6629201    506.49566  0.098386879   0.10130209            2 
  430000    1.1827129   -2.6762633    509.84012  0.098806225   0.10129256            1 
  431000    1.1725455   -2.6925027    509.03782  0.098421853   0.10128355            3 
  432000    1.1814148   -2.6798137    508.60049  0.098109661   0.10127406            1 
  433000    1.1600595   -2.7176082    510.72794   0.09829252   0.10126386            2 
  434000    1.1509982   -2.7096671    515.01643  0.098889483     0.101253            3 
  435000    1.1873013   -2.6877808    514.22176  0.098509916   0.10124329            1 
  436000    1.1526101   -2.7019548    514.19526  0.098278911   0.10123101            4 
  437000    1.1894427   -2.7087709    514.10911  0.098037588   0.10121936            1 
  438000    1.1766729   -2.6859714    516.26361  0.098223669    0.1012054            1 
  439000    1.2114082   -2.7100505    518.06507  0.098341889   0.10119027            2 
  440000    1.1909398    -2.714903    517.36433  0.097985669   0.10117359            1 
  441000    1.1893524   -2.7197243    516.39751  0.097580784   0.10115442            4 
  442000      1.15854   -2.6697863    519.10108  0.097869735   0.10113711            1 
  443000    1.2090939   -2.7128926    522.43129  0.098275261   0.10111881            1 
  444000    1.1946575    -2.709916    521.76339  0.097928565   0.10110101            1 
  445000    1.1492826   -2.7143378     522.7543  0.097894063   0.10108414            3 
  446000    1.1703464   -2.7129471      523.663  0.097844358   0.10106728            3 
  447000    1.1967979   -2.6838208    525.87921   0.09803863    0.1010498            1 
  448000    1.1938345   -2.7054636      525.777  0.097800781   0.10103326            1 
  449000    1.1955095   -2.6905179     529.6137  0.098295045   0.10101631       -1e+20 
  450000     1.195775   -2.7396002    529.19856  0.097999734   0.10099809            1 
  451000    1.1706507   -2.7195403    528.35108  0.097625847   0.10098065            1 
  452000      1.16013   -2.7210923    529.30631  0.097585972   0.10096369            3 
  453000    1.1578678   -2.7255663    529.76071  0.097454141   0.10094733            4 
  454000    1.1829918   -2.7134262    536.25467  0.098431475   0.10093211            1 
  455000     1.180256   -2.7152051    534.32068  0.097860931   0.10091978            2 
  456000    1.1826504   -2.7149487    538.07184  0.098331842   0.10090644            2 
  457000    1.1903593   -2.7008428    540.07968  0.098482801   0.10089351            2 
  458000    1.1845142   -2.7145178    539.89922  0.098234939   0.10088016            2 
  459000    1.1809597   -2.7032733    541.02117  0.098224613   0.10086775            2 
  460000    1.1651806   -2.7073615    540.38299   0.09789547   0.10085639            2 
  461000    1.1853028   -2.7175737    542.15937  0.098004225   0.10084417            2 
  462000    1.1834221   -2.7179418    543.85135  0.098097286   0.10082803            1 
  463000    1.1797745   -2.7043074    545.30163  0.098146442   0.10081243            1 
  464000    1.1698181    -2.714911     546.7402  0.098193283    0.1007952            2 
  465000    1.1835089   -2.6930603    545.33041  0.097729463   0.10077967            2 
  466000    1.1998335   -2.7372191    544.69986  0.097406984   0.10076286            2 
  467000    1.1849417   -2.7113438    546.64417  0.097545355   0.10074387            3 
  468000    1.1406646    -2.698774    546.90757  0.097383826   0.10072512            3 
  469000    1.1646735   -2.7105729    550.28604  0.097776483   0.10070681            1 
  470000    1.1701922   -2.7077564    549.11662  0.097361104   0.10068825            1 
  471000    1.1650876   -2.6844129    551.09727  0.097504824   0.10066741            2 
  472000    1.1530557   -2.7227801    551.09398  0.097297666   0.10064567            1 
  473000    1.1876815   -2.7352822    553.28881  0.097478648   0.10062426            2 
  474000    1.1800734   -2.7051752    551.79217  0.097009875   0.10060435            3 
  475000    1.1899033   -2.7321316    554.77522  0.097328986   0.10058173            1 
  476000    1.1583308   -2.7118391    556.72857  0.097466486   0.10056111            1 
  477000     1.163679    -2.689925    557.88066  0.097463428   0.10054155            1 
  478000    1.1964684   -2.7247811    561.05007  0.097812076   0.10052212            5 
  479000    1.1568975   -2.7039438    561.01106  0.097601089   0.10050335            1 
  480000    1.1777393   -2.6857061    561.11954  0.097416587   0.10048224            2 
  481000    1.1985343   -2.7128398    563.92607  0.097700288   0.10046142            2 
  482000    1.1886011   -2.6881672    565.54677  0.097777796   0.10044298            1 
  483000    1.1730467   -2.6867966    565.77481  0.097614701   0.10042431            4 
  484000    1.2120484   -2.7368939    564.95352  0.097271611   0.10040442            2 
  485000    1.1624064   -2.7498623    565.24743  0.097121551   0.10038219            1 
  486000    1.1549809   -2.7222335    567.79698  0.097358878   0.10035969            6 
  487000    1.1683026   -2.6928215     567.2019  0.097057136   0.10033965            1 
  488000    1.1807624   -2.7130815    569.75959  0.097295011   0.10031869            1 
  489000    1.1736159   -2.7225189    570.63534  0.097245285   0.10029881            3 
  490000    1.1639454   -2.7387789    574.27032  0.097665021   0.10027702            2 
  491000     1.182937   -2.7221057    573.59996  0.097352335   0.10025676            2 
  492000    1.1585791   -2.7056025    575.70306   0.09751068   0.10023716            2 
  493000    1.1469705   -2.7058768    574.05396  0.097034138   0.10021981            2 
  494000     1.153154   -2.7410978    573.36447  0.096721402   0.10019848            2 
  495000    1.1455522    -2.723819    575.73803  0.096925593   0.10017672            2 
  496000    1.1505569   -2.7299498    577.72082   0.09706331   0.10015599            1 
  497000    1.1934214   -2.6884981    581.93771  0.097575069   0.10013494            2 
  498000    1.1810885   -2.7262393    582.39639  0.097455889   0.10011286            1 
  499000     1.176911   -2.7029016    581.81722  0.097163864   0.10009165            3 
  500000    1.1998612   -2.7030182    583.65932  0.097276553   0.10007035            2 
  501000    1.1912854   -2.7173976    581.54401   0.09673054   0.10004864            2 
  502000    1.1818979    -2.695594    583.70699  0.096896911   0.10002474            1 
  503000    1.1714777    -2.725146    583.75238  0.096711793  0.099998082            4 
  504000     1.143686   -2.6902635    587.35106  0.097114924  0.099974869            2 
  505000    1.1675461   -2.6904635    590.01236  0.097361775  0.099950447            4 
  506000    1.1735862   -2.7106094    585.70179  0.096459452  0.099924298            2 
  507000    1.1625398   -2.7145991    586.56716  0.096411433  0.099899357            2 
  508000    1.1822316   -2.6715705    590.02164  0.096788326  0.099874565            2 
  509000    1.1684711   -2.7421111    588.81072  0.096399921  0.099848011            3 
  510000    1.1578182   -2.7341759    590.10335  0.096422115  0.099823516            1 
  511000    1.1458253   -2.7301298    591.47324  0.096456824  0.099797728            1 
  512000    1.1890428   -2.7181955    592.88415  0.096498072  0.099774191            2 
  513000    1.1534594   -2.7117686    592.17981  0.096195551  0.099748894            2 
  514000    1.1699818    -2.740848    594.75728  0.096426278   0.09972143            2 
  515000    1.1569608   -2.7132023    596.20679  0.096473591  0.099697151            2 
  516000    1.1709191    -2.724651     595.4298  0.096161143  0.099672887            2 
  517000    1.1654987   -2.6753641    598.67346  0.096497979  0.099649211            4 
  518000    1.1364553   -2.6994489    602.61997  0.096946584  0.099626693            2 
  519000    1.1810436   -2.6714217    602.00418  0.096660915  0.099604792            4 
  520000    1.1513797   -2.7403776    601.98964  0.096472698  0.099586664            2 
  521000    1.1642602   -2.7069105    606.78649   0.09705478  0.099566844            2 
  522000    1.1716658   -2.7010292    608.97574  0.097218349  0.099546227       -1e+20 
  523000    1.1826731   -2.7286764     608.1786  0.096905449  0.099527142            1 
  524000    1.1748625   -2.7076394    610.34435  0.097064941  0.099508971            2 
  525000    1.1774849   -2.7246652    607.28484   0.09639442  0.099489401            2 
  526000     1.175453   -2.6903146    606.89377  0.096149203  0.099467796            2 
  527000    1.1800517   -2.7393936    609.47674  0.096375195  0.099446204            2 
  528000    1.1293202   -2.7373654    609.01628  0.096119993  0.099424842            1 
  529000    1.1698449   -2.7120553    612.98392  0.096563315  0.099403553            4 
  530000     1.168053   -2.7301021    612.95739  0.096376949  0.099382567            2 
  531000    1.1568813   -2.6890981    617.63755  0.096929936  0.099362357            2 
  532000    1.1749755    -2.703593    614.13586  0.096199227  0.099342941            4 
  533000    1.1849999   -2.7057592    618.35054  0.096677696  0.099324016            1 
  534000    1.1621759   -2.7299232    619.69793  0.096706918  0.099304573            2 
  535000    1.1539905   -2.7281623    619.39152  0.096478431  0.099284548            2 
  536000    1.1776868   -2.6948199    622.19333  0.096734038   0.09926456            1 
  537000    1.1802049    -2.735219    621.69184  0.096476076   0.09924536            1 
  538000    1.1642478   -2.6904094    623.36832  0.096556431  0.099225949            2 
  539000    1.1683907   -2.7070813    625.77975  0.096750116   0.09920797            1 
  540000     1.178144   -2.7251416    625.66083  0.096552597   0.09918876            2 
  541000    1.1565771   -2.7236807    626.41261  0.096489928  0.099167421            1 
  542000    1.1817234   -2.7291549    626.50921  0.096326755  0.099147065            2 
  543000    1.1482095   -2.7419642    626.67474  0.096174761  0.099125751            2 
  544000    1.1253721   -2.7346589    628.06328  0.096210674  0.099102482            4 
  545000    1.1640877   -2.7275797    628.31347  0.096072396  0.099079717            2 
  546000    1.1634326   -2.7332831     628.5874  0.095938248  0.099055353            3 
  547000     1.179637   -2.7288862    630.96945  0.096125754  0.099033034            1 
  548000    1.1587845   -2.7025042    632.25431  0.096145728  0.099010096            1 
  549000    1.1603816   -2.6853987    632.81868  0.096056266  0.098987943            1 
  550000    1.1708633   -2.7305707    633.87491  0.096041654  0.098964158            4 
  551000    1.1312566   -2.7297522    636.98555  0.096337802  0.098941885            2 
  552000    1.1551823   -2.7259893    634.46859  0.095783302  0.098919705            2 
  553000    1.1895477   -2.7066232    639.36592  0.096348089  0.098898137            1 
  554000    1.1710333   -2.7356103    639.03583  0.096124524  0.098876644            2 
  555000    1.1844806   -2.7312057    641.38234  0.096303655  0.098854314            3 
  556000    1.1708813   -2.7169385    640.75261  0.096036063  0.098831818            1 
  557000    1.1534575   -2.7323136    640.21308  0.095782926  0.098810362            3 
  558000    1.1523377   -2.7420764    640.98477  0.095726519  0.098789029            3 
  559000    1.1929515   -2.7108758    643.83731  0.095980517  0.098767598            1 
  560000    1.1674955   -2.7294621    644.25721  0.095871609  0.098747613            1 
  561000    1.1757878   -2.6989568    649.83844  0.096529774  0.098728628            1 
  562000     1.152484   -2.7119969    647.53439  0.096016368  0.098709062            4 
  563000    1.1839434   -2.7111773    650.04565  0.096217533  0.098689323            3 
  564000    1.1775422   -2.6946805    650.82797  0.096162525  0.098670617            3 
  565000    1.1422767   -2.7556292    652.41181  0.096225931  0.098650706            1 
  566000    1.1376111   -2.7420561    654.10838   0.09630571  0.098633425            1 
  567000    1.1711688   -2.6967968    658.16531  0.096732115  0.098617982            2 
  568000    1.1592761   -2.7409268    656.98182  0.096388177   0.09860234            1 
  569000    1.1560829   -2.7455533    659.88019  0.096643261  0.098587879            3 
  570000    1.1741078   -2.7099359    662.12317  0.096801633  0.098571834            3 
  571000    1.1414274   -2.7241863    660.89753   0.09645323  0.098555361            2 
  572000     1.156145   -2.7672866    659.38637  0.096064447  0.098539166            2 
  573000    1.1517015   -2.7338478    661.81569  0.096250101   0.09852204            2 
  574000    1.1464074    -2.710876    661.49405  0.096035721  0.098502273            2 
  575000    1.1481686   -2.7246323    662.50254  0.096014861   0.09848478            2 
  576000    1.1554438   -2.7229721    665.84198  0.096331305  0.098465675            1 
  577000     1.170785   -2.7406335    665.86439   0.09616759  0.098446168            2 
  578000    1.1269155   -2.7191163    667.58058  0.096248642  0.098425662            1 
  579000    1.1576794   -2.7069667    665.29762  0.095753831  0.098404396            2 
  580000    1.1354044   -2.7389719    665.62131  0.095635246  0.098382463            2 
  581000    1.1852074   -2.6972914    668.60142  0.095898081  0.098362384            1 
  582000    1.1375336   -2.7383667     672.8925  0.096347723  0.098343333            2 
  583000    1.1818043   -2.7159784     671.2948  0.095954088  0.098324338            3 
  584000    1.1581534   -2.7119594    674.30895  0.096219884  0.098306698            2 
  585000    1.1343344   -2.7633735    673.78853  0.095981272  0.098287879            1 
  586000    1.1696046   -2.7581973    673.23663  0.095738997  0.098269262            2 
  587000    1.1451942   -2.7418373    674.64868   0.09577636  0.098252197            1 
  588000    1.1629985   -2.7270066    677.57712  0.096028504   0.09823333            2 
  589000    1.1430985    -2.739849    678.14302  0.095945532  0.098216743            2 
  590000    1.1718945   -2.7173631      678.596  0.095846892  0.098197798            1 
  591000    1.1901347   -2.7128046    680.29335  0.095924049   0.09817974            2 
  592000    1.1569052   -2.6924086    683.60872  0.096228706  0.098161585            3 
  593000    1.1450192   -2.7032815    682.67537  0.095935268  0.098142753            1 
  594000    1.1470847   -2.6874559    687.13987  0.096400094  0.098122889            2 
  595000    1.1550546   -2.7263993    685.74814  0.096043157  0.098104615            1 
  596000    1.1578744   -2.7419332    684.09626  0.095651043  0.098087409            4 
  597000    1.1659966   -2.6946133    686.52283  0.095829541  0.098070463            1 
  598000    1.1386091   -2.7443423    686.16891   0.09561997  0.098052332            1 
  599000    1.1817342   -2.7411203    693.40334  0.096466797  0.098034807            1 
  600000    1.1579689   -2.7307376    692.30121  0.096152945    0.0980171            2 
  601000    1.1419233   -2.7400094    689.84657  0.095652602  0.097998108            1 
  602000    1.1556442   -2.7279079    689.19874  0.095404034  0.097979237            2 
  603000    1.1380749   -2.7587123    693.17832  0.095795787  0.097960967            1 
  604000    1.1751768   -2.7640129    695.13503  0.095907151  0.097942206            1 
  605000    1.1473702   -2.7232618    692.91265  0.095442514  0.097922676            2 
  606000    1.1510846   -2.7404442    697.42278  0.095905223  0.097905371            1 
  607000    1.1503759   -2.7180928    694.21613  0.095306992  0.097889944            2 
  608000     1.163208   -2.7264516    698.45205  0.095730819  0.097874171            1 
  609000    1.1560844   -2.7362447    702.56506  0.096136433  0.097858742            1 
  610000    1.1653499   -2.7643866    699.84109  0.095606707  0.097843122            1 
  611000      1.14916   -2.7506585    701.48804  0.095674856  0.097827857            2 
  612000    1.1451121    -2.738208    705.92511  0.096122701  0.097812171            1 
  613000    1.1534519   -2.7402249    704.63986  0.095791172  0.097796297            1 
  614000    1.1374256   -2.7097655    705.49675  0.095751459  0.097778075            1 
  615000    1.1588706   -2.7399766    703.17271  0.095280855  0.097759138            2 
  616000    1.1632955   -2.7404085    706.14591  0.095528397   0.09774069            1 
  617000    1.1548171   -2.7239207    707.32429  0.095532724   0.09772435            3 
  618000    1.1524809   -2.7519802    712.24019  0.096041017  0.097707766            1 
  619000    1.1606151   -2.7750047    711.46475  0.095781469  0.097692122            2 
  620000    1.1658385   -2.7445238    713.63784  0.095919065  0.097676357            4 
  621000    1.1368784   -2.7514349    713.41056  0.095734107  0.097660504            2 
  622000    1.1490516   -2.7662164    714.71686  0.095755206  0.097646356            2 
  623000     1.135298   -2.7400448    717.16535   0.09592902  0.097632363            3 
  624000    1.1647466   -2.7420079    720.09797   0.09616693  0.097618257            2 
  625000     1.144181   -2.7013902    724.71845  0.096629127  0.097606706            1 
  626000    1.1309445   -2.7274807    723.37028  0.096295298  0.097595066            2 
  627000    1.1647544   -2.7317089    720.86878  0.095809248  0.097581634            1 
  628000    1.1371081   -2.7588678    723.79051  0.096044388  0.097567625            2 
  629000    1.1376727   -2.7364458    723.63577  0.095871194  0.097553746            1 
  630000    1.1424918   -2.7138709    724.06302  0.095775532  0.097540534            3 
  631000    1.1657678    -2.750434    726.00633  0.095880392  0.097527841            2 
  632000    1.1371669    -2.734167    727.50831  0.095926729  0.097514855            1 
  633000    1.1565537   -2.7311411    727.49305  0.095773176  0.097501996            2 
  634000    1.1551067   -2.7277005    730.88429  0.096067862  0.097489402            2 
  635000    1.1386202   -2.7359201    732.06428  0.096071428  0.097476398            4 
  636000    1.1558559   -2.7407634    732.17578  0.095934981  0.097463188            1 
  637000    1.1472178    -2.729589    732.80097  0.095866166  0.097450727            5 
  638000    1.1473211   -2.7391099    734.01237  0.095874134  0.097438138            3 
  639000     1.149375   -2.7221877    732.88401  0.095576945  0.097424385            1 
  640000     1.142658   -2.7419013    736.91855  0.095952936  0.097410711            3 
  641000    1.1581134   -2.7191511    734.89432  0.095540083  0.097396324            2 
  642000    1.1383299   -2.7243476    740.11586  0.096069037  0.097383971            2 
  643000    1.1530819   -2.7453583    738.73827  0.095741093  0.097370801            1 
  644000    1.1396993   -2.7486416     742.0291  0.096018258  0.097359771            2 
  645000    1.1662195    -2.761116    742.34025  0.095909593  0.097348124            4 
  646000    1.1426496      -2.7135    746.30876   0.09627306  0.097336582            2 
  647000    1.1472858   -2.7297311    747.10381  0.096226662  0.097324167            2 
  648000    1.1713264   -2.7238986    745.29429  0.095845459  0.097311698            2 
  649000    1.1276909   -2.7370929    746.52999  0.095856445  0.097299651            2 
  650000    1.1254873   -2.7418613    746.34956   0.09568584  0.097287066            6 
  651000    1.1361229   -2.7469387    748.88358  0.095863233  0.097274685            1 
  652000    1.1547154   -2.7750786    747.93394  0.095594829  0.097262781            1 
  653000    1.1582092   -2.7404525    748.53595  0.095525261  0.097250423            2 
  654000    1.1555836   -2.7358314    751.24843  0.095724826  0.097237526            5 
  655000    1.1768872   -2.7285585    752.62434  0.095753733  0.097225656            2 
  656000     1.146227   -2.7506239    752.55589  0.095599071   0.09721227            1 
  657000    1.1420795   -2.7345997    754.07634  0.095646415  0.097199429            2 
  658000    1.1742254   -2.7210971     753.2251   0.09539325  0.097185877            2 
  659000    1.0965178   -2.7275667     755.2078  0.095499216  0.097172583            1 
  660000    1.1288722   -2.7581781    754.16457  0.095222799  0.097158217            2 
  661000    1.1531443   -2.7517083    757.13411  0.095453115  0.097144086            1 
  662000    1.1273734   -2.7714249    758.07453  0.095427308  0.097129369            2 
  663000    1.1453094   -2.7254337    756.57752  0.095095214  0.097115909            1 
  664000    1.1515924   -2.7490555    761.52504  0.095572921  0.097102101            2 
  665000    1.1466401   -2.7602505    760.18959  0.095261853  0.097088749            1 
  666000    1.1469534   -2.7522653     761.8426   0.09532565  0.097076178            2 
  667000    1.1487578   -2.7470766    768.47411  0.096011258  0.097064828            2 
  668000    1.1425729   -2.7230565     764.7218  0.095399426  0.097052002            1 
  669000      1.14763   -2.7431246    766.38867  0.095464457   0.09703943            3 
  670000    1.1342113   -2.7222877     767.3964  0.095447313  0.097025476            4 
  671000    1.1227279   -2.7566946    770.30126   0.09566583  0.097012253            3 
  672000    1.1491621   -2.7533154    771.57999  0.095682042  0.097000165            2 
  673000    1.1703432   -2.7578502    769.95598  0.095338779  0.096988262            2 
  674000     1.145809   -2.7531499    771.79518  0.095424725  0.096974847            1 
  675000    1.1444464   -2.7643345    775.16964  0.095699956  0.096962256            1 
  676000    1.1427685   -2.7118127    774.98581  0.095535726  0.096948058            5 
  677000    1.1414028   -2.7225361     774.8457  0.095377364   0.09693371            1 
  678000    1.1107911   -2.7349404    774.12565  0.095148187  0.096918178            1 
  679000    1.1491646   -2.7379812    774.45619  0.095048625  0.096901986            1 
  680000     1.132283    -2.760746     773.7175  0.094818321  0.096885685            1 
  681000     1.143711   -2.7289795    775.55411  0.094903831   0.09686936            1 
  682000    1.1490545    -2.740993    779.40799  0.095235581  0.096853645            2 
  683000    1.1458647   -2.7205902    778.71901   0.09501208   0.09683911            1 
  684000    1.1246111   -2.7263828     781.7545  0.095242995   0.09682504            4 
  685000    1.1319993   -2.7654394    784.54357  0.095443256  0.096810908            3 
  686000    1.1165084    -2.728138    786.96458  0.095598224  0.096799221            1 
  687000    1.1534257   -2.7775268     783.1203  0.094992758  0.096785166            3 
  688000    1.1174065   -2.7478665    790.25954  0.095719421  0.096770555            1 
  689000    1.1379919   -2.7443235    785.33624  0.094985031  0.096757472            2 
  690000    1.1624406    -2.738376    788.59999  0.095241545  0.096742708            1 
  691000    1.1532055   -2.7238253     787.7051  0.094995792  0.096728875            1 
  692000    1.1474539   -2.7292588    790.23049  0.095162631  0.096714416            3 
  693000    1.1549106   -2.7579899    792.81056  0.095335565  0.096699643            2 
  694000    1.1382561   -2.7193685     795.8627  0.095564685  0.096685244            1 
  695000    1.1490487    -2.752199    793.32062  0.095122376  0.096671219            1 
  696000    1.1448944   -2.7192148    792.12673   0.09484276  0.096656824            2 
  697000    1.1409638   -2.7393596     793.6655  0.094890663   0.09664185            2 
  698000    1.1394726   -2.7442489    799.77897  0.095484596  0.096627695            4 
  699000    1.1310155   -2.7553741    795.21428    0.0948038  0.096614467            1 
  700000    1.1601824   -2.7105851    799.01644  0.095121004  0.096599605            1 
  701000    1.1292179   -2.7535128    796.39834  0.094674078   0.09658643            3 
  702000    1.1441809   -2.7719398    800.45481  0.095020752  0.096573668            1 
  703000    1.1100956   -2.7555634    800.03539  0.094835869  0.096560053            5 
  704000    1.1461985   -2.7625002    803.32236  0.095090241  0.096546715            1 
  705000    1.1394778   -2.7368706    805.16612  0.095173301  0.096531978            2 
  706000    1.1284505    -2.751602    808.95333  0.095485521  0.096519783            1 
  707000    1.1555333    -2.730627    809.02066    0.0953584  0.096507011            2 
  708000    1.1316842   -2.7386223    809.51741  0.095282181  0.096495715            1 
  709000    1.1355915   -2.7525257    808.73574  0.095055917  0.096483557            3 
  710000    1.1383973    -2.773008    811.61846  0.095260383  0.096471541            1 
  711000    1.1520116    -2.762765    814.30038  0.095440738  0.096459346            5 
  712000    1.1414015   -2.7242905     812.5525  0.095102119  0.096446366            3 
  713000    1.1526161   -2.7426899    813.84629   0.09511995  0.096432969            4 
  714000    1.1212048   -2.7521317    811.97528  0.094768356  0.096420055            2 
  715000     1.113934   -2.7653935      814.696  0.094952914  0.096406441            4 
  716000    1.1203547   -2.7636022    815.05551  0.094862141  0.096392017            1 
  717000    1.1362198   -2.7604645    817.48892  0.095012659  0.096378767            3 
  718000    1.1574987   -2.7574739    818.09542  0.094950722  0.096365381            1 
  719000    1.1310451    -2.782291    820.93011  0.095147208  0.096352574            1 
  720000    1.1446999   -2.7428812    819.97284  0.094904264  0.096339297            1 
  721000    1.1299775   -2.7643061    819.45262  0.094712508  0.096325868            3 
  722000    1.1585245   -2.7700758    817.31282  0.094334351  0.096311022            2 
  723000    1.1614913   -2.7773435    818.85808  0.094381982  0.096296843            3 
  724000    1.1103533    -2.752599    824.94697   0.09495246  0.096282092            1 
  725000    1.1510402    -2.754368    825.72175  0.094910546   0.09626884            2 
  726000    1.1404391   -2.7339626    824.87188  0.094682263  0.096254582            2 
  727000    1.1244485    -2.743969    825.91071  0.094671104  0.096239959            1 
  728000    1.1524941   -2.7698464    826.15099  0.094568566  0.096225219            2 
  729000    1.1289543   -2.7712875    826.17621  0.094441725  0.096210984            1 
  730000    1.1156962   -2.7437909    831.92738  0.094968879  0.096196391            3 
  731000    1.1436071    -2.716301    830.72217  0.094701569  0.096181862            2 
  732000    1.1046433    -2.741397    834.60405  0.095014123   0.09616741            1 
  733000    1.1338011    -2.755302    834.93724  0.094922378   0.09615414            3 
  734000    1.1238181   -2.7507602    832.64539  0.094532856  0.096139243            2 
  735000    1.1031327   -2.7639281    837.01336  0.094899473  0.096124986            1 
  736000    1.1243689   -2.7668808    831.55481  0.094152492  0.096109699            2 
  737000    1.1548471   -2.7582625    835.42595  0.094462455  0.096095394            3 
  738000    1.1146399   -2.7496328    837.89433  0.094613181   0.09608151            2 
  739000    1.1387005   -2.7554432     842.8027  0.095038645  0.096066286            2 
  740000    1.1366196   -2.7413594    838.87366  0.094467754  0.096051772            3 
  741000    1.1605651   -2.7375368    842.29926  0.094725513  0.096037624            3 
  742000    1.1450226   -2.7539764    844.57314  0.094853228  0.096023057            2 
  743000    1.1316898   -2.7768928    842.04977  0.094442549  0.096008651            2 
  744000    1.1102639   -2.7802435    840.36705  0.094127134  0.095995588            1 
  745000    1.1125011   -2.7722187    843.67253  0.094370529  0.095981396            2 
  746000    1.1431854   -2.7685482      844.418  0.094327301  0.095967706            2 
  747000    1.1244991    -2.773461    846.11145  0.094389943  0.095955394            2 
  748000    1.1388799    -2.750993    847.07878  0.094371522  0.095942733            1 
  749000    1.1097213   -2.7537634    848.73304  0.094429577  0.095929707            1 
  750000    1.1362911   -2.7390072    853.76622  0.094862913  0.095915272            2 
  751000    1.1428152   -2.7395263    854.94635  0.094867548  0.095901808            1 
  752000    1.1308052   -2.7510611     852.4149  0.094460871  0.095889048            4 
  753000    1.1425833   -2.7622483    852.69032  0.094365905  0.095874592            5 
  754000    1.1522513   -2.7511392    851.31809   0.09408909  0.095860087            3 
  755000    1.1730642   -2.7942552    857.15515  0.094608736  0.095846108            6 
  756000    1.1345401   -2.7733192    860.15863  0.094814664  0.095831222            1 
  757000    1.1109407   -2.8102498    853.66143  0.093974177  0.095816557            2 
  758000    1.1089159   -2.7558123    860.37849  0.094588664  0.095802109            1 
  759000    1.1364501   -2.7415693    859.45503  0.094362651   0.09578752            1 
  760000     1.145124   -2.7626156    856.28573  0.093890979  0.095772132            2 
  761000    1.1326407   -2.7503202     864.9691  0.094718474  0.095759241            2 
  762000    1.1433745    -2.758689    861.75349  0.094242507    0.0957452            2 
  763000    1.1340231   -2.7650339    863.53772  0.094313862  0.095731119            1 
  764000    1.1355739   -2.7541168    863.50008  0.094186309  0.095716273            2 
  765000    1.1044402   -2.7790533    863.06327  0.094015606  0.095702237            1 
  766000    1.1358034    -2.768727    862.12371  0.093790656  0.095685897            3 
  767000    1.1429176   -2.7708263    864.56538  0.093933657   0.09566929            2 
  768000    1.1149453   -2.7877792    863.18354  0.093661409   0.09565215            1 
  769000     1.144209   -2.7867621    864.16306  0.093645758  0.095634262            2 
  770000    1.1369931   -2.7650647     864.7038  0.093582662  0.095616328            3 
  771000    1.1333516   -2.7627023      865.754  0.093574795  0.095598585            2 
  772000    1.1397257   -2.7355381    867.93154  0.093688637   0.09558007            2 
  773000    1.1412107   -2.7452837    867.26975  0.093496092  0.095562734            2 
  774000      1.12112   -2.7872791    869.74552  0.093641852  0.095545638            1 
  775000    1.1113432   -2.7975168    869.90597  0.093538277  0.095528619            2 
  776000    1.1114655    -2.769775    872.06901  0.093650023  0.095511946            2 
  777000    1.1029851    -2.752122    876.41874  0.093996003  0.095495853            2 
  778000    1.1277424   -2.7840047    877.76595  0.094019489  0.095479312            3 
  779000    1.1259894   -2.7777238    873.95203  0.093490804  0.095463373            2 
  780000    1.1366254   -2.7377292    876.37811   0.09363014  0.095446463            1 
  781000    1.1118411   -2.7780524    877.31832  0.093610576  0.095428729            3 
  782000    1.1452593   -2.7401093    875.34444  0.093280524   0.09541047            2 
  783000     1.140476   -2.7525729    880.06671  0.093663975  0.095392334            2 
  784000    1.1342403   -2.7465607    878.25527  0.093351963   0.09537453            2 
  785000    1.1144774   -2.7466773    880.50925   0.09347232  0.095356684            2 
  786000    1.1292099   -2.7465651    883.56167  0.093677021  0.095339076            3 
  787000    1.1049142   -2.7744501    884.46514  0.093653657  0.095321981            3 
  788000    1.1214314   -2.7468935    883.49112  0.093431802  0.095305091            2 
  789000    1.1231648   -2.7836176    885.00393  0.093473165  0.095288649            2 
  790000    1.1315073   -2.7703536    890.00766  0.093882665  0.095273491            1 
  791000    1.1195559   -2.7972076    889.57508  0.093718403  0.095257078            2 
  792000    1.1314222   -2.7679439    884.52901   0.09306913  0.095241309            2 
  793000    1.1086857   -2.7571751     890.2577  0.093553773  0.095224376            3 
  794000     1.116744   -2.7616495    893.39045  0.093764741  0.095207884            2 
  795000    1.1075467   -2.8230791     891.3145  0.093429193  0.095191163            3 
  796000    1.1374696   -2.7669055    890.16633  0.093191618  0.095174677            1 
  797000    1.1381266   -2.7533178    893.71393  0.093445623  0.095158118            2 
  798000     1.106866     -2.76442    898.04928  0.093781254  0.095140595            2 
  799000    1.1341528   -2.7804396    898.13411  0.093672728  0.095125537            1 
  800000    1.1014904   -2.7558318    895.42699  0.093273645  0.095109763            3 
  801000    1.1224189   -2.7808758     899.6248  0.093593924  0.095093242            2 
  802000    1.1554787   -2.8102929    896.08837  0.093109764  0.095076995            1 
  803000    1.1047516   -2.7667807    903.99875  0.093814732  0.095060782            1 
  804000    1.1387154   -2.7696262    903.31254  0.093626922  0.095045566            2 
  805000    1.1165883   -2.7910244    905.85707  0.093774024  0.095028843            2 
  806000    1.1101177   -2.7718206     897.9065   0.09283566  0.095011887            4 
  807000    1.1367836   -2.7932489    902.56665  0.093201843  0.094993957            1 
  808000    1.1111942   -2.7542284    907.98405  0.093645219  0.094977311            3 
  809000    1.1431115   -2.7651353     902.8839   0.09300411  0.094959955            1 
  810000    1.1199032   -2.7946763     902.7415  0.092874639  0.094943588            2 
  811000    1.0978998   -2.7690748    909.13423  0.093416999   0.09492784            1 
  812000    1.1223868   -2.7835684    907.40576  0.093124565  0.094911699            1 
  813000    1.1341319   -2.7634513    914.96056  0.093784395  0.094897119            1 
  814000    1.1477033   -2.7955459    911.72834  0.093338282  0.094881378            3 
  815000    1.1321428   -2.7673409    914.60809   0.09351821  0.094866821            1 
  816000     1.114946   -2.7978624    912.50664  0.093188995   0.09485123            2 
  817000    1.1044977   -2.7535736    914.24834  0.093252585  0.094835321            2 
  818000    1.1252366   -2.7425507    914.53375   0.09316766   0.09481904            2 
  819000    1.1146744   -2.7907715    916.03661  0.093206818  0.094802959            1 
  820000    1.1179072   -2.7654359    915.42556  0.093031053  0.094784954            2 
  821000    1.1426277   -2.7826317     913.1385  0.092685597  0.094767389            5 
  822000     1.114868    -2.765543    918.82125  0.093148951  0.094749589            1 
  823000    1.1112535   -2.7711362    916.94545  0.092845834  0.094731805            3 
  824000    1.0990112   -2.7764765    919.53566  0.092995112  0.094713992            1 
  825000    1.1197307   -2.7630277    921.57479  0.093088363  0.094695511            1 
  826000    1.1291331   -2.7644188    920.65948  0.092883321  0.094678333            2 
  827000    1.0903635   -2.7953824    921.09951  0.092815347    0.0946612            2 
  828000    1.1079154   -2.7843367    924.58347  0.093053892  0.094645058            1 
  829000     1.129528     -2.75784    927.17487  0.093202138  0.094628962            2 
  830000    1.1090928   -2.7778427    927.87456  0.093160096  0.094612527            1 
  831000    1.1430375   -2.7683378    931.32645  0.093394148  0.094595663            2 
  832000    1.0901489   -2.7597012    934.77679  0.093627483  0.094580575       -1e+20 
  833000    1.1352693   -2.7685042    931.48087  0.093185361  0.094565799            2 
  834000    1.1235806   -2.7539464     937.0643  0.093631525    0.0945507            5 
  835000    1.1324462   -2.7743966    936.93391  0.093506378   0.09453603            1 
  836000    1.1348257   -2.7620598    933.90596  0.093092699  0.094521403            2 
  837000    1.1311685   -2.7552926    937.55517    0.0933448   0.09450667            1 
  838000    1.0891412    -2.793361    939.84218  0.093460837  0.094492103            3 
  839000    1.1273663   -2.7601785    941.52226  0.093516315  0.094478224            2 
  840000    1.1293909   -2.7580625    944.09102  0.093659823  0.094464425            1 
  841000    1.1223289   -2.8147774    938.76713  0.093020921  0.094450049            3 
  842000     1.108706   -2.7928701    938.45789  0.092879839  0.094436241            1 
  843000     1.128192   -2.7496062    943.98061    0.0933156  0.094423123            1 
  844000     1.143517   -2.7530862    944.41365  0.093247793  0.094409553            2 
  845000    1.1078635   -2.7825162    947.12948  0.093405274  0.094396196            2 
  846000    1.1252909   -2.8015507    949.18477  0.093497318  0.094382406            2 
  847000     1.142927    -2.777673    945.86516  0.093060326  0.094369305            2 
  848000    1.1217441    -2.772065    948.54483  0.093213918  0.094355626            2 
  849000     1.124195   -2.7678586    950.53474  0.093299445  0.094342079            1 
  850000    1.1146989   -2.7619081    951.12244  0.093247298  0.094329716            1 
  851000    1.1106542   -2.7588218    952.20054  0.093243296  0.094316153            5 
  852000    1.1254557   -2.7684207    954.86891  0.093394847  0.094301781            1 
  853000    1.1079666   -2.7643577    954.21754  0.093221721  0.094286691            2 
  854000    1.1021999   -2.7618778    959.46014  0.093624136  0.094272504            2 
  855000    1.0980907   -2.7777165    958.01831  0.093374104   0.09425886            1 
  856000    1.1147906   -2.7873002    956.08372  0.093076686  0.094244414            3 
  857000    1.1166471    -2.770636    954.28193  0.092792875  0.094229933            3 
  858000    1.1158769   -2.7587321    959.15304  0.093157832  0.094215286            3 
  859000    1.1152548   -2.8014901    954.19516  0.092568409  0.094200721            3 
  860000    1.0993464   -2.7826539    956.44518  0.092678797  0.094185694            2 
  861000    1.1160229   -2.7879842    958.07695  0.092729089  0.094170794            1 
  862000    1.1229495   -2.7856723    961.26101  0.092929332  0.094154898            2 
  863000    1.1350961    -2.789334    951.59587  0.091888361    0.0941385            3 
  864000    1.1056544   -2.7800561    961.54739   0.09274184  0.094121681            2 
  865000    1.1112563   -2.7886816    959.86374  0.092472422  0.094106256            2 
  866000    1.1084379   -2.7993073    964.86755  0.092847146  0.094090134            2 
  867000    1.1390064   -2.7930015    965.22735  0.092774639  0.094074004            3 
  868000    1.1363703   -2.7694181    960.23965  0.092188906  0.094057476            1 
  869000    1.1233866    -2.784936    966.59504  0.092692275  0.094040328            1 
  870000    1.0772298   -2.7885678     967.7602  0.092697337  0.094023215            1 
  871000    1.0900564   -2.7703513    969.34521  0.092742558  0.094006245            1 
  872000    1.1211026   -2.7736959    965.96867   0.09231352  0.093989641            4 
  873000    1.1248459   -2.8038505    970.68318  0.092657807  0.093972833            2 
  874000    1.1216897   -2.7630747     970.1916   0.09250492  0.093956113            2 
  875000    1.1265027   -2.7925848    972.00331  0.092571744  0.093938903            1 
  876000    1.0997928   -2.8004286     968.2339  0.092107486  0.093920983            3 
  877000    1.1192717   -2.8001096     973.4426  0.092497396  0.093903229            2 
  878000    1.1179191   -2.7650521    978.39209  0.092861816  0.093886325            2 
  879000    1.0969581   -2.8243763    973.71989  0.092313224  0.093869975            2 
  880000    1.1201633   -2.7811459    972.48255  0.092091151  0.093853917            1 
  881000    1.0980417   -2.7599894    977.82499  0.092491959  0.093838262            1 
  882000    1.1251823   -2.7754599     980.2941   0.09262038  0.093822454            1 
  883000    1.0868007   -2.7652782    976.64157  0.092170779  0.093806824            2 
  884000    1.1099327   -2.7544607    984.88295  0.092843415  0.093791241            3 
  885000     1.095416   -2.7902178    982.29451  0.092494775  0.093775226            2 
  886000     1.108882   -2.7431058    984.23637  0.092573022  0.093759567            1 
  887000    1.1149463   -2.8414502    985.90941  0.092625837  0.093744344            2 
  888000    1.0964179   -2.7880532    983.59289  0.092304137  0.093728978            2 
  889000    1.0935909   -2.8068102    978.71615  0.091743171  0.093712536            2 
  890000    1.1042635   -2.7764744    988.91572  0.092595105  0.093697163            2 
  891000    1.1332927   -2.7967646    986.19506  0.092236725  0.093682138            2 
  892000    1.0866569    -2.803893    991.66811  0.092644629  0.093667424            2 
  893000    1.1319977   -2.7720882    992.85172  0.092651336  0.093653568            1 
  894000    1.1124171   -2.7767264    996.43927  0.092882109  0.093639399            1 
  895000    1.0879003   -2.7839059    994.00393  0.092551576  0.093626478            2 
  896000    1.1312371   -2.7795554    997.69833  0.092791884   0.09361392            2 
  897000    1.0919819   -2.7998076    998.39657  0.092753304  0.093601907            2 
  898000     1.089373   -2.7958139    997.59321  0.092575465  0.093589138            4 
  899000    1.1014871   -2.7933422    996.61714  0.092382011  0.093576502            3 
  900000    1.1150598   -2.8130326    1001.0714    0.0926918  0.093563417            3 
  901000    1.0837023   -2.7865589    1003.8521  0.092846104  0.093551385            1 
  902000    1.1029432   -2.8087701    1001.5515  0.092530628  0.093539574            1 
  903000    1.1167335   -2.7956402    1007.0324   0.09293396  0.093528026            2 
  904000    1.1107704   -2.7823857    1005.9768  0.092733852  0.093516224            2 
  905000    1.1060667    -2.789742    1008.4036  0.092854841  0.093504887            2 
  906000    1.1033537   -2.8058555    1007.3436  0.092654859  0.093494254            3 
  907000    1.1122633   -2.7897004    1008.8008  0.092686584  0.093483082            1 
  908000    1.0977256   -2.8068021    1010.2038  0.092713274  0.093471825            2 
  909000    1.1089986   -2.7887151    1007.2879  0.092343956  0.093459788            5 
  910000    1.1118753   -2.7937434    1014.2312  0.092878312  0.093447539            1 
  911000    1.0899256   -2.8024182    1012.0836  0.092579909  0.093435628            2 
  912000    1.1003173   -2.8090632    1012.3342  0.092501295  0.093423812            1 
  913000    1.1176699    -2.776787    1017.6584  0.092885943  0.093411927            2 
  914000    1.1190581   -2.8069215    1017.8688  0.092803506  0.093399759            3 
  915000    1.1144735   -2.7887621    1016.8361  0.092608024  0.093387621            2 
  916000    1.1393934   -2.7649452    1018.3023  0.092640313  0.093375107            1 
  917000    1.0895184   -2.7848022     1020.555  0.092743998  0.093363602            2 
  918000    1.0920784   -2.8173606    1015.2181  0.092158506  0.093351466            2 
  919000    1.0890197   -2.7736248    1020.7362  0.092558598  0.093339069            2 
  920000    1.1323322   -2.7674242    1016.9755  0.092117342  0.093326729            2 
  921000    1.0889001   -2.7605646    1028.0065  0.093015431  0.093314964            2 
  922000    1.0896028   -2.7904067    1021.3447  0.092312429  0.093303147            3 
  923000    1.1152919   -2.7843822    1024.1025  0.092461404  0.093290724            2 
  924000    1.1184591   -2.8078864    1027.4673  0.092664797  0.093277944            4 
  925000    1.1016767   -2.7663425    1032.3779  0.093007019  0.093266287            1 
  926000    1.1119746   -2.8230728    1028.7043  0.092575984  0.093253546            1 
  927000    1.1254963   -2.8111132    1030.0305  0.092595338  0.093241472            5 
  928000    1.1216786   -2.7970768    1030.3412  0.092523451  0.093229108            3 
  929000    1.1091249   -2.8076265    1028.6441   0.09227163  0.093217377            2 
  930000    1.1073125   -2.8023472    1028.4848  0.092158134  0.093204584            5 
  931000    1.0925801    -2.795383    1036.0626  0.092737437  0.093192971            2 
  932000    1.1074545   -2.7807725    1039.4599  0.092941698  0.093181562            4 
  933000    1.0858603    -2.786608    1035.7833  0.092513692  0.093170272            2 
  934000    1.1069501   -2.8124505    1036.1034  0.092443198  0.093159565            2 
  935000    1.0705504   -2.7928165    1041.3681   0.09281356  0.093149057            1 
  936000    1.1047594   -2.7606172    1042.0905  0.092778716  0.093138821            1 
  937000     1.110414   -2.7611343    1042.3809  0.092705519  0.093128127            2 
  938000    1.1067489   -2.8025887    1037.2496  0.092150816  0.093117899            2 
  939000    1.0979419   -2.7827707    1045.4708  0.092782284   0.09310654            1 
  940000    1.0918749   -2.7842601    1042.5608  0.092425605  0.093095693            1 
  941000    1.1023113   -2.7941893    1044.3412  0.092485054  0.093084589            1 
  942000    1.1112099   -2.7874773    1043.0619  0.092273696  0.093073528            2 
  943000    1.0748646   -2.8330042    1042.6119  0.092136082  0.093061839            2 
  944000    1.0949349   -2.7991089    1044.6972  0.092222568  0.093050532            2 
  945000    1.1100339   -2.8086154    1042.5893   0.09193909  0.093037684            4 
  946000    1.1455872   -2.7948411    1047.6966  0.092291805  0.093025347            1 
  947000    1.1007024   -2.7845633    1050.4719  0.092438565  0.093013074            5 
  948000    1.0984852   -2.8010317    1048.5204  0.092169517  0.093001034            2 
  949000    1.0617649    -2.814169    1053.2854  0.092490811  0.092989389            3 
  950000    1.1014634   -2.7620169    1054.8951  0.092534654  0.092977679            1 
  951000    1.1161701   -2.8016145    1055.0854  0.092454033  0.092966693            1 
  952000    1.0999752   -2.8184995     1054.562  0.092311099   0.09295521            1 
  953000    1.1228409   -2.8227993    1056.4326  0.092377809  0.092943421            4 
  954000    1.0885415   -2.7861908    1056.5372   0.09229011   0.09293185            2 
  955000    1.0960115   -2.8170378    1059.3252  0.092436756  0.092920846            2 
  956000    1.1184724   -2.7894931    1062.3601  0.092604614  0.092910123            2 
  957000     1.103235   -2.8398435    1062.5536  0.092524691  0.092900199            4 
  958000    1.0991271   -2.7722709    1065.1187  0.092651244  0.092890659            4 
  959000    1.0681338   -2.7931325    1064.4947  0.092500409  0.092880719            1 
  960000    1.0958536   -2.7857793    1065.2414  0.092468875  0.092870014            1 
  961000    1.1169465   -2.7924884    1063.7513  0.092243434   0.09286044            1 
  962000    1.1015221   -2.8070015    1064.9786  0.092253863  0.092850813            1 
  963000    1.1015056   -2.7936794    1065.4584  0.092199584  0.092840535            2 
  964000     1.096892   -2.8053755    1067.7342  0.092300672  0.092829796            7 
  965000     1.093021   -2.8210743    1067.9098   0.09222019  0.092819725            1 
  966000    1.0912992   -2.7871942    1068.0083  0.092133225  0.092809508            1 
  967000    1.1104615   -2.7874129    1073.5392  0.092514582  0.092799786            2 
  968000    1.0832696   -2.8119508     1069.991  0.092113552  0.092790207            2 
  969000    1.0823264   -2.8079925    1073.6378  0.092332109  0.092780525            4 
  970000    1.0705512   -2.7767942    1081.0839  0.092876622  0.092771698            3 
  971000    1.0828841   -2.7851057     1080.479  0.092729059  0.092762833            2 
  972000    1.0963362   -2.8165166    1082.7479  0.092828177    0.0927539            1 
  973000    1.1085881   -2.8166665    1075.5613  0.092117278  0.092744738            2 
  974000     1.069288   -2.8274846     1079.119  0.092327089  0.092735679            1 
  975000    1.0978425   -2.7844562    1079.8074  0.092291234    0.0927272            2 
  976000    1.0979431   -2.8110312    1082.7558  0.092448408  0.092718426            2 
  977000    1.0772008   -2.8194788    1080.6978  0.092178251  0.092709864            3 
  978000    1.1002336   -2.7995658    1089.4249  0.092827617  0.092701521            1 
  979000    1.0982095   -2.7731224    1089.8654  0.092770293  0.092693584            2 
  980000    1.0616636   -2.7803088    1090.6607  0.092743254  0.092686368            2 
  981000    1.0834908   -2.8085318    1090.2304  0.092612167  0.092677946            2 
  982000    1.0937778   -2.7938115    1092.3983  0.092701827  0.092668328            2 
  983000    1.0929283   -2.7866678    1091.7081  0.092549012  0.092660375            1 
  984000    1.0986448   -2.7918512     1094.757  0.092713161  0.092652271            2 
  985000    1.0980783   -2.8250422    1092.2884  0.092410187  0.092645404            2 
  986000    1.0938963   -2.8029151     1098.962  0.092880494  0.092636979            2 
  987000    1.1000527    -2.828376    1095.3551  0.092481855  0.092628906            2 
  988000    1.0904985   -2.8245488    1092.5063  0.092147967  0.092619861            4 
  989000    1.1142581   -2.8172785     1095.899  0.092340661  0.092610542            1 
  990000    1.0952963   -2.8091558    1099.4897  0.092549635  0.092601939            2 
  991000    1.0803168   -2.8188262    1093.7006  0.091969444  0.092592743            1 
  992000    1.0987269   -2.8023157    1099.5253  0.092366038  0.092583038            1 
  993000    1.0939467   -2.7810519    1099.3139   0.09225528  0.092574014            5 
  994000    1.1047466   -2.8025622    1104.0479  0.092559346  0.092564829            1 
  995000    1.0958497   -2.7951183    1100.4856  0.092167975  0.092556023            3 
  996000    1.0860003    -2.810336    1106.5254  0.092580774  0.092546758            3 
  997000    1.1122762   -2.8220284    1101.0226  0.092027971  0.092537322            1 
  998000     1.086106   -2.8166297    1098.3932  0.091716196  0.092527701            1 
  999000    1.1259179   -2.7641779    1105.2316  0.092194832  0.092518857            6 
 1000000    1.0817144   -2.8153629    1107.3644  0.092280367  0.092509245            3 
 1001000    1.0822826   -2.7627143    1108.6966  0.092299086  0.092500176            2 
 1002000    1.1266455   -2.7973132    1108.1753  0.092163615  0.092490493            2 
 1003000    1.0873286   -2.8285093    1112.0352  0.092392424  0.092479674            2 
 1004000    1.0961354   -2.8032405    1112.3912  0.092329944  0.092470488            2 
 1005000    1.0813056   -2.7704822    1110.0495  0.092043909  0.092461198            2 
 1006000    1.0862711   -2.7829371    1113.6146  0.092247733  0.092453153            2 
 1007000    1.1034733   -2.8022076    1116.3286  0.092380718   0.09244424            2 
 1008000    1.1064295   -2.8160583     1111.883  0.091921542  0.092434737            2 
 1009000    1.0379641   -2.7762552    1115.9906  0.092169691  0.092425766            2 
 1010000    1.1029022    -2.806663    1110.5099  0.091626226  0.092416451            2 
 1011000    1.1049475   -2.7838629    1118.3985   0.09218583  0.092406279            1 
 1012000    1.0907422   -2.7865098    1121.0166   0.09231033  0.092396953            1 
 1013000    1.0743566   -2.8109335    1113.6317  0.091611688  0.092387039            2 
 1014000     1.093666   -2.8199002    1119.0115   0.09196347  0.092377003            1 
 1015000     1.103914   -2.8158905    1120.3989   0.09198677  0.092366134            4 
 1016000    1.0853805   -2.7906697    1122.1035  0.092036044  0.092355899            2 
 1017000    1.0974511   -2.8143798    1120.3275  0.091800028  0.092345315            3 
 1018000    1.0666924   -2.7923294    1120.8613  0.091753541  0.092334443            2 
 1019000    1.0741235   -2.8061892    1120.7962  0.091658174  0.092323308            2 
 1020000    1.0617267   -2.8454419    1115.7859  0.091158981  0.092311937            2 
 1021000    1.0886807   -2.8176153    1127.8195  0.092051866  0.092299788            2 
 1022000    1.1256371   -2.8070921    1124.0439  0.091653939  0.092288711            2 
 1023000    1.0768092   -2.8179422    1127.7436  0.091865722  0.092276979            1 
 1024000    1.1113911   -2.8296205    1125.2484   0.09157295  0.092265276            1 
 1025000    1.0888357   -2.8395372    1126.9304  0.091620359  0.092252782            4 
 1026000    1.0954963    -2.833933     1125.684  0.091429825    0.0922404            2 
 1027000    1.0880178   -2.7929734     1130.177  0.091705374  0.092228806            3 
 1028000    1.1047694   -2.7902581    1128.9202  0.091514282  0.092217313            2 
 1029000    1.0888658   -2.8469199    1132.9095  0.091748424  0.092205637            3 
 1030000    1.0928089   -2.8202915    1133.2443  0.091686434  0.092194387            2 
 1031000    1.0923872   -2.7892451    1135.0882  0.091746537  0.092183725            2 
 1032000     1.075047   -2.8240129    1133.0792  0.091495409  0.092172039            2 
 1033000    1.0888671   -2.8141085    1134.8592  0.091550436  0.092161504            2 
 1034000    1.0715962   -2.8159303    1137.6901  0.091690048  0.092150002            2 
 1035000    1.0738345    -2.827298    1135.0287  0.091387177  0.092138504            2 
 1036000    1.0824003   -2.7821263    1141.0446  0.091782867  0.092126774            2 
 1037000     1.097689   -2.8110815     1139.573    0.0915761  0.092114724            4 
 1038000    1.0944382    -2.804736    1144.1654  0.091856569  0.092102642            2 
 1039000    1.0951826   -2.7832381    1139.2786  0.091376213  0.092091437            3 
 1040000    1.0767661   -2.8078298     1139.081   0.09127252  0.092079455            1 
 1041000    1.0625844   -2.8298295    1143.1755  0.091512607  0.092067335            3 
 1042000    1.1175242   -2.8252894    1145.5053  0.091611107  0.092055527            1 
 1043000    1.0896358   -2.8022782    1146.6349  0.091613524  0.092044282            3 
 1044000    1.0839476   -2.8051209    1148.3508  0.091662739   0.09203365            3 
 1045000    1.1163494   -2.7946778    1150.6729  0.091760198  0.092022805            3 
 1046000    1.0752096   -2.8284113    1143.8526  0.091129113  0.092011652            2 
 1047000    1.1031366    -2.811316    1148.8898  0.091442995   0.09200011            1 
 1048000    1.1119689   -2.8167302     1149.744  0.091423662  0.091988535            4 
 1049000    1.0783033    -2.812045    1150.4087  0.091389312  0.091977716            3 
 1050000     1.100286   -2.8206601     1154.093  0.091594686  0.091966389            2 
 1051000     1.066652   -2.8263957    1156.0223  0.091660508  0.091955877            2 
 1052000    1.0739275   -2.7875079     1152.029  0.091257049  0.091945673            2 
 1053000    1.0643743   -2.7916544    1158.7397   0.09170146  0.091935071            1 
 1054000    1.1047193   -2.7893888    1160.1889  0.091729039  0.091925323            6 
 1055000    1.0998958   -2.8141875    1155.9241  0.091305223  0.091914968            3 
 1056000    1.0993495    -2.802622    1162.0844  0.091704892  0.091904412            3 
 1057000    1.0885183   -2.8360201    1159.2848  0.091397417  0.091895303            4 
 1058000    1.0562692   -2.8381354    1154.2547  0.090914828  0.091884037            5 
 1059000    1.1041627   -2.8331094    1155.0544   0.09089191  0.091872643            2 
 1060000    1.0996634   -2.8335668    1159.5026  0.091155862  0.091861057            1 
 1061000    1.0784134   -2.8172412    1163.5315  0.091386389  0.091849644            2 
 1062000    1.0874758   -2.7910664    1167.5976  0.091619393  0.091838061            1 
 1063000    1.0832982    -2.820593    1164.5069  0.091290914  0.091825944            2 
 1064000     1.039829   -2.8334964    1163.8792  0.091155951  0.091814337            2 
 1065000    1.0761512   -2.8229044    1167.0913  0.091321694  0.091802839            2 
 1066000     1.065502   -2.8006059    1165.7437   0.09113068  0.091791551            2 
 1067000    1.0826642   -2.8129666    1169.7604  0.091358983  0.091780398            4 
 1068000    1.0953418   -2.8042261    1171.7882   0.09143166  0.091769198            3 
 1069000    1.0852208   -2.8053449    1172.7519  0.091421258  0.091757808            2 
 1070000    1.0839172   -2.7788366    1168.0164  0.090967009  0.091746022            2 
 1071000    1.0766796   -2.7962977    1169.6837  0.091011807  0.091734651            2 
 1072000    1.1061806   -2.7902326    1169.1336  0.090884138  0.091722387            5 
 1073000    1.0735758   -2.8212246    1170.4375  0.090900705   0.09171048            5 
 1074000    1.0831195   -2.8057421    1174.8114  0.091155445  0.091698274            2 
 1075000    1.0746067   -2.8466281    1171.2066  0.090791207  0.091686288            1 
 1076000    1.1077331   -2.8212148    1173.3756  0.090874816  0.091673208            2 
 1077000    1.0719715   -2.8006977     1171.655  0.090657306  0.091659894            1 
 1078000     1.078758   -2.8303196    1172.3315  0.090625501  0.091646652            2 
 1079000    1.0626011   -2.8282322    1175.0092  0.090748317  0.091633403            3 
 1080000    1.0816327   -2.8155652    1172.8703  0.090499249  0.091620333            2 
 1081000    1.1119966    -2.831129    1179.8428  0.090953038  0.091607495            4 
 1082000    1.0819272   -2.8185377    1180.1435  0.090892138  0.091594912            2 
 1083000    1.0883201   -2.8323733    1180.0152  0.090798335  0.091581773            1 
 1084000    1.0721487     -2.80222    1179.7709  0.090695794  0.091568619            2 
 1085000    1.0602934   -2.8066815    1181.9764  0.090781598  0.091555738            2 
 1086000     1.085988   -2.7814351    1185.3973  0.090960506   0.09154315            2 
 1087000    1.0778124   -2.8295005    1180.2998  0.090486035  0.091530251            2 
 1088000    1.0670162   -2.8339675    1182.0455  0.090536571  0.091516884            2 
 1089000    1.0880958   -2.8090639    1181.5623  0.090416459  0.091503917            1 
 1090000    1.0933637   -2.8197939    1183.8704  0.090509969  0.091491074            2 
 1091000     1.077939    -2.837542    1182.1799  0.090297884  0.091477462            1 
 1092000    1.0579262   -2.8357007    1184.5078   0.09039284  0.091463899            1 
 1093000    1.0819765   -2.8084715    1188.0276  0.090578496  0.091449652            2 
 1094000    1.0970995   -2.8179025     1187.867  0.090483468  0.091435848            3 
 1095000    1.0558264   -2.8107806    1187.6896  0.090387337  0.091421718            2 
 1096000    1.0474517   -2.8111157    1192.4889  0.090669778  0.091407322            2 
 1097000    1.0740796     -2.81656    1189.8233   0.09038463  0.091393623            1 
 1098000    1.1092852   -2.8222645    1188.2906  0.090185991  0.091379198            2 
 1099000    1.0741019   -2.8375448     1188.971  0.090155521    0.0913647            3 
 1100000    1.0799884   -2.8344542    1188.1633  0.090012368  0.091349294            1 
 1101000    1.0778968   -2.7991219    1194.4987  0.090410135  0.091335262            3 
 1102000    1.0498045   -2.8265617    1192.5056  0.090177372  0.091320591            1 
 1103000    1.0591021   -2.7994721    1194.2349  0.090226266  0.091305937            1 
 1104000    1.0895255    -2.832196    1194.1749  0.090140014  0.091291165            3 
 1105000     1.106672   -2.8326098    1191.3758  0.089847344  0.091276338            2 
 1106000    1.0884523   -2.7977257    1201.6909  0.090543317  0.091261607            3 
 1107000    1.0761666   -2.8383486    1193.6864  0.089858961  0.091246032            2 
 1108000    1.0690903   -2.8410945    1194.0343  0.089804025  0.091231277            2 
 1109000    1.0672838   -2.8373361    1199.5177  0.090135087  0.091215799            4 
 1110000    1.0923815   -2.8151114    1198.2242  0.089956771  0.091200804            2 
 1111000    1.0604642   -2.8439637    1200.9426  0.090079704  0.091185573            1 
 1112000    1.0953991   -2.8343746    1197.8222  0.089764856  0.091169228            4 
 1113000    1.0771254   -2.8152119    1193.9547  0.089394635  0.091152509            2 
 1114000    1.0665722   -2.8163347    1195.6307  0.089439757  0.091135544            2 
 1115000    1.0682165   -2.8049921    1201.9093  0.089828798  0.091119114            5 
 1116000     1.090148    -2.848491    1203.4944  0.089866668  0.091103051            1 
 1117000    1.0739248   -2.8518531    1200.8831  0.089591395  0.091086645            1 
 1118000    1.0877448   -2.8071714    1204.6588  0.089792698  0.091070777            2 
 1119000    1.0766288   -2.8243226    1200.1837  0.089379183  0.091055156            2 
 1120000    1.0800647   -2.8010723    1204.2236  0.089599974   0.09103959            1 
 1121000    1.0922811   -2.8068803    1201.9057  0.089347731  0.091024048            1 
 1122000    1.0752477   -2.8436552     1208.998   0.08979486    0.0910082            2 
 1123000    1.0727247   -2.8413373     1205.483  0.089454065  0.090992142            2 
 1124000    1.0673832    -2.806769    1209.7347  0.089689705  0.090975816            3 
 1125000    1.0594697   -2.8403897    1207.0343  0.089409951  0.090960092            1 
 1126000    1.0504611   -2.8484325    1218.8101  0.090202053  0.090944229            5 
 1127000    1.0964863   -2.8225845    1210.2667  0.089490294   0.09092894            2 
 1128000    1.0839545   -2.8468469    1215.0683  0.089765682  0.090913335            3 
 1129000    1.0668629   -2.8262052    1214.8728  0.089671746  0.090898668            2 
 1130000    1.0686077   -2.8218627    1218.7646  0.089879398   0.09088384            1 
 1131000    1.0574674   -2.7993609    1221.9159  0.090032118  0.090868104            1 
 1132000     1.079373   -2.8436762    1221.3317   0.08990958  0.090853613            2 
 1133000     1.081214   -2.8223917    1222.5095  0.089916848  0.090839675            1 
 1134000     1.063865   -2.8430549    1220.3726  0.089680524  0.090825441            4 
 1135000     1.083754   -2.8124797    1225.6255   0.08998719  0.090811572            3 
 1136000      1.07322   -2.8001007     1224.691  0.089839425   0.09079698            2 
 1137000    1.0637507   -2.8375497    1226.1247  0.089865485   0.09078276            5 
 1138000    1.0596882    -2.846383    1225.2575  0.089723013  0.090768267            3 
 1139000    1.0690945   -2.8258793    1222.6469  0.089453244  0.090754473            1 
 1140000    1.0836877   -2.8541833    1226.2293  0.089636646  0.090739647            2 
 1141000    1.0643664   -2.8295399    1232.2731  0.089999497  0.090725989            4 
 1142000    1.0491992   -2.8455171    1228.8335  0.089669694  0.090711688            1 
 1143000    1.0597175   -2.8464091    1229.7311  0.089656687  0.090697329            3 
 1144000     1.091394   -2.8460876    1229.3476  0.089550379  0.090682931            3 
 1145000    1.0804189   -2.8147925    1233.8436  0.089799392  0.090668665            2 
 1146000    1.0622912   -2.7944996     1236.275  0.089897835  0.090654926            2 
 1147000    1.0549724   -2.8614511    1232.8279  0.089569015  0.090640327            2 
 1148000     1.094492   -2.8203419    1233.1605  0.089515132  0.090625617            2 
 1149000    1.0569424   -2.8520315    1229.7302  0.089188442  0.090610628            3 
 1150000    1.0646052   -2.8383189    1240.9293  0.089922415  0.090596362            2 
 1151000    1.0717038   -2.8267258    1239.1709   0.08971698  0.090582002            3 
 1152000    1.0621146    -2.815281    1238.7877  0.089611379  0.090567568            2 
 1153000     1.086267   -2.8151738    1240.9088  0.089686963  0.090553213            4 
 1154000    1.0655261   -2.8074788     1237.114  0.089335211   0.09053875            1 
 1155000    1.0754037   -2.8252064    1238.9646  0.089391385  0.090523938            2 
 1156000    1.0476381   -2.7978617    1244.3608  0.089703054    0.0905099            4 
 1157000    1.0747729   -2.8547913    1241.2904  0.089404378  0.090495991            5 
 1158000    1.0606199   -2.8783478    1234.8627  0.088864616   0.09048136            3 
 1159000    1.0678485   -2.8645763    1247.1807  0.089673618   0.09046634            2 
 1160000    1.0432426   -2.8540614    1240.6358  0.089126136   0.09045132            2 
 1161000    1.0688477   -2.8429264    1248.4775  0.089612223  0.090435789            1 
 1162000    1.0996802   -2.8165879    1247.8993  0.089493641  0.090421194            2 
 1163000     1.075691   -2.8647967    1248.3377  0.089448102  0.090406068            3 
 1164000    1.0466918   -2.8193349    1245.9023  0.089196898  0.090390602            3 
 1165000    1.0834497   -2.8483747    1241.0998  0.088776807  0.090374257            1 
 1166000    1.0691629   -2.8359819    1244.0202  0.088909394  0.090358266            7 
 1167000    1.0841017   -2.8367186    1250.0733  0.089265443  0.090342729            2 
 1168000    1.0364729   -2.8235144    1251.2227  0.089271024  0.090326544            3 
 1169000    1.0428153   -2.8216388    1252.0241  0.089251792   0.09031041            2 
 1170000    1.0586065   -2.8332755    1252.4075   0.08920281  0.090294894            2 
 1171000    1.0653249   -2.8566707    1255.6484  0.089357276  0.090278937            2 
 1172000    1.0660345   -2.8207866    1249.5141   0.08884486  0.090263097            3 
 1173000    1.0548584   -2.8426127    1255.3588  0.089184339  0.090247144            1 
 1174000    1.0674276   -2.8530427    1257.6941  0.089274142  0.090230718            1 
 1175000    1.0506649   -2.8417719     1254.396  0.088964253  0.090215072            3 
 1176000    1.0537352   -2.8420277    1250.5413  0.088615453  0.090200059            2 
 1177000     1.053878   -2.8657098    1259.7927  0.089195181  0.090184651            2 
 1178000    1.0483613   -2.8125011    1257.5046  0.088957596  0.090169368            2 
 1179000    1.0622007   -2.8521154    1256.6987  0.088825184  0.090153337            4 
 1180000    1.0664604   -2.8359956    1261.8076  0.089110709  0.090137919            2 
 1181000    1.0790341    -2.844992    1257.9811  0.088765247  0.090121837            2 
 1182000    1.0753646   -2.8116983    1262.4223  0.089003261  0.090106743            2 
 1183000    1.0698013     -2.80539    1267.7147  0.089300836   0.09009204            1 
 1184000    1.0600597   -2.8443024    1266.3197  0.089127229  0.090077607            2 
 1185000    1.0791931   -2.8764505    1260.6004  0.088649815  0.090063034            3 
 1186000    1.0716994   -2.8653383    1267.9127  0.089088864  0.090048163            2 
 1187000    1.0532284    -2.874723    1265.1669  0.088821043   0.09003366            1 
 1188000    1.0609576   -2.8487178    1267.4192  0.088904263  0.090018446            2 
 1189000    1.0393384   -2.8392675    1272.8699  0.089211515  0.090003854            1 
 1190000    1.0890354   -2.8455173    1271.2681  0.089024374  0.089989392            1 
 1191000    1.0561665   -2.8338343    1272.6594  0.089046979  0.089975491            2 
 1192000    1.0513851   -2.8512364    1272.5124  0.088961997  0.089961669            2 
 1193000    1.0753254   -2.8383979    1280.7829  0.089465136   0.08994799            1 
 1194000    1.0569115   -2.8474783      1276.99   0.08912549  0.089935442            2 
 1195000    1.0630233   -2.8438271    1281.4613  0.089362713  0.089922809            1 
 1196000    1.0581723   -2.8422161    1280.1748  0.089198355  0.089909896            4 
 1197000    1.0679072   -2.8257518    1276.7685  0.088886697  0.089896348            4 
 1198000      1.07098   -2.8246758    1281.0838  0.089112677   0.08988263            3 
 1199000    1.0644594   -2.8280201    1279.6859  0.088941195  0.089869017            3 
 1200000     1.064167   -2.8310459    1280.7904  0.088943778  0.089855537            3 
 1201000    1.0462698   -2.8530908    1281.8222  0.088941316  0.089841206            2 
 1202000    1.0824581   -2.8375918    1283.0573  0.088952949  0.089827524            3 
 1203000     1.071927   -2.8563453    1281.9187  0.088800132  0.089814202            2 
 1204000     1.066364   -2.8432321    1288.3333  0.089170358  0.089800715            2 
 1205000    1.0759327   -2.8129181    1293.8656  0.089478949  0.089787636            3 
 1206000    1.0475852   -2.8157934    1289.0542   0.08907229   0.08977485            2 
 1207000     1.074456   -2.8571479      1285.75  0.088770368  0.089761787            3 
 1208000     1.067111   -2.8335065    1289.8157  0.088977354  0.089748491            1 
 1209000    1.0446877   -2.8458069    1288.2664  0.088796967  0.089734986            1 
 1210000    1.0492387   -2.8526574    1292.8641  0.089040224  0.089721756            2 
 1211000    1.0879483    -2.851669    1290.9384  0.088834184  0.089707962            5 
 1212000    1.0664601    -2.859457    1290.3685   0.08872171  0.089694237            2 
 1213000    1.0379915   -2.8493712    1288.8481   0.08854411  0.089680476            2 
 1214000    1.0736832   -2.8458451    1287.7613  0.088396578  0.089666554            2 
 1215000    1.0701681   -2.8634503    1294.8738  0.088811648  0.089652375            2 
 1216000    1.0774564   -2.8444643     1292.798  0.088596356  0.089638046            2 
 1217000    1.0467174   -2.8331805    1296.5203  0.088778439   0.08962337            4 
 1218000    1.0688568    -2.862423     1293.548  0.088502191  0.089609462            1 
 1219000    1.0702007   -2.8356998    1299.0986  0.088809041  0.089595572            1 
 1220000     1.055094   -2.8213546    1301.6758  0.088912281  0.089581703            1 
 1221000    1.0586284   -2.8697577    1295.7239  0.088433241  0.089567876            2 
 1222000    1.0639301   -2.8604568     1302.233  0.088804759  0.089554113            3 
 1223000     1.055681   -2.8507172    1302.8478  0.088774037  0.089540369            4 
 1224000    1.0668002    -2.826254    1305.6266  0.088890697   0.08952747            4 
 1225000    1.0377684   -2.8570597    1301.1552  0.088513957  0.089514018            1 
 1226000    1.0607132   -2.8534951    1306.7107  0.088819378  0.089500614            3 
 1227000      1.05123   -2.8344663    1309.2335  0.088918329  0.089488079            2 
 1228000     1.063593   -2.8478613    1302.3774  0.088380661  0.089474505            3 
 1229000    1.0689863   -2.8684024    1306.7871  0.088607749  0.089461038            2 
 1230000    1.0724357   -2.8518066    1303.2046  0.088292996  0.089447727            2 
 1231000    1.0248175   -2.8547915    1308.1829  0.088558278  0.089434252            1 
 1232000    1.0345602    -2.863837    1302.6174  0.088109944  0.089420068            2 
 1233000    1.0569471   -2.8532266    1307.3427  0.088357844  0.089406387            3 
 1234000     1.058342   -2.8527507      1314.69  0.088782413  0.089392361            2 
 1235000    1.0658142   -2.8337703    1312.8528  0.088586557  0.089378921            1 
 1236000    1.0506881   -2.8472469    1316.3288  0.088749244  0.089366019            4 
 1237000    1.0804186   -2.8452399    1314.3917  0.088547004  0.089352774            2 
 1238000     1.064021   -2.8401069    1312.6063  0.088355299  0.089339182            2 
 1239000    1.0399996   -2.8667944     1314.751  0.088428238  0.089325646            2 
 1240000    1.0486661    -2.847277    1316.6695  0.088485854  0.089312182            5 
 1241000    1.0410615    -2.841151    1313.7536  0.088218745  0.089298877            4 
 1242000    1.0481873   -2.8620361    1320.2299  0.088582254  0.089285939            2 
 1243000    1.0525093   -2.8775021    1319.7018  0.088475585  0.089272768            3 
 1244000    1.0438465   -2.8642999     1315.424  0.088117897  0.089259778            3 
 1245000    1.0330468   -2.8621391    1323.4591  0.088584946  0.089246661            1 
 1246000    1.0636679   -2.8586156    1324.2621  0.088567554  0.089233116            1 
 1247000    1.0371483   -2.8660909    1319.6042  0.088185256  0.089219273            2 
 1248000    1.0484398   -2.8596087    1330.0975  0.088815269  0.089205465            2 
 1249000     1.055371   -2.8586587    1324.4112  0.088364769  0.089191926            2 
 1250000    1.0457002   -2.8554288    1328.6907   0.08857938  0.089178633            2 
 1251000    1.0436426    -2.854448    1332.6205  0.088770353  0.089165002            2 
 1252000    1.0443671   -2.8552544    1329.3647  0.088482738  0.089151332            1 
 1253000    1.0482474    -2.840601    1326.1792  0.088200265  0.089137809            2 
 1254000    1.0620419   -2.8219544    1332.9805  0.088581908  0.089124273            4 
 1255000    1.0441549   -2.8342449    1331.4916  0.088412459  0.089110705            2 
 1256000    1.0535076   -2.8586549    1332.7253  0.088423917  0.089097296            5 
 1257000    1.0635582   -2.8150047    1337.2781  0.088655401  0.089084425            3 
 1258000    1.0244652   -2.8421404    1335.1583   0.08844451  0.089071371            2 
 1259000    1.0546193   -2.8475833    1335.4344  0.088392535  0.089058229            2 
 1260000    1.0426243   -2.8594731    1340.1284  0.088632832   0.08904456            1 
 1261000    1.0472255   -2.8307652    1336.9498  0.088352488   0.08903128            1 
 1262000    1.0628807   -2.8603944    1341.1214  0.088557936   0.08901786            3 
 1263000    1.0300755    -2.843669    1339.8923  0.088406725  0.089003763            3 
 1264000    1.0778756   -2.8502161    1337.9004  0.088205456  0.088990182            2 
 1265000    1.0149179   -2.8486249    1339.6204   0.08824904  0.088976022            2 
 1266000    1.0338681   -2.8520489    1343.2371  0.088417396  0.088962871            2 
 1267000    1.0320495   -2.8255942    1336.6232  0.087912601  0.088949474            2 
 1268000    1.0233739   -2.8802016     1342.472  0.088227657  0.088935886            2 
 1269000    1.0388983    -2.854354    1339.5341  0.087965201   0.08892209            2 
 1270000    1.0529053   -2.8386214    1342.4703  0.088088602  0.088907842            1 
 1271000    1.0390959   -2.8514857    1351.2268  0.088593419  0.088894204            1 
 1272000    1.0556872   -2.8808519      1342.64  0.087961213  0.088880521            2 
 1273000    1.0462876   -2.8518439    1348.7963  0.088295126  0.088866124            2 
 1274000    1.0400252    -2.849681    1346.8058  0.088095617  0.088851545            2 
 1275000    1.0216505    -2.874938    1342.9861  0.087776867  0.088838016            2 
 1276000    1.0516944   -2.8454545    1344.1053  0.087781174  0.088823413            1 
 1277000     1.051237    -2.872972    1348.4299  0.087994642   0.08880876            4 
 1278000    1.0353611    -2.845914    1352.6949  0.088203893  0.088794775            1 
 1279000    1.0375582   -2.8474338    1355.2598  0.088302043  0.088780997            3 
 1280000    1.0198309   -2.8650943    1354.6087  0.088190668  0.088767248            3 
 1281000    1.0620568   -2.8348189    1355.0739  0.088152085  0.088753128            3 
 1282000    1.0684942   -2.8293746    1352.1691   0.08789451  0.088738877            2 
 1283000     1.057637   -2.8533131    1350.6839  0.087729535  0.088724272            3 
 1284000    1.0209111   -2.8688772    1347.8787  0.087479145  0.088709521            2 
 1285000    1.0566972   -2.8744272    1349.4746  0.087514568  0.088695247            1 
 1286000    1.0402025    -2.880041    1350.6234  0.087520956  0.088680193            2 
 1287000    1.0595206    -2.847015    1354.7066  0.087717341  0.088665441            3 
 1288000    1.0733995   -2.8368873    1351.7407  0.087457345  0.088650768            2 
 1289000    1.0329841    -2.880659    1357.5448  0.087764728   0.08863596            1 
 1290000    1.0441435   -2.8638429    1359.3701  0.087814608  0.088621131            1 
 1291000    1.0208051     -2.86794    1357.1508  0.087603329  0.088606727            3 
 1292000    1.0471402   -2.8650288     1357.895  0.087583524  0.088591644            3 
 1293000    1.0507236   -2.8472019    1359.2208  0.087601239  0.088576759            4 
 1294000    1.0245047   -2.8544523    1361.0338  0.087650296   0.08856244            6 
 1295000    1.0518926   -2.8725987     1364.801  0.087825033  0.088548022            2 
 1296000    1.0360039   -2.8864102    1356.7191  0.087237596  0.088533183            2 
 1297000    1.0298577   -2.8508547    1365.0997  0.087708793   0.08851802            1 
 1298000    1.0288606   -2.8373582     1365.068  0.087639191  0.088502852            2 
 1299000    1.0437926   -2.8421838    1359.2937   0.08720129  0.088487681            2 
 1300000    1.0438852   -2.8787385    1363.9313  0.087431496  0.088472244            2 
 1301000    1.0375119   -2.8836962    1361.7948  0.087227438  0.088456453            5 
 1302000    1.0494577   -2.8484584    1369.4084  0.087647747  0.088441321            2 
 1303000    1.0366183   -2.8834834    1364.3929  0.087259712  0.088425532            2 
 1304000    1.0404156   -2.8309655    1367.6133  0.087398599  0.088410153            1 
 1305000     1.047363   -2.8774887    1366.4901  0.087259907  0.088395289            2 
 1306000    1.0411938   -2.8719005    1363.3962  0.086995675  0.088379572            1 
 1307000    1.0472872    -2.847678    1369.1915  0.087298619  0.088364572            2 
 1308000    1.0651763   -2.8643052      1372.36  0.087433743  0.088348549            2 
 1309000    1.0533847   -2.8505109    1367.8292  0.087078509  0.088333613            2 
 1310000    1.0507238   -2.9002128     1363.141  0.086713801  0.088318544            3 
 1311000    1.0481817   -2.8532606    1369.3891  0.087044822   0.08830308            1 
 1312000    1.0610254   -2.8664237    1373.9021  0.087265124   0.08828761            3 
 1313000    1.0387483   -2.8457192    1377.3675    0.0874186  0.088272241            2 
 1314000    1.0632325   -2.8426256    1381.4143  0.087608717  0.088257483            1 
 1315000     1.032612   -2.8614494    1372.2728  0.086962789  0.088242242            2 
 1316000    1.0316273   -2.8656737    1374.4608  0.087035259  0.088226406            3 
 1317000    1.0573721   -2.8736491     1376.198  0.087079093  0.088210426            2 
 1318000    1.0625786   -2.8871879    1373.1081  0.086817661  0.088194292            2 
 1319000    1.0497327   -2.8569587    1378.1753  0.087071983  0.088178277            4 
 1320000    1.0453255   -2.8756746    1376.8201  0.086920462  0.088162147            2 
 1321000    1.0272523   -2.8642784    1382.0018  0.087181543  0.088146915            4 
 1322000    1.0508935   -2.8567178    1378.1547  0.086873092  0.088130668            2 
 1323000    1.0323108   -2.8657894    1380.2447  0.086939071  0.088114708            1 
 1324000    1.0252641   -2.8943305    1373.7361  0.086463751  0.088098389            1 
 1325000    1.0424969   -2.8661543    1371.1256  0.086234313  0.088081749            3 
 1326000    1.0213709   -2.8615036    1378.1713   0.08661207  0.088064637            4 
 1327000    1.0501374   -2.8735409    1384.4379  0.086940335  0.088047784            1 
 1328000    1.0483179   -2.8563423    1384.8628   0.08690153  0.088031123            1 
 1329000    1.0150593   -2.8718035    1382.4736  0.086686328  0.088014055            3 
 1330000    1.0392126   -2.8766185    1381.6852  0.086571755  0.087996603            2 
 1331000    1.0200959   -2.8458546    1380.7122   0.08644579  0.087979391            5 
 1332000    1.0438844   -2.9070293    1380.1266  0.086344255  0.087962273            2 
 1333000    1.0446472   -2.8614072    1381.5928  0.086371145  0.087945549            3 
 1334000    1.0349886   -2.8635141    1385.0075   0.08651971  0.087928974            2 
 1335000    1.0337175    -2.845815    1385.1863  0.086466058  0.087912557            1 
 1336000    1.0338355   -2.8591009    1385.4943  0.086420553  0.087895954            4 
 1337000    1.0498329   -2.8938165    1392.0606  0.086765183   0.08787957            1 
 1338000    1.0201938   -2.9071329    1389.2983  0.086528297  0.087863036            5 
 1339000      1.02832   -2.8880459    1386.9738  0.086319008   0.08784652            2 
 1340000    1.0292343   -2.8379223    1394.5382  0.086725015  0.087829772            2 
 1341000    1.0329906   -2.8845465    1393.1322   0.08657297  0.087813228            2 
 1342000    1.0378465   -2.8867844     1392.782  0.086486712  0.087797276            4 
 1343000    1.0289581   -2.8607239    1401.9299  0.086989942  0.087781417            2 
 1344000    1.0484815   -2.8947697    1394.8652  0.086487178  0.087765412            2 
 1345000    1.0411073    -2.886045    1395.6897  0.086473959  0.087748442            5 
 1346000    1.0496238   -2.8810425    1393.1527  0.086252646  0.087732526            1 
 1347000    1.0470145   -2.8555786    1394.1389  0.086249623  0.087716334            1 
 1348000    1.0514281   -2.8622517    1395.6339  0.086278058   0.08770028            3 
 1349000    1.0346465   -2.8564624    1402.5359  0.086640466  0.087684008            2 
 1350000    1.0467155   -2.8737843    1399.9602  0.086417295  0.087668442            2 
 1351000    1.0507264   -2.8824597    1399.4073  0.086319226  0.087652014            5 
 1352000    1.0178338   -2.8648817    1399.6614  0.086271041  0.087636171            2 
 1353000    1.0364772   -2.8714905    1400.7909  0.086276846  0.087620053            3 
 1354000    1.0378112   -2.8684208    1405.8636   0.08652533  0.087604264            4 
 1355000    1.0417779     -2.89935    1399.3917  0.086063449  0.087588776            5 
 1356000    1.0593537   -2.9015045    1402.0774  0.086165034  0.087572868            2 
 1357000    1.0160636   -2.8974747    1401.4884  0.086065363  0.087557093            1 
 1358000    1.0336085   -2.8820868    1411.2328   0.08659995  0.087541137            2 
 1359000    1.0394814   -2.8864566    1405.3815  0.086177428  0.087524856            2 
 1360000    1.0343086   -2.8818328    1410.6393  0.086436229  0.087508659            3 
 1361000    1.0332805     -2.87562    1407.3133  0.086169076   0.08749207            1 
 1362000     1.040206   -2.8900941    1404.5226  0.085935057  0.087475231            3 
 1363000    1.0338389   -2.8622837    1415.3627  0.086534773    0.0874578            2 
 1364000    1.0357884   -2.8783498    1408.0599  0.086025162  0.087441275            1 
 1365000    1.0349185   -2.8911209    1409.4599  0.086047612  0.087423929            2 
 1366000    1.0222047   -2.8733673    1410.1388  0.086026039  0.087406791            3 
 1367000    1.0368003   -2.8936332    1413.2433  0.086152359  0.087389448            1 
 1368000     1.039384   -2.8782248    1406.8694  0.085701106  0.087372776            6 
 1369000    1.0502761   -2.8843008    1417.7811  0.086302718    0.0873559            3 
 1370000    1.0318988    -2.870997    1415.0307  0.086072424  0.087338688            3 
 1371000    1.0279645   -2.8851317    1417.5043  0.086160002  0.087322257            7 
 1372000    1.0309769   -2.9066266     1413.646  0.085862852  0.087305584            2 
 1373000    1.0492286   -2.8927505    1425.4851  0.086518882  0.087289353            2 
 1374000    1.0256736   -2.8904474    1417.3346  0.085961587  0.087272676            2 
 1375000    1.0249488   -2.8836211    1416.5099  0.085849086  0.087256037            3 
 1376000    1.0401718   -2.8586009    1419.4421  0.085964273  0.087238977            3 
 1377000    1.0309376   -2.8524024    1427.3634  0.086381228  0.087222324            2 
 1378000    1.0242932   -2.9043463    1420.2717  0.085889674  0.087205654            2 
 1379000    1.0273488   -2.8567999    1418.3092  0.085708801  0.087188634            3 
 1380000    1.0218152   -2.8756502    1421.7521  0.085854596  0.087171395            2 
 1381000    1.0293256   -2.8676952    1418.3891  0.085589496  0.087154526            2 
 1382000    1.0347238   -2.8840374      1421.53  0.085716958  0.087137458            4 
 1383000     1.050954   -2.8951526    1414.5478  0.085234264  0.087120036            3 
 1384000    1.0111543   -2.8668953    1418.9692  0.085438895  0.087102551            2 
 1385000    1.0291807   -2.8537409    1424.8393    0.0857304  0.087084969            3 
 1386000    1.0351126   -2.9020138    1420.7124  0.085420421  0.087067073            3 
 1387000    1.0497179   -2.8909867    1425.7603  0.085662119  0.087049047            2 
 1388000     1.043997   -2.9039994     1421.726  0.085358192    0.0870316            4 
 1389000    1.0476884   -2.8921244    1429.2697  0.085749319   0.08701426            1 
 1390000    1.0148507    -2.869686    1429.8923  0.085724961   0.08699755            2 
 1391000    1.0464965   -2.8684073    1428.4902  0.085579334  0.086980507            1 
 1392000    1.0007508   -2.8918997    1436.8333  0.086017319  0.086963878            2 
 1393000    1.0237505   -2.8655261    1431.6415   0.08564498  0.086946915            4 
 1394000    1.0172541   -2.8611741    1430.9128  0.085539981  0.086929791            2 
 1395000    1.0485327   -2.8937335    1427.0999   0.08525089    0.0869127            1 
 1396000    1.0506416   -2.8785535     1429.032  0.085305159  0.086895462            3 
 1397000    1.0442716   -2.8979285    1425.5278  0.085035066  0.086878083            3 
 1398000    1.0587561   -2.8949712    1432.7303  0.085403571  0.086861304            2 
 1399000    1.0180376   -2.8942558    1430.5189    0.0852108  0.086843962            4 
 1400000    1.0543146   -2.8734948     1434.044  0.085359764  0.086826654            2 
 1401000    1.0075498   -2.8712749    1439.1423  0.085602089  0.086809321            2 
 1402000    1.0267758   -2.8881739    1439.2744  0.085548884  0.086792286            2 
 1403000    1.0441963   -2.8879875     1437.157  0.085362141  0.086775141            3 
 1404000    1.0504161   -2.9005734    1441.1692  0.085539482   0.08675868            2 
 1405000    1.0230709   -2.8709753    1441.8007  0.085516053  0.086741944            2 
 1406000    1.0440578   -2.8796596    1446.4522  0.085730927  0.086725878            2 
 1407000    1.0219924   -2.8643196    1443.4972  0.085494978  0.086709173            2 
 1408000    1.0333831   -2.8726547    1444.4479  0.085490525  0.086693047            3 
 1409000     1.030426   -2.8808467    1446.7195  0.085564199  0.086676932            2 
 1410000   0.99323168   -2.8768032    1444.3991  0.085366378  0.086660393            2 
 1411000      1.01574   -2.8798838    1448.4949  0.085547771  0.086644096            2 
 1412000    1.0375368   -2.8753431    1452.0776  0.085698631  0.086627655            3 
 1413000    1.0483286   -2.8929959    1448.5942  0.085432542   0.08661148            4 
 1414000    1.0055859   -2.8950099    1452.5255  0.085603812  0.086594918            5 
 1415000    1.0540709   -2.8953398    1449.1486  0.085344439  0.086578511            2 
 1416000    1.0267945    -2.908852     1452.738  0.085495413  0.086562166            3 
 1417000    1.0291674   -2.8874649    1455.2286  0.085581548   0.08654583            3 
 1418000    1.0227995   -2.8774677    1456.5638  0.085599657  0.086530018            3 
 1419000    1.0086807   -2.9036759    1454.2845  0.085405477   0.08651475            2 
 1420000    1.0255885    -2.884402    1450.8088  0.085141359  0.086499104            3 
 1421000    1.0325865   -2.9019241    1454.6501  0.085306715  0.086483637            2 
 1422000    1.0261198   -2.8672572    1456.6271   0.08536258  0.086468186            4 
 1423000    1.0139743   -2.8845167    1457.6905   0.08536487  0.086452762            3 
 1424000    1.0388818   -2.9008377    1459.3315  0.085400956  0.086437379            3 
 1425000    1.0188715   -2.8941046    1461.5898  0.085473088  0.086421587            7 
 1426000    1.0170353   -2.8899441    1466.3316   0.08569025  0.086406371            1 
 1427000    1.0270578   -2.8437513    1464.6464  0.085531794  0.086390788            1 
 1428000    1.0366444    -2.903471    1458.8226  0.085132039  0.086374905            2 
 1429000    1.0225073    -2.891158    1456.6821  0.084947639  0.086358831            2 
 1430000    1.0242563   -2.8898766    1466.6847  0.085471135   0.08634242            1 
 1431000    1.0092551    -2.904188    1465.5504  0.085345355  0.086326237            2 
 1432000   0.99009431   -2.8693002    1460.6592   0.08500112  0.086309962            2 
 1433000    1.0310376   -2.8956657    1465.6954  0.085234669  0.086294002            1 
 1434000    1.0448797   -2.9059183    1469.6176  0.085403159  0.086277839            2 
 1435000    1.0318964   -2.8909458      1466.62  0.085169572  0.086261777            2 
 1436000    1.0294279   -2.8897385    1468.2064  0.085202321  0.086245738            3 
 1437000    1.0202262   -2.8699349    1468.1139  0.085137663  0.086229668            4 
 1438000    1.0097657   -2.8794756    1468.9452  0.085126633  0.086213681            3 
 1439000    1.0245071   -2.8990479    1474.9278  0.085413936  0.086197291            4 
 1440000     1.016891   -2.8853861    1466.1723  0.084847936   0.08618037            1 
 1441000    1.0281755   -2.9204706    1463.2048  0.084617439  0.086163549            3 
 1442000    1.0333623   -2.9092856     1473.065  0.085128585  0.086147206            2 
 1443000    1.0368284   -2.8906505    1474.7168   0.08516498  0.086130637            2 
 1444000    1.0355096   -2.8865597    1471.2591  0.084906458  0.086114045            3 
 1445000    1.0415655   -2.9019446     1470.473  0.084802362  0.086097614            1 
 1446000    1.0092095   -2.9009285     1469.669  0.084697386  0.086081448            3 
 1447000    1.0183086   -2.9227696    1476.2504  0.085017875  0.086064874            3 
 1448000    1.0112433   -2.8977028    1473.1933  0.084783224  0.086048523            3 
 1449000    1.0332703   -2.9307279    1476.3589  0.084906771  0.086031553            1 
 1450000    1.0369566   -2.8981998    1472.3478  0.084617689  0.086014902            4 
 1451000    1.0273434   -2.8953867    1473.2887  0.084613409  0.085998245            4 
 1452000     1.016825   -2.9009597    1479.7623   0.08492667  0.085981794            3 
 1453000    1.0247057   -2.8915246    1480.4771  0.084909215  0.085965367            2 
 1454000    1.0099547   -2.9036654    1478.9506   0.08476333  0.085949137            3 
 1455000    1.0079578    -2.923754    1476.8096  0.084582453  0.085932593            4 
 1456000    1.0277339   -2.8934366    1483.9667  0.084933992  0.085916199            4 
 1457000    1.0246409    -2.899433    1481.9906  0.084762675  0.085900061            4 
 1458000    1.0052355    -2.888235    1489.0976  0.085110745  0.085884269            3 
 1459000    1.0401877    -2.909497    1484.2942  0.084778057   0.08586772            2 
 1460000   0.99860488   -2.8735163    1485.1214  0.084767203  0.085851237            4 
 1461000    1.0060729   -2.8997919    1482.6314  0.084567159  0.085834993            2 
 1462000    1.0086505   -2.9123751    1479.6873    0.0843415   0.08581854            2 
 1463000     1.014753   -2.8985903     1488.182  0.084767713   0.08580254            2 
 1464000    1.0306875   -2.9114504    1485.8817  0.084578875  0.085786442            5 
 1465000    1.0032486   -2.8944612    1482.2745  0.084315956  0.085770785            2 
 1466000    1.0075511   -2.8727718     1490.697   0.08473721  0.085755291            4 
 1467000    1.0151933    -2.929891    1486.2309   0.08442575  0.085739333            2 
 1468000   0.99917083   -2.9091856    1488.5395  0.084499291  0.085723085            3 
 1469000    1.0178683   -2.8950145    1495.4872  0.084835899  0.085706947            2 
 1470000    1.0101185    -2.865546    1491.1631  0.084533055  0.085690766            2 
 1471000    1.0350361    -2.899012    1495.7058  0.084732937  0.085674447            2 
 1472000    1.0061148   -2.8671613    1494.1905  0.084589589  0.085658997            2 
 1473000    1.0260024    -2.897817    1490.9275  0.084347563  0.085642943            3 
 1474000     1.008985   -2.8822844    1501.2286  0.084872715  0.085626814            2 
 1475000     1.025703    -2.882002    1503.9032  0.084966285  0.085610549            3 
 1476000    1.0280399   -2.9001273    1492.2535   0.08425099  0.085594566            1 
 1477000    1.0097346   -2.9007337     1497.275   0.08447726  0.085578066            2 
 1478000    1.0145744    -2.878925     1505.205  0.084867216  0.085561689            3 
 1479000    1.0368031   -2.9370371    1499.0177  0.084461215  0.085545037            2 
 1480000    1.0166489    -2.894035    1506.8661  0.084846065  0.085529188            1 
 1481000    1.0240939    -2.921592    1503.4423  0.084596125  0.085513395            5 
 1482000    1.0363488   -2.8804537    1505.6977  0.084665861  0.085497385            2 
 1483000     1.020163   -2.8815669    1507.5352  0.084712025  0.085481669            2 
 1484000    1.0196197   -2.9013785    1503.2404   0.08441377  0.085466181            3 
 1485000    1.0215114   -2.9061535    1503.7765  0.084387011  0.085450267            3 
 1486000   0.99058254   -2.8845047    1502.5022   0.08425876  0.085434253            2 
 1487000    1.0166912   -2.9160196    1507.8142  0.084499788   0.08541803            2 
 1488000    1.0238528   -2.8925558    1517.1792  0.084967471  0.085402821            4 
 1489000    1.0068628   -2.9132119    1502.5942  0.084094146  0.085387027            2 
 1490000    1.0199259    -2.892202    1511.4622  0.084533678  0.085371539            6 
 1491000    1.0121814   -2.8927082    1509.5363  0.084369343  0.085355455            2 
 1492000    1.0261625   -2.8895184    1506.5461  0.084145783  0.085339297            2 
 1493000    1.0112208    -2.931981    1509.1849  0.084236708  0.085322976            2 
 1494000    1.0189906   -2.9033637    1510.9782  0.084280357  0.085306514            4 
 1495000   0.98652772   -2.9153244    1507.3635  0.084022491  0.085290496            2 
 1496000   0.99515906   -2.8964416    1509.9788   0.08411201  0.085274382            2 
 1497000     1.005359    -2.909146    1505.7271  0.083819142  0.085258024            5 
 1498000    1.0037867     -2.90365    1510.6597  0.084037588  0.085241508            1 
 1499000    1.0348361     -2.89127    1512.2104  0.084067735  0.085225124            3 
 1500000    1.0169102    -2.895382    1514.3943  0.084133017   0.08520904            2 
 1501000    1.0241976   -2.8983059    1513.2223  0.084011898  0.085192779            2 
 1502000    1.0018436   -2.8910293    1513.7734  0.083986543  0.085176935            5 
 1503000    1.0251786    -2.893556    1515.5904  0.084031406  0.085161143            2 
 1504000    1.0146085   -2.9221695     1512.118  0.083783134   0.08514503            3 
 1505000    1.0023965    -2.906266    1517.2955  0.084014147  0.085129194            2 
 1506000    1.0094747   -2.9099923    1519.1108  0.084058807   0.08511336            3 
 1507000     1.036533   -2.8873772    1521.7369  0.084148248  0.085096939            2 
 1508000    1.0159584   -2.8881486    1525.3776  0.084293633  0.085080589            2 
 1509000    1.0356829   -2.9138898    1517.1969  0.083786003  0.085064822            2 
 1510000    1.0162419   -2.8887798     1522.326  0.084013577   0.08504857            3 
 1511000   0.99646312   -2.8993023    1516.4855  0.083635865  0.085031853            2 
 1512000    1.0259264   -2.8851931     1520.382  0.083795301  0.085015203            4 
 1513000   0.98942105   -2.8829909    1523.6683  0.083920926  0.084998321            1 
 1514000   0.98936176   -2.8948525    1523.4626  0.083854174  0.084982076            2 
 1515000    1.0048593   -2.9104257    1528.8734  0.084096449  0.084965603            2 
 1516000   0.99464975   -2.9022265    1520.6387  0.083588318  0.084949157            3 
 1517000    1.0032408    -2.916815    1525.9072  0.083822631  0.084932472            2 
 1518000    1.0263615   -2.8985965    1525.2737  0.083732638  0.084915571            3 
 1519000   0.99208429   -2.9011855    1526.4569  0.083742422  0.084899041            4 
 1520000    1.0337319   -2.9017559    1523.4015  0.083519819  0.084882335            2 
 1521000    1.0072263   -2.8922028    1533.3809  0.084011665  0.084866249            2 
 1522000    1.0261107   -2.9312643    1527.9232  0.083657644  0.084849631            3 
 1523000   0.99603352   -2.9115851    1526.0258  0.083498893  0.084832728            2 
 1524000    1.0008041   -2.9181361    1526.2775  0.083457869  0.084816196            4 
 1525000    1.0081829   -2.9075072    1535.4249  0.083903002  0.084799525            1 
 1526000   0.99450531   -2.9044976    1534.3497  0.083789302  0.084783196            2 
 1527000    1.0262039   -2.9189405    1530.8219  0.083541904  0.084766564            2 
 1528000   0.99627791   -2.9096211    1532.2863  0.083567095   0.08475009            4 
 1529000    1.0045778   -2.9020109    1533.0457  0.083553831    0.0847334            2 
 1530000    1.0091012   -2.9087154    1531.9546  0.083439796  0.084717061            1 
 1531000    1.0153533   -2.9172252     1537.138   0.08366743  0.084700598            4 
 1532000    1.0092486   -2.8992177     1538.408  0.083681899  0.084683843            2 
 1533000    0.9872254   -2.9069408     1533.072  0.083337247  0.084666965            2 
 1534000    1.0044408    -2.911126    1538.7705  0.083592489  0.084650591            4 
 1535000    1.0227616   -2.9228522     1537.527  0.083470519  0.084634286            2 
 1536000   0.99500215   -2.9020081    1535.9385  0.083329995  0.084617898            5 
 1537000    1.0252405   -2.8906695    1548.9893  0.083983372  0.084600993            1 
 1538000   0.99421566   -2.9065543    1542.3504   0.08356905  0.084584479            2 
 1539000    1.0312295   -2.9119854    1544.0366  0.083606051  0.084568448            3 
 1540000    1.0239617   -2.9266733    1535.5516  0.083092622  0.084551618            2 
 1541000    1.0143557   -2.9044299     1543.868  0.083488427  0.084534923            3 
 1542000    1.0169504   -2.9031642    1545.4398  0.083519229  0.084518491            3 
 1543000   0.99191705   -2.8974165    1545.1738  0.083450737  0.084501921            2 
 1544000     1.002599   -2.9150205    1542.5484  0.083254987  0.084486096            2 
 1545000   0.99370575   -2.9164323    1546.8952  0.083435553  0.084469752            2 
 1546000    1.0122924   -2.9311245    1545.7305  0.083318809  0.084453762            2 
 1547000   0.99992936   -2.8926536      1555.31  0.083780974   0.08443772            1 
 1548000    1.0160588   -2.9447971    1553.1893   0.08361269   0.08442201            3 
 1549000   0.99777859   -2.9144544    1550.6036  0.083419601  0.084405914            4 
 1550000   0.99938037   -2.9090639    1554.8806   0.08359573  0.084389674            3 
 1551000   0.99475189   -2.9165097    1552.6652  0.083422802   0.08437367            8 
 1552000   0.99905234   -2.9333226     1549.112  0.083178266  0.084357821            3 
 1553000    1.0012401   -2.8908098    1551.9137  0.083275046   0.08434166            6 
 1554000   0.99335931   -2.9097072    1554.3614  0.083352712  0.084325367            4 
 1555000    1.0055283   -2.8714637    1562.4497  0.083732569  0.084309171            3 
 1556000    1.0234626   -2.9411499    1552.6698  0.083154981  0.084293534            2 
 1557000   0.99185755   -2.9249363    1555.8723  0.083272979   0.08427746            3 
 1558000     1.006606   -2.9292577    1558.9634  0.083384861  0.084261348            2 
 1559000    1.0011012   -2.9478242    1551.0819  0.082910084  0.084245089            4 
 1560000      1.03177   -2.9192295    1562.1556  0.083448481  0.084229186            2 
 1561000   0.99708311   -2.9491337    1552.7103  0.082890793  0.084212793            4 
 1562000    1.0033651   -2.9257854    1557.9432  0.083116899  0.084196554            2 
 1563000     1.002352    -2.933599    1559.3169  0.083136966  0.084179759            2 
 1564000    1.0001072   -2.9105786    1558.2871  0.083028935  0.084163722            1 
 1565000   0.99868056   -2.9328088    1560.4431  0.083090686  0.084147259            3 
 1566000    1.0129232   -2.9213487    1555.4414  0.082771464  0.084130522            2 
 1567000   0.97588933   -2.9368231     1557.181  0.082811155  0.084113756            3 
 1568000   0.99314819   -2.9123885    1560.0582  0.082911256  0.084096812            4 
 1569000    1.0003322   -2.9341748    1565.3126  0.083137488  0.084079708            2 
 1570000   0.99930608   -2.9309573    1561.7477  0.082895314  0.084062635            7 
 1571000    1.0082728   -2.9099625    1565.0989  0.083020308  0.084045611            3 
 1572000   0.98691917    -2.912322    1564.7189  0.082947356  0.084028506            5 
 1573000   0.98916393   -2.8937429    1557.8929  0.082533001  0.084011182            2 
 1574000   0.98084491   -2.9626594    1561.5761  0.082675567  0.083994074            2 
 1575000   0.99842772    -2.901225     1558.765  0.082474338  0.083976696            3 
 1576000    1.0105782   -2.9066374    1565.2094  0.082762764  0.083959692            2 
 1577000   0.99716237   -2.9282097    1570.7489  0.083003008  0.083942564            1 
 1578000    1.0059084   -2.9131431    1569.9871  0.082910179  0.083925543            3 
 1579000   0.99823976   -2.9102593    1574.1087   0.08307519  0.083909244            4 
 1580000   0.99673352   -2.9074778    1567.4899  0.082673516  0.083892878            2 
 1581000    1.0023382    -2.909752    1575.8399  0.083061346  0.083876562            2 
 1582000    1.0018138   -2.9254213    1571.7203  0.082791841  0.083860807            4 
 1583000   0.97509409    -2.931848    1572.0083  0.082754702  0.083844684            3 
 1584000   0.98687292   -2.9207832    1577.2961  0.082980645  0.083828644            2 
 1585000    1.0093627   -2.9077491    1577.0441  0.082915042   0.08381248            1 
 1586000    0.9798212   -2.8949687    1577.3225  0.082877392  0.083796291            3 
 1587000   0.98789663    -2.903986    1579.0825  0.082917587  0.083780279            2 
 1588000   0.97427278   -2.8964824    1579.2401  0.082873638   0.08376417            2 
 1589000    0.9895011   -2.9210767     1566.543  0.082155603  0.083748261            3 
 1590000   0.97919031   -2.9467071    1576.5285  0.082627281  0.083731709            2 
 1591000    1.0000121   -2.9211848    1576.9843   0.08259922  0.083715282            2 
 1592000    1.0132857   -2.9471919    1575.2116  0.082454545  0.083698949            3 
 1593000   0.99578825   -2.9399738    1577.6624  0.082530987  0.083683012            2 
 1594000   0.99528385   -2.9101646    1584.7698  0.082850783  0.083666637            2 
 1595000    1.0052929   -2.9050771    1583.3229  0.082723246  0.083650639            3 
 1596000   0.99880664   -2.9485634    1582.6112  0.082634251  0.083634314            2 
 1597000    1.0033398   -2.9134743    1583.4731  0.082627482  0.083617906            3 
 1598000   0.98378524   -2.9047863    1589.6489  0.082897835  0.083601791            2 
 1599000    1.0005458    -2.928925    1581.1269   0.08240186  0.083585538            1 
 1600000    1.0122627   -2.9097072    1585.3437  0.082569984  0.083569416            3 
 1601000   0.99282394   -2.9261115    1587.1745  0.082613703    0.0835531            3 
 1602000   0.96790034   -2.9301528    1588.9169  0.082652771  0.083536878            4 
 1603000    1.0168369   -2.9175771    1588.2645  0.082567295  0.083520759            3 
 1604000   0.97273895   -2.9276245    1582.3984  0.082211058  0.083504618            2 
 1605000   0.99520222   -2.9198113    1589.1675  0.082511293  0.083487918            7 
 1606000   0.98908342   -2.9334605    1586.4426  0.082318526  0.083471432            2 
 1607000    1.0161429   -2.9137414    1589.3298  0.082417018  0.083455076            2 
 1608000   0.97754371   -2.9195007    1594.1703  0.082616618  0.083438661            3 
 1609000    1.0152667   -2.9116789    1591.1605  0.082409389  0.083422324            2 
 1610000    1.0114007   -2.9345228    1598.2537  0.082725347  0.083405982            1 
 1611000    1.0193168   -2.9240685    1592.1908  0.082360376  0.083389599            3 
 1612000    1.0172669   -2.9294814    1591.0438  0.082249989  0.083373431            4 
 1613000   0.98481132   -2.9041532     1596.335   0.08247236  0.083357101            2 
 1614000   0.99356023   -2.9113154    1598.7467  0.082545784  0.083340689            2 
 1615000   0.98533488   -2.9303473    1589.2526  0.082004778  0.083324327            4 
 1616000   0.96281431    -2.923413    1594.1696  0.082207593  0.083308054            2 
 1617000    1.0023813   -2.9158098    1597.9578   0.08235198  0.083291575            3 
 1618000   0.96005328   -2.9315256    1595.1073  0.082154268  0.083275502            2 
 1619000    1.0211471   -2.9219854    1600.2114  0.082366244  0.083258754            1 
 1620000   0.96747236   -2.9455951    1601.2771  0.082370221  0.083242539            2 
 1621000   0.99986711   -2.9785022    1596.7928  0.082088874  0.083225989            2 
 1622000    1.0070445   -2.9425921    1598.2067  0.082110907   0.08320926            2 
 1623000   0.98478502   -2.9231365    1599.7044  0.082137216  0.083192478            2 
 1624000   0.99054141   -2.9401699    1598.7209   0.08203617  0.083175954            2 
 1625000    1.0048134    -2.950496    1599.2824  0.082014485  0.083159688            1 
 1626000   0.97857917   -2.9017489    1604.2465  0.082218454  0.083143136            2 
 1627000   0.99545256   -2.9216819    1600.5822  0.081980239  0.083126899            2 
 1628000   0.98892597    -2.923191    1604.4252  0.082126596  0.083110462            5 
 1629000   0.99837521   -2.9275062    1604.4374  0.082076808  0.083094387            2 
 1630000   0.99350852   -2.9532833    1600.2854   0.08181418  0.083077971            3 
 1631000   0.99543628   -2.9094631    1608.8718  0.082202727   0.08306196            3 
 1632000   0.96736653   -2.9712801    1609.6744  0.082193342  0.083045806            2 
 1633000   0.98829233   -2.9385298    1600.3843  0.081668926  0.083029298            2 
 1634000   0.97521207   -2.9307213    1609.6267  0.082090304  0.083012929            3 
 1635000   0.99491332    -2.958286    1607.2186  0.081917359  0.082996566            4 
 1636000     1.001228    -2.927365    1615.7854  0.082303655  0.082980107            1 
 1637000    1.0127649   -2.9543503    1608.0952  0.081861903   0.08296358            3 
 1638000    1.0024113   -2.9192681    1607.1989  0.081766323  0.082946714            4 
 1639000   0.98870953   -2.9195879    1617.1424  0.082222007  0.082930303            3 
 1640000   0.98480208   -2.9131891    1612.0877  0.081915024  0.082914074            6 
 1641000   0.98735428   -2.9521829    1610.6742  0.081793328  0.082897633            2 
 1642000    1.0075076   -2.9270594    1615.1965  0.081973024  0.082880858            5 
 1643000   0.95435196   -2.9482213    1610.6935  0.081694738  0.082864136            2 
 1644000   0.98798104   -2.9176131    1614.8947  0.081858005  0.082847611            1 
 1645000   0.99942133   -2.9410071     1612.413  0.081682524  0.082830863            3 
 1646000    1.0011332   -2.9267996    1614.0398   0.08171526  0.082814268            2 
 1647000   0.99300626   -2.9393517     1614.376  0.081682654  0.082797262            3 
 1648000   0.96665048   -2.9511106    1613.7786  0.081602883  0.082780971            2 
 1649000    1.0103344   -2.9069307    1624.1856   0.08207932  0.082764342            1 
 1650000   0.98788582   -2.9125399     1617.077  0.081670553  0.082748198            3 
 1651000   0.97919022   -2.9474069     1611.905  0.081360033  0.082731708            3 
 1652000   0.97840449   -2.9624018     1614.414  0.081437347  0.082715399            2 
 1653000   0.99255725     -2.94437    1618.4962  0.081593879  0.082698951            2 
 1654000    1.0073613   -2.9347758    1616.4055  0.081439212  0.082682648            1 
 1655000   0.97781499   -2.9333965    1623.6576  0.081755164  0.082666212            3 
 1656000    0.9765788   -2.9424156     1618.731  0.081457882  0.082649698            4 
 1657000   0.99284559   -2.9601567    1623.3889  0.081642973  0.082633352            2 
 1658000   0.98229994   -2.9301791    1630.1011  0.081931098  0.082616655            2 
 1659000   0.97202556   -2.9336375    1621.2722  0.081438224  0.082600422            2 
 1660000    1.0021286   -2.9070569    1621.3621  0.081393678  0.082584117            2 
 1661000   0.99726673   -2.9439528    1625.0784  0.081531127  0.082567849            3 
 1662000   0.97665766   -2.9462596     1634.449  0.081951914  0.082551292            2 
 1663000   0.99169646    -2.941474    1629.5766  0.081658479  0.082534829            1 
 1664000    1.0041913   -2.9496671    1626.0249  0.081431535  0.082518242            2 
 1665000   0.97647586   -2.9440735    1631.3008  0.081646688  0.082502043            1 
 1666000    1.0011827   -2.9333676    1633.3285  0.081699104  0.082485845            2 
 1667000   0.98025752   -2.9203489    1633.4105  0.081654196  0.082469192            3 
 1668000   0.98676472   -2.9506684    1619.5191  0.080911226  0.082453014            1 
 1669000   0.98648246   -2.9266249    1633.9699  0.081584279  0.082436933            2 
 1670000   0.97838702   -2.9660939    1634.2744  0.081550618  0.082420963            5 
 1671000   0.96401131   -2.9210287    1630.1512   0.08129619  0.082405006            2 
 1672000    1.0057216   -2.9512787    1633.0373  0.081391412  0.082388905            4 
 1673000   0.98367481   -2.9776706    1635.2141  0.081451191  0.082373075            2 
 1674000    1.0046595   -2.9451731    1639.8788  0.081634746  0.082357274            3 
 1675000   0.97962706   -2.9383247    1634.1134  0.081299176  0.082341454            2 
 1676000   0.97290105   -2.9194745    1639.2278  0.081504961  0.082325873            3 
 1677000    0.9705141   -2.9207053    1641.8676  0.081587536  0.082310598            1 
 1678000   0.99378732   -2.9389804    1646.3586  0.081761947  0.082295015            3 
 1679000   0.96465095   -2.9426241    1643.9349  0.081592958  0.082279544            2 
 1680000   0.97656295   -2.9561694    1641.5657  0.081426871  0.082264126            2 
 1681000   0.97728727   -2.9463684    1651.7432  0.081882967  0.082248924            4 
 1682000   0.99783619   -2.9198555    1644.0958    0.0814554  0.082233581            1 
 1683000   0.98505411   -2.9336668    1648.7886  0.081639363  0.082218433            2 
 1684000   0.97531584    -2.915371    1647.9507  0.081549422  0.082202803            2 
 1685000   0.96633578   -2.9323076    1637.6174  0.080989979  0.082187165            3 
 1686000    1.0128984   -2.9618629    1643.4474  0.081230099  0.082171319            2 
 1687000    0.9806038   -2.9472682    1655.3442  0.081769623  0.082155838            6 
 1688000   0.96646506   -2.9411919    1652.3344   0.08157259  0.082140352            2 
 1689000   0.99062308   -2.9381617    1648.7072  0.081345331  0.082124783            3 
 1690000   0.99195896   -2.8882522    1649.8799  0.081355025  0.082109385            5 
 1691000   0.96985667   -2.9570396    1646.8015   0.08115521   0.08209386            1 
 1692000   0.96946862   -2.9131928    1647.1019  0.081122038  0.082078274            2 
 1693000   0.98784916   -2.9232134    1654.7988  0.081452981  0.082062635            4 
 1694000    1.0062942   -2.9451635    1650.5737  0.081197053  0.082046921            3 
 1695000   0.98780882   -2.9463295    1656.1927  0.081425402  0.082031267            3 
 1696000   0.97083598   -2.9330473    1649.1835  0.081032994   0.08201528            2 
 1697000   0.97340417   -2.9753533    1648.3275  0.080943211  0.081999131            2 
 1698000   0.98694451   -2.9528728    1650.1762  0.080986267  0.081983111            4 
 1699000   0.97715392   -2.9562976    1647.0131  0.080783456  0.081967147            4 
 1700000   0.97139407   -2.9601837    1648.9278  0.080829796  0.081951046            2 
 1701000   0.99695116   -2.9628563    1651.3299  0.080899957  0.081934734            3 
 1702000    0.9771465   -2.9494824    1660.2997  0.081291604  0.081918715            2 
 1703000   0.96332239   -2.9349548    1655.6655  0.081017103  0.081902791            3 
 1704000   0.97994281   -2.9557335    1660.6686  0.081214233  0.081887064            5 
 1705000    0.9732255   -2.9436948    1656.6669  0.080971014  0.081871234            1 
 1706000     0.990252   -2.9280823    1658.2704  0.081001875  0.081855415            3 
 1707000   0.97061258   -2.9382087    1664.4438  0.081255798  0.081839851            2 
 1708000   0.99365387   -2.9230641    1670.2406  0.081491053  0.081824328            2 
 1709000   0.98961328   -2.9201143    1657.8509   0.08083923  0.081808196            2 
 1710000   0.97441411   -2.9458249    1661.6305  0.080976147  0.081792481            2 
 1711000   0.98956394   -2.9577718    1670.7632  0.081373621  0.081776921            5 
 1712000   0.98238222   -2.9470806    1664.6179  0.081026962  0.081761864            2 
 1713000   0.98005178   -2.9521877    1659.9259  0.080751408  0.081746383            4 
 1714000   0.99387117   -2.9159488    1668.5893  0.081125501   0.08173113            3 
 1715000   0.98596381   -2.9545781    1669.3822  0.081116724  0.081716124            2 
 1716000   0.98281867   -2.9670951     1665.048  0.080858976    0.0817006            2 
 1717000   0.99056308   -2.9436985    1670.6813   0.08108529  0.081685334            5 
 1718000   0.95634876   -2.9419872    1673.5363  0.081176575  0.081670116            2 
 1719000   0.99412121   -2.9201189    1682.2154  0.081550097  0.081655163            2 
 1720000   0.98553374   -2.9868384    1667.8854  0.080808399  0.081639952            3 
 1721000   0.96250766   -2.9693175    1674.1047  0.081062597  0.081624591            4 
 1722000   0.99090178   -2.9480617    1675.2248  0.081069724  0.081609291            2 
 1723000    0.9510632   -2.9478967    1676.4045  0.081079729  0.081594383            3 
 1724000   0.98234666   -2.9559767    1680.5628  0.081233699  0.081579342            1 
 1725000    0.9864793   -2.9412583    1673.5671   0.08084865   0.08156456            2 
 1726000   0.95525502   -2.9131445    1680.2371  0.081123844  0.081549922            2 
 1727000   0.96584936    -2.955297    1681.2356  0.081125052  0.081535155            2 
 1728000   0.95225871   -2.9245846    1681.5609  0.081093794  0.081520191            1 
 1729000   0.98338982   -2.9273717    1681.7318  0.081055129  0.081505712            2 
 1730000   0.97804096    -2.965697    1682.6813  0.081054011  0.081491073            2 
 1731000   0.98272998   -2.9504818     1684.518  0.081095611  0.081476443            2 
 1732000   0.99721838   -2.9370863    1689.1842  0.081273298  0.081462042            4 
 1733000   0.98569319   -2.9496652    1681.1221  0.080838724  0.081447553            4 
 1734000   0.96801806   -2.9440214    1674.3382   0.08046608  0.081432927            1 
 1735000   0.99963192    -2.945313    1684.9941  0.080931512  0.081418582            2 
 1736000   0.96383568    -2.940858    1686.4459  0.080954584    0.0814034            6 
 1737000   0.95319036   -2.9416621    1690.2983  0.081092799  0.081388631            4 
 1738000   0.97951319   -2.9523803    1683.5545  0.080722791  0.081373811            2 
 1739000   0.98506231   -2.9614181    1688.2539  0.080901569  0.081358886            4 
 1740000   0.96054607   -2.9667111    1682.5163  0.080580282   0.08134383            2 
 1741000   0.96219608    -2.935101    1693.9679  0.081082131  0.081329145            3 
 1742000   0.97705435   -2.9558616    1682.2789  0.080476409  0.081314546            5 
 1743000   0.98352867   -2.9734891     1694.471  0.081013149  0.081299502            3 
 1744000   0.98993573   -2.9763587    1682.4426  0.080391943   0.08128478            4 
 1745000   0.95880573   -2.9425191    1693.7264  0.080884739  0.081269745            1 
 1746000   0.98120192   -2.9465744    1695.2873  0.080912909  0.081255404            2 
 1747000   0.97516336   -2.9582509    1696.9935   0.08094798  0.081240978            4 
 1748000   0.96158334   -2.9176465    1701.8546  0.081133418  0.081226587            2 
 1749000   0.98085387   -2.9398341    1696.3288  0.080823746  0.081212139            2 
 1750000    0.9645368   -2.9820147    1692.2464  0.080583162  0.081197432            1 
 1751000    0.9646699    -2.971376    1695.5006  0.080692012  0.081182849            4 
 1752000    0.9721251   -2.9646902    1692.9704  0.080525611  0.081167929            1 
 1753000   0.96083591   -2.9060637    1692.5749  0.080460871  0.081153753            2 
 1754000   0.95794023   -2.9572213    1698.5283  0.080697846  0.081138752            1 
 1755000     0.964027   -2.9523404    1698.0896  0.080631035  0.081124183            4 
 1756000    0.9826907   -2.9554153    1697.8496  0.080573726  0.081109458            3 
 1757000   0.96094798   -2.9742755    1706.6905  0.080947188  0.081094545            4 
 1758000   0.98482711   -2.9327741    1703.7975  0.080764007  0.081079681            4 
 1759000   0.98814421   -2.9523544    1703.6913  0.080713064  0.081064849            5 
 1760000   0.95116063   -2.9262506    1698.5323   0.08042293  0.081049758            2 
 1761000   0.98074367    -2.934032    1706.7297  0.080765174  0.081034932            2 
 1762000   0.97195995   -2.9511368    1704.5157   0.08061463  0.081020152            3 
 1763000     0.971763   -2.9804919    1700.7187  0.080389426  0.081004898            2 
 1764000   0.95973545   -2.9568531    1707.7472  0.080675887  0.080989741            3 
 1765000   0.95106857   -2.9547143    1696.6213  0.080104878  0.080974924            9 
 1766000   0.96192352   -2.9137763    1702.7921  0.080350704  0.080959909            6 
 1767000   0.97505539   -2.9729924    1704.4969  0.080385629  0.080944896            2 
 1768000   0.96222845   -2.9587936    1704.6911  0.080349318  0.080929491            2 
 1769000   0.96338471   -2.9583461     1693.899  0.079795507  0.080914307            2 
 1770000   0.97469272   -2.9339022     1706.161  0.080327729  0.080898987            3 
 1771000   0.96823221    -2.942211    1706.7928  0.080312102  0.080883822            2 
 1772000   0.97035341   -2.9544324    1712.8826   0.08055317  0.080868409            2 
 1773000   0.97405854   -2.9739858     1705.918  0.080180389   0.08085337            3 
 1774000   0.97080219   -2.9368325    1710.8284  0.080365857  0.080838356            1 
 1775000    0.9705948   -2.9412822    1707.3636  0.080157916   0.08082363            3 
 1776000   0.95834241   -2.9761325    1707.2729  0.080108526  0.080808137            7 
 1777000    0.9806547   -2.9458305    1711.1308  0.080244362  0.080792876            1 
 1778000   0.93871142   -2.9645735    1704.7619  0.079900728  0.080777677            2 
 1779000   0.96038548   -2.9340251    1712.5603  0.080221113  0.080762775            2 
 1780000   0.98292635   -2.9714706    1708.8243  0.080001137  0.080747833            4 
 1781000   0.94487107   -2.9660631    1716.7018   0.08032481  0.080733112            1 
 1782000   0.95599606    -2.983762     1707.309  0.079840489  0.080718298            4 
 1783000   0.96593313   -2.9601693    1713.4678  0.080083558  0.080703996            2 
 1784000   0.95943876   -2.9582225    1719.7367  0.080331497  0.080689335            2 
 1785000   0.98133919   -2.9553122    1722.1127  0.080397418  0.080674751            2 
 1786000   0.94983061   -2.9776286    1719.6188  0.080236039   0.08066064            1 
 1787000   0.96841059   -2.9458228    1727.3862  0.080553358   0.08064633            5 
 1788000   0.94228759   -2.9507067    1719.9097   0.08015985    0.0806316            3 
 1789000   0.97973152   -2.9837535    1715.1772  0.079894594  0.080616836            2 
 1790000   0.95646441    -2.984445    1718.5581  0.080007358  0.080601926            3 
 1791000   0.96164202   -2.9581973    1723.5932  0.080196968  0.080586936            4 
 1792000   0.98858054   -2.9348534    1729.4677  0.080425395  0.080572582            4 
 1793000   0.97332092   -2.9463787    1735.0451  0.080639761  0.080557885            2 
 1794000   0.97338149   -2.9636254    1726.0025  0.080174771  0.080543408            3 
 1795000   0.98025513   -2.9526275    1726.9691   0.08017498  0.080528728            1 
 1796000   0.95012773   -2.9293232    1730.1026  0.080275731  0.080514264            2 
 1797000   0.96580797   -2.9743216    1725.9404  0.080038046  0.080499497            3 
 1798000   0.98183777   -2.9797018    1720.7023  0.079750756  0.080484818            3 
 1799000   0.97877555   -2.9831997     1730.248  0.080148602  0.080469852            5 
 1800000   0.96075601   -2.9558029    1727.4014  0.079972285  0.080454755            6 
 1801000   0.93683387   -2.9939658    1718.8226  0.079530936  0.080439855            3 
 1802000   0.97093827   -2.9616099    1727.7179  0.079898162  0.080424667            2 
 1803000   0.95713884    -2.962903    1731.5454  0.080030755  0.080409344            3 
 1804000    0.9372426   -2.9813831    1728.1026  0.079827357  0.080394566            2 
 1805000   0.97571847   -2.9746517    1732.3972  0.079981406   0.08037983            2 
 1806000   0.96973399   -2.9682048    1729.4677  0.079801942   0.08036488            1 
 1807000   0.95146305   -2.9600652    1737.3119   0.08011953  0.080350188            3 
 1808000   0.95829061   -2.9452715    1729.9571  0.079736224   0.08033546            3 
 1809000   0.95960359   -2.9640152    1744.2394  0.080350073  0.080321119            3 
 1810000   0.95241181   -2.9739102    1732.7478  0.079776601  0.080306417            2 
 1811000   0.95991047   -3.0021969    1731.9383  0.079695302  0.080291879            3 
 1812000   0.96408367   -2.9635721    1732.3916  0.079672166  0.080277526            2 
 1813000   0.95263722    -2.984254    1730.3153  0.079532784   0.08026314            2 
 1814000   0.97723605   -2.9296698    1739.5823  0.079914661  0.080248903            1 
 1815000    0.9601853   -2.9596531     1743.302  0.080041414  0.080234245            3 
 1816000   0.97626272    -2.978857    1737.6857  0.079739618  0.080219878            3 
 1817000   0.94456035   -2.9692843     1739.793   0.07979238  0.080205642            4 
 1818000   0.94114606   -2.9508439     1748.437  0.080144713  0.080190944            1 
 1819000   0.95298298   -2.9879196    1733.7914  0.079429694  0.080176539            3 
 1820000   0.96743076   -3.0032387    1738.8123  0.079615948  0.080162165            5 
 1821000   0.96630634   -2.9738646    1741.3369  0.079687756  0.080147563            6 
 1822000   0.96849229   -2.9535859    1752.9566  0.080175477  0.080133342            4 
 1823000   0.96472441   -2.9670816    1750.2737  0.080008855  0.080119059            4 
 1824000   0.95231297    -2.966453    1748.1489  0.079867915  0.080104928            2 
 1825000   0.98037846   -2.9722858    1749.6454  0.079892482  0.080090948            4 
 1826000   0.95618546   -2.9607822    1754.1845  0.080055883  0.080077006            2 
 1827000    0.9610607   -2.9889415    1747.7855  0.079720193  0.080063188            5 
 1828000   0.95273903   -2.9801646    1756.9686  0.080095214  0.080049401            5 
 1829000   0.97653576   -2.9668815     1752.138  0.079831327  0.080035462            4 
 1830000    0.9687546   -2.9591696    1749.2385  0.079655671  0.080021496            3 
 1831000    0.9516419   -2.9571557    1755.7592  0.079908937  0.080007431            3 
 1832000   0.94008535   -2.9681005    1750.2925  0.079616653  0.079993219            2 
 1833000   0.95488457   -2.9775641    1749.3175  0.079528892  0.079978769            2 
 1834000   0.94726898   -2.9748532    1757.0762  0.079838069  0.079964743            2 
 1835000   0.94622979   -2.9643022    1751.9473   0.07956164  0.079950716            3 
 1836000   0.94677709   -2.9686184    1752.3169  0.079535081  0.079936298            3 
 1837000   0.96180011   -2.9909956     1750.592  0.079413535  0.079921879            2 
 1838000   0.95628137   -2.9937099    1750.8267  0.079380969  0.079907326            1 
 1839000    0.9340691   -2.9485858    1752.5239  0.079414715  0.079892882            1 
 1840000   0.95929757   -2.9904547    1760.2013  0.079719259   0.07987845            3 
 1841000   0.96270595   -2.9734423    1751.4311  0.079278973  0.079863882            4 
 1842000   0.95650133    -2.972165    1755.0276  0.079398643  0.079849419            2 
 1843000   0.93868253   -2.9918228    1750.6456  0.079157427  0.079834459            3 
 1844000   0.93987407   -2.9490412    1762.6295  0.079656068   0.07981985            2 
 1845000   0.93932843   -2.9744999    1758.4698  0.079425013  0.079805135            4 
 1846000    0.9622748   -2.9615897    1760.8783  0.079490715  0.079790882            5 
 1847000    0.9567321    -2.975407    1762.5022  0.079520942  0.079776566            3 
 1848000   0.95462079   -2.9728051    1761.7336  0.079443254  0.079762277            2 
 1849000   0.95692637   -2.9607632    1768.9131  0.079723863  0.079748163            1 
 1850000   0.97439484   -2.9657962    1761.9544  0.079367315  0.079733708            2 
 1851000   0.94358812    -2.945107    1762.0397  0.079328279  0.079719508            5 
 1852000   0.96734595   -2.9598122    1762.7508  0.079317442  0.079705265            3 
 1853000   0.94700245   -2.9488608    1763.1892  0.079294352  0.079690787            1 
 1854000   0.95553748   -3.0002249    1771.9208  0.079644049  0.079676646            5 
 1855000   0.96941284   -2.9766799    1760.6708  0.079095721  0.079662229            4 
 1856000   0.96991836   -2.9891318    1759.6627  0.079007843  0.079647814            1 
 1857000   0.93330003   -2.9958549     1757.576  0.078871658  0.079633012            3 
 1858000   0.97832212   -2.9739108    1769.4673  0.079362545  0.079618647            2 
 1859000   0.95402627   -3.0043675    1765.5666  0.079144995  0.079604398            2 
 1860000   0.95443126    -2.947967    1770.9199  0.079342288  0.079590072            5 
 1861000   0.95578625   -2.9800953    1771.4958  0.079325445  0.079575594            3 
 1862000   0.95242412    -2.936715    1775.0938   0.07944387   0.07956132            2 
 1863000   0.95371955   -2.9863389    1769.7146   0.07916061  0.079546671            1 
 1864000   0.96053606   -2.9778831    1772.9084  0.079260926  0.079531913            5 
 1865000   0.97753982   -3.0007987     1769.528  0.079067382  0.079517194            2 
 1866000    0.9444348   -2.9829302    1767.4383  0.078931686  0.079502548            3 
 1867000   0.95467608   -2.9868639    1766.0947  0.078829435  0.079487739            2 
 1868000   0.95801619      -2.9908    1774.2905  0.079152862  0.079472719            3 
 1869000   0.95013634   -2.9845932    1772.4571  0.079028762  0.079458138            2 
 1870000    0.9496118   -2.9976921    1778.4149  0.079252001  0.079443627            3 
 1871000   0.95084371   -2.9563191    1773.3391  0.078983569  0.079428992            1 
 1872000   0.93294206   -2.9801677    1772.4976  0.078903919  0.079414389            2 
 1873000   0.95234759   -2.9840068    1775.2972  0.078986348  0.079399958            5 
 1874000   0.93881539   -2.9711405    1776.1044  0.078980098  0.079385689            4 
 1875000   0.96732963   -2.9894065    1777.2091  0.078987073  0.079371117            2 
 1876000   0.94225534   -2.9814361    1774.8526  0.078840289  0.079356541            2 
 1877000   0.96952899   -2.9928555    1782.6489  0.079144421  0.079342211            2 
 1878000   0.94894815   -2.9561353    1783.8706  0.079156486   0.07932734            2 
 1879000   0.94868234   -2.9681355    1776.7553  0.078798799  0.079312458            1 
 1880000   0.92826368   -2.9888098    1780.1463  0.078907192   0.07929764            2 
 1881000   0.93964771   -2.9682093    1782.5067  0.078969817  0.079282897            1 
 1882000   0.96086108   -2.9994983    1783.9092  0.078989956  0.079267758            2 
 1883000   0.96398283   -2.9650222    1785.2596  0.079007769  0.079253192            2 
 1884000   0.95582858   -2.9735197    1788.6668  0.079116545  0.079239033            1 
 1885000   0.97685827   -2.9875778    1786.8904  0.078996037  0.079224811            2 
 1886000   0.95851268   -2.9812447    1788.5858  0.079029064  0.079210288            7 
 1887000   0.95223539   -2.9903206    1781.9611  0.078694625  0.079196027            1 
 1888000   0.93193759   -2.9882785    1778.0751  0.078481422   0.07918151            2 
 1889000    0.9499375   -2.9864123    1787.9743   0.07887658  0.079167031            1 
 1890000   0.96751002   -2.9854226    1781.7262  0.078559357  0.079152164            1 
 1891000   0.94721961   -2.9762425    1781.9972  0.078529753  0.079137142            2 
 1892000   0.95407663   -3.0040025    1777.0225  0.078269136    0.0791223            1 
 1893000   0.94566927   -2.9935896    1784.2315  0.078545146   0.07910745            3 
 1894000   0.96654677    -3.001522    1796.2123  0.079030813  0.079092742            2 
 1895000   0.94527726   -2.9705721     1789.259  0.078683335  0.079077843            2 
 1896000   0.94231403   -2.9781381    1795.1535  0.078900909  0.079063009            3 
 1897000   0.94782273   -2.9833588     1791.022  0.078677823  0.079048167            3 
 1898000   0.93879234   -2.9959826     1785.674  0.078401563   0.07903359            3 
 1899000   0.94355817   -2.9847872    1790.5866  0.078575855  0.079018583            3 
 1900000   0.94635142    -2.971671    1790.4412  0.078528122  0.079003858            2 
 1901000   0.93744488   -3.0066073    1798.3225  0.078832303  0.078989212            1 
 1902000    0.9415483   -2.9804131    1793.6947  0.078588094  0.078974642            4 
 1903000   0.96678756   -2.9838876    1793.1173  0.078521513  0.078960046            3 
 1904000   0.96268248   -3.0060343    1790.0627  0.078346582  0.078945208            3 
 1905000   0.95907672    -3.000018    1798.1526  0.078659342  0.078930175            2 
 1906000   0.94766459    -2.983418    1794.8602  0.078474124  0.078915671            3 
 1907000    0.9468583   -2.9973996    1789.0174  0.078177651  0.078901037            5 
 1908000   0.94613243   -2.9719112    1798.4708  0.078549563  0.078886547            2 
 1909000   0.93870975   -2.9857996    1795.8528  0.078394133  0.078871851            3 
 1910000   0.94471144   -2.9985582    1796.7756  0.078393353  0.078857135            4 
 1911000   0.96124611   -2.9641065    1799.0458  0.078451324  0.078842218            5 
 1912000   0.91193703   -2.9633346    1802.4796  0.078559955  0.078827691            2 
 1913000   0.93906427    -3.005871    1797.2006  0.078288927  0.078813002            4 
 1914000   0.95444387   -2.9605711     1802.787  0.078491247   0.07879826            2 
 1915000   0.94995084   -2.9937422    1803.0596  0.078462126  0.078783371            2 
 1916000   0.92515817   -3.0024977     1792.794  0.077974685  0.078768554            3 
 1917000   0.91936266   -3.0020632    1798.0725  0.078163471  0.078753823            2 
 1918000   0.95467581   -2.9991343    1796.2163  0.078042072  0.078738727            2 
 1919000   0.96642037   -3.0095225    1799.9229  0.078162362   0.07872363            2 
 1920000   0.94554324   -2.9886006     1809.405  0.078533203   0.07870885            2 
 1921000   0.95827574   -2.9954442    1802.4151  0.078189098  0.078693884            4 
 1922000    0.9606954   -2.9783962    1799.6829  0.078029955   0.07867867            8 
 1923000   0.92998139   -2.9734668    1800.4457  0.078022434  0.078663363            2 
 1924000   0.94838411   -2.9702935    1808.2043  0.078317927  0.078648122            3 
 1925000   0.93901503   -2.9558453    1807.4682  0.078245378  0.078632934            6 
 1926000   0.95265957   -2.9949776    1803.9649  0.078053171  0.078617899            3 
 1927000   0.95496063   -2.9821063    1807.9495  0.078184982   0.07860287            2 
 1928000   0.95918374   -3.0162323    1804.9572  0.078015092  0.078588021            3 
 1929000   0.94352737   -3.0057744    1807.6304  0.078090133  0.078572894            1 
 1930000   0.94691469   -3.0048682    1802.4178  0.077824604  0.078557746            3 
 1931000   0.93871187   -2.9857837    1810.7127  0.078142269  0.078542445            4 
 1932000   0.93076903   -2.9853168    1802.0833  0.077729613  0.078527107            4 
 1933000   0.96903726   -2.9760613    1809.9733  0.078029542  0.078511961            5 
 1934000    0.9425972   -2.9905238    1809.1874  0.077955335  0.078496715            2 
 1935000    0.9316918   -3.0005016    1810.4364  0.077968839  0.078481419            2 
 1936000   0.93601533   -2.9893334    1813.7362  0.078070603  0.078466499            3 
 1937000    0.9468685   -3.0067269    1812.7358  0.077987255  0.078451365            3 
 1938000   0.93787396   -2.9906029    1814.7153  0.078032132  0.078436541            2 
 1939000   0.93941515   -2.9970793     1811.249  0.077842919  0.078421627            2 
 1940000   0.93368464   -2.9781967    1817.3022   0.07806281  0.078406871            3 
 1941000   0.91757205   -2.9732413     1820.753  0.078170744  0.078392183            2 
 1942000   0.93486321   -2.9820312    1825.1566  0.078319455  0.078377914            3 
 1943000   0.95638518   -2.9809784    1816.4186  0.077904382  0.078363392            4 
 1944000   0.91372544   -2.9714222    1818.8512  0.077968585  0.078348775            2 
 1945000   0.92331637   -2.9919649    1814.4863  0.077741486  0.078334205            3 
 1946000   0.92592551   -2.9963021    1813.1995  0.077646431    0.0783193            3 
 1947000   0.92637662   -2.9901309    1816.3086  0.077739624  0.078304904            4 
 1948000   0.93148866   -2.9759714    1816.4586  0.077706133  0.078290238            7 
 1949000   0.93576496   -2.9657175    1819.4133    0.0777926  0.078275453            2 
 1950000   0.94023474   -2.9955852    1822.4774  0.077883651  0.078260559            2 
 1951000   0.93637759    -2.990413    1822.0839   0.07782692  0.078245936            2 
 1952000   0.96611897   -3.0074537    1825.8253  0.077946778  0.078231036            2 
 1953000   0.96608382   -2.9983514    1821.7282  0.077732045  0.078216138            2 
 1954000   0.94295526   -2.9840408    1826.1056  0.077878949  0.078201597            1 
 1955000   0.93234577   -2.9699101    1822.3554   0.07767926  0.078186635            2 
 1956000   0.94191468   -2.9918571    1822.5579  0.077648172   0.07817199            3 
 1957000   0.93430233   -3.0121869     1818.079  0.077417772  0.078157092            4 
 1958000   0.94451545   -2.9965901    1819.3027  0.077430315  0.078142251            2 
 1959000    0.9409454   -2.9997929    1819.6211  0.077404336  0.078127413            2 
 1960000   0.93068758   -2.9924102     1836.488  0.078081972  0.078112667            2 
 1961000   0.92049374    -3.002822    1819.8916  0.077336886  0.078097753            5 
 1962000   0.94765175   -2.9973013    1821.7529  0.077376526  0.078082545            2 
 1963000   0.95013101    -3.018652    1826.4836  0.077537934  0.078067315            1 
 1964000   0.91905828   -3.0203931    1824.3725  0.077408879  0.078052088            2 
 1965000   0.94272419   -2.9556752    1833.8591    0.0777718  0.078036889            8 
 1966000   0.94439545   -2.9865142    1827.7875  0.077474887  0.078022129            2 
 1967000    0.9522262   -2.9758052    1826.6868  0.077388865  0.078007266            2 
 1968000   0.92436583   -3.0239753    1829.7092  0.077477523  0.077992319            1 
 1969000   0.91829188   -2.9940245    1827.7205  0.077354007  0.077977097            4 
 1970000   0.93953103   -2.9805993    1836.5982   0.07769028   0.07796212            2 
 1971000   0.93516809   -2.9927791    1834.5547  0.077564463  0.077946971            4 
 1972000   0.92477221   -3.0214105    1829.2536  0.077301116  0.077931901            2 
 1973000    0.9374763   -2.9917667     1832.174  0.077385285  0.077916807            6 
 1974000   0.91641213   -2.9937558    1827.9424  0.077167442  0.077901817            2 
 1975000   0.96600109   -2.9823181    1836.3346  0.077482471  0.077887143            3 
 1976000   0.92276224    -3.002221    1834.6704  0.077373075  0.077872346            3 
 1977000   0.93579945    -2.989456    1830.1007  0.077141321  0.077857617            3 
 1978000   0.92998265   -2.9705727    1840.9937  0.077561244  0.077842626            5 
 1979000   0.90995443   -3.0022477    1839.2254  0.077447591  0.077827843            2 
 1980000   0.91525939   -3.0076317    1830.6668  0.077048264  0.077813148            2 
 1981000   0.93565435    -2.999729    1842.3658  0.077501507  0.077798352            1 
 1982000   0.92675043     -3.01213    1840.2693  0.077374255   0.07778353            2 
 1983000   0.94273123   -2.9783818    1837.5352  0.077220338  0.077768381            3 
 1984000   0.92363578   -3.0198092    1840.7279  0.077315521  0.077753611            2 
 1985000   0.95577794   -2.9845942    1837.1973  0.077128351  0.077738591            3 
 1986000   0.92492821   -3.0072325    1841.0507  0.077251204   0.07772399            3 
 1987000   0.93275427   -3.0011613    1842.6544  0.077279583  0.077709211            2 
 1988000   0.95885959   -3.0124655    1841.3186  0.077184715  0.077694554            2 
 1989000    0.9245954   -3.0049306     1838.582  0.077031257  0.077679864            4 
 1990000   0.93489128   -2.9911473     1843.092  0.077181407  0.077665354            3 
 1991000   0.91162362   -3.0274496    1844.4764  0.077200587  0.077651029            3 
 1992000   0.93674032   -2.9781835     1851.111  0.077439381   0.07763638            2 
 1993000   0.92406695   -2.9948149    1846.7887  0.077219798  0.077622027            3 
 1994000   0.95021274   -3.0198959    1845.5834  0.077130699  0.077607638            2 
 1995000   0.92536841   -2.9917729    1847.9286  0.077189998  0.077593086            3 
 1996000   0.92804106   -3.0037481    1845.5145  0.077050539  0.077578454            2 
 1997000   0.91884795   -3.0133794    1847.9577  0.077113909  0.077563803            3 
 1998000   0.92744001   -2.9863121    1846.0279  0.076994823  0.077548969            3 
 1999000   0.93620094   -2.9981591    1850.6682  0.077149748  0.077534379            2 
 2000000   0.92717168   -3.0105581    1852.3249  0.077180204   0.07751974            4 
 2001000   0.90560382   -2.9946407    1852.1319  0.077133597   0.07750522            3 
 2002000   0.89461557    -3.018112    1854.0651  0.077175538  0.077490805            2 
 2003000   0.91189248   -2.9886751    1855.9207  0.077214208  0.077476276            1 
 2004000   0.92669469   -3.0193987    1854.0103  0.077096238  0.077462061            4 
 2005000   0.94211893   -3.0044799     1853.381  0.077031631  0.077447539            2 
 2006000   0.93524516   -3.0311143    1854.3777  0.077034634  0.077433295            4 
 2007000   0.93468489   -2.9770047    1862.4046  0.077329539  0.077419022            2 
 2008000   0.95128735   -2.9902744    1861.5111  0.077253946  0.077404732            5 
 2009000   0.92818129   -2.9905975    1866.2392  0.077411614  0.077390606            3 
 2010000   0.91520663   -2.9902538    1853.1103  0.076828787  0.077376272            6 
 2011000   0.92787289   -3.0067515    1858.3568   0.07700799  0.077361868            2 
 2012000   0.93604199   -3.0212183    1857.1591  0.076920109  0.077347379            2 
 2013000    0.9186932   -3.0195334    1861.9758  0.077081298   0.07733293            6 
 2014000   0.93188262   -3.0366773     1848.061  0.076467269  0.077318649            4 
 2015000   0.92979615   -3.0207364    1864.4522  0.077107205  0.077304556            1 
 2016000   0.92918681   -2.9808014    1866.6031  0.077157867  0.077290663            3 
 2017000   0.90357887   -3.0252713    1869.4669  0.077237934  0.077276646            2 
 2018000    0.9237297   -3.0029356     1862.941  0.076930171   0.07726287            1 
 2019000    0.9297893   -3.0046087    1866.4919  0.077038629  0.077249193            3 
 2020000   0.92274585   -3.0054531    1871.6285  0.077212395  0.077235705            2 
 2021000   0.92136365   -3.0082361    1871.9089  0.077185754  0.077222025            3 
 2022000   0.91973124   -3.0115586     1873.761   0.07722391  0.077207905            2 
 2023000   0.94542651   -3.0303092    1870.2203  0.077039889  0.077193847            5 
 2024000   0.92822271   -3.0184247    1876.1885  0.077247551  0.077179608            2 
 2025000   0.93449911   -3.0117566    1870.9046  0.076991957   0.07716562            3 
 2026000   0.90705527    -2.983894    1871.6119   0.07698305  0.077151604            3 
 2027000   0.94755835   -2.9932293    1865.5028  0.076693917  0.077137645            3 
 2028000   0.92811496   -2.9921386     1872.102  0.076927267  0.077123978            3 
 2029000   0.93397545    -3.016279    1874.7306  0.076997315  0.077110031            2 
 2030000    0.9368605    -3.003866     1868.032  0.076684399  0.077096063            2 
 2031000   0.95728323   -3.0092447    1872.9012  0.076846432  0.077081895            8 
 2032000   0.91781701   -3.0366476    1870.3041  0.076702104  0.077067651            2 
 2033000   0.93688812   -3.0088573    1873.6405  0.076801137  0.077053562            2 
 2034000   0.91391806   -3.0018427    1874.1683  0.076785001  0.077038913            7 
 2035000   0.92326185   -3.0321194    1866.3121  0.076425558   0.07702416            2 
 2036000   0.92761815   -3.0040857    1869.9514  0.076536978  0.077009673            2 
 2037000   0.92069082   -3.0225266    1878.8976  0.076865388  0.076995054            3 
 2038000   0.93342733   -3.0287633    1878.8716  0.076826611  0.076980674            2 
 2039000   0.93160971   -3.0268627    1876.9025  0.076708456  0.076966284            3 
 2040000   0.93692637   -2.9835264     1874.012  0.076552777  0.076951994            2 
 2041000   0.91352906   -3.0207853    1873.8543  0.076508831  0.076937684            3 
 2042000   0.91269898   -3.0092403    1881.1534  0.076769237  0.076923354            3 
 2043000   0.92943618   -3.0069863    1876.3658  0.076536376  0.076908801            2 
 2044000   0.92209135    -2.999303    1879.0059  0.076606568  0.076894516            5 
 2045000   0.92454178   -3.0181787       1875.1  0.076409943   0.07687985            4 
 2046000    0.9341074   -3.0071267     1884.357  0.076749635  0.076865364            3 
 2047000   0.90616176   -3.0042201    1881.7759  0.076607063  0.076850783            3 
 2048000   0.92077488   -3.0111356    1873.5669  0.076235633   0.07683602            2 
 2049000   0.91367578   -3.0100042    1881.6662  0.076527826  0.076821478            3 
 2050000    0.9364409   -3.0300212    1879.0573  0.076384444  0.076806858            4 
 2051000   0.93139503   -3.0088582    1895.1228  0.076999951  0.076792722            2 
 2052000   0.92344928   -3.0044047    1885.3083  0.076563851  0.076778138            3 
 2053000   0.91849434   -3.0079566    1884.7679  0.076504625  0.076763868            5 
 2054000   0.92823637   -3.0318745    1883.8457   0.07642996  0.076749244            3 
 2055000   0.91845489   -3.0358526    1887.0746  0.076523705  0.076734767            2 
 2056000     0.934022   -3.0298823    1880.9871   0.07623975  0.076720125            3 
 2057000   0.91373947   -3.0278881    1881.2572  0.076213628  0.076705361            3 
 2058000   0.91427108   -3.0274803    1881.8029  0.076198693  0.076690755            3 
 2059000   0.92448715    -3.018832    1894.1956  0.076663249  0.076676063            2 
 2060000   0.91342982   -3.0422194    1884.5818  0.076237127  0.076661411            2 
 2061000    0.9275856    -2.983535    1885.4486  0.076235187   0.07664662            3 
 2062000   0.92154852   -3.0255842    1886.5696  0.076243518  0.076631985            6 
 2063000   0.92824278   -3.0093511    1883.3697  0.076077303  0.076617037            7 
 2064000   0.91803782   -3.0101554    1886.2251  0.076155728  0.076602354            2 
 2065000   0.92127518   -3.0073481    1880.3196  0.075880534  0.076587469            1 
 2066000   0.91132406   -3.0009937    1885.5034  0.076052897  0.076572666            4 
 2067000   0.92242353   -3.0151165    1895.1807  0.076406253   0.07655793            2 
 2068000   0.91775313   -3.0351627    1891.4254   0.07621798  0.076543199            3 
 2069000   0.92665105   -3.0109671    1892.2684  0.076215095  0.076528607            6 
 2070000   0.89088666   -3.0429984    1889.0281  0.076047828  0.076514373            6 
 2071000   0.92795405   -3.0091222    1896.8023  0.076323932  0.076499706            2 
 2072000   0.90122482    -3.018838    1890.4476  0.076031514  0.076485036            3 
 2073000   0.91276365   -3.0432186    1894.3121  0.076150189  0.076470586            3 
 2074000   0.91912305   -3.0130588     1889.509  0.075920485  0.076456024            3 
 2075000   0.91116135   -3.0120157    1890.3926   0.07591938  0.076441406            2 
 2076000   0.90991427   -3.0159769     1892.651  0.075973468  0.076426881            2 
 2077000   0.92238148   -3.0340248    1899.8419  0.076225402  0.076412358            3 
 2078000   0.92000176   -2.9997349    1902.8044  0.076307522  0.076397729            3 
 2079000   0.90970169   -3.0213928    1897.5552  0.076060414  0.076383553            3 
 2080000   0.90363695   -3.0303295    1897.4262  0.076018676  0.076368864            3 
 2081000   0.92620544   -3.0105127     1895.169  0.075891759  0.076354626            2 
 2082000   0.91480406   -3.0162476    1902.5396   0.07615032  0.076340352            2 
 2083000   0.92655224   -3.0344221    1908.7114  0.076360675   0.07632591            3 
 2084000   0.90901772   -3.0459034    1905.6027  0.076199724  0.076311589            3 
 2085000   0.91526113   -3.0241452    1906.3756  0.076194068  0.076297228            2 
 2086000    0.9075898   -3.0427547    1901.9683  0.075981477  0.076282785            1 
 2087000   0.92460297   -3.0143732    1904.2916  0.076037838   0.07626843            4 
 2088000   0.92036727   -2.9742871    1918.6017  0.076572546  0.076254301            3 
 2089000   0.90804573   -3.0123631    1903.6962  0.075941289  0.076239934            3 
 2090000   0.90662185   -3.0332338    1906.6771  0.076023809  0.076225467            2 
 2091000   0.91809576   -3.0264206    1900.0347  0.075722727  0.076211124            3 
 2092000   0.91749948   -3.0076181    1904.8688  0.075879095  0.076196761            3 
 2093000   0.93189844    -3.041725    1904.7996  0.075840085   0.07618231            8 
 2094000   0.90616765   -3.0744011    1904.1822  0.075779298  0.076168025            5 
 2095000   0.91947003   -3.0361232    1907.4173   0.07587181  0.076153262            1 
 2096000   0.92884809   -3.0130538    1906.2819  0.075790471   0.07613873            3 
 2097000   0.92882861    -3.048585    1905.3749  0.075718284  0.076124337            2 
 2098000   0.90516843   -3.0346024    1903.6386  0.075613226  0.076109874            2 
 2099000   0.91388481    -3.035784    1909.1347  0.075795406  0.076095344            2 
 2100000   0.91842189   -3.0183283    1908.7004  0.075742078  0.076080966            4 
 2101000   0.93187895   -3.0304742    1903.3567  0.075494079  0.076066753            3 
 2102000   0.91400615   -3.0313424    1920.6535  0.076143893  0.076052339            4 
 2103000   0.92272058   -3.0383279    1907.0727  0.075569532  0.076037793            2 
 2104000   0.94003521   -3.0328062    1898.6533  0.075200146  0.076023163            4 
 2105000   0.91720869   -3.0192238    1908.2147  0.075542943  0.076008724            3 
 2106000   0.92170164   -3.0138323    1910.3722  0.075592444  0.075994205           11 
 2107000    0.9336168   -3.0478597    1909.7338  0.075531317  0.075979498            6 
 2108000   0.91254744   -3.0251397    1909.8337  0.075499436  0.075964884            4 
 2109000   0.91335563   -3.0481655    1918.7778  0.075817046  0.075950191            3 
 2110000   0.91324304   -3.0418043    1913.9542  0.075590608  0.075935337            2 
 2111000   0.93553908   -3.0285556    1912.2079  0.075485863   0.07592064            3 
 2112000   0.91702638   -3.0084142    1908.9786  0.075322705  0.075905885            4 
 2113000    0.9153117   -3.0217114    1914.4384   0.07550238  0.075891247            3 
 2114000   0.94294892   -3.0323946    1914.8911  0.075484512  0.075876444            2 
 2115000   0.92408855    -3.001978    1922.7392  0.075758047  0.075861917            3 
 2116000   0.89759416   -3.0144866    1912.1602  0.075305617  0.075847082            5 
 2117000    0.9265012    -3.015815    1921.2536  0.075627996  0.075832405            3 
 2118000   0.91513258   -3.0241011    1919.1972  0.075511379  0.075817492            2 
 2119000    0.9317301   -3.0393916    1920.3741  0.075522028  0.075802769            1 
 2120000   0.90673759   -3.0237911    1914.3704  0.075250407  0.075787972            6 
 2121000   0.91035426   -3.0261978    1917.1591  0.075324498  0.075773415            2 
 2122000   0.90972177   -3.0163834    1919.2755  0.075372112  0.075758893            3 
 2123000   0.90820722   -3.0213429    1918.8197  0.075318719  0.075743985            2 
 2124000   0.91689661   -3.0179308    1924.7257  0.075514975  0.075729251            4 
 2125000   0.91356354   -3.0188438    1921.7855  0.075364135   0.07571454            2 
 2126000   0.92890249   -3.0327728     1925.441  0.075471976  0.075699962            5 
 2127000   0.90936972    -3.043108    1923.4853  0.075359871  0.075685383            2 
 2128000   0.91076485   -3.0158567    1926.1214  0.075427687  0.075670568            2 
 2129000   0.88301033    -2.998879    1924.1688  0.075315828  0.075655988            5 
 2130000    0.9211021   -2.9994879    1924.4493  0.075291446  0.075641211            4 
 2131000    0.9169775   -3.0312024    1934.2299  0.075638585  0.075626522            2 
 2132000   0.91225104   -3.0468353    1923.0254  0.075165159  0.075611887            3 
 2133000   0.89970925   -3.0213486    1926.3064  0.075258101  0.075597387            2 
 2134000   0.91638711   -3.0293387    1927.7838  0.075280529  0.075582419            3 
 2135000   0.91289248   -3.0547652    1925.3689  0.075151011  0.075568034            4 
 2136000   0.91303544   -3.0206566    1922.4271  0.075001058  0.075553342            3 
 2137000   0.88991156   -3.0296973    1928.7266  0.075211613  0.075539064            2 
 2138000   0.90926696   -3.0620445    1926.0434  0.075071849   0.07552452            2 
 2139000   0.90593025    -3.029946    1938.1073  0.075506752  0.075510121            3 
 2140000   0.88986103     -3.05851     1932.871  0.075267564  0.075496069            4 
 2141000   0.92847272   -3.0591676    1933.8547  0.075270697  0.075481463            3 
 2142000   0.90563068   -3.0290775    1930.9443  0.075122326  0.075467154            2 
 2143000   0.91315493   -3.0581033     1932.453  0.075145941  0.075452871            3 
 2144000   0.91207026   -3.0488323    1929.0347  0.074978027  0.075438386            2 
 2145000   0.92182398   -3.0198707     1943.117  0.075490169  0.075424402            2 
 2146000   0.90610892    -3.017414    1931.1529  0.074990405  0.075410316            3 
 2147000   0.92321669   -3.0432388    1940.0955  0.075302573  0.075396205            1 
 2148000   0.92854247    -3.052498     1940.594  0.075286856  0.075382071            6 
 2149000   0.93125824   -3.0363237    1950.8737  0.075650446  0.075368203            3 
 2150000   0.90361745   -3.0383249    1944.5694  0.075370905  0.075354555            3 
 2151000    0.9057734   -3.0499122    1944.5585  0.075335443  0.075340787            3 
 2152000    0.9269907   -3.0259318     1946.773  0.075386191  0.075327026            2 
 2153000   0.93153868    -3.047973    1936.0563  0.074936378  0.075312947            2 
 2154000   0.89904862   -3.0192773    1942.4301  0.075148179  0.075299119            6 
 2155000   0.91111909   -3.0486998    1945.8867  0.075246974  0.075285231            5 
 2156000   0.89248622   -3.0474727    1947.1293    0.0752601  0.075271434            5 
 2157000   0.90571946   -3.0603607     1937.108  0.074838049  0.075257339            4 
 2158000   0.91015129   -3.0472444    1946.4128   0.07516268  0.075243257            3 
 2159000   0.93623001    -3.048757    1944.2474  0.075044286  0.075229036            2 
 2160000   0.91868049   -3.0587057    1944.9771  0.075037696  0.075214898            2 
 2161000   0.89948387   -3.0456589    1944.8057  0.074996362  0.075200501            4 
 2162000   0.91453002   -3.0317102    1943.3703  0.074906347   0.07518633            5 
 2163000   0.88655384   -3.0468879    1942.6225  0.074842909  0.075172061            3 
 2164000   0.90103334   -3.0102979    1948.3844  0.075030206   0.07515773            2 
 2165000   0.91827739   -3.0232119    1947.2325  0.074951213  0.075143594            3 
 2166000   0.89868464   -3.0551312    1948.6615  0.074971588  0.075129386            3 
 2167000   0.88107129   -3.0159004    1944.6513  0.074782776  0.075115182            4 
 2168000   0.88675659   -3.0649624    1956.0538  0.075186568  0.075100891            4 
 2169000   0.91885863   -3.0525128    1945.4322  0.074743822  0.075086463            2 
 2170000   0.90957279    -3.045712    1946.2398   0.07474039  0.075072141            3 
 2171000   0.90049143   -3.0157986    1954.5566  0.075025205  0.075057793            3 
 2172000   0.90326787   -3.0196693     1956.147   0.07505168  0.075043511            5 
 2173000    0.9027664   -3.0327198    1955.2834  0.074984025  0.075028894            3 
 2174000   0.90495918   -3.0157448    1952.8551   0.07485645  0.075014603            4 
 2175000   0.88247893   -3.0237041    1947.4115  0.074613468  0.075000413            3 
 2176000   0.90491465   -3.0079099    1953.6711  0.074818901  0.074986099            6 
 2177000   0.89971593   -3.0393066    1956.8598  0.074906593  0.074971741            4 
 2178000   0.88597281   -3.0369826    1948.8926  0.074567364  0.074957337            8 
 2179000    0.8959207   -3.0512641    1951.7248  0.074641457  0.074943103            3 
 2180000   0.91142896   -3.0297562    1951.6625  0.074604836  0.074928862            3 
 2181000   0.89800993   -3.0477848    1954.0989  0.074663722  0.074914399            2 
 2182000   0.90874552   -3.0494878    1954.2781  0.074636347   0.07490003            4 
 2183000   0.92116395   -3.0408546    1956.9494   0.07470413   0.07488581            2 
 2184000   0.90524453   -3.0584523    1952.7708  0.074510484  0.074871667            5 
 2185000   0.89221357   -3.0780924    1966.1489  0.074986609   0.07485713            8 
 2186000   0.90449094   -3.0273341    1960.9361  0.074753587  0.074842712            2 
 2187000   0.90915556   -3.0361787    1955.3597  0.074506922  0.074828236            3 
 2188000   0.90389717   -3.0339211    1960.2304  0.074658379  0.074813833            4 
 2189000   0.90035792   -3.0438611    1956.8288  0.074494778  0.074799171            1 
 2190000   0.88785217   -3.0827213    1955.2171  0.074399433  0.074784793            4 
 2191000   0.93307533   -3.0389956    1953.0541  0.074283207  0.074770256            3 
 2192000    0.8940466   -3.0305369    1957.0995  0.074403114  0.074755895            2 
 2193000   0.89218808   -3.0665711    1956.7782  0.074356975  0.074741312            2 
 2194000   0.89404327   -3.0586396    1958.8906  0.074403319  0.074726853            4 
 2195000   0.92881796   -3.0584394    1956.5748  0.074281502  0.074712341            6 
 2196000   0.91252031   -3.0446941    1958.1482  0.074307386  0.074697817            4 
 2197000   0.89970126   -3.0268885    1966.0656  0.074573875  0.074683127            2 
 2198000   0.88621169   -3.0393199    1962.7099  0.074412719  0.074668433            2 
 2199000   0.90128737   -3.0533608     1961.117  0.074318514  0.074653782            5 
 2200000   0.90041502   -3.0679236    1958.8017  0.074197034  0.074639396            2 
 2201000   0.90855416   -3.0581835    1958.8754  0.074166113  0.074624784            2 
 2202000   0.89127775   -3.0747766    1959.8084   0.07416774  0.074610286            3 
 2203000   0.90176377   -3.0286389    1961.4347  0.074195593  0.074595785            3 
 2204000   0.89088032   -3.0449951     1961.615  0.074168748   0.07458106            5 
 2205000   0.89682305   -3.0335449    1965.4493  0.074280017  0.074566662            1 
 2206000   0.88640322   -3.0633054    1968.9166  0.074377325  0.074552204            3 
 2207000   0.91949893   -3.0534327    1962.8312  0.074113848  0.074537622            5 
 2208000   0.88223687   -3.0338677    1971.0031  0.074388704  0.074523229            3 
 2209000   0.90899435   -3.0627932    1965.3356  0.074141226  0.074508786            6 
 2210000   0.90505267   -3.0644556    1966.0949  0.074136307  0.074494365            2 
 2211000   0.89780876   -3.0717554    1967.7547  0.074165337  0.074479794            1 
 2212000   0.89801183   -3.0651209    1967.2973  0.074114575  0.074465469            6 
 2213000   0.89689407   -3.0599539    1968.0519  0.074109501  0.074450732            2 
 2214000   0.89158878   -3.0506284    1970.5573   0.07417033  0.074436279            2 
 2215000   0.90000992   -3.0425832    1975.6819  0.074329643  0.074421821            3 
 2216000   0.89814972   -3.0473971    1972.3763  0.074171791   0.07440739            3 
 2217000   0.90612712   -3.0566717    1965.1515  0.073866769  0.074393107            5 
 2218000   0.89570811   -3.0828725    1970.9398  0.074050939  0.074378452            5 
 2219000   0.91739322   -3.0577195    1976.5697  0.074228995  0.074363904            3 
 2220000   0.88941646   -3.0747782     1970.351  0.073962123   0.07434939            4 
 2221000   0.90452902   -3.0381902    1976.0059  0.074140999  0.074335074            2 
 2222000   0.88410137    -3.048635    1977.5319  0.074164861  0.074320655            3 
 2223000   0.90174223    -3.030639    1979.7327     0.074214  0.074306109            1 
 2224000   0.89217432   -3.0551505    1973.1875  0.073935384  0.074291575            3 
 2225000   0.89621035   -3.0543002      1978.83  0.074113484  0.074277431            9 
 2226000   0.88758981   -3.0426659    1977.1856  0.074018628  0.074263244            6 
 2227000   0.89213409   -3.0547936     1978.467  0.074033341  0.074248809            4 
 2228000    0.8749552   -3.0546989    1976.9141  0.073942029  0.074234456            7 
 2229000   0.90436271   -3.0383922    1975.6987  0.073863419  0.074220217            2 
 2230000   0.91242906   -3.0781766    1988.7521  0.074318091  0.074205918            4 
 2231000   0.89352125    -3.061154    1975.6718  0.073796197  0.074191498            3 
 2232000   0.87173416   -3.0858917    1975.4924  0.073756435  0.074176833            7 
 2233000   0.87558043    -3.048673    1975.7422  0.073732728  0.074162229            2 
 2234000   0.88486871   -3.0263533    1983.6023  0.073992925   0.07414783            3 
 2235000   0.88310003   -3.0543624    1988.0232  0.074124653  0.074133723            3 
 2236000   0.89758863   -3.0507193    1990.6534  0.074189527  0.074119538            2 
 2237000   0.90038414   -3.0366616    1990.4296  0.074148027  0.074105264            3 
 2238000   0.88634033   -3.0962408    1978.4085   0.07366728  0.074090938            2 
 2239000   0.88715151   -3.0658186    1985.7707  0.073908393   0.07407654            3 
 2240000   0.90530312   -3.0635416    1983.8586  0.073804263  0.074062241            5 
 2241000   0.90093532   -3.0635528    1985.3715  0.073827588  0.074047724            4 
 2242000   0.88329132   -3.0528974    1984.7545  0.073771726  0.074033402            2 
 2243000   0.89743109    -3.032157    1983.7652   0.07370208  0.074018936            5 
 2244000   0.90567252   -3.0808328    1988.5702  0.073847675  0.074004802            5 
 2245000   0.88767761   -3.0453349    1987.4193   0.07377206  0.073990742            3 
 2246000   0.90427336   -3.0573074    1990.2283  0.073843435  0.073976488            3 
 2247000     0.907203   -3.0357488    1985.7227  0.073643477  0.073962226            4 
 2248000   0.90681416   -3.0752244    1985.1898  0.073590961  0.073947944            6 
 2249000   0.91452044   -3.0568739    1993.1725  0.073854026  0.073933928            3 
 2250000   0.89554929   -3.0223379    1993.4111  0.073830042  0.073919949            3 
 2251000   0.89259711   -3.0604727    1992.6821  0.073770254  0.073905784            3 
 2252000   0.90029708   -3.0654708    1990.9024  0.073671639  0.073891732            2 
 2253000   0.88666921   -3.0651205    1999.2768  0.073948692  0.073877863            2 
 2254000   0.89428518   -3.0545488    2000.4941  0.073960887  0.073863963            2 
 2255000   0.89189513   -3.0819771    1991.9355  0.073611807  0.073849877            5 
 2256000   0.88230315   -3.0874136    1993.3632  0.073631915  0.073835693            1 
 2257000   0.91795068   -3.0644683    1997.1906  0.073740609  0.073821767            2 
 2258000   0.89102613   -3.0655335    1987.6948    0.0733575   0.07380763            4 
 2259000   0.88634158   -3.0474124    1994.5043  0.073576225  0.073793424            2 
 2260000   0.89225112   -3.0664592    1997.3473    0.0736485  0.073779619            3 
 2261000   0.88574899   -3.0865304    1995.6556  0.073553574  0.073765451            3 
 2262000   0.88602202   -3.0657372    1991.6251  0.073372571  0.073751435            4 
 2263000   0.89375743   -3.0777528      2007.06   0.07390853  0.073737328            5 
 2264000    0.8759132   -3.0723445    1999.7819  0.073607991  0.073723516            3 
 2265000   0.88976248   -3.0530318    2004.0379  0.073732079  0.073709671            3 
 2266000   0.87832425   -3.0623801    2002.0533  0.073626554  0.073695752            2 
 2267000   0.89893899    -3.079183     2008.016  0.073813262  0.073681936            4 
 2268000   0.88943382   -3.0514058    2003.3007  0.073607464  0.073667874            4 
 2269000   0.88858941   -3.0541387     2006.701  0.073699903  0.073653787            3 
 2270000   0.87986181   -3.0410894     1998.815  0.073377937  0.073640186            2 
 2271000   0.87435198   -3.0610607    2002.9287  0.073496577  0.073626372            5 
 2272000    0.8696687   -3.0691372     2007.383  0.073627603  0.073612515            3 
 2273000   0.88981757   -3.0698375    2007.3987  0.073595786  0.073598657            4 
 2274000   0.89086841    -3.067749    2007.4188  0.073564159  0.073584825            2 
 2275000   0.88358388   -3.0557867    2006.9235  0.073513683  0.073570967            2 
 2276000   0.87844414   -3.0562502    2008.8447  0.073551725  0.073556836            6 
 2277000    0.8834546   -3.0531913    2007.7887  0.073480776  0.073542859            1 
 2278000   0.87739321   -3.0502208    2005.8115   0.07337619  0.073529226            3 
 2279000   0.89625016   -3.0482804    2018.6401  0.073813078  0.073515494            5 
 2280000   0.88649891   -3.0712638    2012.9201  0.073571641  0.073501615            4 
 2281000   0.89565483   -3.0708743    2011.0558  0.073471278  0.073487802            2 
 2282000   0.86999535   -3.0650423    2005.3703  0.073231461  0.073474043            2 
 2283000   0.89036456   -3.0818071    2007.0389  0.073260291  0.073460243            3 
 2284000   0.88139674   -3.0800046    2006.5481  0.073210308  0.073446525            2 
 2285000   0.88381485   -3.0649735    2004.8063  0.073114745  0.073432754            4 
 2286000   0.87289802   -3.0519991    2011.5196  0.073327487  0.073418738            2 
 2287000   0.89177095   -3.0382923    2020.7095  0.073630283  0.073405092            4 
 2288000   0.87715529   -3.0563831     2013.831  0.073347576   0.07339122            3 
 2289000   0.89670082   -3.0552404    2015.2591  0.073367524  0.073377408            5 
 2290000   0.90834179   -3.0826353    2016.8292  0.073392619  0.073363549            5 
 2291000   0.90470445   -3.0729942    2022.5293  0.073567922  0.073349925            2 
 2292000   0.87980704   -3.0529861    2013.4831  0.073206918   0.07333644            3 
 2293000   0.89893295   -3.0590871    2024.3117  0.073568532   0.07332297            2 
 2294000   0.88216441   -3.0900142    2020.3524  0.073392632  0.073309403            3 
 2295000   0.86858048   -3.0757312    2029.1877  0.073681472  0.073295851            3 
 2296000     0.888934   -3.0505298    2024.0684  0.073463576  0.073282347            3 
 2297000   0.89413211   -3.0556934    2029.9258  0.073644095  0.073268918            3 
 2298000   0.88223036   -3.0927574    2013.7976  0.073027183  0.073255426            3 
 2299000   0.87910278    -3.066383    2020.3649  0.073233467  0.073241942            2 
 2300000   0.88783405   -3.0773293    2019.6379  0.073175285   0.07322859            3 
 2301000   0.87507089   -3.0825945    2024.7447  0.073328431  0.073215055            7 
 2302000   0.88310701   -3.0802344    2026.2519  0.073351139   0.07320144            4 
 2303000   0.88980987   -3.0696454    2024.7915  0.073266447  0.073187559            9 
 2304000   0.88258084   -3.0647917     2016.987  0.072952364  0.073173707            5 
 2305000    0.8920781   -3.0425741    2026.6328  0.073269443  0.073159997            2 
 2306000   0.87938443   -3.0864902    2025.8309   0.07320869   0.07314654            2 
 2307000   0.88394004   -3.0870991    2022.7792  0.073066724  0.073133182            4 
 2308000    0.8790354   -3.0742906    2028.6636  0.073247529   0.07311976            2 
 2309000   0.87798029   -3.0622495    2030.2356  0.073272544  0.073106283            3 
 2310000     0.877799   -3.0849973    2030.6357  0.073255256   0.07309284            3 
 2311000   0.89942532    -3.065936    2027.4378  0.073108243  0.073079626            2 
 2312000   0.89756518   -3.0606449    2028.9309   0.07313044  0.073066075            2 
 2313000   0.85540231   -3.0742895    2025.3163  0.072968593  0.073052668            4 
 2314000   0.87934337   -3.0519687    2035.4542  0.073302154  0.073039342            1 
 2315000   0.88581085   -3.0806463    2033.3552  0.073194931  0.073026122            3 
 2316000   0.87996904   -3.0840204    2035.3407  0.073234768  0.073012693            2 
 2317000   0.87336044   -3.1035929    2035.5387  0.073210284  0.072999397            4 
 2318000   0.89198381    -3.083246    2031.5125  0.073033955  0.072986402            3 
 2319000   0.87083503   -3.0591804    2043.5205  0.073433969  0.072973345            3 
 2320000   0.87433559   -3.0374683    2045.6203  0.073477739  0.072960524            2 
 2321000   0.87639836   -3.0787102     2038.178  0.073178873  0.072947517            4 
 2322000   0.87665283    -3.062966    2043.1881  0.073327165  0.072934487            4 
 2323000   0.87917542   -3.0604806    2038.2768  0.073119413  0.072921443            3 
 2324000   0.87776463   -3.0488738    2045.6053  0.073350735   0.07290811            3 
 2325000   0.89300817   -3.0645215    2039.1909  0.073089279  0.072894898            3 
 2326000   0.87080772   -3.0681403    2033.6111  0.072857948  0.072881401            5 
 2327000   0.89859723   -3.0692837    2037.7371  0.072974398  0.072868095            5 
 2328000   0.89354064   -3.0961325    2040.1937   0.07303099  0.072854801            4 
 2329000   0.86862511   -3.0629539    2029.2414  0.072607751  0.072841409            2 
 2330000   0.88719703   -3.0819757    2044.2585  0.073113682  0.072828154            4 
 2331000   0.90113308   -3.0787232    2038.1632  0.072864406  0.072814813            3 
 2332000   0.89450165    -3.064525    2045.7734   0.07310511  0.072801669            4 
 2333000   0.87705086    -3.082658    2041.7167  0.072928872  0.072788585            3 
 2334000   0.89003307   -3.0863146    2046.5801   0.07307127  0.072775014            4 
 2335000   0.88384135   -3.0702297    2043.8122  0.072941192  0.072762089            2 
 2336000   0.87929853   -3.0897432    2049.5806  0.073115745  0.072748867            3 
 2337000   0.87185848   -3.0722476    2050.2014  0.073106598   0.07273563            3 
 2338000   0.87521892   -3.0554947    2044.1427  0.072859376  0.072722445            4 
 2339000   0.87985681   -3.0709406    2043.3131  0.072798673  0.072709215            3 
 2340000   0.87601013   -3.0694127    2041.6121  0.072706983   0.07269599            4 
 2341000   0.87922916   -3.0798725    2054.4011  0.073131181   0.07268273            5 
 2342000   0.89690707   -3.0503025    2049.2088  0.072915201  0.072669752            4 
 2343000   0.86630138   -3.0787312    2047.7446  0.072832004  0.072656405            2 
 2344000   0.88329292   -3.0408129    2052.6989  0.072977067  0.072643338            4 
 2345000   0.88251668   -3.0898806    2050.0446  0.072851619  0.072630211            3 
 2346000   0.85933984   -3.1041751    2050.1111  0.072822928  0.072616943            1 
 2347000   0.86633254   -3.0698693    2051.3715  0.072836653  0.072603737            2 
 2348000   0.87250612   -3.0880742    2054.0637  0.072901182  0.072590613            3 
 2349000    0.8500348   -3.0733115    2051.9193  0.072794073  0.072577455            4 
 2350000   0.86766578   -3.0571211    2059.4717  0.073030911  0.072564241            3 
 2351000   0.86503532    -3.084142    2047.9857  0.072592715  0.072551242            1 
 2352000   0.86861224   -3.0759022    2048.8235  0.072591535  0.072538098            5 
 2353000   0.87651902   -3.0862432    2050.1107  0.072606273   0.07252505            4 
 2354000   0.88121531   -3.1039734    2057.8415  0.072849105  0.072511844            4 
 2355000   0.87957826   -3.0682191    2049.6928  0.072529823   0.07249882            2 
 2356000   0.88339442    -3.083019    2057.6582   0.07278078  0.072485796            5 
 2357000   0.88196914   -3.1008471    2057.5358  0.072745573   0.07247253            2 
 2358000     0.871287    -3.091673    2055.0081  0.072625394  0.072459356            3 
 2359000   0.85679334   -3.0540897    2056.9973  0.072664875  0.072446071            4 
 2360000   0.86535138   -3.0443158    2051.7781  0.072449792  0.072432915            5 
 2361000   0.88982531   -3.0881463    2054.0969   0.07250095  0.072419606            7 
 2362000   0.85898148   -3.0957223    2062.5578  0.072768763  0.072406312            5 
 2363000   0.89906648   -3.0776861    2058.0184  0.072577881  0.072392987            3 
 2364000   0.86577266   -3.0908375    2056.4628  0.072492344  0.072379796            2 
 2365000   0.87740197   -3.1051652    2062.3805  0.072670209  0.072366586            3 
 2366000   0.87177208    -3.072401    2057.2935  0.072460324  0.072353364            2 
 2367000   0.87461686   -3.1021974    2060.4401   0.07254049  0.072340024            2 
 2368000   0.88030519   -3.0790632    2065.9824  0.072704898  0.072327121            2 
 2369000    0.8642844   -3.0972489    2065.7848  0.072667258  0.072314044            6 
 2370000   0.87544629   -3.0804983    2063.4329  0.072553899  0.072301115            3 
 2371000   0.86184022   -3.0861837    2069.6464  0.072741684  0.072288033            6 
 2372000   0.86962627   -3.0844895    2061.6578   0.07243036  0.072274916            7 
 2373000    0.8837816    -3.086647    2071.3713  0.072740949  0.072262011            6 
 2374000   0.87882531   -3.0532114    2073.1372  0.072772298  0.072249088            1 
 2375000   0.87722339    -3.102196    2073.1927  0.072743603  0.072236352            2 
 2376000   0.86707101   -3.0868048    2072.4427  0.072686684  0.072223432            9 
 2377000   0.88467985   -3.0762682    2070.4772  0.072587198   0.07221053            5 
 2378000   0.88152682   -3.0909701    2068.3433  0.072481891  0.072197542            4 
 2379000   0.89599848   -3.0829701    2070.3639  0.072522206  0.072184497            3 
 2380000   0.86636288    -3.088197    2074.9218  0.072651323  0.072171621            3 
 2381000   0.86831155   -3.0661475    2073.9573  0.072587052  0.072158711            2 
 2382000   0.86674011   -3.0779104    2063.6646  0.072196495   0.07214565            6 
 2383000   0.84737632   -3.0501619    2075.5303  0.072581141  0.072132758            3 
 2384000   0.87595236   -3.0824379    2074.1825  0.072503584  0.072119677            2 
 2385000   0.89807598   -3.1155692    2069.3066  0.072302816  0.072106788            4 
 2386000   0.86429319   -3.0879062     2075.671  0.072494797  0.072093808            3 
 2387000   0.85453663   -3.0744492     2068.116  0.072200671  0.072080712            2 
 2388000   0.87558463   -3.0805116    2071.5792  0.072291291  0.072067602            3 
 2389000   0.83997651   -3.0671562    2069.7105  0.072195847  0.072054542            1 
 2390000    0.8762134   -3.0885109    2071.4356  0.072225787  0.072041339            7 
 2391000   0.86447681   -3.0761866    2075.2717   0.07232928  0.072028206            2 
 2392000   0.86329193   -3.0827098    2073.1429  0.072224879  0.072014886            3 
 2393000   0.86503958   -3.0940763    2075.5826  0.072279655  0.072001503            2 
 2394000   0.87043078   -3.0985919    2072.7711  0.072151598  0.071988352            4 
 2395000   0.87278111   -3.0993974    2067.9975  0.071955374  0.071975172            4 
 2396000   0.87370704   -3.0637198    2080.8886  0.072373698  0.071962267            3 
 2397000   0.85663519    -3.099662    2075.9724  0.072172591  0.071949249            4 
 2398000   0.86804311   -3.0679203    2077.8709  0.072208469  0.071936023            3 
 2399000   0.86392348   -3.0908654    2077.1457  0.072153179  0.071922801            5 
 2400000   0.87754502   -3.0914021    2076.4474  0.072098869  0.071909492            2 
 2401000   0.85236282   -3.0878274    2075.4031  0.072032593  0.071896221            5 
 2402000   0.88782382   -3.0780974    2069.6173  0.071801878  0.071883013            7 
 2403000   0.85763096   -3.0658429    2083.8956  0.072267152  0.071870048            2 
 2404000   0.85934429   -3.1018306    2078.7533  0.072058837  0.071856824            4 
 2405000   0.87614036   -3.0795104    2082.9284   0.07217354  0.071843723            7 
 2406000   0.85447025   -3.1138177    2082.1793  0.072117597  0.071830499            2 
 2407000   0.85860525   -3.1161763    2086.1637  0.072225583  0.071817437            6 
 2408000   0.86735866   -3.1133807    2077.1289  0.071882923  0.071804376            2 
 2409000   0.86225859   -3.0484582    2085.7743  0.072152148  0.071791214            2 
 2410000   0.85031619   -3.0868387    2081.4171  0.071971546  0.071777986            3 
 2411000   0.87464419    -3.089008    2090.2519  0.072247059  0.071764936            2 
 2412000   0.86589566   -3.0794924    2077.8507  0.071788651  0.071751833            4 
 2413000   0.86852149   -3.0995692    2086.1945  0.072047053  0.071738682            2 
 2414000   0.84092226   -3.0815556    2081.0497  0.071839604  0.071725369            7 
 2415000   0.87506488   -3.1059218     2085.691  0.071970014  0.071712268            3 
 2416000   0.84949627   -3.0988228    2080.9522  0.071776772  0.071699017            3 
 2417000   0.87074366   -3.0872596    2084.9266  0.071884104  0.071685818            2 
 2418000   0.86076438   -3.1033582    2085.6262  0.071878488  0.071672426            2 
 2419000   0.87658002   -3.1031944    2086.1553     0.071867  0.071658982            3 
 2420000   0.86740033   -3.1131172    2080.8377   0.07165419  0.071645465            2 
 2421000   0.85098147   -3.0862248    2094.5265  0.072095776  0.071632281            5 
 2422000   0.85789298   -3.1086429    2082.4005  0.071648793  0.071618952            6 
 2423000   0.85252946   -3.0736971    2084.9658  0.071707449  0.071605718            2 
 2424000    0.8555554   -3.0965382    2079.2215  0.071480387  0.071592586            4 
 2425000   0.86323396   -3.1175127      2086.95  0.071716495  0.071579257            3 
 2426000    0.8732579   -3.0617301    2097.8943   0.07206287  0.071566044            4 
 2427000   0.87398372   -3.1220916    2086.5162  0.071642501  0.071552613            1 
 2428000   0.85790311   -3.1095267     2095.725  0.071929057  0.071539482            4 
 2429000   0.86049018    -3.082378    2093.4138  0.071820153  0.071526497            3 
 2430000   0.86784752   -3.0910787    2090.5068  0.071690904  0.071513351            4 
 2431000   0.86446598   -3.0739892    2096.3492   0.07186169  0.071500243            3 
 2432000   0.86850196   -3.0980214    2095.5076  0.071803302  0.071487278            4 
 2433000   0.86986443   -3.1007788    2091.1361  0.071624061  0.071474114            3 
 2434000   0.85124365   -3.1106245    2102.3277  0.071977804  0.071461174            1 
 2435000   0.86071908   -3.1226249     2093.826  0.071657288  0.071448343            5 
 2436000   0.85007884   -3.1217036    2097.7794  0.071763116  0.071435502            3 
 2437000   0.87512844   -3.0777836    2100.7996  0.071836944  0.071422634            3 
 2438000   0.86946089   -3.1116603    2097.5982   0.07169805   0.07140996            3 
 2439000   0.85844062   -3.1054626    2103.7161  0.071877685  0.071396865            2 
 2440000   0.86581153   -3.1069558    2098.9484  0.071685397  0.071383971            2 
 2441000   0.86983835   -3.0880841    2093.3894  0.071466251  0.071370825            2 
 2442000   0.86151475   -3.1005448    2090.4516  0.071336732  0.071357634            2 
 2443000   0.84542896   -3.0845333    2104.0024  0.071769764  0.071344628            2 
 2444000   0.85688968   -3.0805013    2102.0132  0.071672574  0.071331669            7 
 2445000   0.86851158   -3.1121989    2099.0986  0.071543919  0.071318678            4 
 2446000   0.86762818   -3.0952864     2099.558   0.07153032  0.071305724            4 
 2447000   0.85902661   -3.0995401    2099.6628   0.07150466  0.071292496            2 
 2448000   0.86284238   -3.1262666    2102.5258  0.071572909  0.071279475            3 
 2449000   0.86503909   -3.0966014    2090.9767  0.071150696  0.071266292            2 
 2450000   0.87370423   -3.0973179    2110.3288   0.07177989  0.071253269            1 
 2451000    0.8803869   -3.1029077    2103.5344  0.071519599  0.071240246            3 
 2452000   0.84142756   -3.1192517    2102.9818  0.071471649  0.071226965            3 
 2453000   0.85017458   -3.1112137    2098.1232  0.071277457  0.071213645            5 
 2454000   0.85513392   -3.1118007     2102.105  0.071383624  0.071200421            3 
 2455000   0.82611866   -3.1022943    2100.9418  0.071315063   0.07118739            3 
 2456000   0.85388568   -3.1169556    2105.8713  0.071453288  0.071174243            4 
 2457000   0.86656422   -3.1027976    2107.2108  0.071469639  0.071161032            2 
 2458000   0.87051684   -3.0924211    2103.7649  0.071323737  0.071147747            3 
 2459000   0.86963623   -3.1033212    2105.1468  0.071341562  0.071134466            3 
 2460000    0.8535356   -3.1038276    2097.3175   0.07104734  0.071121362            5 
 2461000   0.85370542   -3.0964066    2107.5794  0.071365956  0.071108058            3 
 2462000   0.85709236   -3.0910074    2105.5399  0.071267937  0.071095007            5 
 2463000   0.85599647   -3.0923083    2109.8876    0.0713861  0.071081909            6 
 2464000   0.87033661   -3.1281229    2105.2864  0.071201515  0.071068652            4 
 2465000   0.86392823   -3.0915234     2107.983  0.071263793  0.071055552            5 
 2466000   0.86535276   -3.1110365     2109.305  0.071279568  0.071042559            2 
 2467000   0.86183087    -3.119352    2112.1896  0.071348116  0.071029526            3 
 2468000   0.85538478   -3.0895529    2121.7428  0.071641775  0.071016289            3 
 2469000     0.868497   -3.0813764    2116.6118  0.071439577  0.071003198            3 
 2470000   0.84531385    -3.098993    2118.7068  0.071481336  0.070990283            1 
 2471000   0.84642546   -3.1309325    2112.9704   0.07125895  0.070977345            4 
 2472000   0.87057725   -3.1296245    2119.3104  0.071443851  0.070964461            3 
 2473000   0.85771034   -3.1103574    2118.5234  0.071388443  0.070951547            3 
 2474000   0.85691829   -3.1106499    2114.1719  0.071213012  0.070938825            4 
 2475000   0.85944317   -3.1297603    2114.6231  0.071199432  0.070925716            4 
 2476000   0.86865136   -3.1118663    2113.1249   0.07112025  0.070912869            4 
 2477000   0.86894329   -3.0839723    2107.5727  0.070904749  0.070899914            7 
 2478000    0.8341939   -3.1281586    2110.5415  0.070975973  0.070886801            3 
 2479000   0.85390743   -3.1122904    2113.0565  0.071031884    0.0708738            4 
 2480000   0.85747439   -3.1167554    2119.3956  0.071216251  0.070860756            3 
 2481000   0.87855438   -3.1125103    2119.5978  0.071194337  0.070847801            3 
 2482000   0.85744248   -3.0917976    2118.4879  0.071128387  0.070834615            4 
 2483000   0.87293373   -3.1267146    2120.3019  0.071160622   0.07082187            3 
 2484000   0.86214914    -3.143649    2113.3647  0.070899244  0.070808778            4 
 2485000   0.87768021   -3.1230104    2121.2336  0.071134594   0.07079582            6 
 2486000   0.85814685   -3.1003361    2127.2326  0.071307075  0.070782587            4 
 2487000    0.8509729   -3.1327193    2113.1712  0.070807238  0.070769553            4 
 2488000   0.86286735   -3.1360539    2123.0739  0.071110459  0.070756489            6 
 2489000   0.85794218   -3.0997605    2120.8353   0.07100694  0.070743552            2 
 2490000   0.86101948   -3.1248704    2113.2929  0.070726001  0.070730551            2 
 2491000   0.85141555   -3.1380632    2127.1787  0.071162141  0.070717635            3 
 2492000    0.8480247   -3.1301508    2126.5386  0.071112178  0.070704624            5 
 2493000     0.846272   -3.1269165    2124.9439   0.07103035  0.070691711            4 
 2494000   0.85400689    -3.106986    2123.3862  0.070949818  0.070678688            4 
 2495000   0.85615759   -3.1229961     2118.832  0.070769273  0.070665937            3 
 2496000   0.84490768   -3.1049369    2133.8489  0.071242284  0.070653028            3 
 2497000   0.85868001   -3.1153085    2126.1308  0.070956173  0.070640051            2 
 2498000    0.8498391   -3.0995664    2118.5792  0.070675847  0.070627016            7 
 2499000   0.86940038    -3.123872    2126.0666  0.070897246   0.07061386            3 
 2500000   0.86629643   -3.1142402    2127.6481  0.070921604  0.070600658            2 
 2501000   0.86208467   -3.0832271    2126.4892  0.070854631   0.07058776            5 
 2502000   0.85237233   -3.1248077     2130.007   0.07094348  0.070574743            1 
 2503000   0.83695298   -3.1014291    2128.3846   0.07086112  0.070561855            5 
 2504000   0.86625473   -3.1180369    2129.4991  0.070869911  0.070548851            4 
 2505000   0.84057132   -3.1175357    2131.5002  0.070908189  0.070535927            3 
 2506000   0.83153351   -3.1126006    2120.3338  0.070508572  0.070522738            3 
 2507000   0.85293243     -3.12652    2133.5612   0.07092013  0.070509545            5 
 2508000   0.84311354   -3.1192185    2126.5151  0.070657731  0.070496395            6 
 2509000   0.84279406   -3.1144877    2124.9197   0.07057658  0.070483294            3 
 2510000    0.8673928   -3.0871909    2132.5151  0.070800635  0.070470169            3 
 2511000    0.8416564   -3.1273528    2137.1717  0.070926978  0.070456917            5 
 2512000    0.8726441   -3.1021241    2125.5903  0.070514541  0.070443467            2 
 2513000   0.81814594   -3.1084212     2132.823  0.070726324  0.070430094            2 
 2514000   0.84819651   -3.1102114    2130.8766   0.07063367  0.070416907            4 
 2515000   0.85020444   -3.1117968    2137.3678  0.070820668  0.070403748            3 
 2516000   0.86722321   -3.1277748    2127.4693  0.070464671  0.070390629            5 
 2517000   0.85788799   -3.1271296    2124.8191  0.070348931  0.070377401            5 
 2518000   0.84207578    -3.155536    2126.6233  0.070380703  0.070364153            3 
 2519000   0.86980861    -3.107626    2135.1723   0.07063558  0.070351095            2 
 2520000   0.84720633   -3.1055846    2129.9857  0.070436034  0.070337924            6 
 2521000   0.85841255   -3.1527897    2124.1406  0.070214883  0.070324433            2 
 2522000   0.85500263   -3.1297554    2135.3051  0.070555946  0.070311163            2 
 2523000    0.8315886   -3.1100589    2130.0627  0.070354824  0.070297917            3 
 2524000   0.85502718   -3.1127444     2131.893  0.070387382  0.070284466            3 
 2525000   0.84638689   -3.1141417    2135.9964   0.07049493   0.07027127            4 
 2526000   0.86185958   -3.1507852    2132.0958   0.07033834  0.070258022            5 
 2527000   0.82585688   -3.1261351     2131.559  0.070292803  0.070244784            4 
 2528000   0.85095309   -3.1125975    2129.1588  0.070185879  0.070231689            5 
 2529000   0.81722562   -3.1253893    2138.8238  0.070476598  0.070218326            5 
 2530000   0.86973871   -3.0997367    2136.9464  0.070386904  0.070205129            3 
 2531000   0.84952148   -3.1231226    2138.7955  0.070419975  0.070191791            2 
 2532000   0.84142497   -3.1267247    2141.1345  0.070469145  0.070178624            2 
 2533000   0.85966539   -3.1106424    2136.8914  0.070301732  0.070165347            3 
 2534000   0.83733931   -3.1409923    2139.5633  0.070361855  0.070152181            4 
 2535000   0.84040306    -3.119383    2139.2738  0.070324581   0.07013927            5 
 2536000   0.85680484   -3.1283118    2142.7915  0.070412443  0.070126324            7 
 2537000   0.82209567    -3.146436    2138.2555  0.070235694  0.070113307            3 
 2538000   0.85640723   -3.1075279     2140.885   0.07029436  0.070100253            3 
 2539000   0.81405446   -3.1293532    2147.8073  0.070493872  0.070087338            2 
 2540000   0.84223634   -3.0980745    2145.5535  0.070392175  0.070074376            2 
 2541000   0.86068022   -3.1178965    2146.8426  0.070406749  0.070061407            2 
 2542000   0.83424908   -3.1239625    2140.4736   0.07017026  0.070048433            4 
 2543000   0.84191306     -3.11917    2145.1263  0.070295135  0.070035408            5 
 2544000   0.84500427    -3.089521    2155.6694  0.070612859  0.070022586            5 
 2545000   0.82845248   -3.1341585    2145.9199  0.070265877  0.070009702            1 
 2546000   0.84838955    -3.125123     2147.997  0.070306264  0.069996823            4 
 2547000   0.84639945    -3.129224    2149.2951  0.070321134   0.06998405            5 
 2548000   0.86561206   -3.1332511    2150.0383   0.07031784  0.069971113            5 
 2549000   0.84146528   -3.1206793    2150.0774  0.070291532  0.069958272            2 
 2550000   0.84651635   -3.1251329    2156.0083  0.070457788  0.069945438            2 
 2551000    0.8450445   -3.1230936    2154.6472  0.070385704  0.069932699            2 
 2552000   0.83662992   -3.1266716    2154.6031  0.070356685  0.069919726            2 
 2553000   0.85484914    -3.131737     2150.511  0.070195555  0.069906828            3 
 2554000   0.83941684   -3.1503961    2143.8364  0.069950287  0.069893844            3 
 2555000   0.84312972   -3.1271987    2152.2852  0.070198472  0.069880939            5 
 2556000   0.86135836    -3.125187    2153.4293  0.070208309  0.069868016            3 
 2557000   0.84220709   -3.1139368     2148.769  0.070028973  0.069855228            2 
 2558000   0.83374616   -3.1030117     2152.822  0.070133632  0.069842345            4 
 2559000   0.84458529   -3.1457642    2155.1071  0.070180639  0.069829517            3 
 2560000   0.84022126   -3.1177441    2160.9584  0.070343699  0.069816751            6 
 2561000   0.83807505   -3.1441641    2158.0656  0.070222102  0.069804021            3 
 2562000   0.84078319   -3.1156597      2149.67  0.069921611  0.069791515            5 
 2563000    0.8489901   -3.1406701    2151.6254  0.069957907  0.069778857            3 
 2564000    0.8447861   -3.1097875    2160.0746  0.070205234  0.069765933            3 
 2565000   0.84903184   -3.1314885    2161.8492  0.070235515  0.069753274            4 
 2566000    0.8301922    -3.143639    2158.9207   0.07011304   0.06974051            3 
 2567000   0.85709967   -3.1043337    2152.5605  0.069879252  0.069727849            5 
 2568000   0.84768449   -3.1518205    2159.7157  0.070084232  0.069714943            2 
 2569000   0.85108506   -3.1262071    2163.9166   0.07019322  0.069702179            3 
 2570000   0.83810435   -3.1430368    2168.4955  0.070314381  0.069689367            2 
 2571000   0.83944815    -3.118866    2161.0949  0.070047156  0.069676739            4 
 2572000   0.84181134   -3.1465853    2162.4897  0.070065115  0.069664117            3 
 2573000   0.85991423   -3.1206089    2170.3938  0.070293878  0.069651441            3 
 2574000   0.85237655   -3.1573723    2161.3956  0.069975253  0.069638657            3 
 2575000   0.84697474   -3.1235386    2170.6314  0.070246972    0.0696259            3 
 2576000   0.83373133   -3.1319013     2166.476  0.070085274  0.069613277            6 
 2577000   0.83121269   -3.1568759    2163.6375  0.069966288  0.069600631            5 
 2578000   0.84787235   -3.1249646    2162.2188  0.069893288  0.069588261            2 
 2579000   0.82033187   -3.1156249    2175.4026  0.070292186  0.069575964            5 
 2580000   0.82698392   -3.1280834    2174.7372  0.070243449  0.069563696            1 
 2581000   0.85260487   -3.1507813     2164.872  0.069897713  0.069551159            3 
 2582000   0.83486076   -3.1423664    2172.8726  0.070128859   0.06953868            4 
 2583000   0.84447303    -3.124294    2163.8565   0.06981083  0.069526358            2 
 2584000   0.83935771   -3.1198828    2180.9596  0.070335386  0.069514055            7 
 2585000   0.83321898   -3.1466882    2173.4584  0.070066356   0.06950166            3 
 2586000   0.85774627   -3.1184812    2175.8963  0.070117824  0.069489282            7 
 2587000   0.84908917    -3.136087    2169.7272  0.069891999  0.069476869            8 
 2588000   0.83898134   -3.1328481    2172.5333  0.069955348  0.069464349            3 
 2589000   0.85433897   -3.1365987    2171.6943  0.069901324  0.069451724            4 
 2590000   0.85348867   -3.1371075     2167.616  0.069743115  0.069438875            5 
 2591000   0.80976321   -3.1289681     2175.346  0.069964815  0.069426116            3 
 2592000   0.82218513   -3.1278919    2177.5077   0.07000732  0.069413618            5 
 2593000   0.83161291   -3.1199164    2169.6517  0.069727846  0.069401046            3 
 2594000   0.82676274   -3.1486427    2172.5549  0.069794233  0.069388538            6 
 2595000    0.8365201   -3.1176847    2177.6603  0.069931289  0.069376063            2 
 2596000   0.84164736   -3.1247611    2182.9449   0.07007399  0.069363771            3 
 2597000    0.8390737   -3.1351629    2174.4187  0.069773415  0.069351261            3 
 2598000    0.8262708   -3.1288376    2181.7825  0.069982759  0.069338627            4 
 2599000   0.83503596   -3.1456275    2172.8136  0.069668257  0.069326304            1 
 2600000   0.82988632   -3.1313107    2177.0777  0.069778132  0.069313811            3 
 2601000   0.82903155   -3.1171621    2171.1915  0.069562717  0.069301481            3 
 2602000   0.84438961   -3.1495113    2172.0087  0.069562155  0.069289093            5 
 2603000   0.83107109   -3.1435207    2182.1714  0.069860783   0.06927667            2 
 2604000   0.82454698   -3.1359477     2183.356  0.069871863  0.069264326            3 
 2605000   0.83090375   -3.1321326    2182.8937  0.069830251  0.069252067            2 
 2606000   0.84465501   -3.1144459    2191.3817  0.070074881  0.069240008            3 
 2607000      0.83996    -3.119897    2183.6157  0.069799759  0.069228002            2 
 2608000   0.82735797    -3.131274    2190.8099  0.070002873  0.069215825            5 
 2609000   0.83255214   -3.1406739    2185.0656  0.069792564  0.069203775            3 
 2610000   0.84105669   -3.1379958    2185.4271  0.069777366  0.069191555            1 
 2611000   0.84548786    -3.145724     2186.732  0.069792289  0.069179403            3 
 2612000   0.82464987    -3.141385    2184.2717  0.069687074  0.069167331            4 
 2613000   0.84653642   -3.1580173    2184.6763   0.06967331  0.069155058            8 
 2614000   0.84624934   -3.1368902    2186.7783  0.069713667  0.069142886            2 
 2615000   0.85004215   -3.1272807    2193.8529  0.069912457   0.06913085            3 
 2616000   0.82558851   -3.1131153    2189.4005  0.069743899  0.069118892            5 
 2617000   0.82377689   -3.1439438    2198.2496  0.069999031  0.069106775            3 
 2618000    0.8300165   -3.1132708    2185.9158  0.069579698   0.06909446            3 
 2619000   0.84025037   -3.1536245    2191.5985  0.069733947  0.069082189            3 
 2620000   0.81263556    -3.160476    2187.6847  0.069582848  0.069070039            2 
 2621000   0.83686331   -3.1275466    2194.8707  0.069784774  0.069058018            2 
 2622000   0.85719531   -3.1736714    2181.0322  0.069318338  0.069045716            3 
 2623000   0.83486814    -3.172259    2191.2242  0.069615713  0.069033276            4 
 2624000    0.8080429   -3.1249274    2188.4386  0.069500718  0.069020939            3 
 2625000   0.84695691    -3.139313    2197.8947  0.069774435  0.069008866            4 
 2626000   0.83323332   -3.1150354    2195.7794  0.069680736  0.068997007            4 
 2627000   0.82015586   -3.1411541    2205.3938  0.069959199  0.068985145            4 
 2628000   0.85476829   -3.1334139    2198.4803  0.069713352  0.068973038            3 
 2629000   0.83708441    -3.148688    2199.1508   0.06970809  0.068961208            3 
 2630000   0.82244636   -3.1279551    2195.7822  0.069574849  0.068949441            4 
 2631000    0.8219627   -3.1538203    2199.8301  0.069676615  0.068937545            3 
 2632000   0.83072701   -3.1384421    2196.7313  0.069552031  0.068925376            2 
 2633000   0.82309446    -3.145583    2196.8422  0.069529124  0.068913212            3 
 2634000   0.81840674   -3.1400614    2195.0046  0.069444589  0.068900992            3 
 2635000   0.81473444   -3.1270385    2197.5407  0.069498441  0.068888855            4 
 2636000   0.84361723   -3.1203095    2207.0964  0.069774164  0.068876847            2 
 2637000   0.82315598   -3.1353775    2202.2162  0.069593484  0.068864946            5 
 2638000    0.8366344   -3.1330933    2208.3502  0.069760872  0.068852928            3 
 2639000    0.8191827    -3.145944    2197.4908  0.069391524  0.068840951            9 
 2640000    0.8231644   -3.1492033    2200.2624  0.069452727    0.0688289            6 
 2641000   0.81685023   -3.1684553    2207.5062     0.069655  0.068816789            1 
 2642000   0.82620834   -3.1374527    2198.8351  0.069355132  0.068804796            3 
 2643000   0.82094954   -3.1670004     2205.451  0.069537488  0.068792853            2 
 2644000   0.83522896   -3.1464635    2202.6723  0.069423612  0.068780797            5 
 2645000    0.8077229   -3.1522443    2208.0615  0.069567154  0.068768772            4 
 2646000   0.82227723   -3.1406053     2206.135   0.06948019  0.068756787            3 
 2647000   0.84382158   -3.1316115    2207.1512  0.069485934   0.06874495            5 
 2648000   0.82048357   -3.1574357    2216.2919  0.069747353  0.068733123            2 
 2649000   0.83390588   -3.1521157    2201.0806    0.0692425  0.068721304            3 
 2650000   0.82067735   -3.1679824    2213.0678  0.069593328  0.068709435            2 
 2651000    0.8319971   -3.1570337    2211.2088  0.069508637  0.068697437            4 
 2652000   0.82656499   -3.1418799    2217.2449  0.069672101   0.06868549            3 
 2653000   0.83054389   -3.1358244    2202.8202  0.069192745   0.06867365            4 
 2654000   0.82161098   -3.1387759    2218.3991  0.069655836  0.068661865            5 
 2655000      0.82891   -3.1733014    2205.6185  0.069228452  0.068649954            4 
 2656000   0.81946024   -3.1408122    2209.7965  0.069333473  0.068637909            3 
 2657000     0.826487   -3.1493863    2209.5499  0.069299645  0.068625908            3 
 2658000    0.8317398   -3.1710218    2210.0515  0.069289299  0.068613911            5 
 2659000   0.84151474   -3.1148615    2208.3974  0.069211401  0.068601759            4 
 2660000   0.84024417   -3.1623245    2210.0537   0.06923727  0.068589682            2 
 2661000   0.81565833   -3.1386922      2219.63  0.069511149  0.068577933            3 
 2662000   0.81064577    -3.158133    2210.9245  0.069212512  0.068566051            5 
 2663000     0.835918   -3.1503901    2218.7821  0.069432411  0.068554066            4 
 2664000   0.81716932   -3.1625131    2214.6225  0.069276228  0.068542126            2 
 2665000   0.81866813   -3.1459204     2214.538  0.069247593  0.068530075            4 
 2666000   0.82745461   -3.1550705    2209.0461  0.069049953  0.068518062            5 
 2667000   0.81936397    -3.140198      2218.92  0.069332582  0.068506288            3 
 2668000   0.83315459   -3.1706897    2213.0759  0.069124059  0.068494365            5 
 2669000    0.8277145   -3.1815924    2221.1406  0.069349961  0.068482355            6 
 2670000   0.84566778   -3.1706487     2208.534  0.068930525  0.068470485            3 
 2671000   0.81446751   -3.1609891     2218.075  0.069202389  0.068458669            6 
 2672000   0.82360622   -3.1332519    2215.1687   0.06908585  0.068446726            3 
 2673000   0.81769092   -3.1399394    2212.1876  0.068967067  0.068434827            4 
 2674000   0.82210877   -3.1620599    2206.6659  0.068769193  0.068422912           10 
 2675000   0.82887408   -3.1638019    2222.9618  0.069251148  0.068410757            6 
 2676000   0.82855801   -3.1452677    2217.4424  0.069053387  0.068398739            3 
 2677000    0.7991026   -3.1492142    2225.7686  0.069286781  0.068386678            3 
 2678000   0.81091464   -3.1443982    2222.4098  0.069156392   0.06837469            4 
 2679000   0.81433312   -3.1610945    2219.5227  0.069040771  0.068362727            5 
 2680000   0.82541966     -3.14836    2224.4805   0.06916917  0.068350725            7 
 2681000   0.81557863    -3.146227    2224.6689  0.069149226  0.068338723            3 
 2682000   0.83841912   -3.1504063    2228.6696  0.069247752  0.068326706            3 
 2683000   0.83389467   -3.1505483     2218.956  0.068920239    0.0683145            3 
 2684000   0.82750923   -3.1471755    2214.9783  0.068771061  0.068302237            5 
 2685000   0.81301775   -3.1588255     2206.288  0.068475728  0.068289842            5 
 2686000    0.7999152   -3.1686528    2216.3501  0.068762412  0.068277493            4 
 2687000   0.81621818   -3.1618019    2216.5163  0.068741978  0.068265131            5 
 2688000   0.83383808   -3.1624974    2210.0823  0.068516937   0.06825278            3 
 2689000   0.81610234   -3.1508317    2218.3363   0.06874725  0.068240259            2 
 2690000   0.81799133    -3.160962    2221.8198  0.068829608  0.068228028            3 
 2691000   0.82892248   -3.1595993    2216.0328  0.068624824   0.06821583            3 
 2692000   0.82183159   -3.1430542    2220.3197  0.068732036  0.068203288            4 
 2693000   0.83115929    -3.171322    2224.5621  0.068837791  0.068191151            3 
 2694000   0.81205059   -3.1456619    2221.3368  0.068712471    0.0681789            6 
 2695000    0.8363469   -3.1488813    2227.5825  0.068880102  0.068166737            4 
 2696000   0.82680902   -3.1386581    2224.9877  0.068774348  0.068154367            4 
 2697000   0.81628786   -3.1709851    2222.6444  0.068676443  0.068142131            3 
 2698000   0.81541992   -3.1641144    2226.4531  0.068768629  0.068130008            4 
 2699000   0.82462974   -3.1578606    2229.0001  0.068821788  0.068117831            5 
 2700000   0.81067911   -3.1458252    2234.6895  0.068971898  0.068105881            3 
 2701000   0.82286632   -3.1674985    2233.6115  0.068913102  0.068093618            3 
 2702000   0.83577363   -3.1768462    2225.3958  0.068634217  0.068081484           10 
 2703000   0.82134783   -3.1557732    2221.9356  0.068502147  0.068069293            3 
 2704000   0.81332866   -3.1457405    2223.0686  0.068511731  0.068057096            2 
 2705000   0.81285284   -3.1550083    2231.5924  0.068748994  0.068044702            3 
 2706000   0.81401721   -3.1546263    2226.0853  0.068553995  0.068032366            8 
 2707000   0.83185942   -3.1677422    2225.4758  0.068509906   0.06801972            6 
 2708000   0.81272313    -3.165277    2225.9965   0.06850063  0.068007245            2 
 2709000     0.835835   -3.1629046    2225.6303  0.068464081  0.067994839            3 
 2710000   0.83681121   -3.1515321     2228.069  0.068513808  0.067982323            8 
 2711000   0.81785534   -3.1354564    2224.7145  0.068385421   0.06796999            4 
 2712000    0.8067622   -3.1604755     2226.833    0.0684253  0.067957601            2 
 2713000   0.80855091   -3.1762664    2224.5278  0.068329271  0.067944946            3 
 2714000   0.81798762    -3.161521    2229.7291  0.068463801  0.067932397            3 
 2715000   0.82027535   -3.1493984    2225.7918  0.068317734  0.067919821            3 
 2716000   0.79317975   -3.1635099    2219.3661  0.068095426  0.067907249            3 
 2717000   0.80947549   -3.1596399    2226.3948   0.06828594  0.067894648            3 
 2718000   0.81132702    -3.160358    2226.3909  0.068260696  0.067881987            2 
 2719000   0.81833815   -3.1530286    2224.7685  0.068185866  0.067869306            5 
 2720000   0.80495953   -3.1915566    2227.1166  0.068232738  0.067856664            7 
 2721000   0.82420717    -3.154888    2232.5483  0.068374013  0.067844047            3 
 2722000   0.81381573   -3.1703114    2230.1137  0.068274361  0.067831332            5 
 2723000   0.80427116   -3.1587179    2227.6134  0.068172768  0.067818673            2 
 2724000   0.80922084   -3.1729965    2228.7398  0.068182203  0.067806023            4 
 2725000    0.8040646   -3.1671367     2235.433  0.068361864  0.067793436            4 
 2726000   0.80529783   -3.1715717    2229.3712  0.068151479  0.067780746            3 
 2727000   0.82390599   -3.1651591    2236.6882  0.068350086  0.067768093            3 
 2728000   0.82641073   -3.1560835    2226.2491  0.068006143  0.067755429            2 
 2729000   0.80832022   -3.1736036     2236.163  0.068283957  0.067742847            3 
 2730000   0.82994257   -3.1694631    2229.8196   0.06806531    0.0677302            3 
 2731000   0.80566245   -3.1762537    2233.0599  0.068139262   0.06771759            3 
 2732000   0.82452557   -3.1718219    2233.1712  0.068117716  0.067705065            5 
 2733000   0.80283653   -3.1674749    2231.4559  0.068040488  0.067692434            3 
 2734000   0.80986487   -3.1727376    2232.9875  0.068062286  0.067679866            3 
 2735000   0.81468827   -3.1589258    2235.9408  0.068127385  0.067667211            4 
 2736000   0.82139676   -3.1757822    2231.6031  0.067970368  0.067654482            3 
 2737000   0.81030485   -3.1725764    2237.7964    0.0681341  0.067641788            3 
 2738000   0.81737098   -3.1803217    2230.1227  0.067875661  0.067629059            5 
 2739000   0.80271018   -3.1828221    2241.3574  0.068192692  0.067616237            5 
 2740000   0.80676583   -3.1682421    2235.5877  0.067992328  0.067603808            6 
 2741000   0.80806803   -3.1797733    2233.1273  0.067892718  0.067591132            3 
 2742000   0.78920386   -3.1925927    2229.9242  0.067770612  0.067578331            5 
 2743000   0.79109981   -3.1654305    2239.0697  0.068023747  0.067565574            2 
 2744000    0.8181581   -3.1509569    2235.9927  0.067905511  0.067552971            2 
 2745000   0.82265248    -3.170659     2248.277  0.068253704  0.067540387            2 
 2746000   0.82837506   -3.1600215    2239.5831  0.067965011  0.067527705            5 
 2747000   0.81005501   -3.1648035    2238.1892  0.067897986  0.067514939            4 
 2748000   0.81523616   -3.1593046    2244.8318  0.068074714  0.067502329            3 
 2749000   0.80600248   -3.1742592    2239.0083  0.067873418  0.067489554            4 
 2750000    0.8099536   -3.1903276    2242.5947  0.067957416  0.067476887            2 
 2751000   0.80969892   -3.1873414    2234.0405  0.067673587  0.067464156            5 
 2752000   0.79706175   -3.1824978    2234.4528  0.067661481  0.067451365            2 
 2753000   0.82830183   -3.1735709    2234.1876  0.067628878  0.067438723            4 
 2754000   0.81096404   -3.1638388    2239.2419   0.06775726  0.067425885            4 
 2755000   0.82973105   -3.1803903    2242.0621   0.06781797  0.067413336            5 
 2756000   0.80582117   -3.1740817    2238.2698  0.067678696  0.067400766            4 
 2757000   0.79376746   -3.1773614    2236.3297  0.067595505  0.067388126            4 
 2758000   0.80644054   -3.1512409    2242.9063  0.067769709  0.067375572            3 
 2759000   0.84137865   -3.1757711    2248.7531  0.067921745  0.067363289            4 
 2760000   0.80524916   -3.1449533    2248.1622  0.067879292  0.067350825            3 
 2761000   0.81372288   -3.1577637    2252.0457   0.06797192  0.067338612            3 
 2762000   0.81359912   -3.1977299    2242.3097  0.067653562  0.067326155            2 
 2763000   0.82253581   -3.1811176    2247.5379  0.067786763  0.067313712            2 
 2764000   0.80784719   -3.1750832    2255.4567  0.068000986  0.067301294            4 
 2765000   0.80754692    -3.133062    2255.8798  0.067989145  0.067288953            3 
 2766000    0.8108029   -3.1745978    2248.3837  0.067738725  0.067276589            2 
 2767000   0.80282949   -3.1836901    2248.2481  0.067710159  0.067264286            3 
 2768000   0.79402438   -3.1564182    2248.6036  0.067696401  0.067251931            3 
 2769000   0.80990701    -3.190394    2256.9284  0.067922487  0.067239451            3 
 2770000    0.8210648   -3.1865405    2249.8056  0.067683682  0.067226896            4 
 2771000   0.82559243    -3.174784    2244.6125  0.067503084  0.067214383            5 
 2772000     0.811463   -3.1866036    2258.4045  0.067893352  0.067201955            4 
 2773000   0.80353546    -3.193489    2253.8103  0.067730805  0.067189661            5 
 2774000   0.79005749   -3.1613113    2257.3021  0.067811287  0.067177348            4 
 2775000    0.8089413   -3.1701112    2259.6114  0.067856198  0.067165099           11 
 2776000    0.8228018   -3.1729448    2251.4679  0.067587293  0.067152688            7 
 2777000   0.80855862   -3.1862337    2254.1053    0.0676421  0.067140204            8 
 2778000   0.78942362   -3.1633445    2260.4703  0.067808685  0.067127823            6 
 2779000   0.81959134   -3.1754206    2252.1437  0.067534595  0.067115446            4 
 2780000     0.799479   -3.1604778    2257.7162  0.067677344  0.067103025            7 
 2781000   0.80040387   -3.1732115    2255.6385   0.06759075  0.067090631            4 
 2782000     0.802267   -3.1893882    2251.5732  0.067444681  0.067078101            5 
 2783000    0.8007353   -3.1899224    2252.5126  0.067448575  0.067065627            2 
 2784000   0.81038875    -3.166114     2256.932  0.067556634  0.067053093            2 
 2785000   0.78345046   -3.1519109    2255.9289   0.06750236  0.067040505            5 
 2786000   0.80640468    -3.158043    2244.8399  0.067146444  0.067027891            4 
 2787000   0.80890207   -3.1969221    2252.9314  0.067364292  0.067015127            2 
 2788000    0.8201902   -3.1761454    2252.9089  0.067339459  0.067002575            6 
 2789000    0.8149568   -3.1903092    2251.2988  0.067267206  0.066989945            3 
 2790000   0.81791221   -3.1835026    2249.6144  0.067192783  0.066977317            3 
 2791000   0.79561957   -3.1756801    2253.2774  0.067278079    0.0669646            5 
 2792000   0.82142053   -3.1655246     2258.458  0.067408609  0.066951902            5 
 2793000   0.79418528   -3.2179448    2257.2493  0.067348409  0.066939368            6 
 2794000   0.80614057   -3.1874743    2257.0389  0.067318029  0.066926828            3 
 2795000   0.79744523   -3.1615033    2262.6477  0.067461171  0.066914426            4 
 2796000   0.81066509   -3.1627843    2263.3734  0.067458674  0.066901931            4 
 2797000   0.78728126   -3.2107315    2258.5048    0.0672895  0.066889344            4 
 2798000   0.82697452   -3.1808814    2262.6986  0.067390357  0.066876634            7 
 2799000   0.80096314   -3.1764665    2264.0145  0.067405458  0.066864102            3 
 2800000   0.81178741    -3.179882    2260.3432   0.06727212  0.066851618            3 
 2801000   0.80519031   -3.1753916    2272.1228  0.067598561  0.066839097            3 
 2802000   0.81589638   -3.1704081    2263.0436  0.067304414  0.066826598            4 
 2803000   0.80246662   -3.1758569    2262.6644  0.067269128  0.066814059            4 
 2804000   0.80708799   -3.1856025    2258.8564  0.067131965  0.066801478            5 
 2805000   0.81132476   -3.1936965    2251.5399   0.06689067  0.066788848            5 
 2806000   0.80356395   -3.1691428    2261.3267  0.067157481  0.066776147            4 
 2807000   0.79601287   -3.1923237    2258.0448  0.067036123  0.066763453            3 
 2808000   0.79919585    -3.182468    2267.2096  0.067284234  0.066750527            3 
 2809000   0.80103333   -3.1604275    2259.7892  0.067040143  0.066737853            3 
 2810000   0.80572396    -3.177114    2264.5998  0.067158951   0.06672513            4 
 2811000    0.8028125   -3.1706203    2261.0491  0.067029797  0.066712389            5 
 2812000   0.80799249   -3.1693963    2260.2602  0.066982582  0.066699722            5 
 2813000   0.80095314   -3.1910302    2271.6645  0.067296613  0.066687041            5 
 2814000   0.81537828   -3.2107637    2265.8813  0.067101437  0.066674405            5 
 2815000   0.78625573    -3.174744    2267.9006  0.067137377  0.066661817            4 
 2816000   0.78549567   -3.1927678    2267.3221  0.067096415     0.066649            3 
 2817000   0.81145864   -3.1805296    2261.4496  0.066898877  0.066636478           19 
 2818000   0.81407809   -3.1868184    2266.1675  0.067014652  0.066623782            3 
 2819000   0.79113223   -3.1862141    2263.5705  0.066914111  0.066611064            7 
 2820000   0.79323784   -3.2100731    2264.2865  0.066911539  0.066598295            4 
 2821000   0.79211932   -3.1780321    2265.5817  0.066926081  0.066585627            3 
 2822000   0.80225398   -3.1999494    2265.0722  0.066887319  0.066573114            3 
 2823000   0.80948659   -3.2029409    2271.8696  0.067064282  0.066560615            7 
 2824000   0.79977957   -3.1709992    2278.0082  0.067221677  0.066547961            4 
 2825000   0.81155593   -3.1961359    2261.9272  0.066723516  0.066535429            3 
 2826000   0.80380777   -3.1780604    2278.2251    0.0671805  0.066522774            3 
 2827000   0.78943827   -3.1781048    2266.5521  0.066812643  0.066510071            4 
 2828000   0.80542437   -3.1731958    2270.0586  0.066892344   0.06649736            6 
 2829000   0.80946255   -3.1824471    2268.4751  0.066822055  0.066484571            2 
 2830000   0.78793696   -3.2064498     2270.754  0.066865548  0.066471853            5 
 2831000   0.80382324   -3.1611675    2270.7424  0.066841587   0.06645915            6 
 2832000   0.79895757   -3.1902395    2266.6434  0.066697368  0.066446463            2 
 2833000   0.79421306   -3.1579624     2270.973  0.066801182  0.066433891            6 
 2834000   0.80200389   -3.1909579    2269.8341  0.066744121  0.066421102            3 
 2835000   0.78591104   -3.1868647    2276.0076  0.066902045  0.066408447            4 
 2836000   0.80241765   -3.1954583    2274.9944  0.066848682  0.066395783            5 
 2837000   0.79896151   -3.1964495    2264.2302  0.066508934  0.066383142            6 
 2838000   0.79626563    -3.196705    2264.0443  0.066480041  0.066370363           10 
 2839000    0.7919083   -3.1847946    2275.8314  0.066802613  0.066357645            5 
 2840000   0.80097177   -3.1803509    2282.6226  0.066978364  0.066344986            3 
 2841000   0.79899628   -3.2013793     2272.406   0.06665511  0.066332286            5 
 2842000   0.79680734   -3.1733868    2281.0091  0.066883918  0.066319797            7 
 2843000   0.80165464   -3.1808564    2270.8898  0.066563776  0.066307271            4 
 2844000      0.78986   -3.2018989    2281.8846  0.066862535   0.06629478            6 
 2845000   0.78967042   -3.2219769    2274.8995  0.066634431  0.066282245            5 
 2846000   0.80909676   -3.1713056    2277.3202  0.066681898   0.06626964            4 
 2847000   0.80550103   -3.1909372    2272.5024  0.066517456  0.066257073            6 
 2848000   0.80301383   -3.2190189    2280.3464   0.06672362  0.066244497            4 
 2849000   0.79853598   -3.2049876    2280.6242  0.066708324  0.066232072            3 
 2850000    0.8078823   -3.1931828     2276.871  0.066575176  0.066219587            3 
 2851000   0.78563918   -3.1831963    2279.1755  0.066619185  0.066207011            2 
 2852000   0.81875918   -3.2042936    2280.0431  0.066621174  0.066194367            2 
 2853000   0.78061423   -3.1737226    2274.1317  0.066425158  0.066181791            3 
 2854000   0.78514669   -3.1864717    2282.7461  0.066653413  0.066169195            4 
 2855000   0.80553687   -3.1933261    2280.4882  0.066564163   0.06615661            6 
 2856000   0.81644743   -3.1862047    2280.5631  0.066543042    0.0661441            3 
 2857000   0.79614145   -3.2293747    2276.4185  0.066398859  0.066131366            5 
 2858000    0.7881827   -3.1856536    2277.1287  0.066396335  0.066118858            6 
 2859000   0.78810239   -3.1866378    2285.2188  0.066608919  0.066106399            2 
 2860000   0.79878385   -3.1868351    2283.5912  0.066538205  0.066093867            5 
 2861000   0.78715092    -3.208329    2290.9185  0.066728374   0.06608125            4 
 2862000   0.80866601   -3.2073827    2284.3823  0.066514743  0.066068753            8 
 2863000   0.80310513    -3.194164    2287.4375  0.066580439    0.0660561            3 
 2864000   0.77704073   -3.2137164    2286.9624  0.066543365  0.066043332            7 
 2865000   0.79204243   -3.2085197    2282.8089  0.066399329  0.066030546            5 
 2866000   0.78628645   -3.1864295    2283.5168  0.066396745  0.066017861            7 
 2867000    0.8026498   -3.2038363    2283.7201  0.066379494  0.066005154            4 
 2868000   0.79666027   -3.1860279    2280.2633  0.066255907  0.065992404            4 
 2869000   0.78107206   -3.2116995    2286.5567  0.066415612  0.065979687            4 
 2870000   0.79429019   -3.1941361    2280.2147  0.066208323  0.065966735            3 
 2871000   0.78942318   -3.1760706    2288.2376  0.066418137  0.065953894            2 
 2872000   0.79715055   -3.1862443    2281.2527  0.066192337  0.065941114            4 
 2873000    0.7956096   -3.2110497    2283.9251  0.066246811  0.065928299            4 
 2874000   0.79142266    -3.184669    2284.9487  0.066253443  0.065915557            3 
 2875000   0.80204308   -3.1854955    2287.2337  0.066296628  0.065902804            7 
 2876000   0.79155777   -3.1906817    2287.6125  0.066284552  0.065890184            2 
 2877000   0.78318537   -3.1866228    2291.6517  0.066378511  0.065877542            6 
 2878000   0.79722265   -3.1895495    2283.5886  0.066121976    0.0658647            5 
 2879000   0.79072562   -3.1829878    2288.6377  0.066245157  0.065852011            6 
 2880000   0.80135698   -3.2059542    2285.0695  0.066118909  0.065839231            4 
 2881000   0.79482178   -3.2217101    2293.2773  0.066333372  0.065826536            2 
 2882000   0.80285182   -3.1946403    2290.0307  0.066216479  0.065813857            2 
 2883000   0.78188417    -3.211154    2279.9306  0.065901566  0.065801159            7 
 2884000   0.77876689   -3.1938132    2289.1169  0.066144153  0.065788389            6 
 2885000   0.79462493   -3.1889258    2290.1098  0.066149907  0.065775683            4 
 2886000   0.78530272   -3.2318878    2294.3817  0.066250336  0.065762895            3 
 2887000   0.79585848   -3.2119469    2293.8658  0.066212499  0.065750082            5 
 2888000   0.79094982   -3.1904271    2297.1585  0.066284582  0.065737541            5 
 2889000   0.78446584   -3.1946597    2288.2786  0.066005498  0.065724879            4 
 2890000   0.79277621   -3.2281344    2289.5715  0.066019939   0.06571209            4 
 2891000   0.79882571   -3.2101962    2291.6146  0.066055996  0.065699432            5 
 2892000   0.80246465   -3.2075547    2288.5503  0.065944855  0.065686771            4 
 2893000   0.78494424   -3.2098616    2293.4015  0.066061803  0.065674178            5 
 2894000   0.79704691   -3.2269487    2291.5257  0.065984959  0.065661607            3 
 2895000   0.78106682   -3.2244767    2297.1918  0.066125269  0.065649004            3 
 2896000   0.79769232   -3.2129242    2284.6433  0.065741349  0.065636408            4 
 2897000   0.77287147    -3.183243    2296.0946  0.066048055  0.065623804            5 
 2898000   0.78957444   -3.2162959      2293.45  0.065949218  0.065611361            4 
 2899000   0.81112982   -3.2061232    2296.6587  0.066018704  0.065598908            5 
 2900000   0.79028002   -3.2151194    2296.1196  0.065980447  0.065586456            5 
 2901000   0.79798132   -3.2193049     2295.665  0.065944646   0.06557373            3 
 2902000   0.75992786   -3.2318313    2290.9531  0.065786616  0.065561113            4 
 2903000   0.78251622   -3.2215859    2295.3635  0.065890559  0.065548362            5 
 2904000   0.79250698   -3.2167021    2291.7248  0.065763453  0.065535631            2 
 2905000   0.78807911   -3.2045795    2301.3625  0.066017282  0.065523063            6 
 2906000   0.80003773   -3.1931934     2293.534  0.065770073  0.065510567            4 
 2907000    0.7840191   -3.1826507    2306.8392  0.066128862  0.065498104            3 
 2908000   0.80959254   -3.1918869    2305.0537  0.066054954  0.065485542            9 
 2909000   0.76220561   -3.2238034    2295.1747  0.065749245   0.06547299            2 
 2910000   0.78978751   -3.1952827    2301.6008  0.065910675  0.065460442            3 
 2911000    0.7774843   -3.1943926    2296.2515  0.065734899  0.065447799            4 
 2912000   0.79084509    -3.208183    2300.0066  0.065819786  0.065435315            3 
 2913000   0.79769225    -3.209364    2303.7567  0.065904471  0.065422834            4 
 2914000   0.77143643   -3.2235867    2304.9052  0.065914699  0.065410338            4 
 2915000   0.78150653    -3.202323    2306.5031  0.065937766  0.065397953            7 
 2916000   0.77391852   -3.2129571    2314.8588  0.066153944  0.065385436            4 
 2917000   0.76980775   -3.1996135    2304.5878   0.06583784  0.065372977            5 
 2918000   0.80143574   -3.1993898    2301.6372  0.065731015  0.065360439            3 
 2919000   0.79025936   -3.2062818    2298.9501  0.065631782  0.065347909            7 
 2920000   0.79495659   -3.2017311    2300.4312  0.065651574   0.06533536            5 
 2921000   0.78405609    -3.195171    2312.4702  0.065972562  0.065322795            3 
 2922000   0.78153456   -3.1949143     2303.999  0.065708392  0.065310305            5 
 2923000   0.77618195   -3.2177965    2303.0862  0.065659886  0.065297811            4 
 2924000   0.77732293   -3.2319442    2304.7053  0.065683576  0.065285316            3 
 2925000   0.78210281    -3.233006    2311.0592  0.065842141  0.065272731            7 
 2926000   0.79760582   -3.2025449    2307.7063  0.065724149  0.065260173            5 
 2927000   0.77907089   -3.2127358    2312.2809  0.065831936  0.065247677            2 
 2928000   0.77509588   -3.2141932     2302.519  0.065531621  0.065235229            3 
 2929000   0.78180723   -3.1981109    2309.0816  0.065695959   0.06522275            6 
 2930000   0.79799651   -3.2124826    2316.9072   0.06589611  0.065210384            7 
 2931000    0.7759502   -3.2079744    2314.7989  0.065813684  0.065197944            2 
 2932000   0.77296101   -3.2122623    2309.5128  0.065640995   0.06518545            2 
 2933000   0.79407301   -3.1994539    2308.3451   0.06558544  0.065172944            2 
 2934000   0.77404781   -3.2209239    2312.0562  0.065668489  0.065160671            3 
 2935000   0.76806018   -3.2073126    2308.0509  0.065532393  0.065148239            4 
 2936000   0.79466749   -3.2338126    2313.4225  0.065662538  0.065135793           11 
 2937000   0.77509366   -3.2093903    2313.2371  0.065634918   0.06512344            3 
 2938000   0.79209107   -3.2119364    2315.8193  0.065685822   0.06511102            5 
 2939000   0.79048526   -3.2176535    2314.9494  0.065638806  0.065098683            7 
 2940000   0.78312747   -3.2118299    2309.8104  0.065470817  0.065086224            2 
 2941000   0.78469798   -3.2026862    2318.0714   0.06568263  0.065073948            3 
 2942000   0.77335958   -3.2154552    2314.9931  0.065573112   0.06506154            4 
 2943000   0.79253363   -3.2204639    2319.0475  0.065665633  0.065049161            7 
 2944000    0.7933263   -3.2124141    2312.4758  0.065457308  0.065036793            3 
 2945000   0.78904436   -3.2468931    2314.5764  0.065494521  0.065024504            4 
 2946000   0.76896309   -3.2158758    2315.7696  0.065506042  0.065011993            3 
 2947000   0.79035436   -3.2359912    2316.0868  0.065492784  0.064999518            3 
 2948000   0.78219858   -3.2163817    2316.4367  0.065480459  0.064987115            4 
 2949000   0.80245133   -3.2327688      2309.11  0.065251216  0.064974648            4 
 2950000   0.78200034   -3.2151493     2323.082  0.065623786  0.064962248            6 
 2951000    0.7935341    -3.212527    2310.0518  0.065233587  0.064949979            6 
 2952000    0.7619154   -3.2359701    2320.0402  0.065493457  0.064937733            4 
 2953000   0.78605475   -3.2336878    2318.8738  0.065438362  0.064925432            4 
 2954000   0.79063728   -3.2070099    2318.9391  0.065418051  0.064913071            3 
 2955000   0.76820831   -3.2005755    2319.3022  0.065406153  0.064900776            2 
 2956000   0.77752214    -3.226063    2313.4742  0.065219728  0.064888424           10 
 2957000   0.78592666   -3.2223182    2322.5478  0.065453382  0.064876058            2 
 2958000   0.77889668    -3.215891    2320.5492   0.06537495  0.064863768            6 
 2959000   0.78654009   -3.2202332    2314.9305  0.065194618  0.064851439            5 
 2960000   0.78816657   -3.2380549    2317.0313  0.065231737  0.064839008            4 
 2961000    0.7808444   -3.2309364    2317.5476  0.065224237  0.064826622            4 
 2962000   0.78502735   -3.2068178    2320.4956  0.065285156   0.06481423            2 
 2963000   0.76750238   -3.2262925    2321.6074  0.065294393   0.06480192            4 
 2964000   0.77653374   -3.2137802    2327.4452  0.065436493  0.064789364            3 
 2965000   0.77684444   -3.2252368    2326.8148  0.065396705  0.064777081            3 
 2966000   0.77667374    -3.205071    2326.0079  0.065351987  0.064764791            3 
 2967000      0.76761   -3.2382289    2312.9491  0.064963181  0.064752591            2 
 2968000   0.77080096   -3.2487476    2320.6851    0.0651585  0.064740255            2 
 2969000   0.79138555   -3.2140093    2331.4723  0.065439325  0.064727975            3 
 2970000   0.78430477   -3.2119142     2327.678  0.065310831  0.064715791            4 
 2971000   0.75917527   -3.2101695    2324.1234  0.065189144  0.064703497            9 
 2972000   0.80714548   -3.2189469     2332.098  0.065390815   0.06469129            6 
 2973000   0.77907383   -3.2417554    2323.2652  0.065121236  0.064678983            3 
 2974000     0.756077   -3.2208628    2322.0415   0.06506505   0.06466661            4 
 2975000   0.77799399   -3.2178598    2327.1212  0.065185468  0.064654446            3 
 2976000   0.78070946   -3.2058387     2331.153  0.065276463  0.064642371            6 
 2977000   0.77304621   -3.2273741    2324.9339  0.065080446  0.064630168            2 
 2978000   0.78954942   -3.2129429    2325.9463  0.065086923  0.064617846            5 
 2979000   0.77960568    -3.205086    2322.9619  0.064981591  0.064605506            4 
 2980000   0.77129636   -3.2438707     2325.913  0.065042311  0.064593314            9 
 2981000     0.753185   -3.2383265     2326.071  0.065024909  0.064580926            4 
 2982000   0.77661669   -3.2233755    2331.6031  0.065157698  0.064568539            4 
 2983000   0.76580356   -3.2284302    2333.9745  0.065202104  0.064556305            7 
 2984000   0.76112468   -3.2405258    2329.8085   0.06506391   0.06454399            2 
 2985000   0.76559333   -3.2389182     2332.532  0.065118147  0.064531704            6 
 2986000   0.79131761   -3.2295135    2320.0502  0.064747997  0.064519616            6 
 2987000   0.75813991   -3.2481234    2331.9768  0.065059055  0.064507351            6 
 2988000   0.79260098   -3.2094288    2330.3439  0.064991743   0.06449506            4 
 2989000   0.79332114   -3.2310104    2336.9835   0.06515511  0.064482853            5 
 2990000   0.77088693   -3.2221214    2333.3078  0.065030876  0.064470713            4 
 2991000   0.79755833   -3.2061509    2329.5236  0.064903699  0.064458478            3 
 2992000   0.76568025   -3.2144048    2340.9554  0.065200407  0.064446244            7 
 2993000   0.75430799   -3.2191285    2332.0165  0.064929739  0.064434074            3 
 2994000   0.76644769    -3.209837    2346.2784   0.06530501  0.064421989            3 
 2995000   0.77278859   -3.2125895    2336.7177  0.065017188  0.064410056            4 
 2996000   0.78492815   -3.1986885    2342.1316  0.065146073  0.064398006            8 
 2997000    0.7760829   -3.2253649    2338.9474  0.065035797  0.064386075            3 
 2998000   0.77428461   -3.2103144    2328.5685  0.064725609  0.064373989            4 
 2999000   0.78104822   -3.2397054    2341.5782  0.065065528  0.064361888            3 
 3000000    0.7535652   -3.2411624    2338.0817  0.064946713  0.064349853            5 
 3001000   0.77742512   -3.2618615    2342.3449  0.065043456   0.06433775            3 
 3002000    0.7670057   -3.2313017    2346.2584  0.065130425  0.064325774            4 
 3003000   0.74944764   -3.2344451    2337.4305   0.06486376  0.064313757            4 
 3004000   0.76688493   -3.2342004    2343.1951  0.065002083  0.064301833            2 
 3005000   0.77035886   -3.2402077    2345.4046  0.065041725  0.064289847            4 
 3006000   0.77679662   -3.1979941    2354.6245  0.065275686  0.064277979            3 
 3007000   0.77995504   -3.2148823    2346.2164  0.065020961   0.06426613            4 
 3008000   0.76488634   -3.2083388    2348.3108   0.06505737  0.064254324            4 
 3009000   0.75843194   -3.2236196    2346.6596   0.06499002  0.064242505            3 
 3010000   0.78898464   -3.2217547    2350.9129  0.065086182  0.064230584            4 
 3011000   0.76382571   -3.2333421     2344.993  0.064900726  0.064218739            4 
 3012000   0.77564636   -3.2287544    2342.1443  0.064800363  0.064206917            9 
 3013000   0.75983759   -3.2473153     2342.572  0.064790685  0.064194933            4 
 3014000   0.76774521   -3.2137147    2355.8683  0.065136816  0.064183119            4 
 3015000   0.77044659   -3.2548951    2353.2036  0.065041558  0.064171341            4 
 3016000   0.77543711   -3.2327865     2350.713  0.064951178  0.064159362            5 
 3017000   0.76881698   -3.2402164    2351.2793   0.06494529  0.064147507            4 
 3018000   0.77791313   -3.2253734    2351.3911  0.064926857  0.064135662            7 
 3019000   0.77069731   -3.2270037    2346.1344  0.064760251  0.064123856            3 
 3020000   0.76902823    -3.213638    2356.0801  0.065013247  0.064111987            2 
 3021000   0.76301824   -3.2309204    2352.2561  0.064886242  0.064100238            3 
 3022000    0.7648924   -3.2456274    2351.1223  0.064833507  0.064088337            6 
 3023000   0.78103704     -3.24721    2352.3346  0.064845479  0.064076481            4 
 3024000   0.75111963   -3.2231958    2354.9895  0.064897197  0.064064763            3 
 3025000   0.76580262   -3.2571001    2354.8766  0.064872633  0.064052756            4 
 3026000   0.76525475   -3.2467833    2352.6503  0.064789886  0.064040947            8 
 3027000   0.76524153   -3.2487002    2352.9927  0.064777906  0.064029093            6 
 3028000    0.7602183   -3.2309023    2353.1952  0.064762087  0.064017375            4 
 3029000   0.76328346   -3.2482484      2354.08   0.06476505   0.06400541            5 
 3030000   0.76164301   -3.2294803    2355.1447  0.064772956  0.063993616            4 
 3031000   0.76230232   -3.2386448    2357.5438  0.064817546  0.063981793            7 
 3032000    0.7612505   -3.2374914    2358.5528  0.064823901  0.063969957            3 
 3033000   0.77337458   -3.2360192    2352.6506  0.064640361  0.063958075            5 
 3034000   0.78711464   -3.2560697    2355.0201  0.064684137  0.063946126            4 
 3035000   0.74115676   -3.2323225    2351.3979  0.064563368  0.063934181            7 
 3036000   0.75923963   -3.2202966    2358.0739   0.06472535  0.063922275            7 
 3037000   0.76329766   -3.2369163    2351.9914  0.064537136  0.063910398            3 
 3038000   0.74629686   -3.2395631    2352.1841   0.06452118  0.063898497           10 
 3039000   0.75867885   -3.2383922    2358.0614   0.06466111  0.063886662            2 
 3040000   0.76653297   -3.2253002    2353.8739  0.064525053  0.063874859            5 
 3041000   0.75778886   -3.2404278    2358.0595  0.064618532  0.063863091           13 
 3042000   0.75402299   -3.2540986    2357.0193  0.064568794  0.063851247            6 
 3043000    0.7548998   -3.2579159    2359.2257  0.064607999  0.063839304            4 
 3044000   0.76690084   -3.2554508    2360.1342  0.064611646  0.063827416            4 
 3045000   0.77286165    -3.231387    2358.1676  0.064536606  0.063815342            3 
 3046000   0.74498015   -3.2327322    2350.1609  0.064296369  0.063803355            5 
 3047000   0.74886127   -3.2381158     2356.005  0.064435101   0.06379137           12 
 3048000   0.75585108   -3.2506758    2356.5457  0.064428742  0.063779488            3 
 3049000   0.76002254   -3.2386097    2357.4695   0.06443286   0.06376744            3 
 3050000   0.76744201    -3.231948    2363.3271  0.064571779   0.06375548            4 
 3051000   0.77046434   -3.2279615    2364.5438  0.064583848  0.063743662            5 
 3052000   0.74944649   -3.2310485    2364.2361  0.064554283  0.063731681            3 
 3053000   0.75632328   -3.2214765    2364.6334  0.064543984  0.063719837            3 
 3054000   0.76643109   -3.2390096    2360.1825  0.064401401  0.063707957            5 
 3055000   0.78758996   -3.2657865    2358.0859  0.064323129   0.06369603            3 
 3056000   0.77505876    -3.255466     2366.943  0.064543603   0.06368404            4 
 3057000   0.75764411   -3.2371522    2363.7492  0.064435426   0.06367208            5 
 3058000   0.76711248   -3.2572196    2362.5881  0.064382715  0.063660091            5 
 3059000   0.77016448   -3.2438103    2359.8098  0.064285981  0.063648077            6 
 3060000    0.7676499   -3.2577004    2370.0467  0.064543755  0.063636228           11 
 3061000   0.74200734     -3.23937    2363.5635   0.06434617  0.063624198           12 
 3062000   0.75089722   -3.2400901    2362.6348  0.064299879  0.063612315            3 
 3063000   0.78241212   -3.2415441    2369.8726  0.064475803  0.063600485            4 
 3064000   0.74945897   -3.2757273    2357.2224  0.064110704   0.06358852            5 
 3065000   0.75814349   -3.2420999     2367.143  0.064359517  0.063576552            4 
 3066000   0.76609506   -3.2349099    2373.0103  0.064497996  0.063564564            5 
 3067000   0.77361767   -3.2668391    2362.9009  0.064202286  0.063552811            7 
 3068000   0.75237682   -3.2259429    2362.1886  0.064162011  0.063540969            5 
 3069000   0.76185071   -3.2395863    2367.2327  0.064278069  0.063529115            5 
 3070000   0.77842318   -3.2452132    2361.8586  0.064111255  0.063517245            4 
 3071000    0.7590709     -3.25684    2362.7028  0.064113284  0.063505409            2 
 3072000   0.76781572   -3.2343048    2371.9167  0.064342358  0.063493525            5 
 3073000   0.76750534   -3.2277044    2368.1831  0.064220173  0.063481702            6 
 3074000   0.74925757   -3.2662667     2372.311  0.064311185  0.063469804            2 
 3075000   0.76378411   -3.2458371    2370.8575   0.06425088  0.063457946            5 
 3076000   0.76176756   -3.2664098    2367.8379  0.064148189  0.063446021            2 
 3077000   0.76249643     -3.23579    2371.8113  0.064234949  0.063434096            3 
 3078000    0.7771125   -3.2444539     2367.351  0.064093325   0.06342222            4 
 3079000   0.75593097   -3.2476308    2366.8464   0.06405885   0.06341027           13 
 3080000   0.77004223   -3.2352518     2375.233  0.064264962  0.063398435            4 
 3081000   0.76444037   -3.2587686    2371.9687  0.064155813  0.063386679            4 
 3082000   0.77143633   -3.2437252    2380.6267  0.064369097  0.063374911            6 
 3083000   0.75031936   -3.2502442    2378.1923  0.064282418  0.063363165            4 
 3084000   0.76909034   -3.2539666    2367.5769  0.063974732  0.063351393            3 
 3085000   0.76150435   -3.2616887    2382.0367  0.064344589  0.063339654            5 
 3086000   0.76157855   -3.2294737    2374.2039  0.064112224  0.063327974            6 
 3087000   0.76260296   -3.2358049    2379.1688  0.064225485  0.063316194            5 
 3088000    0.7700092   -3.2689499    2370.9545  0.063983013  0.063304429            4 
 3089000   0.75218851   -3.2649957    2372.4336  0.064002201   0.06329257            7 
 3090000    0.7659807    -3.232869    2372.2542  0.063976651  0.063280714            4 
 3091000   0.75571874    -3.254849    2379.3681  0.064147743  0.063268798            4 
 3092000   0.77672528   -3.2286032     2375.071  0.064011184  0.063256951            4 
 3093000   0.75831937   -3.2525021    2373.5021   0.06394822  0.063245185            5 
 3094000    0.7501774   -3.2717942    2377.9717  0.064047934  0.063233056            3 
 3095000   0.76013689   -3.2371229    2368.3847  0.063769109  0.063221097            8 
 3096000   0.77103608   -3.2550003    2377.9095  0.064004886  0.063209255            3 
 3097000   0.74681865   -3.2387318    2368.2976  0.063725584   0.06319744            4 
 3098000   0.76820516   -3.2548787    2372.4444  0.063816559  0.063185482            7 
 3099000   0.75948756   -3.2720289     2372.187  0.063789044  0.063173489            3 
 3100000   0.73850377   -3.2402342    2370.0112  0.063709979  0.063161382            4 
 3101000   0.75401025   -3.2427689    2379.3063  0.063939221  0.063149413            3 
 3102000   0.75755455   -3.2650966    2361.4595  0.063439165  0.063137263            3 
 3103000   0.76949961   -3.2626208    2368.7579  0.063614726  0.063125152            3 
 3104000   0.75795077    -3.244718    2380.7295  0.063915632  0.063113231            4 
 3105000    0.7358872   -3.2677947    2381.6192  0.063918927  0.063101093            3 
 3106000   0.75724238   -3.2820833    2365.2612  0.063459466   0.06308907            8 
 3107000     0.757491   -3.2700928    2368.7453  0.063532488  0.063076922            3 
 3108000   0.74690122   -3.2435912    2368.9375    0.0635172  0.063064772            3 
 3109000   0.74496018   -3.2541741    2371.7908   0.06357325  0.063052684            8 
 3110000   0.75870409   -3.2338531    2378.0141  0.063719563  0.063040654            7 
 3111000   0.76773822   -3.2688306    2377.7203  0.063691212  0.063028607            7 
 3112000      0.75726   -3.2627462    2375.9796  0.063624132  0.063016511            4 
 3113000   0.76708681   -3.2518934    2378.7972  0.063679119  0.063004555            3 
 3114000   0.75972756   -3.2556628    2377.8688  0.063633825  0.062992561            4 
 3115000   0.76591275   -3.2794128    2374.6602  0.063527561  0.062980538            5 
 3116000   0.74616501   -3.2622419    2380.9446   0.06367524  0.062968494            9 
 3117000   0.74497908    -3.276436    2380.8451  0.063652151  0.062956446            4 
 3118000   0.74455723   -3.2520378    2379.3365  0.063591417   0.06294443           10 
 3119000    0.7556213   -3.2660634    2382.8104  0.063663844  0.062932552            5 
 3120000   0.76873728   -3.2572194    2375.0901  0.063437235  0.062920509            6 
 3121000   0.75316239   -3.2427492    2383.4355  0.063639738  0.062908584            3 
 3122000   0.76128122   -3.2445582    2381.6205  0.063570909   0.06289668            7 
 3123000   0.75691544   -3.2471164     2381.978  0.063560093  0.062884737            6 
 3124000    0.7525818   -3.2439467    2385.0987  0.063622992  0.062872915            4 
 3125000   0.73969865    -3.268924    2385.6096  0.063616255  0.062860944            5 
 3126000   0.76453728   -3.2428544    2384.3461  0.063562223  0.062849113            6 
 3127000   0.73988245   -3.2697823     2384.111   0.06353563  0.062837145            8 
 3128000   0.74845913   -3.2630489    2379.7896  0.063400191  0.062825126            5 
 3129000   0.74591608   -3.2360621    2377.2772  0.063313019  0.062812987            5 
 3130000   0.74950889   -3.2576281     2376.949  0.063284051  0.062801076            3 
 3131000   0.75283967   -3.2618759    2379.3689  0.063328248  0.062789133            4 
 3132000   0.73997743    -3.258784    2379.7013  0.063316871  0.062777032            3 
 3133000    0.7475082   -3.2717599    2379.0173  0.063278468  0.062764996            3 
 3134000   0.75146585   -3.2673935    2386.3388  0.063452956  0.062752829            5 
 3135000   0.75868362   -3.2711808    2385.7332  0.063416618  0.062740763            7 
 3136000   0.74448256   -3.2370608    2387.9843  0.063456216  0.062728745            2 
 3137000   0.74944586   -3.2522568    2388.5362  0.063450649  0.062716632            3 
 3138000   0.73954404   -3.2438175    2383.6669  0.063301118  0.062704629            3 
 3139000   0.73783069   -3.2704768    2385.8737  0.063339538  0.062692534            4 
 3140000   0.75183192   -3.2672469    2383.0139  0.063243467  0.062680506            5 
 3141000   0.74968753   -3.2571875    2392.0244   0.06346239  0.062668544            5 
 3142000    0.7619115   -3.2776575    2386.3466  0.063291603  0.062656532            9 
 3143000   0.76940493    -3.258002    2389.1533  0.063345881  0.062644556            3 
 3144000   0.74951359   -3.2557173     2388.076  0.063297179  0.062632495            4 
 3145000   0.74041949   -3.2432195    2393.1697  0.063412021  0.062620638            4 
 3146000   0.77096344   -3.2865169    2398.3794  0.063529864    0.0626087            6 
 3147000   0.74532816   -3.2848917    2388.4605   0.06324702  0.062596851           11 
 3148000   0.75667486    -3.262898    2390.8129  0.063289203  0.062584937           11 
 3149000   0.74989835   -3.2520184    2386.5933  0.063157439  0.062573009            9 
 3150000   0.71547582   -3.2634298    2403.8503  0.063593924  0.062561094            9 
 3151000   0.74959054   -3.2577377    2388.3825   0.06316467  0.062549163            6 
 3152000   0.74352003   -3.2585327    2392.4218  0.063251422  0.062537322            3 
 3153000    0.7495686    -3.260145    2393.5463  0.063261083  0.062525345            6 
 3154000   0.75054679   -3.2588174    2395.6062  0.063295451  0.062513564            4 
 3155000   0.74488513   -3.2536438    2394.6633  0.063250483  0.062501618            4 
 3156000   0.75040074   -3.2643598    2396.8663  0.063288612  0.062489688            7 
 3157000   0.75547715   -3.2676874    2393.7873  0.063187291  0.062477743            8 
 3158000   0.74600352   -3.2466735    2389.8623  0.063063709  0.062465905            6 
 3159000   0.73871142   -3.2655531    2394.0443  0.063154066  0.062453922            3 
 3160000   0.73869823   -3.2567309    2387.6694  0.062965966  0.062442041            3 
 3161000   0.73691948   -3.2785665    2393.3212  0.063095043  0.062430149            9 
 3162000   0.75758041   -3.2805765    2389.4066  0.062971922  0.062418139            3 
 3163000   0.74392838   -3.2648426    2392.7732   0.06304071  0.062406218            2 
 3164000   0.75888562   -3.2712244    2393.3633  0.063036328   0.06239425            3 
 3165000   0.72319483    -3.259573    2394.5539  0.063047759  0.062382212            9 
 3166000   0.73261582   -3.2520276    2395.7372  0.063058992  0.062370278           10 
 3167000    0.7442343   -3.2859435    2383.1612  0.062708166  0.062358274            6 
 3168000   0.75066081   -3.2556057    2397.2312  0.063058482  0.062346357            5 
 3169000   0.73913075   -3.2601786    2398.5825  0.063074117  0.062334485            4 
 3170000    0.7323027   -3.2626513    2398.2911  0.063046558   0.06232261            4 
 3171000   0.73942561   -3.2626916    2396.2251  0.062972382  0.062310685            6 
 3172000   0.73222969   -3.2661434    2394.9927  0.062920152  0.062298751            5 
 3173000   0.72994248   -3.2805614    2393.0625  0.062849631  0.062286777            9 
 3174000   0.74386633   -3.2673412    2392.6587  0.062819227  0.062274904            3 
 3175000   0.74735039   -3.2669799    2398.8246  0.062961275  0.062263039            5 
 3176000   0.73308768   -3.2930081    2394.2063  0.062820274  0.062251144            7 
 3177000   0.74195363   -3.2712606     2397.915   0.06289778  0.062239189            8 
 3178000   0.74819008   -3.2621295    2403.2854  0.063018812  0.062227267            2 
 3179000   0.73566035   -3.2732522    2398.9548  0.062885466  0.062215363            5 
 3180000   0.75847379   -3.2900315    2400.3813  0.062903073   0.06220348            7 
 3181000   0.75402607   -3.2821459     2403.963  0.062977129  0.062191646            6 
 3182000   0.72907493   -3.2895687    2399.9252  0.062851592  0.062179773            4 
 3183000   0.75629674   -3.2725063    2404.5708  0.062953471  0.062167935            1 
 3184000   0.76104847   -3.2795439      2401.34  0.062849141  0.062156058            5 
 3185000     0.763174   -3.2787112     2400.363  0.062803847  0.062144283            6 
 3186000   0.74491252   -3.2797088    2405.4307  0.062916685  0.062132434            9 
 3187000   0.75239856   -3.2570751    2399.3724  0.062738532  0.062120569            4 
 3188000   0.73190886   -3.2717911    2401.6695  0.062778899  0.062108729            3 
 3189000   0.73972668   -3.2782245    2402.9321  0.062792204  0.062096906            4 
 3190000   0.74777327   -3.2869682    2404.0858  0.062802658  0.062085031           10 
 3191000   0.74993514   -3.2717519    2405.3806  0.062816791  0.062073131           10 
 3192000   0.75343304   -3.2987318    2396.3684  0.062561832  0.062061058            8 
 3193000   0.73685602   -3.2822548    2403.5881  0.062730662   0.06204908            4 
 3194000   0.72422351   -3.2731389    2405.3928   0.06275811  0.062037261            5 
 3195000   0.73413506    -3.282542    2405.8584  0.062750611  0.062025308            4 
 3196000   0.73258506   -3.2806061    2411.0914  0.062867422   0.06201334           10 
 3197000   0.73011674   -3.3045693    2405.0212  0.062689533  0.062001437            3 
 3198000   0.73771041    -3.267271    2406.6411  0.062712139  0.061989533            4 
 3199000   0.74040546   -3.2770661    2409.8744  0.062776763  0.061977626            4 
 3200000   0.73863842   -3.2837785    2410.5094  0.062773681   0.06196577            8 
 3201000   0.75691449   -3.2749114    2401.6941  0.062524579  0.061953965            5 
 3202000   0.73910983   -3.2705237     2403.917  0.062562904  0.061942131           13 
 3203000   0.72841087   -3.2643592    2408.3895  0.062659733  0.061930223            4 
 3204000   0.74609874   -3.2757023    2409.8208  0.062677404  0.061918319            7 
 3205000   0.73582246   -3.2754949    2408.3399  0.062619343  0.061906371           16 
 3206000   0.71826235     -3.27052    2407.2644  0.062571854  0.061894488            5 
 3207000   0.73568983   -3.2799976     2411.918  0.062673266  0.061882694            6 
 3208000   0.73172308   -3.2940172     2410.018  0.062604374  0.061870887            2 
 3209000   0.74913564   -3.2668692    2411.3964  0.062620661  0.061859041            4 
 3210000   0.72883141   -3.2773166    2414.8501  0.062690812  0.061847181            4 
 3211000   0.75432662   -3.2800408    2408.8649  0.062515958  0.061835434            6 
 3212000   0.74228756   -3.2909984    2411.6616  0.062569055   0.06182365            4 
 3213000   0.74282061   -3.2717477    2413.3363  0.062593015  0.061811917            6 
 3214000   0.74741802   -3.2873526    2414.5926  0.062606115  0.061800193            3 
 3215000   0.73729855   -3.2615252     2420.708  0.062745152  0.061788606            7 
 3216000   0.73578374   -3.2718791     2407.937   0.06239472  0.061776987            3 
 3217000   0.73215454   -3.2730445    2416.4579   0.06259605  0.061765286            4 
 3218000   0.73180609    -3.285657    2406.7259  0.062324578    0.0617535            6 
 3219000   0.75035399   -3.2958943    2409.9712  0.062389232   0.06174172            8 
 3220000   0.74095913   -3.2780714    2413.7054  0.062466495  0.061729958            9 
 3221000   0.73588751   -3.3128929    2412.8331  0.062424535  0.061718171            3 
 3222000   0.72586344   -3.2847932    2420.1422  0.062594202  0.061706427            6 
 3223000   0.73603051   -3.2862338    2409.4508  0.062298345  0.061694637            5 
 3224000   0.73601386   -3.2806655    2420.9503  0.062576259  0.061682886            3 
 3225000   0.73725074   -3.2831044    2416.4817  0.062441387  0.061671256           11 
 3226000   0.73913216   -3.2997431    2422.3877  0.062574594  0.061659622            7 
 3227000   0.74233326   -3.2838724    2420.3775  0.062503294  0.061647918            6 
 3228000   0.72809997   -3.2766885    2425.3114  0.062611303  0.061636342            3 
 3229000   0.73586253   -3.2813987    2422.6455  0.062523111   0.06162454            6 
 3230000    0.7331815   -3.2931871    2421.8039  0.062482039  0.061612855            4 
 3231000   0.75459998   -3.2890071    2416.3898  0.062323063  0.061601182            6 
 3232000   0.72282707   -3.2715083    2417.3807   0.06232933  0.061589615            4 
 3233000   0.73947247   -3.2816007    2421.9698  0.062428337  0.061577886            5 
 3234000   0.72930096   -3.3207603    2410.5093   0.06211372   0.06156617            8 
 3235000   0.74050617   -3.2792751    2423.3275  0.062424718  0.061554433            8 
 3236000   0.72923354   -3.2831594    2422.6571  0.062388162  0.061542986            6 
 3237000   0.73128527   -3.3166901    2418.1644  0.062253229  0.061531367           11 
 3238000   0.71830062   -3.2918169    2426.8374   0.06245721  0.061519732            3 
 3239000   0.73768939    -3.256996    2426.4609  0.062428241  0.061508251            5 
 3240000   0.71015075    -3.287546    2424.7185  0.062364158  0.061496729            6 
 3241000   0.73813852   -3.2789792    2424.8432  0.062348122  0.061485213            6 
 3242000   0.73885595   -3.2863345    2429.3608  0.062445014  0.061473661            3 
 3243000    0.7409475   -3.2916601    2419.6432   0.06217605  0.061462057            5 
 3244000   0.72369815   -3.3037208    2424.5066  0.062281819  0.061450424            8 
 3245000   0.73589319   -3.2873715     2427.993  0.062352156  0.061438873            9 
 3246000   0.73167866   -3.2918852    2427.8364  0.062328928  0.061427278            5 
 3247000   0.74326351   -3.3201799    2419.7423  0.062101999    0.0614157            6 
 3248000   0.73117234   -3.2813595    2425.2909  0.062225239  0.061404077            8 
 3249000   0.72614827   -3.2952014     2424.265  0.062179774  0.061392488            4 
 3250000   0.73746125   -3.2710395     2421.814  0.062097794  0.061380826            3 
 3251000   0.73102294   -3.2907265    2429.8215  0.062283952  0.061369214            5 
 3252000   0.70771041   -3.2893911    2427.2569  0.062199079   0.06135764            5 
 3253000   0.72253162   -3.2774781    2426.4464  0.062159198  0.061346013            8 
 3254000   0.71739998   -3.2663128    2433.2531  0.062314409  0.061334352            7 
 3255000   0.72633594   -3.2721103    2432.6852  0.062280726  0.061322734            6 
 3256000   0.73666736   -3.3069021    2429.8757  0.062189694  0.061311066            4 
 3257000   0.72860406   -3.2931668    2424.7405  0.062039211  0.061299184            3 
 3258000    0.7454344   -3.2827981    2426.2772  0.062059475  0.061287558            3 
 3259000   0.73384884   -3.2875599    2430.1384  0.062139163  0.061275788            5 
 3260000   0.73085604   -3.2988021    2431.9994  0.062167675  0.061264041            6 
 3261000   0.72391631   -3.2993702    2432.5566  0.062162848  0.061252235            2 
 3262000   0.73352843   -3.2753347     2428.727  0.062045958  0.061240574            3 
 3263000   0.73367997   -3.2958802    2417.8105  0.061748149  0.061228875            3 
 3264000   0.73409103   -3.2979869    2429.7333  0.062033633  0.061217199           10 
 3265000   0.73338747     -3.29898    2431.6571  0.062063733   0.06120541            3 
 3266000   0.69685005   -3.3081728    2424.1872  0.061854133  0.061193564           12 
 3267000   0.72309345   -3.2664024    2424.9409  0.061854425  0.061181721            3 
 3268000   0.73027417   -3.2921838    2430.9911  0.061989778  0.061170014            5 
 3269000   0.74170604   -3.2796251    2426.1106  0.061846401   0.06115828            2 
 3270000   0.71848881   -3.2890373    2424.7856  0.061793719  0.061146529            3 
 3271000   0.74834142   -3.2753811    2427.6523  0.061847863  0.061134853            3 
 3272000   0.72299398   -3.3041949    2426.8096  0.061807498   0.06112298            4 
 3273000   0.73210199   -3.3140442    2427.8983  0.061816332    0.0611111            5 
 3274000   0.73240086   -3.2952236    2430.2415  0.061857094  0.061099338            5 
 3275000   0.72267665   -3.2843626    2420.8264  0.061598637  0.061087598            9 
 3276000   0.72560492   -3.2912811    2430.3816  0.061822893  0.061075797            4 
 3277000   0.71629332   -3.2894811    2430.4334  0.061805346  0.061064133            5 
 3278000   0.73379354   -3.3045574    2434.8274  0.061898194  0.061052414            9 
 3279000   0.72307666   -3.2963542    2433.7134  0.061851006  0.061040611            9 
 3280000   0.72758656   -3.3185019    2431.0973  0.061765682  0.061028871            4 
 3281000   0.73306464   -3.2972159    2434.7221  0.061838924  0.061017159            3 
 3282000   0.72725261   -3.2909043    2430.7452  0.061719105  0.061005555            3 
 3283000   0.74089579   -3.2728677    2437.3683  0.061868422   0.06099386            4 
 3284000   0.72927651   -3.2961199    2432.6684  0.061730319  0.060982072            7 
 3285000   0.71880806   -3.3030253         2432  0.061694571  0.060970206            6 
 3286000   0.71016148   -3.2922465    2426.3716  0.061533059  0.060958354            3 
 3287000   0.72941974   -3.3118226    2431.4863   0.06164401  0.060946376            5 
 3288000   0.71212078   -3.3082295     2428.474  0.061548914  0.060934472            8 
 3289000    0.7165771   -3.2798222    2431.2386  0.061600249  0.060922679            2 
 3290000   0.70932526    -3.293092    2431.0919  0.061577809  0.060910913            5 
 3291000   0.71993264   -3.3300966    2434.2832  0.061639907  0.060898981            5 
 3292000   0.73243358   -3.3028251     2431.471  0.061549994    0.0608871            7 
 3293000   0.71244306   -3.3065842    2436.7224  0.061664197   0.06087514            7 
 3294000   0.71658261   -3.3069938    2435.3279  0.061610199  0.060863192            5 
 3295000   0.73366895   -3.3078296    2426.9209  0.061378879  0.060851114            2 
 3296000   0.73282948   -3.3145957    2432.0175  0.061489115  0.060839096            6 
 3297000    0.7307974   -3.3256456     2433.657  0.061511905  0.060827054            4 
 3298000    0.7278199   -3.3020582    2432.4054  0.061461629  0.060815143            4 
 3299000   0.73194609   -3.3244888    2429.3567  0.061365988   0.06080312            6 
 3300000   0.71002007   -3.3023365    2439.3625  0.061600062  0.060791089            6 
 3301000   0.72085147   -3.2869552    2436.1414  0.061500085  0.060779222            5 
 3302000   0.71753011   -3.3096467    2432.0853  0.061379097  0.060767269            7 
 3303000   0.72057194   -3.3168967    2432.2874  0.061365612  0.060755338           10 
 3304000   0.73188751   -3.3087468    2434.7247  0.061408513  0.060743387            7 
 3305000   0.71899451   -3.2830615    2436.9768  0.061446716  0.060731485            4 
 3306000   0.71128455   -3.3005989    2442.8578   0.06157637  0.060719547            5 
 3307000   0.71733983    -3.283696    2439.9688   0.06148495  0.060707551            7 
 3308000   0.72096469   -3.2928076    2435.2193  0.061346717  0.060695562            8 
 3309000   0.71250923   -3.2978028    2429.7862  0.061191353  0.060683651            5 
 3310000   0.70359322   -3.2863303    2435.7432   0.06132284   0.06067169           10 
 3311000   0.71782531   -3.3006603    2429.1996  0.061139625  0.060659767            5 
 3312000   0.72777558   -3.3001643    2442.8641  0.061464978  0.060647731            4 
 3313000   0.72026739   -3.3086706    2439.4276  0.061359986  0.060635809            4 
 3314000   0.72916103    -3.314896    2435.7716  0.061249536  0.060623862            7 
 3315000   0.71664286   -3.3003911    2430.8427  0.061107157  0.060611731            9 
 3316000   0.73485707   -3.3039355    2441.9708  0.061368386  0.060599727            5 
 3317000   0.70982288   -3.3048725    2433.6646  0.061141206  0.060587694            6 
 3318000    0.7125861   -3.3051383    2430.9396   0.06105434  0.060575692            5 
 3319000   0.72035953   -3.3214004     2436.536  0.061176459   0.06056357            5 
 3320000    0.7162104   -3.3092513    2441.3294  0.061278348  0.060551461            5 
 3321000   0.72260495   -3.2968092     2434.771  0.061095327  0.060539278            5 
 3322000   0.71601488   -3.2925485    2437.9204  0.061155941  0.060527151            3 
 3323000   0.71647141   -3.2988407    2426.4966  0.060851053  0.060515093            5 
 3324000   0.72038439    -3.303867    2431.6707  0.060962463  0.060502914            4 
 3325000   0.70844179   -3.3087379    2431.4117  0.060937636  0.060490865            7 
 3326000   0.71903017   -3.3263506    2435.2055  0.061014369  0.060478753            3 
 3327000   0.72192059   -3.3008697    2431.9455  0.060914374  0.060466616            8 
 3328000   0.71469634   -3.3202567    2441.6259  0.061138468  0.060454633            7 
 3329000   0.70980244   -3.2899346    2441.4851  0.061116578  0.060442711            6 
 3330000   0.71556868   -3.3253882    2435.2338  0.060941786  0.060430723            4 
 3331000   0.71714701   -3.3012649    2435.4458  0.060928795  0.060418721            7 
 3332000   0.72622752   -3.2790084    2439.5261  0.061012559  0.060406822            3 
 3333000   0.71976221   -3.3230234    2438.6846  0.060973212  0.060394931            6 
 3334000   0.72539581   -3.3014432     2442.244  0.061043891  0.060382915           10 
 3335000    0.7060009     -3.31972    2437.8419  0.060915591  0.060370979            6 
 3336000   0.71496823   -3.3055544    2442.9068  0.061023851  0.060359042            2 
 3337000   0.71719243   -3.3017183    2447.9859  0.061132401  0.060347099            5 
 3338000   0.73135757   -3.3108344    2445.6357  0.061055416  0.060335319            4 
 3339000   0.71604194   -3.3187725     2441.237  0.060927349  0.060323359            6 
 3340000   0.71458003   -3.3092244    2443.4726  0.060964884  0.060311506            3 
 3341000   0.73011697   -3.2962688    2449.9392  0.061107931  0.060299667            3 
 3342000   0.71348471   -3.3234478    2442.8295  0.060912366  0.060287885            4 
 3343000   0.70398799    -3.309249    2437.0114  0.060749112  0.060276031            3 
 3344000   0.71705316    -3.324865    2444.5743  0.060919416    0.0602641            3 
 3345000   0.72179788   -3.2696364    2453.2745  0.061117949  0.060252305            7 
 3346000   0.70841089   -3.3051601    2444.4491  0.060879884  0.060240554            4 
 3347000   0.70737629   -3.3006529    2443.8629    0.0608471  0.060228742            5 
 3348000   0.71592203   -3.3298623    2450.1657  0.060985805  0.060216789            5 
 3349000   0.71448881   -3.3178541    2444.9298   0.06083731  0.060204954           12 
 3350000   0.71943846   -3.3114804     2444.413  0.060806293  0.060193114            3 
 3351000    0.7032354   -3.3207446     2448.937  0.060900651  0.060181298            5 
 3352000   0.72412934   -3.3273432    2449.0391  0.060885022  0.060169579            6 
 3353000   0.70650782   -3.3109496    2449.4578  0.060877268  0.060157741            4 
 3354000   0.72072067   -3.3044275    2452.0754  0.060924155  0.060145841            4 
 3355000   0.70130415   -3.3244122    2449.4116  0.060839831  0.060134035            6 
 3356000   0.72346631   -3.3226663    2438.8529  0.060559518   0.06012212            4 
 3357000     0.723136   -3.3271619    2447.5794  0.060758103  0.060110345            3 
 3358000   0.71905113   -3.3289931    2444.8871  0.060673196  0.060098404            4 
 3359000   0.71567757   -3.3260584    2447.2876  0.060714688  0.060086582            4 
 3360000   0.71919488   -3.3234077    2453.8638  0.060859718  0.060074861            3 
 3361000    0.7253747   -3.3302035    2453.2934  0.060827466  0.060063114            7 
 3362000    0.7151823   -3.3126942    2449.3443  0.060711489   0.06005133            5 
 3363000   0.72764311   -3.3020464    2452.7815  0.060778608  0.060039603            6 
 3364000   0.71592284   -3.3034926    2457.3806   0.06087447   0.06002794            3 
 3365000   0.71582597   -3.3196665    2452.7862    0.0607426  0.060016312           10 
 3366000    0.7154451    -3.338176    2457.5453  0.060842376  0.060004675            5 
 3367000   0.71299686   -3.3135545    2453.7869  0.060731286  0.059992984            5 
 3368000   0.71642286   -3.3201928    2459.0911  0.060844495  0.059981331            6 
 3369000    0.7245073   -3.3108452    2458.6741  0.060816121  0.059969656            2 
 3370000   0.70167877    -3.321521    2459.8449  0.060827026  0.059957996            4 
 3371000    0.7299912   -3.3123921    2455.5449  0.060702682  0.059946417            5 
 3372000   0.69732616   -3.3067109    2463.3474  0.060877506  0.059934697            4 
 3373000   0.72163561   -3.3421877    2448.4895  0.060492378  0.059922971            5 
 3374000   0.70925608   -3.3297116    2454.6318  0.060626156  0.059911185           12 
 3375000   0.71665195   -3.3354602    2450.3369  0.060502145  0.059899399            6 
 3376000   0.71288484   -3.3379474    2455.6948  0.060616479  0.059887729            3 
 3377000   0.72506769   -3.3410555     2457.946  0.060654082  0.059876109            7 
 3378000    0.7087785    -3.322914    2457.6652    0.0606292  0.059864386            5 
 3379000   0.73186405   -3.3173322     2456.039  0.060571149  0.059852684            2 
 3380000   0.70806517   -3.3197895     2453.158    0.0604822  0.059840943            4 
 3381000   0.70526574   -3.3351758    2451.4678  0.060422652  0.059829195            6 
 3382000   0.72032661   -3.3320922    2449.0591  0.060345435  0.059817361            4 
 3383000   0.69730534   -3.3310408    2452.2494  0.060406183  0.059805636            6 
 3384000   0.71378589   -3.3185564    2465.0412  0.060703339  0.059793952            6 
 3385000   0.71542495   -3.3257278     2460.234   0.06056706  0.059782344            4 
 3386000   0.71816651   -3.3332785    2458.9183  0.060516791  0.059770573            4 
 3387000   0.71957777   -3.3358915    2460.5784  0.060539771  0.059758794            6 
 3388000   0.71469241   -3.3191637    2452.9569  0.060334439  0.059747036            5 
 3389000   0.71584318   -3.3283966     2467.717  0.060679576  0.059735279            3 
 3390000   0.69340395   -3.3226587    2466.7026  0.060636741  0.059723599            2 
 3391000   0.70928008   -3.3318241    2461.9679  0.060502503  0.059711976           10 
 3392000   0.71156813   -3.3327563    2461.5334  0.060473994  0.059700282            4 
 3393000   0.68772278   -3.3256163    2464.3962  0.060526482  0.059688522            4 
 3394000   0.68904923   -3.3366135    2460.1705  0.060404894   0.05967679            4 
 3395000   0.70293186    -3.332158     2460.154  0.060386696   0.05966512            3 
 3396000   0.71458896   -3.3344442    2463.4827  0.060450596  0.059653511            7 
 3397000   0.71654628   -3.3280418    2463.8371  0.060441494  0.059641759            7 
 3398000   0.70928694   -3.3338827     2469.769  0.060569184  0.059630062            3 
 3399000   0.70376336   -3.3116757    2469.0836   0.06053456  0.059618485            9 
 3400000   0.70398652   -3.3167484    2456.9018  0.060218181  0.059606838           11 
 3401000   0.70450588   -3.3060839      2463.56   0.06036362  0.059595103            6 
 3402000   0.69874924   -3.3382089    2466.4897  0.060417639  0.059583464            9 
 3403000   0.70892834    -3.325992    2469.1082  0.060464006  0.059571651            6 
 3404000   0.70350766   -3.3167304    2464.9608  0.060344713  0.059559964            7 
 3405000   0.71560003   -3.3354984    2466.7065  0.060369713  0.059548247            4 
 3406000   0.70961203   -3.3156399    2470.2487  0.060438654  0.059536473            5 
 3407000   0.70578192   -3.3214127    2464.7024  0.060285257  0.059524742            7 
 3408000   0.70147044   -3.3228746    2459.8869  0.060149816  0.059513087            7 
 3409000   0.70893402   -3.3320253    2471.7866  0.060423062  0.059501397            9 
 3410000   0.70424454   -3.3261513    2468.8381  0.060333286  0.059489641            4 
 3411000   0.70540823   -3.3127668    2463.8381  0.060193446  0.059477939            7 
 3412000   0.70304975   -3.3040018    2466.2243  0.060234083  0.059466365            5 
 3413000    0.7036023   -3.3394298    2465.4579  0.060197721  0.059454714            8 
 3414000   0.69538356   -3.3278961    2468.4282  0.060252593  0.059443087            4 
 3415000   0.70883744   -3.3627445    2467.5391  0.060213253  0.059431442            4 
 3416000   0.70754308    -3.350225    2466.6934  0.060174995  0.059419742            7 
 3417000    0.7018922    -3.317646    2463.7214  0.060084904  0.059408049            4 
 3418000   0.71601845   -3.3152815    2472.3048  0.060276595  0.059396494            4 
 3419000   0.70518406   -3.3439961    2466.6635  0.060121466  0.059384946            3 
 3420000   0.70671516   -3.3323742    2470.6002  0.060199811  0.059373399           15 
 3421000   0.70596971   -3.3477829    2462.4721  0.059984218  0.059361799            5 
 3422000   0.70059853   -3.3467015    2466.8096  0.060072315  0.059350186            5 
 3423000   0.71121209   -3.3382708    2478.8152  0.060347044  0.059338633            3 
 3424000   0.70353345   -3.3388867     2470.647  0.060130622  0.059327081            4 
 3425000   0.69090011   -3.3363642    2475.4774  0.060230593  0.059315524            6 
 3426000   0.69574687   -3.3228437    2469.8765  0.060076779  0.059303894            7 
 3427000   0.68550589   -3.3443307    2471.5406  0.060099714  0.059292184            8 
 3428000   0.71797129   -3.3167298     2474.078  0.060143865  0.059280624           10 
 3429000   0.70812554   -3.3040815    2473.8663  0.060121179  0.059268998            3 
 3430000     0.689828   -3.3338241    2480.1755  0.060256937  0.059257502            3 
 3431000   0.70114566   -3.3468765    2475.8496  0.060134306  0.059245956            9 
 3432000   0.70550512   -3.3536068    2474.2663  0.060078338  0.059234354            6 
 3433000    0.7128073   -3.3288021    2470.5447  0.059970499  0.059222786           10 
 3434000   0.71091109   -3.3438555    2470.0042   0.05993992  0.059211124            3 
 3435000   0.69097551   -3.3310407    2480.5242  0.060177686  0.059199528            7 
 3436000   0.71482927   -3.3357815    2474.0586  0.060003361  0.059187939            6 
 3437000   0.69538778   -3.3540295    2474.5024  0.059996664  0.059176303            6 
 3438000   0.68678496   -3.3488874    2476.4206  0.060025707  0.059164677            4 
 3439000   0.70350907   -3.3438389    2473.8773  0.059946624  0.059153072            3 
 3440000   0.69193715   -3.3266316    2470.2774  0.059841991  0.059141427            5 
 3441000   0.68774804   -3.3495942    2475.3936  0.059948504   0.05912987            5 
 3442000   0.70692228   -3.3212971    2475.6004  0.059936094  0.059118201            6 
 3443000   0.69831479   -3.3391806    2480.3543  0.060033747  0.059106642            4 
 3444000   0.67733816   -3.3529018    2475.7731  0.059905467  0.059095156           11 
 3445000   0.70846597   -3.3402296    2470.5798  0.059762452  0.059083595            5 
 3446000   0.70568194   -3.3262754    2483.0167  0.060045866  0.059072147            3 
 3447000    0.7040943   -3.3435517    2472.9589  0.059785293  0.059060646            7 
 3448000   0.71616723   -3.3588543    2473.6323  0.059784229  0.059049118            5 
 3449000   0.69241698   -3.3398423    2474.1097   0.05977843  0.059037651            4 
 3450000    0.6981297   -3.3415585    2474.7345  0.059776195  0.059026129            9 
 3451000   0.70438961   -3.3509609    2477.4147  0.059823594  0.059014532            7 
 3452000   0.69537858    -3.336912    2478.1309  0.059823555  0.059002986            9 
 3453000   0.70051972   -3.3432257    2474.3285  0.059714464  0.058991316            7 
 3454000   0.68869878   -3.3490317    2481.7748  0.059876828  0.058979767            9 
 3455000   0.69648208   -3.3327408    2479.6549  0.059808368  0.058968252            8 
 3456000   0.69810381   -3.3404946    2484.2101    0.0599009  0.058956619            6 
 3457000   0.69731841    -3.346228    2475.5009  0.059673631  0.058945069            6 
 3458000   0.69594077   -3.3395332     2471.502  0.059560006   0.05893344            6 
 3459000   0.67985911   -3.3683908    2480.5508  0.059760788  0.058921858            6 
 3460000   0.69407353   -3.3407359    2479.4797  0.059717718  0.058910227           14 
 3461000    0.6965571   -3.3420322    2484.0559  0.059810649  0.058898664            9 
 3462000   0.68930899   -3.3390102    2478.5916  0.059661843  0.058887003            3 
 3463000   0.68982295   -3.3563238    2477.7246  0.059623751  0.058875393            6 
 3464000   0.69726299   -3.3363899    2483.4507   0.05974429  0.058863607            4 
 3465000    0.6972571   -3.3415247    2481.2435  0.059673966   0.05885197            7 
 3466000   0.70267832   -3.3462719    2480.8977  0.059648435  0.058840285            9 
 3467000   0.69785573   -3.3337097    2478.2439  0.059567444  0.058828619            7 
 3468000    0.6774208   -3.3501356    2484.4666  0.059699794  0.058816951            7 
 3469000   0.70169302   -3.3534531    2476.1004   0.05948161  0.058805098            6 
 3470000   0.70657325   -3.3541863     2480.359  0.059566738  0.058793394            8 
 3471000   0.71549224   -3.3639487    2474.8777  0.059417979  0.058781627            8 
 3472000   0.69180507   -3.3581124    2480.3267  0.059531651   0.05876981            7 
 3473000   0.68915551   -3.3413891      2481.55  0.059543862   0.05875803            5 
 3474000   0.69882962   -3.3469352    2478.5565  0.059454914  0.058746247            5 
 3475000    0.6920457   -3.3530821    2476.7366  0.059394163  0.058734322            9 
 3476000   0.69869572   -3.3523801    2484.7116  0.059568267  0.058722562            2 
 3477000   0.69008142   -3.3589869    2478.4581  0.059401257  0.058710847            2 
 3478000    0.6845267   -3.3376998    2472.5711  0.059243127   0.05869898            8 
 3479000   0.70061438   -3.3458998     2481.658  0.059443757  0.058687199           10 
 3480000   0.68280696   -3.3471585    2472.5332  0.059208171  0.058675274            9 
 3481000   0.69682945   -3.3519852    2474.1953  0.059230952  0.058663347           10 
 3482000    0.7018992   -3.3589525    2482.0728   0.05940247  0.058651426            7 
 3483000    0.6953578    -3.334188    2477.6547  0.059279708   0.05863956            5 
 3484000   0.69559529   -3.3296362    2478.5083   0.05928311  0.058627769            5 
 3485000   0.68530722   -3.3399361    2483.4326   0.05938385  0.058615888            4 
 3486000   0.69306389   -3.3491256    2481.7194  0.059325861  0.058603969            4 
 3487000   0.67877247   -3.3563893    2481.5749  0.059305393  0.058592003            5 
 3488000   0.69997191   -3.3421609    2483.0064  0.059322591  0.058580078            3 
 3489000   0.69133582   -3.3327459    2484.9744  0.059352593  0.058568136            4 
 3490000   0.68700605   -3.3401485    2476.7145  0.059138359  0.058556285            4 
 3491000    0.7036885   -3.3499066    2475.4248  0.059090633   0.05854437            4 
 3492000   0.70124202   -3.3335949    2472.3348  0.058999971  0.058532374            5 
 3493000   0.69353532   -3.3774224    2472.9727    0.0589983  0.058520334            6 
 3494000   0.68448265     -3.34865    2483.2273   0.05922599  0.058508501            8 
 3495000   0.69358021   -3.3550837     2483.963  0.059226586  0.058496643            7 
 3496000    0.6963744   -3.3465759    2478.1928  0.059072102  0.058484664           12 
 3497000   0.69507066   -3.3512744    2482.0483  0.059147085  0.058472772            5 
 3498000   0.69683086   -3.3504369    2480.3724  0.059090251  0.058460959            3 
 3499000   0.68731172   -3.3609927    2481.5185   0.05910066  0.058449197            5 
 3500000   0.67880363   -3.3772835    2484.0619  0.059144332  0.058437355            7 
 3501000   0.68463601    -3.367512    2480.0837  0.059032746  0.058425475            5 
 3502000   0.68613722   -3.3414534    2478.4547  0.058977125  0.058413576            3 
 3503000   0.68053267    -3.356707    2486.8936  0.059161044  0.058401777            4 
 3504000   0.69426652   -3.3605709    2480.2279  0.058985632  0.058389905            4 
 3505000   0.69906864   -3.3562373    2483.6473  0.059050102     0.058378            5 
 3506000    0.7076839   -3.3359363    2484.5583  0.059054914  0.058366191           11 
 3507000   0.68745376   -3.3310406    2489.3829  0.059152716  0.058354482            5 
 3508000   0.67932449   -3.3484283    2479.2008  0.058893975  0.058342613            5 
 3509000   0.69404051   -3.3704075    2481.6252  0.058934769  0.058330849            5 
 3510000   0.69912254   -3.3561027     2482.609  0.058941334  0.058318985            6 
 3511000    0.6980989   -3.3377989    2484.5622  0.058970906  0.058307219            9 
 3512000   0.70408514   -3.3359726    2487.5124  0.059024118  0.058295457            6 
 3513000   0.68384436    -3.364242    2485.1037  0.058950178  0.058283703            4 
 3514000   0.71619099   -3.3574758     2486.804  0.058973725  0.058271901            6 
 3515000   0.69183086    -3.367979    2479.1816  0.058776235  0.058260185            7 
 3516000   0.68322993   -3.3693562    2494.4202  0.059120692  0.058248377            5 
 3517000   0.69473865   -3.3591486    2484.6953  0.058873454  0.058236649            5 
 3518000    0.7021839   -3.3504495    2485.0731  0.058865669  0.058224887            7 
 3519000   0.71403668   -3.3417697    2485.0816  0.058849144   0.05821314            4 
 3520000   0.68423512   -3.3549603    2479.5692  0.058701923  0.058201353            5 
 3521000    0.6940345   -3.3588109    2490.9249  0.058954012  0.058189575            3 
 3522000   0.70043177   -3.3692492     2488.983  0.058891325   0.05817774            4 
 3523000   0.68848913   -3.3492061    2484.2548  0.058762768  0.058166098            3 
 3524000   0.67396925   -3.3564085    2488.0268  0.058835292  0.058154393            4 
 3525000   0.69974421   -3.3818662    2481.0486  0.058653631  0.058142577            5 
 3526000   0.67431547    -3.358225    2490.3458  0.058856726  0.058130726            5 
 3527000   0.67537494   -3.3679121    2484.8675  0.058710602  0.058118989            4 
 3528000   0.68202014   -3.3465217    2486.5441  0.058733564  0.058107137            4 
 3529000    0.6932127   -3.3665574    2485.8892  0.058701454  0.058095247            4 
 3530000   0.68776842   -3.3214441     2491.501  0.058817304    0.0580834            8 
 3531000   0.68994347   -3.3406165    2482.1564  0.058580109  0.058071582            9 
 3532000   0.67478943   -3.3629936    2486.8678  0.058674684  0.058059724            5 
 3533000    0.6863875   -3.3846329    2484.7049  0.058607059  0.058047872            3 
 3534000   0.68370416   -3.3551026    2486.9639  0.058643744  0.058036009            4 
 3535000   0.68740931   -3.3644647    2491.5895  0.058736196  0.058024149            5 
 3536000   0.68363003    -3.358505    2483.7425  0.058534656  0.058012314            9 
 3537000   0.69180224   -3.3952009     2484.699  0.058540643  0.058000416            6 
 3538000    0.6963405   -3.3606449    2491.3412  0.058680545  0.057988536            5 
 3539000   0.68757107   -3.3495537    2487.0167  0.058562135  0.057976692            3 
 3540000   0.67776844   -3.3418408    2494.5941  0.058723966  0.057964916            3 
 3541000   0.69240434   -3.3362247    2492.2065  0.058651193    0.0579531           12 
 3542000   0.69136641   -3.3829325    2494.2996   0.05868388  0.057941317           10 
 3543000   0.69171142   -3.3663169    2499.0717  0.058779558  0.057929557           17 
 3544000   0.68783468   -3.3808633    2490.0389  0.058550576  0.057917852            3 
 3545000   0.68679232   -3.3530877    2494.4626  0.058638048  0.057906013            4 
 3546000   0.67994027   -3.3489111    2487.1642  0.058449994  0.057894229           12 
 3547000   0.69626374   -3.3589046    2490.7808  0.058518485  0.057882387            5 
 3548000   0.68134417   -3.3587399    2492.6256  0.058545322   0.05787062            4 
 3549000   0.68933926   -3.3466665    2496.4311  0.058618182  0.057858892            6 
 3550000   0.67022533   -3.3519502    2495.8602  0.058588269   0.05784716            4 
 3551000   0.69486232   -3.3570052    2490.6112  0.058448588  0.057835381            9 
 3552000   0.68298088   -3.3680445    2493.8108  0.058507197  0.057823665           10 
 3553000   0.67566302   -3.3742368    2497.0306   0.05856625  0.057811942            6 
 3554000   0.67064304   -3.3464239    2495.7396  0.058519499  0.057800209           13 
 3555000    0.6864077   -3.3473084    2486.8984   0.05829579  0.057788341            7 
 3556000   0.68974477   -3.3523678     2489.406  0.058338161  0.057776536            5 
 3557000   0.68059336   -3.3690339    2499.3597  0.058554955  0.057764756            2 
 3558000   0.68438597   -3.3627089    2498.0435  0.058507671  0.057752936            5 
 3559000    0.6895749   -3.3746364    2489.1012  0.058281849  0.057741087            9 
 3560000   0.68407336   -3.3673511    2483.6876  0.058138754  0.057729147            6 
 3561000   0.67658483   -3.3665646    2496.1984  0.058415201  0.057717333            6 
 3562000   0.67838139   -3.3571789    2493.2931  0.058330833  0.057705639            4 
 3563000   0.66379966   -3.3792377    2495.0424  0.058355374  0.057693872            3 
 3564000   0.68099606   -3.3583103    2496.9678  0.058384021  0.057682214            8 
 3565000   0.67670573   -3.3781561    2495.1232  0.058324525  0.057670516            4 
 3566000   0.67805524   -3.3496483    2491.8333   0.05823129  0.057658785           11 
 3567000   0.67004468   -3.3825896    2497.1906  0.058340122  0.057647122            4 
 3568000   0.68008353   -3.3866874    2502.1459  0.058439507  0.057635445           14 
 3569000   0.67611164    -3.369069    2498.0097  0.058326556  0.057623707            2 
 3570000   0.68667383    -3.364978    2498.6303  0.058324705  0.057611867            4 
 3571000   0.68178388   -3.3961782    2496.2054  0.058251782  0.057600105            8 
 3572000   0.67019815   -3.3844438    2500.4098  0.058333563  0.057588394           10 
 3573000   0.67406903   -3.3751925    2501.9758   0.05835376  0.057576545            3 
 3574000   0.68080692   -3.3975756     2500.137  0.058294557  0.057564672            5 
 3575000   0.67834208   -3.3864373    2496.5981   0.05819576  0.057552882            9 
 3576000   0.69564682    -3.362327     2496.915   0.05818687   0.05754105            8 
 3577000   0.68684337   -3.3778477    2492.0051  0.058056217   0.05752913            5 
 3578000   0.69225757   -3.3621315    2502.0919  0.058274919  0.057517221            6 
 3579000   0.67578711   -3.3711269     2501.911  0.058254424  0.057505441            6 
 3580000   0.68640274   -3.3891464    2502.4709  0.058251184  0.057493572            5 
 3581000   0.67938949   -3.3679454    2497.9765  0.058130328  0.057481651            5 
 3582000   0.66479515   -3.3491584    2496.9174  0.058089462  0.057469793            5 
 3583000    0.6741917   -3.3711284    2493.6262  0.057996701    0.0574579            3 
 3584000   0.67797035    -3.392527    2500.2152  0.058133724  0.057445979           10 
 3585000   0.67634087   -3.4200938    2494.8728  0.057993323  0.057433998            4 
 3586000   0.67779817   -3.3763143    2495.4346  0.057990208  0.057422029            6 
 3587000    0.6674553   -3.3553682    2496.5857  0.058000783  0.057410075            4 
 3588000   0.68663017   -3.3749005     2498.132  0.058020531  0.057398109            4 
 3589000   0.66527787   -3.3761625     2497.959  0.058000349  0.057386292            6 
 3590000     0.683133   -3.3655178    2493.6084  0.057883202  0.057374337            5 
 3591000   0.66825407   -3.3788424    2495.3261  0.057906945   0.05736239            4 
 3592000   0.68226282     -3.36857    2500.6929  0.058015332  0.057350424            7 
 3593000   0.67958143   -3.3949406     2497.796  0.057931997  0.057338518            6 
 3594000   0.66850319   -3.4004981    2498.2146  0.057925585  0.057326563            4 
 3595000   0.68671811   -3.3902527    2501.4205  0.057983786  0.057314678            5 
 3596000   0.67441214   -3.3903221    2500.5024  0.057946385  0.057302706           13 
 3597000   0.65464981   -3.3737295    2496.3659  0.057834443  0.057290634            7 
 3598000   0.67802901    -3.376979    2499.5391  0.057891864  0.057278626            4 
 3599000   0.67821707   -3.3748833    2503.8053  0.057974561  0.057266699           10 
 3600000   0.67795572   -3.3942663     2495.426  0.057764492  0.057254779            7 
 3601000   0.67676397    -3.393337    2490.0456  0.057623938  0.057242786            8 
 3602000   0.67470095   -3.3891447    2496.1199  0.057748471    0.0572308            6 
 3603000   0.67647713   -3.3619054    2499.1942  0.057803547  0.057218781            9 
 3604000   0.70249717   -3.3858548    2499.3328  0.057790714  0.057206859            7 
 3605000   0.67652824   -3.3733177    2502.8374  0.057855696  0.057194939           13 
 3606000    0.6899032   -3.3700784    2504.2136  0.057871455  0.057183008            6 
 3607000    0.6827128   -3.3654195    2492.0738  0.057574943  0.057171017            6 
 3608000   0.67585562   -3.3834703    2498.0825  0.057697766  0.057159138            6 
 3609000    0.6788221   -3.3827381    2501.0242  0.057749704   0.05714728            3 
 3610000   0.66897782    -3.403497    2493.3235  0.057555943  0.057135257            6 
 3611000   0.67458325   -3.3900522    2501.0231  0.057717695  0.057123279            8 
 3612000   0.67360439   -3.3795999    2503.0768  0.057749096  0.057111402            6 
 3613000   0.69457315   -3.3660678    2497.8471   0.05761249  0.057099508            7 
 3614000   0.68532102   -3.3989394    2503.2533  0.057721206   0.05708757            6 
 3615000   0.66013629   -3.3617028    2496.7997  0.057556471  0.057075476            3 
 3616000   0.67782319   -3.3868209    2507.1733   0.05777962  0.057063592            3 
 3617000   0.66048952   -3.3743174    2504.5604  0.057703447  0.057051683            6 
 3618000   0.67152459    -3.387954    2509.2988  0.057796638  0.057039864            6 
 3619000   0.68274398   -3.3791067     2503.394  0.057644698  0.057027954            4 
 3620000   0.68869776   -3.3830491    2504.7336  0.057659614  0.057016098           13 
 3621000   0.66749533      -3.3702    2501.4416  0.057567928  0.057004231            7 
 3622000   0.67860721   -3.3921509    2505.3982  0.057643065  0.056992357            3 
 3623000    0.6810492    -3.399346    2504.2465  0.057600666   0.05698052            5 
 3624000   0.67234076   -3.3979308    2508.9134  0.057692085  0.056968615           11 
 3625000   0.66894295   -3.3892255    2516.0741  0.057840783  0.056956796            6 
 3626000   0.66748827   -3.3774118    2504.1562  0.057550934  0.056944952            7 
 3627000   0.68183856   -3.3722098    2506.4733  0.057588303  0.056933035            7 
 3628000   0.68193001   -3.3912466    2512.7949  0.057717634  0.056921148            7 
 3629000   0.65983949   -3.3627497    2502.8621   0.05747364  0.056909373            7 
 3630000   0.66297146   -3.3928265    2507.0906  0.057554882  0.056897546            4 
 3631000   0.66617471   -3.3773613    2509.2387   0.05758833  0.056885764            8 
 3632000   0.67993411   -3.3907245    2509.3128  0.057574175  0.056873964            5 
 3633000   0.67816711   -3.3935544    2507.4476  0.057515542   0.05686205            8 
 3634000    0.6624741   -3.4000739    2495.6965  0.057230243  0.056850113            6 
 3635000   0.67926935   -3.4004909    2501.4281  0.057345899  0.056838091            8 
 3636000   0.68065167   -3.3980726    2504.4858  0.057400205  0.056826067            8 
 3637000   0.66549878   -3.4098804    2504.2094  0.057378092  0.056814228            4 
 3638000   0.66854886   -3.4142036    2501.4333   0.05729873  0.056802272            6 
 3639000   0.65714168   -3.3792843    2514.3465  0.057578696  0.056790318            2 
 3640000   0.67129008   -3.3923193     2510.506  0.057474954  0.056778506            5 
 3641000   0.65624011   -3.3875579    2504.3641  0.057318596   0.05676658            4 
 3642000   0.66659244   -3.3768367    2503.3397  0.057279418  0.056754731            5 
 3643000   0.65742684   -3.4039374    2508.8134  0.057388907  0.056742755            5 
 3644000   0.67205481   -3.3810758    2506.7145  0.057325157  0.056730783           11 
 3645000   0.67000343   -3.4043694    2507.1424  0.057319213   0.05671884            6 
 3646000    0.6625307   -3.3917545      2499.37  0.057125846  0.056707069            5 
 3647000   0.68016212   -3.3724683    2511.5458  0.057388398  0.056695208            8 
 3648000   0.68832928   -3.3784178     2510.016  0.057337718  0.056683408            4 
 3649000   0.66961855   -3.3979955    2506.8209  0.057249039  0.056671539            5 
 3650000   0.66029266   -3.3731257    2511.8603  0.057348408  0.056659736            4 
 3651000   0.66300334   -3.3961789    2506.6886  0.057214659   0.05664787            4 
 3652000   0.67905482   -3.3865273    2509.2025  0.057256354  0.056635966            4 
 3653000   0.67887653   -3.3688612     2507.667  0.057205652  0.056624149            5 
 3654000   0.66374667   -3.3811571    2504.6125  0.057120337  0.056612324           14 
 3655000   0.66988827   -3.3989538    2507.4915  0.057170348   0.05660053            4 
 3656000   0.66174275   -3.3807524    2506.6983  0.057136632  0.056588651           11 
 3657000   0.66795401   -3.3986026     2510.795   0.05721436  0.056576814            5 
 3658000   0.65756059   -3.3684283    2518.2045  0.057367517  0.056564993            5 
 3659000   0.67359233    -3.387134     2509.981  0.057164549  0.056553165            3 
 3660000   0.66205701   -3.3775087    2517.6625  0.057323828  0.056541388            3 
 3661000   0.66019365   -3.3848499    2514.1368  0.057227916  0.056529547            8 
 3662000   0.66498931   -3.3918565    2517.8283  0.057296293  0.056517643            5 
 3663000   0.67376286   -3.3838394    2517.2539  0.057267584  0.056505742           11 
 3664000   0.65622737   -3.3960414    2510.0285   0.05708762  0.056493857            7 
 3665000   0.67671586   -3.4165704     2504.535  0.056947136  0.056481913            4 
 3666000   0.65577121   -3.3978365    2510.5123  0.057067475  0.056469937            5 
 3667000   0.67050777   -3.4033127    2515.7086  0.057169998  0.056457988            2 
 3668000   0.67877097   -3.3844588    2510.7765   0.05704236   0.05644611            3 
 3669000   0.65990919   -3.3840066    2512.9499  0.057076177  0.056434222            4 
 3670000   0.66105695   -3.4028957    2518.3643  0.057183567  0.056422294            4 
 3671000   0.66156709   -3.4057708    2504.9436  0.056863335   0.05641034           17 
 3672000   0.65792591   -3.4019257    2510.3058  0.056969541  0.056398398            5 
 3673000   0.65390815   -3.4182881    2513.8882  0.057035308  0.056386524            5 
 3674000   0.66700722   -3.4102443     2507.747   0.05688049  0.056374559            5 
 3675000    0.6655706   -3.4132178    2511.0387  0.056939654  0.056362672            7 
 3676000    0.6591319   -3.4152052    2508.3659  0.056863573  0.056350711            5 
 3677000   0.65205223   -3.3945876     2510.097  0.056887339  0.056338815            3 
 3678000   0.66237518   -3.4094921    2506.8621  0.056798578  0.056326821            5 
 3679000   0.65869957    -3.413669    2512.1951  0.056903939   0.05631489            7 
 3680000   0.67003313   -3.3995088    2519.1277  0.057045463  0.056303018           11 
 3681000   0.66356248   -3.3802069    2517.4669  0.056992369  0.056291106            7 
 3682000   0.66983174   -3.4259253    2515.1374  0.056924166  0.056279242           10 
 3683000   0.67018848   -3.3898751    2516.8313  0.056947038  0.056267406            5 
 3684000   0.65479613   -3.3835895    2519.7779  0.056998233  0.056255607            5 
 3685000   0.66831562   -3.4017731     2515.771  0.056892153  0.056243761            2 
 3686000   0.64967749   -3.4058335    2516.8658   0.05690147   0.05623187            5 
 3687000    0.6561416   -3.3874634    2515.7678   0.05686122  0.056220006           10 
 3688000   0.65148212   -3.4032916    2517.2044  0.056878263  0.056208154            6 
 3689000   0.65674493   -3.4168483    2518.7634  0.056898062  0.056196236           13 
 3690000   0.66575273   -3.3925544    2517.3538  0.056850809  0.056184401            7 
 3691000   0.66551039   -3.3977147    2514.6218  0.056773725  0.056172559            7 
 3692000   0.65860582   -3.3931219    2517.7316  0.056828539  0.056160783           10 
 3693000   0.67074665   -3.4416941     2506.437  0.056558287  0.056148893            4 
 3694000   0.66926183   -3.4078279    2514.5142  0.056725189  0.056136974            6 
 3695000   0.64849598   -3.4146045    2516.4569  0.056753652  0.056125066            4 
 3696000   0.67140525   -3.3948903     2519.087  0.056797596  0.056113211           11 
 3697000    0.6534683   -3.3855054    2514.7975  0.056685544  0.056101355            4 
 3698000   0.65540604   -3.4190829    2514.7962  0.056670186  0.056089516            5 
 3699000   0.66499556   -3.4076267     2526.034  0.056908037  0.056077653            7 
 3700000   0.65576367   -3.3937358    2520.2342  0.056762031  0.056065929            5 
 3701000   0.67409544   -3.4059757    2526.8455  0.056895557  0.056054149            5 
 3702000   0.65636148   -3.4069767    2517.2252  0.056663631  0.056042363            5 
 3703000   0.65832468   -3.4120886    2525.6734   0.05683845  0.056030621           10 
 3704000   0.66021051   -3.3784831    2519.9975  0.056695408  0.056018814            6 
 3705000   0.66513873   -3.4086631    2517.1662  0.056616424  0.056007021            3 
 3706000   0.64791448    -3.386465    2521.2141  0.056692169  0.055995173           10 
 3707000   0.66355595   -3.4077499    2521.6636  0.056686979  0.055983389            4 
 3708000   0.64737984   -3.4122993    2514.6158  0.056513301  0.055971522            6 
 3709000    0.6530215   -3.4216233    2512.3347  0.056446813  0.055959565            7 
 3710000   0.66523804   -3.4179678    2519.2419  0.056586745  0.055947704            5 
 3711000   0.65511183   -3.4138694     2520.139  0.056591641  0.055935883            5 
 3712000   0.65347847   -3.4318912    2517.2741   0.05651208  0.055924095            7 
 3713000   0.64958227   -3.3989607     2519.539  0.056547694  0.055912274            5 
 3714000   0.64984356    -3.425882     2519.968  0.056542093  0.055900437           14 
 3715000   0.65146738   -3.4086586    2527.0573  0.056685897  0.055888647            6 
 3716000   0.65714003   -3.4112348    2525.4998  0.056635716  0.055876944            3 
 3717000   0.65429002   -3.4059044    2520.4311   0.05650684  0.055865224            3 
 3718000   0.64546993   -3.4007012    2523.3479  0.056557017  0.055853418            5 
 3719000   0.66797702   -3.4258632    2518.4249  0.056431498  0.055841644            6 
 3720000   0.66116729   -3.4122051    2526.4918   0.05659704  0.055829947            6 
 3721000   0.65566392   -3.4242745     2517.046  0.056370285  0.055818138            5 
 3722000   0.67157237   -3.4038167    2515.1092  0.056311776  0.055806319            7 
 3723000    0.6656944   -3.4326647    2518.8577  0.056380555  0.055794521            3 
 3724000   0.65583369   -3.4088868    2522.9379  0.056456719  0.055782734            5 
 3725000   0.65162936    -3.415423    2520.3785  0.056384307  0.055770978            6 
 3726000    0.6469765   -3.3941189    2529.8924  0.056581955  0.055759354            6 
 3727000   0.66173492   -3.4138188    2527.3411  0.056509728  0.055747735            8 
 3728000   0.64135952   -3.4235367    2531.3339  0.056583824   0.05573596            8 
 3729000   0.64692638   -3.4171889    2522.6582  0.056374771   0.05572424            4 
 3730000   0.65959913   -3.4323597    2525.6563  0.056426637  0.055712504            6 
 3731000   0.66106276   -3.4030678    2521.1667  0.056311238  0.055700818            3 
 3732000   0.67012186   -3.4146679    2527.1231   0.05642915  0.055689153            5 
 3733000   0.65698469   -3.4024643    2524.3059  0.056351146  0.055677498           14 
 3734000   0.64943922   -3.4262524    2522.3745  0.056292951  0.055665805            4 
 3735000   0.65027476   -3.3998714    2528.2245  0.056408399  0.055654002            3 
 3736000    0.6466395   -3.4187446    2523.9222  0.056297336   0.05564218            5 
 3737000    0.6510467   -3.4149358    2528.6462  0.056387614  0.055630361            6 
 3738000   0.65379432   -3.4184556    2526.5249   0.05632524  0.055618678           14 
 3739000   0.64889585   -3.4215005    2525.4009  0.056285123  0.055607007           11 
 3740000   0.67527929   -3.4142976    2531.1255  0.056397626  0.055595238            5 
 3741000   0.65800796   -3.4197596    2522.0664  0.056180754  0.055583541            5 
 3742000    0.6542461   -3.4176211    2526.4898  0.056264248  0.055571807           12 
 3743000   0.65206815   -3.4041292    2523.5735  0.056184288  0.055560008            7 
 3744000   0.65645805   -3.4133683    2525.7045  0.056216713  0.055548389            4 
 3745000   0.64711331   -3.4139132    2526.7036  0.056223933  0.055536712            5 
 3746000   0.66900034   -3.4496658    2522.9368   0.05612513  0.055525047            3 
 3747000   0.64916635   -3.4182379    2529.3738  0.056253308  0.055513374            6 
 3748000    0.6471608   -3.4217688    2530.6301  0.056266234  0.055501765           11 
 3749000   0.65442269   -3.4262784    2527.5397  0.056182531  0.055490051            4 
 3750000   0.65251315   -3.4314797    2527.3616  0.056163591  0.055478372            7 
 3751000   0.64809183   -3.4056158    2524.2546  0.056079593  0.055466672            7 
 3752000    0.6538259   -3.4253076    2534.0173  0.056281478   0.05545499            5 
 3753000   0.65581655   -3.4096618    2527.0767   0.05611237  0.055443324            5 
 3754000   0.65170679   -3.4209352    2523.8309  0.056025371  0.055431696            7 
 3755000   0.65689743   -3.4102241    2539.8246  0.056365392  0.055420042            5 
 3756000   0.64500246   -3.4163768    2530.3442  0.056140047  0.055408377           17 
 3757000   0.64968377   -3.4406776    2535.1799  0.056232365  0.055396714           20 
 3758000   0.64299697   -3.4111435    2534.7267  0.056207351    0.0553851            9 
 3759000   0.64633569   -3.4284296    2534.1574  0.056179778  0.055373474            4 
 3760000   0.63439426   -3.4142885    2528.8688  0.056047624  0.055361811            4 
 3761000   0.64270435   -3.4377302    2535.5014  0.056179681  0.055350113            6 
 3762000   0.65351361    -3.412427    2530.8307  0.056061286   0.05533842            4 
 3763000   0.64473504   -3.4076936    2533.6135  0.056108015  0.055326795            6 
 3764000   0.63451459    -3.424892    2536.4532  0.056155977  0.055315149            4 
 3765000   0.65549683   -3.4122236    2534.7404  0.056103153  0.055303484            6 
 3766000   0.65622697   -3.4296646     2534.683  0.056086984  0.055291884            7 
 3767000    0.6510684   -3.4190044    2532.8641  0.056031858  0.055280258            7 
 3768000   0.64557415   -3.4179316     2530.271  0.055959638  0.055268636            4 
 3769000   0.65530224   -3.4118352    2536.0623  0.056072837  0.055256989           11 
 3770000   0.64176127    -3.397231    2532.1738  0.055972011  0.055245357            4 
 3771000   0.65022484   -3.4207197    2534.2278  0.056002559  0.055233742            6 
 3772000   0.66448228   -3.4329557    2538.3933  0.056079739  0.055222102            6 
 3773000   0.64848824   -3.4431735    2531.0738  0.055903212  0.055210494            4 
 3774000   0.64523828    -3.426551    2535.3604  0.055983051  0.055198878           12 
 3775000   0.65066504   -3.4053897    2541.6393  0.056106827  0.055187309            4 
 3776000   0.63902152   -3.4215975    2538.3563  0.056019516  0.055175713            5 
 3777000   0.63251982   -3.4220725    2532.0569  0.055865698  0.055164068            4 
 3778000   0.64802001    -3.405975    2539.6551  0.056018509  0.055152413           13 
 3779000   0.63606008   -3.4399446    2528.7012  0.055762133  0.055140783            7 
 3780000   0.63826967   -3.4211482    2536.1621  0.055911863  0.055129098            8 
 3781000   0.66069677   -3.4279486    2537.9382   0.05593622  0.055117461            5 
 3782000   0.65035304   -3.4274456    2538.4729  0.055933211  0.055105852            5 
 3783000   0.63532496   -3.4314378    2545.0764  0.056063892  0.055094212            9 
 3784000   0.64536722   -3.4356872    2526.5731  0.055641586  0.055082579           15 
 3785000   0.66010887   -3.4077932    2539.5109  0.055911732  0.055070879            8 
 3786000   0.65280149   -3.4209451    2538.2778  0.055869824  0.055059252            5 
 3787000   0.65502878   -3.4212634    2537.0652  0.055828387  0.055047629            7 
 3788000    0.6555857   -3.4334481    2542.3517  0.055929947  0.055036076            7 
 3789000   0.65170228   -3.4253847    2529.2841  0.055627785  0.055024474            4 
 3790000   0.63345092   -3.4424216     2533.707  0.055710356  0.055012921            8 
 3791000   0.64942758   -3.4258675    2540.2903  0.055840374  0.055001389           10 
 3792000    0.6353764   -3.4198803    2536.0053  0.055731481  0.054989791           11 
 3793000   0.64911453   -3.4416107    2537.9651  0.055759844  0.054978188            8 
 3794000   0.65970653   -3.4064654    2542.1457  0.055836973  0.054966594            6 
 3795000   0.65558111   -3.4212731    2547.4649  0.055939061  0.054955052            4 
 3796000   0.64814001   -3.4283053     2538.359  0.055724424  0.054943467            6 
 3797000   0.63193216   -3.4165168    2540.2058   0.05575028  0.054931821            8 
 3798000   0.66207338   -3.4218753    2542.9621  0.055796079  0.054920204            7 
 3799000   0.64882599   -3.4432133    2534.7528  0.055601315  0.054908566           10 
 3800000   0.64862946   -3.4396297     2541.034   0.05572443  0.054896961            7 
 3801000   0.63292184   -3.4205121    2540.5763  0.055699736  0.054885376            6 
 3802000   0.65343886   -3.4317957    2535.8192  0.055580818  0.054873688            6 
 3803000   0.65112137   -3.4334161    2535.9401  0.055568852  0.054862007           13 
 3804000   0.64268555   -3.4322226    2542.3535  0.055694741  0.054850372           11 
 3805000   0.63844792   -3.4476268    2537.3323  0.055570134  0.054838689            6 
 3806000   0.64431799   -3.4217692    2536.0495  0.055527447  0.054826938            4 
 3807000   0.62621704   -3.4164376    2528.8328   0.05535489  0.054815204            7 
 3808000   0.64689961   -3.3978836     2541.337  0.055613993  0.054803546            5 
 3809000   0.64534211   -3.4426063     2532.436  0.055404656  0.054791858            3 
 3810000   0.64127711   -3.4682988    2532.8184  0.055398477  0.054780025            9 
 3811000   0.62831881   -3.4552661    2535.0198  0.055432079  0.054768282            7 
 3812000   0.64116895   -3.4359361    2545.9861  0.055657269  0.054756562           17 
 3813000   0.64640145   -3.4304388    2533.9207  0.055378983  0.054744951            7 
 3814000    0.6556601   -3.4589466    2538.8311   0.05547175  0.054733216            5 
 3815000   0.65703402   -3.4335269    2535.3756   0.05538173  0.054721441            7 
 3816000    0.6272172   -3.4457026    2535.6425  0.055373045  0.054709729            7 
 3817000   0.63013304   -3.4507143    2545.3294  0.055570025  0.054697993           11 
 3818000   0.64634851   -3.4406342    2536.3742   0.05536001   0.05468623            9 
 3819000   0.63900959   -3.4262154    2543.8683  0.055509041  0.054674515           10 
 3820000   0.64697786   -3.4323257    2534.4696  0.055289476  0.054662842           14 
 3821000   0.64719096   -3.4261886    2541.9755  0.055438704  0.054651158           10 
 3822000   0.63261789    -3.459512    2530.0772  0.055164774  0.054639414            8 
 3823000   0.63075774   -3.4453631    2542.1113  0.055412662  0.054627708            6 
 3824000    0.6384496   -3.4493368     2541.949  0.055394635  0.054616009            5 
 3825000   0.64587805   -3.4363578    2540.6583  0.055352033  0.054604344            4 
 3826000    0.6280397   -3.4590621    2534.7322  0.055208489  0.054592638           23 
 3827000   0.64439738   -3.4519761    2538.7834   0.05528228  0.054580942            5 
 3828000   0.63718944   -3.4409961    2532.3953  0.055128773  0.054569234           10 
 3829000   0.64247493   -3.4300975     2539.557  0.055270239  0.054557602           12 
 3830000   0.63957532   -3.4342062    2536.5413  0.055190194  0.054545913            7 
 3831000   0.64311752   -3.4269755    2540.2038  0.055255455  0.054534222            8 
 3832000   0.62423235   -3.4463168    2542.0768  0.055281767  0.054522584           12 
 3833000   0.64202378   -3.4238302    2543.7234  0.055303144   0.05451099            6 
 3834000   0.64116231   -3.4511919    2547.8271  0.055377915  0.054499423            4 
 3835000   0.63777804   -3.4495621    2547.2517  0.055350972  0.054487794            9 
 3836000   0.64796555   -3.4373212    2539.9102  0.055177055  0.054476096            8 
 3837000   0.62740674   -3.4581942    2545.3712  0.055281279  0.054464439            9 
 3838000   0.63621922   -3.4310578    2541.5371  0.055183627  0.054452842            6 
 3839000   0.62933153   -3.4382668    2552.6598  0.055410692  0.054441334            9 
 3840000    0.6289281   -3.4328464    2546.0166  0.055252097  0.054429764            5 
 3841000   0.63894014   -3.4469118      2539.73   0.05510132  0.054418194           12 
 3842000    0.6355839   -3.4355703    2548.6403  0.055280243  0.054406566            6 
 3843000   0.63006115   -3.4411433    2543.5093  0.055154594   0.05439496            5 
 3844000   0.63690876   -3.4463087    2544.0843  0.055152712  0.054383385           12 
 3845000   0.64773737   -3.4433437    2541.9576  0.055092276  0.054371773            4 
 3846000    0.6493441   -3.4384186    2539.5364   0.05502549  0.054360188            7 
 3847000   0.64575847   -3.4515129    2545.7034  0.055144774  0.054348645            5 
 3848000   0.62181554   -3.4456037    2547.0765   0.05516018  0.054337019            7 
 3849000   0.63554235   -3.4331253    2541.5075  0.055025277  0.054325476            6 
 3850000   0.63727751   -3.4542043    2545.1207  0.055089193  0.054313878           10 
 3851000   0.62834607   -3.4426043     2545.415  0.055081255  0.054302347            8 
 3852000   0.63093555   -3.4480849    2547.6515  0.055115341  0.054290837            3 
 3853000   0.63195875   -3.4319089    2548.1291  0.055111365  0.054279249            6 
 3854000   0.64733447   -3.4512857    2542.2971  0.054970963  0.054267786           11 
 3855000   0.63288655   -3.4331227    2549.8492  0.055119956  0.054256222            8 
 3856000   0.62361252   -3.4525676    2546.3726  0.055030527    0.0542447            8 
 3857000   0.63674099   -3.4561049    2549.7652   0.05508956  0.054233185           10 
 3858000    0.6371656   -3.4546104     2538.831    0.0548391  0.054221617           11 
 3859000   0.62362434   -3.4446453     2541.895  0.054891056   0.05421005            7 
 3860000   0.64840405   -3.4450994    2551.3745  0.055081488  0.054198556            6 
 3861000   0.65299307   -3.4425656    2551.1097  0.055061507  0.054186982           13 
 3862000   0.63136894   -3.4498351    2549.3904  0.055010151  0.054175499           13 
 3863000   0.63164793   -3.4488067    2544.7629  0.054896084  0.054163989            9 
 3864000   0.64176008   -3.4583405    2551.1262  0.055019113  0.054152547           10 
 3865000   0.61606584   -3.4596066    2551.4952  0.055012833  0.054140962            6 
 3866000   0.62698512   -3.4670151    2549.9746  0.054965826    0.0541295           17 
 3867000   0.64562807   -3.4575555      2551.07  0.054975218  0.054118041           25 
 3868000   0.64697081   -3.4469987    2541.7902  0.054761078  0.054106533            4 
 3869000   0.63563656   -3.4647124    2544.9259  0.054814464  0.054094994            6 
 3870000   0.63860542   -3.4474826    2560.4383   0.05513433  0.054083408            8 
 3871000   0.63066875   -3.4547009    2552.5684  0.054950667  0.054072043            5 
 3872000   0.63444462   -3.4488868    2547.5809  0.054829134  0.054060478            8 
 3873000   0.63554183   -3.4548757    2553.7414   0.05494753  0.054049016            4 
 3874000   0.63603797   -3.4668838    2545.9717  0.054766213  0.054037497            5 
 3875000   0.62634485   -3.4608159     2552.382  0.054889935  0.054025984            7 
 3876000   0.63544068   -3.4426373    2552.1811  0.054871454  0.054014474            7 
 3877000   0.62689297   -3.4584339    2551.7077  0.054847126  0.054003015            4 
 3878000   0.63494801   -3.4533924    2549.9788  0.054795831  0.053991454            6 
 3879000   0.63090511   -3.4579597    2551.8158  0.054821171   0.05397996            8 
 3880000   0.64087802   -3.4526483    2549.2665  0.054752287  0.053968459            6 
 3881000   0.62816413   -3.4516009    2545.7791  0.054663297  0.053956922            7 
 3882000    0.6372014   -3.4444088    2553.8632  0.054822754  0.053945349            5 
 3883000   0.62675097   -3.4435573    2550.8267  0.054743468  0.053933837            5 
 3884000   0.63538201   -3.4521518    2548.7588  0.054685008  0.053922334            5 
 3885000   0.62673528   -3.4496308    2552.9683  0.054761225  0.053910835            9 
 3886000   0.63231086   -3.4622186    2555.2806  0.054796719  0.053899247            6 
 3887000   0.64149545   -3.4621214    2550.0921  0.054671385  0.053887735            7 
 3888000   0.64373698   -3.4558083    2557.6972  0.054820328  0.053876188           15 
 3889000   0.62319452   -3.4491622    2549.7846   0.05463668  0.053864626            7 
 3890000   0.62506578   -3.4672637    2549.7925  0.054622804  0.053853106           11 
 3891000   0.63121996    -3.459773    2552.6257  0.054669444  0.053841553            6 
 3892000   0.61847457   -3.4475234     2559.085    0.0547937  0.053830133            6 
 3893000   0.62825182   -3.4643544    2550.6273  0.054598581  0.053818668            6 
 3894000    0.6453461   -3.4467236    2548.8182  0.054545843  0.053807253            4 
 3895000   0.62923096   -3.4582122    2551.8658  0.054597044  0.053795756           15 
 3896000   0.63513506   -3.4648549    2542.9466  0.054392253  0.053784219            7 
 3897000   0.63250079   -3.4461342    2553.1382  0.054596233  0.053772707           11 
 3898000   0.62732721   -3.4563598    2554.1546  0.054603955  0.053761282            8 
 3899000   0.62936309   -3.4562162    2558.7336  0.054687818  0.053749884            8 
 3900000   0.63710767   -3.4699919    2556.0199  0.054615809  0.053738379           12 
 3901000   0.62205904   -3.4655376    2551.4028  0.054503179  0.053726934            7 
 3902000   0.63272189   -3.4631266    2555.5926   0.05457869  0.053715521           10 
 3903000   0.62678573   -3.4511677    2550.9938  0.054466516  0.053704108           12 
 3904000   0.62477932   -3.4624224    2554.5385   0.05452823  0.053692627           10 
 3905000   0.63454766   -3.4578755    2555.6659  0.054538325  0.053681105            4 
 3906000   0.62971659   -3.4576996    2551.9502   0.05444509  0.053669562            5 
 3907000   0.61864491   -3.4777755    2549.1508  0.054371445  0.053657974            6 
 3908000   0.63188563   -3.4350097    2554.5958   0.05447364   0.05364646            5 
 3909000   0.62981209   -3.4458197     2554.143   0.05445005  0.053634973            6 
 3910000   0.63764315    -3.461027    2555.3194  0.054461198  0.053623534            4 
 3911000    0.6414526   -3.4574232    2554.4468   0.05442868  0.053612061            7 
 3912000   0.63433559    -3.446878      2555.79   0.05444338  0.053600634            7 
 3913000    0.6251564   -3.4650554    2563.2342  0.054588001  0.053589182            5 
 3914000    0.6214257   -3.4618376    2559.9286  0.054503676  0.053577822            5 
 3915000   0.62915839   -3.4447194    2562.9037   0.05455308  0.053566409            6 
 3916000   0.61448526   -3.4671523    2565.7442  0.054599597  0.053554943            6 
 3917000   0.62968362   -3.4687554    2559.5244  0.054453331  0.053543482            2 
 3918000    0.6295291   -3.4510651    2551.9406  0.054278131  0.053531994            9 
 3919000   0.63113127    -3.466206     2555.282  0.054335332  0.053520571            5 
 3920000   0.61837919   -3.4826851    2552.0992  0.054253809  0.053509118            5 
 3921000   0.61153497   -3.4832616    2551.5627   0.05422857   0.05349768           10 
 3922000   0.63071598   -3.4714804    2556.6087  0.054321959  0.053486247            7 
 3923000   0.62618812   -3.4652847    2557.3307  0.054323449  0.053474877            3 
 3924000   0.61125211   -3.4581921    2560.6933  0.054381016   0.05346354            6 
 3925000   0.63127999   -3.4748773    2556.9398  0.054287469  0.053452173            4 
 3926000   0.63213037   -3.4668143    2561.8316  0.054377476  0.053440775            5 
 3927000   0.61744495   -3.4234311    2561.5935  0.054358575  0.053429438           12 
 3928000     0.613647   -3.4782789     2557.887  0.054266103  0.053418099           13 
 3929000   0.61505908   -3.4652879         2565  0.054403156   0.05340676            6 
 3930000   0.61948208   -3.4543258    2555.8091  0.054194425  0.053395417            3 
 3931000   0.62038527   -3.4688846    2561.6908  0.054305326  0.053384089            7 
 3932000   0.61075914   -3.4747656    2561.3814  0.054284957  0.053372743            7 
 3933000   0.62940127   -3.4742217    2567.0423  0.054391099  0.053361498            6 
 3934000   0.61640331    -3.462044    2562.0611  0.054271757  0.053350232            9 
 3935000   0.61233103   -3.4718463    2563.4391  0.054287147  0.053338833           11 
 3936000   0.61222795   -3.4565619    2565.0415  0.054307282  0.053327523           18 
 3937000   0.61185538   -3.4587577    2564.1632  0.054274897  0.053316223            5 
 3938000   0.63231301   -3.4826261    2569.5531  0.054375171  0.053304986            7 
 3939000   0.61977956   -3.4757019    2567.0968  0.054309402  0.053293783           11 
 3940000   0.63256478    -3.485924    2561.5529  0.054178362  0.053282555            6 
 3941000   0.63794376    -3.461138    2562.4667  0.054183936  0.053271245           13 
 3942000    0.6320498   -3.4756658    2568.1124   0.05428954  0.053259942           12 
 3943000   0.62246075   -3.4549407     2577.798  0.054480473  0.053248689           11 
 3944000   0.60856144   -3.4786786    2569.2609  0.054286276  0.053237524           13 
 3945000   0.61935071   -3.4716676    2573.0586  0.054352738    0.0532263            5 
 3946000   0.62359893   -3.4753836    2562.7549  0.054121365  0.053215044            7 
 3947000   0.61217557   -3.4726484    2565.6293  0.054168342  0.053203765            5 
 3948000   0.61273897   -3.4589617    2569.9625  0.054246084  0.053192574            9 
 3949000   0.62150784   -3.4612451    2565.8005  0.054144519  0.053181363           11 
 3950000   0.63553436   -3.4735453    2562.3218  0.054057423  0.053170067            9 
 3951000    0.6229229    -3.497073    2562.6187  0.054050003  0.053158766            6 
 3952000   0.60656177   -3.4774777    2561.1311  0.054004956  0.053147567            7 
 3953000   0.61795944   -3.4753746    2569.9182  0.054176536   0.05313634           16 
 3954000     0.627383   -3.4745171    2555.0819   0.05385015  0.053125012            7 
 3955000   0.62142477   -3.4832554    2560.7345  0.053955637  0.053113787            5 
 3956000   0.61463969   -3.4867441    2563.9365  0.054009447  0.053102521            8 
 3957000    0.6229236   -3.4756406    2557.2441  0.053854858  0.053091259            6 
 3958000   0.62461731   -3.4678106    2564.4418  0.053992795  0.053079977            5 
 3959000   0.62098674   -3.4834907    2564.4528  0.053979389  0.053068738            6 
 3960000   0.61813668   -3.4695748    2568.8871  0.054059072  0.053057522            7 
 3961000   0.62114328   -3.4719888    2571.3064  0.054096322  0.053046224            5 
 3962000   0.63339084   -3.4821212    2567.8341  0.054009635  0.053034972            9 
 3963000   0.61085694   -3.4630601    2568.6896  0.054013995  0.053023701           10 
 3964000    0.6349828   -3.4541035     2567.492  0.053975193  0.053012446            3 
 3965000   0.61987323   -3.4889062    2565.8652  0.053927389  0.053001213            8 
 3966000   0.61773124   -3.4734459    2570.9653  0.054020954  0.052989863            4 
 3967000   0.62954341   -3.4957518    2565.0083  0.053882202  0.052978507            8 
 3968000   0.61710854    -3.479322    2563.8979  0.053845303  0.052967257            8 
 3969000   0.62753022   -3.4908126    2565.0861  0.053856683  0.052955964            7 
 3970000    0.6149032    -3.473582    2574.1402   0.05403317  0.052944705           10 
 3971000   0.61811784   -3.4624658    2568.2219  0.053895365  0.052933424            7 
 3972000    0.6148961   -3.4564869    2566.3024  0.053841523  0.052922173           11 
 3973000   0.61963031   -3.4836065    2571.0024  0.053926554  0.052910975           12 
 3974000   0.60549229     -3.48406    2568.1334  0.053852823  0.052899701            4 
 3975000   0.61160479   -3.4795463    2566.3764   0.05380244  0.052888453            9 
 3976000   0.61481515   -3.4627718    2573.5289  0.053938819  0.052877267            8 
 3977000   0.62344963   -3.4867747    2573.2369  0.053919138  0.052866066           14 
 3978000    0.6207853   -3.4795109    2569.7755  0.053833071  0.052854749            6 
 3979000   0.62048425   -3.4737605     2569.855  0.053821207  0.052843551            9 
 3980000    0.6253066   -3.4942063    2564.9914  0.053705849   0.05283236           12 
 3981000   0.62002587   -3.4603265    2573.9611  0.053880119  0.052821137            7 
 3982000   0.62378976   -3.4706958    2573.2074  0.053850817  0.052809944            4 
 3983000   0.61018904   -3.4847749    2576.6578  0.053909486  0.052798716            8 
 3984000   0.62461719   -3.4996488    2568.9515  0.053734763  0.052787466            8 
 3985000   0.60211504     -3.49731    2573.2639  0.053811458  0.052776216            9 
 3986000   0.61466916   -3.4921794    2571.5939  0.053763044  0.052764997            8 
 3987000   0.61025241   -3.4737606    2570.4605   0.05372587  0.052753774            8 
 3988000   0.61428614   -3.4823923     2570.449  0.053712157  0.052742543           14 
 3989000   0.61501964   -3.4827554    2578.0072  0.053856588  0.052731329            7 
 3990000   0.60727532    -3.474958    2581.1476  0.053908681  0.052720178            8 
 3991000   0.62310821   -3.4835754    2570.4524  0.053671853  0.052708899            3 
 3992000   0.62101156   -3.4893151    2580.9558  0.053877668  0.052697716            4 
 3993000   0.61032828   -3.4752279    2573.6249  0.053711181  0.052686528            9 
 3994000   0.60993282   -3.4901814    2570.8371  0.053639566  0.052675263            8 
 3995000   0.61952955   -3.4697269     2574.527  0.053703109  0.052664079            4 
 3996000   0.61797181   -3.4967142    2570.6192  0.053608175  0.052652872            6 
 3997000   0.60937287   -3.4934664    2564.5382  0.053467981  0.052641579            6 
 3998000   0.61126858   -3.4916619    2573.0995  0.053633057  0.052630372           13 
 3999000   0.62000869    -3.491986    2575.5397  0.053670495  0.052619153            7 
 4000000   0.60851282   -3.5015645    2569.1505  0.053523969   0.05260787            5 
 4001000    0.6126514   -3.4787772    2574.7958  0.053628172  0.052596676           12 
 4002000   0.60420826    -3.482255    2575.6514  0.053632587  0.052585503            9 
 4003000     0.626461   -3.4675723    2580.0513  0.053710786   0.05257436            9 
 4004000   0.61425847   -3.4497505    2575.0876  0.053594064  0.052563219            4 
 4005000   0.62302577   -3.4678586    2571.1179  0.053498083  0.052552066           12 
 4006000   0.59871941   -3.4956486    2566.4376  0.053387368  0.052540854           11 
 4007000   0.61646759   -3.4992217    2575.4627   0.05356174  0.052529655           11 
 4008000   0.60387657   -3.4895238     2571.359  0.053463053  0.052518492            6 
 4009000   0.61708586   -3.4956372     2574.356  0.053512014  0.052507303            7 
 4010000   0.61542191   -3.4910501    2571.8715  0.053447038   0.05249611            6 
 4011000   0.61309498   -3.4882489    2569.8854   0.05339245  0.052484953            8 
 4012000   0.60968846   -3.4763224    2565.5306  0.053288688  0.052473768            8 
 4013000   0.59033993   -3.4774926    2579.8688  0.053573154  0.052462528           16 
 4014000   0.60826115   -3.4928575    2576.2138  0.053483926  0.052451299            8 
 4015000   0.61008122   -3.5065616    2567.5005  0.053289756  0.052440082           10 
 4016000   0.60419555    -3.486128    2573.7946  0.053407091  0.052428897           13 
 4017000   0.61068655   -3.5030486    2571.7481  0.053351342  0.052417643           11 
 4018000   0.61163319   -3.5030429    2570.8516  0.053319471  0.052406354            5 
 4019000   0.61768048   -3.5057451    2575.9325  0.053411556   0.05239519           24 
 4020000   0.59718741   -3.5006824    2573.0499  0.053338514  0.052383964            6 
 4021000   0.61796579   -3.4733897    2572.0293  0.053304097  0.052372699            6 
 4022000   0.62371422    -3.493384    2570.8915  0.053267269  0.052361513            5 
 4023000   0.60831659   -3.4931082    2572.1336  0.053279759   0.05235018            5 
 4024000   0.60227085   -3.4986225    2573.1947  0.053288492   0.05233897            3 
 4025000   0.60608154   -3.5093701      2576.83  0.053350518  0.052327768            4 
 4026000   0.60467601   -3.4943436    2575.0341  0.053300094  0.052316604            8 
 4027000   0.60095334    -3.485582    2577.5214   0.05333833  0.052305381            4 
 4028000   0.61580202   -3.4856789      2575.59  0.053285128  0.052294214            4 
 4029000   0.60681236   -3.5115382    2570.8679  0.053174236  0.052282963           13 
 4030000   0.60583141   -3.4997892    2570.2451  0.053148162  0.052271704            6 
 4031000   0.60225057   -3.4931299    2582.6292  0.053390994  0.052260486            7 
 4032000   0.60175706   -3.4906964    2576.6483   0.05325414  0.052249328           10 
 4033000   0.60273352   -3.4978322    2575.9816  0.053227159  0.052238122            8 
 4034000   0.59471185   -3.5074624    2577.5946  0.053247285   0.05222694            5 
 4035000    0.6069667   -3.4860667    2581.0516  0.053305485  0.052215724           10 
 4036000   0.60349033   -3.5119131    2576.2367  0.053192861  0.052204528            8 
 4037000   0.59979458   -3.4619205    2578.7738  0.053232058  0.052193341            7 
 4038000   0.60150458    -3.491415    2571.8566  0.053076122  0.052182186           17 
 4039000   0.59747808   -3.4883982    2573.9638  0.053106457  0.052171045            8 
 4040000   0.60029957    -3.483874    2576.0121  0.053135562  0.052159929            9 
 4041000   0.60340923   -3.4958778    2578.7759  0.053179408  0.052148874           12 
 4042000   0.60395027   -3.4753878    2582.4604  0.053242216   0.05213784            7 
 4043000   0.61728543   -3.4955228    2579.4535   0.05316707  0.052126789            9 
 4044000   0.60869701   -3.5081834    2581.1198  0.053188258  0.052115685           10 
 4045000   0.61443096   -3.4671451    2592.3837  0.053407162  0.052104624            4 
 4046000   0.60267433   -3.4842801    2573.4078  0.053003126  0.052093604            8 
 4047000   0.61554037    -3.500992    2580.9314  0.053144951  0.052082643            7 
 4048000   0.59540705   -3.4878244    2581.6274   0.05314615  0.052071612            9 
 4049000   0.61821522   -3.4869364    2583.3016  0.053167482  0.052060577           22 
 4050000   0.59677587   -3.4951681    2587.0841  0.053232183  0.052049562           13 
 4051000    0.6003373   -3.5051649    2584.7292  0.053170599  0.052038574            9 
 4052000   0.61304664   -3.5039399    2581.9347  0.053100006  0.052027494           13 
 4053000   0.59724307   -3.4965916    2574.7991  0.052940191   0.05201633            5 
 4054000   0.60062493   -3.5006797    2576.8729  0.052969761  0.052005211            2 
 4055000   0.60636064   -3.5045456     2586.986  0.053164529  0.051994119            8 
 4056000   0.59440117   -3.4881342    2577.2026  0.052950415  0.051983022            7 
 4057000   0.60581633   -3.4896198    2581.6028  0.053027746  0.051971939            9 
 4058000   0.59799096   -3.5100486    2575.0219  0.052879535  0.051960804            4 
 4059000   0.61509998   -3.5040177    2580.6144  0.052981325  0.051949695           10 
 4060000   0.61204772   -3.5003634    2579.7991  0.052951542  0.051938562           10 
 4061000   0.62074553     -3.49499    2578.3719  0.052909216  0.051927537            5 
 4062000   0.59515611   -3.4853927    2580.2523  0.052934767  0.051916476            5 
 4063000   0.60513458   -3.4928626    2571.5456  0.052743163  0.051905354            8 
 4064000   0.59336361   -3.5052145    2580.8974  0.052921944  0.051894255           15 
 4065000    0.5890847   -3.5073648    2580.4874   0.05290052  0.051883168           14 
 4066000   0.61012286   -3.4919083    2584.9423  0.052978814  0.051872046            8 
 4067000   0.58614471   -3.4839462     2586.833  0.053004528  0.051860952            4 
 4068000     0.594224     -3.46751    2583.2436   0.05291797   0.05184978            5 
 4069000   0.58648019   -3.5022418    2583.2615   0.05290533  0.051838691            9 
 4070000   0.60951432   -3.5146581    2586.3478  0.052955524  0.051827523            5 
 4071000    0.5959546   -3.5153907    2575.5002  0.052720466  0.051816338           12 
 4072000   0.59520307   -3.4900568    2578.8551  0.052776176  0.051805208            5 
 4073000    0.5979205   -3.4892001    2581.9704  0.052826959   0.05179403            7 
 4074000   0.60200243   -3.5009561    2584.9771  0.052875493  0.051782897            7 
 4075000   0.60335186   -3.5171346    2584.8348  0.052859608  0.051771796            7 
 4076000   0.60955995   -3.4980332    2584.3145  0.052836002  0.051760664           11 
 4077000   0.60683427   -3.5076394    2582.3538  0.052782965  0.051749578            4 
 4078000   0.58954832   -3.4843942    2585.7286  0.052838986  0.051738431            5 
 4079000    0.5916424   -3.5127941     2584.324  0.052797335  0.051727348            8 
 4080000   0.59112476   -3.5055837    2580.2077   0.05270032  0.051716224           23 
 4081000   0.59112929   -3.5167026     2577.545  0.052633035  0.051705108            6 
 4082000   0.60615121   -3.4874333    2576.9953  0.052608919  0.051693878            9 
 4083000   0.59472102   -3.5240627    2587.1074  0.052802421  0.051682722            6 
 4084000   0.58852735   -3.4936734    2577.0418  0.052584105  0.051671604            6 
 4085000   0.59702157   -3.4955412    2596.0898  0.052959808  0.051660479            4 
 4086000   0.59287083   -3.5197116    2575.0972  0.052518706  0.051649355            7 
 4087000   0.59698178   -3.5207965    2576.6144  0.052536791  0.051638117           19 
 4088000   0.60405392   -3.4930213    2586.1089  0.052717484  0.051626948           13 
 4089000   0.60576352   -3.5130205     2583.992   0.05266145  0.051615834           10 
 4090000   0.60055378   -3.5269667    2581.5957   0.05259975   0.05160467            5 
 4091000   0.59314353   -3.5225578    2580.7132  0.052568916  0.051593452            7 
 4092000   0.60484476   -3.5151353    2588.9576  0.052723966  0.051582279           10 
 4093000   0.59666635   -3.5312622    2570.9832  0.052345125  0.051571091            7 
 4094000   0.60663308   -3.5237206    2577.7381  0.052469837  0.051559867           12 
 4095000   0.59046096   -3.5238889    2579.5817  0.052494539  0.051548657           11 
 4096000   0.59493151   -3.5213704    2585.7019  0.052606239  0.051537477           12 
 4097000   0.60758036   -3.5109593    2582.4109   0.05252646  0.051526367            7 
 4098000   0.58047286   -3.5109519    2580.9122  0.052483167  0.051515309            8 
 4099000   0.58635161    -3.529056    2578.4705  0.052420722  0.051504142            6 
 4100000   0.59540991   -3.5048026     2589.246   0.05262695  0.051492991           10 
 4101000   0.59752581   -3.5174679     2586.011  0.052548382   0.05148186           11 
 4102000    0.6008656   -3.5072618    2583.9984  0.052494686  0.051470672            5 
 4103000   0.58303708   -3.5162365    2579.3887  0.052388267  0.051459547           11 
 4104000   0.58114769   -3.5069759    2579.3032  0.052373766  0.051448392           11 
 4105000    0.5881115   -3.4883549    2580.8688   0.05239279  0.051437277            9 
 4106000   0.59543692   -3.5185137    2570.9367  0.052178451  0.051426089           11 
 4107000   0.59403323   -3.5064397     2583.994  0.052430687  0.051414925            6 
 4108000   0.59882687   -3.5226402    2577.2207  0.052280523  0.051403761            4 
 4109000   0.59516368   -3.5266894     2582.278  0.052370366  0.051392577           13 
 4110000   0.57758874   -3.4979605    2583.8816  0.052390138  0.051381359            5 
 4111000   0.60021453   -3.5170458    2580.9288  0.052317537   0.05137016           18 
 4112000   0.59775606   -3.5123761    2575.7511  0.052199884  0.051358972            8 
 4113000   0.58809678   -3.5166249    2579.8553  0.052270349   0.05134777           14 
 4114000   0.60026189   -3.5291251    2587.1693  0.052405796  0.051336559           23 
 4115000   0.58440863   -3.5407941       2577.8  0.052203321  0.051325354           10 
 4116000   0.59599616   -3.5261122    2584.3347   0.05232294  0.051314123            6 
 4117000   0.58910557    -3.539733    2581.6868  0.052256635  0.051302934            8 
 4118000   0.58610489   -3.5242667    2581.4851  0.052239865  0.051291717            8 
 4119000   0.59728315   -3.5358746    2588.3657  0.052366386  0.051280612            8 
 4120000   0.59281773    -3.531909    2585.2733  0.052291127  0.051269457            7 
 4121000    0.5927203   -3.5089596     2579.346  0.052158578  0.051258209            9 
 4122000    0.5981681   -3.5252371    2578.2878  0.052124531  0.051247016            6 
 4123000   0.59521511   -3.4921506    2582.8951  0.052205011   0.05123592            4 
 4124000   0.60670626   -3.5267675    2587.7416  0.052290284  0.051224743           12 
 4125000   0.59164165   -3.4942972    2587.7142  0.052277055  0.051213524           16 
 4126000   0.59936039   -3.5217621    2581.1232  0.052131266   0.05120236            7 
 4127000   0.59396382   -3.5353911    2583.9248  0.052175204  0.051191151            6 
 4128000   0.60148272   -3.5159144    2589.1346  0.052267737  0.051180038           10 
 4129000   0.58679729   -3.4963258    2590.2585  0.052277762  0.051168934            8 
 4130000    0.5969152   -3.5260665    2585.3208  0.052165473  0.051157826            5 
 4131000    0.5885414   -3.5045665    2588.3334  0.052213617  0.051146723            5 
 4132000   0.59506945   -3.5241935    2582.0228   0.05207371  0.051135619            4 
 4133000   0.60393156   -3.4989961    2592.9267  0.052280964  0.051124562            4 
 4134000   0.57554043   -3.5053819    2587.3008  0.052154911  0.051113414           13 
 4135000   0.58435649    -3.523021    2586.0364  0.052116815    0.0511023            4 
 4136000   0.58283176   -3.5130579    2587.0398  0.052124432  0.051091252           13 
 4137000   0.57638915   -3.5256451    2585.4919  0.052080652  0.051080097           20 
 4138000   0.58371671   -3.5320403    2579.9903  0.051957272  0.051068864            5 
 4139000   0.57667436   -3.5138506    2587.6242  0.052098417  0.051057678            6 
 4140000   0.58443022   -3.5221189    2586.6578  0.052066381  0.051046521           12 
 4141000   0.57403509   -3.5325984    2587.1338  0.052063386  0.051035388            6 
 4142000    0.5973984    -3.513267    2580.9647    0.0519267  0.051024192           10 
 4143000   0.59066636   -3.5157162    2585.6447    0.0520083  0.051013036            6 
 4144000   0.59951152   -3.5467518    2593.0517  0.052144702  0.051001887            8 
 4145000   0.58559252   -3.5165966     2588.551  0.052041637  0.050990797            9 
 4146000    0.5833082   -3.5285615    2585.1702  0.051961131  0.050979654           16 
 4147000   0.59669515   -3.5139433    2577.9951   0.05180442  0.050968522            7 
 4148000   0.60404315   -3.5267964    2580.2288  0.051836805  0.050957356            6 
 4149000    0.5810406   -3.5185649    2585.4902  0.051929988  0.050946201           10 
 4150000    0.5859156   -3.5197166    2582.1984  0.051851373  0.050935075            7 
 4151000   0.58417425   -3.5184394    2584.7684  0.051890476  0.050923927            6 
 4152000   0.59516234   -3.5343426     2593.757  0.052058385  0.050912802           19 
 4153000   0.58262132   -3.5294772    2580.3983  0.051777797  0.050901692            4 
 4154000    0.5919149   -3.5011946    2588.7675  0.051933228  0.050890555            6 
 4155000   0.59508442   -3.5221485    2589.7066  0.051939563  0.050879451           10 
 4156000   0.58812802   -3.5224856    2587.1288  0.051875377  0.050868294            3 
 4157000   0.58531417   -3.5237798    2588.4408  0.051889198  0.050857225            6 
 4158000   0.59936028   -3.5215932    2595.2289  0.052012765  0.050846172            6 
 4159000   0.57743002   -3.5226843    2586.7319  0.051830006  0.050835087            7 
 4160000   0.59150495   -3.5138172    2591.1488  0.051906025  0.050823942           11 
 4161000   0.57611947   -3.5275385    2585.2054   0.05177452  0.050812859           12 
 4162000   0.59111147   -3.5328859    2592.0466  0.051899059  0.050801754            7 
 4163000   0.57294674   -3.5216944    2592.5638  0.051896946  0.050790649            9 
 4164000    0.5849986   -3.5436053    2589.9377  0.051831927  0.050779511           11 
 4165000   0.59096347   -3.5386706    2590.4645  0.051830022   0.05076843            7 
 4166000   0.59557135   -3.5343612    2584.9142  0.051706556  0.050757381           12 
 4167000   0.58613602    -3.519989    2587.2807  0.051741476  0.050746272            4 
 4168000   0.58929345   -3.5324786    2593.5885  0.051855177  0.050735256            4 
 4169000   0.59568168   -3.5268789    2590.7847  0.051786693  0.050724222            5 
 4170000   0.57497599   -3.5270512    2591.3587  0.051785746   0.05071324           13 
 4171000    0.5850752   -3.5397271    2583.3247  0.051612817  0.050702207            9 
 4172000   0.57235002    -3.541476    2584.6974  0.051627865  0.050691082           13 
 4173000   0.59592043   -3.5264408    2584.9204  0.051619947  0.050679964            7 
 4174000   0.58163439   -3.5339711    2594.1277  0.051791401  0.050668919           11 
 4175000   0.59698409   -3.5328733    2592.8282  0.051753057  0.050657853           10 
 4176000   0.58482809   -3.5203145    2592.4261  0.051732641  0.050646787           18 
 4177000   0.58485293   -3.5331262    2589.9229  0.051670315    0.0506357           11 
 4178000   0.58553651   -3.5053324    2586.5479  0.051590632  0.050624632           14 
 4179000    0.5737092    -3.524488    2593.2947  0.051712825  0.050613576           23 
 4180000    0.5798909   -3.5357948    2585.9842  0.051554708  0.050602535            8 
 4181000   0.57810019   -3.5422624    2595.8819  0.051739654  0.050591446           25 
 4182000   0.57075657   -3.5179851    2592.9989  0.051669833  0.050580374            5 
 4183000   0.58285478   -3.5400478    2589.3623  0.051585032  0.050569313           18 
 4184000   0.59969898    -3.530099    2588.4368   0.05155427  0.050558269            5 
 4185000   0.58696091   -3.5141811    2593.2261  0.051637317  0.050547181           11 
 4186000   0.58470949   -3.5540498    2581.4071  0.051389694  0.050536047            6 
 4187000   0.58118344   -3.5500282    2584.5142  0.051439261  0.050524914           12 
 4188000    0.5820343   -3.5209581    2594.0689  0.051617098  0.050513841           20 
 4189000   0.58910528   -3.5341391    2596.3927  0.051651005  0.050502829            4 
 4190000     0.573466   -3.5480373    2592.9214  0.051569638  0.050491759            8 
 4191000   0.59251208   -3.5374903    2586.8578  0.051436766  0.050480641           11 
 4192000   0.58696286   -3.5296509    2595.3222  0.051592761  0.050469579            9 
 4193000   0.58738565   -3.5313276    2585.3977  0.051383213  0.050458586           18 
 4194000   0.57657501   -3.5522641    2595.6444  0.051574559  0.050447498            6 
 4195000   0.57947075   -3.5419282    2592.4279   0.05149837  0.050436464           16 
 4196000   0.58313084   -3.5478974    2592.4935  0.051487399  0.050425401            7 
 4197000   0.57999065   -3.5417483    2584.3222  0.051312886  0.050414384           15 
 4198000   0.57084123    -3.519765    2590.1998  0.051417337  0.050403358           14 
 4199000    0.5854795   -3.5340554    2595.5766    0.0515118  0.050392363            3 
 4200000   0.58240772   -3.5456747    2585.3262  0.051296155  0.050381295            7 
 4201000   0.57461809   -3.5211796    2594.0544  0.051457082  0.050370252            6 
 4202000   0.58520561   -3.5449796    2595.2041  0.051467637  0.050359241            8 
 4203000   0.58460755   -3.5319034    2591.8034  0.051387965  0.050348159            9 
 4204000   0.57700706   -3.5610529    2590.3803  0.051347532  0.050337066           15 
 4205000    0.5817172   -3.5315081     2589.466  0.051317201  0.050325946            8 
 4206000   0.58449531   -3.5375842    2597.7037  0.051468215  0.050314943            8 
 4207000   0.58796888   -3.5261359    2597.3796   0.05144956  0.050303935            9 
 4208000   0.57407016   -3.5322061    2597.8329   0.05144631  0.050292942            9 
 4209000    0.5789568     -3.53771    2592.6635  0.051331739  0.050281912            9 
 4210000   0.55795916   -3.5583662     2584.978   0.05116742  0.050270842            9 
 4211000   0.57827168   -3.5497981    2597.0211  0.051393593  0.050259765            8 
 4212000   0.57870881    -3.532375    2596.0581   0.05136234  0.050248697            5 
 4213000   0.57090148   -3.5534257    2594.6613  0.051322519  0.050237653           16 
 4214000    0.5885281   -3.5365855    2594.8306  0.051313688  0.050226641           20 
 4215000   0.56986097   -3.5461404    2596.8877  0.051342185  0.050215639            7 
 4216000   0.58155991   -3.5487366    2596.8546  0.051329353  0.050204594            5 
 4217000   0.57867131   -3.5497833    2596.5708  0.051311572  0.050193591           10 
 4218000   0.56496838   -3.5389496     2592.016  0.051209421   0.05018258            8 
 4219000    0.5573564   -3.5489546    2594.3753  0.051243882  0.050171565           19 
 4220000   0.58420855   -3.5483563    2600.9393   0.05136136   0.05016057            8 
 4221000   0.57387155   -3.5259664     2603.243  0.051394673  0.050149571           14 
 4222000    0.5654649   -3.5602851    2594.6356  0.051212608  0.050138614           12 
 4223000   0.56649423   -3.5543693    2605.5199  0.051415264   0.05012762            5 
 4224000   0.55575027   -3.5531951    2591.0945  0.051118499  0.050116614           10 
 4225000   0.57530845   -3.5422337    2596.5781  0.051214559  0.050105602            6 
 4226000   0.58328471   -3.5515366    2590.8474  0.051089434   0.05009459            8 
 4227000   0.56712356   -3.5552837    2595.4674  0.051168429  0.050083582           12 
 4228000   0.57859863   -3.5369432    2593.1252  0.051110162  0.050072574            7 
 4229000   0.57240353   -3.5491232    2593.9949  0.051115215   0.05006156            9 
 4230000   0.57560456   -3.5581282    2595.5307  0.051133387  0.050050482           24 
 4231000     0.567537   -3.5299748    2596.3496   0.05113743   0.05003939           11 
 4232000   0.57945173   -3.5621969    2598.4601  0.051166905  0.050028394           11 
 4233000    0.5741039   -3.5584007    2594.4759  0.051076383  0.050017372           14 
 4234000   0.58598958   -3.5529816    2595.6666  0.051087754  0.050006328            6 
 4235000   0.55867617   -3.5290551    2596.7707  0.051097417  0.049995359            4 
 4236000   0.57815048   -3.5378001    2602.2704  0.051193548  0.049984378            9 
 4237000   0.57027317   -3.5561753    2592.2982  0.050985332  0.049973432            9 
 4238000    0.5632527   -3.5518806    2592.5187  0.050977637  0.049962431           15 
 4239000   0.56664437   -3.5481812    2597.8533  0.051070482  0.049951429           11 
 4240000   0.57150582   -3.5582548    2592.9126  0.050961333  0.049940459            7 
 4241000   0.56761314   -3.5443178    2591.3447  0.050918508  0.049929428            7 
 4242000   0.57553236   -3.5415605    2597.0059  0.051017719  0.049918464            5 
 4243000   0.56749477   -3.5726884    2598.6344  0.051037678  0.049907476           12 
 4244000   0.57516288   -3.5672474    2594.7635  0.050949644  0.049896441            7 
 4245000   0.57309645   -3.5527153     2595.365   0.05094945  0.049885459           11 
 4246000   0.56510176   -3.5354044     2596.556  0.050960826  0.049874456           12 
 4247000   0.57334362   -3.5351807    2594.1188  0.050901005  0.049863466           13 
 4248000   0.57044447   -3.5322548     2593.183  0.050870664  0.049852465           10 
 4249000    0.5738608   -3.5514229    2594.1087  0.050876847  0.049841464            4 
 4250000   0.57713942   -3.5669361    2595.8756  0.050899521  0.049830418            7 
 4251000   0.56232025   -3.5429157    2600.9671  0.050987359  0.049819388           18 
 4252000   0.58298248   -3.5438248    2590.7056  0.050774256  0.049808368           29 
 4253000   0.57574131   -3.5518217    2594.3783  0.050834279  0.049797415            6 
 4254000   0.57626626   -3.5687229     2594.063  0.050816153  0.049786416           28 
 4255000   0.58730221   -3.5658545    2596.1862  0.050845793  0.049775424           14 
 4256000   0.56448987   -3.5661593    2599.0121  0.050889178  0.049764346            7 
 4257000    0.5550242   -3.5485881    2595.7031  0.050812448   0.04975334            6 
 4258000   0.57883423   -3.5574338     2594.005  0.050767281  0.049742341            7 
 4259000   0.57272339   -3.5509757    2597.1695  0.050817279  0.049731287           18 
 4260000   0.56472517   -3.5440166     2596.246  0.050787284  0.049720278            7 
 4261000   0.57987137   -3.5395933    2598.5393  0.050820216   0.04970927           11 
 4262000   0.57859621   -3.5475417    2601.3156  0.050862577  0.049698303            7 
 4263000   0.56873402   -3.5653448    2597.6856  0.050779685  0.049687322           11 
 4264000   0.58574632   -3.5363141    2594.5168  0.050705848  0.049676394            9 
 4265000   0.57165295   -3.5396358    2599.1552  0.050784587  0.049665449           11 
 4266000   0.57171941    -3.555984    2597.6396  0.050743076  0.049654452            5 
 4267000    0.5689189   -3.5616653    2595.2526  0.050684567  0.049643456            8 
 4268000   0.57098448   -3.5524323    2594.0009  0.050648252  0.049632382           14 
 4269000   0.56634243    -3.533335    2593.9195  0.050634799  0.049621381           10 
 4270000   0.56318781   -3.5595476    2602.9992  0.050800141  0.049610406            6 
 4271000   0.56955549    -3.553205    2598.0752  0.050692171  0.049599473            9 
 4272000   0.56670055   -3.5527274    2597.6994  0.050672975  0.049588462            8 
 4273000   0.56499644   -3.5790381    2598.3362  0.050673535  0.049577459            8 
 4274000    0.5640096   -3.5700423    2600.0906  0.050695886  0.049566418           16 
 4275000   0.56706388   -3.5719593    2597.0602  0.050624956  0.049555437           13 
 4276000   0.57163459   -3.5659194    2601.4346  0.050698368  0.049544434            9 
 4277000   0.56765169   -3.5622114    2592.1821  0.050506236  0.049533404           14 
 4278000   0.57267554    -3.550101    2594.4316  0.050538249  0.049522369            7 
 4279000   0.56065274   -3.5554368    2596.1891  0.050560667  0.049511341            8 
 4280000   0.57704806    -3.559979     2596.457   0.05055407  0.049500295           14 
 4281000   0.57023105   -3.5494193    2595.1097  0.050516033  0.049489188            8 
 4282000   0.57151518   -3.5573715    2592.3141   0.05044983  0.049478144            8 
 4283000   0.55996738   -3.5553555    2591.4595  0.050421423  0.049467108           14 
 4284000   0.56349676   -3.5560586    2597.7817  0.050532635  0.049456119           11 
 4285000   0.55678155   -3.5754519    2608.0115  0.050719788  0.049445123            9 
 4286000   0.56464179   -3.5640534    2597.3012  0.050499713  0.049434086            7 
 4287000   0.55762115   -3.5710683    2604.8243   0.05063417  0.049423073            5 
 4288000   0.56229655   -3.5548806    2595.3746  0.050438717  0.049412127            7 
 4289000   0.57318292   -3.5649749    2598.2456   0.05048274  0.049401159           17 
 4290000   0.56364341   -3.5739528    2596.3176   0.05043352  0.049390097            9 
 4291000   0.56298995   -3.5684935    2591.1782  0.050321956  0.049379029            7 
 4292000   0.57121307   -3.5621301    2596.7476  0.050418367  0.049368037            6 
 4293000    0.5539679   -3.5579922    2595.3453  0.050379402  0.049357027           11 
 4294000   0.56374117    -3.578697    2590.7836  0.050279142  0.049345987            9 
 4295000   0.56151592   -3.5546266    2597.0956  0.050389902  0.049334916           18 
 4296000   0.56519211   -3.5731834    2591.7869  0.050275196  0.049323893           12 
 4297000   0.56302244   -3.5553107    2600.1389   0.05042547  0.049312868            8 
 4298000   0.56687917   -3.5898459    2590.6223  0.050229221   0.04930185            5 
 4299000   0.55731722    -3.558418    2596.9741  0.050340662  0.049290755           12 
 4300000   0.55841011   -3.5921396    2594.4876  0.050280768  0.049279662           12 
 4301000   0.56932748   -3.5824078     2590.884  0.050199256  0.049268602           20 
 4302000   0.56483592   -3.5540097    2604.8425  0.050457975  0.049257536           18 
 4303000   0.56098964    -3.555255    2602.4697  0.050400296  0.049246503           12 
 4304000    0.5655415   -3.5788714    2593.9936  0.050224474  0.049235495           16 
 4305000    0.5664308    -3.560324    2595.0119  0.050232519  0.049224436           17 
 4306000   0.56429907   -3.5838218    2596.0555  0.050241049  0.049213415           15 
 4307000   0.56153228   -3.5621434    2601.9394  0.050343229   0.04920235            8 
 4308000   0.57409347   -3.5488732    2604.0306  0.050371994  0.049191368            7 
 4309000   0.55935582   -3.5690858    2597.2755  0.050229665  0.049180389           13 
 4310000   0.56084463    -3.580721    2598.1608  0.050235128  0.049169389            7 
 4311000   0.55762446   -3.5403513    2600.6702  0.050271982  0.049158455            6 
 4312000   0.55752566   -3.5563513    2605.3608  0.050350975  0.049147524           10 
 4313000   0.54644624    -3.560445    2599.9264    0.0502343  0.049136599           10 
 4314000    0.5527088    -3.578735     2592.361  0.050076515  0.049125559           10 
 4315000   0.55557263   -3.5777048     2595.238  0.050120472  0.049114562           10 
 4316000   0.57804989   -3.5712434    2597.5924  0.050154317  0.049103597            3 
 4317000   0.56110068   -3.5945369     2593.425  0.050062254  0.049092643           10 
 4318000   0.56079953   -3.5656765    2610.5014  0.050380219   0.04908176            5 
 4319000   0.56086653   -3.5872336    2604.1579  0.050246158  0.049070883           14 
 4320000   0.56900027   -3.5869881    2602.4838  0.050202233  0.049059963            6 
 4321000   0.57727725   -3.5702088    2598.8822  0.050121157  0.049049093           10 
 4322000   0.55415312   -3.5782749    2601.2124  0.050154488  0.049038204            7 
 4323000   0.55418762   -3.5651877    2605.8274  0.050231849  0.049027311           12 
 4324000   0.55423246   -3.5718049    2604.3841  0.050192417  0.049016433           12 
 4325000   0.54510978   -3.5631037    2603.4176  0.050162189  0.049005529           10 
 4326000   0.56956384   -3.5800596    2600.2469  0.050089516  0.048994576           14 
 4327000   0.56597632   -3.5820182    2602.9555  0.050130103  0.048983651            5 
 4328000   0.56212759   -3.5803272    2597.1194  0.050006151  0.048972693           13 
 4329000   0.55125303   -3.5850295    2601.9636   0.05008785  0.048961721           13 
 4330000   0.56649146   -3.5908617    2601.0178   0.05005808  0.048950822            7 
 4331000    0.5639051   -3.5609151    2604.8341  0.050119951  0.048939891           10 
 4332000   0.56122823   -3.5780664    2595.0045  0.049919293  0.048928968           14 
 4333000   0.55421082   -3.5675644     2598.884  0.049982384   0.04891805           10 
 4334000   0.57214403    -3.579497    2604.3764  0.050076458  0.048907188           10 
 4335000   0.55207073   -3.5889811    2595.1493   0.04988753  0.048896237           13 
 4336000    0.5550589   -3.5847452    2599.4567  0.049958807  0.048885277            7 
 4337000    0.5629385     -3.58558    2598.2339  0.049923794  0.048874288            9 
 4338000   0.55399961    -3.582546    2603.4483  0.050012455  0.048863315            4 
 4339000   0.56866884   -3.5786854     2606.909  0.050067392  0.048852397            6 
 4340000    0.5476537    -3.579814    2601.2085    0.0499464  0.048841463            9 
 4341000   0.55093439   -3.5760232    2593.8374  0.049793393  0.048830502           13 
 4342000    0.5644256   -3.5784471    2605.0656  0.049997421  0.048819614           18 
 4343000   0.55958571   -3.5790028     2601.495  0.049917395  0.048808685           10 
 4344000   0.56707238   -3.5858317      2595.35  0.049788023  0.048797788           31 
 4345000   0.55058481   -3.5897542    2597.3554  0.049815025  0.048786853           19 
 4346000   0.54911897   -3.5817002    2604.4577  0.049939747  0.048775902           13 
 4347000   0.55928772   -3.6031976    2601.8502  0.049878273  0.048765005           10 
 4348000   0.55998629   -3.5874412    2602.2234  0.049873953  0.048754018           21 
 4349000   0.54458826   -3.6092643    2604.6593  0.049909161  0.048743072           16 
 4350000   0.55670707   -3.5643533    2608.7294  0.049975659  0.048732217            7 
 4351000   0.53655719   -3.5982786    2596.4409  0.049728816  0.048721293           13 
 4352000   0.54721852   -3.5640742    2603.9051  0.049860316  0.048710383           15 
 4353000   0.57345988   -3.5756571    2606.2246  0.049893265  0.048699555            5 
 4354000   0.55370519   -3.5675527    2603.5964  0.049831503  0.048688744           11 
 4355000   0.54367437   -3.5653107    2598.9144  0.049730471  0.048677863            9 
 4356000   0.56231336   -3.5713184    2616.8312  0.050061814  0.048667011            8 
 4357000   0.55196106   -3.5938076    2604.1142  0.049807095  0.048656205           18 
 4358000   0.55054577   -3.5741072    2604.8876  0.049810457  0.048645333            9 
 4359000   0.55795127   -3.5902043    2599.5007  0.049696044  0.048634418           13 
 4360000   0.55618184   -3.5883349    2602.9959   0.04975145  0.048623482            9 
 4361000    0.5507718   -3.5931179    2600.0568  0.049683879  0.048612532            6 
 4362000   0.57159298    -3.566512    2597.7566  0.049628546  0.048601622           20 
 4363000   0.56069987   -3.5903376    2607.9179  0.049811251  0.048590726           12 
 4364000   0.56294899   -3.6065563    2613.1243  0.049899258  0.048579825            9 
 4365000   0.54937499   -3.5901798    2600.1296  0.049639741  0.048568944           15 
 4366000   0.55506519   -3.6058465    2606.7742  0.049755196  0.048558066           15 
 4367000   0.54032568   -3.5871628    2602.4496  0.049661279  0.048547181           17 
 4368000   0.55553265   -3.5725293     2602.813  0.049656841  0.048536288            8 
 4369000   0.55664139   -3.5966663    2601.9711  0.049629417  0.048525412            7 
 4370000     0.553699   -3.5912538    2607.5713  0.049724852  0.048514533            9 
 4371000   0.54986941   -3.5804678    2606.4532  0.049692161  0.048503664           28 
 4372000    0.5411007   -3.5986722    2608.3176  0.049716331  0.048492786           13 
 4373000   0.54722206   -3.5968313    2604.0992  0.049624575  0.048481956           16 
 4374000   0.55205364   -3.6172302    2605.8543  0.049646668  0.048471124           22 
 4375000   0.57166361   -3.5793948    2612.5942  0.049763699  0.048460296            4 
 4376000   0.55435729   -3.5951273    2612.5296  0.049751098  0.048449503            5 
 4377000   0.56075632   -3.5812988    2606.6939  0.049628625  0.048438667            9 
 4378000   0.55879826   -3.5923893    2613.1831  0.049740809   0.04842784            6 
 4379000    0.5412968   -3.5809381    2607.3172  0.049617821  0.048417041           15 
 4380000   0.54876414   -3.5816419    2610.0697  0.049658861  0.048406219           10 
 4381000   0.55577772   -3.5891579    2602.8572  0.049510332  0.048395365           12 
 4382000   0.54059791   -3.5924598    2610.4197  0.049642851  0.048384494           15 
 4383000   0.55082806   -3.6028867     2604.639  0.049521617   0.04837358            7 
 4384000   0.55348781   -3.5940589     2607.863  0.049571606  0.048362743           20 
 4385000   0.54459654   -3.6072217    2607.3873   0.04955126    0.0483519           13 
 4386000   0.56385098   -3.5988753    2603.5329  0.049466729  0.048341097           22 
 4387000   0.54896335   -3.6026957    2605.3407  0.049489795  0.048330259            6 
 4388000   0.54316313   -3.5890324    2610.4201  0.049574979  0.048319422           15 
 4389000   0.54164995   -3.5966693    2604.4522  0.049450371  0.048308562            9 
 4390000   0.55031485   -3.5968722    2599.5894    0.0493468  0.048297699           11 
 4391000    0.5400396   -3.6094338    2600.8223  0.049358959  0.048286744           14 
 4392000   0.55074975   -3.6041417    2603.2375  0.049393547  0.048275839           29 
 4393000   0.55134123   -3.6067641    2600.0647  0.049322117  0.048264888            7 
 4394000   0.53042078   -3.6173503     2604.145  0.049388275  0.048253962           13 
 4395000   0.54315671   -3.5752669     2606.153  0.049415112  0.048243078            9 
 4396000   0.55129196    -3.574644    2602.3071  0.049330967  0.048232223           11 
 4397000   0.55673438   -3.6160765    2604.2481  0.049356533  0.048221375           23 
 4398000   0.55420556   -3.6026465    2598.7908  0.049241906  0.048210465           15 
 4399000   0.54880956   -3.5899148    2610.6183  0.049454768  0.048199597           10 
 4400000   0.55268498   -3.6074175    2603.1236  0.049301583  0.048188763           34 
 4401000   0.54673448   -3.6172577    2600.0629  0.049232426  0.048177893            9 
 4402000   0.54594719   -3.5961374    2601.9374  0.049256727   0.04816701           23 
 4403000   0.55610345   -3.5971143    2604.8469  0.049300608  0.048156193           11 
 4404000   0.54180401   -3.6009772    2603.4775  0.049263501  0.048145326           19 
 4405000    0.5418436   -3.5836098    2601.8436  0.049221407   0.04813445            8 
 4406000   0.54405851   -3.5804131    2607.5692  0.049318527  0.048123629           10 
 4407000   0.55604408   -3.6071084    2599.7155  0.049158829  0.048112804           14 
 4408000   0.55239786     -3.60525    2604.6591  0.049241134  0.048101976           11 
 4409000   0.53654419   -3.5850921     2606.648  0.049267558  0.048091151           10 
 4410000   0.55123907   -3.5962144     2603.951  0.049205423  0.048080314           12 
 4411000   0.54923962   -3.6142364    2596.2731  0.049049217  0.048069475           29 
 4412000   0.53653063   -3.6157192    2603.1119  0.049167269  0.048058599           18 
 4413000   0.54005531   -3.6289344    2611.6136  0.049316671   0.04804778            8 
 4414000   0.53950481   -3.6227116    2607.4131  0.049226194  0.048036957            5 
 4415000    0.5560806   -3.5903717    2613.5687  0.049331233  0.048026156            6 
 4416000   0.53972253   -3.5902438    2605.4753  0.049167333  0.048015382           14 
 4417000   0.54209971   -3.5919956    2610.5466   0.04925188  0.048004647            9 
 4418000    0.5543866   -3.6008372    2605.3249  0.049142239  0.047993868            7 
 4419000   0.54610139   -3.5974648    2606.5239  0.049153728  0.047983106           14 
 4420000   0.55285154    -3.601454    2600.0979  0.049021454  0.047972301           11 
 4421000   0.54207013   -3.5967773    2606.3931  0.049129027  0.047961514           15 
 4422000   0.54257757   -3.6063558    2610.9163  0.049203157  0.047950684           11 
 4423000    0.5381451   -3.6024215    2612.1797  0.049215836   0.04793985           14 
 4424000   0.53949799   -3.6025368    2607.5315  0.049117154  0.047929033           14 
 4425000     0.548537   -3.6067112    2603.7587  0.049035004  0.047918147           25 
 4426000   0.53706469    -3.585388    2606.2141  0.049070155  0.047907293           12 
 4427000   0.54895133   -3.5903266    2604.9892  0.049036014  0.047896531            5 
 4428000   0.53517004   -3.6062319    2598.7523  0.048907563  0.047885741           18 
 4429000   0.55001245   -3.6006262    2615.5214  0.049212038  0.047874938            8 
 4430000   0.54645188   -3.6077346    2613.0635  0.049154693  0.047864177            6 
 4431000   0.54421413   -3.6298818    2607.6705  0.049042175  0.047853359            9 
 4432000   0.54351996    -3.610619    2621.9611   0.04929981  0.047842607           11 
 4433000    0.5529561   -3.6102904    2610.4187   0.04907171  0.047831861           15 
 4434000   0.53163585   -3.6145786    2607.6136  0.049007925  0.047821165           17 
 4435000   0.55147809   -3.5993847    2607.4273  0.048993373  0.047810391            5 
 4436000   0.54673021   -3.5944518    2602.5617  0.048890925    0.0477996            8 
 4437000   0.53990165   -3.6122969    2605.8408  0.048941492  0.047788875            5 
 4438000   0.54924297   -3.6261077    2605.2918  0.048920156  0.047778115           10 
 4439000   0.54308823   -3.6103705    2611.1584  0.049019268   0.04776734           10 
 4440000   0.54550224   -3.5907912       2605.6  0.048903903  0.047756559           22 
 4441000   0.53746227    -3.607759    2606.8217  0.048915817  0.047745825            8 
 4442000   0.54838782   -3.6024439    2611.4808   0.04899221  0.047735104           11 
 4443000   0.54501031   -3.5951593     2611.061   0.04897331  0.047724352           16 
 4444000   0.53193874   -3.5899338    2612.5871  0.048990907  0.047713606           17 
 4445000    0.5410799    -3.622178    2605.3271  0.048843778  0.047702853           15 
 4446000   0.53105731   -3.6030377    2609.1243  0.048903964   0.04769205           10 
 4447000   0.53991898    -3.627902    2600.5339  0.048731991  0.047681229            6 
 4448000   0.54107042   -3.6088884    2606.7949  0.048838333  0.047670432           15 
 4449000   0.53407615   -3.6124174    2600.2745  0.048705223  0.047659671           11 
 4450000   0.54086675   -3.6211802    2600.5723  0.048699856   0.04764888           11 
 4451000   0.53816416   -3.6133047    2610.5263  0.048875277  0.047638111           24 
 4452000   0.53584747   -3.6383428    2613.1812  0.048913994  0.047627319           12 
 4453000   0.54562548   -3.6277531    2601.9489  0.048692808  0.047616504            8 
 4454000   0.53245031   -3.6147662    2608.4804  0.048804079  0.047605678           10 
 4455000   0.53547982    -3.613857    2601.1294   0.04865562  0.047594833            8 
 4456000    0.5309683   -3.6063926    2612.7954  0.048862869  0.047584064            9 
 4457000   0.54646051   -3.6017924    2615.6665  0.048905589  0.047573337           12 
 4458000   0.53218062   -3.6178392    2610.8301  0.048804211  0.047562596           12 
 4459000   0.54318813   -3.6107203    2610.4835   0.04878679  0.047551872            8 
 4460000   0.54255234   -3.6258255    2609.4433  0.048756415  0.047541055           18 
 4461000   0.53779884   -3.6371162     2605.641  0.048674457  0.047530233            9 
 4462000   0.54629532   -3.6262056    2607.2641  0.048693861  0.047519407           21 
 4463000   0.54342646   -3.6190267    2601.0719   0.04856733  0.047508614           12 
 4464000   0.52634557   -3.6057394    2603.8491  0.048608294  0.047497804           13 
 4465000   0.53360076   -3.6298917    2602.7347  0.048576608  0.047487021           11 
 4466000   0.54442124   -3.6296863    2609.6341  0.048694472  0.047476267           12 
 4467000   0.55356964    -3.603304    2602.3192  0.048547108  0.047465484            6 
 4468000   0.54240851   -3.6168711     2603.298  0.048554499  0.047454641           14 
 4469000   0.53848201   -3.6189956    2606.9114  0.048611013  0.047443808            9 
 4470000   0.54025834   -3.6169341    2605.6502  0.048576625  0.047433038           14 
 4471000   0.53432147    -3.611471    2608.0724  0.048610907  0.047422348            7 
 4472000    0.5411011   -3.6100476    2611.5201  0.048664283   0.04741166           10 
 4473000   0.54739988   -3.5996706     2608.115  0.048589966  0.047400924           10 
 4474000   0.52789127   -3.6126926    2612.5357  0.048661446  0.047390225            5 
 4475000   0.53954907   -3.6129729     2608.173   0.04856933  0.047379467           13 
 4476000   0.53031139    -3.629275    2608.2201  0.048559355  0.047368668           47 
 4477000   0.52866582    -3.615131    2611.0639  0.048601443  0.047357829           18 
 4478000   0.52904213   -3.6270998     2608.201  0.048537312  0.047347014            7 
 4479000   0.53563342    -3.629272    2610.1848  0.048563385  0.047336159           28 
 4480000   0.52255555     -3.61621    2609.0976  0.048532321  0.047325371           10 
 4481000   0.52492318    -3.624278    2604.8209  0.048441956  0.047314577           16 
 4482000   0.51751042   -3.6340528    2608.2681  0.048495243  0.047303744           39 
 4483000   0.54318764   -3.6402787    2608.9172   0.04849649  0.047292893           17 
 4484000   0.53363282   -3.6330647    2601.1847  0.048341969   0.04728201           13 
 4485000   0.53218948   -3.6360569    2605.4719  0.048410849  0.047271195           31 
 4486000    0.5281327   -3.6377984    2608.1783  0.048450333  0.047260402           21 
 4487000   0.52490114   -3.6209316    2604.7389  0.048375657  0.047249558           15 
 4488000    0.5281068   -3.6143688    2608.9294  0.048442688  0.047238736           19 
 4489000   0.53213334   -3.6156843    2609.4467  0.048441499  0.047227971            8 
 4490000   0.52805129   -3.6260915    2610.6111  0.048452322  0.047217208           12 
 4491000   0.53204801   -3.6136703    2602.3031  0.048287373  0.047206497           12 
 4492000   0.53247371   -3.6168067    2606.7377  0.048358891  0.047195748            5 
 4493000   0.54606965   -3.6134525    2608.2497  0.048376173  0.047184987            8 
 4494000   0.54169766   -3.6142134    2608.7562    0.0483748  0.047174259           17 
 4495000   0.52908366    -3.600557    2609.6304  0.048380245    0.0471635            8 
 4496000   0.53648229    -3.624526    2610.1996  0.048380035  0.047152748           11 
 4497000    0.5343127   -3.6226661     2611.317  0.048389982  0.047142035           12 
 4498000   0.52643153   -3.6333316    2612.4929   0.04840101  0.047131335            9 
 4499000   0.53418494   -3.6333334     2604.387   0.04824011  0.047120608            7 
 4500000   0.53057216   -3.6247288    2614.8762  0.048423633  0.047109906           11 
 4501000   0.53612411   -3.6311285    2611.8374  0.048356614  0.047099211            8 
 4502000   0.52118527   -3.6206546    2609.2522  0.048298019  0.047088511           12 
 4503000   0.52945916   -3.6154707    2618.7482  0.048463029  0.047077809           15 
 4504000   0.53231714   -3.6320535      2613.21    0.0483498  0.047067148            8 
 4505000   0.52097682   -3.6018892    2615.6012    0.0483833  0.047056491            8 
 4506000    0.5362855   -3.6585354    2608.0736  0.048233348  0.047045797           14 
 4507000   0.52330825   -3.6217817    2613.1901  0.048317248  0.047035072            6 
 4508000   0.52791984   -3.6199893    2610.2424  0.048252041  0.047024375           14 
 4509000   0.51579916   -3.6385769    2611.7661    0.0482695  0.047013607           11 
 4510000   0.52573793   -3.6195735    2611.5031  0.048253937  0.047002934           12 
 4511000   0.53683878   -3.6393504     2615.319  0.048313733  0.046992277           11 
 4512000   0.53186101   -3.6245116    2604.5057  0.048103311  0.046981581            9 
 4513000   0.53725248   -3.6348383      2613.78  0.048263905  0.046970875            5 
 4514000   0.52872381   -3.6443183    2613.3335   0.04824497  0.046960159            8 
 4515000   0.52050919   -3.6355733    2613.6606  0.048240321  0.046949436            6 
 4516000   0.52945168   -3.6352947    2613.3788  0.048224439  0.046938753           11 
 4517000   0.52926572   -3.6306413     2605.592  0.048070105   0.04692811            6 
 4518000   0.52712894   -3.6423912    2612.2508  0.048182286  0.046917445           16 
 4519000   0.52677074   -3.6312367    2612.7141  0.048180168  0.046906815           10 
 4520000   0.52359426   -3.6332051    2612.6167  0.048167712  0.046896174            6 
 4521000    0.5418986   -3.6109709    2615.9579  0.048218644  0.046885523           18 
 4522000   0.52687044   -3.6264273    2608.1791   0.04806463  0.046874904            8 
 4523000   0.52121601   -3.6283856    2610.2325  0.048091836  0.046864241           17 
 4524000   0.53807101    -3.633268    2617.7679   0.04822001  0.046853609           10 
 4525000   0.53162146   -3.6368775    2613.3489  0.048127972   0.04684296           16 
 4526000   0.52330722   -3.6323573    2616.2965  0.048171611   0.04683231            9 
 4527000   0.52862474   -3.6398734    2606.1667  0.047974499  0.046821686           25 
 4528000   0.54456967     -3.61473    2614.3327  0.048114192  0.046811101            8 
 4529000   0.51704106   -3.6390647    2612.6266  0.048072176  0.046800452           14 
 4530000   0.52382549   -3.6390225    2621.7786  0.048229924  0.046789891           10 
 4531000   0.52817564   -3.6283059    2620.0042  0.048186643  0.046779315           15 
 4532000   0.52972381   -3.6275483     2613.466  0.048055788  0.046768697           10 
 4533000    0.5251985   -3.6359543    2612.9319  0.048035369  0.046758112            9 
 4534000   0.52469545   -3.6310737    2616.0753  0.048082548  0.046747495            9 
 4535000   0.54101405   -3.6191519    2620.4376  0.048152105  0.046736891           14 
 4536000   0.52607087   -3.6533105    2610.2196   0.04795377  0.046726282            9 
 4537000   0.53236433    -3.632806    2613.6779  0.048006722  0.046715657           25 
 4538000   0.52522576   -3.6271432    2616.4922  0.048047822  0.046705056            7 
 4539000   0.53020168   -3.6280222    2616.3375  0.048034396  0.046694507            4 
 4540000    0.5203673   -3.6400493    2622.4206  0.048135473  0.046683977           14 
 4541000   0.52834743   -3.6315694    2615.9096  0.048005389  0.046673493            7 
 4542000   0.51575993   -3.6403922    2614.2634  0.047964615  0.046662918           11 
 4543000   0.52662002   -3.6547978    2615.1284  0.047969925  0.046652324           15 
 4544000   0.52752484   -3.6420478      2615.77  0.047971134   0.04664175           17 
 4545000   0.52919689   -3.6345516    2606.2244   0.04778556  0.046631204            5 
 4546000   0.52288553   -3.6273188    2616.5267  0.047963901  0.046620649           22 
 4547000   0.52908318   -3.6525217    2611.5825   0.04786274  0.046610098           12 
 4548000   0.52551023   -3.6413697    2614.2496  0.047901085  0.046599534           10 
 4549000   0.52163412    -3.634783    2615.2215  0.047908359  0.046589009            7 
 4550000   0.52585662   -3.6433129     2616.715  0.047925182  0.046578493            9 
 4551000   0.53174717   -3.6263631    2618.8172  0.047953145  0.046567978            5 
 4552000   0.51592912   -3.6203097    2620.9963  0.047982504  0.046557468           13 
 4553000    0.5277915   -3.6447003    2615.6875  0.047874799  0.046547005           34 
 4554000   0.51745582   -3.6427337    2612.5011  0.047805979  0.046536481            7 
 4555000   0.52987011   -3.6380107    2613.0262  0.047805089   0.04652587            6 
 4556000   0.52381202    -3.619891    2616.0001  0.047848992  0.046515357            8 
 4557000   0.51299658   -3.6397591    2616.2146  0.047842415   0.04650483           15 
 4558000   0.53002938   -3.6486919    2621.4586  0.047927793  0.046494292           27 
 4559000   0.52773128   -3.6527962    2614.9103  0.047797586  0.046483788            9 
 4560000   0.53170439   -3.6526247    2615.7102  0.047801722  0.046473271           16 
 4561000   0.52124477   -3.6500658    2618.7452  0.047846693  0.046462754            8 
 4562000   0.52571926   -3.6351119    2615.4197  0.047775459  0.046452273            9 
 4563000   0.51921315   -3.6394771    2624.0196  0.047922047  0.046441779           14 
 4564000   0.51624822   -3.6468936    2619.9233  0.047836753   0.04643129           23 
 4565000   0.50204818   -3.6464803    2613.4348  0.047707828  0.046420719           10 
 4566000   0.51449874   -3.6254116    2622.3552  0.047860184  0.046410211           33 
 4567000   0.53204392   -3.6430798     2621.611  0.047836125  0.046399751           14 
 4568000   0.51475271   -3.6393905    2616.2376  0.047727626  0.046389329           13 
 4569000     0.516453   -3.6527113    2618.9082   0.04776589  0.046378836           12 
 4570000   0.52411413   -3.6619288    2611.3306  0.047617261  0.046368356           14 
 4571000   0.51989075   -3.6341634    2621.6488  0.047794954  0.046357867            9 
 4572000    0.5188193   -3.6310227    2625.6701  0.047857796  0.046347422            9 
 4573000   0.51554539   -3.6545582    2622.4058  0.047787846  0.046337018            6 
 4574000   0.52542553   -3.6539413     2621.285  0.047756978  0.046326566            7 
 4575000   0.51440905   -3.6474593    2621.0385   0.04774205  0.046316103            9 
 4576000   0.51308651   -3.6335473    2623.3767  0.047774197  0.046305655            7 
 4577000   0.51535764   -3.6441752    2617.2719   0.04765261  0.046295156           12 
 4578000    0.5174168   -3.6394957    2615.2376   0.04760517  0.046284711           13 
 4579000   0.52154735   -3.6468618    2612.7816  0.047550077  0.046274191           16 
 4580000   0.51541716   -3.6453414    2619.6488  0.047664643  0.046263693           30 
 4581000   0.51338565   -3.6319318    2620.6334  0.047672149  0.046253241           10 
 4582000   0.50328257   -3.6282626    2623.9516  0.047722094  0.046242795           11 
 4583000   0.51282713   -3.6538415    2623.8072  0.047709054  0.046232387           17 
 4584000   0.51996643    -3.648987    2617.1417  0.047577474  0.046221894           11 
 4585000     0.510181   -3.6565952    2615.1879  0.047531586  0.046211446           12 
 4586000   0.51792291   -3.6593896     2617.636  0.047565708  0.046200982            8 
 4587000   0.52255184   -3.6538418    2617.9277  0.047560637  0.046190524            7 
 4588000   0.51618477   -3.6364629    2614.6688  0.047491078  0.046180038           11 
 4589000   0.52898724   -3.6624939    2614.6706  0.047480762  0.046169525           13 
 4590000   0.51929134   -3.6322239    2620.7804  0.047581344  0.046159033           14 
 4591000   0.52447471    -3.634111    2620.0526  0.047557768  0.046148557           14 
 4592000   0.50944805   -3.6423375    2616.4257  0.047481592  0.046138064            7 
 4593000    0.5213833   -3.6478996       2615.9  0.047461718  0.046127559           25 
 4594000   0.51875758   -3.6477527    2617.5966  0.047482161  0.046117063           22 
 4595000      0.51858   -3.6514935    2613.7103  0.047401347  0.046106532           20 
 4596000   0.50771435   -3.6436299    2619.7487   0.04750052  0.046096007           11 
 4597000   0.51762934   -3.6446024    2619.6697  0.047488756  0.046085519           18 
 4598000   0.51361451   -3.6439472     2612.076    0.0473408  0.046074976           18 
 4599000   0.51875158   -3.6351055     2617.499  0.047428771  0.046064521            8 
 4600000   0.52289294   -3.6470489    2617.0978  0.047411191  0.046054054           28 
 4601000     0.516273   -3.6591909    2613.9888  0.047344577  0.046043565            9 
 4602000   0.51494244   -3.6408077    2618.0418  0.047407681  0.046033067           19 
 4603000   0.50940086   -3.6537797    2620.0406  0.047433568  0.046022592            8 
 4604000   0.51352935   -3.6626922    2617.4627  0.047376606  0.046012109           13 
 4605000    0.5197197   -3.6510119    2620.1426  0.047414814  0.046001619           27 
 4606000   0.51388271   -3.6549713      2621.79  0.047434324  0.045991169           15 
 4607000   0.51639072   -3.6439889    2626.4069  0.047507542  0.045980721           25 
 4608000   0.50838491   -3.6741349    2615.6673   0.04730301  0.045970237           13 
 4609000   0.51597592   -3.6256425    2622.5137  0.047416535   0.04595977            9 
 4610000   0.52068328   -3.6493434    2620.6087  0.047371814  0.045949341           10 
 4611000   0.52261899   -3.6439228    2622.2679  0.047391526  0.045938945           22 
 4612000   0.49727535   -3.6487024    2618.4023  0.047311404  0.045928514           28 
 4613000   0.51993928   -3.6414956    2621.2815   0.04735316  0.045918112           10 
 4614000   0.51130925    -3.649136    2629.0076  0.047482438  0.045907679           15 
 4615000   0.50814097   -3.6450199    2616.8297  0.047252251  0.045897225           12 
 4616000   0.50965123   -3.6406262    2624.0572  0.047372494  0.045886732            8 
 4617000   0.51025266   -3.6444897    2623.1258  0.047345423  0.045876213            5 
 4618000   0.51462798   -3.6605681    2616.0089  0.047206743  0.045865694           14 
 4619000   0.50925042   -3.6676952    2614.4477  0.047168356  0.045855167           14 
 4620000   0.50770765   -3.6736261     2618.482  0.047230916  0.045844638           27 
 4621000   0.50182713   -3.6463169    2612.5509  0.047113736  0.045834156           37 
 4622000   0.51348451   -3.6574908    2614.5383  0.047139375  0.045823681           10 
 4623000   0.51868025   -3.6685275    2610.9819  0.047065071  0.045813123           11 
 4624000   0.51231327   -3.6565413    2612.7324  0.047086441  0.045802583           19 
 4625000   0.51534141   -3.6462831    2618.5125  0.047180406  0.045792115           31 
 4626000   0.51733165   -3.6487654    2621.8757  0.047230792  0.045781648           12 
 4627000   0.51303059   -3.6628308    2620.7916  0.047201059  0.045771211           21 
 4628000   0.51463767   -3.6664195    2616.0619  0.047105696  0.045760726            9 
 4629000   0.52097995   -3.6603467    2617.9761   0.04712998  0.045750219            9 
 4630000   0.50335473   -3.6587701    2619.7577  0.047151866  0.045739729           14 
 4631000   0.51155498   -3.6643399    2613.9646   0.04703744  0.045729262            8 
 4632000   0.51756308   -3.6794787    2610.8566  0.046971369  0.045718747           11 
 4633000   0.51070076   -3.6538648    2619.4917   0.04711655  0.045708259            6 
 4634000   0.50578587   -3.6657803    2612.6224  0.046982851  0.045697701           15 
 4635000   0.50564396   -3.6608974    2616.7664  0.047047221  0.045687156           12 
 4636000   0.50611212   -3.6670364    2618.3022  0.047064679  0.045676668           13 
 4637000     0.513197    -3.677018    2620.2119  0.047088848  0.045666188           11 
 4638000   0.49840196   -3.6583153    2617.1702  0.047024044  0.045655698            8 
 4639000   0.49861208   -3.6730731    2612.4096   0.04692839  0.045645186           12 
 4640000    0.5045572   -3.6789744    2618.3546  0.047025046  0.045634702           18 
 4641000      0.49586    -3.649364    2621.3739  0.047069129  0.045624179           15 
 4642000    0.5039851   -3.6731322    2616.9498  0.046979567  0.045613691           21 
 4643000   0.51344046   -3.6566832    2615.2026   0.04693809   0.04560322           24 
 4644000   0.51377168   -3.6593865    2615.9017  0.046940527  0.045592755            9 
 4645000   0.50193432   -3.6509154    2617.0467  0.046950964  0.045582319           19 
 4646000   0.49317391   -3.6638278    2617.9154  0.046956438   0.04557189           23 
 4647000    0.5158287    -3.667692      2621.53  0.047011153  0.045561454            5 
 4648000   0.50065632   -3.6410904    2617.9711  0.046937233  0.045551006           12 
 4649000   0.51373504   -3.6764209     2617.963  0.046926991  0.045540582           29 
 4650000   0.51268705   -3.6660167    2614.3596  0.046852322  0.045530121           30 
 4651000   0.50275004   -3.6667199    2616.3018  0.046877047  0.045519662           22 
 4652000   0.50536241   -3.6892264    2614.1002  0.046827534  0.045509178           27 
 4653000   0.51402114   -3.6483737    2616.3011  0.046856886  0.045498652           14 
 4654000   0.50853426    -3.658381    2623.6829  0.046978995   0.04548819           16 
 4655000   0.50915422   -3.6570822    2622.4098  0.046946112  0.045477768           10 
 4656000    0.5064474   -3.6570584    2612.7041  0.046762316  0.045467282            8 
 4657000   0.51129558   -3.6400222     2620.339  0.046888895  0.045456853           16 
 4658000   0.52136902   -3.6749774    2614.3665  0.046771979  0.045446376            9 
 4659000   0.50950139    -3.677182    2615.2951  0.046778548  0.045435866           13 
 4660000   0.50140401   -3.6747865    2616.2636  0.046785829  0.045425409            8 
 4661000   0.50810182    -3.675848     2616.659  0.046782862  0.045414935            9 
 4662000   0.49590174   -3.6587543    2613.8179  0.046722042  0.045404444           18 
 4663000   0.50721781   -3.6714044    2611.0305  0.046662207  0.045393902           24 
 4664000   0.50761703   -3.6601702    2611.2277  0.046655726  0.045383371            9 
 4665000   0.50724134   -3.6633988    2614.7703  0.046709009  0.045372931           14 
 4666000   0.50867569   -3.6775392    2610.9273  0.046630362  0.045362458           27 
 4667000   0.50702842   -3.6614406    2623.9112  0.046852211  0.045352019           19 
 4668000   0.50058721   -3.6752335    2614.8565  0.046680529  0.045341588           24 
 4669000   0.51174299   -3.6623032    2608.0973  0.046549892  0.045331186           22 
 4670000   0.50337616   -3.6568074    2619.5817  0.046744856  0.045320769            9 
 4671000   0.50081383    -3.664315    2614.0134  0.046635506  0.045310361           18 
 4672000   0.51086593   -3.6744861    2617.3026  0.046684194  0.045299924           11 
 4673000   0.50665639   -3.6709218    2616.9788  0.046668429  0.045289457           14 
 4674000   0.51000083   -3.6648047     2617.388  0.046665739  0.045279021           21 
 4675000    0.5048117   -3.6795533    2618.3527  0.046672953  0.045268602           11 
 4676000   0.51050912   -3.6706168     2624.281  0.046768623  0.045258175           14 
 4677000   0.49952439    -3.686134    2619.1934  0.046667974  0.045247793           11 
 4678000   0.50307225   -3.6761291    2623.1054  0.046727686   0.04523738           15 
 4679000   0.49389288   -3.6748577    2618.0904  0.046628382  0.045226967           20 
 4680000   0.48495201   -3.6753911    2615.9703  0.046580667  0.045216574           14 
 4681000    0.5010216   -3.6615325    2627.3057  0.046772515  0.045206209           22 
 4682000   0.50267585   -3.6740685    2622.7337  0.046681149  0.045195835           11 
 4683000   0.50621056    -3.676691    2621.2877   0.04664545  0.045185466           10 
 4684000   0.49966237   -3.6794234    2621.9546  0.046647356  0.045175088           13 
 4685000   0.51282522   -3.7059281    2620.3963  0.046609682  0.045164714           12 
 4686000   0.49390741   -3.6894236    2618.5851  0.046567526  0.045154346           11 
 4687000   0.50482373   -3.6916221    2623.5877  0.046646534  0.045143953           14 
 4688000   0.49997814   -3.6825404    2616.7693  0.046515381  0.045133558           12 
 4689000   0.50538193    -3.676052    2620.3157  0.046568488   0.04512319           13 
 4690000   0.50220289   -3.6750826     2619.713   0.04654785  0.045112805           11 
 4691000   0.50238679   -3.6656024    2620.4606  0.046551208   0.04510248           14 
 4692000   0.50861919   -3.6889224    2616.4804  0.046470595  0.045092143           10 
 4693000   0.50271453   -3.6812064     2617.523  0.046479207  0.045081741           10 
 4694000   0.51171951   -3.6794644    2615.7232  0.046437353  0.045071358            7 
 4695000   0.49658329   -3.7114002    2615.6128  0.046425502  0.045060944           12 
 4696000   0.49668149   -3.6741526    2619.3715  0.046482316  0.045050555           13 
 4697000   0.50736777    -3.674006    2625.2561  0.046576825  0.045040177           21 
 4698000     0.500864   -3.6834857    2618.5703  0.046448317  0.045029833           15 
 4699000   0.50095913   -3.6673151    2618.7098  0.046440906  0.045019435           13 
 4700000   0.49488176     -3.66618    2616.2412  0.046387256  0.045009094           23 
 4701000    0.4936262   -3.6696405    2621.0529  0.046462683  0.044998763           20 
 4702000   0.50339146   -3.6684858    2619.8545  0.046431563  0.044988429           13 
 4703000   0.49146068   -3.6717433    2622.6806  0.046471766  0.044978138           17 
 4704000   0.50078429   -3.6909671    2622.7514  0.046463141  0.044967851           12 
 4705000    0.4951967   -3.6766848    2624.6285  0.046486513  0.044957521           13 
 4706000   0.48768572   -3.6943012    2619.7826  0.046390824  0.044947186           12 
 4707000   0.50723267   -3.6608349    2623.5139  0.046447027  0.044936884           13 
 4708000   0.49582597   -3.6573034    2622.9629  0.046427409  0.044926594            9 
 4709000   0.49352021    -3.678025    2624.6783  0.046447907  0.044916302           30 
 4710000   0.48823333   -3.6839217    2623.7739  0.046422043  0.044905981           24 
 4711000   0.49609711   -3.6902123    2623.0552  0.046399476  0.044895685           12 
 4712000    0.4952781   -3.6757345     2623.753   0.04640197  0.044885338           25 
 4713000    0.4917832   -3.6856403    2615.5215  0.046246579  0.044875014           16 
 4714000   0.50159592   -3.6768764    2621.3248  0.046339357  0.044864658           21 
 4715000   0.50678795   -3.6886477    2621.6339  0.046334993  0.044854331           17 
 4716000     0.489129    -3.699259    2620.7235  0.046309081  0.044844031           15 
 4717000   0.49025877   -3.6812153    2622.1195  0.046323925  0.044833683           23 
 4718000   0.49757226   -3.6900385    2618.0717  0.046242612  0.044823373           18 
 4719000   0.49639172   -3.6671791    2620.9713  0.046284017  0.044813021            6 
 4720000   0.49774069   -3.6835812    2630.3679  0.046440111  0.044802733           25 
 4721000    0.5076088   -3.6926151    2622.2159  0.046286378  0.044792402           29 
 4722000   0.49377226   -3.6851214    2616.9098  0.046182935  0.044782059           20 
 4723000   0.50033936   -3.6967808    2616.1172  0.046159172   0.04477173           51 
 4724000    0.4912398   -3.7044191    2625.4359  0.046313785  0.044761386           24 
 4725000   0.49664342   -3.6973403      2618.57  0.046182893  0.044751047           22 
 4726000   0.50531786   -3.6798893    2620.3688  0.046204839  0.044740723           17 
 4727000    0.4864983   -3.7048771    2620.5218  0.046197762  0.044730347            7 
 4728000   0.49386919   -3.6854643    2620.0852  0.046180294  0.044719998            6 
 4729000   0.49484417   -3.6898712    2611.7852  0.046024268  0.044709661           14 
 4730000   0.49692897   -3.6893557    2618.6982  0.046136332  0.044699317           20 
 4731000   0.48280601   -3.6924513    2615.7758  0.046075104  0.044688944            9 
 4732000   0.51020295   -3.7063038    2614.1153  0.046036125  0.044678567           10 
 4733000   0.50617881   -3.7054508    2618.9269  0.046111114  0.044668205           23 
 4734000   0.49657252   -3.6948852    2619.6212  0.046113596  0.044657872           12 
 4735000    0.4997911    -3.685212    2618.4172  0.046082668  0.044647557           21 
 4736000   0.48565064   -3.6987654    2617.5081  0.046056942  0.044637225           20 
 4737000   0.49300148   -3.6850838    2622.3171  0.046131818  0.044626891           13 
 4738000   0.48646757   -3.6951678    2620.2042  0.046084919  0.044616595           11 
 4739000   0.49170812   -3.7001485      2620.11  0.046073539  0.044606289            6 
 4740000   0.49099952   -3.6880026    2619.9169  0.046060424  0.044595948           29 
 4741000   0.48117778   -3.6922873    2615.3263  0.045970018  0.044585582           48 
 4742000    0.4905078   -3.6875346    2616.0278  0.045972653  0.044575216           11 
 4743000   0.48808213   -3.6908619    2614.4977  0.045936076   0.04456487           13 
 4744000   0.49056171   -3.7062832    2621.3923  0.046047503  0.044554512           35 
 4745000   0.49286765   -3.7060146    2622.3034    0.0460538  0.044544174            8 
 4746000   0.48699999   -3.6941696    2616.2254  0.045937375  0.044533799           19 
 4747000   0.48972402   -3.6950249     2620.026  0.045994417  0.044523427           13 
 4748000   0.48685459   -3.6890932    2618.8714  0.045964466  0.044513113           27 
 4749000   0.48363902   -3.7098576    2619.8968   0.04597278   0.04450277           26 
 4750000   0.48408671   -3.6963475    2620.8365  0.045979588  0.044492439           11 
 4751000   0.49014702   -3.7160577    2615.1347    0.0458699  0.044482124           37 
 4752000    0.4896676   -3.7054251    2626.8022  0.046064853  0.044471788           10 
 4753000   0.48584178   -3.7226626    2609.6651  0.045754701  0.044461389           12 
 4754000   0.48397914   -3.6984041    2617.7732  0.045887205  0.044451019           24 
 4755000   0.49255564   -3.7044965    2616.7764  0.045860084  0.044440689           11 
 4756000   0.49742379    -3.679959     2617.382  0.045861052  0.044430403           21 
 4757000   0.49761434   -3.6953845    2623.7163  0.045962377  0.044420118            8 
 4758000   0.49569161   -3.7021297    2617.9355   0.04585147   0.04440987           10 
 4759000   0.48827732   -3.7063741     2610.512  0.045711845  0.044399579           30 
 4760000   0.48706992   -3.7021213    2616.5961  0.045808756  0.044389261           71 
 4761000   0.48978498   -3.7090147    2623.8751   0.04592654  0.044378891           14 
 4762000   0.48156477   -3.6979546    2618.9087  0.045829986  0.044368551           10 
 4763000    0.4909434   -3.6869144    2618.6304  0.045815495   0.04435825           10 
 4764000   0.48995975   -3.6853714    2617.9101  0.045793277  0.044347959           12 
 4765000   0.48887963   -3.6895297    2616.6765  0.045762093  0.044337658           34 
 4766000   0.48770667   -3.7055123    2611.2729   0.04565801  0.044327329           33 
 4767000   0.49778446    -3.723877    2620.4016  0.045808013  0.044316962           18 
 4768000   0.48676503    -3.698728    2617.6981  0.045751156  0.044306628           12 
 4769000   0.49495111   -3.7077625    2615.1545  0.045697115  0.044296323           14 
 4770000   0.48301133   -3.6916924    2623.3399  0.045830537  0.044286026           11 
 4771000   0.48028366   -3.6999857    2620.9827  0.045779758  0.044275721           24 
 4772000   0.49836938    -3.714075    2612.8571  0.045628267  0.044265423           23 
 4773000   0.49181602   -3.7067328    2615.6123  0.045666811  0.044255103           26 
 4774000   0.49730294   -3.7050575     2621.101  0.045753055  0.044244751           16 
 4775000   0.49658234   -3.7060516    2616.9058  0.045670259  0.044234407           17 
 4776000   0.49242301   -3.7034633    2617.1918  0.045665687  0.044224074           11 
 4777000   0.48130521   -3.7000604    2613.7731  0.045596488  0.044213709           18 
 4778000   0.49185415   -3.7068844    2615.7464  0.045621362  0.044203377           26 
 4779000   0.49444797   -3.7004799    2616.4256   0.04562366  0.044193038           28 
 4780000   0.49204245   -3.7194044    2617.0233  0.045624534  0.044182705           16 
 4781000   0.47860176   -3.7031589     2618.518  0.045641044  0.044172402           15 
 4782000   0.49274161   -3.7160418    2616.5406  0.045597041  0.044162094           13 
 4783000   0.49070295   -3.6900792    2619.6931  0.045642433  0.044151791            8 
 4784000   0.48130383   -3.6986888    2617.8197   0.04560026  0.044141529           27 
 4785000   0.48887155   -3.7003456    2618.9849  0.045611022  0.044131292           20 
 4786000   0.49538003   -3.6803872    2620.9842  0.045636304  0.044121077           17 
 4787000   0.47765088   -3.7020254     2619.865  0.045607288  0.044110831           13 
 4788000   0.47754339   -3.6884178    2616.9121  0.045546368  0.044100608           16 
 4789000   0.49055536   -3.7240454    2618.1716  0.045558774  0.044090356           43 
 4790000   0.49432466   -3.7091811    2621.1009  0.045600224  0.044080057           15 
 4791000   0.48382116   -3.7160387     2618.143  0.045539258  0.044069784           31 
 4792000   0.49014753   -3.7065605    2615.9613  0.045491815  0.044059486           24 
 4793000   0.49577607   -3.7100607    2619.1655  0.045538034  0.044049182           16 
 4794000    0.4908467   -3.7204278    2620.3835  0.045549707  0.044038895           56 
 4795000   0.46736012   -3.7200666    2619.1515  0.045518795  0.044028572           10 
 4796000   0.48275131   -3.7251489    2615.0287  0.045437668  0.044018252           20 
 4797000   0.48010088   -3.7255598    2619.8304  0.045511611  0.044007937           17 
 4798000   0.48857498   -3.7115801    2613.6756  0.045395226  0.043997588           17 
 4799000   0.48770452    -3.706145    2616.0622  0.045427211  0.043987296           15 
 4800000   0.49642333   -3.6924149    2614.0321  0.045382501  0.043977024           18 
 4801000   0.48342086   -3.6982738    2619.3687  0.045465678  0.043966761           18 
 4802000   0.48307552   -3.6976055    2618.9883   0.04544961  0.043956508            7 
 4803000   0.48149959   -3.7117402    2618.2862  0.045427965  0.043946241           11 
 4804000   0.48957843   -3.7178141    2615.9089   0.04537727  0.043935956           22 
 4805000   0.49380482   -3.7263263    2620.4273  0.045446189  0.043925645           17 
 4806000   0.47396135    -3.702831    2626.4671   0.04554146  0.043915386           16 
 4807000   0.48047947   -3.7051264    2619.9756  0.045419451  0.043905131           16 
 4808000   0.49071345   -3.7239217    2621.7138   0.04544013  0.043894884           16 
 4809000    0.4798914   -3.6974783    2620.1101  0.045402892  0.043884615           31 
 4810000   0.48665356   -3.6983326    2620.9578  0.045408139  0.043874371           11 
 4811000   0.48113534   -3.7189913    2609.2574  0.045196033  0.043864089           29 
 4812000   0.48073585   -3.7124448    2617.1014  0.045322483  0.043853781           18 
 4813000   0.49090957   -3.7327634    2609.0832  0.045174237  0.043843477           20 
 4814000   0.48459848   -3.7266343    2615.4863  0.045275694  0.043833174           12 
 4815000   0.49202367     -3.72161    2618.7312  0.045322451  0.043822914           17 
 4816000     0.480245   -3.7172354    2617.8996   0.04529865  0.043812631            8 
 4817000   0.48415189   -3.7115157    2617.0543  0.045274622  0.043802357           12 
 4818000    0.4837011   -3.7233703    2619.8796  0.045314093  0.043792078           20 
 4819000   0.48878261   -3.7262381    2622.4835  0.045349719  0.043781791           17 
 4820000   0.47540582   -3.7109356    2616.2858  0.045233157  0.043771568           11 
 4821000   0.47562582   -3.7185487    2621.8795  0.045320464    0.0437613           33 
 4822000   0.48209837   -3.6958721    2617.9964  0.045243958  0.043751042           44 
 4823000   0.48129375   -3.7182603    2618.5255   0.04524372  0.043740768           27 
 4824000   0.47614785   -3.6963883    2612.4651  0.045129648  0.043730489           25 
 4825000   0.48825221   -3.7027679    2615.4397  0.045171671  0.043720203           13 
 4826000   0.48027761   -3.7124393     2619.342  0.045229693  0.043709938            9 
 4827000   0.46677229   -3.7209283     2614.737  0.045140822  0.043699663           11 
 4828000   0.47084145   -3.7236127    2605.8152  0.044977479  0.043689364           22 
 4829000   0.48564469   -3.7354548    2613.4052  0.045099145  0.043679044           16 
 4830000   0.47165589   -3.7149132    2612.2282  0.045069499  0.043668736            9 
 4831000   0.47434412   -3.7291116    2611.1297  0.045041221  0.043658449            5 
 4832000   0.47885873   -3.6986532    2617.3226  0.045138703  0.043648145           33 
 4833000   0.47859782     -3.71391    2618.3615  0.045147278   0.04363787           24 
 4834000   0.48409069   -3.7126684    2620.1127  0.045168127  0.043627591            7 
 4835000   0.46525835   -3.7433651    2613.4441  0.045043849  0.043617304           18 
 4836000    0.4815563     -3.73034    2612.6254  0.045020427  0.043606966           25 
 4837000   0.47913703   -3.7311738    2608.7377   0.04494414  0.043596624           22 
 4838000   0.47393967   -3.7272463    2617.6578  0.045088497  0.043586279           13 
 4839000   0.47030089   -3.7145413    2614.4604  0.045024116  0.043575916            7 
 4840000   0.47839548   -3.7449661    2608.6183  0.044914228  0.043565578           28 
 4841000   0.47720874    -3.734496    2617.1267  0.045051413  0.043555234           17 
 4842000   0.47164982   -3.7250248    2614.5526  0.044997807  0.043544933           17 
 4843000   0.47604691   -3.7219631    2614.2006  0.044982459  0.043534641           25 
 4844000   0.46575491   -3.7266332    2613.3177  0.044957984  0.043524336           35 
 4845000   0.47545009   -3.7211222    2619.0651  0.045047559  0.043513989           28 
 4846000   0.47865294   -3.7117612    2613.3126  0.044939342  0.043503688           14 
 4847000   0.47964667   -3.7292228    2614.5088  0.044950635  0.043493401           15 
 4848000   0.47089141   -3.7213626    2616.1289  0.044969213   0.04348309           21 
 4849000   0.46642766   -3.7204688    2613.5826  0.044916178  0.043472776           18 
 4850000   0.47603343   -3.7265845    2621.7524  0.045047292  0.043462488           10 
 4851000   0.47321234   -3.7273233     2610.441  0.044843693  0.043452196           31 
 4852000   0.48196752   -3.7190673    2605.6266  0.044751762  0.043441871           35 
 4853000   0.47732893   -3.7223887    2611.3463  0.044840756  0.043431585           14 
 4854000    0.4812372   -3.7056101    2615.1811  0.044897355   0.04342128           26 
 4855000   0.46891135   -3.7141014    2613.8384  0.044865061  0.043411008           21 
 4856000   0.47073164   -3.7371204    2610.1471  0.044792475  0.043400714           21 
 4857000    0.4744802   -3.7452314    2612.5735  0.044824884  0.043390412           25 
 4858000   0.46725805   -3.7168714    2607.8689  0.044734955  0.043380104           15 
 4859000   0.47176703   -3.7453125    2612.5202  0.044805519  0.043369804           15 
 4860000    0.4761483   -3.7356546    2616.7643  0.044869072  0.043359499           19 
 4861000   0.47346112   -3.7145751    2618.0907  0.044882581  0.043349247           10 
 4862000   0.47476408   -3.7290619    2612.2252  0.044772816  0.043339008           12 
 4863000   0.47620784   -3.7230024    2611.9016  0.044758065  0.043328705            7 
 4864000   0.46314401   -3.7210351    2614.6974  0.044796761  0.043318427           18 
 4865000   0.47384009   -3.7154353    2616.3898  0.044816544  0.043308177           22 
 4866000   0.47314137    -3.720889    2611.9296   0.04473095  0.043297946           21 
 4867000   0.48287112    -3.734745    2616.8223  0.044805531  0.043287688           17 
 4868000   0.47144738   -3.7362348    2611.8524  0.044711251  0.043277436           16 
 4869000   0.47914334   -3.7292989    2612.9864  0.044721476  0.043267164           22 
 4870000   0.47987426   -3.7327479    2618.1669  0.044800939  0.043256877           10 
 4871000   0.47131702   -3.7131825    2608.9775  0.044634529  0.043246643           27 
 4872000   0.47583669   -3.7329757    2609.2932  0.044630768  0.043236346           16 
 4873000   0.46460806   -3.7419253    2608.5916  0.044609611   0.04322607           48 
 4874000   0.49250506   -3.7388525     2616.115   0.04472909  0.043215774           33 
 4875000    0.4717842   -3.7264727    2611.1245  0.044634607  0.043205515           23 
 4876000   0.47092652   -3.7337446    2611.4267  0.044630617  0.043195277           17 
 4877000   0.47058735   -3.7290157    2615.6257  0.044693214  0.043185062           16 
 4878000   0.47273049   -3.7341619      2614.78  0.044669606  0.043174796           13 
 4879000   0.46797934   -3.7257365    2614.9169  0.044662789  0.043164511           18 
 4880000   0.47688383   -3.7319629    2618.2215  0.044710066  0.043154213           20 
 4881000   0.47196458   -3.7407018    2614.1743  0.044631809   0.04314395           25 
 4882000   0.47214125   -3.7534618    2614.0057  0.044619789   0.04313368           23 
 4883000   0.47970296   -3.7452888    2619.2623  0.044700361  0.043123444           22 
 4884000   0.46549488   -3.7385713    2611.8984  0.044565561  0.043113249           31 
 4885000   0.47884443   -3.7470727    2619.0689   0.04467876  0.043103034           12 
 4886000   0.46523494   -3.7470274    2614.3687  0.044589452  0.043092786           27 
 4887000   0.46595262    -3.742854    2615.0674  0.044592241  0.043082528           21 
 4888000   0.46349232   -3.7431858    2612.2369  0.044534862   0.04307233           13 
 4889000   0.46484161   -3.7406239    2614.9285  0.044571633  0.043062146           23 
 4890000    0.4855912   -3.7256737    2613.4725  0.044537705  0.043051951           15 
 4891000   0.47265583   -3.7345021    2613.1957  0.044523882  0.043041746           19 
 4892000   0.47154081   -3.7376316    2615.8715  0.044560362  0.043031539           18 
 4893000   0.46802031   -3.7421645    2613.7816  0.044515662  0.043021306           18 
 4894000   0.47648873   -3.7475642    2613.1512  0.044495832  0.043011065           15 
 4895000    0.4690454   -3.7265955    2605.6713  0.044359403  0.043000838           61 
 4896000   0.46292711   -3.7426143    2614.2598  0.044496525  0.042990602           18 
 4897000   0.46503015   -3.7458826    2612.5267  0.044457945  0.042980378           15 
 4898000   0.46484225   -3.7414221    2614.4993   0.04448243  0.042970179           24 
 4899000   0.45569585   -3.7398786    2617.0036  0.044515949  0.042960003           19 
 4900000   0.46495992   -3.7428582     2615.692  0.044484557  0.042949785           39 
 4901000   0.45567245   -3.7477685    2614.1309  0.044448938  0.042939559           32 
 4902000   0.46405611   -3.7594501    2612.1448  0.044406107  0.042929324           12 
 4903000   0.47252341   -3.7417042    2610.5876  0.044370583   0.04291911           14 
 4904000   0.47680396   -3.7454422    2613.7001  0.044414425  0.042908888           16 
 4905000   0.47163302   -3.7398561    2608.1193  0.044310555  0.042898675           21 
 4906000   0.46566234   -3.7341701    2613.7869  0.044397794  0.042888484           16 
 4907000   0.45325086    -3.738915    2610.6498   0.04433547   0.04287826           15 
 4908000   0.46462598   -3.7535588    2613.9571  0.044382591  0.042868044           17 
 4909000   0.47197105   -3.7340913      2617.51  0.044433862  0.042857851           28 
 4910000   0.46260815   -3.7487735    2613.7372  0.044360781   0.04284766           77 
 4911000   0.46283743   -3.7529869    2618.6235  0.044434662  0.042837479           48 
 4912000   0.47173688    -3.747699      2620.14  0.044451343   0.04282733           12 
 4913000   0.47796797   -3.7343174    2620.0596  0.044440931  0.042817184           24 
 4914000   0.46605364   -3.7345312     2615.764  0.044359042  0.042807015           27 
 4915000   0.47725111   -3.7362155    2615.8335  0.044351196  0.042796824           47 
 4916000   0.47294823   -3.7352169    2619.0772  0.044397159  0.042786686           21 
 4917000   0.45558061   -3.7327105    2608.9154  0.044215908  0.042776562           23 
 4918000   0.47312063   -3.7471771     2621.831  0.044425767   0.04276642           18 
 4919000   0.46264359   -3.7316676    2614.3137  0.044289383  0.042756268           15 
 4920000   0.46744072   -3.7501057    2610.2525  0.044211593  0.042746125           14 
 4921000   0.47626596   -3.7512577    2615.2639  0.044287475  0.042735975           26 
 4922000   0.46151552   -3.7419673    2615.2378  0.044278034  0.042725805           19 
 4923000   0.46414729   -3.7518746    2617.7763  0.044312009  0.042715621           14 
 4924000   0.46947517   -3.7498612    2617.3794  0.044296294  0.042705455           12 
 4925000   0.46612795   -3.7515129    2615.2897   0.04425194  0.042695317           20 
 4926000   0.46956777   -3.7503102    2620.5686  0.044332261  0.042685157           42 
 4927000   0.46086303   -3.7589543    2611.7548   0.04417419  0.042675025           19 
 4928000    0.4695757   -3.7506915    2608.6119  0.044112078  0.042664872           28 
 4929000    0.4646847   -3.7386023    2618.6723  0.044273219  0.042654736           69 
 4930000    0.4571392   -3.7373591    2610.8115  0.044131364  0.042644589           17 
 4931000   0.46347381    -3.731949    2609.3446  0.044097623  0.042634457           14 
 4932000   0.46713718   -3.7438318    2614.9918  0.044184101  0.042624346           22 
 4933000   0.45843345   -3.7369572    2608.9365  0.044072851  0.042614203           12 
 4934000   0.47011281   -3.7408498    2607.3453  0.044037043  0.042604049           46 
 4935000   0.47571311   -3.7518624    2609.5592  0.044065504  0.042593875           30 
 4936000    0.4673381   -3.7458445    2612.7479  0.044110411   0.04258372           39 
 4937000   0.46007324   -3.7473668    2614.9279  0.044138274  0.042573544           15 
 4938000   0.45837465   -3.7527978    2613.1553  0.044099421  0.042563372           72 
 4939000   0.46436007   -3.7510672    2615.3662  0.044127797  0.042553194           24 
 4940000   0.46306459   -3.7620829    2614.1649  0.044098598  0.042543029          100 
 4941000   0.45559171   -3.7437724    2610.2091  0.044022957  0.042532843           64 
 4942000   0.46265406   -3.7397064    2607.0575  0.043960905  0.042522638           34 
 4943000   0.45417823    -3.763869    2609.0165  0.043985038  0.042512445           22 
 4944000   0.45929047   -3.7441505    2615.3308  0.044082572  0.042502264           24 
 4945000   0.45410832   -3.7531568    2610.9006  0.043998999  0.042492125           14 
 4946000   0.46066361   -3.7611245    2606.9703  0.043923882  0.042481962           30 
 4947000   0.44740981   -3.7517975    2611.0105  0.043983062  0.042471776           15 
 4948000   0.45560474   -3.7609882     2611.435  0.043981323  0.042461595           35 
 4949000   0.45216052   -3.7579931    2613.6919  0.044010438  0.042451395           18 
 4950000   0.45734225   -3.7729467    2606.6499  0.043882995  0.042441204           17 
 4951000   0.45691047   -3.7539915    2610.7398  0.043942971  0.042431056           43 
 4952000   0.46391138   -3.7526752    2608.9739   0.04390438  0.042420898           60 
 4953000   0.44756069    -3.758376    2608.0542  0.043880043  0.042410738           18 
 4954000   0.45262691   -3.7596431    2620.0351   0.04407272  0.042400589           17 
 4955000   0.45987196   -3.7757036    2613.9126  0.043960857  0.042390408           43 
 4956000   0.45742148   -3.7645226    2613.8799  0.043951437  0.042380222           14 
 4957000   0.45436607   -3.7502133    2611.2181  0.043897823  0.042370045           10 
 4958000   0.44896851    -3.753624    2613.7506  0.043931535  0.042359879           10 
 4959000   0.44246578    -3.746814    2610.2276  0.043863473  0.042349719           30 
 4960000   0.46175276   -3.7672493    2610.6479  0.043861692  0.042339577           40 
 4961000   0.45181359   -3.7633536    2609.8092  0.043838763  0.042329412           34 
 4962000   0.46165608   -3.7625507    2605.6603   0.04376025  0.042319231           39 
 4963000   0.46080275    -3.767082    2611.0767  0.043842379  0.042309038           24 
 4964000   0.45671507   -3.7712631    2612.0132  0.043849268  0.042298842           31 
 4965000   0.46127576   -3.7762217    2607.5816  0.043766055  0.042288702           16 
 4966000   0.46416651   -3.7410418    2605.3455  0.043719718  0.042278568           17 
 4967000   0.46171812   -3.7577381    2614.2021  0.043859507  0.042268432           15 
 4968000   0.45646244   -3.7541383    2605.4518  0.043703901  0.042258286           22 
 4969000   0.44442053   -3.7544027     2611.706  0.043799994  0.042248151           44 
 4970000   0.46700811   -3.7650663    2609.3911  0.043752365  0.042238011           45 
 4971000   0.45465134    -3.760178    2610.9346  0.043769439   0.04222784            9 
 4972000    0.4636764   -3.7671141     2607.804  0.043708165  0.042217692           27 
 4973000   0.45866624    -3.760329    2610.7487  0.043748722  0.042207505           19 
 4974000   0.46542163   -3.7468602    2610.1391  0.043729713  0.042197341           18 
 4975000   0.46254333    -3.754252     2610.091  0.043720116  0.042187174           33 
 4976000   0.45695593   -3.7641133    2610.5619  0.043719218  0.042177006           33 
 4977000   0.45786569   -3.7729924    2606.3584  0.043640051   0.04216681           98 
 4978000   0.46055556   -3.7772326    2610.2308  0.043696109  0.042156612           58 
 4979000   0.45266727   -3.7598451    2602.5422   0.04355865  0.042146403           37 
 4980000   0.44575145   -3.7610582    2608.4107  0.043648105  0.042136201           26 
 4981000   0.45124677   -3.7508143    2603.5816   0.04355855  0.042126059           38 
 4982000   0.46083311   -3.7668575    2610.5542  0.043666436  0.042115904           54 
 4983000   0.46018276   -3.7686835     2614.361  0.043721337  0.042105745           28 
 4984000   0.44689705    -3.768997    2609.4784  0.043630925  0.042095579           29 
 4985000   0.46183543   -3.7773952    2604.0448   0.04353134  0.042085402           53 
 4986000   0.45157125   -3.7767688    2606.2637  0.043559695  0.042075213           37 
 4987000   0.45308779   -3.7720488    2609.6973  0.043608336  0.042065053           21 
 4988000   0.45555109   -3.7727306    2609.5561  0.043597235  0.042054915           22 
 4989000   0.46099918   -3.7740147    2607.4055  0.043552573  0.042044778           19 
 4990000   0.45471247   -3.7694677    2610.8751  0.043601789  0.042034652           15 
 4991000   0.45988326    -3.769585    2611.0647  0.043596218  0.042024537           33 
 4992000   0.44533315   -3.7691634    2601.8798  0.043434159   0.04201442           18 
 4993000    0.4571645   -3.7703943    2609.8732   0.04355887  0.042004317           17 
 4994000   0.45104599   -3.7680958    2603.7689  0.043448286   0.04199418            8 
 4995000   0.45076611    -3.775077    2615.8291  0.043640793  0.041984054           68 
 4996000   0.44862796   -3.7601856    2607.5226  0.043493505  0.041973949           19 
 4997000   0.45533444   -3.7538684     2609.302  0.043514475  0.041963832           20 
 4998000   0.45938874    -3.767995    2610.6544  0.043528318  0.041953748           18 
 4999000   0.45276407   -3.7697133     2605.064  0.043426419  0.041943655           37 
 5000000   0.45663848   -3.7571787    2607.3512  0.043455854  0.041933548           13 
 5001000   0.45355987   -3.7641853    2603.6051  0.043384741  0.041923425           27 
 5002000   0.44957147   -3.7536095     2609.262  0.043470312  0.041913298           24 
 5003000   0.45411074   -3.7741875    2606.8976   0.04342224  0.041903175           40 
 5004000   0.44972545   -3.7662083    2608.2472  0.043436038  0.041893028           77 
 5005000   0.44561159   -3.7698564    2610.2352  0.043460459  0.041882882           72 
 5006000   0.45598242   -3.7725979    2609.7227  0.043443246  0.041872741           91 
 5007000   0.45244097    -3.769157    2604.2047  0.043342732  0.041862626           79 
 5008000   0.45062587   -3.7712741    2606.7404  0.043376272  0.041852497           57 
 5009000   0.45584128   -3.7848611     2609.584   0.04341492  0.041842353           42 
 5010000   0.44836587    -3.780413    2609.2277  0.043400327  0.041832243           22 
 5011000   0.45066079   -3.7762233     2613.176  0.043457327  0.041822144           32 
 5012000   0.45848102   -3.7771181    2613.2214  0.043449411  0.041812067           36 
Loop time of 12372.2 on 48 procs for 5000000 steps with 4000 atoms

Performance: 69833.860 tau/day, 404.131 timesteps/s
99.4% CPU use with 48 MPI tasks x no OpenMP threads

MPI task timing breakdown:
Section |  min time  |  avg time  |  max time  |%varavg| %total
---------------------------------------------------------------
Pair    | 809.3      | 862.51     | 939.29     | 110.6 |  6.97
Neigh   | 81.641     | 85.219     | 89.122     |  23.5 |  0.69
Comm    | 750.93     | 836.29     | 890.58     | 118.5 |  6.76
Output  | 14.437     | 14.443     | 14.532     |   0.4 |  0.12
Modify  | 10439      | 10463      | 10488      |   9.4 | 84.57
Other   |            | 110.6      |            |       |  0.89

Nlocal:        83.3333 ave          91 max          77 min
Histogram: 4 2 9 7 3 11 3 5 2 2
Nghost:        2192.10 ave        2216 max        2167 min
Histogram: 2 2 2 7 11 8 8 3 4 1
Neighs:        14518.7 ave       16378 max       12830 min
Histogram: 2 1 6 10 8 8 6 2 2 3
FullNghs:      29037.9 ave       32063 max       26810 min
Histogram: 5 5 5 8 6 7 5 3 3 1

Total # of neighbors = 1393820
Ave neighs/atom = 348.45500
Neighbor list builds = 271221
Dangerous builds = 0

#clear
#
#next RN
#
#jump SELF
Total wall time: 3:26:15
