
units lj                  # Use reduced LJ style units
atom_style atomic         # Uncharged point particles
atom_modify map hash      # Needed for indexing of clusters etc
                          # Used to be able to find where atoms are in relation to each other.

lattice fcc 1.0 spacing 1 1 1
Lattice spacing in x,y,z = 1.5874011 1.5874011 1.5874011
region box block 0 10 0 10 0 10 units lattice
create_box 2 box
Created orthogonal box = (0.0000000 0.0000000 0.0000000) to (15.874011 15.874011 15.874011)
  3 by 4 by 4 MPI processor grid
create_atoms 1 box
Created 4000 atoms
  using lattice units in orthogonal box = (0.0000000 0.0000000 0.0000000) to (15.874011 15.874011 15.874011)
  create_atoms CPU = 0.002 seconds
set type 1 type/fraction 2 0.93 78393
Setting atom values ...
  3709 settings made for type/fraction
mass 1 1.0
mass 2 1.0
pair_style lj/cut  3.5
pair_modify tail  yes
pair_coeff 1  1  1.0  1.0   # Intearaction between 1 and 1 set with epsilon = 1 and sigma = 1
pair_coeff 1  2  1.5  0.8
pair_coeff 2  2  0.5  0.88

write_data data.0
System init for write_data ...
Neighbor list info ...
  update every 1 steps, delay 10 steps, check yes
  max neighbors/atom: 2000, page size: 100000
  master list distance cutoff = 3.8
  ghost atom cutoff = 3.8
  binsize = 1.9, bins = 9 9 9
  1 neighbor lists, perpetual/occasional/extra = 1 0 0
  (1) pair lj/cut, perpetual
      attributes: half, newton on
      pair build: half/bin/atomonly/newton
      stencil: half/bin/3d
      bin: standard
WARNING: Not all mixed pair coeffs generated from mixing. Use write_data with 'pair ij' option to store all pair coeffs. (../write_data.cpp:312)


#############################
#   M E L T   S Y S T E M   #
#############################

velocity all create 2.4 5833274 mom yes dist gaussian # Assign velocities
                                                    # Temperature 2.4, random number seed, zero linear momentum
                                                                                # Gaussian distribution

timestep 0.002   # simulation timestep
thermo 1000       # output thermodynamic data every 1000 steps bf 100

# Define a fix  in this case with index 1 applied to all
# particles in the simulation. This fix is for simulations
# in the anisotropic NPT ensemble. Note that we use the MTK
# correction.
fix 1 all npt temp 2.4 2.4 0.1 iso 5.68 5.68 0.5 mtk yes tchain 5 pchain 5 # Use NPT ensemble
                                                                         # Set temperature and pressure and damping
                                                                         # Numbers of thermostats in chain and in barostat
run 10000          # run for 10000 steps
Per MPI rank memory allocation (min/avg/max) = 3.642 | 3.644 | 3.648 Mbytes
Step Temp E_pair E_mol TotEng Press Volume 
       0          2.4   -3.0493222            0   0.54977785   -2.3496824         4000 
    1000    2.4094247   -1.9849083            0    1.6283252    5.7508208    4072.1927 
    2000    2.4285001   -2.0178235            0    1.6240159    5.6960184    4064.6536 
    3000    2.3709749   -1.9822299            0    1.5733433    5.5892816    4097.0677 
    4000    2.4030954   -2.0145399            0    1.5892021    5.6396935    4068.9866 
    5000    2.3718619   -1.9789369            0    1.5779665     5.840779    4063.2309 
    6000    2.3739212   -1.9894987            0    1.5704929    5.4992739    4117.7424 
    7000    2.4107094   -2.0153436            0    1.5998165    5.6528743    4079.3619 
    8000    2.4146417   -1.9825682            0    1.6384888    5.9143019    4057.3631 
    9000    2.3004276   -1.9565066            0    1.4932722    5.9174526    4055.1232 
   10000     2.398207   -1.9983562            0    1.5980549     5.548865    4102.1176 
Loop time of 2.44784 on 48 procs for 10000 steps with 4000 atoms

Performance: 705928.551 tau/day, 4085.235 timesteps/s
99.6% CPU use with 48 MPI tasks x no OpenMP threads

MPI task timing breakdown:
Section |  min time  |  avg time  |  max time  |%varavg| %total
---------------------------------------------------------------
Pair    | 1.0656     | 1.1334     | 1.2143     |   2.7 | 46.30
Neigh   | 0.20732    | 0.21356    | 0.23112    |   0.8 |  8.72
Comm    | 0.77047    | 0.84203    | 0.93338    |   3.8 | 34.40
Output  | 0.00024597 | 0.00025027 | 0.00031767 |   0.0 |  0.01
Modify  | 0.21142    | 0.24331    | 0.27957    |   3.9 |  9.94
Other   |            | 0.01528    |            |       |  0.62

Nlocal:        83.3333 ave          94 max          74 min
Histogram: 3 2 6 8 5 8 6 3 4 3
Nghost:        1618.67 ave        1655 max        1591 min
Histogram: 4 4 6 7 6 8 9 2 1 1
Neighs:        9304.31 ave       11118 max        7970 min
Histogram: 3 5 8 6 7 9 7 1 1 1

Total # of neighbors = 446607
Ave neighs/atom = 111.65175
Neighbor list builds = 905
Dangerous builds = 205

# Equilibrate just above the melting temperature to avoid step fn in T

fix 1 all npt temp 1.25 1.25 0.1 iso 5.68 5.68 0.5 mtk yes tchain 5 pchain 5
run 2000
Per MPI rank memory allocation (min/avg/max) = 3.643 | 3.645 | 3.649 Mbytes
Step Temp E_pair E_mol TotEng Press Volume 
   10000     2.398207   -1.9983562            0    1.5980549     5.548865    4102.1176 
   11000    1.2608252   -3.0134806            0   -1.1227155    5.4907547    3182.5003 
   12000    1.2418125   -2.9930776            0   -1.1308245    5.7536952    3166.3309 
Loop time of 0.605876 on 48 procs for 2000 steps with 4000 atoms

Performance: 570413.965 tau/day, 3301.007 timesteps/s
99.6% CPU use with 48 MPI tasks x no OpenMP threads

MPI task timing breakdown:
Section |  min time  |  avg time  |  max time  |%varavg| %total
---------------------------------------------------------------
Pair    | 0.26673    | 0.2888     | 0.33849    |   2.2 | 47.67
Neigh   | 0.040168   | 0.041743   | 0.049093   |   0.7 |  6.89
Comm    | 0.17323    | 0.2254     | 0.25237    |   2.9 | 37.20
Output  | 6.2421e-05 | 6.4086e-05 | 7.9214e-05 |   0.0 |  0.01
Modify  | 0.040281   | 0.045141   | 0.048588   |   1.1 |  7.45
Other   |            | 0.004733   |            |       |  0.78

Nlocal:        83.3333 ave          91 max          77 min
Histogram: 3 6 6 6 4 9 6 4 1 3
Nghost:        1918.65 ave        1946 max        1882 min
Histogram: 1 1 3 3 11 8 7 5 6 3
Neighs:        12077.2 ave       13348 max       10878 min
Histogram: 5 1 3 9 9 7 3 5 2 4

Total # of neighbors = 579707
Ave neighs/atom = 144.92675
Neighbor list builds = 144
Dangerous builds = 11

#############################
# L I N E A R  Q U E N C H  #
#############################

# Define solid atoms. This closely follows ten Wolde  Ruiz-Montero and Frenkel  Faraday Discuss  1996  104  93-110
# Compute components of the per-atom q6 vector
compute q6 all orientorder/atom degrees 1 6 components 6 nnn NULL cutoff 1.3 # compute the Q6 parameter.
                                                                             # Use all neighbours within 1.3 unit cell.

# get number of connections
compute coord_number all coord/atom orientorder q6 0.5

# An atom is solid if it has 8 or more connections (of a possible 14)
variable is_solid atom c_coord_number>=8
group solid dynamic all var is_solid    # Must be dynamic to update
dynamic group solid defined

# do clustering
compute cluster solid cluster/atom 1.3 # Create a cluster where all atoms within are solid and max 1.3 units from another member

# define chunks one chunk per cluster
compute clus_chunks solid chunk/atom c_cluster nchunk every compress yes  # Says which atoms are in which chunk

# count the size of each chunk
compute size_chunks solid property/chunk clus_chunks count


# Find the maximum entry in the vector of chunk sizes
variable max_n equal max(c_size_chunks)


# Thermo style which includes this variable
# thermo_style custom step temp pe vol v_max_n

thermo ${N}  # Print the thermo information every 100 steps
thermo 1000  

# Reset the npt fix at a lower temperature (below freezing)
fix 1  all npt temp  ${temp} ${temp}  0.1  iso  5.68  5.68  0.5  mtk yes tchain  5  pchain  5
fix 1  all npt temp  0.45 ${temp}  0.1  iso  5.68  5.68  0.5  mtk yes tchain  5  pchain  5
fix 1  all npt temp  0.45 0.45  0.1  iso  5.68  5.68  0.5  mtk yes tchain  5  pchain  5

dump dmp2 all dcd ${N} traj.dcd
dump dmp2 all dcd 1000 traj.dcd


compute msd all msd com yes
variable twopoint equal c_msd[4]/6/(step*dt+1.0e-6)
fix 9 all vector 10 c_msd[4]
variable fit equal slope(f_9)/6/(10*dt)
thermo_style custom step temp pe c_msd[4] v_twopoint v_fit v_max_n

fix 1 all npt temp 1.25 ${temp} 0.1 iso 5.68 5.68 0.5 mtk yes tchain 5 pchain 5
fix 1 all npt temp 1.25 0.45 0.1 iso 5.68 5.68 0.5 mtk yes tchain 5 pchain 5
run 5000000 # 5000000  # Run for this many steps
Neighbor list info ...
  update every 1 steps, delay 10 steps, check yes
  max neighbors/atom: 2000, page size: 100000
  master list distance cutoff = 3.8
  ghost atom cutoff = 3.8
  binsize = 1.9, bins = 8 8 8
  4 neighbor lists, perpetual/occasional/extra = 1 3 0
  (1) pair lj/cut, perpetual
      attributes: half, newton on
      pair build: half/bin/atomonly/newton
      stencil: half/bin/3d
      bin: standard
  (2) compute orientorder/atom, occasional
      attributes: full, newton on
      pair build: full/bin/atomonly
      stencil: full/bin/3d
      bin: standard
  (3) compute coord/atom, occasional
      attributes: full, newton on
      pair build: full/bin/atomonly
      stencil: full/bin/3d
      bin: standard
  (4) compute cluster/atom, occasional
      attributes: full, newton on
      pair build: full/bin/atomonly
      stencil: full/bin/3d
      bin: standard
Per MPI rank memory allocation (min/avg/max) = 9.814 | 9.825 | 9.831 Mbytes
Step Temp PotEng c_msd[4] v_twopoint v_fit v_max_n 
   12000    1.2418125   -2.9930776 1.0481989e-30 7.2791589e-33 8.3333333e+20            2 
   13000    1.2287315    -2.987451    1.0212407 0.0065464145  0.087435203            1 
   14000    1.2582422   -2.9832914    2.1880557  0.013024141  0.091553665            1 
   15000    1.2401393   -3.0060016    3.3263375  0.018479652  0.093728725            5 
   16000    1.2466544   -3.0073239    4.5340856  0.023615028  0.095626844            1 
   17000    1.2548968   -2.9894193     5.691446  0.027899244  0.096350898            1 
   18000    1.2388619   -3.0256444    6.9368715  0.032115145  0.096733431            1 
   19000    1.2397682   -3.0259193    8.1383854  0.035694672  0.097771907            4 
   20000    1.2512971   -3.0212482    9.1756767  0.038231985  0.097836962            2 
   21000    1.2540211    -2.999661    10.231198   0.04059999  0.097035398            2 
   22000    1.2541394   -2.9831496    11.416062   0.04324266  0.096576002            1 
   23000    1.2347541   -2.9863756    12.581714  0.045585921  0.096263894            1 
   24000    1.2451895   -3.0131686    13.744643  0.047724452  0.096319651            2 
   25000    1.2441724   -3.0098592    14.997875  0.049992914  0.096500918            2 
   26000    1.2307339   -2.9892504    16.117789  0.051659578  0.096573939            2 
   27000    1.2458796   -3.0316027    17.177367  0.053016565  0.096379735            1 
   28000    1.2431795   -2.9860257    18.363449  0.054653122  0.096296426            2 
   29000    1.2376972   -3.0202273    19.561259  0.056210514  0.096315902            2 
   30000    1.2416457   -3.0154794    20.563583  0.057121063  0.096286265            2 
   31000     1.256021   -3.0071787    21.853479   0.05874591  0.096280301            2 
   32000    1.2578527   -3.0159143    23.124529  0.060220126  0.096375544            1 
   33000    1.2242651   -3.0132268    24.185057  0.061073374  0.096442786            2 
   34000    1.2180909    -2.996485    25.244555  0.061873908  0.096409072            2 
   35000    1.2271766   -3.0163074    26.352456  0.062743941  0.096311095            2 
   36000    1.2399622   -3.0278782    27.650557  0.064005919  0.096293791            2 
   37000    1.2538377   -3.0307618    28.756976  0.064767962    0.0963669            1 
   38000    1.2588429   -3.0058841    30.112935  0.066037136  0.096379941            2 
   39000     1.259248   -3.0401852     31.22385  0.066717626  0.096479769            2 
   40000    1.2413607   -3.0077839    32.357471  0.067411397  0.096517755            2 
   41000      1.27148   -3.0398885    33.421837  0.067930563  0.096509711            1 
   42000    1.2284631   -3.0229873    34.719342  0.068887583  0.096532793            1 
   43000    1.2475514   -3.0279056    35.682381    0.0691519  0.096490908            2 
   44000     1.224024   -2.9999614    37.049454  0.070169419  0.096483498            4 
   45000    1.2532321   -2.9878025    38.209559  0.070758442  0.096505649            1 
   46000    1.2452749   -3.0008369    39.070924  0.070780659  0.096473834            1 
   47000    1.2263619   -3.0105233    40.135491  0.071162217  0.096385672            2 
   48000    1.2327354   -3.0232323    41.048624  0.071264971  0.096235704            1 
   49000    1.2183886   -3.0504153    42.137613  0.071662606  0.096060257            2 
   50000    1.2410195   -2.9960536    43.031888  0.071719812   0.09584131            1 
   51000    1.2280222   -2.9852682    44.061252  0.071995509   0.09562966            1 
   52000    1.2467223   -3.0090211    45.185313  0.072412361  0.095426657            2 
   53000    1.2509637   -3.0357884      46.0576  0.072417609  0.095156716            2 
   54000    1.2377142   -3.0058991    47.233786  0.072891644  0.094918337            3 
   55000    1.1910456   -3.0007817    48.457339  0.073420209  0.094724523            2 
   56000    1.2289783   -2.9941502    49.275657   0.07332687  0.094509509            2 
   57000    1.2239407   -3.0148655    50.567299  0.073928798  0.094328058            1 
   58000    1.2634199   -2.9982379     51.81434   0.07444589  0.094237646            1 
   59000    1.2214909   -3.0062467    52.967134  0.074812336  0.094169271            2 
   60000    1.2342993   -3.0064818    54.284175  0.075394687  0.094086832            2 
   61000    1.2732535   -3.0109956    55.285877  0.075527154  0.094040085            3 
   62000    1.2857809   -3.0388212    56.482626  0.075917507   0.09401615            2 
   63000     1.236185   -3.0333278    57.983867  0.076698237  0.094016978            3 
   64000    1.2352223   -3.0273535    59.149715  0.077017857   0.09404708            2 
   65000    1.2393298   -2.9989777    60.541623  0.077617464  0.094111144            1 
   66000    1.2347701   -3.0354267    61.496909  0.077647611  0.094192521            3 
   67000    1.2400585   -3.0361027    62.778414  0.078082604  0.094264191            1 
   68000    1.2415938   -3.0271174    64.300654  0.078799821  0.094372519       -1e+20 
   69000    1.2370716   -3.0282813    65.349207  0.078924162  0.094470562            1 
   70000    1.2260546   -3.0169837    66.289387  0.078915936  0.094549004            2 
   71000    1.2628786   -3.0410852    67.924606  0.079723715  0.094627586            2 
   72000    1.2637216   -3.0285852    68.854199  0.079692359  0.094720245            1 
   73000    1.2600078    -3.019806     69.62782  0.079483813  0.094742611            1 
   74000    1.2705408   -3.0225963    70.910302  0.079853944    0.0947555            1 
   75000    1.2465527   -2.9936065    72.296578  0.080329531  0.094779371            5 
   76000    1.2137352   -3.0179958    73.378984  0.080459412  0.094801905            4 
   77000     1.222126   -3.0362807    74.077223  0.080170154  0.094799004            2 
   78000    1.2436427   -3.0363057    75.253039  0.080398545  0.094792482            1 
   79000    1.2545455   -3.0435548    75.843423  0.080003611  0.094791612            1 
   80000    1.2346503   -3.0285688    77.630392  0.080864991  0.094770084            1 
   81000    1.2463456    -2.993179    78.180285  0.080432392  0.094747953            2 
   82000    1.2497742   -3.0344333    79.322668  0.080612467  0.094710286            1 
   83000    1.2235668   -3.0165609    80.920265  0.081245246  0.094684768            2 
   84000    1.2351053   -3.0421819    81.474972  0.080828345  0.094666167            2 
   85000     1.240498   -3.0121611    82.833946  0.081209751  0.094635394            2 
   86000    1.2239281   -3.0191513    84.655224  0.082030256  0.094645577            1 
   87000    1.2516814   -2.9989056    85.400145  0.081800904  0.094665363            3 
   88000    1.2540989    -3.005231    87.413663  0.082778089  0.094682286            1 
   89000      1.23069   -3.0076626    87.881304  0.082285864  0.094696735            1 
   90000    1.2223379   -3.0295453    88.963883  0.082373965  0.094730185            3 
   91000    1.2386143    -3.037315    90.688618  0.083048185  0.094753242            1 
   92000    1.2435775   -3.0339393    91.995664  0.083329406  0.094802812            3 
   93000    1.2256068   -3.0366873    93.235031  0.083543934  0.094852435            1 
   94000    1.2628291   -3.0583974     94.47938  0.083758315  0.094911269            1 
   95000    1.2639228   -3.0258467    96.047943  0.084252581  0.094996141            2 
   96000    1.2557779   -3.0221631    96.864952  0.084084159   0.09508637            1 
   97000    1.2121198   -2.9816955    98.115808  0.084291931  0.095158783            4 
   98000    1.2051807   -3.0705979    99.353135  0.084483958  0.095234316            2 
   99000    1.2456548    -3.028834    100.53484  0.084625283  0.095310572            2 
  100000    1.2082799   -3.0423271    101.37128  0.084476062  0.095360836            2 
  101000    1.2636948   -3.0221009    102.68214  0.084721235  0.095417529            3 
  102000    1.2225596   -3.0582176     103.7907  0.084796323  0.095474936            2 
  103000    1.2355192    -3.064072     105.3267  0.085215775  0.095550763            2 
  104000    1.2300677   -3.0697797    105.98153  0.084921095  0.095623491            2 
  105000    1.2028092   -3.0089465    107.15835  0.085046305  0.095680219            1 
  106000    1.2207218   -3.0167077    108.37725  0.085202244  0.095707154            2 
  107000    1.2588253   -3.0277175    109.81431  0.085525162   0.09574043            2 
  108000    1.2190228   -3.0105153    110.12412  0.084972313  0.095762581            2 
  109000     1.251398   -3.0196852    110.55954  0.084525644  0.095766003            2 
  110000    1.2236313   -3.0423375    112.47208   0.08520612  0.095755981            1 
  111000    1.2345417   -3.0034808    113.27353  0.085040185   0.09574578            1 
  112000    1.2354904   -2.9943189    113.79594    0.0846696  0.095722388            1 
  113000    1.2062586   -3.0169927     115.5621  0.085222784  0.095687646            2 
  114000    1.2546645   -3.0110207    116.15899  0.084911542  0.095658207            3 
  115000     1.246654    -3.012318    116.79646  0.084635113  0.095626371            1 
  116000    1.2222303   -3.0362724    118.42437  0.085074979  0.095581744            2 
  117000    1.2428969   -3.0299444    119.76683  0.085304007  0.095553796            1 
  118000    1.2547581   -3.0322645    120.80964  0.085317543   0.09551293            3 
  119000    1.2432194   -2.9959629    121.92501  0.085381659  0.095482193            2 
  120000    1.2205822   -3.0581703    122.37521  0.084982782  0.095450202            2 
  121000    1.2605206   -2.9986119    124.17604  0.085520687  0.095410401            3 
  122000    1.2491026   -3.0457988    125.00967  0.085389122  0.095374555            1 
  123000    1.2391471   -3.0359937     125.3676  0.084937397   0.09531875            2 
  124000    1.2135952   -3.0046686    126.70888  0.085153819  0.095254135            2 
  125000    1.2255709   -3.0336764    128.24379  0.085495858  0.095199874            1 
  126000    1.2586451   -3.0017909    128.89611  0.085248749  0.095146001            1 
  127000    1.2254882   -3.0184764    129.67101  0.085085965   0.09509066            1 
  128000    1.2298882   -3.0280354    130.82871   0.08517494  0.095031561            2 
  129000    1.2344735   -2.9969815     132.2454  0.085429845  0.094973709            1 
  130000    1.2008796   -3.0541115    133.03108  0.085276336   0.09492121            2 
  131000    1.2357543   -3.0338025    134.01711  0.085252613  0.094864361            5 
  132000    1.2300198   -3.0334212    135.37597  0.085464624  0.094820528            2 
  133000    1.2279568   -3.0366119    136.10146  0.085276606   0.09476909            2 
  134000    1.2162463   -3.0551448    138.12754  0.085900209  0.094731228            3 
  135000    1.2137653   -3.0390519    138.79099  0.085673449  0.094700401            2 
  136000    1.1982126   -3.0519779    140.59609  0.086149567  0.094666829            1 
  137000    1.2036154   -3.0166521    141.31413  0.085957501  0.094633428            1 
  138000    1.2243545   -3.0085448     142.3671  0.085970472  0.094595026            1 
  139000    1.2123816   -3.0508926    143.17569  0.085836742  0.094551922            2 
  140000    1.2668463   -3.0437176    143.67528  0.085520998  0.094507507            3 
  141000     1.246502   -3.0204384    144.97105  0.085680288  0.094461692            2 
  142000    1.2265217   -3.0275048    146.60004  0.086032888  0.094415957            1 
  143000     1.231139   -3.0178858     146.8583  0.085581759   0.09437428            2 
  144000    1.2068017   -3.0337185    149.16666  0.086323297  0.094337563            1 
  145000    1.2157894   -3.0623602    150.12116  0.086276529  0.094312217            2 
  146000    1.2482853   -3.0320609    151.03563  0.086207552  0.094289027            3 
  147000    1.2442506   -3.0639792    152.50234  0.086452572  0.094268845            3 
  148000    1.2299226   -3.0274058    153.44754  0.086400641  0.094246671            2 
  149000    1.2191245   -3.0360195    154.20051  0.086241897  0.094227801            1 
  150000    1.2262706    -3.055931    155.92764  0.086626464  0.094205062            1 
  151000    1.2327368   -3.0520624    156.67607  0.086465822  0.094178679            1 
  152000    1.2534355   -3.0464992    158.45401  0.086871715  0.094162683            3 
  153000    1.2360619   -3.0378919    158.87779  0.086534743  0.094137209            1 
  154000    1.2090847   -3.0290435    159.78827  0.086465516  0.094113555            1 
  155000    1.2392026   -3.0272093    160.69216  0.086393633  0.094081193            2 
  156000    1.2483435   -3.0428285    161.96776  0.086521238  0.094055173            3 
  157000    1.2056488   -3.0716498    162.95033   0.08649168  0.094030183            2 
  158000    1.2122643   -3.0082185    165.26697  0.087166121  0.094018794            2 
  159000    1.2338715   -3.0194945    166.41314  0.087218629  0.094005938            1 
  160000    1.2302722   -3.0500074    166.46622  0.086701154  0.093990856            2 
  161000    1.2323625   -3.0261134     167.2909  0.086589494  0.093971855            2 
  162000    1.2099626   -3.0713169    168.10511  0.086473819  0.093953645            1 
  163000    1.2509134   -3.0642929    169.64375  0.086729935  0.093927854            3 
  164000    1.2469708   -3.0332783    172.07579  0.087436883  0.093915381            1 
  165000     1.210169   -3.0586526    171.33503  0.086532844  0.093902271            1 
  166000    1.2322916   -3.0545647    173.54746  0.087122219  0.093891967            2 
  167000    1.2209868    -3.031424    175.40511    0.0875275  0.093883919            2 
  168000     1.237603   -3.0581039    175.34279   0.08697559  0.093872933            2 
  169000    1.2124675   -3.0503517    175.96402  0.086767267  0.093854521            2 
  170000    1.2156493   -3.0431268    178.43927  0.087470232  0.093841159            1 
  171000    1.2233939   -3.0263993    179.10947  0.087285317  0.093830026            1 
  172000     1.211294   -3.0294237    180.07237  0.087244366  0.093813981            1 
  173000    1.2265518   -3.0214453    181.10916  0.087239481   0.09379904            2 
  174000    1.1985822   -3.0462076    182.17114  0.087246715  0.093780132            1 
  175000    1.2315329   -3.0470166    183.23638  0.087255418  0.093763257            1 
  176000     1.219034   -3.0342792    184.59119  0.087401131  0.093750505            3 
  177000    1.2083763   -3.0331005    185.78226  0.087468108  0.093738519            1 
  178000    1.2125967   -3.0336811    186.67041  0.087392513  0.093718778            1 
  179000    1.2061508   -3.0237361    188.29794  0.087661981  0.093703862            2 
  180000    1.2178279   -3.0469129    188.06692  0.087068017  0.093687986            1 
  181000    1.2537472   -3.0434272    189.21134  0.087113877  0.093672785            2 
  182000    1.2160065   -3.0312657    190.87814  0.087398418  0.093660132            1 
  183000    1.2516629   -3.0362163    192.01345  0.087437817  0.093643634            1 
  184000    1.2254203   -3.0199557    194.08297  0.087899897   0.09362999            2 
  185000     1.227401   -3.0614285    193.61055  0.087211958  0.093617808            2 
  186000    1.2206558     -3.03659    195.56642  0.087619362  0.093610635            4 
  187000    1.2264856   -3.0259717    198.33656  0.088385277  0.093605748            1 
  188000    1.2105083   -3.0181604    198.34324  0.087918102  0.093603933            2 
  189000    1.2505263   -3.0335569     199.2755  0.087863979   0.09360266            3 
  190000    1.2090534   -3.0405321    200.62135   0.08799182  0.093604764            1 
  191000    1.2176112   -3.0453125    201.59502  0.087955941  0.093605846            2 
  192000    1.2195314   -3.0465353    202.90833   0.08806785   0.09359866            1 
  193000    1.2040448   -3.0244248    203.64964  0.087931625  0.093591257            3 
  194000    1.2100819   -3.0022819    204.75431  0.087952884   0.09359118            1 
  195000    1.2146536   -3.0548248    206.07884   0.08806788  0.093584695            1 
  196000    1.2035616   -3.0382702    207.57566  0.088254959  0.093574449            1 
  197000    1.2126013    -3.077655    207.43938  0.087749313  0.093561496            1 
  198000    1.1997807   -3.0544133    208.90608  0.087923434  0.093549499            3 
  199000    1.2173341    -3.046662    209.87542  0.087887528  0.093535295            1 
  200000    1.2317818   -3.0569071    210.53742  0.087723926  0.093519205            1 
  201000    1.2049527   -3.0369319    212.50769  0.088104348  0.093502139            2 
  202000    1.2131899   -3.0283663    213.40915  0.088040078  0.093490303            3 
  203000    1.1983008   -3.0250362    214.12736  0.087901216  0.093474196            1 
  204000    1.2350676    -3.048861    214.98041  0.087818794   0.09345808            2 
  205000    1.2232296   -3.0393446    215.90886   0.08776783  0.093442071            2 
  206000     1.237642   -3.0175884    217.18614  0.087858473  0.093424988            3 
  207000    1.2392726   -3.0411011    217.84849  0.087700678  0.093409395            4 
  208000    1.2611795   -3.0456021    219.80647  0.088063487  0.093395693            1 
  209000    1.2330268   -3.0797055    220.20074  0.087799337  0.093380936            2 
  210000    1.2329976   -3.0575153    221.91087   0.08805987  0.093372221            3 
  211000    1.1985707   -3.0641741    223.51264  0.088275134  0.093360824            1 
  212000    1.1892314   -3.0295009    223.99446  0.088048136  0.093348995            2 
  213000    1.2054014   -3.0556559    226.20838  0.088500931   0.09334364            3 
  214000    1.2155438   -3.0608382    226.72372  0.088288054  0.093340519            5 
  215000    1.2281871   -3.0547324    227.41345  0.088144746  0.093336351            2 
  216000    1.2133887   -3.0275866    228.72304  0.088241912  0.093333329            2 
  217000    1.2250523   -3.0490161    230.02039  0.088333483  0.093328248            2 
  218000    1.2102722   -3.0637626    230.05597  0.087941883  0.093320262            1 
  219000    1.2294399   -3.0159901    232.02143  0.088288217  0.093310205            1 
  220000    1.2259777   -3.0250326     233.6624  0.088508486  0.093297797            2 
  221000    1.2153688   -3.0506029    233.61184  0.088088931  0.093282192            2 
  222000    1.2138636   -3.0409275    234.64063  0.088078315  0.093264565            3 
  223000    1.2392629   -3.0072903    235.99215  0.088188398  0.093248264            6 
  224000    1.2244183   -3.0621311    237.16934  0.088232641  0.093230409            2 
  225000    1.2603766   -3.0594329    237.00903  0.087781121  0.093212749            3 
  226000    1.1920996   -3.0779962    238.17021  0.087820873  0.093188991            2 
  227000    1.2134484   -3.0447735    238.74938  0.087646613  0.093163916            1 
  228000    1.1965985   -3.0801083    240.15658  0.087776526  0.093138815            3 
  229000    1.2074651   -3.0719812    241.44638  0.087862582  0.093114482            1 
  230000    1.2012912   -3.0629852    242.10648  0.087719738  0.093086937            1 
  231000     1.217895   -3.0409412     243.0622  0.087684777  0.093052432            1 
  232000    1.2005276   -3.0516905    243.76921   0.08756078  0.093021368            2 
  233000    1.2304623   -3.0836735    244.82829  0.087563765  0.092990976            2 
  234000    1.2364735    -3.059948    245.35398  0.087376775  0.092954948            2 
  235000    1.2054409   -3.0214748    248.31963  0.088056607  0.092922238            2 
  236000    1.2305361    -3.098673    247.22643  0.087297469  0.092890902            1 
  237000    1.2341385   -3.0524209    248.39588  0.087340323  0.092857753            1 
  238000    1.2022856   -3.0571798    249.12118  0.087227305  0.092824706            3 
  239000    1.2165318   -3.0661749    250.75331  0.087431418  0.092790335            4 
  240000    1.2229884   -3.0242099    252.77068  0.087767598  0.092760229            1 
  241000    1.2155044   -3.0710268    254.23938  0.087911266  0.092733406            1 
  242000    1.1960984   -3.0190537    254.16861  0.087523625  0.092704823            2 
  243000    1.2283626   -3.0866575    254.79539  0.087378392  0.092673515            3 
  244000    1.1836594   -3.0502492     256.4724  0.087593032    0.0926413            1 
  245000    1.2223072   -3.0447387    257.15253  0.087466846  0.092612854            2 
  246000    1.1647034   -3.0477038    257.15824  0.087113226  0.092582981            2 
  247000    1.2077541   -3.0622499    259.47783  0.087543128  0.092552859            5 
  248000    1.2252893   -3.0435098    261.20891  0.087771813  0.092528732            1 
  249000    1.1949222   -3.0577798    262.25639  0.087769877  0.092499589            1 
  250000    1.1993155   -3.0150382    263.46957   0.08782319  0.092468965            1 
  251000    1.1882659   -3.0588815    263.36882  0.087439847  0.092441349            1 
  252000    1.2183538   -3.0710875    264.93833  0.087611882  0.092410976            2 
  253000    1.2148915   -3.0667795    265.15983  0.087338546  0.092379659            1 
  254000    1.2082463   -3.0723145    265.21893  0.087014086   0.09234395            1 
  255000    1.1936999   -3.0410365    267.31636  0.087358289  0.092307145            1 
  256000    1.2131292   -3.0720037    268.19818  0.087304093    0.0922769            1 
  257000    1.2054604   -3.0734474    269.30925   0.08732466  0.092244677            1 
  258000    1.2106291    -3.066668    270.92318  0.087507486  0.092215623            3 
  259000    1.2382772    -3.055673    273.04832  0.087853384  0.092186527            1 
  260000    1.1951489   -3.0572872    273.66043  0.087711676  0.092158357            1 
  261000    1.1897892   -3.0744682    274.61162  0.087679317  0.092133323            1 
  262000    1.2212231   -3.0869177    275.36766  0.087585132   0.09210581            2 
  263000    1.1978108     -3.05447    275.56961  0.087316099  0.092077656            1 
  264000    1.2408523   -3.0188903    277.92351  0.087728381  0.092053529            2 
  265000      1.20174   -3.0495483    278.73807  0.087653482  0.092038488            3 
  266000     1.183343   -3.0828751    281.03784  0.088044435  0.092023177            3 
  267000    1.2105429   -3.0943131    281.28242  0.087791018   0.09200839            4 
  268000    1.2094042   -3.0653267    282.80101  0.087935637  0.091991337            1 
  269000    1.1966091    -3.047797    283.28064  0.087757323  0.091973543            1 
  270000    1.2176385   -3.0527141    285.92783  0.088249331  0.091961453            2 
  271000    1.2012773   -3.0589492    285.45396  0.087777969  0.091949374            1 
  272000    1.1741857   -3.0310589    288.28846  0.088323671  0.091941232            2 
  273000    1.2057377   -3.0783839     288.0322  0.087921916  0.091930574            2 
  274000    1.2249272   -3.0815942     288.9763  0.087888168  0.091920512            1 
  275000    1.2044432   -3.0408129    291.87274  0.088446284  0.091911907            2 
  276000     1.192862   -3.0596127    292.29839  0.088254344  0.091904306            2 
  277000    1.2158293   -3.0551784    293.82312  0.088394442  0.091896656            1 
  278000     1.204824    -3.074647    295.72984  0.088648033  0.091893014            1 
  279000    1.2101717   -3.0174812    296.11273  0.088444662  0.091892988            1 
  280000    1.2309726   -3.0728854    297.04135  0.088405164  0.091890625            3 
  281000    1.2018791   -3.0892887    299.02362  0.088678416  0.091892522            1 
  282000    1.1887014   -3.0717942    301.02369   0.08895499  0.091893156            3 
  283000    1.2192429   -3.0637527    302.43599  0.089056533  0.091895144            1 
  284000    1.1784675   -3.0682181    302.94298  0.088891721  0.091898011            3 
  285000    1.2138314   -3.0432183    303.28534  0.088679924  0.091896447            3 
  286000    1.1929336   -3.0521046    305.19778  0.088927093  0.091891414            2 
  287000     1.191938   -3.0537428    305.62598  0.088741574  0.091895142            1 
  288000    1.1986878   -3.0263334    307.69379  0.089031769  0.091898248            5 
  289000    1.2027085   -3.0671443    307.80468  0.088755675  0.091902897            1 
  290000    1.2176788   -3.0573786    308.63127  0.088687146  0.091905073            1 
  291000    1.2130203   -3.0645062    310.82593  0.089010861  0.091906026            3 
  292000    1.2023651    -3.046172    311.98085  0.089035631  0.091906009            2 
  293000    1.1879443    -3.082401    312.54137  0.088891175  0.091901646            2 
  294000    1.2215606   -3.0624423    312.96749  0.088709605  0.091901861            2 
  295000    1.1887675   -3.0804046     313.6208  0.088593446  0.091900531            1 
  296000     1.221356   -3.0525892      315.938   0.08894651  0.091898103            4 
  297000    1.2064389   -3.0677584    314.82288  0.088334142   0.09189305            2 
  298000    1.1909669   -3.1014246     315.9273   0.08834656  0.091888183            1 
  299000    1.2347098   -3.0665319    318.51036  0.088771004  0.091884748            1 
  300000    1.1946514   -3.0527555      319.445  0.088734722  0.091881654            3 
  301000    1.1796365   -3.0571801    320.01062  0.088596517  0.091881083            2 
  302000    1.2270946   -3.0833243    321.58074  0.088736406  0.091875743            2 
  303000    1.2106841   -3.0593155    320.86516  0.088246743  0.091870746            1 
  304000    1.2014769   -3.0690563    322.35174  0.088363964  0.091861276            1 
  305000    1.1697392   -3.1000451     323.1791  0.088300302  0.091853923            3 
  306000    1.2053867    -3.056413     325.9668  0.088770914   0.09184579            2 
  307000    1.1549894   -3.0530179    326.24345  0.088556854  0.091838056            1 
  308000    1.1670372   -3.0423389    328.19601  0.088797621  0.091828008            3 
  309000    1.2144189   -3.0753508    328.87437  0.088693194  0.091819161            1 
  310000    1.2194972   -3.0368708     327.9554  0.088160054  0.091810192            1 
  311000    1.1601556   -3.0675836    331.21001  0.088748664  0.091802318            1 
  312000    1.2190187   -3.0774459    332.50575  0.088810295   0.09179278            2 
  313000    1.2182142   -3.0538152    333.39139  0.088762351  0.091782974            3 
  314000    1.1978231    -3.084229    332.70707  0.088298054   0.09177439            2 
  315000    1.1910949   -3.0381624    335.44796  0.088742847  0.091763662            2 
  316000    1.2453054   -3.0662497     334.5209  0.088217536  0.091750911            1 
  317000    1.1806602   -3.1039896    335.40408   0.08817142   0.09173738            2 
  318000    1.2103631   -3.0565092    337.02239  0.088318235  0.091723046            1 
  319000    1.2095276   -3.0563409    338.77398  0.088498951  0.091712147            1 
  320000    1.1754357   -3.0511733    338.79553  0.088228003  0.091702935            2 
  321000    1.1958873    -3.090703    341.35619   0.08861791  0.091691049            1 
  322000    1.2121924   -3.0663705    342.56505   0.08865555   0.09168178            2 
  323000    1.1999587   -3.0723008    343.24779   0.08855722  0.091676933            2 
  324000    1.2238064   -3.0463973    345.89407  0.088964525  0.091672952            1 
  325000    1.2081646   -3.0718095    347.73985  0.089164064  0.091670781            1 
  326000    1.2078749   -3.0874121    347.40222  0.088804248  0.091671445            3 
  327000    1.1853892   -3.0989517    349.88422  0.089165194  0.091672527            1 
  328000    1.2151055   -3.0757557    349.64041  0.088831405  0.091671126            2 
  329000     1.195323   -3.0547243    351.12987  0.088938671  0.091669746            3 
  330000    1.2201877   -3.0752915    351.00197   0.08863686  0.091667516            1 
  331000    1.1891256   -3.0481992    352.78203  0.088817229  0.091663282            2 
  332000    1.1892115   -3.0681016    353.87961  0.088825203  0.091661827            2 
  333000    1.1803876   -3.0758551    353.84778  0.088550494   0.09165912            1 
  334000    1.2085364   -3.0850392    355.05061  0.088585481  0.091652359            1 
  335000    1.1928791   -3.0580102    356.65241  0.088719505    0.0916413            2 
  336000    1.1658208   -3.1074519    354.55658   0.08793566  0.091627885            1 
  337000    1.2137469     -3.04616    358.59655  0.088673728  0.091616552            2 
  338000    1.2011719   -3.0676142    360.36866  0.088848289  0.091605676            2 
  339000    1.2099418   -3.0673699    360.28787  0.088566339  0.091596073            2 
  340000    1.1965254    -3.050723    360.02635  0.088241752  0.091584994            1 
  341000    1.1892166   -3.0571895    364.58882  0.089097952    0.0915778            2 
  342000    1.1785637   -3.0710455    365.12131  0.088967181  0.091574448            3 
  343000    1.1819371   -3.0911861    364.73951   0.08861504   0.09156944            2 
  344000    1.2208323   -3.0656505    366.87227  0.088874096  0.091564573            2 
  345000    1.1779909   -3.0801166    369.26715  0.089194963  0.091560349            2 
  346000    1.1736778   -3.0991063    368.33526   0.08871273  0.091555414            2 
  347000    1.1945168   -3.0699954    366.71065  0.088066919  0.091546418            2 
  348000    1.2027898   -3.0644375    370.78649  0.088789868  0.091533996            1 
  349000    1.1833161   -3.0987281    371.13161  0.088617862  0.091520371            2 
  350000    1.1869533   -3.0730736    369.39056  0.087950133  0.091504642            1 
  351000    1.1854077   -3.0588652    372.36817  0.088406497  0.091487662            5 
  352000    1.2087301    -3.060601    373.38131  0.088395196   0.09147259            3 
  353000    1.2332814   -3.0909966     373.1408  0.088088007  0.091459429            2 
  354000    1.1879171   -3.1091723    372.68538  0.087731964   0.09144586            2 
  355000    1.1553968   -3.0801427      377.029   0.08850446  0.091432947            1 
  356000    1.1920914   -3.0610161      376.436  0.088117041  0.091419533            4 
  357000    1.2087744   -3.0449016    379.31003   0.08854109  0.091404731            2 
  358000    1.2177322   -3.0298655    379.20517   0.08826936  0.091388447            1 
  359000    1.2219319   -3.0674986    380.13918  0.088240292  0.091373897            2 
  360000    1.2010921    -3.104975    382.31238  0.088498236  0.091359746            2 
  361000    1.1860193   -3.0740372    381.72141  0.088116669  0.091346752            1 
  362000    1.2132733   -3.1023091    383.79181  0.088349865  0.091333196            1 
  363000    1.1884323   -3.0554217    384.79191  0.088336067  0.091320709            3 
  364000    1.2121567   -3.0573602    385.17629  0.088181386  0.091306719            1 
  365000    1.2300461   -3.0784332    384.88759  0.087873879  0.091293341            1 
  366000    1.1718516   -3.0666689    388.07376  0.088359234  0.091279714            5 
  367000     1.183509   -3.0857263    388.07137  0.088117931  0.091268161            2 
  368000    1.1872854   -3.0652231    389.35857  0.088169966   0.09125287            3 
  369000    1.1947698   -3.0965477    390.44656  0.088176731  0.091237917            2 
  370000    1.2290289   -3.0741755    391.34208  0.088140108  0.091222652            2 
  371000    1.1904698   -3.0984057    391.02887  0.087832182  0.091205598            2 
  372000    1.1753401   -3.0795035    393.28506  0.088101493  0.091191264            2 
  373000    1.1949207   -3.1043506    393.50968  0.087915479  0.091175264            2 
  374000    1.2461416   -3.0879848    394.92972  0.087996818   0.09116083            4 
  375000    1.2050872   -3.0993691    395.37051  0.087860113  0.091146353            1 
  376000    1.2060424   -3.1046961    396.86542  0.087957761  0.091129431            2 
  377000    1.2121235   -3.0616967     399.0233  0.088201437  0.091112917            2 
  378000    1.1963514   -3.0877782    398.41277  0.087833502  0.091094011            3 
  379000    1.1952294   -3.1048722    399.24215  0.087784115  0.091073828            2 
  380000    1.1614514   -3.0710909    399.66587  0.087646024  0.091053883            1 
  381000    1.1789743   -3.0996728    401.52281  0.087822137   0.09103363            2 
  382000    1.2096201   -3.0944695    400.73081  0.087419462  0.091012937            2 
  383000     1.171923   -3.0880941    404.01344  0.087905447  0.090992336            2 
  384000    1.1856197   -3.1063792    406.51732  0.088219905  0.090973722            2 
  385000    1.2044565   -3.0835499    406.36265  0.087957283  0.090957008            1 
  386000    1.1696002    -3.083806    408.02549  0.088088404  0.090942282            2 
  387000    1.1741243   -3.0769912    408.80668  0.088029001  0.090929387            2 
  388000    1.1830017   -3.0875707    409.15461   0.08787685  0.090913349            4 
  389000    1.1941039    -3.075018    412.76347  0.088424052  0.090899544            2 
  390000    1.2112646   -3.0918934    410.04222  0.087615859  0.090882834            4 
  391000    1.1767066   -3.1001987    411.53637  0.087710224  0.090865565            2 
  392000    1.1957501   -3.0634153    410.90916  0.087353137  0.090843614            2 
  393000    1.1836152   -3.1079087    413.11189   0.08759794  0.090822667            2 
  394000    1.1820622   -3.0795532    413.95582  0.087554108  0.090800729            2 
  395000    1.1638417   -3.0556241    416.14917  0.087795183   0.09078073            1 
  396000    1.1998004   -3.0715379    415.31026  0.087396941   0.09076189            3 
  397000    1.1625379   -3.0764291    416.02337  0.087326485  0.090741251            2 
  398000    1.1846296   -3.0586823    417.98599  0.087518004  0.090719843            1 
  399000    1.1711672   -3.0857574    419.16648  0.087545212  0.090699131            2 
  400000    1.1797613   -3.1077411    422.25381  0.087969544  0.090680211            3 
  401000    1.1940983   -3.0719636    422.78685  0.087860941  0.090662358            1 
  402000    1.2158748   -3.1005278    423.04112  0.087695091  0.090645251            3 
  403000     1.181712   -3.0901475    424.10199  0.087696856  0.090624401            1 
  404000    1.1725225   -3.0902325    427.02833  0.088083401  0.090608053            3 
  405000    1.1717618   -3.0672042    425.49083  0.087549554  0.090592457            1 
  406000    1.1834717    -3.082115    427.66502  0.087780177  0.090574357            1 
  407000    1.2027472   -3.0757219    429.50026  0.087940265  0.090557297            3 
  408000    1.1762606   -3.0752653    429.22533  0.087668573  0.090539403            2 
  409000    1.1754204   -3.0828358    428.44644  0.087295526  0.090520587            1 
  410000    1.1951291   -3.1070911    427.77776  0.086946699   0.09050153            1 
  411000    1.1819549   -3.0914127    428.88577  0.086959808  0.090479648            1 
  412000    1.2175228   -3.1120106    430.87257  0.087150601  0.090460209            1 
  413000    1.2042199   -3.0745015    432.49582  0.087267114  0.090439983            4 
  414000    1.2411157   -3.0862683    434.68347  0.087496672  0.090420234            3 
  415000    1.1725557   -3.0862145    433.82538  0.087113529   0.09040282            1 
  416000    1.1631296   -3.0769871    435.43548  0.087226659  0.090383113            2 
  417000    1.1952202   -3.1123632    435.56241  0.087042848  0.090361587            2 
  418000    1.2006536   -3.0883672    437.31658  0.087184325  0.090340326            1 
  419000    1.1620293   -3.0931652    437.43382  0.086999566  0.090317854            1 
  420000    1.1909746   -3.0542962    439.74457  0.087250907  0.090294574            1 
  421000     1.203932   -3.0753747    439.68922  0.087032703  0.090272039            3 
  422000    1.2060396   -3.1391866     440.0587  0.086899427  0.090248954            3 
  423000    1.1866548    -3.098652     440.2418  0.086730063  0.090224886            1 
  424000    1.1865533   -3.0944275    440.51247  0.086578708  0.090198296            1 
  425000    1.1700359   -3.1042173    444.89182   0.08723369  0.090173785            2 
  426000    1.2073471   -3.0796994    445.41931  0.087132102   0.09014926            2 
  427000    1.1735974   -3.1121002     446.1766  0.087075839  0.090127906            1 
  428000    1.1836228   -3.0973696    445.88793  0.086816187  0.090104085            1 
  429000    1.1741079   -3.0592123    447.26419  0.086881156  0.090081135            3 
  430000    1.1713709   -3.0986257    447.39579   0.08670461  0.090057172            1 
  431000    1.1540884   -3.0725792    450.48997  0.087101696  0.090034263            2 
  432000    1.1775198   -3.0995891    450.19795  0.086843741  0.090013098            1 
  433000    1.1915327   -3.1151958    449.96907  0.086599128  0.089990676            2 
  434000    1.2005239   -3.0920659    451.76642  0.086744704  0.089966997            1 
  435000    1.1839937   -3.1075879    453.69834   0.08691539  0.089945252            2 
  436000    1.1856972   -3.0996063    455.48067  0.087056703  0.089924526            1 
  437000    1.1880304   -3.0762724    455.27337  0.086817957  0.089900881            1 
  438000    1.2052609   -3.0978753     456.0383  0.086765278  0.089877258            2 
  439000    1.1893198   -3.0970247    458.89283  0.087109497  0.089853105            2 
  440000    1.1874215    -3.080242    458.53901  0.086844509  0.089829091            2 
  441000    1.1886326   -3.1099576    456.11511  0.086189552  0.089802322            3 
  442000    1.1720962   -3.0909993      457.697  0.086292798  0.089777399            1 
  443000    1.1775209   -3.1125595    460.13684  0.086556967    0.0897518            2 
  444000    1.2043414   -3.1043711    462.90864  0.086882253  0.089726777            1 
  445000    1.1659764   -3.1127615    462.81526  0.086669523  0.089702347            2 
  446000    1.1642378   -3.1057912    463.30414  0.086566543  0.089676178            2 
  447000    1.1847185   -3.1382414    463.54988  0.086418695  0.089650452            3 
  448000    1.1853421   -3.1200445    464.69252   0.08643834  0.089626478            2 
  449000    1.1928831   -3.0733486    468.57864  0.086967083   0.08960625            2 
  450000    1.1565133   -3.0768138    469.20356  0.086889548  0.089585695            2 
  451000    1.1605769   -3.0779877    469.72995  0.086794152  0.089565471            1 
  452000    1.1767158   -3.1287607    470.06253  0.086663446  0.089545344            3 
  453000    1.1726696   -3.0768591    473.28147  0.087064288  0.089524667            3 
  454000    1.1786918   -3.1010906    472.51989  0.086732726  0.089503681            1 
  455000    1.1768797   -3.1189522    472.64784  0.086565538  0.089483742            1 
  456000    1.1877312   -3.0955975    475.41328  0.086881082  0.089462198            4 
  457000    1.1766683   -3.1026914    474.90998  0.086599194  0.089441998            2 
  458000    1.1454078   -3.1250252    472.85497  0.086036203  0.089417451            3 
  459000      1.17478   -3.1337894    475.96051  0.086412584  0.089396721            2 
  460000    1.1947155   -3.0807606    479.34268  0.086837441  0.089377779            1 
  461000    1.1614873   -3.1229805    479.04381  0.086595049  0.089357072            1 
  462000    1.1733257   -3.0928934    481.72913  0.086891979  0.089337004            2 
  463000    1.1770647   -3.0834423    479.37483  0.086280567  0.089317282            2 
  464000    1.1677832   -3.0976593    483.70242  0.086871842  0.089296568            2 
  465000    1.2015094   -3.1100126     482.1677  0.086409982  0.089273716            2 
  466000    1.1726733   -3.1314131    485.08434  0.086746127  0.089254966            2 
  467000    1.1774014   -3.1418854     484.7692  0.086504139  0.089233945            1 
  468000    1.1867235   -3.0987356    485.44156  0.086439025  0.089212814            1 
  469000    1.1781413   -3.0617217    485.80307  0.086318954  0.089188838            2 
  470000    1.1707431   -3.1168047    486.66279  0.086287729  0.089165998            3 
  471000    1.1557065   -3.0704811    487.36301  0.086228417   0.08914475            1 
  472000    1.2084183   -3.0592967    490.44816  0.086590424  0.089120368            2 
  473000    1.1664626   -3.0881861    489.64796  0.086266378  0.089098492            2 
  474000    1.1768455   -3.0849994    490.22073  0.086185079  0.089072042            3 
  475000    1.1754888   -3.0963169    490.83322  0.086111091  0.089047731            3 
  476000    1.1906101   -3.0959998    492.49497  0.086221109  0.089022371            1 
  477000     1.153684   -3.1023775    493.25392  0.086172941  0.088997671            2 
  478000    1.1957113    -3.126511    494.67621  0.086240622  0.088973696            1 
  479000    1.1916659   -3.0912268    495.57995  0.086217807  0.088949863            3 
  480000    1.1761474   -3.0928175     494.8536  0.085912084  0.088927321            4 
  481000    1.1656782   -3.0892646    498.29673  0.086329995  0.088902689            2 
  482000    1.1658176   -3.0840002    498.86492  0.086249122  0.088880544            3 
  483000    1.1552244    -3.062996    501.14503  0.086463946  0.088859798            1 
  484000    1.1878605    -3.127188    501.38594  0.086326781  0.088840442            2 
  485000    1.1977242   -3.1142343    502.36499  0.086317008  0.088819019            2 
  486000    1.1626556   -3.1379372    504.41792  0.086491413  0.088795364            3 
  487000    1.1874799   -3.0796021    506.15307  0.086610725  0.088774893            1 
  488000      1.16321   -3.1025073    504.59821  0.086167728  0.088754411            2 
  489000    1.1486435   -3.1137602    508.52217  0.086660219  0.088733127            1 
  490000    1.1879699   -3.1246886    505.63869  0.085992975  0.088711516            2 
  491000    1.1839425   -3.0926997    508.18314  0.086249685  0.088688912            1 
  492000     1.171672   -3.0993924    509.08334  0.086226853  0.088665954            2 
  493000    1.1759804   -3.1045305    506.50662  0.085616399  0.088643268            2 
  494000    1.1454893   -3.0742138    509.82953  0.086003631  0.088619582            4 
  495000     1.180267   -3.0803136    511.35517  0.086086728  0.088596925            1 
  496000    1.1724116   -3.0838443    513.59272  0.086289099  0.088573445            1 
  497000    1.1761362     -3.12089     511.8994  0.085831556  0.088552061            1 
  498000    1.1656275   -3.0905418     513.9326  0.085999431  0.088530303            2 
  499000    1.1846102   -3.0785448    517.09367  0.086354988  0.088509654            3 
  500000    1.1559717   -3.1104405    512.84542  0.085474237  0.088489701            2 
  501000    1.1860833   -3.1302839    518.21573  0.086196895  0.088468173            2 
  502000    1.1577716   -3.1141534    517.95601  0.085982074  0.088446037            1 
  503000    1.1887265   -3.1160278     519.3148  0.086036248  0.088425524            4 
  504000    1.1707178    -3.078602     523.9293  0.086628521  0.088404892            1 
  505000    1.1513913    -3.077891    519.57078  0.085737752  0.088383766            3 
  506000     1.185417   -3.1535765    521.63618  0.085908462  0.088362959            1 
  507000    1.2038946   -3.1009764    523.08372  0.085976943  0.088342824            2 
  508000    1.1618312   -3.1021237    523.98549  0.085955625  0.088322593            2 
  509000    1.1775818   -3.0718016    524.10214  0.085805851  0.088302525            1 
  510000    1.1608384   -3.1031382    525.86826  0.085926187  0.088282961            1 
  511000    1.1733003   -3.1021683     526.7808   0.08590685  0.088263375            2 
  512000    1.1843639    -3.068421    529.55117  0.086189969  0.088244328            2 
  513000    1.1538832   -3.0786354    530.18498  0.086124915  0.088227303            2 
  514000    1.1631563    -3.126368    529.66578  0.085873181  0.088209047            4 
  515000    1.1526786   -3.0892359    532.98342  0.086243272  0.088192362            2 
  516000    1.1423861   -3.0952982    534.19098  0.086271153  0.088174479            1 
  517000    1.1526527   -3.1257583    532.60387  0.085848465  0.088158412            3 
  518000    1.1758324   -3.1099488    537.91207   0.08653669  0.088143593            1 
  519000     1.166443   -3.0896021    536.59274  0.086158114  0.088129825            2 
  520000    1.1759519   -3.1022411    537.49571  0.086137133  0.088115822            1 
  521000    1.1708213   -3.0612796    540.35398   0.08642898   0.08810275            4 
  522000    1.1841113   -3.1241067    541.31084  0.086416162  0.088089597            2 
  523000    1.1749036   -3.1139984    540.29421  0.086088944  0.088075825            2 
  524000    1.1734689   -3.0976872    542.76873  0.086318182  0.088062865            5 
  525000    1.1579372   -3.1211022    545.12086   0.08652712  0.088047455            2 
  526000    1.1860051   -3.0964139    543.64409  0.086128658  0.088033314            1 
  527000    1.1806703   -3.1546575    542.71991  0.085819087  0.088017888            1 
  528000    1.1653915   -3.0774274     545.8452  0.086149811  0.088002749            3 
  529000    1.1694756   -3.1249931    547.00938   0.08617035  0.087988606            1 
  530000    1.1741107   -3.1024339    550.61347  0.086574444  0.087974141            1 
  531000    1.1920854   -3.1322843    549.69921  0.086267923  0.087960747            3 
  532000    1.1745058   -3.1249691    548.76093  0.085958793  0.087946943            4 
  533000    1.1425941   -3.0829797    551.50571  0.086226658  0.087931539            1 
  534000    1.1742379   -3.1408929     551.6527  0.086088123  0.087918417            2 
  535000    1.1576837   -3.0932348    554.63851  0.086392292  0.087904231            2 
  536000    1.1963894   -3.1072076    554.41561  0.086196456  0.087890744            1 
  537000    1.1620494   -3.1047665    557.13045  0.086457238  0.087876754            2 
  538000    1.1913887   -3.1060361    555.58979  0.086057898   0.08786268            4 
  539000    1.1512574   -3.1357487    555.47983  0.085881236  0.087848033            3 
  540000    1.1725067   -3.1379066    556.10716  0.085819005  0.087831701            1 
  541000     1.186926   -3.1018084     557.9552   0.08594504  0.087816735            1 
  542000     1.142796   -3.1227032      558.335  0.085844865  0.087800763            2 
  543000    1.1919565   -3.1118203    558.80928  0.085759558   0.08778517            4 
  544000    1.1353374   -3.0937554    560.34122  0.085836583  0.087768303            2 
  545000    1.1688713   -3.1007254    561.22312  0.085813933  0.087752308            3 
  546000    1.1659729   -3.0780399    564.75576  0.086195934  0.087733953            2 
  547000    1.1814499   -3.1170578    561.82789  0.085592305  0.087715227            2 
  548000    1.1627871   -3.1193957    562.06685  0.085472453  0.087696662            3 
  549000    1.1709279    -3.097725    561.42472  0.085219296   0.08767936            3 
  550000    1.1621857   -3.1010998    565.35725  0.085660189  0.087660706            1 
  551000    1.1439065   -3.1112273     568.8284  0.086029704  0.087641288            2 
  552000    1.1708797    -3.095795     565.9657  0.085441681  0.087624641            4 
  553000    1.1625163   -3.1104003    568.93885  0.085735209  0.087608046            2 
  554000    1.1599979   -3.1349583    572.81381  0.086163329  0.087591723            1 
  555000    1.1560986   -3.1004035    571.89119  0.085869548  0.087575155            1 
  556000    1.1541857    -3.128884    572.88125  0.085863496  0.087559159            1 
  557000    1.1680456   -3.0938973    572.68794  0.085680421  0.087543463            1 
  558000    1.1494633    -3.092232    573.38678   0.08563124  0.087527656            2 
  559000    1.1772547      -3.1342    573.68856  0.085523041  0.087511207            2 
  560000     1.153665   -3.1141016    574.09713  0.085431121   0.08749325            1 
  561000    1.1579892   -3.1355056    577.32663  0.085758561  0.087477349            4 
  562000    1.1705975     -3.14117    577.60601  0.085647391  0.087461017            2 
  563000    1.1548896   -3.0688389    581.94782  0.086137925  0.087445623            2 
  564000    1.1786062   -3.1231946    579.87185  0.085678464   0.08743006            2 
  565000    1.1550205   -3.1181814    582.35979  0.085893774  0.087414874            2 
  566000    1.1713697   -3.1013722    581.46735  0.085610623  0.087400588            2 
  567000    1.2096758   -3.1198159    584.26021  0.085870108  0.087387028            2 
  568000     1.150101   -3.1338124     586.0889  0.085987222  0.087372864            2 
  569000    1.1663552   -3.1046427    586.03178  0.085827735  0.087357212            2 
  570000    1.1627583    -3.139493    584.58559   0.08546573  0.087340618            4 
  571000    1.1541895   -3.1408367    585.35165  0.085427852  0.087326429            2 
  572000    1.1473369   -3.0970569     589.1297  0.085828919   0.08731187            2 
  573000    1.1493583   -3.1252901    591.19351  0.085979276  0.087298255            5 
  574000    1.1624907   -3.0994684    590.47529  0.085725217  0.087284936            1 
  575000    1.1511705   -3.1330767    589.17773  0.085388077  0.087272239            1 
  576000    1.1463601   -3.1162466    594.78873   0.08605161  0.087258706            3 
  577000     1.136557   -3.1145257    593.13221   0.08566323  0.087244909            2 
  578000    1.1565285   -3.1077675    596.85266  0.086051421  0.087231084            2 
  579000    1.1990838   -3.1204648    595.10412  0.085651139  0.087218327            1 
  580000    1.1755591   -3.1117082    598.28888  0.085961045  0.087204843            2 
  581000    1.1746688   -3.0895649    598.56623  0.085852872  0.087191634            1 
  582000    1.1450677   -3.1011888    599.82579  0.085885708  0.087177876            2 
  583000    1.1528166   -3.1150262    597.36744  0.085386998   0.08716339            1 
  584000    1.1440252   -3.1424226    599.36341  0.085525601  0.087147286            2 
  585000    1.1445801   -3.1523447    601.51574  0.085686002  0.087131073            3 
  586000     1.173593   -3.1286437     598.3915  0.085095491  0.087115597            2 
  587000    1.1640186   -3.0887617    600.47125  0.085245777   0.08710095            3 
  588000    1.1853679   -3.1224094    600.30888  0.085077789  0.087086617            1 
  589000    1.1596383   -3.0939219    603.73259   0.08541774  0.087070664            2 
  590000    1.1692055   -3.1515935    601.89388   0.08501326  0.087055373            1 
  591000    1.1344988   -3.1149981    606.38602  0.085502822  0.087040841            2 
  592000      1.13956   -3.1068542     606.4606   0.08536889  0.087023699            3 
  593000    1.1422443   -3.1389041     604.7478  0.084984233  0.087007174            1 
  594000    1.1594465   -3.0992233    608.25964  0.085333844  0.086990013            2 
  595000    1.1596153   -3.1263363     607.6496  0.085104987  0.086973307            1 
  596000    1.1754412   -3.1722152    605.95196  0.084724827  0.086954862            2 
  597000    1.1567295   -3.1241606    608.43011  0.084928827  0.086937749            1 
  598000    1.1385099    -3.146205     609.9403  0.084997255    0.0869197            3 
  599000    1.1383794   -3.1167465    611.37918  0.085055535  0.086900844            2 
  600000    1.1552669   -3.0931254    614.06513  0.085286823  0.086882653            2 
  601000    1.1400261   -3.1622382    612.84196  0.084975314  0.086864696            3 
  602000    1.1369054   -3.1653555    611.50076    0.0846485  0.086844677            2 
  603000    1.1604808   -3.1140615    616.23255  0.085162043  0.086826503            1 
  604000    1.1642073   -3.1498402    613.07106  0.084584859  0.086807915            2 
  605000     1.134197   -3.1404653    616.43275  0.084908092  0.086788031            1 
  606000    1.1591308   -3.1093163    615.51359  0.084641583   0.08677069            1 
  607000    1.1610655   -3.1305911    619.50648  0.085050313  0.086753031            2 
  608000     1.156674   -3.1486519    617.31967    0.0846107  0.086734795            2 
  609000    1.1434176   -3.1282866     621.8263  0.085088437  0.086717982            3 
  610000    1.1465683   -3.1180828    623.53189  0.085181951  0.086702612            1 
  611000    1.1622329   -3.1168069    627.21783  0.085545258  0.086688436            1 
  612000    1.1510103   -3.1174057    626.11189  0.085254888  0.086674633            1 
  613000    1.1701322   -3.1378564    628.93968  0.085500228  0.086661507            1 
  614000    1.1731119   -3.1437131     631.3518  0.085688354  0.086650108            1 
  615000    1.1627614   -3.1417144    628.53134  0.085166849  0.086639247            3 
  616000    1.1629993    -3.116129    631.10268  0.085376444  0.086626711            3 
  617000    1.1421403   -3.1416004    632.60937  0.085441568  0.086615085            1 
  618000    1.1328173   -3.1354904    635.40095  0.085679739  0.086604862            1 
  619000    1.1668324   -3.1582619    635.17227  0.085510537  0.086595733            1 
  620000    1.1648453   -3.1274413     638.1036  0.085766613  0.086587092            1 
  621000    1.1784144   -3.1333113    638.82821  0.085725739  0.086578089            3 
  622000    1.1641444   -3.1196241    640.06221  0.085753243  0.086569706            2 
  623000    1.1478845   -3.1127971    641.19898  0.085767654  0.086562426            2 
  624000    1.1408913   -3.1292942    641.84213  0.085716097  0.086554814            3 
  625000    1.1433349   -3.1473985    641.80095   0.08557346  0.086547346            1 
  626000    1.1591067   -3.1133357    647.44319  0.086187858  0.086539564            2 
  627000    1.1375689   -3.1121108    644.50769  0.085660245  0.086533288            1 
  628000    1.1422863   -3.1047809    649.48768  0.086184671  0.086526557            2 
  629000     1.161629   -3.1161267     649.5216  0.086052146  0.086519466            1 
  630000    1.1564839   -3.1143794    647.94994  0.085707664  0.086511754           10 
  631000    1.1338959   -3.1000257    651.64953  0.086060423  0.086504969            2 
  632000    1.1598364   -3.0969216    651.15973  0.085859669  0.086496653            3 
  633000    1.1437531   -3.1660833    647.42579  0.085232463  0.086486798            1 
  634000    1.1463183   -3.1481169    648.73367  0.085269936  0.086477115            2 
  635000    1.1887473   -3.1855832     650.8548  0.085414016  0.086467398            2 
  636000    1.1495241   -3.1207549    651.23361  0.085329351  0.086457333            2 
  637000    1.1793443   -3.1217129    653.98866  0.085555817  0.086448078            1 
  638000    1.1516676   -3.1422927    651.54576  0.085102633  0.086438297            1 
  639000    1.1371747   -3.1222891    657.55655  0.085753332  0.086428157            3 
  640000    1.1280068    -3.144105    659.26589  0.085841913  0.086419209            5 
  641000    1.1264264    -3.139513     657.0947  0.085425728  0.086409556            1 
  642000    1.1408929     -3.12732    659.74592  0.085636801  0.086400026            5 
  643000    1.1326763   -3.1570179    657.56267  0.085220667  0.086390149            1 
  644000    1.1284943   -3.1277781    659.71841   0.08536729  0.086379971            4 
  645000    1.1513817   -3.1419265    664.80019  0.085891498    0.0863708            3 
  646000    1.1752579   -3.1122295    662.90762  0.085514399  0.086362712            3 
  647000    1.1547006   -3.1212796    662.73368  0.085359825  0.086354447            1 
  648000     1.155263    -3.132179    664.52258  0.085458151  0.086345743            4 
  649000    1.1483994   -3.1241245    668.50103  0.085837318  0.086338056            6 
  650000    1.1398539   -3.1286157    668.44301  0.085697822  0.086330163            1 
  651000    1.1370228   -3.1173376    669.69487   0.08572643  0.086322488            2 
  652000    1.1675668    -3.117608    669.88398  0.085619118  0.086314645            2 
  653000    1.1573659   -3.1289028    665.26515  0.084898565   0.08630491            2 
  654000    1.1451215   -3.1296279    670.30047  0.085410355   0.08629509            1 
  655000    1.1680081   -3.1219798    672.44628  0.085552961  0.086285376            2 
  656000     1.150409    -3.109168    672.63711  0.085446787  0.086275358            1 
  657000    1.1465698   -3.1179899    671.96023  0.085230876  0.086265305            2 
  658000    1.1460305   -3.1095039     674.7886  0.085459549  0.086254914            2 
  659000    1.1335729   -3.1388513    675.72066  0.085447732  0.086243946            1 
  660000    1.1361131   -3.1114729    676.42995  0.085407822  0.086233221            1 
  661000    1.1453057   -3.1195595    678.60985  0.085553436  0.086222639            1 
  662000    1.1584701   -3.1318443    677.81039  0.085323564  0.086213073            1 
  663000    1.1364113   -3.1258017    678.98726  0.085342792  0.086203427            2 
  664000    1.1576401   -3.1599136    676.70713  0.084928104  0.086193659            1 
  665000    1.1419389   -3.1565219    680.02758  0.085216489   0.08618377            4 
  666000    1.1489298   -3.1303976    679.92261  0.085075401  0.086173704            1 
  667000    1.1410353    -3.127558    684.07616  0.085466786  0.086163979            1 
  668000    1.1546936   -3.1514075     681.5434  0.085022879  0.086154645            2 
  669000    1.1319119    -3.120115    685.77844  0.085423323   0.08614597            1 
  670000    1.1594015   -3.1399746    685.20487  0.085224487  0.086138517            3 
  671000    1.1504994   -3.1400606    687.59162  0.085393892  0.086130034            5 
  672000    1.1871737   -3.1215212    687.07227  0.085202414  0.086122606            1 
  673000    1.1329097   -3.1465091    690.60033  0.085512671  0.086113703            1 
  674000    1.1405139   -3.1248904    691.44134   0.08548978  0.086104011            1 
  675000    1.1477673   -3.0857573    695.36034  0.085846955  0.086095366            2 
  676000    1.1329885   -3.1571156    691.73202  0.085272685  0.086087154            3 
  677000    1.1432854   -3.1497446    693.53066  0.085368127  0.086078473            1 
  678000     1.152407   -3.1330829    692.09789  0.085066113  0.086069068            3 
  679000    1.1435486   -3.1615318    694.19875  0.085198668  0.086061247            2 
  680000    1.1304792   -3.1022725    698.27473  0.085572883  0.086052749            2 
  681000     1.149964   -3.1495015    694.03544  0.084928467  0.086044866            1 
  682000    1.1310125   -3.1396955    701.14248  0.085672346  0.086037354            3 
  683000    1.1153342   -3.1366738    699.12065  0.085300226  0.086029686            2 
  684000    1.1458977   -3.1281931    703.49162  0.085708043  0.086021881            1 
  685000    1.1491932   -3.1315771    700.53535  0.085223278  0.086013009            3 
  686000    1.1426641   -3.1518881    702.63644  0.085354281  0.086003933            1 
  687000    1.1156978   -3.1399147    703.71042  0.085360313  0.085994545            1 
  688000    1.1592229   -3.1173619    701.65341   0.08498709   0.08598443            2 
  689000    1.1297681   -3.1845137    697.72473  0.084388574  0.085973269            1 
  690000    1.1463221    -3.182017     703.1102  0.084916691  0.085961812            5 
  691000    1.1354037   -3.1634605    702.46528  0.084716025  0.085951207            3 
  692000    1.1359307    -3.132715    706.48194  0.085077305  0.085940314            1 
  693000    1.1369711   -3.1547973    705.19006  0.084799189  0.085930375            2 
  694000    1.1471932   -3.1380834    706.60446  0.084846837   0.08591993            2 
  695000    1.1218388   -3.1350959    710.62153  0.085206419  0.085909793            2 
  696000    1.1511889    -3.122607    710.99094  0.085128225  0.085898969            5 
  697000    1.1677211   -3.1358455    709.76719  0.084859779  0.085888969           11 
  698000    1.1419722   -3.1251457    710.85193  0.084867709   0.08587796            6 
  699000    1.1440457   -3.1581574    707.43681  0.084339152  0.085866435            1 
  700000    1.1402064   -3.1174199    712.23865  0.084790316  0.085854228            1 
  701000    1.1626913   -3.1445246    715.28156  0.085031093  0.085841614            2 
  702000    1.1638179   -3.1514671    711.42998  0.084452752  0.085829808            2 
  703000     1.127244   -3.1227801    715.81413  0.084852315  0.085818646            2 
  704000    1.1470855   -3.1687394    710.97148  0.084158555  0.085806233            2 
  705000    1.1423161   -3.1446594    716.39982   0.08468083  0.085793909            2 
  706000      1.14197   -3.1537133    718.10464  0.084762116  0.085782744            2 
  707000    1.1322553   -3.1363893    717.59113  0.084581699  0.085771394            2 
  708000    1.1533461   -3.1332873    718.56741  0.084577144  0.085759328            1 
  709000    1.1315069   -3.1232131    719.49935   0.08456739  0.085746753            1 
  710000    1.1506922   -3.1781531    721.89084  0.084728972  0.085734439            3 
  711000    1.1321338   -3.1407615    719.07129  0.084279336  0.085720025            1 
  712000    1.1488731   -3.1351417    722.16058   0.08452254  0.085706209            1 
  713000    1.1482079   -3.1387099     721.1541  0.084286361  0.085693389            1 
  714000     1.146279   -3.1645318    721.61948  0.084222628  0.085681613            2 
  715000    1.1532285   -3.1549813    721.61009   0.08410374  0.085668843            3 
  716000    1.1344298   -3.1624459    725.04934  0.084386562  0.085655864            2 
  717000    1.1342406   -3.1432582    725.65612  0.084339391  0.085643465            2 
  718000    1.1314438   -3.1182569    728.03157  0.084497628   0.08563118            2 
  719000     1.137552   -3.1542297    725.26619  0.084059595  0.085618998            1 
  720000      1.15633   -3.1618638    728.91376  0.084365018  0.085606851            2 
  721000    1.1414908   -3.1555713    734.28425  0.084868729  0.085594608            2 
  722000    1.1410675   -3.1527795    730.72131  0.084339948  0.085582474            2 
  723000    1.1370653   -3.1582914    736.74512  0.084917602  0.085571786            1 
  724000    1.1393743   -3.1310994    736.17378  0.084734551   0.08556076            3 
  725000     1.140917   -3.1397757    735.21786    0.0845078  0.085549737            2 
  726000    1.1479892   -3.1405984    735.49551  0.084423267  0.085537544            4 
  727000    1.1040898   -3.1449784    737.78998  0.084570149  0.085526541            1 
  728000    1.1362897   -3.1632041    736.52149  0.084308779  0.085516058            1 
  729000    1.1200905   -3.1933896    737.08971  0.084258083  0.085502931            4 
  730000    1.1302162   -3.1569902    739.32012  0.084397274  0.085491697            4 
  731000    1.1117201   -3.1342813    740.30339  0.084393911  0.085480795            2 
  732000    1.1768677   -3.1544682    741.32066  0.084394428  0.085470043            2 
  733000    1.1327221   -3.1148187    743.40844  0.084516648  0.085458956            2 
  734000    1.1537254   -3.1641573    742.26762  0.084271982  0.085448764            3 
  735000    1.1090282   -3.1374059    746.01495  0.084582193  0.085437338            3 
  736000    1.1688234   -3.1411067    746.16151  0.084483866  0.085426666            3 
  737000    1.1455738   -3.1366398    746.45788  0.084402745  0.085416191            1 
  738000    1.1187592    -3.172666    744.81306  0.084102649  0.085405134            2 
  739000    1.1049656   -3.1536074    747.02926  0.084238753  0.085394236            4 
  740000     1.150951   -3.1560305     753.6587  0.084871475  0.085383629            2 
  741000    1.1561227   -3.1473029    752.71068  0.084650324  0.085373497            3 
  742000    1.1414041   -3.1201888    752.55863  0.084519163   0.08536384            3 
  743000    1.1624175   -3.1561051    752.96186  0.084450635  0.085354348            2 
  744000    1.1458095   -3.1667904    755.77432  0.084652141  0.085344746            3 
  745000    1.1541003   -3.1718286    753.56149  0.084290994   0.08533368            3 
  746000    1.1616078   -3.1561024    756.38305  0.084493192  0.085323523            4 
  747000    1.1388932   -3.1469537    757.83056  0.084541561  0.085314269            4 
  748000    1.1328538   -3.1578531    758.47448  0.084500277  0.085305039            2 
  749000    1.1274439   -3.1432197    759.38392  0.084488643  0.085296578            3 
  750000    1.1082235   -3.1429335    760.84283  0.084538092  0.085288441            2 
  751000    1.1347704   -3.1543101    763.37993   0.08470705  0.085280704            2 
  752000    1.1055092   -3.1565272    760.69979  0.084297406  0.085271336            2 
  753000    1.1239849   -3.1498057    759.87122  0.084093761  0.085261873            3 
  754000    1.1468182   -3.1665833    768.78953  0.084967897  0.085253107            3 
  755000    1.1201353   -3.1697357    763.64383  0.084287398  0.085243415            3 
  756000    1.1047079   -3.1747388    766.72199   0.08451521   0.08523332            1 
  757000    1.1356141   -3.1518779    767.63264  0.084503813  0.085223344            2 
  758000    1.1492649   -3.1154372    766.37154  0.084253687  0.085214413            1 
  759000    1.1338401   -3.1556313    767.13292  0.084226276  0.085204729            2 
  760000    1.1527839   -3.1392185    768.25434  0.084238414  0.085196173            3 
  761000    1.1576986   -3.1669138    770.98001  0.084426195  0.085186692            1 
  762000    1.1125114   -3.1198663     775.4446  0.084803652  0.085178835            3 
  763000    1.1218619   -3.1481461     772.9496  0.084420009  0.085170577            2 
  764000     1.126494   -3.1472399    776.64701  0.084712807  0.085161713            3 
  765000    1.1244518   -3.1716664    774.99392  0.084421995  0.085152402            3 
  766000    1.1461084   -3.1411638    775.93219  0.084413859  0.085143631            1 
  767000    1.1313148   -3.1515897    773.95244  0.084088705  0.085134602            3 
  768000    1.1366142   -3.1646373    777.94137  0.084412041  0.085125039            1 
  769000    1.1220629    -3.158392    780.03403  0.084529045  0.085115639            1 
  770000    1.1417225   -3.1634137    780.26807  0.084444596  0.085105956            2 
  771000    1.1184097   -3.1654173     777.3664  0.084021444  0.085096338            3 
  772000    1.1328394   -3.1720797    780.16082  0.084214251  0.085086292            2 
  773000    1.1111849   -3.1556651    784.42994  0.084565539  0.085077346            3 
  774000    1.1143631   -3.1453874    782.00182  0.084194856  0.085068568            2 
  775000    1.1294919   -3.1524823    786.97739  0.084621225  0.085058529            7 
  776000    1.1289667     -3.15832    784.76356  0.084274438  0.085049112            2 
  777000    1.1383654   -3.1524959    786.35875   0.08433706  0.085039879            1 
  778000    1.1153847   -3.1604661    787.05226  0.084302941  0.085031304            1 
  779000    1.1298928   -3.1485962    788.06513  0.084303073  0.085021895            2 
  780000    1.1491295   -3.1553423    789.65918  0.084365297  0.085013165            1 
  781000    1.1009367   -3.2001002    791.52637  0.084456505   0.08500402            3 
  782000    1.1067435    -3.142785    789.63819  0.084147292  0.084994199            2 
  783000    1.1073422    -3.119225    791.64246  0.084253135  0.084984899            3 
  784000    1.1411868   -3.1670969     789.4048  0.083907823   0.08497544            3 
  785000    1.1391005   -3.2116901    792.76021  0.084157135  0.084966289            2 
  786000    1.1409324   -3.1793946     790.5095  0.083811439  0.084956897            1 
  787000    1.1331852   -3.1299501    795.66598   0.08425095  0.084947335            2 
  788000    1.1126761   -3.1448595    797.64991   0.08435384  0.084938176            2 
  789000      1.14707   -3.1649917    797.45932  0.084226797  0.084928672            2 
  790000    1.0985782   -3.1670833    799.83638  0.084370926  0.084918768            3 
  791000    1.0982528   -3.1660667    794.59349  0.083711915  0.084909312            1 
  792000      1.13493   -3.1606873      801.432  0.084325757    0.0848983            1 
  793000    1.1179131   -3.1788921    799.37231  0.084002975  0.084888182            2 
  794000    1.1029221   -3.1331182    802.32716    0.0842073  0.084878088            3 
  795000    1.1391532   -3.1943774     797.8832  0.083635556  0.084867224            3 
  796000    1.1218869   -3.1850634    804.62695   0.08423649  0.084856187            2 
  797000    1.1314219   -3.1455973    802.24948  0.083882213  0.084846378            1 
  798000    1.1463271   -3.2063276    803.16576  0.083872782  0.084836213            3 
  799000    1.1218653   -3.1747402    804.24507  0.083880379  0.084825484            2 
  800000    1.1224259   -3.1729159    804.67141  0.083819938  0.084814644            2 
  801000    1.0987479    -3.187208    807.00356  0.083957924  0.084804541            1 
  802000    1.1111092   -3.1501322     809.5231  0.084115035  0.084795316            2 
  803000     1.113905   -3.1997185    809.25248    0.0839822  0.084786036            5 
  804000    1.1461372   -3.1641843    813.17447  0.084284252  0.084776373            3 
  805000    1.1336995   -3.1660391    809.17522  0.083765551  0.084766659            1 
  806000    1.1271387   -3.1462017    818.87857  0.084664865  0.084756794            2 
  807000    1.1115639   -3.1728846    814.23246  0.084080179  0.084747506            4 
  808000    1.1049307   -3.1520382    813.33117  0.083883165  0.084738825            1 
  809000    1.1357169   -3.1799499    814.23079  0.083872146  0.084729286            2 
  810000    1.1160705    -3.171832    818.55067  0.084213032  0.084721079            2 
  811000      1.11068   -3.1553423    817.86469  0.084038706  0.084710991            1 
  812000    1.1365428   -3.1784741    821.83622  0.084342797  0.084702006            2 
  813000    1.1349019    -3.197512    819.45226  0.083994697  0.084693043            1 
  814000    1.1319021   -3.1481246    820.91833  0.084041598  0.084684594            4 
  815000    1.1119673   -3.1783232    825.66518  0.084423842  0.084676533            4 
  816000    1.1098905   -3.1695087    822.70943  0.084018528  0.084669104            2 
  817000    1.1172865   -3.1539862    824.66409  0.084115064  0.084660758            2 
  818000    1.1480479   -3.1410252    828.19371  0.084371812  0.084654063            1 
  819000    1.1217696   -3.1585298    827.65126    0.0842136  0.084646492            3 
  820000    1.1317398   -3.1694736    830.75486  0.084426306  0.084638903            1 
  821000    1.1083612   -3.1361803    831.95183  0.084444968  0.084631441            1 
  822000    1.1330005   -3.1516529    830.88417     0.084234  0.084624546            4 
  823000    1.1338477   -3.1736786    831.93984  0.084238542   0.08461735            1 
  824000    1.1236223   -3.1701239    832.76787  0.084220052  0.084610438            2 
  825000    1.1220052   -3.1544033    833.63251  0.084205304  0.084603752            2 
  826000    1.1288982   -3.1685955      833.833  0.084123587  0.084596704            3 
  827000    1.1144893    -3.188085    837.24539  0.084365718  0.084589059            3 
  828000    1.1207233   -3.1614525    833.59057  0.083895991  0.084580918            1 
  829000     1.102945   -3.1778517    833.96789  0.083832719  0.084572965            2 
  830000    1.1168649   -3.1837267    835.66075  0.083901682  0.084564588            1 
  831000    1.1342253   -3.1610272    835.87556  0.083822258  0.084556401            2 
  832000    1.1311457   -3.1250418    839.92302  0.084126905  0.084548573            2 
  833000    1.1092795   -3.1679993    842.21559  0.084255261  0.084541041            2 
  834000    1.1522096   -3.1836932    841.15285  0.084048047  0.084533167            2 
  835000     1.116653     -3.18966    841.94781  0.084026727  0.084525402            3 
  836000    1.1468555   -3.1468087    844.67631  0.084198197  0.084517818            3 
  837000    1.1286508   -3.1800299    842.13648  0.083844731  0.084510663            2 
  838000    1.1033374   -3.1814666    844.60571  0.083990226  0.084502835            1 
  839000    1.1045529   -3.1662775    845.09962  0.083939176  0.084495237            3 
  840000    1.1021194   -3.1714475    847.76317  0.084103489  0.084487331            1 
  841000    1.1191413   -3.1860162    849.24744  0.084150559  0.084480753            1 
  842000    1.1101176   -3.1556322    850.94623  0.084218748  0.084475208            3 
  843000    1.1348387   -3.1700525    852.29364   0.08425204  0.084468925            6 
  844000    1.0844042    -3.161244    852.38858   0.08416159  0.084462376            1 
  845000    1.1370532   -3.1736927    853.51709  0.084173283  0.084455759            2 
  846000    1.1207796   -3.1868638    855.38756  0.084258034  0.084448378            2 
  847000    1.1320952    -3.185836    854.44676  0.084065994  0.084440841            1 
  848000     1.102412   -3.1826138    854.86011  0.084007479  0.084432047            2 
  849000    1.1002495   -3.1871364    856.56055  0.084075437  0.084424568            1 
  850000    1.1243922    -3.189721    856.50657  0.083971232  0.084417198            2 
  851000    1.1250159   -3.1859423    856.75768  0.083897148  0.084410452            1 
  852000    1.1513003   -3.1669221    856.97574  0.083820006  0.084403403            1 
  853000    1.1197756   -3.2058669    856.93963  0.083718213  0.084395838            1 
  854000    1.1418308   -3.1731027    860.66046  0.083983261  0.084388852            2 
  855000    1.1397418   -3.1678776    864.44371  0.084253773  0.084382755            3 
  856000    1.1146384   -3.1642564    866.98778  0.084403016  0.084377227            4 
  857000    1.1109574   -3.1858995    865.60495  0.084170065  0.084372503            1 
  858000    1.1333755    -3.171623    865.06081  0.084019115  0.084367056            2 
  859000    1.1113731   -3.1623726    868.78638   0.08428273  0.084361381            2 
  860000    1.1167976    -3.156903    872.89308  0.084582662  0.084356666            2 
  861000    1.1356963    -3.175664    874.41019  0.084631261  0.084352003            4 
  862000    1.1311081   -3.1745369    872.93848  0.084390804  0.084346548            1 
  863000    1.1031674   -3.1593175    871.45264  0.084149541  0.084340714            1 
  864000    1.1035947   -3.1786698    875.72996  0.084464695  0.084335004            2 
  865000    1.1109817   -3.1720949    872.28822  0.084035474  0.084329069            2 
  866000    1.1188177   -3.1958021    873.87323  0.084090957  0.084323199            3 
  867000    1.1126842   -3.1885964    875.00579  0.084102825  0.084318072            5 
  868000    1.1446986   -3.1830467    876.94751  0.084192349  0.084313121            2 
  869000    1.1014101   -3.1923081    879.65012  0.084354634  0.084309313            1 
  870000    1.1230762   -3.1726848    879.90681  0.084282261  0.084305577            1 
  871000    1.1189471   -3.1871225    879.95037  0.084189664  0.084300902            1 
  872000    1.1151689   -3.1722624    879.20547  0.084021929  0.084295779            1 
  873000    1.0995608   -3.1796316     879.8337  0.083985653  0.084290597            2 
  874000    1.1039854   -3.2107637    882.77077    0.0841696  0.084284813            3 
  875000    1.1078335   -3.1790372    885.23454  0.084308051  0.084279684            2 
  876000    1.0909502   -3.1979507    886.42822  0.084325363  0.084274151            2 
  877000    1.0933469   -3.1725807    883.55575  0.083956267  0.084268695            1 
  878000    1.1224005    -3.250097    881.59696   0.08367473  0.084261865            2 
  879000    1.1284988   -3.1944614    882.56849  0.083671643  0.084255101            4 
  880000    1.1025251   -3.1841593     888.1834  0.084108276    0.0842483            1 
  881000    1.1238082   -3.2161828    888.16661   0.08401122  0.084241805            1 
  882000    1.1130208   -3.1746097    886.34348  0.083743715  0.084235331            4 
  883000     1.108747   -3.2004511    888.72954   0.08387406  0.084228311            2 
  884000    1.0937675   -3.1909378    889.45942  0.083847985  0.084222492            2 
  885000     1.111247   -3.2124715    891.82828  0.083976298  0.084215906            5 
  886000    1.1228115   -3.2065958     890.6785  0.083773373  0.084209192            2 
  887000    1.1084204   -3.1924804    892.49769  0.083849839   0.08420159            2 
  888000    1.1058386   -3.1864195     887.2225   0.08326037  0.084194555            3 
  889000    1.0904819   -3.1958822    893.06611  0.083714484  0.084186667            3 
  890000    1.1197683    -3.186678    894.29298  0.083735298  0.084178764            2 
  891000    1.1120292   -3.1792287    894.14985  0.083627932  0.084170727            1 
  892000    1.1075464   -3.1999002     894.9406  0.083608053  0.084162062            2 
  893000    1.1187373    -3.161669     895.4849  0.083565221  0.084153657            5 
  894000     1.145763   -3.1974749     898.0532  0.083711148  0.084145476            2 
  895000    1.1228572   -3.1902205    899.71066  0.083771942  0.084137184            4 
  896000    1.1207504   -3.2076009    899.72974  0.083680221  0.084128875            2 
  897000    1.0995084   -3.2160815    897.62819  0.083391693  0.084119777            2 
  898000    1.1144913    -3.189879    898.50476  0.083380174  0.084110367            3 
  899000    1.1160358   -3.1717889    906.29747  0.084009776  0.084102272            2 
  900000    1.1319731   -3.1521495    902.39439  0.083555036  0.084093955            1 
  901000     1.112571   -3.1940401    901.32466  0.083363361   0.08408458            4 
  902000    1.0858641   -3.1866926    903.20442  0.083444606  0.084075641            2 
  903000    1.0941326   -3.1884673    902.62109  0.083298366  0.084066147            4 
  904000    1.1230064   -3.1736359    904.56723  0.083385622  0.084056455            2 
  905000    1.1201228   -3.1948303    906.44507  0.083466397  0.084046666            2 
  906000    1.0903405   -3.2014427    904.90324  0.083232454  0.084036158            3 
  907000    1.0765909   -3.2144082    904.94782  0.083144783  0.084025665            1 
  908000    1.1034254   -3.1562556     908.2097  0.083352578  0.084016019            2 
  909000    1.0932537   -3.1884792    904.89117  0.082956653  0.084006225            2 
  910000    1.1217876   -3.1755954    907.71696  0.083124264  0.083996432            2 
  911000    1.1248002   -3.1624781    912.49973   0.08347052    0.0839865            3 
  912000    1.1124393     -3.17397    911.50935  0.083288501  0.083976814            1 
  913000    1.1006215   -3.1832975    913.54926  0.083383466  0.083966626            4 
  914000    1.0985557   -3.1889034    913.01117  0.083243178  0.083957182            1 
  915000    1.0818967   -3.2028409    914.07032  0.083248663  0.083946341            4 
  916000    1.1073391   -3.1795201    913.90009  0.083142293   0.08393602            2 
  917000    1.1073678   -3.1759502    915.73628  0.083218492  0.083926307            3 
  918000    1.0971855   -3.1928311    917.62068    0.0832989  0.083915927            1 
  919000    1.1150236   -3.1921781     916.3709  0.083094931  0.083904847            2 
  920000    1.1100945   -3.2030722    919.18201   0.08325924   0.08389345            2 
  921000    1.1124217   -3.2026471     917.3704  0.083004922  0.083881793            2 
  922000    1.0905326   -3.1896489    919.67064  0.083122798  0.083869868            2 
  923000    1.1234354   -3.1670005    919.83707  0.083047767  0.083858588            2 
  924000    1.0975822   -3.1854152    919.29457  0.082908962  0.083846578            3 
  925000     1.121163   -3.1626487    919.85772  0.082870065  0.083835236            3 
  926000    1.1166862   -3.1784792     921.7851  0.082954023  0.083823765            3 
  927000    1.0731852   -3.2222451     920.2945  0.082730537  0.083811091            2 
  928000    1.0967021   -3.1941464    921.97691  0.082792467  0.083799381            1 
  929000    1.1048788   -3.1826402    923.35045  0.082826557  0.083787344            1 
  930000    1.1283911   -3.1776638    925.16095  0.082899727  0.083774415            3 
  931000     1.093444   -3.1999982    923.13503  0.082629344  0.083761685            1 
  932000    1.0943418   -3.1915889    926.08722  0.082804651  0.083748571            1 
  933000    1.1043333   -3.2010733    922.05096  0.082355391  0.083735608            2 
  934000    1.1037154   -3.1988871    926.90571  0.082700366  0.083722331            2 
  935000    1.1007228   -3.2042955     923.6931  0.082325589  0.083709649            3 
  936000     1.103279   -3.2036947    924.88236  0.082343515  0.083696914            2 
  937000    1.1050397   -3.1883833    928.95544   0.08261788  0.083683667            3 
  938000    1.1074591   -3.1887418    930.92576  0.082704847  0.083671006            2 
  939000    1.0866427   -3.1696367    927.77827   0.08233744  0.083657322            2 
  940000    1.0741268   -3.1999289    929.34148  0.082388429  0.083643355            1 
  941000     1.092665   -3.1839959    932.37459  0.082569482  0.083630326            2 
  942000    1.0911965   -3.1833847    928.53858  0.082142479  0.083616405            2 
  943000    1.0950737   -3.1781676    934.32199  0.082566453  0.083601828            2 
  944000    1.1099413   -3.2056629    930.93398  0.082179907  0.083588283            3 
  945000    1.1105376   -3.1795692    937.37046  0.082660534  0.083574536            3 
  946000    1.0960455   -3.1907081    937.17979  0.082556359  0.083561165            4 
  947000    1.1073811   -3.1782793    935.59644  0.082329852  0.083547211            1 
  948000    1.1157797   -3.1664973    935.90972  0.082270545  0.083533583            3 
  949000    1.0991283   -3.2195179    933.49128  0.081971485  0.083519615            2 
  950000    1.1031271   -3.2323148    935.91166  0.082097514  0.083505117            1 
  951000    1.1033352   -3.2061231    940.06958  0.082375532  0.083491349            2 
  952000    1.0863893   -3.2110854    938.74598  0.082173142  0.083477912            2 
  953000    1.1019394   -3.1744904    940.25261  0.082218661  0.083464524            4 
  954000    1.0909872   -3.2021851    940.69572  0.082171185  0.083450279            3 
  955000    1.0882002   -3.2007523    938.80446   0.08192011  0.083436505            1 
  956000    1.1092321    -3.187846    940.70134  0.081999768  0.083422102            2 
  957000    1.0977245   -3.2108738    943.84081  0.082187461    0.0834079            2 
  958000    1.1078765   -3.2164607    941.15795  0.081868298  0.083393769            5 
  959000     1.112059   -3.2005361    945.77754  0.082184353  0.083379218            2 
  960000    1.1085996   -3.2009453    947.22249  0.082224174  0.083364006            2 
  961000    1.1075481   -3.1855202    942.16828  0.081700336  0.083348971            2 
  962000    1.1259283   -3.1947274     943.3178  0.081714986  0.083334085            1 
  963000    1.0964454   -3.2116436    941.67604  0.081488061  0.083318088            1 
  964000    1.1053938   -3.1659832     945.5185  0.081735693  0.083302272            1 
  965000    1.1029945   -3.2048409    946.51015  0.081736628  0.083287188            1 
  966000     1.081316    -3.212627    947.38542   0.08172752  0.083272426            2 
  967000    1.0979099   -3.1901543    947.47251   0.08165051  0.083257163            2 
  968000    1.0955628   -3.2015418     949.1965  0.081714574  0.083242751            3 
  969000    1.1018227   -3.1792866    955.02601   0.08213158  0.083227936            3 
  970000    1.0799884   -3.2027344    952.64403  0.081842271   0.08321292            2 
  971000    1.0663076   -3.1604827    951.96613  0.081699805  0.083197482            3 
  972000    1.1129383   -3.1775446    953.08188  0.081711409  0.083182786            1 
  973000    1.0743858   -3.2257258    953.35815  0.081651092  0.083168237            3 
  974000    1.0835018   -3.2162001    953.90559  0.081614099  0.083153896            2 
  975000    1.1178882   -3.2100977    957.97918  0.081878562  0.083139916            1 
  976000    1.0743165   -3.1998111    957.61002  0.081763151  0.083126255            1 
  977000    1.1035173   -3.1965666    963.42765  0.082175678  0.083112984            2 
  978000    1.0987201   -3.2093218    958.72363  0.081690834  0.083099057            2 
  979000    1.1080382   -3.1827761    963.75796  0.082035918  0.083085276            2 
  980000    1.1034658   -3.1928095    960.87819  0.081707329  0.083071752            1 
  981000    1.0986559   -3.1917096    957.53931   0.08134041  0.083057803            4 
  982000    1.1001047   -3.1934691    968.04097  0.082148759  0.083044757            2 
  983000    1.0943523    -3.203997    964.83381  0.081793304  0.083029928            2 
  984000    1.0960668   -3.1919382    964.10659  0.081648594    0.0830155            2 
  985000    1.0819888   -3.1698161    968.03695  0.081898219  0.083001717            2 
  986000    1.0728488   -3.2011167    965.71478  0.081618896  0.082986918            2 
  987000    1.0987414   -3.2079853    961.38719   0.08117082  0.082972788            2 
  988000    1.1089092    -3.212894    965.44968  0.081431316  0.082957761            4 
  989000    1.0679902   -3.1821015    969.28524  0.081672164  0.082942494            3 
  990000    1.1076423   -3.2238901    965.47113  0.081268614  0.082927886            2 
  991000    1.1010676   -3.2079237     971.4394  0.081688479    0.0829135            7 
  992000       1.0851   -3.1722069    972.06493  0.081658681  0.082898834            3 
  993000    1.0732959   -3.1957894    971.74946  0.081549972  0.082884427            2 
  994000    1.1105041    -3.208987    970.11273  0.081330711  0.082869473            3 
  995000    1.0916359   -3.2099377    971.09662  0.081331375  0.082853469            2 
  996000    1.1007314   -3.1929519    970.24149   0.08117817  0.082838149            2 
  997000    1.0908943   -3.2056632    974.65475  0.081465626  0.082822248            1 
  998000     1.096452   -3.1943349    977.93787  0.081658139  0.082807601            4 
  999000     1.107359   -3.2053609      978.091  0.081589172  0.082792003            1 
 1000000    1.0909576   -3.2225187    976.30841  0.081359034  0.082777056            2 
 1001000    1.0820766   -3.1594384      978.235  0.081438146  0.082761831            1 
 1002000    1.1007471    -3.200131    978.56703  0.081384484   0.08274676            3 
 1003000    1.0826205   -3.2152793     972.9455  0.080836283   0.08273175            2 
 1004000    1.0595772   -3.2257759    977.50023  0.081133817  0.082715912            1 
 1005000    1.0865886   -3.1543484    982.38433   0.08145807  0.082700283            2 
 1006000    1.0876871   -3.2027085    982.45662  0.081383086  0.082684152            2 
 1007000    1.0978133   -3.2114308    979.98709  0.081097905  0.082668119            2 
 1008000    1.0719825   -3.1896965    984.71886  0.081408636  0.082653037            3 
 1009000    1.0910008   -3.2064625     978.3623  0.080802965  0.082637708            2 
 1010000    1.0806662   -3.2159506    983.17799  0.081120296  0.082622292            4 
 1011000    1.1111529   -3.1774042    984.00607  0.081108314  0.082606546            1 
 1012000    1.0807299   -3.1884493    986.27822  0.081215269  0.082591148            2 
 1013000    1.0918235   -3.2216143    988.58031  0.081324475  0.082575954            2 
 1014000     1.101746    -3.186643     987.5367  0.081158506  0.082560516            2 
 1015000    1.0961942   -3.2256348    990.57368  0.081327888  0.082545589            2 
 1016000    1.0920592   -3.2069346    992.48972  0.081404997  0.082530662            2 
 1017000    1.0956882   -3.2072535    990.12725  0.081131371  0.082514988            3 
 1018000     1.088471   -3.1903876    989.23561  0.080978685   0.08249927            4 
 1019000    1.1124561   -3.2056644    994.41553  0.081322827  0.082483622            3 
 1020000    1.1110008   -3.1948152    996.05099  0.081376715  0.082468582            2 
 1021000    1.1039505   -3.2283997    991.86854  0.080955643  0.082453652            2 
 1022000    1.0908815   -3.1995623     991.3577  0.080834777  0.082439049            2 
 1023000    1.0928111   -3.2107497    994.09787  0.080978972  0.082423521            3 
 1024000    1.0868109   -3.2045162    996.13966  0.081066053  0.082407878            3 
 1025000    1.0759798   -3.1898478    997.09418  0.081064567  0.082393004            3 
 1026000    1.0903528   -3.2242807    995.12141  0.080825325  0.082377196            3 
 1027000    1.0940542   -3.2331656    994.23727  0.080674884  0.082360456            3 
 1028000    1.0773493   -3.1825302    999.50781  0.081023655  0.082345045            3 
 1029000    1.1041298   -3.2646712    996.10586  0.080669409  0.082329307            2 
 1030000    1.1111874   -3.2490264    998.42655  0.080778847  0.082313893            2 
 1031000      1.07431   -3.1793953    998.43707  0.080701348  0.082298606            1 
 1032000    1.0869566   -3.2083908    1001.0645  0.080835309  0.082282906            4 
 1033000    1.0885607   -3.2144664    999.67996  0.080645366  0.082266085            3 
 1034000    1.0707507   -3.2100305     997.3201  0.080377184  0.082249442            6 
 1035000    1.0785729   -3.2185019    1000.1357  0.080526223  0.082232398            3 
 1036000    1.0857621   -3.1869259    1003.2033  0.080695246  0.082215198            4 
 1037000    1.0844494   -3.2094857      1000.99  0.080439572  0.082198481            3 
 1038000    1.1090572   -3.2332782    999.28569  0.080225248  0.082181699            2 
 1039000    1.1034546   -3.1943593    1002.0846  0.080372521  0.082164872            2 
 1040000    1.0859037   -3.2386103    1000.0942  0.080135754   0.08214752            2 
 1041000    1.1119696   -3.1987108    1001.8164  0.080196634  0.082129812            3 
 1042000    1.1060347   -3.2249969    1005.1472  0.080386054  0.082112839            2 
 1043000    1.0879054   -3.2339741    1008.2195  0.080554451  0.082095552            3 
 1044000    1.0830618   -3.1788407    1009.7302  0.080597878  0.082078844            1 
 1045000    1.0751571   -3.1840586    1009.6151  0.080511569  0.082061884            2 
 1046000    1.0855804   -3.2075742    1005.8649  0.080135831  0.082044736            3 
 1047000    1.0809144   -3.2246443    1009.6228  0.080358387  0.082027499            2 
 1048000    1.0872744   -3.2268949    1011.1606  0.080403994  0.082010118            2 
 1049000    1.0925219   -3.2279026     1013.978   0.08055116   0.08199284            2 
 1050000    1.0735897   -3.2417878    1010.2192  0.080176124   0.08197563            1 
 1051000      1.09468   -3.2371987    1007.9934  0.079923361  0.081957914            2 
 1052000    1.0916202   -3.2136458    1013.9245   0.08031721  0.081940851            1 
 1053000     1.097084   -3.2112122    1014.2566  0.080267219  0.081924204            2 
 1054000    1.1037075   -3.2114819    1016.8468  0.080395858  0.081908312            3 
 1055000    1.1064485   -3.2394641    1015.9627  0.080249816  0.081892453            3 
 1056000    1.1039042   -3.1911375    1021.3453  0.080598584  0.081876993            2 
 1057000    1.0776043   -3.1930026    1020.1997  0.080432021  0.081862422            2 
 1058000    1.0706533   -3.2508532     1022.953   0.08057286  0.081847477            2 
 1059000    1.0742986   -3.2248301    1017.5248  0.080069623  0.081832324            2 
 1060000    1.0866172   -3.2361957    1022.6001  0.080393088    0.0818171            2 
 1061000    1.1040243   -3.2776062     1021.451  0.080227066  0.081801642            3 
 1062000    1.0844747   -3.2347201    1026.1027  0.080516532  0.081785684            1 
 1063000    1.0695416   -3.1938903       1027.9  0.080581684  0.081769897            2 
 1064000    1.0577149   -3.1986533    1027.7717  0.080495904  0.081754469            1 
 1065000    1.0899308   -3.2073449    1024.2088  0.080141533  0.081739285            1 
 1066000    1.0966778   -3.2325286    1028.7775   0.08042351  0.081723316            3 
 1067000    1.0664876   -3.2144107    1030.5703   0.08048815  0.081707906            2 
 1068000    1.0886025    -3.218988    1028.7157  0.080268081  0.081693037            2 
 1069000    1.0630073   -3.2378851    1032.8879  0.080518234   0.08167899            2 
 1070000    1.1110965   -3.2358033    1037.7997  0.080825518  0.081665172            2 
 1071000    1.0622814   -3.2311372    1032.8189  0.080362505  0.081651451            2 
 1072000    1.0917875   -3.1863023    1035.6446    0.0805072  0.081637187            2 
 1073000    1.0689055   -3.2312188    1036.3987  0.080490733  0.081623192            4 
 1074000    1.0455629   -3.2151476    1036.5162  0.080424908  0.081608319            3 
 1075000     1.066031   -3.2156914    1042.3089  0.080799136  0.081594809            2 
 1076000    1.0718915   -3.2147498     1035.572  0.080202295  0.081580778            2 
 1077000    1.0768108   -3.2157307    1042.2889  0.080647544  0.081567097            2 
 1078000    1.0758867   -3.2439737    1037.5376  0.080205445  0.081553737            1 
 1079000    1.0940377   -3.2259667     1041.298   0.08042153  0.081540247            3 
 1080000    1.1044255   -3.2303171    1047.2131  0.080803482  0.081526394            1 
 1081000    1.0983325   -3.2212178    1042.4912  0.080364726  0.081513057            2 
 1082000     1.076505   -3.2534835    1044.7968  0.080468019  0.081500117            5 
 1083000    1.0694471   -3.2485272    1048.6176  0.080687721  0.081487138            1 
 1084000    1.0658144    -3.219034    1048.1674  0.080578674  0.081474323            3 
 1085000    1.1032601   -3.2335832    1049.6712  0.080619911  0.081461545            1 
 1086000    1.0656382   -3.2300746    1048.9025  0.080486685  0.081448854            3 
 1087000    1.0740778   -3.2311463    1049.3993  0.080450731  0.081436191            1 
 1088000    1.0895294   -3.2176732    1050.6096  0.080469485  0.081423206            2 
 1089000    1.0690726   -3.2005922    1050.9537  0.080421922  0.081410612            1 
 1090000    1.0793954   -3.2310176    1052.0688  0.080433397  0.081397406            1 
 1091000    1.0808359   -3.2538581    1049.1253  0.080134835  0.081383901            2 
 1092000    1.0776669   -3.2288073    1059.7482  0.080872118  0.081370419            3 
 1093000    1.0810074   -3.2284265    1058.5181  0.080704336  0.081357569            1 
 1094000    1.0895703   -3.2321197    1055.2355   0.08038052  0.081344289            2 
 1095000    1.0641431   -3.2201767    1059.7414  0.080650027  0.081331234            2 
 1096000    1.0496679   -3.2360882    1055.7209  0.080270751  0.081318169            1 
 1097000    1.0970499   -3.2101144    1060.7342  0.080578413  0.081305051            4 
 1098000    1.0553649   -3.2193845    1060.4741  0.080485282  0.081292569            5 
 1099000    1.1270581   -3.2083442    1061.4123  0.080483186   0.08127956            3 
 1100000    1.0701292   -3.2454746    1057.7273  0.080130854  0.081266341            3 
 1101000    1.0897706   -3.2267576    1058.0443  0.080082068   0.08125227            1 
 1102000    1.0864734   -3.2389803    1062.4173  0.080340086  0.081239087            5 
 1103000    1.0823396   -3.2007671     1066.104  0.080545784   0.08122573            1 
 1104000    1.0719361   -3.2251157    1063.6519  0.080287731  0.081212386            3 
 1105000    1.0892392   -3.2237713    1061.4964  0.080052518  0.081198597            2 
 1106000    1.0683375   -3.2172018    1065.3104  0.080267509  0.081185095            2 
 1107000    1.0522428   -3.2188902    1063.4299  0.080053442  0.081171604            3 
 1108000    1.0866757    -3.234927      1072.23  0.080643052   0.08115904            2 
 1109000    1.0953878   -3.2453325    1065.9387  0.080097585  0.081146648            3 
 1110000    1.0866491   -3.2288349    1069.4012  0.080285374  0.081133701            1 
 1111000    1.0812212   -3.2249528    1064.9758  0.079881175  0.081120826            2 
 1112000    1.0567357    -3.225742    1070.0227  0.080187549  0.081107735            1 
 1113000    1.0842631   -3.2481315    1069.9921  0.080113218  0.081095063            3 
 1114000    1.0539753   -3.1998009    1070.7753   0.08009989  0.081082328            3 
 1115000     1.073082   -3.2102149      1073.53  0.080233933  0.081069877            1 
 1116000    1.0679476   -3.2224017     1076.342  0.080372012  0.081057672            2 
 1117000    1.0783527   -3.2376035    1072.8871  0.080042306  0.081045488            3 
 1118000     1.086913   -3.2174552    1075.0255  0.080130106  0.081033252            3 
 1119000    1.0501077   -3.2050942    1078.8493  0.080343262  0.081020844            2 
 1120000    1.0994567   -3.2061375     1079.039  0.080285638  0.081008675            1 
 1121000    1.0699223   -3.2163032    1079.2502  0.080229719  0.080996076            8 
 1122000    1.0536047   -3.1949538    1080.5501  0.080254761  0.080984069            1 
 1123000     1.061145   -3.2366881    1074.4435  0.079730149  0.080971298            2 
 1124000    1.0880571   -3.2197758    1083.6872  0.080344545  0.080958212            3 
 1125000    1.0640824   -3.2371191    1082.0237    0.0801499  0.080945604            3 
 1126000    1.0739961   -3.2330312    1079.3267  0.079879124  0.080933459            4 
 1127000    1.0586616   -3.2102668    1082.3707  0.080033323  0.080920807            4 
 1128000     1.093306   -3.2254953    1083.4957  0.080045487  0.080908222            3 
 1129000    1.0694603   -3.2227768    1085.9794  0.080157912  0.080896559            1 
 1130000    1.0555073   -3.2084907    1087.8537  0.080225198  0.080884609            2 
 1131000    1.0850206   -3.2502441    1087.2136  0.080107104  0.080872538           11 
 1132000    1.0880032    -3.226643    1086.5282   0.07998588  0.080860604            2 
 1133000      1.05581   -3.1862271    1092.6335  0.080364337  0.080848627            2 
 1134000    1.0554083    -3.233316    1088.5777  0.079995422  0.080836554            2 
 1135000    1.0694534   -3.2127425    1095.0407  0.080399467   0.08082407            1 
 1136000    1.0824511     -3.23156    1091.7193  0.080085042  0.080811472            3 
 1137000    1.0795233   -3.2310022    1094.2308  0.080198679  0.080799028            5 
 1138000    1.0516451   -3.2285705    1092.4463  0.079997532    0.0807864            1 
 1139000    1.0595643   -3.2174003    1094.5792   0.08008335  0.080773317            2 
 1140000    1.0729272   -3.2435996    1093.6588  0.079945818  0.080760508            2 
 1141000    1.0588078   -3.2281764    1091.3334  0.079705917  0.080747468            3 
 1142000     1.065832   -3.2310533    1094.4602  0.079864285  0.080734992            3 
 1143000     1.058495   -3.2460881    1096.4906  0.079942446  0.080721678            1 
 1144000    1.0791219   -3.2550944    1093.9799  0.079689681  0.080708102            2 
 1145000    1.0338234   -3.2244867    1100.1488  0.080069053  0.080695048            2 
 1146000     1.068577   -3.2294723     1094.813  0.079611186  0.080681772            4 
 1147000     1.043484   -3.2311129    1098.6413  0.079819911  0.080668163            1 
 1148000    1.0716696   -3.2425506    1097.8389  0.079692139  0.080654874            4 
 1149000    1.0634023   -3.2230416    1102.1522  0.079935613  0.080641563            3 
 1150000    1.0716906   -3.2359161    1095.3168  0.079370779  0.080627945            3 
 1151000    1.0480548    -3.241201    1098.3065  0.079518281  0.080613806            2 
 1152000    1.0600272   -3.2167542    1105.8004  0.079991347  0.080601052            1 
 1153000    1.0834985    -3.202784    1099.0665  0.079435281  0.080588184            2 
 1154000    1.0813998   -3.2486251    1103.9724   0.07972071  0.080574727            2 
 1155000    1.0701529   -3.2245866    1106.3093  0.079820297  0.080561004            4 
 1156000    1.0586138   -3.2466307    1103.3788  0.079539994  0.080547506            5 
 1157000    1.0594454   -3.2542483    1103.8717  0.079506745  0.080533859            2 
 1158000    1.0437053   -3.2324525    1108.0826  0.079741117   0.08052057            3 
 1159000    1.0808447   -3.2318914     1105.786  0.079507187  0.080506878            3 
 1160000    1.0482845   -3.2079759    1110.7591  0.079795915  0.080493433            5 
 1161000    1.0743298   -3.2253988    1104.9375  0.079309323  0.080479422            2 
 1162000    1.0265906   -3.2519434    1108.2652  0.079479721  0.080465011            2 
 1163000    1.0949711   -3.2218115    1103.7869  0.079090494  0.080450691            3 
 1164000    1.0736087   -3.2291716    1112.3014  0.079632117   0.08043668            2 
 1165000    1.0778182   -3.2398045    1112.4049  0.079571167  0.080422221            3 
 1166000    1.0784185   -3.2738343    1105.4372  0.079004943  0.080407299            2 
 1167000    1.0633108   -3.2377556    1107.0556  0.079052817  0.080393108            2 
 1168000    1.0548425   -3.2849217    1108.5417   0.07909116  0.080378817            2 
 1169000    1.0745369   -3.2277787    1114.1839  0.079425714  0.080363943            3 
 1170000    1.0552091   -3.2757567     1107.721  0.078897507  0.080349114            4 
 1171000     1.093863   -3.2544457    1112.0018  0.079134771  0.080334696            1 
 1172000    1.1029223   -3.2202903    1113.8578  0.079199218    0.0803205            6 
 1173000    1.0745192   -3.2643741    1113.2861  0.079091081  0.080306437            2 
 1174000    1.0786983   -3.2469519    1116.5501  0.079255403  0.080293189            3 
 1175000    1.0497304   -3.2615243    1121.7339  0.079555594  0.080279266            2 
 1176000    1.0731776   -3.2385806    1118.6929  0.079272459   0.08026538            1 
 1177000    1.0928463   -3.2294829    1123.1732  0.079522316  0.080251163            1 
 1178000    1.0747152   -3.2496842     1122.213  0.079386883  0.080237324            2 
 1179000    1.0333544   -3.2478481    1122.8782  0.079366567  0.080223662            1 
 1180000    1.0687692    -3.246705     1125.115  0.079457275  0.080210487            3 
 1181000    1.0732496   -3.2625946    1125.3099  0.079403749  0.080197217            1 
 1182000    1.0492975   -3.2639008    1123.0266   0.07917559  0.080183575            2 
 1183000    1.0650894   -3.2345774    1130.9483   0.07966669  0.080170572            4 
 1184000    1.0550596   -3.2244296    1128.5955  0.079433805  0.080157041            3 
 1185000    1.0539481   -3.2492692    1123.7324  0.079024784  0.080143271            2 
 1186000    1.0602592   -3.2726643    1128.5859  0.079299179  0.080129868            2 
 1187000    1.0703902   -3.2272705    1126.5126  0.079086817  0.080116531            3 
 1188000    1.0709456   -3.2495707    1129.1524  0.079205416  0.080102492            1 
 1189000     1.077208   -3.2576184     1132.652  0.079384075  0.080088887            1 
 1190000    1.0827484    -3.236359    1130.9791  0.079200214  0.080075574            2 
 1191000    1.0425508   -3.2735148    1123.8853  0.078637369  0.080061982            3 
 1192000    1.0731463   -3.2691376    1133.9821  0.079277273  0.080047755            1 
 1193000    1.0715533     -3.24556    1136.3477  0.079376058  0.080034262            3 
 1194000    1.0630875   -3.2528248    1132.6489   0.07905143  0.080020445            6 
 1195000     1.052077   -3.2455056    1132.9031  0.079003002  0.080006066            5 
 1196000    1.0902896   -3.2192705    1134.0744  0.079018562  0.079992322            2 
 1197000    1.0548043   -3.2478768    1132.4642  0.078840448  0.079978317            1 
 1198000    1.0672777   -3.2527453    1134.1538  0.078892166  0.079963527            4 
 1199000    1.0789134   -3.2468823    1133.6004  0.078787909  0.079948675            5 
 1200000    1.0542629   -3.2437662    1133.3347  0.078703801  0.079934623            2 
 1201000    1.0470609   -3.2381751    1135.8101  0.078810027  0.079920255            3 
 1202000    1.0698447   -3.2427648    1133.3875  0.078576503  0.079905894            2 
 1203000    1.0809078   -3.2268824    1139.4725    0.0789327  0.079891095            2 
 1204000    1.0529349   -3.2575287    1138.1648  0.078776633  0.079876729            1 
 1205000    1.0722104   -3.2481426    1138.0097  0.078700536  0.079862369            2 
 1206000    1.0558699   -3.2662875    1136.6577   0.07854185  0.079848416            1 
 1207000    1.0420507   -3.2321401    1137.7991  0.078555588  0.079834492            2 
 1208000    1.0608359    -3.236329    1144.1623  0.078929516  0.079820036            2 
 1209000    1.0387747   -3.2412758    1141.9899  0.078714498  0.079805561            6 
 1210000    1.0514567   -3.2679123    1145.6897  0.078904248  0.079791104            3 
 1211000    1.0377481   -3.2343261    1140.5105  0.078482691  0.079776211            1 
 1212000    1.0647134   -3.2489697    1141.7632  0.078504067  0.079762166            2 
 1213000    1.0205031   -3.2392095    1147.4791  0.078832033  0.079747737            3 
 1214000    1.0481933   -3.2134821    1148.3989  0.078830234  0.079732899            2 
 1215000    1.0553978   -3.2421824    1144.4229  0.078492653  0.079718131            2 
 1216000    1.0592078   -3.2719866    1147.4052  0.078632486  0.079702493            3 
 1217000    1.0637179   -3.2686524    1147.9906  0.078607958  0.079687122            1 
 1218000    1.0583889   -3.2955621    1141.9854  0.078132557  0.079671974            2 
 1219000    1.0487146   -3.2372327    1155.2501  0.078975263   0.07965725            1 
 1220000    1.0345691   -3.2520962    1150.2666  0.078570122    0.0796428            3 
 1221000    1.0400601   -3.2365093    1154.4845  0.078793645  0.079628393            1 
 1222000    1.0636484   -3.2490946    1152.1226  0.078568102  0.079614338            1 
 1223000    1.0416299   -3.2267826    1151.9737  0.078493713  0.079599946            3 
 1224000    1.0505137   -3.2671579    1152.0234  0.078432963  0.079585811            1 
 1225000    1.0609711   -3.2312113    1157.5031   0.07874171  0.079571873            3 
 1226000    1.0793269   -3.2583001    1154.1531  0.078449774    0.0795578            3 
 1227000    1.0646358   -3.2640568    1160.5346  0.078819247  0.079544017            3 
 1228000    1.0592793   -3.2638882    1157.3246  0.078537231  0.079530143            3 
 1229000     1.064977   -3.2512698     1155.933  0.078378967  0.079516032            2 
 1230000    1.0505999   -3.2600238    1159.9449  0.078587049  0.079501883            2 
 1231000    1.0696888   -3.2565319    1155.0971  0.078195037  0.079487869            1 
 1232000    1.0426983   -3.2432399    1161.7297  0.078580198  0.079474132            1 
 1233000     1.063721   -3.2999548    1155.6794  0.078107556  0.079460155            3 
 1234000    1.0656685   -3.2423558    1165.5242  0.078709087  0.079446445            4 
 1235000    1.0891125   -3.2847935     1161.031  0.078342173  0.079432792            4 
 1236000    1.0607845    -3.284388     1159.756  0.078192829  0.079418904            2 
 1237000    1.0504693   -3.2534047    1166.8993  0.078610838  0.079405702            1 
 1238000     1.048874   -3.2735326     1169.645  0.078732161  0.079392877            4 
 1239000    1.0513182   -3.2912318    1168.8197  0.078613107  0.079379689            4 
 1240000    1.0994958   -3.2802681    1167.1001  0.078434145  0.079366542            3 
 1241000    1.0657522   -3.2406796    1170.2218  0.078580563  0.079353656            2 
 1242000     1.052406   -3.2673636    1168.5958  0.078408196  0.079340794            2 
 1243000    1.0425581   -3.2741159    1166.9407  0.078234156  0.079327516            4 
 1244000    1.0523487   -3.2940606    1171.4474  0.078473167  0.079313507            3 
 1245000    1.0379023   -3.2528371    1173.6516  0.078557671  0.079300027            1 
 1246000    1.0672818   -3.2850432    1172.3775  0.078409411  0.079286296            3 
 1247000    1.0236305   -3.2788513    1176.5963  0.078628459  0.079273283            2 
 1248000    1.0498644   -3.3014162    1173.8163  0.078379829  0.079259664            2 
 1249000    1.0660721   -3.2493931     1177.313  0.078550376  0.079246053            3 
 1250000    1.0296238   -3.2570373    1170.7377  0.078049177  0.079232209            3 
 1251000     1.048426   -3.2407284    1178.5083  0.078504416   0.07921862            3 
 1252000    1.0535991   -3.2555234    1179.4649  0.078505383  0.079205097            4 
 1253000    1.0468355   -3.2437469    1182.4801  0.078643262  0.079191437            2 
 1254000      1.06756   -3.2680513    1181.3679   0.07850664  0.079177954            1 
 1255000    1.0350218   -3.2167966    1184.6278  0.078660545   0.07916448            1 
 1256000    1.0723563   -3.2749654    1177.2964  0.078111494  0.079150835            2 
 1257000     1.043797   -3.2505432    1183.3008  0.078447412  0.079137568            4 
 1258000    1.0729307   -3.2347856    1185.6184  0.078538581  0.079124428            3 
 1259000    1.0484696   -3.2453327    1182.7638  0.078287254  0.079112057            3 
 1260000     1.053676   -3.2854705    1182.1371  0.078183673  0.079099714            5 
 1261000    1.0487864   -3.2571382    1188.9746  0.078573524  0.079086631            2 
 1262000    1.0618826   -3.2443058    1183.3847   0.07814215  0.079074285            2 
 1263000    1.0661294   -3.2487099    1189.5266  0.078485526  0.079061974           10 
 1264000    1.0548688   -3.2712191    1190.2308  0.078469855  0.079049844            3 
 1265000    1.0409128   -3.2316637    1196.0559  0.078791559   0.07903773            1 
 1266000    1.0432344   -3.2640825    1193.1207  0.078536117  0.079026188            3 
 1267000    1.0536906   -3.2471287      1192.74  0.078449094  0.079014545            4 
 1268000    1.0525248   -3.2577347    1194.2129  0.078484021  0.079002954            2 
 1269000    1.0501178   -3.2605792    1196.5914  0.078578369  0.078991253            4 
 1270000    1.0390754   -3.2370066    1197.6386  0.078585207  0.078979422            2 
 1271000    1.0448292   -3.2678188    1199.5475   0.07864854  0.078968361            1 
 1272000    1.0363418   -3.2511384    1198.5916  0.078524084  0.078957154            1 
 1273000    1.0569993    -3.251982    1201.5969  0.078659134  0.078945166            2 
 1274000    1.0606196   -3.2484549    1200.1125  0.078500295   0.07893353            2 
 1275000    1.0486889   -3.2565135    1207.1949  0.078901629  0.078921756            2 
 1276000    1.0588865   -3.2783805    1199.2256  0.078319333  0.078909485            3 
 1277000    1.0503426   -3.2479877    1201.9164  0.078433593  0.078897541            2 
 1278000    1.0417449     -3.29068    1197.5924   0.07809027  0.078885371            3 
 1279000     1.027379   -3.2711343    1201.4399  0.078279903  0.078874043            1 
 1280000    1.0431302   -3.2653722    1207.8601  0.078636728  0.078862861            4 
 1281000    1.0428089   -3.2413779    1205.2015   0.07840239  0.078851639            2 
 1282000    1.0380706   -3.2808228     1209.923  0.078648141  0.078840342            3 
 1283000    1.0527282   -3.2680554     1205.936   0.07832788  0.078828888            3 
 1284000    1.0422796   -3.2607744    1208.6079  0.078440287  0.078817723            2 
 1285000    1.0375141   -3.2410335    1215.0849  0.078799281  0.078806385            3 
 1286000    1.0476727    -3.274833    1210.5332  0.078443053  0.078795694            2 
 1287000    1.0360086   -3.2455396    1215.9577  0.078733341  0.078784039            2 
 1288000    1.0403303   -3.2634955    1217.2747  0.078757419  0.078773108            2 
 1289000    1.0687792   -3.2715129    1206.1191  0.077975115  0.078762075            1 
 1290000    1.0470967   -3.3018152    1215.5321  0.078522747  0.078750914            2 
 1291000    1.0412842   -3.2818169    1218.2086  0.078634686  0.078739929            2 
 1292000    1.0601425   -3.2528528    1216.4432  0.078459956  0.078728843            5 
 1293000    1.0366102   -3.2531943    1221.9127  0.078751787   0.07871804            4 
 1294000    1.0456358   -3.2744011    1212.5675  0.078089095  0.078706771            2 
 1295000    1.0218119   -3.2857989    1215.0922  0.078191263  0.078694987            2 
 1296000    1.0488139   -3.2644898    1221.6244  0.078550954  0.078684172            3 
 1297000    1.0452939   -3.2688459    1218.9272  0.078317093  0.078672522            4 
 1298000    1.0584312   -3.2608839    1223.2802   0.07853622  0.078661146            2 
 1299000    1.0507094   -3.2832918    1221.1039  0.078336147  0.078649452            2 
 1300000    1.0413299   -3.2980143    1220.1545  0.078215031  0.078637823            3 
 1301000    1.0386851   -3.2664441    1217.8421  0.078006796  0.078626115            2 
 1302000     1.023605   -3.2637863    1225.6441  0.078446243  0.078614577            1 
 1303000    1.0414469   -3.2952999    1223.6475  0.078258345  0.078603155            3 
 1304000    1.0482421   -3.2599041     1229.002  0.078540516   0.07859184            3 
 1305000    1.0438496   -3.3021668    1225.9463  0.078285205  0.078580343            5 
 1306000    1.0422766   -3.2359284    1227.7114  0.078337887    0.0785693            1 
 1307000    1.0522722   -3.2653669    1228.9651  0.078357886   0.07855827            3 
 1308000     1.029732   -3.2607694    1228.3594   0.07825939  0.078547042            1 
 1309000    1.0408739   -3.2891704    1225.8361  0.078038966  0.078535358            3 
 1310000    1.0488655   -3.2716197     1230.033  0.078246375  0.078524262            1 
 1311000    1.0376329   -3.3006863    1228.7044   0.07810224  0.078512728            4 
 1312000    1.0331526   -3.2824273    1228.2086  0.078011218  0.078500885            2 
 1313000    1.0138624   -3.2741218    1230.9539  0.078126038  0.078489679            4 
 1314000    1.0187348   -3.2924567    1229.6147  0.077981655    0.0784779            6 
 1315000    1.0394511   -3.2646753    1237.6191  0.078429604  0.078466593            5 
 1316000    1.0446733   -3.2749968    1231.6624  0.077992808  0.078455331            4 
 1317000     1.047945   -3.2850781    1232.5817  0.077991752  0.078443552            2 
 1318000    1.0539935   -3.2888972    1233.4611  0.077988183  0.078432021            3 
 1319000    1.0161635   -3.2786109    1233.4975  0.077931356  0.078420545            2 
 1320000    1.0327971   -3.2773012    1238.5169  0.078189195  0.078408322            1 
 1321000    1.0397657   -3.2802153    1236.5211  0.078004107  0.078396442            2 
 1322000    1.0082058   -3.2824365    1238.6649  0.078080236  0.078384795            4 
 1323000    1.0313632   -3.2628349    1238.9752  0.078040764  0.078373162            4 
 1324000    1.0363386   -3.2826546    1243.2943  0.078253671  0.078361326            2 
 1325000    1.0356379   -3.2895916    1234.5003  0.077641527  0.078349783            4 
 1326000    1.0137964   -3.2654487    1238.2724  0.077820035  0.078338022            1 
 1327000    1.0427837   -3.2619852    1238.9548  0.077804246  0.078326228            3 
 1328000    1.0080429   -3.2671169    1242.9925  0.077999028  0.078314335            2 
 1329000    1.0431199    -3.266441    1240.6693  0.077794661   0.07830245            3 
 1330000    1.0353637   -3.2394325    1242.3476  0.077841325   0.07829053            2 
 1331000    1.0486154   -3.2660814    1241.3651  0.077721329  0.078279263            3 
 1332000    1.0518914   -3.2881538    1241.0715  0.077644614  0.078267088            2 
 1333000    1.0472018   -3.2653598    1246.7071  0.077938677  0.078255232            4 
 1334000    1.0332704   -3.2536524    1244.2991   0.07772983  0.078243084            4 
 1335000     1.014947   -3.2731599    1246.4347  0.077804915  0.078230782            3 
 1336000    1.0318887   -3.2873525    1245.8386  0.077709492  0.078218796            3 
 1337000    1.0409171   -3.2560467    1246.0783  0.077666311  0.078206967            7 
 1338000    1.0316441   -3.2607707    1249.6355  0.077829812  0.078195556            6 
 1339000    1.0357758   -3.2877376    1248.0893  0.077675458  0.078183753            3 
 1340000    1.0252652   -3.2771352    1254.3895  0.078009294  0.078171794            2 
 1341000    1.0543198   -3.2686404    1249.9461  0.077674997  0.078159801            2 
 1342000     1.030227   -3.2388324    1256.1494   0.07800232  0.078148312            1 
 1343000    1.0479773   -3.2746705    1249.5521  0.077534878  0.078136663            2 
 1344000    1.0275151   -3.2418219    1254.3121  0.077772328  0.078125072            1 
 1345000    1.0295801   -3.2731151    1254.1372  0.077703669  0.078113164            2 
 1346000    1.0012146   -3.3070519    1254.2984  0.077655919  0.078101714            3 
 1347000    1.0633336   -3.2760057     1259.694  0.077932069  0.078090186            3 
 1348000    1.0252736   -3.2606857    1261.1362  0.077963415  0.078078506            2 
 1349000    1.0514134   -3.2730307    1258.9622  0.077771323  0.078067479            4 
 1350000    1.0303697   -3.2803779    1257.6574  0.077633171  0.078056771            1 
 1351000     1.017811   -3.2768942    1258.9484  0.077655344  0.078045217            5 
 1352000     1.037703   -3.2922132    1260.9803  0.077723145  0.078033734            3 
 1353000    1.0439713   -3.2579686    1261.1768    0.0776778  0.078022133            2 
 1354000    1.0311461   -3.2626447    1263.8667  0.077785985  0.078011095            2 
 1355000     1.027978   -3.2637215    1263.3968  0.077699682   0.07799992            3 
 1356000    1.0464807   -3.2681468     1264.318  0.077698991   0.07798828            1 
 1357000    1.0425712   -3.2832647    1261.6618  0.077478617  0.077976863            4 
 1358000    1.0533077   -3.3008293    1264.5817   0.07760074  0.077965395            3 
 1359000    1.0358233   -3.3031294    1268.8693  0.077806553  0.077953658            3 
 1360000    1.0173639   -3.2809632    1269.8287  0.077808132  0.077942213            4 
 1361000     1.037329   -3.2787272    1267.0053  0.077578084  0.077930641            3 
 1362000    1.0407597    -3.300863    1264.7434  0.077382733  0.077919114            3 
 1363000    1.0358322   -3.2762882    1266.9208  0.077459084  0.077907276            1 
 1364000    1.0397261   -3.2932566    1262.5839  0.077137334  0.077895185            2 
 1365000    1.0286932   -3.2860649    1271.5252  0.077626688  0.077883283            2 
 1366000    1.0270002   -3.2933549    1265.0856  0.077177014  0.077871698            3 
 1367000    1.0349163   -3.2847685    1267.3913  0.077261115  0.077859969            2 
 1368000    1.0707057   -3.3013358    1265.4024  0.077083482  0.077848541            1 
 1369000    1.0421583   -3.2718208    1272.2736  0.077445437  0.077836293            3 
 1370000     1.041623   -3.2778006     1267.229  0.077082058  0.077824505            4 
 1371000    1.0575428   -3.2916987    1279.6856  0.077782981  0.077813238            2 
 1372000    1.0647006    -3.326593    1266.3062  0.076913641  0.077801534            3 
 1373000    1.0226223   -3.2897169     1276.797  0.077494358  0.077789871            8 
 1374000    1.0288618   -3.2907348    1284.5867    0.0779104  0.077778793            3 
 1375000    1.0274056   -3.2878974    1276.9004  0.077387901   0.07776765            3 
 1376000    1.0226441   -3.3159216    1270.5085  0.076944557  0.077756016            4 
 1377000    1.0331665   -3.2830499    1277.0635  0.077285375  0.077744169            3 
 1378000    1.0483449   -3.2828274    1276.5454  0.077197954  0.077733168            3 
 1379000    1.0592177   -3.3119355    1282.5582  0.077505329  0.077721786            2 
 1380000    1.0132207   -3.2745701    1288.0729  0.077782181  0.077710598            1 
 1381000    1.0139598   -3.3146582    1278.9446  0.077175032  0.077698946            2 
 1382000    1.0139525   -3.2773121    1285.5835  0.077519504  0.077687638            2 
 1383000    1.0202804   -3.2693747    1281.5071  0.077217829  0.077675932            1 
 1384000    1.0310095    -3.279245    1280.3899  0.077094771  0.077664827            1 
 1385000     1.027908   -3.3048545    1281.6438  0.077114549  0.077653313            2 
 1386000    1.0183561    -3.281262    1283.1409  0.077148925  0.077641874            1 
 1387000    1.0487127   -3.2984057    1285.7855  0.077252192  0.077630127            3 
 1388000    1.0284189   -3.2971023    1286.2206  0.077222659   0.07761847            4 
 1389000    1.0357818    -3.279041    1283.4942   0.07700349  0.077606357            2 
 1390000    1.0313425   -3.2674854    1288.8703  0.077270399  0.077594481            2 
 1391000    1.0124715   -3.2898559    1282.3639  0.076825058  0.077582665            2 
 1392000    1.0329276   -3.2808777    1282.3523  0.076769177  0.077570622            3 
 1393000    1.0311755   -3.3035926     1291.337  0.077251555  0.077558864            3 
 1394000    1.0478379   -3.3513909    1284.8049  0.076805651   0.07754672            4 
 1395000   0.99291642    -3.265706    1289.5453  0.077033767  0.077534368            2 
 1396000    1.0491364   -3.3051388    1291.8885  0.077118466  0.077522288            1 
 1397000    1.0352537   -3.2662197    1295.1945  0.077260467  0.077511032            2 
 1398000    1.0463997   -3.2985525    1293.6337  0.077112168  0.077499547            2 
 1399000    1.0286942   -3.2637758    1298.8862  0.077369918  0.077487469            3 
 1400000    1.0054238   -3.3125316    1293.1819  0.076975113  0.077475773            2 
 1401000    1.0356386   -3.2657549    1291.6688  0.076830168  0.077463183            1 
 1402000    1.0112647    -3.296562    1289.5337  0.076648461  0.077450647           10 
 1403000    1.0580347   -3.2769517    1291.1221  0.076688174  0.077438209            2 
 1404000    1.0552693   -3.2871516    1297.0415  0.076984894   0.07742581            3 
 1405000     1.021942   -3.2877692    1296.5953  0.076903637  0.077413165            3 
 1406000    1.0197203   -3.3010623    1288.7353  0.076383077  0.077400825            2 
 1407000     1.029897   -3.3033859      1299.58  0.076971096   0.07738836            2 
 1408000    1.0581973   -3.2748148    1295.0058  0.076645701  0.077375773            2 
 1409000    1.0213022   -3.2971605    1299.1013  0.076833528  0.077362986            3 
 1410000    1.0224558   -3.2853738    1298.9519  0.076770205  0.077350276            2 
 1411000    1.0468483   -3.3249369    1297.7921  0.076647301  0.077337672            3 
 1412000     1.020537   -3.2934643    1305.6607  0.077057406  0.077325673            3 
 1413000    1.0286651   -3.3083261    1297.7256  0.076534889  0.077313464            2 
 1414000    1.0449281   -3.2988656    1301.1939  0.076685164   0.07730093            2 
 1415000    1.0245432   -3.2997214    1303.1433  0.076745776   0.07728865            1 
 1416000    1.0210626   -3.2963813    1307.1692  0.076928509  0.077276347            1 
 1417000    1.0034246   -3.2979915    1307.2528  0.076879134  0.077264612            4 
 1418000    1.0234885   -3.3017001    1304.4259  0.076658785  0.077252527            4 
 1419000    1.0254129   -3.3069603    1307.2135  0.076768469  0.077240039            4 
 1420000    1.0353537   -3.2752797    1310.4137  0.076902215  0.077227986            4 
 1421000    1.0303096   -3.3206882    1307.1313    0.0766556  0.077214963            3 
 1422000   0.99856756   -3.2839973    1303.3517  0.076380199  0.077202304            3 
 1423000    1.0292053   -3.2852995    1309.7195  0.076699433  0.077189748            3 
 1424000    1.0434257   -3.3071426    1307.8768  0.076537736  0.077177216            3 
 1425000    1.0154765   -3.3026892    1309.0895  0.076554942  0.077164365            2 
 1426000    1.0208001   -3.2914909    1307.2137   0.07639164  0.077151935            2 
 1427000    1.0266297   -3.2897704    1311.8185  0.076607011    0.0771395            3 
 1428000     1.031151   -3.2980331    1307.5313  0.076303182   0.07712708            3 
 1429000    1.0164769   -3.2811246    1315.5166  0.076715456  0.077114417            2 
 1430000    1.0340368   -3.3042377    1318.2876  0.076823289  0.077101609            4 
 1431000     1.014138   -3.3028436    1313.4183  0.076486042  0.077088868            1 
 1432000    1.0230209    -3.301015     1310.755  0.076277641  0.077076016            3 
 1433000    1.0225986   -3.3088469    1315.9268  0.076525168  0.077063166            2 
 1434000    1.0055981   -3.3188628    1312.2351  0.076257267  0.077050052            4 
 1435000    1.0157307   -3.3142613    1313.6067  0.076283783  0.077037483            2 
 1436000    1.0204808   -3.2918296    1324.4708   0.07686112  0.077024358            2 
 1437000    1.0389117   -3.3082271    1311.8104  0.076073438  0.077011315            2 
 1438000    1.0175143   -3.3195947    1314.3283   0.07616645  0.076998106            7 
 1439000    1.0079582   -3.2873571    1312.6332  0.076015357   0.07698412            3 
 1440000      1.00801   -3.3031737    1316.4741  0.076184845  0.076970139            3 
 1441000    1.0138452   -3.2804804    1316.1365   0.07611245  0.076955807            2 
 1442000     1.015464   -3.2731503    1319.2441  0.076239259  0.076941419            5 
 1443000    1.0241395   -3.3125361    1311.5184  0.075740262  0.076927113            1 
 1444000    1.0035879   -3.2888242    1312.9696  0.075771561  0.076912671            2 
 1445000    1.0298281   -3.2846353     1319.776   0.07611165  0.076898569            3 
 1446000    1.0003873   -3.3234734    1317.8433   0.07594763  0.076884137            2 
 1447000    1.0001267   -3.3034486    1319.4163  0.075985734  0.076869865            3 
 1448000    1.0123599   -3.2867891      1323.04  0.076141807  0.076855351            4 
 1449000    1.0155312   -3.3256165    1318.7909  0.075844889  0.076840852            1 
 1450000    1.0125544   -3.3120018    1315.5576  0.075606759  0.076826288            2 
 1451000    1.0315632   -3.3058349    1320.1823  0.075820259  0.076812118            4 
 1452000    1.0144387    -3.304116    1322.1037  0.075878309  0.076797784            2 
 1453000    1.0395483   -3.3159255    1322.2548  0.075834757  0.076783754            1 
 1454000    1.0202044   -3.3234786    1326.1813  0.076007639  0.076769795            3 
 1455000    1.0307714   -3.2909205    1324.3051  0.075847944  0.076755339            2 
 1456000    1.0334944   -3.3096576    1325.0087  0.075836123  0.076741038            2 
 1457000    1.0208065   -3.2782768    1326.2813  0.075856855  0.076727094            2 
 1458000    1.0260897   -3.3043586    1326.1618  0.075797998  0.076712647            3 
 1459000    1.0337933   -3.3211668    1327.0123  0.075794625  0.076698235            1 
 1460000    1.0184664     -3.30912    1329.4932  0.075884316  0.076684076            1 
 1461000    1.0191208   -3.2747666    1329.0945  0.075809634  0.076670117            4 
 1462000    1.0498416   -3.2874923    1333.2819  0.075996461  0.076655914            4 
 1463000    1.0288682    -3.292293    1333.5171  0.075957914  0.076641428            2 
 1464000    1.0417626   -3.2887972    1328.2281  0.075604968  0.076627022            3 
 1465000    1.0099246    -3.306656    1323.6496  0.075292924  0.076612757            3 
 1466000    1.0169471   -3.3080758    1331.7928  0.075704458  0.076598112            2 
 1467000    1.0078215   -3.3229051    1329.8084   0.07554013  0.076583547            2 
 1468000    1.0437896    -3.317962    1333.4007  0.075692592  0.076569201            2 
 1469000    1.0165998   -3.3042953     1336.236  0.075801906  0.076554631            3 
 1470000    1.0012476   -3.3134574    1331.8169  0.075499824  0.076540046            4 
 1471000    1.0051743    -3.301451    1331.4353  0.075426882  0.076525286            3 
 1472000    1.0258083    -3.318328    1338.0722  0.075751367  0.076510944            2 
 1473000    1.0162729   -3.2975102    1339.5608  0.075784157  0.076497149            3 
 1474000    1.0271298   -3.3340886    1335.2458  0.075488796  0.076482876            1 
 1475000    1.0299699   -3.3330927    1336.5003  0.075508492  0.076468882            3 
 1476000   0.99686413   -3.2949188    1339.4859  0.075625895  0.076454531            2 
 1477000    1.0075626    -3.284931    1339.3777  0.075568591  0.076440234            4 
 1478000    1.0102883   -3.3004513    1336.1678   0.07533648  0.076426373            1 
 1479000    1.0045575   -3.3210852    1334.0732  0.075167521  0.076412204            1 
 1480000    1.0072235     -3.31718    1340.7382  0.075492014  0.076397724            3 
 1481000    1.0582024   -3.2951766    1335.3234  0.075136363  0.076383717            4 
 1482000    1.0152961   -3.3258309    1340.4336  0.075373011  0.076369438            2 
 1483000     1.019156   -3.3061898    1348.3939  0.075769494  0.076355626            3 
 1484000   0.99602471   -3.3008179    1340.3761  0.075268201   0.07634193            2 
 1485000    1.0240726   -3.3332841    1350.9774  0.075812424  0.076327972            2 
 1486000    1.0161832   -3.3070376    1345.3488  0.075445763  0.076313972            3 
 1487000    1.0103481   -3.2794361    1346.5318  0.075461321  0.076300073            2 
 1488000    1.0213225   -3.2842315    1350.5079  0.075633283  0.076286661            2 
 1489000   0.99615166   -3.3089171    1349.3276  0.075516433  0.076273245            5 
 1490000    1.0061908   -3.3222544    1354.1329  0.075734501  0.076259659            4 
 1491000    1.0180783   -3.3093269    1352.4768  0.075591149  0.076246002            2 
 1492000   0.99168606    -3.334307    1344.5719  0.075098965  0.076232029            2 
 1493000   0.99482702   -3.3096484    1351.9046   0.07545795  0.076218326            2 
 1494000    1.0295699   -3.3290791    1346.4741  0.075104536  0.076204394            2 
 1495000    1.0429484   -3.3099149    1353.2281  0.075430775  0.076190856            5 
 1496000    1.0131249   -3.3394914    1352.5318  0.075341569  0.076177288            2 
 1497000    1.0281332   -3.2884546    1358.6436  0.075631463  0.076163469            2 
 1498000    1.0218903    -3.297264    1358.5334  0.075574843  0.076150163            2 
 1499000    1.0298455   -3.3329398    1355.9994  0.075383554  0.076136511            2 
 1500000    1.0213308   -3.3151393      1358.89  0.075493889  0.076122907            3 
 1501000   0.99411632   -3.3080071    1357.9289  0.075390232  0.076109408            2 
 1502000    1.0189758   -3.3072308    1357.4525  0.075313607  0.076095674            3 
 1503000   0.99778771   -3.3227634    1360.8351  0.075451048  0.076081922            3 
 1504000     1.010136   -3.3300184    1361.1939  0.075420763  0.076068542            2 
 1505000    1.0082846   -3.3130004    1358.2233  0.075206163  0.076054995            5 
 1506000    1.0229859   -3.3180886    1360.0059  0.075254865  0.076041446            2 
 1507000    1.0234308   -3.3121823    1357.2871  0.075054585  0.076028045            3 
 1508000    1.0235174   -3.3012942      1363.66  0.075356984  0.076014794            2 
 1509000    1.0564533   -3.3192998     1366.419  0.075459412   0.07600149            1 
 1510000     1.016863   -3.3209966    1364.4798  0.075302415  0.075988658            2 
 1511000   0.99240647   -3.3135216    1368.9445  0.075498815  0.075975224            2 
 1512000    1.0165853    -3.306405    1366.2556  0.075300682  0.075961938            3 
 1513000   0.99491486   -3.3120472    1365.9941  0.075236511  0.075948488            2 
 1514000    1.0128654   -3.3458885    1362.6679  0.075003736  0.075934724            3 
 1515000    1.0198239   -3.2897607    1365.5568  0.075113136  0.075921077            3 
 1516000     1.026968   -3.3152528    1366.8701   0.07513578  0.075907565            2 
 1517000    1.0111509   -3.2998672    1369.4283  0.075226779  0.075894273            3 
 1518000   0.99972306   -3.3412209    1365.0399  0.074936316  0.075880747            2 
 1519000   0.99361729   -3.3134375     1372.919  0.075319233  0.075867566            2 
 1520000    1.0275993   -3.3090133    1375.0728  0.075387765  0.075854256            3 
 1521000    1.0290453    -3.324483    1372.2461  0.075183325  0.075840872            3 
 1522000    1.0132026   -3.3353841    1371.9187  0.075116002  0.075827442            3 
 1523000    1.0067531   -3.3251988    1371.3995  0.075038276  0.075814044            7 
 1524000    1.0069606   -3.3193631    1374.6692  0.075167824  0.075800743            4 
 1525000   0.99337869   -3.3257386    1372.1878  0.074982942  0.075787252            2 
 1526000    1.0011614   -3.3121186    1376.3641  0.075161868  0.075774014            3 
 1527000   0.99904508   -3.3126925    1381.0456  0.075368129  0.075760964            2 
 1528000   0.98479929   -3.3085574    1380.7209  0.075301096  0.075747827            3 
 1529000    1.0086395   -3.3226474     1373.298  0.074847287    0.0757349            3 
 1530000    1.0222435   -3.3026317    1379.9204  0.075159061  0.075722262            3 
 1531000   0.98231811   -3.3288341    1380.1508  0.075122511  0.075709066            3 
 1532000    1.0078099   -3.2994379    1379.5426  0.075040393   0.07569571            2 
 1533000    1.0193328   -3.3430769    1370.7328  0.074512548  0.075682476            5 
 1534000    1.0040515    -3.304602    1379.4715  0.074938698  0.075669003            2 
 1535000   0.97683115   -3.3073895    1386.2019  0.075255261  0.075655884            2 
 1536000   0.99595209   -3.3368556    1374.4059  0.074566291  0.075642643            3 
 1537000    1.0042282   -3.3134631    1381.5231   0.07490366  0.075629033            2 
 1538000    1.0049833   -3.3175461    1379.2651  0.074732612  0.075615399            2 
 1539000    1.0130774   -3.3022732    1381.7704  0.074819712  0.075601427            3 
 1540000    1.0092081    -3.339079    1380.7477  0.074715785  0.075587607            2 
 1541000     1.006257    -3.336051    1379.0154  0.074573619   0.07557384            2 
 1542000    1.0322902   -3.3319998    1384.6149  0.074827867  0.075560062            1 
 1543000    1.0082283   -3.3001047    1379.4139   0.07449848  0.075546314            3 
 1544000   0.99585827   -3.3229636    1382.8189  0.074634008   0.07553268            2 
 1545000    1.0087203    -3.311179    1382.3953  0.074562855  0.075518757            4 
 1546000    1.0165994   -3.3095414    1390.3161  0.074941576  0.075505337            3 
 1547000   0.99904691   -3.3548324    1390.4783  0.074901869   0.07549213            3 
 1548000    1.0052377   -3.3232042    1391.7639  0.074922689  0.075478876            3 
 1549000    1.0104546   -3.3476509    1392.6161  0.074920167   0.07546554            3 
 1550000    1.0127199    -3.327072    1393.6541  0.074927639  0.075452236            1 
 1551000    1.0011556   -3.3192733    1395.7271  0.074990712  0.075439034            6 
 1552000   0.99986264   -3.3359256     1388.113  0.074533557  0.075425668            4 
 1553000    1.0070579     -3.33764    1394.0975  0.074806691  0.075412544            1 
 1554000   0.99129596   -3.3231442    1397.7617  0.074955045  0.075399706            2 
 1555000    1.0057913   -3.3374436    1395.9376   0.07480909  0.075386919            2 
 1556000    1.0128695   -3.3338894     1395.243  0.074723809  0.075373926            3 
 1557000   0.99755443    -3.305952    1403.8244  0.075135111  0.075361497            1 
 1558000      1.01642   -3.3254713    1401.1405  0.074943331  0.075348577            1 
 1559000    1.0036786   -3.3233558    1401.4136  0.074909855   0.07533606            3 
 1560000   0.99690224   -3.3363461    1403.1377  0.074953936  0.075323555            4 
 1561000   0.99009382   -3.3377735    1397.3192    0.0745953  0.075310561            3 
 1562000   0.99743404   -3.3298607    1401.8312  0.074788264  0.075297487            2 
 1563000     1.000015   -3.3164458    1403.1367  0.074810016   0.07528519            3 
 1564000    1.0152592   -3.3239809    1413.9098  0.075336199  0.075273149            3 
 1565000   0.99471048   -3.3087342    1407.4792  0.074945643  0.075260755            2 
 1566000   0.99363095   -3.3459034    1404.4738  0.074737857  0.075248155            3 
 1567000    1.0165353   -3.2870831      1412.26  0.075104234  0.075235879            2 
 1568000    1.0095888   -3.3126259    1411.6233  0.075022495  0.075223639            2 
 1569000    0.9883318   -3.3307487    1409.0099  0.074835877  0.075211091            4 
 1570000   0.99041044   -3.3093676    1417.9687   0.07526373  0.075198741            2 
 1571000    1.0314645   -3.3154223    1413.5706  0.074982529  0.075186468            5 
 1572000    1.0127911   -3.2980021    1416.0105  0.075064171  0.075174407            4 
 1573000    1.0105562   -3.3239193    1415.0699  0.074966618  0.075162679            2 
 1574000   0.99480481   -3.3225743    1411.0367  0.074705458  0.075150635            7 
 1575000    1.0155199   -3.3301873    1409.0942  0.074555251  0.075138244            3 
 1576000   0.99112808   -3.3506187    1415.1945  0.074830503  0.075125632            2 
 1577000    1.0009532   -3.3245873    1412.5763  0.074644699  0.075113581            2 
 1578000   0.99278925   -3.3323888    1410.7194  0.074499336  0.075101006            4 
 1579000    1.0071772   -3.3168431     1412.115  0.074525809  0.075088517            5 
 1580000    1.0025769   -3.3291909    1415.3231  0.074647841  0.075076051            3 
 1581000    1.0077452   -3.3325433     1411.836  0.074416823  0.075063628            1 
 1582000     1.007978   -3.3642728    1415.6948  0.074573053  0.075051052            4 
 1583000    1.0114619   -3.3210869    1418.4881  0.074672989  0.075038384            9 
 1584000    1.0015564   -3.3586321    1418.9612  0.074650736  0.075025794            2 
 1585000   0.98727323    -3.334438    1420.3619  0.074677283  0.075013475            1 
 1586000     1.007918   -3.3524994    1417.1107  0.074459369  0.075001209            5 
 1587000     1.011596   -3.3547192    1424.8266  0.074817613  0.074989143            3 
 1588000   0.99642385   -3.3476782    1424.1311     0.074734  0.074977238            3 
 1589000   0.99962837   -3.3247637    1429.4862  0.074967812  0.074965267            6 
 1590000   0.98381448   -3.3381839     1427.518  0.074817503  0.074953636            5 
 1591000   0.97600469   -3.3317221    1428.0316  0.074797381  0.074942265            2 
 1592000   0.99013779   -3.3502523    1422.9627  0.074485064  0.074930521            3 
 1593000    1.0122212   -3.3796424    1425.0032  0.074545054  0.074918896            2 
 1594000   0.97783009   -3.3226879    1430.2645  0.074773343  0.074906982            2 
 1595000   0.98868653   -3.3281126      1427.23  0.074567922   0.07489548            6 
 1596000   0.99493201   -3.3368003     1435.765  0.074966845  0.074883988            2 
 1597000    1.0132284   -3.3269539    1429.0454  0.074569266  0.074872379            2 
 1598000    1.0062796   -3.3200159     1432.218  0.074688049  0.074860876            2 
 1599000    1.0039875   -3.3458347    1433.6771  0.074717381  0.074849504            5 
 1600000    1.0088861   -3.3356425    1431.0711  0.074534954   0.07483756            5 
 1601000   0.97562009   -3.3277608    1434.5937  0.074671751  0.074826465            2 
 1602000   0.99847337   -3.3544457     1428.771  0.074322256  0.074814945            4 
 1603000    1.0013427   -3.3428342     1434.796  0.074589104  0.074803227            2 
 1604000   0.98331612   -3.3204586    1434.0958  0.074506226  0.074791466            2 
 1605000   0.99890642   -3.3636267     1438.232  0.074674559  0.074780017            2 
 1606000    1.0040266   -3.3250776    1440.1759   0.07472893  0.074768825            1 
 1607000    1.0041207   -3.3359942    1435.4813  0.074438979  0.074757817            3 
 1608000   0.99898334   -3.3298587      1436.35  0.074437705  0.074746321            1 
 1609000   0.99304502   -3.3231175    1433.0804  0.074222103  0.074734703            2 
 1610000   0.99994557   -3.3790739    1434.1397  0.074230832  0.074722728            2 
 1611000    1.0025803   -3.3523863    1438.3716  0.074403664  0.074711194            3 
 1612000   0.99870617   -3.3404441    1441.0137  0.074494093  0.074699522            5 
 1613000    0.9728842   -3.3339652    1443.0064  0.074550855  0.074688051            4 
 1614000   0.99105035   -3.3176737     1441.934  0.074449296  0.074676574            4 
 1615000    1.0049082   -3.3313808    1445.8607  0.074605813  0.074665047            6 
 1616000    1.0135097   -3.3481693    1441.0013  0.074309059  0.074653852            3 
 1617000     1.007239   -3.3442828    1446.3354     0.074538  0.074642327            4 
 1618000    1.0126557   -3.3263183    1448.7794  0.074617809  0.074630895            2 
 1619000   0.99406631   -3.3401326    1450.4657  0.074658517  0.074619636            3 
 1620000   0.99795604   -3.3266362    1452.4897  0.074716548  0.074608565            2 
 1621000    1.0013758   -3.3455309    1450.9057  0.074589026  0.074597732            4 
 1622000   0.97322778   -3.3754667     1446.677  0.074325782  0.074586509            3 
 1623000   0.99876394   -3.3177135    1454.7366  0.074693809  0.074575066            4 
 1624000    0.9819597   -3.3519279    1446.6837  0.074234591  0.074563385            2 
 1625000    0.9884843   -3.3295147    1447.9406  0.074253362  0.074552012            2 
 1626000    1.0003935   -3.3033341    1451.3983  0.074384908  0.074540481            2 
 1627000    1.0107238   -3.3139567    1444.9017  0.074006439  0.074528621            1 
 1628000   0.99048429   -3.3437791    1451.1609  0.074281372  0.074516988            2 
 1629000   0.99599423   -3.3169437    1447.5691   0.07405203  0.074505145            3 
 1630000   0.96666267   -3.3359547    1446.8238  0.073968499  0.074493122            3 
 1631000    0.9972266    -3.305038    1449.9833  0.074084573  0.074481353            3 
 1632000    1.0081319   -3.3716922    1448.9368  0.073985742  0.074469269            4 
 1633000   0.98867058   -3.3388862    1452.6406  0.074129447  0.074457195            2 
 1634000    0.9868234   -3.3451788    1452.2352    0.0740634  0.074444974            3 
 1635000    1.0024009   -3.3356096    1451.9289  0.074002492  0.074433011            3 
 1636000   0.99472724   -3.3514094    1445.6741  0.073638657  0.074420836            5 
 1637000    1.0087484   -3.3403393    1453.6823  0.074001337  0.074408517            1 
 1638000   0.98247412   -3.3424052    1452.5218  0.073897121  0.074396321            2 
 1639000    1.0011711   -3.3425688    1453.8823  0.073921205  0.074383723            2 
 1640000   0.99423636   -3.3308127    1451.3968  0.073749835  0.074371346            3 
 1641000   0.98801112   -3.3527375    1457.6429  0.074022083  0.074359236            2 
 1642000    1.0229071   -3.3424671    1461.7712  0.074186521  0.074347107            3 
 1643000   0.99602368   -3.3384708    1457.7747  0.073938665  0.074334943            2 
 1644000   0.99164744   -3.3466672    1458.7934  0.073945324  0.074322834            2 
 1645000   0.98561484   -3.3690511    1462.2971  0.074077869  0.074310644            2 
 1646000   0.97373716   -3.3416762    1458.9792  0.073864885  0.074298754            2 
 1647000    1.0093609   -3.3587481     1459.692  0.073856101  0.074286653            3 
 1648000   0.98681196   -3.3388728    1465.6484  0.074112482  0.074274881            4 
 1649000   0.97198743   -3.3667209    1464.5009  0.074009547  0.074262893            4 
 1650000   0.97976565    -3.374798    1464.4719  0.073963228  0.074251062            7 
 1651000    1.0027044   -3.3559167    1459.7134  0.073678245   0.07423926            6 
 1652000   0.99959435   -3.3229862    1463.1978   0.07380941  0.074227115            2 
 1653000   0.98127559   -3.3567202    1467.2051  0.073966784  0.074215166            1 
 1654000    1.0154571   -3.3454634    1468.3254  0.073978505   0.07420292            3 
 1655000   0.98658152    -3.356675    1462.4428  0.073637603  0.074191316            3 
 1656000   0.98333487   -3.3540843    1468.1304  0.073879346  0.074179245            2 
 1657000   0.97447073   -3.3598306    1463.5725  0.073605535  0.074167065            3 
 1658000   0.97926744   -3.3326004    1471.7531  0.073972312  0.074154597            3 
 1659000    1.0335355   -3.3232307    1469.4008  0.073809564  0.074142827            4 
 1660000    1.0027883   -3.3371952    1472.7488  0.073933174  0.074131029            2 
 1661000   0.99813533   -3.3605342     1468.638  0.073682418  0.074118839            2 
 1662000   0.99227827   -3.3213896    1475.3299   0.07397362  0.074106669            3 
 1663000   0.98798536   -3.3715584    1476.2242  0.073973952  0.074094457            5 
 1664000   0.98827202   -3.3461442    1478.4474  0.074040835  0.074082834            1 
 1665000   0.95909942   -3.3682082    1470.7467  0.073610944  0.074071199            3 
 1666000   0.98869983   -3.3499438    1479.1763   0.07398841  0.074059356            2 
 1667000   0.98905507   -3.3402745    1480.8052  0.074025456  0.074047953            3 
 1668000   0.98682584   -3.3362186    1488.6309  0.074372049  0.074036962            1 
 1669000   0.97611012   -3.3464631    1484.3973  0.074116105  0.074025627            2 
 1670000    0.9821552   -3.3481392      1483.39  0.074021457  0.074014464            6 
 1671000    1.0106595   -3.3653476    1477.3409  0.073675489  0.074003603            3 
 1672000    1.0007785   -3.3246559    1486.7572  0.074100736  0.073992382            3 
 1673000   0.98102211   -3.3408734    1487.9803  0.074117369   0.07398161            2 
 1674000   0.97575974   -3.3163378    1486.6236  0.074005554  0.073970554            4 
 1675000   0.96256085   -3.3492492    1488.7562   0.07406747  0.073959634            4 
 1676000   0.99221657   -3.3509782    1484.8388  0.073828502  0.073948639            9 
 1677000     0.980855   -3.3714457    1482.4083    0.0736637   0.07393766            3 
 1678000   0.97073308   -3.3497677    1481.4058  0.073570012  0.073926262            3 
 1679000    0.9652008   -3.3659638     1491.781  0.074041146  0.073914969            7 
 1680000    1.0068951   -3.3686935    1485.0487  0.073663131  0.073904127            3 
 1681000    1.0027327   -3.3747771    1491.7928  0.073953638  0.073893031            4 
 1682000   0.99046183   -3.3466357    1490.8494  0.073862933  0.073882124            4 
 1683000   0.98512083   -3.3652519    1491.8231  0.073867257  0.073871199            2 
 1684000   0.96472133   -3.3732574     1489.605   0.07371363  0.073860444            3 
 1685000   0.95807243     -3.33853    1490.5841  0.073718305  0.073849152            1 
 1686000   0.95987318   -3.3751971    1494.6385  0.073874976  0.073838039            2 
 1687000   0.97322247   -3.3489183    1493.5132  0.073775596  0.073826943            5 
 1688000   0.96651556   -3.3291514    1501.4005  0.074121273  0.073815843            1 
 1689000   0.97248776   -3.3512851    1498.4102  0.073929851  0.073805067            3 
 1690000   0.98898712   -3.3415241    1500.8569  0.074006752  0.073794283            2 
 1691000   0.97895694   -3.3545586    1494.2905  0.073639391  0.073783345            2 
 1692000   0.98626138   -3.3252809    1498.8224   0.07381907   0.07377235            3 
 1693000   0.97160332   -3.3507683     1496.781  0.073674985  0.073761241            3 
 1694000   0.99503716   -3.3343808    1499.9725  0.073788495  0.073750174            3 
 1695000   0.95068389    -3.357041    1497.4113  0.073619041  0.073738896            3 
 1696000   0.99211327   -3.3609962    1498.3114  0.073619859  0.073727739            4 
 1697000   0.97842193   -3.3469857    1500.8497  0.073701127  0.073716607            1 
 1698000   0.98969762   -3.3557116    1496.2114  0.073430087  0.073705172            3 
 1699000   0.98603878   -3.3534688     1495.411  0.073347606  0.073693496            2 
 1700000   0.97383548   -3.3500123    1503.6193  0.073706828  0.073682099            2 
 1701000    0.9899859   -3.3509205    1501.8344  0.073576055  0.073670601            5 
 1702000   0.97915103   -3.3767723    1499.3566  0.073411507  0.073659328            3 
 1703000    1.0061408   -3.3601908    1505.2783  0.073658166  0.073647644            4 
 1704000     1.000804   -3.3738576    1498.3247  0.073274876    0.0736363            2 
 1705000   0.98089441    -3.358796    1505.9352   0.07360387  0.073624821            2 
 1706000   0.98078464   -3.3572174    1508.1816  0.073670457  0.073613144            3 
 1707000   0.96488203   -3.3239751    1511.1366  0.073771559  0.073601723            2 
 1708000   0.94856565   -3.3481634    1509.9049   0.07366827   0.07359053            2 
 1709000   0.96868649   -3.3790693    1503.1313  0.073294876   0.07357908            3 
 1710000   0.99679927   -3.3526296    1505.6495  0.073374733  0.073567241            2 
 1711000   0.98142517   -3.3739144    1501.4667  0.073128128  0.073555327            3 
 1712000   0.97132872   -3.3661176    1502.1325  0.073117822  0.073543571            3 
 1713000   0.97201739   -3.3594048    1510.1214  0.073463777  0.073531808            2 
 1714000   0.96763687   -3.3750278    1509.3992  0.073385804  0.073519929            2 
 1715000    1.0030029   -3.3620046    1500.8776  0.072928941    0.0735081            4 
 1716000   0.99170524   -3.3406517    1507.5068  0.073208374  0.073496394            2 
 1717000   0.98973003    -3.352824    1511.8499  0.073376526  0.073484888            4 
 1718000   0.99032297   -3.3173418    1521.8617  0.073819446  0.073473205            1 
 1719000   0.97450204   -3.3671336    1512.9979  0.073346808   0.07346168            3 
 1720000   0.97457059   -3.3739227    1513.7203  0.073339164  0.073449982            2 
 1721000   0.95768684    -3.367721    1508.1714   0.07302786  0.073438148            4 
 1722000   0.97901269   -3.3692947    1511.7481  0.073158544  0.073426352            2 
 1723000   0.99355037   -3.3661604    1515.1687   0.07328152  0.073414767            3 
 1724000   0.96228782   -3.3692181     1517.301  0.073342081  0.073403209            1 
 1725000   0.99094963   -3.3488267    1518.5408  0.073359457  0.073391762            4 
 1726000   0.96463127   -3.3684171    1517.8077   0.07328156  0.073380062            4 
 1727000   0.99018417   -3.3614988    1519.3616   0.07331411  0.073368533            1 
 1728000   0.98095963   -3.3626352    1519.9254  0.073298872  0.073357005            8 
 1729000   0.97063045   -3.3402851    1520.8423  0.073300672  0.073345619            1 
 1730000   0.98765083   -3.3460785    1527.9227  0.073599357  0.073334578            2 
 1731000   0.97055626   -3.3741177    1523.2645  0.073332586  0.073323244            2 
 1732000   0.97170345   -3.3458767    1523.1829  0.073286321  0.073312021            2 
 1733000   0.97054142   -3.3569472    1519.6483  0.073074068  0.073300894            1 
 1734000   0.98452694   -3.3720954    1521.1379  0.073103511  0.073289601            3 
 1735000   0.98638643   -3.3542333      1525.37  0.073264648  0.073278408            3 
 1736000   0.96289138   -3.3628466    1523.0117  0.073109241  0.073267196            3 
 1737000    1.0057774   -3.3292816    1527.4657  0.073280836  0.073256271            3 
 1738000   0.96795619   -3.3398392    1529.3375   0.07332842  0.073245398            1 
 1739000   0.97404109   -3.3394088    1532.9466    0.0734592  0.073234749            5 
 1740000   0.97888367   -3.3984448    1531.4142  0.073343593  0.073223961            7 
 1741000   0.96887542   -3.3668932    1527.0846  0.073094225  0.073212937            4 
 1742000   0.95765335   -3.4046973    1526.2062  0.073010245  0.073201997            1 
 1743000   0.98731778   -3.3720351    1532.8688  0.073286898  0.073190931            2 
 1744000   0.97567234   -3.3765974    1532.2801  0.073216748  0.073180004            4 
 1745000   0.96163616   -3.3855848    1531.8115  0.073152412  0.073168992            3 
 1746000     0.958865   -3.3862069    1525.1513  0.072792637  0.073157937            2 
 1747000    0.9545486   -3.3667989    1532.0586  0.073080452  0.073146488            6 
 1748000   0.99254168   -3.3590636    1529.8632  0.072933983  0.073135019            5 
 1749000   0.96880534   -3.3539166    1542.4729  0.073493087  0.073124101            4 
 1750000   0.96531322   -3.3983811    1529.5801  0.072837145  0.073112963            2 
 1751000   0.96227882   -3.3786338    1538.9835  0.073243076  0.073102129            3 
 1752000   0.98838901   -3.3920433    1532.1068  0.072874183  0.073091095            2 
 1753000   0.98850255   -3.3841198    1541.0229  0.073256461   0.07308013            3 
 1754000    0.9744744   -3.3644366    1543.8875  0.073350793   0.07306905            4 
 1755000   0.97396488   -3.3317299     1545.238  0.073373124  0.073058456            2 
 1756000   0.96579205    -3.379476     1540.083  0.073086704  0.073047569            2 
 1757000   0.96022197   -3.3600477    1537.5176  0.072923432  0.073036818            2 
 1758000   0.98107982   -3.3806816    1536.3762  0.072827846  0.073025483            3 
 1759000   0.94713779   -3.3587611    1543.5612  0.073126832  0.073014274            3 
 1760000   0.95491549   -3.3520467     1541.201  0.072973532  0.073003427            2 
 1761000   0.95707124   -3.3462785    1543.2385   0.07302851  0.072992683            2 
 1762000   0.99045215   -3.3629937    1551.6872  0.073386642   0.07298194            3 
 1763000   0.97476472     -3.34012     1541.779  0.072876677  0.072971312            2 
 1764000   0.95143123   -3.3593164    1544.3422  0.072956453  0.072960699            2 
 1765000   0.98115832   -3.3790477    1543.6777  0.072883742  0.072949848            6 
 1766000   0.95171763   -3.4016413    1542.8953  0.072805554   0.07293904            2 
 1767000   0.97735529   -3.3894065    1549.0739   0.07305574   0.07292833            3 
 1768000   0.92873384   -3.3653429    1552.6961  0.073185147  0.072917949            2 
 1769000   0.95255311   -3.3697758     1550.248  0.073028453  0.072907534            4 
 1770000   0.97201298   -3.3728727    1553.8926  0.073158783  0.072897082            4 
 1771000   0.97190873   -3.3901217    1551.6096  0.073010049    0.0728867            6 
 1772000   0.94236959   -3.3959136    1553.5868  0.073061832  0.072876437            4 
 1773000   0.95373351   -3.3655687    1555.3058   0.07310142  0.072866198            5 
 1774000   0.98357415   -3.3561004    1559.2306   0.07324458  0.072855886            2 
 1775000   0.97376792   -3.3546218    1558.5008  0.073169053   0.07284564            2 
 1776000   0.97111285   -3.3620832    1556.4851  0.073033272  0.072835071            1 
 1777000   0.95495869   -3.3641258    1556.7615  0.073005133  0.072824852            2 
 1778000   0.95624753   -3.3769954     1562.918  0.073252624  0.072814563            3 
 1779000   0.93304304   -3.3709926    1554.6194   0.07282272  0.072804126            7 
 1780000   0.98180177   -3.3581219    1559.6852  0.073018971  0.072793506            3 
 1781000   0.95618702   -3.3835315    1558.6372  0.072928933  0.072782924            2 
 1782000   0.97079717   -3.3590109    1561.3693  0.073015773  0.072772388            2 
 1783000   0.95853318   -3.3571758    1566.6644  0.073222302  0.072762089            2 
 1784000   0.98556685   -3.3706026    1564.2293  0.073067511  0.072751741            2 
 1785000   0.98541822   -3.3896501    1558.9167  0.072778557  0.072741444            3 
 1786000   0.95890296   -3.3834898    1566.4284  0.073088299  0.072730904            2 
 1787000   0.95784471   -3.3762204    1563.1975  0.072896733  0.072720578            2 
 1788000   0.96330871   -3.4110899    1556.5497  0.072546129  0.072710069            3 
 1789000   0.96999092    -3.352874    1564.6758  0.072884095  0.072699431            3 
 1790000   0.97562659   -3.3432784    1562.0987  0.072723401  0.072689231            3 
 1791000   0.96722157   -3.3494763    1572.3744  0.073160914  0.072678703            1 
 1792000   0.97305665   -3.3722864     1564.097  0.072735164  0.072668632            6 
 1793000   0.94717355   -3.3932188    1561.7816  0.072586984  0.072658222            4 
 1794000   0.95250919   -3.3743724    1558.9853  0.072416636  0.072647655            1 
 1795000   0.95823862   -3.3667886    1571.4197  0.072953562  0.072637093            2 
 1796000   0.97404857   -3.3780042    1568.1228  0.072759968  0.072626522            3 
 1797000   0.95812371   -3.3825748    1564.5859  0.072555458  0.072615813            2 
 1798000   0.96537249   -3.3930943    1568.0851  0.072677286  0.072605266            6 
 1799000   0.98409261   -3.3948827    1569.2958   0.07269297  0.072594718            3 
 1800000   0.98400209    -3.376022    1576.0355  0.072964605  0.072584054            1 
 1801000   0.96976194   -3.3674981    1570.4847  0.072667253  0.072573612            1 
 1802000   0.98431465   -3.3481399    1569.7324   0.07259214  0.072562781            2 
 1803000   0.95870826   -3.3833534    1573.8926  0.072744156  0.072552043            5 
 1804000    0.9754389   -3.3628415    1575.4116  0.072774002  0.072541753            2 
 1805000   0.95819943     -3.32742    1578.4805  0.072875368  0.072531728            5 
 1806000   0.96202858   -3.3702449    1575.7212  0.072707695  0.072521051            2 
 1807000   0.95727514   -3.4037711    1572.7891   0.07253224  0.072510159            4 
 1808000   0.97107217    -3.403539    1575.7662  0.072629342   0.07249959            6 
 1809000   0.96797033   -3.3509253     1569.822  0.072315369  0.072489109            5 
 1810000   0.96108068   -3.3936394    1571.9706  0.072374337   0.07247827            1 
 1811000   0.93691187   -3.3802384     1577.287  0.072579007  0.072467772            3 
 1812000   0.96075673   -3.3608591       1577.2  0.072534951  0.072457243            4 
 1813000   0.96664468   -3.3461069    1584.9425  0.072850825  0.072446701            2 
 1814000   0.96201717   -3.3856288     1572.554  0.072241546  0.072436157            2 
 1815000   0.96540867   -3.3676578    1573.0603  0.072224992   0.07242518            3 
 1816000    0.9710554   -3.3722815    1575.8115  0.072311466  0.072414338            4 
 1817000    0.9694951   -3.3804329      1577.98  0.072371125  0.072403285            1 
 1818000   0.96288399   -3.3945915    1576.9227  0.072282852   0.07239236            3 
 1819000   0.97279811   -3.3806823    1577.8914  0.072287495  0.072381154            2 
 1820000   0.95163336   -3.3895368    1580.0263  0.072345525  0.072370243            2 
 1821000   0.94904759   -3.3531121    1575.6401  0.072105074  0.072359433            3 
 1822000   0.95012752   -3.3711515    1584.0304  0.072449248  0.072348465            4 
 1823000   0.93907698   -3.3417977    1589.8196  0.072674146  0.072337456            2 
 1824000   0.95716753   -3.4083449    1580.1127   0.07219082  0.072326487            6 
 1825000   0.95217418   -3.3846379    1581.6439  0.072221181  0.072315511            3 
 1826000   0.96687262   -3.4013825    1594.6398  0.072774727   0.07230446            1 
 1827000   0.96483921   -3.4100858    1588.3807  0.072449402  0.072293503            1 
 1828000   0.93449578   -3.4104356    1588.8508    0.0724312  0.072282495            2 
 1829000   0.97158204   -3.4001849    1587.7842     0.072343  0.072271893            1 
 1830000    0.9559942   -3.3763988    1588.3995  0.072331487  0.072261152            3 
 1831000   0.94361853   -3.3781486    1591.2549  0.072421941  0.072250783            2 
 1832000   0.95367406   -3.3875912     1594.548  0.072532206  0.072240389            1 
 1833000   0.96481193   -3.4137618    1590.3824  0.072303256  0.072229917            2 
 1834000   0.97539935   -3.3896083    1597.3214  0.072579126  0.072219474            3 
 1835000   0.95835874   -3.3806587    1594.2931   0.07240205  0.072208957            3 
 1836000   0.98145086   -3.3930759    1590.5682  0.072193548  0.072198124            4 
 1837000   0.95956616   -3.4055733    1589.5904   0.07210989  0.072187567            1 
 1838000   0.95693465   -3.3907799    1597.9301  0.072448773  0.072176983            7 
 1839000   0.94456198   -3.3832768    1595.8771  0.072316344  0.072166248            2 
 1840000   0.93801833   -3.4004866    1591.5712  0.072082028  0.072155413            4 
 1841000   0.95830488   -3.3801775    1591.3668  0.072033621  0.072144938            4 
 1842000    0.9385238   -3.3820182     1599.361   0.07235618  0.072134061            2 
 1843000   0.94715965   -3.3967517    1597.1058   0.07221495   0.07212376            2 
 1844000    0.9743072   -3.3966432    1594.8973  0.072075981  0.072113655            2 
 1845000   0.95490921    -3.389284    1602.9007  0.072398404  0.072103125            2 
 1846000   0.93821418   -3.4141926    1605.3959  0.072471826  0.072092657            2 
 1847000   0.92992844   -3.4075024    1599.2966    0.0721574  0.072082206            2 
 1848000   0.93567278   -3.3732828     1601.299  0.072208651  0.072071669            5 
 1849000   0.94633628   -3.4241594    1599.5015  0.072088583  0.072061499            3 
 1850000    0.9432446   -3.3823486    1603.6023  0.072234338  0.072051151            3 
 1851000   0.94265889   -3.3967536     1601.821  0.072115117  0.072041074            4 
 1852000   0.92880239   -3.4025848    1602.5258  0.072107891  0.072030799            4 
 1853000   0.97002944    -3.407855    1606.8178  0.072261999  0.072020615            4 
 1854000   0.98134814   -3.4117409    1598.7091  0.071858556  0.072010197            8 
 1855000   0.94950071   -3.4185442    1601.3994  0.071940675  0.071999516            2 
 1856000   0.93193042   -3.4170159      1605.21  0.072073007   0.07198854            3 
 1857000   0.96515297    -3.392018    1609.5691  0.072229809  0.071977615            2 
 1858000   0.95418183   -3.3781111    1607.9609  0.072118807   0.07196676            5 
 1859000   0.96052224   -3.4022498    1603.7416  0.071890874  0.071955922            7 
 1860000   0.95471897   -3.3996427    1601.7903  0.071764799  0.071945097            5 
 1861000   0.94799567   -3.3831558    1603.3714  0.071797036  0.071934219            2 
 1862000   0.95791427   -3.3669519    1609.0888  0.072014356  0.071923852            3 
 1863000    0.9670448   -3.4057105    1608.2171  0.071936709  0.071913051            2 
 1864000   0.96878808   -3.3945705    1606.8595  0.071837424  0.071902165            3 
 1865000   0.96137202   -3.3917389    1608.6056  0.071876924  0.071891419            2 
 1866000   0.95026982   -3.4176885    1617.0464  0.072215364  0.071880924            6 
 1867000   0.95038298   -3.3665607     1614.133  0.072046643  0.071870658            6 
 1868000   0.95251475   -3.3982368    1610.8953   0.07186364  0.071860219            4 
 1869000   0.97275674    -3.404549    1613.4038  0.071937036  0.071849657            4 
 1870000   0.94586404   -3.4028679    1619.8892  0.072187575  0.071839263            3 
 1871000   0.93652029   -3.4313246    1613.1567   0.07184913  0.071828677            2 
 1872000   0.94286755   -3.3643403    1618.7963  0.072061799  0.071817887            2 
 1873000   0.94064001   -3.4095337     1613.902   0.07180557   0.07180752            3 
 1874000   0.96746392   -3.3942547    1616.7397  0.071893442  0.071796919            3 
 1875000   0.92860714   -3.3807172    1620.5114   0.07202273  0.071786369            3 
 1876000   0.96199958   -3.4042124    1620.5681  0.071986855  0.071775838            2 
 1877000   0.94895588   -3.3776047    1623.3505  0.072072034  0.071765043            2 
 1878000   0.95711632   -3.4151571    1620.1641  0.071892265  0.071754414            3 
 1879000   0.95547692   -3.3889634    1624.0077  0.072024468  0.071743567            2 
 1880000   0.91268164   -3.3834148    1619.6608  0.071793475  0.071732809            6 
 1881000   0.94057347   -3.3962362    1620.1947  0.071778961  0.071722001            4 
 1882000   0.95548602   -3.4331186    1622.5115  0.071843406  0.071711231            4 
 1883000   0.94504073   -3.3876221    1622.3357  0.071797473  0.071700726            4 
 1884000   0.94979881   -3.3973637    1626.1738   0.07192913  0.071689787            3 
 1885000   0.93932233   -3.4003454    1618.8098  0.071565421  0.071679203            3 
 1886000    0.9423972   -3.3887498    1624.5503   0.07178112  0.071668212            2 
 1887000   0.94670634   -3.4124317    1621.7573  0.071619737  0.071657207            4 
 1888000   0.94738777   -3.3828369    1616.3327  0.071342367  0.071646247            5 
 1889000   0.93701352    -3.386093    1629.2672  0.071875208  0.071635152            3 
 1890000   0.94488889   -3.3550036    1622.9025  0.071556549  0.071624238            4 
 1891000   0.94410642   -3.3783283    1624.7184  0.071598731  0.071613276            2 
 1892000   0.97487666   -3.3960019    1622.6874  0.071471432  0.071602359            3 
 1893000   0.92898207   -3.3794742    1627.4788  0.071644602   0.07159122            3 
 1894000   0.92888239   -3.4069213    1619.8498  0.071271109  0.071580093            3 
 1895000   0.93097651   -3.4237786    1622.7201  0.071359723  0.071568691            6 
 1896000    0.9393006   -3.3971373    1622.5588  0.071314995  0.071557251           10 
 1897000   0.96400687   -3.3734005    1624.4038  0.071358454  0.071545807            3 
 1898000   0.94208292    -3.377178    1630.0912  0.071570567  0.071534857            3 
 1899000   0.94890047   -3.4175498    1625.7021  0.071340272  0.071523819            4 
 1900000   0.95606735   -3.3944344    1627.3498  0.071374993  0.071512852            1 
 1901000   0.94507546   -3.4180685     1627.682  0.071352006  0.071501708            2 
 1902000   0.96099865   -3.4143627    1631.8357  0.071496483  0.071490635            3 
 1903000    0.9246588   -3.3961156    1633.7922  0.071544586  0.071480135            3 
 1904000   0.94171962   -3.4008433    1637.7928  0.071682108  0.071469431            2 
 1905000   0.95399603   -3.3903845    1637.2793  0.071622015  0.071459118            2 
 1906000   0.97544871   -3.4026194    1641.3577  0.071762756  0.071448749            2 
 1907000   0.95709496    -3.383206    1638.5881  0.071604094  0.071438204            3 
 1908000   0.94977839   -3.4015515    1635.3625  0.071425685  0.071427808            4 
 1909000   0.96507151   -3.4017546    1632.8518  0.071278673  0.071417135            3 
 1910000   0.95827329   -3.4169411    1631.2532  0.071171607  0.071406286            2 
 1911000   0.91788444   -3.4077655    1638.8596  0.071466055  0.071395703            3 
 1912000   0.94697903   -3.3796738    1630.5023  0.071064431  0.071384807            3 
 1913000   0.95861735   -3.4238969    1635.4293  0.071241911  0.071373992            4 
 1914000   0.94523344   -3.3768819    1638.7621  0.071349795  0.071362967            2 
 1915000   0.95330389   -3.4177517    1638.6607  0.071308124  0.071351823            3 
 1916000   0.93930491   -3.3987949     1642.429  0.071434804  0.071340732            6 
 1917000   0.94670922    -3.416034    1640.2844   0.07130431  0.071329531            2 
 1918000   0.96258392   -3.4085218    1639.3478  0.071226442  0.071318276            4 
 1919000   0.94034865   -3.4240014    1642.1502   0.07131102  0.071307378            6 
 1920000   0.96017149   -3.3990314     1638.135  0.071099608  0.071296077            2 
 1921000   0.93990409   -3.4147448    1644.2446  0.071327634  0.071284971            3 
 1922000    0.9516636   -3.4208933     1638.154  0.071026448  0.071273826            4 
 1923000   0.94263709     -3.39689     1640.192  0.071077829  0.071262577            4 
 1924000   0.95381354   -3.4108681    1645.8862  0.071287516  0.071251505            3 
 1925000   0.94300786   -3.3989243    1641.3826  0.071055525  0.071240183            3 
 1926000   0.91624829   -3.4268012    1641.7973  0.071036576  0.071228816            5 
 1927000   0.94310114   -3.4084021    1643.6226  0.071078647   0.07121764            2 
 1928000   0.94540195   -3.4040724    1653.1402  0.071453157  0.071206374            2 
 1929000   0.95014868   -3.4338743    1646.9321  0.071147921  0.071195271            5 
 1930000   0.92555794   -3.4099871    1646.3018  0.071083841  0.071184305            2 
 1931000    0.9535492   -3.3981628    1643.3028  0.070917607  0.071173368            4 
 1932000    0.9414332   -3.4000519    1655.3303  0.071399686  0.071162762            3 
 1933000   0.93557923    -3.422127    1650.8643  0.071170217  0.071151858            3 
 1934000   0.93030349   -3.3777895    1662.5325  0.071636179  0.071141025            3 
 1935000   0.93644183   -3.3981128    1658.3049  0.071417092  0.071130568            3 
 1936000   0.92896468   -3.4052933    1658.7281  0.071398422  0.071120048            4 
 1937000   0.94182548   -3.4124201     1659.316  0.071386852  0.071109349            3 
 1938000   0.94198207   -3.4065053    1657.7229  0.071281513  0.071098799            3 
 1939000   0.93394686   -3.3980077    1658.4213  0.071274769  0.071088058            3 
 1940000   0.94239825   -3.4114496    1658.7145  0.071250622  0.071077237            4 
 1941000   0.94915871   -3.4102334    1655.2594  0.071065578   0.07106652            4 
 1942000   0.93792637   -3.3980648    1660.4096  0.071249982  0.071055497            3 
 1943000   0.91623579   -3.3972115    1661.2236  0.071248224  0.071045021            3 
 1944000   0.96921907   -3.4204015    1654.9943  0.070944541  0.071033768            2 
 1945000    0.9428872   -3.4259536    1654.7505  0.070897624  0.071022871            3 
 1946000    0.9318697   -3.3949719     1659.429  0.071061537  0.071011749            2 
 1947000   0.93997859   -3.3860465    1657.3305   0.07093522  0.071000999            2 
 1948000   0.96264044   -3.3718977      1662.44  0.071117386  0.070989821            1 
 1949000   0.95178749   -3.4387872    1653.3736  0.070693243  0.070978413            3 
 1950000   0.92432148   -3.3966203    1655.0182  0.070727272  0.070967027            5 
 1951000   0.94124696   -3.4246406    1653.8974  0.070643148  0.070955448            2 
 1952000   0.92979265   -3.3943181    1658.2319  0.070792004  0.070943714            3 
 1953000    0.9594248   -3.4066436    1662.2672  0.070927939  0.070932232            5 
 1954000   0.93030443   -3.4118199    1662.4753  0.070900517  0.070920623            1 
 1955000   0.94677147   -3.4366642    1655.8449  0.070581623  0.070908935            2 
 1956000   0.91939262    -3.425716    1660.7916  0.070756287   0.07089741            6 
 1957000   0.92054713   -3.4131285    1669.6451  0.071097136  0.070886055            2 
 1958000   0.94517029   -3.3978018    1663.7398  0.070809492  0.070874644            2 
 1959000   0.95503641   -3.4181266    1664.5858  0.070809331  0.070863283            4 
 1960000   0.94409021    -3.426533    1659.5294  0.070558221  0.070851851            2 
 1961000   0.92842214   -3.4224915    1659.0845  0.070503338  0.070840409            5 
 1962000    0.9447745   -3.4291205    1662.5348   0.07061395  0.070829204            5 
 1963000   0.93885056   -3.4170109     1670.818  0.070929614  0.070817845            5 
 1964000   0.92931324   -3.4265497    1664.4776  0.070624474  0.070806304            5 
 1965000   0.93099448   -3.4314324    1662.6521  0.070511114  0.070794752            3 
 1966000   0.93391848   -3.4169042    1662.4334  0.070465978  0.070783233            5 
 1967000   0.92941324   -3.4114338    1669.1267  0.070713723   0.07077166            2 
 1968000   0.92276685   -3.4116126     1667.299  0.070600398  0.070760097            3 
 1969000   0.93551597   -3.4049899    1667.3525  0.070566806    0.0707488            2 
 1970000   0.91982605   -3.4146276    1666.7828  0.070506886  0.070737251            2 
 1971000   0.92654785   -3.4127054    1664.6409  0.070380557  0.070725759            9 
 1972000   0.94034902   -3.4288096    1662.7745  0.070265996  0.070713934            3 
 1973000   0.93243295    -3.425748    1671.3891  0.070594235  0.070702372            2 
 1974000   0.94131255   -3.4247118    1667.6107  0.070398966  0.070690834            4 
 1975000   0.93076241   -3.4040775    1666.0934  0.070299298  0.070679355            2 
 1976000   0.92777761    -3.408336    1674.7466  0.070628653  0.070668127            2 
 1977000   0.92938652   -3.4165626    1670.2283  0.070402475  0.070656715            2 
 1978000   0.95690207    -3.416385    1677.2626  0.070663236  0.070645229            1 
 1979000   0.95105899   -3.4135791     1674.896  0.070527874  0.070633883            3 
 1980000   0.93771427   -3.4236696    1677.6054  0.070606288  0.070622511            5 
 1981000   0.93568106   -3.4317236    1673.7274  0.070407512  0.070611008            3 
 1982000   0.92410007   -3.4380128    1676.2168  0.070476658  0.070599584            3 
 1983000   0.95001621    -3.438819     1672.599  0.070289084  0.070588135            2 
 1984000   0.90466216   -3.4172302    1677.3055   0.07045134  0.070576697            4 
 1985000   0.91563023   -3.4117489    1674.0631  0.070279728  0.070565322            3 
 1986000    0.9051853   -3.4165225    1682.9022  0.070615232  0.070553766            3 
 1987000   0.92021344   -3.4171913    1670.7784   0.07007123  0.070542029           10 
 1988000   0.94152828   -3.4156939    1674.1214  0.070176113  0.070530295            3 
 1989000     0.914636   -3.4131452    1680.7792  0.070419775  0.070518815            3 
 1990000    0.9259288    -3.436835    1678.1342  0.070273626  0.070507516            4 
 1991000   0.93024433   -3.3989173    1682.6842  0.070428772  0.070495912            5 
 1992000   0.91676622   -3.4265673    1684.6928  0.070477445  0.070484472            1 
 1993000   0.93743795   -3.4430291    1675.3402  0.070051022  0.070472751            3 
 1994000   0.93580727    -3.443982    1681.5411  0.070275039  0.070460919            1 
 1995000   0.92092672    -3.434712    1686.6587  0.070453578  0.070449534            2 
 1996000    0.9503474   -3.4210496    1676.7406  0.070004202  0.070438218            3 
 1997000   0.94049314   -3.4167802    1685.1932  0.070321865  0.070426515            2 
 1998000   0.93944263   -3.4608774    1679.0445  0.070030217  0.070415235            4 
 1999000   0.94282793   -3.4477786     1682.213  0.070127273    0.0704034            2 
 2000000   0.94863192   -3.3995012    1689.8953  0.070412304   0.07039201            3 
 2001000   0.93728808   -3.4352176    1688.7438  0.070329162   0.07038061            3 
 2002000   0.92735174   -3.4523257    1680.9851  0.069971074  0.070368965            1 
 2003000   0.92014656   -3.4409309    1680.1937  0.069903216  0.070356816            3 
 2004000   0.91992474   -3.4297124    1682.5885   0.06996792  0.070344852            5 
 2005000    0.9539222   -3.4162416    1684.0016  0.069991754  0.070332811            3 
 2006000   0.91141642    -3.428596    1687.8017  0.070114729  0.070320941            6 
 2007000   0.93826607   -3.4267891    1694.2866  0.070349052  0.070308789            4 
 2008000   0.94116693   -3.4097633    1686.5861  0.069994441  0.070296833            6 
 2009000   0.91903142   -3.4384669     1683.154   0.06981724  0.070284436            4 
 2010000   0.94260313    -3.439015    1674.1026  0.069407238  0.070272209            3 
 2011000   0.92174034   -3.4185629     1687.441   0.06992545  0.070259787            1 
 2012000   0.93367353   -3.4250108    1682.1024  0.069669584  0.070247664            2 
 2013000   0.92195417   -3.4242548    1681.9478  0.069628571  0.070235562            5 
 2014000   0.93232454   -3.4279225    1685.2343  0.069729985  0.070223369            4 
 2015000   0.94338575    -3.429112    1692.2398  0.069985105  0.070211215            2 
 2016000   0.94323298   -3.4383012    1678.8023  0.069394935  0.070198908            6 
 2017000   0.93486366   -3.4374521    1692.0533  0.069908005  0.070186479            4 
 2018000   0.93698159     -3.44123    1690.0831  0.069791999  0.070174286            4 
 2019000   0.93583804   -3.4404749     1683.607  0.069490136  0.070161975            2 
 2020000   0.95070508   -3.3986412     1693.351  0.069857716  0.070149436            7 
 2021000   0.93238241   -3.3961064    1691.4978  0.069746735     0.070137            3 
 2022000   0.93041778    -3.414509    1688.3032  0.069580579  0.070124525            4 
 2023000   0.92572616   -3.4284382    1694.0455  0.069782729  0.070112193            2 
 2024000   0.92550946   -3.4307448    1689.7829  0.069572746  0.070099608            4 
 2025000   0.95326908   -3.4108129    1687.8655  0.069459486  0.070087306            3 
 2026000   0.91656804   -3.4297614    1691.0293  0.069555336  0.070074553            3 
 2027000   0.91835857   -3.4404854     1694.335  0.069656925   0.07006197            2 
 2028000   0.92065129   -3.4391632    1694.2191  0.069617813  0.070049221            3 
 2029000   0.92259263   -3.4144466    1690.2994  0.069422515  0.070036435            5 
 2030000   0.92571875   -3.4149963    1694.2895  0.069552112  0.070023808            8 
 2031000   0.91973763   -3.4327636    1689.2344  0.069310454  0.070010975            3 
 2032000    0.9361488   -3.4382291    1691.4056  0.069365386  0.069997974            2 
 2033000   0.91661433   -3.4259059    1695.1927  0.069486501  0.069984824            5 
 2034000   0.90990128   -3.4508659    1685.0104   0.06903517   0.06997191            3 
 2035000    0.9200228      -3.4243    1696.0256  0.069452319  0.069958833            2 
 2036000   0.91510665   -3.4358565    1695.2907  0.069388128  0.069945988            3 
 2037000   0.91610515   -3.4500816    1688.2218  0.069064875  0.069933081            2 
 2038000   0.91479832   -3.4066539    1693.6039  0.069251058  0.069920075            3 
 2039000   0.91370517   -3.4149388    1693.6929  0.069220734  0.069907096            5 
 2040000   0.91938148   -3.4497895    1687.9878  0.068953751  0.069893892            3 
 2041000   0.91772103   -3.4487628     1692.328  0.069097176  0.069880384            4 
 2042000   0.93145692   -3.4371508    1696.2151  0.069221969   0.06986685            5 
 2043000   0.95784363   -3.4498371    1698.0925  0.069264665  0.069853557            5 
 2044000   0.92443096   -3.4553418    1691.8188  0.068974999  0.069840286            5 
 2045000   0.91245387   -3.4066912    1695.6729  0.069098324  0.069827043            2 
 2046000   0.94163049   -3.4236111     1695.529   0.06905869     0.069814            3 
 2047000   0.90652205   -3.4351538    1698.8424  0.069159843   0.06980112            4 
 2048000   0.93328549   -3.4457466     1696.285  0.069022015  0.069788044            2 
 2049000   0.95330333   -3.4243088    1699.4124  0.069115519  0.069774905            3 
 2050000   0.91001767   -3.4454423    1701.7839  0.069178208  0.069761664            3 
 2051000   0.92228558   -3.4368972    1701.7662  0.069143761  0.069748546            3 
 2052000   0.92447841   -3.4349877     1704.424  0.069217998  0.069735759            2 
 2053000   0.91565082    -3.421253     1702.915  0.069123031  0.069722794            3 
 2054000   0.92771395   -3.4330156    1702.5231  0.069073477  0.069709635            3 
 2055000   0.93514504   -3.4464773    1701.5595  0.069000791  0.069696867            3 
 2056000   0.91711624   -3.4561982    1704.1354  0.069071637  0.069683939            4 
 2057000   0.91529142   -3.4822286    1710.8035  0.069308194  0.069671198            4 
 2058000   0.90517722   -3.4377037    1700.2531  0.068847307  0.069658218            4 
 2059000   0.90278077   -3.4367207    1709.3254  0.069181049  0.069645332            4 
 2060000   0.94962292   -3.4586515    1709.8134  0.069167211  0.069632283            3 
 2061000   0.91565664   -3.4338729    1704.7587   0.06892927  0.069619261            4 
 2062000   0.89825948   -3.4136101    1703.7944  0.068856871  0.069606088            2 
 2063000    0.9370451   -3.4409872    1700.0475  0.068672139  0.069593069            5 
 2064000   0.91400477   -3.4311763    1711.5542  0.069103448  0.069579954            2 
 2065000   0.92068223   -3.4167157     1705.518  0.068826391   0.06956703            5 
 2066000   0.91651378   -3.4247913     1710.386  0.068989434  0.069553853            2 
 2067000   0.93183936   -3.4595163    1699.0225  0.068497925  0.069540718            4 
 2068000   0.94616352   -3.4461592    1705.1625   0.06871222  0.069527455            6 
 2069000    0.9214873   -3.4653364    1708.5889  0.068817019  0.069513988            5 
 2070000   0.92265085   -3.4557941    1714.3255  0.069014715  0.069500901            3 
 2071000   0.94448415   -3.4372008    1709.7762  0.068798332  0.069487821            2 
 2072000   0.91642838   -3.4759121    1704.9009  0.068569051  0.069474374            2 
 2073000   0.91691264   -3.4364192    1706.1401  0.068585791  0.069460974            3 
 2074000   0.92689604   -3.4471879    1714.5022  0.068888711  0.069447884            6 
 2075000   0.89565953    -3.431288    1707.7952  0.068586151  0.069434791            3 
 2076000   0.92433156   -3.4349651     1715.188  0.068849871  0.069421587            3 
 2077000   0.92616135   -3.4326287     1709.628  0.068593644  0.069408589            3 
 2078000   0.92231561   -3.4424853    1711.4596  0.068634088  0.069395439            2 
 2079000   0.91789237   -3.4352785    1705.7373  0.068371705  0.069382043            5 
 2080000    0.9034252   -3.4178159    1718.0168  0.068830803  0.069368959            3 
 2081000   0.91844981   -3.4621837     1716.277  0.068728055  0.069355696            5 
 2082000   0.91163091   -3.4302346    1717.4608  0.068742427  0.069342381            9 
 2083000   0.90484709   -3.4397056    1714.4951  0.068590778  0.069329173            2 
 2084000   0.90599551   -3.4699642    1713.6621  0.068524555  0.069315996            2 
 2085000   0.91981409   -3.4506625     1714.697  0.068533054  0.069302568            2 
 2086000     0.922293    -3.437078    1718.4175  0.068648829  0.069289364            3 
 2087000   0.92524699   -3.4364224    1718.0205  0.068600084  0.069276267            3 
 2088000   0.91529059   -3.4286754    1714.1754  0.068413768  0.069263037            3 
 2089000   0.91557753   -3.4675285     1713.268  0.068344822  0.069249553            3 
 2090000   0.90726646   -3.4304726     1720.402  0.068596572  0.069236356            2 
 2091000    0.8947795   -3.4389868    1724.4007  0.068723129    0.0692232            2 
 2092000   0.91915749   -3.4707867    1719.1933  0.068482842  0.069210083            4 
 2093000   0.91241832   -3.4296964    1725.0067  0.068681586  0.069197129            3 
 2094000   0.92168833   -3.4428133    1720.9315  0.068486609  0.069184007            5 
 2095000    0.9214398   -3.4489689    1722.3703  0.068511149  0.069170792            2 
 2096000   0.90518419   -3.4511733    1723.1942  0.068511218  0.069157638            3 
 2097000   0.91083401   -3.4599613    1726.0996  0.068594008  0.069144408            6 
 2098000   0.92815669   -3.4557145    1722.1113  0.068402896  0.069131241            6 
 2099000   0.91190797   -3.4529319    1721.4153  0.068342677  0.069117979            2 
 2100000   0.92525003   -3.4490472    1724.3044  0.068424777  0.069104753            2 
 2101000   0.91998971   -3.4455025    1724.5649  0.068402544  0.069091864            2 
 2102000   0.88453513   -3.4125878    1728.3616  0.068520521  0.069078707            2 
 2103000   0.90711466   -3.4575333    1727.3047  0.068446055  0.069065888            2 
 2104000   0.91417062   -3.4652733    1724.6538   0.06830853  0.069052695            7 
 2105000   0.91278642   -3.4607954    1727.5828  0.068392033  0.069039708            6 
 2106000   0.94321243   -3.4458312    1725.4396  0.068274756  0.069026524            4 
 2107000    0.8996736   -3.4465063    1729.5226  0.068403836  0.069013508            3 
 2108000   0.90744077   -3.4341625    1733.0492  0.068510798  0.069000648            4 
 2109000   0.91453081   -3.4705579    1729.0278  0.068319415  0.068987735            3 
 2110000    0.9109332    -3.454813    1731.7145  0.068393147  0.068974746            3 
 2111000   0.92091668    -3.443829    1725.5295  0.068116593  0.068961945            5 
 2112000   0.91098801   -3.4788034    1733.2432  0.068388698  0.068949106            2 
 2113000   0.91487009   -3.4225812     1728.745  0.068178933  0.068936136            3 
 2114000   0.93591767    -3.422407    1732.1774  0.068281987  0.068923337            3 
 2115000   0.92086213   -3.4440885     1736.368  0.068414815  0.068910331            6 
 2116000    0.9129193   -3.4675586    1733.7441  0.068279148  0.068897129            1 
 2117000   0.91759177   -3.4685773    1731.0402  0.068140457  0.068884068            4 
 2118000   0.90583283   -3.4579478      1736.16  0.068309726  0.068871072            4 
 2119000   0.90265369   -3.4411341    1738.0293  0.068351003  0.068858128            2 
 2120000   0.90210311   -3.4558019     1733.544  0.068142453  0.068845012            3 
 2121000   0.91051014   -3.4456191    1734.3583  0.068142321  0.068831742            2 
 2122000   0.90611633   -3.4579781    1730.8102  0.067970869  0.068818437            3 
 2123000   0.91386327   -3.4663558    1739.7466  0.068289628  0.068805266            2 
 2124000   0.91940929   -3.4456187    1737.0623  0.068152162  0.068792275            2 
 2125000   0.89333321   -3.4624465    1743.2509  0.068362778  0.068779245            3 
 2126000   0.93442122   -3.4524651    1734.7264  0.067996489  0.068766384            4 
 2127000    0.9200839    -3.447414    1736.3499  0.068028125  0.068753419            4 
 2128000   0.91185259   -3.4594067    1741.5685  0.068200521  0.068740147            3 
 2129000   0.92492403   -3.4636324    1737.9949   0.06802861  0.068727263            5 
 2130000   0.93098213   -3.4324659    1745.3682   0.06828514   0.06871403            3 
 2131000   0.90017513   -3.4573844    1741.0977  0.068086097  0.068700774            2 
 2132000    0.9106457   -3.4598738     1733.565  0.067759734  0.068687644            3 
 2133000   0.90043439   -3.4596242    1742.2022  0.068065409   0.06867445            4 
 2134000   0.90316025   -3.4656428    1740.9408  0.067984254  0.068661452            5 
 2135000   0.90979078   -3.4302653    1736.3482  0.067773155  0.068648283            3 
 2136000   0.90229319   -3.4511393    1743.0954  0.068004656  0.068635241            5 
 2137000   0.90696803   -3.4668747    1741.1431  0.067896706  0.068621713            7 
 2138000   0.89403818   -3.4677969    1747.2977  0.068104836  0.068608413            3 
 2139000   0.89292834     -3.43578    1743.8837  0.067939993  0.068595261            3 
 2140000   0.91614256   -3.4688501    1739.5267  0.067738579  0.068582144            4 
 2141000   0.91632378   -3.4565319     1743.313  0.067854314   0.06856901            6 
 2142000   0.90116703   -3.4599665    1743.9935   0.06784911  0.068555756            3 
 2143000   0.89589718   -3.4234699    1744.5084  0.067837473  0.068542256            2 
 2144000   0.93189588   -3.4559868    1742.8195  0.067740185  0.068529268            6 
 2145000   0.90291066   -3.4558947    1742.8555  0.067710005  0.068515534            3 
 2146000   0.93364884   -3.4648161    1749.5659  0.067939029  0.068502203            2 
 2147000   0.92820587   -3.4441008    1744.1873  0.067698623  0.068488928            3 
 2148000   0.91053224   -3.4663389     1745.397  0.067714038  0.068475429            6 
 2149000   0.89554295    -3.415307    1747.6148  0.067768527  0.068461805            1 
 2150000   0.90935881   -3.4664626    1748.5287   0.06777243  0.068448365            4 
 2151000   0.90148679   -3.4841611     1744.347  0.067578915  0.068434971            4 
 2152000    0.9162307   -3.4489921    1752.1059  0.067847966  0.068421604            3 
 2153000   0.88683762   -3.4706733    1748.7792   0.06768769  0.068408172            4 
 2154000   0.91551199   -3.4655953    1748.6536  0.067651409  0.068394826            3 
 2155000   0.89553823   -3.4598315    1747.0852  0.067559365  0.068381546            3 
 2156000   0.91320884   -3.4778198    1748.5577  0.067584946  0.068368281            3 
 2157000     0.903122   -3.4406579    1750.4293  0.067625919  0.068354897            6 
 2158000   0.91844728   -3.5000774    1745.8597  0.067418121  0.068341564            3 
 2159000   0.90934754   -3.4776651    1748.4977  0.067488717  0.068328209            4 
 2160000   0.91495245   -3.4559302    1755.8806  0.067742309  0.068314808            3 
 2161000   0.91101983   -3.4619906    1751.6019  0.067545963  0.068301569            9 
 2162000   0.90658393   -3.4594639    1751.7218   0.06751934  0.068288378            4 
 2163000   0.88437278   -3.4617803    1755.5054  0.067633894  0.068275001            7 
 2164000   0.91752991   -3.4734382    1752.2729  0.067478161  0.068261658            3 
 2165000   0.90070712   -3.4567434    1754.7576  0.067542632  0.068248468            3 
 2166000   0.92184255   -3.4725414    1750.7677  0.067357944  0.068235229            4 
 2167000   0.88560454    -3.461316    1759.7909  0.067673855  0.068221864            3 
 2168000   0.91408722   -3.5037927     1754.314   0.06743212  0.068208585            4 
 2169000   0.91118248   -3.4608073    1753.6153  0.067374187  0.068195092            2 
 2170000   0.91826808   -3.4756075    1753.5563  0.067340872  0.068181949            2 
 2171000   0.90510422   -3.4723054    1756.4645  0.067421485  0.068168733            3 
 2172000   0.90306651    -3.467813     1759.501  0.067506945  0.068155353            2 
 2173000   0.92441618   -3.4588597    1762.3878  0.067586586  0.068142237            5 
 2174000   0.89226373   -3.4578357    1764.2286  0.067626057  0.068129021            5 
 2175000   0.89431724   -3.4905034    1752.9099    0.0671613  0.068116062            4 
 2176000   0.91091261   -3.4738207    1763.3602  0.067530645  0.068102917            2 
 2177000   0.90532834    -3.470183    1760.8121  0.067402085  0.068089914            2 
 2178000   0.90979661   -3.4584484    1763.9003    0.0674893  0.068076653            5 
 2179000   0.87344367   -3.4864658    1760.2013  0.067316862  0.068063382            3 
 2180000    0.8870961   -3.4617373    1761.3642  0.067330435  0.068050042            5 
 2181000   0.91411362   -3.4714842    1760.1213  0.067252073  0.068036665            2 
 2182000   0.90344901   -3.4590581     1762.483   0.06731145  0.068023422            2 
 2183000   0.89479842   -3.4565401    1760.0703  0.067188513  0.068010455            4 
 2184000   0.90099498    -3.476092    1757.6636  0.067065917  0.067997161            2 
 2185000   0.89230206   -3.4560549    1765.7376  0.067343159  0.067983965            7 
 2186000   0.88578115   -3.4750521    1763.3773  0.067222372  0.067970663            5 
 2187000   0.90857626   -3.4723579    1764.3106  0.067227199  0.067957806            2 
 2188000   0.88572883    -3.454835     1769.563  0.067396517  0.067945079            5 
 2189000   0.91132422   -3.4546928     1769.912  0.067379017  0.067932216            3 
 2190000   0.90758631   -3.4801137    1765.4719  0.067179295  0.067919295            3 
 2191000   0.90523342   -3.4621388    1772.7698  0.067426205  0.067906414            6 
 2192000   0.91998903   -3.4857547    1767.4419  0.067192895  0.067893285            4 
 2193000   0.89913063   -3.4542807    1777.3231  0.067537737   0.06788032            4 
 2194000   0.89635047   -3.4567275     1776.622  0.067480324  0.067867179            3 
 2195000   0.88245329   -3.4440472    1774.2795  0.067360651  0.067854283            4 
 2196000   0.89144675   -3.4891402    1771.4771  0.067223631  0.067841482            1 
 2197000   0.89467461   -3.4807506    1771.2379   0.06718396  0.067828495            2 
 2198000    0.9197914   -3.4672342    1774.6867  0.067284149  0.067815595            2 
 2199000   0.90028789   -3.4573019    1775.1313  0.067270401   0.06780256            3 
 2200000   0.91253893   -3.4780343    1775.8671  0.067267692  0.067789843            4 
 2201000   0.90597851   -3.4668871    1776.2233  0.067250618   0.06777707            2 
 2202000   0.90519179   -3.4600475     1782.868  0.067471539  0.067764387            3 
 2203000   0.88360915   -3.4791247    1776.1658   0.06718739  0.067751664            2 
 2204000   0.90228975   -3.4930474    1776.7131  0.067177599  0.067739183            3 
 2205000   0.89672252   -3.4657792    1773.8721  0.067039763  0.067726609            5 
 2206000   0.89625204   -3.4908062    1780.0794  0.067243857  0.067713989            6 
 2207000   0.91858926   -3.4678986    1783.9641  0.067360071  0.067701375            2 
 2208000    0.9063086   -3.5057322    1773.7183  0.066942871  0.067688779            3 
 2209000   0.89078819   -3.4949409    1782.1795  0.067231762  0.067676009            3 
 2210000   0.90331693   -3.4674087    1782.8445  0.067226415  0.067663385            3 
 2211000    0.8911619   -3.4572024    1787.1025  0.067356494   0.06765098            5 
 2212000   0.91710811   -3.4633726    1781.3895  0.067110815  0.067638477            2 
 2213000   0.90375027   -3.4734483     1783.986  0.067178266  0.067625944            3 
 2214000    0.9237975   -3.4726042    1780.8483  0.067029821  0.067613311            4 
 2215000   0.88827854   -3.4697303    1788.4243  0.067284586   0.06760056            8 
 2216000   0.89138233   -3.4602639    1783.1102  0.067054385  0.067587888            3 
 2217000   0.87842184   -3.4700506    1791.1691  0.067327059  0.067575248            6 
 2218000   0.89517668   -3.4767429    1782.8685   0.06698484   0.06756255            8 
 2219000   0.88812282   -3.4666175    1787.7221  0.067136926  0.067549974            3 
 2220000   0.91133671   -3.4739734    1782.7829  0.066921282  0.067537384            4 
 2221000   0.89944891   -3.5027224    1782.0857  0.066864989  0.067524563            3 
 2222000    0.9014911   -3.4715795     1789.487  0.067112475  0.067511733            3 
 2223000   0.88763804    -3.462984    1786.9708   0.06698796  0.067499136            3 
 2224000   0.89669896   -3.4942302    1786.2298  0.066930073  0.067486431            5 
 2225000   0.89880769   -3.4709167    1783.0276   0.06678006  0.067473898            3 
 2226000   0.89834965   -3.4894234    1790.1123  0.067015284  0.067461293            4 
 2227000   0.89118894   -3.4803755    1786.7162  0.066858113  0.067448694            5 
 2228000   0.89946787   -3.4832924    1787.3061  0.066850169  0.067435981            3 
 2229000   0.88666837   -3.4940813    1785.2602   0.06674369  0.067423264            3 
 2230000   0.88777233   -3.4892828     1792.874  0.066998282  0.067410763            2 
 2231000   0.89314635   -3.4831258     1796.688  0.067110712  0.067398226            2 
 2232000   0.89216431   -3.4616807    1789.4867   0.06681178  0.067385682            4 
 2233000   0.88161559   -3.4897948    1793.2934   0.06692392  0.067373169            5 
 2234000   0.89122266   -3.4401768    1794.5963  0.066942565  0.067360863            4 
 2235000   0.88258765   -3.4662965    1799.2377  0.067085673  0.067348524            2 
 2236000   0.89536461   -3.4918702    1798.5462  0.067029897  0.067336159            5 
 2237000   0.88590668   -3.4938641    1801.6586  0.067115878  0.067323727            3 
 2238000    0.9102896   -3.4496809    1802.8368   0.06712976  0.067311437            3 
 2239000   0.89460309    -3.469275    1802.4179  0.067084187  0.067299323            1 
 2240000   0.90859266   -3.4892514    1800.8154   0.06699462  0.067287188            5 
 2241000   0.90018381   -3.4979609    1796.1027  0.066789481  0.067274898            2 
 2242000   0.87776029   -3.4648323    1803.7992  0.067045761  0.067262729            3 
 2243000   0.90122824   -3.4719809    1800.5405  0.066894804  0.067250616            3 
 2244000   0.89275327   -3.4720872    1806.4105  0.067082979  0.067238215            5 
 2245000   0.90173618     -3.48397    1802.5062  0.066908174   0.06722599            5 
 2246000   0.89658223   -3.4835905    1803.5141   0.06691578  0.067213601            4 
 2247000   0.86160977   -3.4904654     1795.789  0.066599502  0.067201218            2 
 2248000   0.89432315   -3.5146211    1796.9957  0.066614608  0.067188814            3 
 2249000   0.89189815   -3.4720249    1799.7442  0.066686831  0.067176036            1 
 2250000   0.89526039   -3.4644358    1806.8451   0.06692019  0.067163738            2 
 2251000   0.89763358   -3.4947799    1801.4603  0.066691112  0.067151115            1 
 2252000   0.90528484   -3.4849363    1805.8976  0.066825697  0.067138298            5 
 2253000   0.89464681    -3.487992    1805.2245   0.06677114  0.067125607            4 
 2254000   0.87232392   -3.4796374    1799.8789  0.066543881  0.067113046            2 
 2255000   0.87975135   -3.4822646    1805.1332  0.066708544  0.067100472            3 
 2256000   0.89662058   -3.4941113    1802.9235  0.066597353  0.067087926            5 
 2257000   0.88447074   -3.5026853    1801.9167  0.066530673  0.067075056            5 
 2258000   0.88543409    -3.502426    1799.6861  0.066418885  0.067062471            3 
 2259000   0.91178111   -3.4804939    1808.4639   0.06671329  0.067049778            3 
 2260000   0.87452704   -3.4875041    1804.6928  0.066544719  0.067036887            3 
 2261000   0.88077615   -3.4766456    1807.8781  0.066632689   0.06702437            4 
 2262000   0.87288792   -3.4900633    1807.1936  0.066578012  0.067011791            2 
 2263000   0.90795367   -3.4875598    1816.3631  0.066886252  0.066999382            3 
 2264000   0.87926566   -3.4902386    1808.4239  0.066564483  0.066986945            5 
 2265000   0.89206536   -3.4879855    1804.6708  0.066397013  0.066974432            3 
 2266000   0.88893863   -3.4812676    1804.7364  0.066370125  0.066961823            2 
 2267000   0.88222423   -3.4860585    1807.0802  0.066427003  0.066949167            2 
 2268000   0.89257061   -3.5072951    1808.7859  0.066460389  0.066936563            6 
 2269000   0.86645989   -3.4935273    1808.7744  0.066430675  0.066923795            6 
 2270000   0.89673492    -3.485718    1810.0324  0.066447591  0.066911236            1 
 2271000   0.90307259   -3.4855405    1806.7991  0.066299688  0.066898668            2 
 2272000   0.89625957   -3.4749892     1812.794  0.066490392  0.066886382            5 
 2273000   0.87983696   -3.4899803    1806.1606  0.066217943  0.066874022            2 
 2274000   0.90549617   -3.4920336    1812.0188  0.066403504  0.066861383            2 
 2275000   0.91457838   -3.4967523    1808.6348  0.066250359   0.06684883            2 
 2276000   0.89471366   -3.4723292    1814.6513  0.066441539  0.066836151            5 
 2277000   0.88637642   -3.5004158    1814.4113  0.066403574  0.066823681            4 
 2278000    0.8802663   -3.4742772    1817.4962  0.066487278  0.066810981            4 
 2279000   0.90709711   -3.5132046    1816.5185  0.066422354  0.066798322            5 
 2280000    0.8933359   -3.4889046     1814.448  0.066317543  0.066785586            3 
 2281000   0.87889669   -3.5096064     1811.706  0.066188293  0.066772803            3 
 2282000   0.85871017   -3.5290946    1815.7546  0.066307134  0.066760246            7 
 2283000   0.90249148   -3.5000015    1818.7041  0.066385753  0.066747514            3 
 2284000   0.90325788   -3.5235747    1813.5999  0.066170456  0.066734756            4 
 2285000   0.87508834   -3.4900366    1823.8111    0.0665139  0.066721985            5 
 2286000   0.87944113   -3.5111189    1808.3376  0.065920736  0.066709437            3 
 2287000   0.88494278   -3.4823902    1820.2096    0.0663245   0.06669644            3 
 2288000    0.8881392   -3.4939667    1820.5979  0.066309655  0.066683944            3 
 2289000    0.8903068   -3.4810214    1822.9884  0.066367715  0.066671429            5 
 2290000   0.87897563    -3.517823    1817.3403    0.0661332  0.066659124            4 
 2291000   0.84776721   -3.4802668    1821.9283  0.066271217   0.06664657            7 
 2292000   0.89256927   -3.4897906    1826.1973  0.066397515  0.066634028            2 
 2293000   0.89034717   -3.4838692    1825.1697  0.066331213  0.066621622            3 
 2294000   0.89013011   -3.5196346    1830.8057  0.066507037   0.06660905            3 
 2295000   0.88637375    -3.478973      1819.11  0.066053377  0.066596508            2 
 2296000    0.8837514   -3.4936015     1827.023  0.066311812  0.066584025            2 
 2297000   0.90563699   -3.4804169    1822.4139  0.066115727  0.066571809            2 
 2298000    0.8721276   -3.5145263    1821.0856  0.066038787  0.066559369            2 
 2299000   0.88069768   -3.4859719    1825.9696  0.066187095  0.066546815            2 
 2300000   0.88560797   -3.4897047    1821.2037  0.065985642  0.066534433            2 
 2301000   0.86676113   -3.4832545    1827.5414  0.066186492  0.066522015            2 
 2302000   0.86920817   -3.5056169    1824.5865  0.066050773  0.066509251            4 
 2303000   0.86117196   -3.5019168    1823.4008  0.065979187    0.0664967            4 
 2304000    0.8845245   -3.5036924     1826.549  0.066064418  0.066484419            3 
 2305000    0.8978673   -3.4965837    1829.5144  0.066142966  0.066472036            3 
 2306000    0.8678286   -3.5043787    1828.7314  0.066085984   0.06645965            2 
 2307000   0.88638026   -3.4904648    1827.3075  0.066005905  0.066447208            5 
 2308000   0.86929045   -3.4690326    1830.6112  0.066096591   0.06643458            4 
 2309000   0.89766674   -3.5037149    1825.7076  0.065890992    0.0664222            2 
 2310000   0.89040988   -3.5038633    1829.0218  0.065982028  0.066409779            2 
 2311000   0.86901953   -3.5186161    1835.4441   0.06618506  0.066397308            3 
 2312000   0.87948708   -3.4995592    1827.7525  0.065879201  0.066384872            5 
 2313000    0.8870608   -3.4920072    1829.6795  0.065920143  0.066372742            3 
 2314000   0.89169204   -3.4888134    1834.9812  0.066082585  0.066360536            5 
 2315000   0.87746221   -3.4823159    1833.5815  0.066003653  0.066348292            4 
 2316000   0.89945744   -3.4821771    1834.9032  0.066022713  0.066336014            3 
 2317000   0.89171666   -3.4984852    1832.8916  0.065921866  0.066323793            5 
 2318000   0.86703307   -3.4888837    1832.4922  0.065879069   0.06631161            4 
 2319000    0.8756546    -3.529454    1831.5493  0.065816778  0.066299107            2 
 2320000   0.89185116   -3.5147536    1835.6043  0.065934062  0.066286722            3 
 2321000   0.87504017   -3.5067967    1835.4869   0.06590144  0.066274551            3 
 2322000   0.90405867    -3.524205    1835.2877  0.065865908  0.066262215            3 
 2323000     0.859405   -3.4772759      1840.18  0.066013057  0.066250158            2 
 2324000    0.8803921   -3.4989709    1837.2691  0.065880276  0.066237995            4 
 2325000   0.86216144   -3.5147001    1835.3508  0.065783184  0.066225663            6 
 2326000   0.85314322   -3.4978522    1837.7031  0.065839178  0.066213327            3 
 2327000   0.89872211   -3.5262157    1838.8391  0.065851566  0.066201033            3 
 2328000   0.88351198   -3.5150863    1839.7633  0.065856362  0.066188853            2 
 2329000   0.87386844   -3.4907393    1843.1023  0.065947558  0.066176795            2 
 2330000   0.87034553    -3.497209    1842.8633  0.065910705   0.06616483            6 
 2331000   0.87116307   -3.4774165    1848.0216  0.066066838  0.066152692            3 
 2332000   0.86953742   -3.4765416    1847.4044  0.066016453   0.06614055            7 
 2333000   0.87630266   -3.5210555    1837.0218  0.065617296  0.066128346            3 
 2334000   0.86084552   -3.5151814    1842.0267  0.065767878  0.066116015            3 
 2335000   0.88324728   -3.5055778    1849.4656  0.066005198  0.066103633            4 
 2336000   0.87899341   -3.4981993    1847.3379  0.065901039  0.066091727            4 
 2337000    0.8739948   -3.5075525     1849.479  0.065949187  0.066079472            6 
 2338000   0.87680863   -3.5017785    1849.6732  0.065927902   0.06606746            2 
 2339000   0.87548679   -3.5021405    1847.0279  0.065805468  0.066055608            2 
 2340000   0.87481415   -3.4986578    1847.3229  0.065787853  0.066043605            6 
 2341000   0.88628213   -3.5195736    1855.6721   0.06605696  0.066031563            9 
 2342000    0.8658976   -3.4829983     1850.931  0.065860055  0.066019549            4 
 2343000   0.87117472   -3.5051041    1852.1544  0.065875458  0.066007506            3 
 2344000   0.88071121    -3.509913    1853.4559  0.065893624  0.065995434            3 
 2345000   0.85874529   -3.4940068    1854.6524  0.065908046  0.065983692            5 
 2346000    0.8708272   -3.5044753    1859.1022  0.066038015  0.065971666            3 
 2347000   0.88037725   -3.5104112    1851.6026  0.065743596  0.065959754            4 
 2348000    0.8754282   -3.5321471    1853.5308  0.065784028  0.065947835            3 
 2349000   0.87131483   -3.4910872    1852.4104  0.065716277  0.065935849            3 
 2350000   0.86369336   -3.4889525    1851.3732  0.065651533  0.065923827            4 
 2351000   0.88802789   -3.5060652    1858.2531  0.065867472  0.065911841            2 
 2352000    0.8702798     -3.49995    1853.9308  0.065686324  0.065899847            6 
 2353000   0.87240618   -3.5225607    1856.9559  0.065765543  0.065887746            3 
 2354000   0.89538559   -3.5267636     1852.515  0.065580396  0.065875842            3 
 2355000   0.87647556   -3.4977574    1860.3147  0.065828544   0.06586381            5 
 2356000   0.88341745   -3.4976246    1853.1569   0.06554743  0.065851712            2 
 2357000   0.86380129   -3.5134064    1858.2863  0.065700972  0.065839772            3 
 2358000    0.8838626   -3.5135396    1857.9625  0.065661664  0.065827703            3 
 2359000   0.86580689   -3.5161277    1853.5638  0.065478445  0.065815696            3 
 2360000   0.87391592   -3.5025316    1862.6989  0.065773266  0.065803815            3 
 2361000   0.87815386   -3.5122826    1857.2155  0.065551866  0.065792025            5 
 2362000   0.88138146   -3.5137682     1864.457  0.065779602  0.065780255            3 
 2363000   0.88665108   -3.5323794     1864.732  0.065761463  0.065768405            3 
 2364000     0.878908   -3.5516134    1866.2386  0.065786754  0.065756714            8 
 2365000   0.86814507   -3.4934992    1862.1496  0.065614856    0.0657449            4 
 2366000   0.88521455   -3.5352438    1857.3087  0.065416621  0.065733062            3 
 2367000   0.86549418   -3.5301392    1864.5046  0.065642326  0.065721282            4 
 2368000    0.8691055   -3.4860921    1870.6173   0.06582972  0.065709504            2 
 2369000   0.87396389   -3.4952672     1863.537   0.06555287  0.065697808            1 
 2370000   0.86335412    -3.513113    1865.5042  0.065594382  0.065685955            1 
 2371000   0.88498551   -3.5122395    1870.0323  0.065725863  0.065674236            5 
 2372000   0.87345226   -3.5183391    1863.6219  0.065472946  0.065662471            6 
 2373000   0.89355474   -3.5131717     1869.449  0.065649987  0.065650697            2 
 2374000   0.86951596   -3.5269291    1856.4988  0.065167749  0.065638866            5 
 2375000   0.88281478   -3.5187842    1867.7842  0.065536286  0.065627064            5 
 2376000   0.87491314    -3.509741    1861.2084  0.065278073  0.065615289            4 
 2377000   0.85937363   -3.5179265    1867.9756  0.065487854  0.065603504            3 
 2378000   0.87847816   -3.5181731    1872.3291  0.065612879  0.065591733            3 
 2379000   0.86414215   -3.5458169    1866.1452  0.065368684  0.065579896            5 
 2380000   0.86787293   -3.5267086    1870.0295  0.065477224  0.065568135            3 
 2381000   0.85634079   -3.5105926    1871.4326  0.065498832  0.065556547            3 
 2382000   0.88190709   -3.5245971    1873.0354  0.065527408  0.065544827            2 
 2383000   0.87849446    -3.514543    1874.2689  0.065543046  0.065533145            2 
 2384000   0.85664282   -3.5313313    1876.4315  0.065591145  0.065521403            3 
 2385000   0.87354343   -3.5175691    1878.2954   0.06562877  0.065509889            4 
 2386000   0.87629353   -3.5128508    1868.8891  0.065272739  0.065498171            6 
 2387000   0.85427812   -3.5211319    1877.3318  0.065540142  0.065486567            1 
 2388000   0.88659136   -3.5213572    1879.8891  0.065601936  0.065474912            2 
 2389000   0.86399177   -3.5458937    1869.9501  0.065227783  0.065463264            3 
 2390000   0.87754056   -3.5047245    1873.4805  0.065323587  0.065451811            5 
 2391000   0.84987873   -3.5236127    1877.2979  0.065429314  0.065440175            3 
 2392000   0.87449873   -3.5246338    1875.2747  0.065331477  0.065428407            4 
 2393000   0.84856323   -3.5168272    1879.6869  0.065457825  0.065416654            3 
 2394000   0.87231853   -3.5165809    1881.3993  0.065490091  0.065404762            1 
 2395000   0.87686538   -3.5121942    1874.4622  0.065221371  0.065392975            3 
 2396000   0.85974382   -3.5431901    1874.4343  0.065193181   0.06538123            5 
 2397000   0.87194215   -3.5185904    1879.5551  0.065344011  0.065369381            3 
 2398000   0.86282346   -3.5089198    1888.1726  0.065616229    0.0653577            6 
 2399000   0.87451594   -3.5285435     1876.767  0.065192685  0.065345966            6 
 2400000   0.86534857    -3.513578    1878.2947  0.065218565  0.065334278            2 
 2401000   0.87063625   -3.5018403    1878.8512  0.065210719  0.065322489            3 
 2402000   0.88329577   -3.4936785    1886.1571  0.065437037   0.06531089            4 
 2403000   0.87284056   -3.5142634    1880.8919  0.065227211  0.065299074            2 
 2404000   0.85746757   -3.5308604    1881.4009  0.065217723  0.065287199            2 
 2405000   0.87248776   -3.5211812    1884.6117  0.065301862  0.065275443            7 
 2406000   0.87522414   -3.5234028    1875.4819  0.064958504  0.065263521            3 
 2407000   0.86729114   -3.5125539    1883.5749  0.065211704  0.065251478            3 
 2408000    0.8596833   -3.5480358    1877.0522  0.064958894  0.065239583           12 
 2409000   0.85823214   -3.4949124    1882.5185  0.065121022  0.065227592            2 
 2410000   0.85356476   -3.5117841    1880.2475  0.065015473  0.065215638            5 
 2411000   0.86728044   -3.5448734    1882.9264  0.065081101  0.065203615            4 
 2412000   0.86723057   -3.5095751    1880.4987  0.064970243  0.065191639            4 
 2413000   0.88361187   -3.5595222    1881.5411  0.064979315  0.065179739            5 
 2414000   0.86098316   -3.5061393    1881.5449   0.06495253  0.065167737            5 
 2415000   0.87566464   -3.5099738    1878.1567   0.06480872  0.065155664            3 
 2416000   0.85559196   -3.5168664    1882.4068  0.064928491   0.06514346            6 
 2417000   0.86909492   -3.5373089    1882.7668  0.064914039  0.065131255            5 
 2418000   0.86359926   -3.5250263    1885.6682  0.064987186  0.065118944            3 
 2419000   0.86221033   -3.5268398    1889.1881  0.065081579  0.065106746            2 
 2420000   0.85589367   -3.5288058    1881.3358   0.06478429  0.065094491            2 
 2421000   0.87938843   -3.5097179    1889.4067  0.065035341  0.065082417            4 
 2422000   0.85874216   -3.5173462    1886.3687  0.064903959  0.065070305            3 
 2423000   0.88384986   -3.5343748    1892.5509  0.065089797  0.065058082            4 
 2424000   0.85568146   -3.5273757    1888.8865  0.064936966  0.065045952            3 
 2425000   0.85347511   -3.5496384    1876.1803   0.06447355  0.065033757            2 
 2426000   0.86752452   -3.5174225    1883.9156  0.064712682  0.065021363            3 
 2427000   0.87105975   -3.5331189    1877.6167   0.06446974  0.065009131            5 
 2428000   0.86584632   -3.5206854    1885.5605  0.064715833   0.06499663            3 
 2429000   0.86146807   -3.5043256    1892.2523   0.06491877  0.064984475            4 
 2430000   0.87088622   -3.5281743    1890.3403  0.064826484  0.064972236            4 
 2431000   0.85767971   -3.4973953    1887.6323   0.06470699  0.064960121            3 
 2432000   0.87330723   -3.5347171    1889.7358   0.06475246  0.064947882            6 
 2433000   0.85947377   -3.5425677    1890.7757  0.064761464  0.064935551            7 
 2434000   0.86264947   -3.5457902    1884.9541  0.064535543  0.064923224            3 
 2435000   0.86999424   -3.5467312    1882.2039  0.064414917  0.064910811            3 
 2436000   0.85542575     -3.50472    1893.4998  0.064774896  0.064898663            4 
 2437000   0.85400096   -3.5339172    1890.3949  0.064642145  0.064886379            6 
 2438000   0.89222629   -3.5540898    1889.8687  0.064597644  0.064874205            3 
 2439000   0.85824057   -3.5271317    1895.6261  0.064767873  0.064861918            5 
 2440000    0.8665696    -3.527233    1898.8504   0.06485145  0.064849626            4 
 2441000   0.85800617   -3.5381294    1897.0435  0.064763194   0.06483733            2 
 2442000   0.85881125   -3.5460574    1887.0606  0.064396008  0.064825024            4 
 2443000   0.84528058   -3.5267429    1888.0221  0.064402444  0.064812532            3 
 2444000   0.85893371   -3.5351506    1891.0212  0.064478355  0.064800152            5 
 2445000   0.88518434     -3.51986    1892.1214  0.064489483  0.064787767            6 
 2446000   0.87403649   -3.5390106    1891.7259  0.064449641  0.064775283            3 
 2447000   0.86776169   -3.5358477    1887.6357  0.064284012  0.064762781            5 
 2448000   0.86123855   -3.5255876    1896.5355  0.064560714  0.064750312            3 
 2449000   0.86983418   -3.5475135    1892.3817  0.064393008  0.064737805            4 
 2450000   0.85172467   -3.5468729    1890.1938  0.064292305   0.06472528            4 
 2451000   0.87193063   -3.5312929    1890.5685  0.064278816  0.064712677            8 
 2452000   0.85216376   -3.5585985     1886.517  0.064114907  0.064700075            9 
 2453000   0.85958871   -3.5427291    1894.1306   0.06434742  0.064687266            6 
 2454000   0.86962162   -3.5368512    1890.8665  0.064210354  0.064674698            6 
 2455000   0.85687459   -3.5231747    1886.0547  0.064020866  0.064661971            9 
 2456000   0.85585424   -3.5706515    1893.6102  0.064251162  0.064649082            3 
 2457000   0.85210357   -3.5608217    1897.0966  0.064343258  0.064636061            2 
 2458000   0.84747573   -3.5025818    1895.5136  0.064263411  0.064623449            5 
 2459000   0.86634547   -3.5255178    1901.1937  0.064429773  0.064610976            2 
 2460000   0.85442621   -3.5335782    1893.9973  0.064159801  0.064598357           12 
 2461000    0.8588953   -3.5256713    1900.7891  0.064363712  0.064585768            2 
 2462000   0.87136468     -3.54158    1892.7432   0.06406523  0.064573267            4 
 2463000   0.86161779   -3.5543956    1894.3912  0.064094979  0.064560589            5 
 2464000   0.85814218   -3.5126861     1894.076  0.064058305  0.064547936           10 
 2465000   0.86148012   -3.5249926    1894.4163  0.064043825  0.064535294            3 
 2466000   0.87168505   -3.5355165    1898.1397  0.064143679  0.064522468            6 
 2467000   0.85735356   -3.5118606     1902.494   0.06426476  0.064509759           12 
 2468000   0.87222315   -3.5437416    1888.6484  0.063771218  0.064496895            2 
 2469000   0.86362633   -3.5372336    1897.2608  0.064036075   0.06448406            5 
 2470000   0.86160505   -3.5433377    1894.9416  0.063931901  0.064471303            3 
 2471000   0.83537169   -3.5468417    1893.8131  0.063867973  0.064458478            3 
 2472000   0.84794746   -3.5223651    1896.6544  0.063937919  0.064445678            2 
 2473000   0.84014136   -3.5698453    1894.5178  0.063840067  0.064432764            4 
 2474000   0.83505303   -3.5390193    1899.6861  0.063988348   0.06441997            2 
 2475000   0.85317297   -3.5554917    1898.6811  0.063928658  0.064407202            2 
 2476000   0.85618384   -3.5448253    1895.4487  0.063794046  0.064394441            5 
 2477000   0.84663061   -3.5378282     1894.352  0.063731395  0.064381651            5 
 2478000   0.85321732   -3.5362025    1899.5608  0.063880844  0.064368634            8 
 2479000   0.85889357   -3.5553003    1899.1963  0.063842821  0.064355548            2 
 2480000   0.85429467   -3.5506733    1892.7027  0.063598882  0.064342519            4 
 2481000    0.8691797   -3.5278907    1892.3467  0.063561289  0.064329415            6 
 2482000   0.87390877    -3.565019    1891.4106  0.063504251  0.064316413            3 
 2483000   0.87760521   -3.5399948    1896.4143  0.063646608  0.064303447            6 
 2484000   0.85472099   -3.5448139    1902.8823  0.063837974  0.064290437            5 
 2485000   0.85777385   -3.5489616    1905.1414   0.06388804  0.064277516            6 
 2486000   0.86307436   -3.5451607    1899.0212  0.063657187   0.06426447            3 
 2487000   0.84659403   -3.5384525    1903.7717  0.063790769  0.064251414            6 
 2488000    0.8608601   -3.5529488    1904.5326  0.063790614  0.064238539            3 
 2489000    0.8379545   -3.5571938    1902.9597  0.063712323  0.064225633            5 
 2490000   0.85018281   -3.5570513    1904.5436  0.063739745  0.064212783            3 
 2491000   0.86279932    -3.528067     1907.041  0.063797704  0.064199996            5 
 2492000   0.84665647   -3.5440165    1907.6806  0.063793493  0.064187407            3 
 2493000   0.87383002   -3.5579155    1903.0049  0.063611611  0.064174593            3 
 2494000   0.87480281   -3.5447751    1905.5327  0.063670566   0.06416167            6 
 2495000    0.8464581   -3.5284228    1905.5364  0.063645169  0.064148856            2 
 2496000   0.84416789   -3.5639368    1901.4821  0.063484312  0.064136041            2 
 2497000   0.83572438   -3.5279231     1908.353  0.063688193  0.064123118            6 
 2498000    0.8536189   -3.5570428    1906.4889  0.063600509  0.064110275            9 
 2499000   0.86420337   -3.5619272    1907.8281  0.063619719  0.064097559            2 
 2500000   0.85649233    -3.547062    1905.9707  0.063532358  0.064084838            3 
 2501000   0.84627391   -3.5459009     1908.528  0.063592162  0.064072066            2 
 2502000   0.83851544   -3.5394587    1920.4929  0.063965256   0.06405962            6 
 2503000   0.83776598    -3.535855    1909.5404  0.063575058  0.064046953            4 
 2504000   0.84254841   -3.5498565    1912.9804   0.06366415  0.064034176            3 
 2505000   0.86375929   -3.5328731     1908.073  0.063475481  0.064021491            2 
 2506000   0.86076644   -3.5410888     1920.712  0.063870445  0.064008878            4 
 2507000   0.84060211   -3.5714285     1910.916  0.063519347  0.063996236            3 
 2508000    0.8425978   -3.5361704    1914.9295  0.063627377  0.063983491            4 
 2509000    0.8551433   -3.5229369    1918.1639  0.063709444  0.063970943            2 
 2510000   0.85120612   -3.5391235     1913.775  0.063538346  0.063958274            2 
 2511000   0.85465961   -3.5471048    1919.3345  0.063697547    0.0639456            3 
 2512000   0.84287327   -3.5443438    1915.3323  0.063539421  0.063933091            4 
 2513000   0.84270478   -3.5533173    1913.2586  0.063445371  0.063920559            4 
 2514000   0.85582985    -3.544896    1918.9468  0.063608685  0.063907992            4 
 2515000   0.84931356   -3.5608372    1915.2445   0.06346072  0.063895471            8 
 2516000   0.85404194   -3.5528793    1915.6816  0.063449973  0.063882864            5 
 2517000   0.84707679   -3.5560907    1915.9423  0.063433396  0.063870251            7 
 2518000   0.85296921    -3.564469    1917.4475  0.063458018  0.063857612            5 
 2519000   0.83238933   -3.5249078    1926.3645  0.063727819  0.063845264            3 
 2520000   0.85042433   -3.5474495    1918.5916   0.06344549  0.063832915            3 
 2521000   0.85113403   -3.5488647    1918.5778  0.063419868  0.063820378            3 
 2522000   0.83719865   -3.5405842    1919.2087  0.063415567   0.06380782            3 
 2523000   0.84762897   -3.5564375    1920.3323  0.063427542  0.063795165            2 
 2524000   0.85158351   -3.5661794    1916.5606  0.063277887  0.063782536            5 
 2525000   0.84553471   -3.5318398    1918.0118  0.063300719  0.063769909            6 
 2526000   0.84761281   -3.5669991    1922.8416  0.063434995  0.063757476            7 
 2527000   0.84947417   -3.5316905    1923.2923  0.063424755    0.0637449            3 
 2528000    0.8520667   -3.5534526    1920.3521  0.063302746  0.063732539            6 
 2529000   0.83733918   -3.5502104    1927.8587  0.063525065  0.063720056            2 
 2530000   0.84845784   -3.5429126    1927.3375   0.06348279  0.063707526            5 
 2531000   0.84753009   -3.5698352    1923.2035  0.063321597  0.063695141            4 
 2532000   0.83800804   -3.5432691    1926.7088  0.063411954  0.063682613            2 
 2533000   0.83629884    -3.548634    1926.3475  0.063375034   0.06367036            2 
 2534000   0.86186905   -3.5741966    1921.9168  0.063204316  0.063657964            3 
 2535000   0.84313312   -3.5565266     1919.349  0.063094971  0.063645517            4 
 2536000    0.8384883    -3.563679    1928.6513  0.063375765  0.063632956            5 
 2537000   0.82825492   -3.5494918    1932.4977   0.06347713  0.063620564            5 
 2538000   0.82597262   -3.5483537    1924.7817  0.063198768  0.063608145            2 
 2539000   0.85178581   -3.5115458     1926.805  0.063240283  0.063595647            3 
 2540000    0.8563084   -3.5616141    1925.9091  0.063185995  0.063583265            4 
 2541000    0.8546794   -3.5365893    1928.7996  0.063255922  0.063570839            6 
 2542000   0.85001144   -3.5636047    1926.4217  0.063153083  0.063558289            3 
 2543000   0.86675762   -3.5592048    1929.9202  0.063242895  0.063545657            2 
 2544000   0.84371579   -3.5579468    1924.0376   0.06302534  0.063533162            3 
 2545000   0.85496213   -3.5582718    1926.1694  0.063070379  0.063520554            5 
 2546000   0.86961943   -3.5562137    1929.6529  0.063159626  0.063507999            3 
 2547000   0.85586803   -3.5530688    1924.3078  0.062959948  0.063495309            6 
 2548000   0.83215021   -3.5735217     1920.671  0.062816294  0.063482508            3 
 2549000   0.83409546   -3.5567225    1926.5231  0.062982971  0.063469732            5 
 2550000   0.84347379   -3.5595997    1930.3153    0.0630822  0.063457069            4 
 2551000    0.8360518    -3.583642    1925.0784  0.062886399  0.063444112            2 
 2552000   0.85494843     -3.55412     1925.104  0.062862593  0.063431399            6 
 2553000   0.85612227   -3.5840089    1929.8629  0.062993307  0.063418762            7 
 2554000   0.82482867   -3.5510801    1931.7937   0.06303164  0.063406058            6 
 2555000   0.84779697   -3.5655734     1930.574  0.062967187  0.063393211            3 
 2556000   0.84583128   -3.5860919    1931.3524  0.062967932  0.063380483            7 
 2557000   0.84713051   -3.5427662    1937.1109  0.063130976  0.063367623            1 
 2558000   0.85041371    -3.581319    1931.3445  0.062918441  0.063354863            3 
 2559000   0.85446896    -3.564817    1927.7945  0.062778249  0.063342088            4 
 2560000   0.83372052   -3.5723058    1932.1808  0.062896511   0.06332926            3 
 2561000   0.83342541   -3.5561837    1936.0415  0.062997574  0.063316683            6 
 2562000   0.84125912     -3.56989    1930.7232  0.062800001  0.063304125            4 
 2563000   0.83540847   -3.5394546    1935.0286  0.062915482   0.06329151            2 
 2564000   0.84296192   -3.5734222    1944.9646  0.063213879   0.06327894            4 
 2565000   0.85950344   -3.5495777    1938.2968  0.062972606  0.063266536            3 
 2566000   0.83756506   -3.5542931    1938.8663  0.062966558  0.063253956            3 
 2567000   0.84943082   -3.5552932    1936.5241  0.062865996  0.063241333           11 
 2568000   0.83927548   -3.5571981    1938.4714  0.062904704  0.063228832            3 
 2569000   0.84113139   -3.5592229    1938.1528  0.062869884   0.06321618            6 
 2570000   0.84836092   -3.5708608    1933.6281  0.062698708  0.063203579            4 
 2571000   0.83231858   -3.5556408    1940.7355  0.062904691  0.063190935            4 
 2572000   0.82492186   -3.5783272      1940.43  0.062870336   0.06317835            9 
 2573000   0.85979172   -3.5686952    1934.6279  0.062657985  0.063165724            4 
 2574000   0.82558119   -3.5597912    1931.6218  0.062536318  0.063153195            4 
 2575000   0.84835986   -3.5460376    1939.1318  0.062755075  0.063140553            3 
 2576000   0.84716985   -3.5700176    1934.4878   0.06258048  0.063128046            4 
 2577000   0.81984674   -3.5671728    1944.1521  0.062868715  0.063115543            2 
 2578000   0.84278631   -3.5694114    1946.9556  0.062934951  0.063103129            4 
 2579000   0.84399732    -3.544517    1939.1052  0.062656882   0.06309062            3 
 2580000   0.84165673   -3.5943573    1944.6528  0.062811782  0.063078319            3 
 2581000   0.83534338   -3.5497848    1946.4369  0.062845049  0.063065795            2 
 2582000   0.84065744   -3.5447099    1947.1855   0.06284487  0.063053452            6 
 2583000   0.83873568   -3.5392247    1947.5054  0.062830861  0.063041214            9 
 2584000   0.83484528   -3.5621317    1942.1372  0.062633425   0.06302866           10 
 2585000    0.8379672   -3.5910869    1946.4484  0.062748176  0.063016132            3 
 2586000   0.84966578   -3.5685393    1945.2516  0.062685345  0.063003532            5 
 2587000    0.8392139   -3.5518855    1943.4849  0.062604204  0.062990915            6 
 2588000   0.83893386   -3.5428738    1941.4401  0.062514172  0.062978374            3 
 2589000    0.8441955   -3.5648913    1940.9502  0.062474257  0.062965779            3 
 2590000    0.8253331   -3.5792647    1950.2138  0.062748192  0.062953237            4 
 2591000   0.83205562   -3.5901518    1940.5683  0.062413748  0.062940714            2 
 2592000   0.84886556   -3.5663969    1949.9084  0.062689955  0.062928195            3 
 2593000   0.83758453   -3.5662064    1947.7371  0.062595998  0.062915775            6 
 2594000   0.84857753   -3.5682551    1949.1589  0.062617542  0.062903334            3 
 2595000   0.83150865   -3.5986725    1945.1686  0.062465273  0.062890811            9 
 2596000   0.83432035    -3.559418    1954.7351    0.0627483  0.062878344            5 
 2597000   0.82848256   -3.6122027    1946.7573  0.062468147  0.062865864            5 
 2598000    0.8391051   -3.5947861    1947.8535  0.062479263  0.062853229            5 
 2599000    0.8454167    -3.586395    1951.1372  0.062560511  0.062840855            3 
 2600000   0.83016522   -3.5645835    1950.2926  0.062509377  0.062828403            4 
 2601000   0.83998454   -3.5649123    1956.5863  0.062686989  0.062815963            3 
 2602000   0.86033094   -3.5597058    1952.4019  0.062528885  0.062803615            2 
 2603000   0.81891234   -3.6000689    1948.9363  0.062393915  0.062791116            2 
 2604000   0.82019548   -3.5731161     1951.688  0.062458014   0.06277856            3 
 2605000   0.83943203   -3.5668621    1951.7925   0.06243738  0.062766133           10 
 2606000   0.82830546   -3.5578017    1954.1077  0.062487454  0.062753727            4 
 2607000   0.82942505   -3.5781683    1951.8172  0.062390269  0.062741297            4 
 2608000   0.83091268   -3.6005043    1948.6081  0.062263807  0.062728892            4 
 2609000   0.82810325   -3.5842024    1948.4834  0.062235958  0.062716456           12 
 2610000   0.84873986   -3.5958814    1952.8849  0.062352648  0.062703915            3 
 2611000   0.83475968   -3.5919356    1951.0167  0.062269141  0.062691234            3 
 2612000   0.83972475   -3.5888996     1962.826  0.062622064   0.06267865            6 
 2613000    0.8170844   -3.5968504    1951.6039  0.062240207  0.062666203            7 
 2614000   0.83061129   -3.5733445    1956.2416  0.062364243  0.062653763            5 
 2615000   0.83464879     -3.58815    1960.1209  0.062464019  0.062641344            8 
 2616000   0.81766074   -3.5815775    1957.4647  0.062355527  0.062628919            6 
 2617000   0.82671098   -3.5651752     1960.389  0.062424819  0.062616741            5 
 2618000   0.84134311   -3.5830607    1955.2607  0.062237735  0.062604476            5 
 2619000   0.82722196   -3.5698122    1960.8186  0.062390818   0.06259231            4 
 2620000   0.82468629   -3.5623695    1958.1464  0.062282012  0.062580212            3 
 2621000   0.84113225   -3.5795961    1959.0944   0.06228839  0.062568013            5 
 2622000   0.84192156   -3.5837983    1961.7721  0.062349737  0.062555777            3 
 2623000   0.82896375   -3.5588905    1970.4996  0.062603241  0.062543675            4 
 2624000   0.84247102   -3.5630727    1963.6536  0.062361967  0.062531484            4 
 2625000   0.83988979    -3.547842     1962.287  0.062294826  0.062519359            3 
 2626000    0.8228608   -3.5878099     1964.957  0.062355834  0.062507262            3 
 2627000   0.83278997   -3.5880172     1964.457  0.062316236  0.062495184            3 
 2628000   0.82758576   -3.5818939    1965.2357  0.062317214  0.062483155            6 
 2629000   0.82514855   -3.6022132    1963.5018  0.062238552  0.062471006            5 
 2630000   0.82699658    -3.563077    1960.8822  0.062131881  0.062459039            2 
 2631000   0.81610007   -3.5938521    1966.2007  0.062276723   0.06244683            5 
 2632000   0.82256624   -3.5832729    1971.1832  0.062410817   0.06243474            6 
 2633000   0.83183963    -3.575571    1966.8603  0.062250294  0.062422674            6 
 2634000    0.8197021   -3.5720188    1973.9319  0.062450388  0.062410653            2 
 2635000   0.84068737    -3.571961    1967.1457  0.062212072  0.062398427            4 
 2636000   0.81282128   -3.5633001    1976.2049  0.062474865  0.062386465            3 
 2637000   0.83910731   -3.5856281    1970.9777  0.062285984  0.062374541            3 
 2638000   0.82608639   -3.5747265    1973.2557  0.062334335  0.062362556            6 
 2639000   0.81640054   -3.5844462    1967.9553  0.062143341  0.062350558            7 
 2640000   0.85391418    -3.573757    1971.7569  0.062239802  0.062338763            3 
 2641000   0.84473926    -3.616178    1969.0292  0.062130166  0.062326853            3 
 2642000   0.83206079   -3.5565417    1976.0569  0.062328314   0.06231503           10 
 2643000   0.82420422   -3.5859704    1973.7796   0.06223293  0.062303039            3 
 2644000   0.81777329   -3.5679764    1975.4485  0.062261993  0.062291044            4 
 2645000   0.85174318   -3.5747296    1983.0829  0.062478982  0.062279137            3 
 2646000   0.84207879    -3.571537    1976.6074  0.062251429  0.062267036            3 
 2647000   0.84704742   -3.6098784     1970.323  0.062030065  0.062255127            4 
 2648000   0.83776377    -3.560331    1974.7522  0.062146028  0.062243129            3 
 2649000   0.84414099   -3.5984291    1975.2712  0.062138896  0.062231253            3 
 2650000   0.83650211   -3.5815523    1981.6908  0.062317321   0.06221929            4 
 2651000   0.82607311   -3.6030832    1980.1176  0.062244359  0.062207396            2 
 2652000   0.81845599   -3.5945684    1978.1588  0.062159339   0.06219559            2 
 2653000   0.83162711   -3.5848942    1982.0778  0.062259007    0.0621837            5 
 2654000   0.80191789   -3.5984449    1980.0284    0.0621712  0.062171931            5 
 2655000   0.81294524   -3.6032994    1977.0339  0.062053793  0.062160144            5 
 2656000   0.83047689   -3.5909046    1980.0763  0.062125888  0.062148271            3 
 2657000   0.83728013   -3.5662483    1982.4995  0.062178505  0.062136408            6 
 2658000   0.82380559   -3.5742343    1982.3251  0.062149646  0.062124645           10 
 2659000   0.83073385   -3.5971704     1988.064   0.06230613   0.06211291            4 
 2660000    0.8196551   -3.5917584    1986.2168  0.062224836  0.062101157            5 
 2661000   0.82720722   -3.5675127    1988.3506  0.062268277  0.062089455            4 
 2662000   0.81499954   -3.5854226    1984.3623  0.062120031  0.062077902            3 
 2663000     0.845155   -3.5904545    1981.0334  0.061992535  0.062066178            3 
 2664000   0.82817246   -3.6062554    1981.0766  0.061970614  0.062054332            5 
 2665000    0.8201798    -3.567917    1986.7736  0.062125502  0.062042585            3 
 2666000   0.84110136   -3.5830369    1989.6488  0.062192073  0.062030835            6 
 2667000   0.83243415   -3.5745749    1982.9044  0.061958017  0.062019097            2 
 2668000   0.82882638   -3.5662409    1985.0438  0.062001618  0.062007522            3 
 2669000   0.81811566   -3.5895415    1981.7766  0.061876378  0.061995735            4 
 2670000   0.84769276    -3.623972    1982.7051  0.061882182  0.061984057            9 
 2671000   0.81407057   -3.5911685    1986.2605   0.06196994  0.061972077            5 
 2672000    0.8260486   -3.6115287    1984.1879  0.061882107  0.061959959            4 
 2673000    0.8290092   -3.5839681    1988.0897  0.061980598  0.061948026            3 
 2674000   0.82835787   -3.5743675    1985.6682  0.061881954  0.061936142            4 
 2675000   0.81674111   -3.6049643     1983.243   0.06178327  0.061924251            5 
 2676000   0.84218876   -3.5916867    1985.6303  0.061834525  0.061912219            3 
 2677000   0.81368791   -3.5929531    1986.4363  0.061836517   0.06190025            6 
 2678000   0.82399159   -3.5831483    1987.0778   0.06183339  0.061888106            4 
 2679000   0.82966003   -3.5874952    1984.5157  0.061730612  0.061876142            4 
 2680000   0.83996253   -3.6033462    1980.7608  0.061590821  0.061864053            7 
 2681000   0.81964318    -3.571435    1987.1041  0.061765015  0.061851977            3 
 2682000   0.82517365   -3.5935798    1986.1038  0.061710906   0.06184005            7 
 2683000   0.82186523   -3.5981901    1987.8259  0.061741392   0.06182798           13 
 2684000   0.80340979   -3.5803305    1993.0489  0.061880554  0.061816029            5 
 2685000   0.80729789   -3.6078363    1984.4856  0.061591733  0.061803982            4 
 2686000   0.81216612   -3.6217481     1982.061  0.061493579  0.061791867            7 
 2687000   0.82339256   -3.6154121    1989.7806  0.061710104  0.061779707            2 
 2688000   0.81702557   -3.5952651    1989.8686  0.061689874  0.061767663            3 
 2689000    0.8087211   -3.5861865    1981.8444  0.061418261  0.061755644            6 
 2690000   0.81629894   -3.6076461    1988.9608  0.061615887    0.0617435            4 
 2691000   0.83021413   -3.5898318     1988.351  0.061574105  0.061731407            3 
 2692000   0.80873098   -3.5656118    1987.0645  0.061511408  0.061719152            6 
 2693000   0.81569284    -3.613887    1995.0953  0.061737076  0.061706886            5 
 2694000   0.82967042   -3.5916628    1990.4766  0.061571287  0.061694862            4 
 2695000   0.84825189   -3.5986491    1994.4545  0.061671445  0.061682682            4 
 2696000   0.82108754   -3.6112662    1988.2112  0.061455588  0.061670485            3 
 2697000   0.81389733   -3.5950968    1991.0442  0.061520339  0.061658262            4 
 2698000    0.8122413   -3.5816207    1984.0005  0.061279977  0.061646026            2 
 2699000   0.82227485   -3.5930697    1986.7491  0.061342135  0.061633775            2 
 2700000   0.81378877   -3.6122698    1984.4006  0.061246932  0.061621311            2 
 2701000   0.82746244   -3.5887187    1987.3424   0.06131502  0.061609084           15 
 2702000    0.8020226   -3.5749579    1991.4258  0.061418266  0.061596894            2 
 2703000   0.83348143    -3.603797    1989.5726  0.061338408   0.06158455            3 
 2704000   0.81947638   -3.5929107    1989.6082  0.061316821   0.06157222            6 
 2705000    0.8078107   -3.5648017    1991.1703  0.061342276  0.061559986            3 
 2706000   0.81539241   -3.5893679    1991.4648  0.061328676  0.061547778            3 
 2707000   0.82833955   -3.6184197    1988.8227  0.061224685  0.061535344            3 
 2708000   0.79775865   -3.5913397    1991.0955  0.061272019  0.061522957            3 
 2709000    0.8243985   -3.6214828    1982.0595  0.060971438  0.061510417            4 
 2710000    0.8183024   -3.5685057    1991.9624  0.061253458  0.061498039            4 
 2711000   0.82721309   -3.5886733     1993.629   0.06128209  0.061485507            6 
 2712000   0.80519394   -3.5918888    1989.0179  0.061117807  0.061473101            4 
 2713000   0.81982333   -3.5893973    1990.4757  0.061140057   0.06146063            5 
 2714000   0.80816938   -3.5644005    1989.8828  0.061099324  0.061448196            6 
 2715000    0.8015144   -3.6234392    1988.3301  0.061029162  0.061435602            2 
 2716000   0.80713891   -3.6126185    1987.0341  0.060966929  0.061423047            2 
 2717000   0.81066814   -3.6185012    1990.2334  0.061042614  0.061410675            6 
 2718000    0.8067329   -3.6009185    1995.5128  0.061182022  0.061398282            6 
 2719000   0.82320749   -3.5887555     1992.124  0.061055657   0.06138586            6 
 2720000   0.82037034   -3.5974884    1991.8337  0.061024317  0.061373234           12 
 2721000   0.81881585   -3.6221291    1991.1551  0.060981108  0.061360829            3 
 2722000   0.81727665   -3.5895646    1995.4346   0.06108972  0.061348369            3 
 2723000   0.80874777   -3.6097036    1988.5082  0.060855314  0.061336011            3 
 2724000   0.83610784   -3.6189298    1992.0386  0.060940974  0.061323432            4 
 2725000   0.81689462    -3.602175    1995.3848   0.06102094  0.061310795            2 
 2726000   0.80560497    -3.587317    1996.6692  0.061037821  0.061298271            2 
 2727000   0.82014867   -3.6186754    1998.4423  0.061069623  0.061285704            4 
 2728000   0.81907342   -3.6400438    1986.8905  0.060694358  0.061273015            3 
 2729000   0.79952335   -3.5629223    1993.4521  0.060872483   0.06126039            5 
 2730000   0.82161004   -3.5672938    1997.9883  0.060988655  0.061247964            5 
 2731000   0.80850245   -3.5900546    1994.8093  0.060869317  0.061235329            4 
 2732000    0.8180096   -3.6386245    1993.4066  0.060804252  0.061222826            3 
 2733000   0.81967152   -3.5913374    2004.4512  0.061118771  0.061210383            4 
 2734000   0.81774285   -3.6109003    1993.8315  0.060772723  0.061197849            2 
 2735000   0.83382223   -3.6236773    1992.5248   0.06071069  0.061185342            3 
 2736000    0.7993971   -3.6120112    2000.1216  0.060919882  0.061172768            5 
 2737000   0.83029814   -3.6136358    1994.3955  0.060723284  0.061160166            4 
 2738000    0.8196246   -3.6294948    1995.9517  0.060748468  0.061147536            7 
 2739000   0.81828815   -3.5772573    1991.7814  0.060599409  0.061135056            7 
 2740000   0.80672853   -3.5848414    1996.1694  0.060710748  0.061122441            2 
 2741000   0.80377555   -3.6243568    1993.7088  0.060613791  0.061109944            9 
 2742000   0.83048036   -3.6210964     1999.385  0.060764192  0.061097302            6 
 2743000   0.81946885   -3.6179534    2001.3132  0.060800621  0.061084753            3 
 2744000   0.81326773   -3.6238124    2000.2235  0.060745368  0.061072292            3 
 2745000   0.81694491   -3.5775849    2008.2626  0.060967291  0.061059745            7 
 2746000   0.80893255   -3.5802228    2004.9619  0.060844922  0.061047183            8 
 2747000   0.81218193   -3.6203362    2002.0309  0.060733858  0.061034746            5 
 2748000   0.82942508   -3.6424649    2002.6177   0.06072955  0.061022218            4 
 2749000   0.82150835   -3.5879914    2005.0276  0.060780514  0.061009677            4 
 2750000    0.8094594   -3.5949285    1998.5216  0.060561261  0.060997303            6 
 2751000   0.79017795   -3.5909156    1997.5956  0.060511197  0.060984651            4 
 2752000   0.81010156   -3.6318131    2002.1454  0.060626982  0.060972006            5 
 2753000   0.81171289   -3.5954062    2003.8191  0.060655622   0.06095945            3 
 2754000    0.8031054   -3.5859155     2005.649  0.060688968  0.060946823            6 
 2755000   0.80233416   -3.5866658    2001.5003  0.060541448  0.060934402            8 
 2756000   0.82372691   -3.5987028    2007.7912    0.0607097  0.060921852            4 
 2757000   0.78826887   -3.6046366    2002.4243   0.06052546  0.060909322            9 
 2758000   0.78709096   -3.6202656    2007.1495  0.060646288  0.060896892           10 
 2759000   0.81173368   -3.6188578    2011.5177  0.060756244  0.060884504            3 
 2760000   0.80219233   -3.6138076    2000.9396  0.060414844  0.060872209            5 
 2761000   0.81799936   -3.6246411    2009.3047  0.060645441  0.060859883            7 
 2762000   0.80675371   -3.6135357    2018.1263  0.060889641  0.060847639            5 
 2763000    0.8116534   -3.6172767    2005.9209  0.060499485  0.060835222            4 
 2764000   0.81093572   -3.6035876    2008.1222  0.060543963  0.060822947            4 
 2765000   0.80223928   -3.6127499    2012.8603  0.060664866  0.060810417            4 
 2766000   0.79969257   -3.6033201    2011.6139  0.060605383  0.060798191            3 
 2767000   0.79157024   -3.6086166    2011.9724  0.060594278  0.060785967            4 
 2768000   0.80812244   -3.6035658    2014.8799  0.060659921  0.060773634           15 
 2769000   0.80560357   -3.6107576    2013.6225  0.060600172  0.060761414            6 
 2770000     0.792031   -3.5850136     2015.648  0.060639231  0.060749134            2 
 2771000   0.81102568   -3.6197865    2011.5402   0.06049381  0.060737009            8 
 2772000   0.80472694   -3.5894998    2011.7327  0.060477776  0.060724732            3 
 2773000   0.79343954   -3.6047865    2013.0991  0.060497028   0.06071246            3 
 2774000   0.81302893   -3.6106393    2010.9366  0.060410255  0.060700226            4 
 2775000   0.80433136   -3.6288067    2010.6309  0.060379307  0.060688018            5 
 2776000   0.80469787    -3.623131    2012.7607   0.06042149  0.060675817            3 
 2777000   0.80413594   -3.6179342    2016.4012  0.060508978  0.060663436            3 
 2778000   0.80012189   -3.6204479    2011.5011  0.060340207  0.060651172            6 
 2779000   0.80763286   -3.6057112     2019.071   0.06054549  0.060638926            4 
 2780000   0.82700963   -3.6303349    2020.8004  0.060575553   0.06062686            5 
 2781000   0.79626466   -3.5997934    2023.7352  0.060641711  0.060614772            3 
 2782000   0.80686759   -3.6261643    2017.4334  0.060431146  0.060602721            6 
 2783000   0.81243058   -3.6173637    2013.8805  0.060303046  0.060590626            5 
 2784000   0.82333309    -3.624196    2020.2001   0.06047055   0.06057861            3 
 2785000   0.79356174   -3.6311862    2021.8504  0.060498217  0.060566507            2 
 2786000   0.80143312   -3.6125563    2023.3613  0.060521694  0.060554439            8 
 2787000   0.80357152   -3.6159458    2021.3515  0.060439884  0.060542356            3 
 2788000   0.80953478   -3.6143149    2021.0962  0.060410574  0.060530373            6 
 2789000   0.82036602   -3.6293181    2028.1707  0.060600295  0.060518208            3 
 2790000    0.7859611   -3.6286817    2026.3881  0.060525332  0.060506158            3 
 2791000   0.82320637   -3.6166917     2025.308  0.060471395  0.060494121            5 
 2792000   0.79352047   -3.6176331     2032.144  0.060653772  0.060482137            7 
 2793000   0.81482084    -3.614328    2022.1856  0.060334932  0.060470233            5 
 2794000   0.80042806   -3.6031631    2023.7796  0.060360882   0.06045821            4 
 2795000     0.793624   -3.6114493    2020.8693  0.060252514  0.060446415            2 
 2796000   0.80782159   -3.6348377    2020.2571  0.060212717  0.060434416            5 
 2797000   0.81515187   -3.6185322    2023.9832  0.060302206  0.060422321            3 
 2798000   0.80788028   -3.6212869    2022.8327  0.060246388  0.060410291            5 
 2799000   0.80244327   -3.6399442    2025.4016  0.060301346  0.060398255            9 
 2800000   0.82495867   -3.6114036    2020.7094   0.06014016  0.060386185            2 
 2801000   0.81339743   -3.6261005    2026.2332  0.060283031  0.060374179            3 
 2802000    0.7931546   -3.6401254    2021.3013  0.060114837  0.060362096            6 
 2803000   0.81003779   -3.6202244    2023.7864  0.060167274  0.060349932            8 
 2804000   0.81341776   -3.6338265    2024.5855  0.060169565  0.060337853            7 
 2805000   0.80373635    -3.621642    2031.4104  0.060350874  0.060325888            2 
 2806000   0.80678602     -3.64981    2027.5011  0.060213267  0.060313785            6 
 2807000   0.81049526   -3.6301125     2023.074  0.060060384  0.060301642            6 
 2808000   0.79975865   -3.6509815    2019.6174  0.059936415   0.06028944            4 
 2809000   0.78595887   -3.6384871    2026.1616   0.06010922  0.060277334            4 
 2810000   0.79116878   -3.6231582    2024.9991  0.060053353  0.060265209            4 
 2811000   0.79736305   -3.6059303    2023.5371  0.059988649   0.06025306            6 
 2812000   0.79538707   -3.6374448    2022.2771  0.059929975  0.060240876            3 
 2813000   0.80676977    -3.608247    2032.2018  0.060202685  0.060228697            3 
 2814000   0.79819472   -3.6254852    2032.4462  0.060188528  0.060216579            3 
 2815000   0.80146703   -3.6306178    2033.5454  0.060199686  0.060204489            3 
 2816000   0.80593967   -3.6263999    2032.4685  0.060146439  0.060192447            4 
 2817000    0.8152523   -3.6359092    2029.6095  0.060040514  0.060180352            2 
 2818000   0.80991398    -3.630821    2029.6113  0.060019259  0.060168271            2 
 2819000   0.79448541   -3.6210075    2032.6872  0.060088897  0.060156052            2 
 2820000   0.80642956   -3.6328877    2030.9043  0.060014901  0.060143773            2 
 2821000   0.80628954   -3.6157838    2035.9761   0.06014345  0.060131597            7 
 2822000    0.8011164    -3.615931    2031.4562  0.059988666  0.060119384            7 
 2823000   0.79860409    -3.631115    2032.3006  0.059992342    0.0601072            3 
 2824000   0.79125725   -3.6122009    2034.8988  0.060047769  0.060094799            2 
 2825000   0.78630271   -3.6296045    2032.0275  0.059941814  0.060082554            4 
 2826000   0.79582082   -3.6360015    2032.7376  0.059941544  0.060070338            8 
 2827000   0.80215049   -3.6335397    2028.1876  0.059786217  0.060058234           11 
 2828000   0.80646617   -3.6380637    2033.9525  0.059934952  0.060045915            3 
 2829000    0.7828156   -3.6379689    2029.2057  0.059773938  0.060033757            3 
 2830000    0.8037828   -3.6404651    2028.0583  0.059719031  0.060021494            4 
 2831000   0.79384455    -3.600008    2032.5587  0.059830411  0.060009137            5 
 2832000   0.80722857   -3.6136311    2025.6952  0.059607321  0.059996789            7 
 2833000   0.79884021   -3.6253393    2033.9883  0.059830223  0.059984425            2 
 2834000   0.79028828    -3.641689    2030.5752  0.059708749  0.059972227            3 
 2835000   0.79375674   -3.6615242    2032.8258  0.059753844  0.059959936            5 
 2836000   0.81359611   -3.6118054    2028.9833  0.059619867  0.059947575            3 
 2837000   0.80938502   -3.6276407    2035.7063   0.05979633  0.059935477            3 
 2838000   0.79916297   -3.6379789    2038.2373  0.059849579  0.059923308            4 
 2839000   0.79689907   -3.6003939     2025.962  0.059468181  0.059911064            3 
 2840000   0.81481681   -3.6362075    2031.7469  0.059616987  0.059898745            7 
 2841000    0.8068429   -3.6491459    2032.1479  0.059607766  0.059886379            9 
 2842000   0.79135666   -3.6169307    2035.9434  0.059698081  0.059874212            2 
 2843000   0.81039965   -3.6279311    2035.5381  0.059665204  0.059861999            9 
 2844000   0.79502195    -3.629214    2037.2827  0.059695343  0.059850062            6 
 2845000    0.7863419   -3.6030958    2036.4026  0.059648582  0.059837933           10 
 2846000   0.79985264   -3.6248542    2034.6533  0.059576404  0.059825756            5 
 2847000   0.77632586   -3.6478911    2041.1288  0.059745018  0.059813546            5 
 2848000   0.80228924   -3.6266979    2037.4098  0.059615221  0.059801331            2 
 2849000   0.80545641   -3.6293738    2046.3811  0.059856707  0.059789138            8 
 2850000   0.78963997   -3.6418413    2037.5497  0.059577477  0.059777012            4 
 2851000   0.80192032   -3.6498068    2040.4663  0.059641829  0.059764906            7 
 2852000   0.77611887   -3.6267733    2043.0691   0.05969697    0.0597528            5 
 2853000   0.79253514   -3.6431911    2037.1319  0.059502625  0.059740721            2 
 2854000   0.78344588   -3.6573585    2040.5528  0.059581664   0.05972849            5 
 2855000   0.78891275   -3.6180205    2041.2381  0.059580798  0.059716299            3 
 2856000   0.80271664   -3.6552334    2037.9277  0.059463344  0.059704139            4 
 2857000   0.80313347   -3.6198028    2042.9936  0.059590293  0.059692043            3 
 2858000   0.80016702   -3.6455371    2038.9313  0.059450995   0.05968008            9 
 2859000   0.80294746   -3.6236782      2042.08  0.059521978  0.059668117            2 
 2860000   0.80025116   -3.6470227    2048.9216  0.059700512  0.059655877            7 
 2861000   0.79657739   -3.6418694    2043.3219  0.059516541  0.059643659            3 
 2862000   0.79999209    -3.619141     2049.566  0.059677558  0.059631532            2 
 2863000   0.79565039   -3.6541181    2045.3608  0.059534312    0.0596195            5 
 2864000   0.80099116   -3.6173193    2046.7997  0.059555393  0.059607227            6 
 2865000   0.78847566   -3.6441049    2047.7674  0.059562751  0.059595147            4 
 2866000   0.80443859    -3.641646    2041.4977  0.059359667  0.059583087            2 
 2867000   0.79093579   -3.6586807    2034.5491  0.059136993  0.059570865            3 
 2868000   0.80595754   -3.6456404    2048.0779  0.059509469  0.059558536            2 
 2869000   0.79468751   -3.6284715    2049.5292  0.059530882  0.059546382            7 
 2870000   0.78920001   -3.6463828    2050.4964  0.059538223  0.059534428            9 
 2871000   0.78943013   -3.6345456     2046.448  0.059399977  0.059522178            3 
 2872000   0.78625556   -3.6310893    2052.1838  0.059545723  0.059509939            7 
 2873000   0.79203243   -3.6189444    2049.5162  0.059447621  0.059497805            3 
 2874000   0.79442168   -3.6545495    2046.5959   0.05934226  0.059485703            5 
 2875000   0.78910385   -3.6320388    2048.6655   0.05938161  0.059473445            5 
 2876000   0.80215571    -3.634756    2051.4267  0.059440968  0.059461301            7 
 2877000   0.79994327   -3.6493907    2046.2359  0.059269954   0.05944909            5 
 2878000   0.79816402   -3.6526223    2043.3492  0.059165775  0.059436941            4 
 2879000   0.77891972   -3.6459395    2045.5905    0.0592101  0.059424829            5 
 2880000   0.78092814    -3.648859    2046.0977  0.059204216  0.059412777            3 
 2881000   0.79121525   -3.6491578    2048.8288  0.059262662  0.059400622            5 
 2882000   0.78743047   -3.6411713    2049.6932  0.059267096  0.059388466            2 
 2883000   0.78631524   -3.6781208    2048.2607   0.05920513  0.059376415            4 
 2884000   0.79507666   -3.6604456    2052.5157  0.059307551   0.05936439            4 
 2885000   0.79074624   -3.6360408    2051.0201  0.059243793  0.059352459            3 
 2886000   0.76632616   -3.6640711    2051.3631  0.059233169  0.059340381            4 
 2887000   0.77160532   -3.6565305    2048.9515  0.059143041   0.05932827            4 
 2888000   0.78495582   -3.6384474    2058.0938  0.059386365  0.059316402            3 
 2889000   0.78849218   -3.6503879     2048.768  0.059096803  0.059304475            2 
 2890000   0.78403455   -3.6488094    2049.6096  0.059100624  0.059292531            2 
 2891000   0.79798696   -3.6327331    2056.6101   0.05928197  0.059280564            4 
 2892000   0.78474787   -3.6617023    2051.0742  0.059101953  0.059268566            2 
 2893000   0.77420268   -3.6225186    2055.8167  0.059218133  0.059256565            3 
 2894000   0.77444207   -3.6286181    2060.0687  0.059320107  0.059244705            5 
 2895000    0.7738051   -3.6412486    2058.1613  0.059244712  0.059232837           12 
 2896000   0.78700503   -3.6598682    2057.6309  0.059208993  0.059221084            8 
 2897000   0.79128582   -3.6358326    2057.3314  0.059179938  0.059209097            3 
 2898000   0.80801743   -3.6403777    2055.7858  0.059115072  0.059197026            6 
 2899000   0.78446626   -3.6656308    2063.1599  0.059306655  0.059185118            5 
 2900000   0.78307925   -3.6750119    2054.1532  0.059027391  0.059173216            4 
 2901000    0.7817874   -3.6507079    2060.9544  0.059202412   0.05916123            4 
 2902000   0.78236042   -3.6266929    2058.3074     0.059106  0.059149417            4 
 2903000   0.79433416    -3.632694    2052.8028  0.058927626  0.059137418            3 
 2904000   0.79097325   -3.6326623    2053.2081  0.058918965  0.059125587            7 
 2905000     0.786371   -3.6200822    2062.9782  0.059178951  0.059113507            4 
 2906000   0.77451611   -3.6522619    2059.7664  0.059066484  0.059101463            7 
 2907000   0.79450853    -3.665561    2062.6574  0.059129038  0.059089523            8 
 2908000   0.76613047   -3.6690287    2054.1242  0.058864173  0.059077397            6 
 2909000   0.79432782   -3.6400028     2058.126  0.058958577   0.05906537            3 
 2910000   0.79493279    -3.606384    2065.9064  0.059161122  0.059053387            6 
 2911000   0.79416781   -3.6457826    2066.8366  0.059167429  0.059041358            4 
 2912000   0.80431686     -3.65502    2058.2274  0.058900739  0.059029291            3 
 2913000   0.78740629   -3.6637195    2058.8554  0.058898484  0.059017208            6 
 2914000   0.77168387   -3.6567996    2059.5468  0.058898045  0.059005163           10 
 2915000   0.78148172   -3.6552512    2056.6984  0.058796411  0.058992993            7 
 2916000   0.76710136   -3.6479923    2060.6144  0.058888159  0.058980886            4 
 2917000   0.77505165   -3.6659675    2056.8641  0.058760832  0.058968755            4 
 2918000   0.78147464   -3.6325206    2061.0742  0.058860928  0.058956751            6 
 2919000   0.77646994   -3.6390337    2059.1897  0.058786961  0.058944725            5 
 2920000   0.77863829    -3.660939    2058.4697  0.058746283  0.058932638            8 
 2921000   0.78592882   -3.6583064    2060.6037  0.058787051  0.058920455           13 
 2922000   0.78784229   -3.6594551    2060.7626  0.058771463  0.058908312            5 
 2923000   0.78645993   -3.6435759    2058.4579   0.05868565  0.058896205            5 
 2924000    0.7927252   -3.6580429    2063.2495  0.058802141  0.058884025            3 
 2925000   0.77109523   -3.6558661    2063.4515  0.058787791  0.058871785            3 
 2926000   0.78057546   -3.6645459    2062.2952   0.05873477  0.058859726            3 
 2927000   0.78158646   -3.6367698    2067.3684   0.05885914  0.058847562            5 
 2928000   0.79310548   -3.6741441     2062.736  0.058707194  0.058835648            4 
 2929000   0.78880125   -3.6616688    2061.7865  0.058660136   0.05882369            3 
 2930000   0.77229856   -3.6791789    2062.1035  0.058649134  0.058811624           10 
 2931000   0.78250835   -3.6492714    2066.4703  0.058753278  0.058799464            5 
 2932000   0.76971067   -3.6599726    2058.8179  0.058515742  0.058787328            4 
 2933000   0.76412479   -3.6553146    2059.8297  0.058524541  0.058775146            6 
 2934000    0.7665616   -3.6439647    2071.8557  0.058846163  0.058762997            4 
 2935000   0.78320477   -3.6462534    2066.6801  0.058679164  0.058750907           10 
 2936000    0.7954174   -3.6060312    2069.4278  0.058737164  0.058738883            4 
 2937000   0.77774383   -3.6415469     2067.017  0.058648764  0.058726877            4 
 2938000   0.77713851   -3.6603048    2063.0163  0.058515325  0.058714806            4 
 2939000   0.78386709   -3.6664173    2066.8127  0.058603059  0.058702701            2 
 2940000   0.77578239   -3.6653454    2067.9472  0.058615283   0.05869052            3 
 2941000   0.77597434   -3.6477713    2062.0741  0.058428938  0.058678471            5 
 2942000   0.76175485   -3.6580579    2069.1261  0.058608829   0.05866642            3 
 2943000   0.76243117   -3.6527703    2070.9515  0.058640603  0.058654422            5 
 2944000   0.79261722   -3.6545018    2067.2578  0.058516128  0.058642453            2 
 2945000   0.77328288   -3.6448619    2066.4792  0.058474228  0.058630388           10 
 2946000   0.76019963   -3.6733106    2066.5082    0.0584552  0.058618314            2 
 2947000   0.77104066   -3.6549162    2069.0683  0.058507755  0.058606335            3 
 2948000   0.75997506   -3.6507085    2069.6729     0.058505   0.05859437            3 
 2949000   0.79627161   -3.6793424    2070.1199  0.058497793  0.058582413            6 
 2950000   0.77347176   -3.6321048    2072.2927   0.05853934  0.058570371            3 
 2951000   0.77669673   -3.6537911    2070.5954  0.058471574  0.058558369            6 
 2952000   0.77176849   -3.6421442     2071.066  0.058465051   0.05854631            5 
 2953000   0.76733095   -3.6732441    2067.1568  0.058334935  0.058534253            5 
 2954000   0.78929793   -3.6525996    2072.5037  0.058466026  0.058522109            3 
 2955000   0.79500883   -3.6755466    2060.4409   0.05810606  0.058510111            7 
 2956000   0.77545568   -3.6467655     2075.049  0.058498223  0.058498013            3 
 2957000   0.78465562    -3.679914    2072.8361  0.058416077  0.058486034            4 
 2958000   0.78756712   -3.6765131    2076.8992  0.058510796  0.058473836            5 
 2959000   0.76960289   -3.6758879    2066.9822  0.058211734  0.058461725            5 
 2960000   0.78156665   -3.6791588    2070.7821  0.058299047  0.058449587            3 
 2961000   0.77567072   -3.6461402    2073.2344  0.058348372  0.058437522            5 
 2962000   0.78666394   -3.6604271    2075.6834  0.058397575  0.058425467            7 
 2963000   0.79182482   -3.6750359    2071.6194  0.058263568  0.058413322            4 
 2964000   0.78135054   -3.6581105    2069.8273  0.058193525  0.058401254            7 
 2965000   0.78396711   -3.6612742     2072.383  0.058245729  0.058389077            6 
 2966000   0.78121691    -3.653069    2073.7833  0.058265433  0.058376849            2 
 2967000      0.78746    -3.671384    2071.1609  0.058172141  0.058364533            5 
 2968000   0.77274013   -3.6797214    2074.8434  0.058255935  0.058352323            8 
 2969000   0.79176138   -3.6658486    2072.6219  0.058173962  0.058340161            3 
 2970000   0.77746558   -3.6672323    2067.9183  0.058022398  0.058327856            8 
 2971000   0.78056296   -3.6710904    2076.4732  0.058242826  0.058315425            7 
 2972000    0.7881523   -3.6923349    2070.6975   0.05806128  0.058303087            7 
 2973000   0.78470916   -3.6484975    2072.2685  0.058085786  0.058290913            6 
 2974000    0.7818856   -3.6580106    2071.0919  0.058033286   0.05827858            3 
 2975000   0.76186523    -3.684948    2075.2302  0.058129697  0.058266261            7 
 2976000   0.77422142   -3.6685999    2078.3899  0.058198643  0.058253966            5 
 2977000   0.76794221   -3.6561845    2072.3549  0.058010158  0.058241635            4 
 2978000    0.7756516   -3.6885886    2073.7908  0.058030861  0.058229293            9 
 2979000   0.76936838   -3.6575056    2077.1946  0.058106597  0.058217063            6 
 2980000   0.76136566   -3.6566904    2071.4652  0.057926878  0.058204942            3 
 2981000   0.77471348   -3.6623154    2081.6721  0.058192779  0.058192849            2 
 2982000   0.76912962   -3.6720793    2078.5589  0.058086265  0.058180724            3 
 2983000   0.77616572   -3.6994111    2076.6674  0.058013951  0.058168605            8 
 2984000   0.75951411   -3.6594567     2077.199  0.058009356  0.058156507            3 
 2985000   0.77737995   -3.6935846    2079.1518  0.058044438  0.058144275            5 
 2986000   0.78283709   -3.6680408    2077.5562  0.057980469  0.058132193            4 
 2987000   0.76886664   -3.6807306    2077.8926  0.057970443  0.058119973            5 
 2988000   0.77148852   -3.6729528      2079.23  0.057988343  0.058107924            7 
 2989000   0.76864709   -3.6489103     2087.064  0.058187354   0.05809592            4 
 2990000    0.7706174   -3.6527923    2083.3212  0.058063578  0.058083902            6 
 2991000   0.78352867   -3.6859878    2076.8549  0.057864006  0.058071954            4 
 2992000   0.76176035   -3.6522174    2081.4803  0.057973493  0.058060115            6 
 2993000   0.77321287   -3.6706208    2088.5589  0.058151211  0.058048155            8 
 2994000   0.77091125   -3.6792149    2086.7357  0.058081044  0.058036201            5 
 2995000   0.76367588    -3.638614    2085.7336  0.058033767  0.058024192            2 
 2996000   0.78991752   -3.6879689    2081.0968  0.057885426  0.058012212            3 
 2997000   0.77341956   -3.6702218    2088.6398  0.058075848  0.058000289            7 
 2998000   0.78192194   -3.6687989    2090.6588  0.058112598  0.057988501            3 
 2999000    0.8033772   -3.6754663    2080.1397  0.057800926  0.057976633            6 
 3000000   0.75750056   -3.6792144     2086.788  0.057966333  0.057964718            3 
 3001000   0.77086836   -3.6881512    2079.9822  0.057758029  0.057952728            2 
 3002000   0.79014373   -3.6734469    2084.8743  0.057874593  0.057940812            5 
 3003000   0.76287003   -3.6680671    2085.4802  0.057872132  0.057928907            6 
 3004000   0.77403923   -3.6921075    2083.7031   0.05780357  0.057917022            7 
 3005000   0.75949821   -3.6597879    2089.6536  0.057949351  0.057905169           11 
 3006000   0.76525082   -3.6478918    2091.8486  0.057990924  0.057893321            4 
 3007000   0.76188925   -3.6845472    2089.3729   0.05790303  0.057881465            3 
 3008000   0.77306773   -3.6652621    2085.5687  0.057778389  0.057869564            7 
 3009000   0.78620649   -3.6743237    2090.2521  0.057888891  0.057857666            6 
 3010000   0.77304174    -3.673094    2089.4878  0.057848499  0.057845853            3 
 3011000   0.78628048   -3.6491811    2093.8454  0.057949888  0.057834075            7 
 3012000   0.76147839   -3.6741835    2088.3041  0.057777337   0.05782224            4 
 3013000   0.77242101   -3.6685156    2092.3336  0.057869609  0.057810396            8 
 3014000   0.76716694   -3.6748798    2098.4089  0.058018385   0.05779853            5 
 3015000   0.79079528   -3.6734944    2091.1137  0.057797504  0.057786708            5 
 3016000   0.78573785    -3.677636    2093.3958  0.057841395  0.057774866            3 
 3017000   0.76474492   -3.6787215    2091.2717  0.057763553   0.05776299            9 
 3018000   0.77694931   -3.7052619    2088.1054  0.057656986  0.057751122            3 
 3019000   0.77278374   -3.6701316    2083.0868  0.057499358  0.057739274            3 
 3020000   0.77385143   -3.6532511    2090.6485  0.057688977  0.057727367            5 
 3021000   0.77156681   -3.6734979    2091.0202  0.057680133  0.057715518            7 
 3022000   0.76491564   -3.7075402    2088.4953   0.05759142  0.057703568           11 
 3023000   0.76962609   -3.6764537    2095.1551  0.057755957  0.057691712            5 
 3024000   0.76992707   -3.6817457    2095.3658  0.057742664  0.057679896            5 
 3025000   0.77852199   -3.6611894    2099.1415   0.05782759  0.057668102            4 
 3026000   0.75574319   -3.6754928    2098.6735  0.057795592  0.057656332            3 
 3027000   0.75498762   -3.6948811    2091.4403  0.057577369  0.057644561            4 
 3028000   0.76442127   -3.6950086    2090.0716  0.057520683  0.057632648            4 
 3029000   0.75548896   -3.6798824    2095.5859  0.057653402  0.057620792            4 
 3030000   0.75364525     -3.71123    2090.3352  0.057489967  0.057608897            4 
 3031000   0.76290055   -3.6930225     2094.708  0.057591223  0.057596923            4 
 3032000   0.77641386   -3.6845819    2091.6317  0.057487678  0.057585029            4 
 3033000   0.75076881    -3.673677    2094.9159   0.05755896  0.057573124            3 
 3034000   0.75523544   -3.6878136    2091.5831  0.057448447  0.057561221            3 
 3035000   0.78068787    -3.679024      2100.98  0.057687535  0.057549438           10 
 3036000   0.76274219   -3.6610215    2102.3436  0.057705961  0.057537616            6 
 3037000   0.78259771   -3.6812162    2101.4898  0.057663533  0.057525903            3 
 3038000   0.76126654   -3.6846213     2102.678  0.057677145  0.057514043            4 
 3039000   0.75621405   -3.6707468    2101.3076  0.057620589  0.057502317            7 
 3040000   0.75426716   -3.6972596    2097.4395  0.057495599  0.057490485            4 
 3041000   0.76210147   -3.6765185    2092.2831  0.057335393  0.057478728            6 
 3042000   0.76607768    -3.664856     2102.722   0.05760251   0.05746691            6 
 3043000   0.76227151   -3.6867384    2098.8054  0.057476323  0.057455222            9 
 3044000   0.76769023   -3.6978077    2099.8966  0.057487313  0.057443409            5 
 3045000   0.76324382   -3.6955008    2094.0729  0.057309056   0.05743164            3 
 3046000   0.76702527   -3.6927661    2100.6259  0.057469519  0.057419822            3 
 3047000   0.75040432    -3.689038    2101.0128  0.057461242  0.057408101            5 
 3048000   0.77065624   -3.6903876     2101.493  0.057455517  0.057396273            5 
 3049000   0.76327751   -3.6785145    2094.9329  0.057257378  0.057384416            5 
 3050000   0.77479176   -3.6720329    2101.1026  0.057407176  0.057372593            3 
 3051000   0.76794887   -3.6893823    2103.9983  0.057467452  0.057360766            6 
 3052000   0.76159285   -3.6851569    2101.5127  0.057380753  0.057348941            9 
 3053000   0.76145781   -3.6789626    2102.9839  0.057402115  0.057337192            5 
 3054000   0.75123051   -3.6610978    2103.2674  0.057391056  0.057325451            4 
 3055000   0.77625669   -3.6803341    2106.1972  0.057452188  0.057313672            2 
 3056000   0.76248677   -3.6683713    2103.1978  0.057351599  0.057301977            4 
 3057000   0.76235421   -3.6949131     2100.793  0.057267283  0.057290294            9 
 3058000   0.76401366   -3.7061292    2096.4601  0.057130481  0.057278673            4 
 3059000   0.76736001   -3.6707832    2103.9057  0.057314636  0.057266973            5 
 3060000   0.76554647   -3.6685388    2109.5409  0.057449372  0.057255391            4 
 3061000   0.76121032   -3.6997085    2108.3949  0.057399403  0.057243661            4 
 3062000   0.74035261   -3.6977519    2103.2471   0.05724056  0.057231951            8 
 3063000   0.76833598   -3.6802242    2109.0547  0.057379875  0.057220268            4 
 3064000   0.78891628   -3.7130439    2105.9782  0.057277474  0.057208617            8 
 3065000   0.76481723   -3.6949828    2101.9943  0.057150471  0.057196905            6 
 3066000   0.76683041   -3.6916415    2096.0017  0.056968952  0.057185169            4 
 3067000   0.76053378   -3.6900369    2108.9457  0.057302078  0.057173335            2 
 3068000   0.75968051   -3.6844038    2109.4059    0.0572959  0.057161626            6 
 3069000   0.74348887   -3.7087296    2104.6056  0.057146889  0.057149908            3 
 3070000   0.74591221   -3.6934983    2110.1692  0.057279295  0.057138276            4 
 3071000   0.75381546   -3.7052771    2105.4182  0.057131723  0.057126664            5 
 3072000   0.77326976   -3.6821412       2111.7  0.057283528  0.057114931            5 
 3073000   0.75448515   -3.6790859    2107.4218  0.057148872  0.057103231           13 
 3074000   0.75205715   -3.6784609    2109.9804  0.057199642  0.057091501            2 
 3075000   0.75940319   -3.6821083    2117.6444  0.057388738  0.057079814            7 
 3076000   0.75059847   -3.6886343     2103.274  0.056980765  0.057068263            3 
 3077000   0.75983498   -3.6765746    2111.2438  0.057178089  0.057056547           16 
 3078000   0.75274098   -3.7178579    2108.5323  0.057086104  0.057044979            5 
 3079000   0.76866521   -3.6972297    2112.7438  0.057181546  0.057033394            4 
 3080000   0.76225006   -3.6949326    2112.6353  0.057160045  0.057021697            5 
 3081000   0.75524483   -3.7295045    2106.0115  0.056962337  0.057009965            6 
 3082000    0.7666784     -3.69331    2110.8563  0.057074851  0.056998327            6 
 3083000   0.75043179   -3.7075546    2112.9867  0.057113923  0.056986663            6 
 3084000   0.76644434   -3.7244929     2104.624  0.056869433  0.056974925            6 
 3085000   0.76541024   -3.6981386    2114.0902  0.057106704   0.05696319            8 
 3086000   0.74607604   -3.6887376    2112.6039  0.057048065    0.0569515            7 
 3087000   0.74269402   -3.7010187    2111.0567  0.056987817  0.056939779            7 
 3088000   0.75347877   -3.6892955    2115.2143  0.057081562  0.056928091            3 
 3089000   0.75192732   -3.6942151    2114.8934  0.057054424  0.056916393            7 
 3090000   0.77111004   -3.6857772    2114.8116  0.057033753    0.0569047            4 
 3091000   0.75736212   -3.7044319    2113.0387  0.056967504  0.056893117           12 
 3092000   0.75915814   -3.7049543    2109.4181  0.056851502  0.056881513            3 
 3093000   0.75299805   -3.6922205    2110.3499  0.056858226  0.056869769            4 
 3094000    0.7507483   -3.6834073    2117.5104  0.057032709  0.056858049           10 
 3095000   0.76327992   -3.6940937    2116.4864  0.056986709   0.05684659            5 
 3096000   0.75191976   -3.6995521     2118.389  0.057019514  0.056834961            3 
 3097000   0.74185199   -3.7140439    2119.7988  0.057039038  0.056823362            7 
 3098000   0.76489039   -3.7016832    2115.2896  0.056899333  0.056811672            5 
 3099000   0.74806392   -3.7224011      2112.68    0.0568108  0.056799949            3 
 3100000   0.74248544   -3.6874348    2117.7399  0.056928491  0.056788265            4 
 3101000   0.79175034   -3.6724123    2125.1187  0.057108424  0.056776741           11 
 3102000    0.7560758   -3.6816649    2123.8159  0.057055016  0.056765281            8 
 3103000   0.75576037   -3.6951969    2114.9877  0.056799542  0.056753664            4 
 3104000   0.76663565   -3.6876837    2115.8684  0.056804887  0.056742126            3 
 3105000   0.75429031   -3.7179384    2114.3027   0.05674457  0.056730401            5 
 3106000   0.75495729   -3.6899609     2112.468  0.056677076  0.056718609            4 
 3107000   0.76591813   -3.7058201    2115.6418   0.05674396  0.056706836            6 
 3108000    0.7604191   -3.7096584     2112.759  0.056648407  0.056695118            4 
 3109000   0.75339834   -3.7032507    2124.8423  0.056954066  0.056683435            3 
 3110000   0.75553499   -3.6923451    2117.5446  0.056740208  0.056671801            4 
 3111000   0.74543241   -3.6895594    2124.8225  0.056916922   0.05666007            2 
 3112000   0.75949119   -3.6854052    2119.6643  0.056760505  0.056648565            4 
 3113000   0.78463289   -3.7036345    2121.9236  0.056802752  0.056636995            5 
 3114000   0.74447146   -3.7138772    2120.8151  0.056754846  0.056625409            5 
 3115000   0.74842146    -3.711443    2114.2424  0.056560791  0.056613817            5 
 3116000   0.76390126   -3.7147093    2119.3538  0.056679338  0.056602159            4 
 3117000   0.75584816    -3.707192     2121.959  0.056730804  0.056590327            5 
 3118000   0.75707967   -3.6994298    2119.3571  0.056643068  0.056578544            4 
 3119000   0.76359122   -3.7080825    2122.9394   0.05672062   0.05656681            4 
 3120000   0.74739221   -3.7120607    2122.1428  0.056681165   0.05655506            5 
 3121000   0.75188371   -3.7008001    2122.2499  0.056665862  0.056543346            6 
 3122000   0.74046962   -3.7084202    2115.0889  0.056456569  0.056531531            3 
 3123000   0.75347745   -3.7186309    2120.8419  0.056592003  0.056519711            2 
 3124000   0.75949281   -3.7036506    2117.3882   0.05648176  0.056507898            6 
 3125000    0.7406168   -3.7185748    2121.5944  0.056575852  0.056495944            7 
 3126000   0.73931351   -3.6737496    2117.1285  0.056438699  0.056484197            5 
 3127000   0.73325908   -3.6936616    2112.5807  0.056299454  0.056472388            5 
 3128000   0.74854496   -3.7043538    2120.5493  0.056493747  0.056460626           11 
 3129000   0.75016712    -3.685022    2115.1952  0.056333098  0.056448747            6 
 3130000   0.73485575   -3.6894742    2118.7823  0.056410604  0.056436797            4 
 3131000   0.76078486   -3.6900991     2116.081  0.056320691    0.0564248            4 
 3132000   0.75954652   -3.7162073    2118.6152  0.056370136  0.056412923            5 
 3133000   0.77841019   -3.6927111    2121.7841  0.056436433  0.056401055            2 
 3134000   0.75327145   -3.7027278    2118.9261   0.05634243   0.05638922            7 
 3135000   0.76419875   -3.7009378    2122.0923  0.056408621  0.056377446            5 
 3136000   0.73382576   -3.7019417     2119.349  0.056317736  0.056365627            4 
 3137000   0.74129077   -3.7181762    2123.4711  0.056409285  0.056353752            2 
 3138000   0.74164568   -3.7079415    2115.5901   0.05618202  0.056341906            6 
 3139000   0.72502309   -3.6897085    2120.1922  0.056286297      0.05633            5 
 3140000   0.76463971   -3.6993578    2123.9166  0.056367213  0.056318179            6 
 3141000   0.73383418   -3.7132144    2120.6374  0.056262267  0.056306399            3 
 3142000   0.73885089   -3.7288758    2117.3547  0.056157295  0.056294577            4 
 3143000   0.72778706   -3.7138566    2127.5621  0.056410067  0.056282691           11 
 3144000   0.75532114   -3.7053901    2124.7814  0.056318421  0.056270884            3 
 3145000   0.74050982    -3.707861    2121.6686  0.056218035  0.056259071            5 
 3146000   0.75686612   -3.7101242    2124.5821   0.05627734  0.056247226           10 
 3147000   0.74907455   -3.7054964    2126.7675  0.056317325  0.056235532            4 
 3148000   0.76343129   -3.6804315    2129.4243  0.056369767   0.05622376            3 
 3149000   0.74886294   -3.7178234    2123.2332  0.056188029  0.056212044            4 
 3150000    0.7551051   -3.7164386    2121.9071  0.056135108  0.056200237            6 
 3151000   0.74316054    -3.715376    2128.8554  0.056301053  0.056188466            5 
 3152000   0.75119316   -3.7042368    2127.8194  0.056255801  0.056176669           10 
 3153000    0.7479645   -3.7218371    2124.9038  0.056160898  0.056164826            5 
 3154000   0.74460293   -3.7102223    2121.6217  0.056056376  0.056152964            8 
 3155000   0.74611459   -3.7121468    2124.6938  0.056119752  0.056140987           10 
 3156000   0.73320428   -3.7092501    2120.8686  0.056000966  0.056129192            2 
 3157000   0.75433162   -3.7144367    2130.6593  0.056241667   0.05611725            2 
 3158000   0.74418721   -3.7067332    2124.1203  0.056051307   0.05610525           13 
 3159000   0.74819979   -3.7233092    2123.3956  0.056014445  0.056093329            3 
 3160000   0.75347324   -3.7223899    2122.4178  0.055970933  0.056081395           12 
 3161000   0.73863215   -3.7372112    2116.5008  0.055797236  0.056069422            8 
 3162000   0.73171329   -3.7238027    2126.3783  0.056039908  0.056057408            9 
 3163000   0.73677779   -3.6904872    2134.2756  0.056230257  0.056045588            4 
 3164000   0.75722823   -3.7167054    2132.5918  0.056168137  0.056033646            7 
 3165000   0.73576985   -3.7321355    2119.9069    0.0558164  0.056021691            5 
 3166000   0.74439126   -3.7013772    2135.7001  0.056214469  0.056009757            7 
 3167000   0.74060495   -3.7167283    2127.9642  0.055993165  0.055997899           10 
 3168000   0.73627036    -3.715031    2130.4424  0.056040677  0.055985986            4 
 3169000   0.74740348   -3.7328055    2139.9627  0.056273342  0.055974103            8 
 3170000   0.74644374   -3.6947114    2123.8271  0.055831418  0.055962302            3 
 3171000   0.73761188   -3.6898341    2130.2513  0.055982638  0.055950544            2 
 3172000   0.74210872   -3.7295834    2135.0773  0.056091775  0.055938711            7 
 3173000   0.74859737   -3.7051526    2132.1772  0.055997932  0.055926828            5 
 3174000   0.75332619   -3.7152882    2130.5216  0.055936821  0.055914933            5 
 3175000   0.73061837   -3.6834261    2131.2479  0.055938264  0.055903099            8 
 3176000   0.74804904   -3.7145311    2135.0698  0.056020933  0.055891303            5 
 3177000   0.73218419   -3.7055826    2134.7768  0.055995614  0.055879457            4 
 3178000    0.7351181   -3.7201491    2134.2135  0.055963224  0.055867681            6 
 3179000   0.74085171   -3.7241508    2136.1698  0.055996901  0.055855937            4 
 3180000   0.71566653   -3.7099762    2131.7276  0.055862883  0.055844216            5 
 3181000   0.74244037   -3.7247601    2130.8187   0.05582151  0.055832344            5 
 3182000    0.7301924   -3.7151317    2135.6802  0.055931286  0.055820632            2 
 3183000   0.72078444   -3.6953479    2133.6906  0.055861626  0.055808916            3 
 3184000   0.72827991   -3.7384559    2135.1024  0.055881031  0.055797211            7 
 3185000   0.72563711   -3.7307249    2140.4151  0.056002489   0.05578543            8 
 3186000   0.74326997   -3.6942133    2138.3906  0.055931957  0.055773707            6 
 3187000    0.7543175   -3.7195723    2131.8984   0.05574465  0.055762118            7 
 3188000   0.75823913   -3.7482712    2132.6711  0.055747363  0.055750479            4 
 3189000     0.737751   -3.7380011    2137.6595  0.055860236  0.055738797            2 
 3190000   0.73120011   -3.7240363    2139.1756  0.055882329  0.055727153            6 
 3191000   0.74233296   -3.7132791    2137.6563   0.05582514  0.055715477            2 
 3192000   0.74028636   -3.7231962    2141.1746  0.055899504  0.055703902            8 
 3193000   0.73936077   -3.7402418    2134.1373  0.055698333  0.055692209            4 
 3194000   0.73938204   -3.7199844    2137.7326  0.055774697  0.055680638            5 
 3195000   0.72955287   -3.7466072    2138.2151  0.055769825  0.055668955           10 
 3196000   0.74619162   -3.7265351    2136.5798  0.055709737  0.055657444            4 
 3197000   0.72795581   -3.7288522    2139.5589  0.055769964  0.055645824           11 
 3198000   0.74107201   -3.7465898    2137.5464  0.055700082  0.055634193            4 
 3199000   0.73638097   -3.7326076    2141.5071  0.055785846  0.055622626            6 
 3200000   0.74511167   -3.7189487    2143.9604  0.055832302  0.055611087            5 
 3201000   0.73571773    -3.724023     2142.597  0.055779365  0.055599522            5 
 3202000   0.75549475   -3.7196664    2145.8563  0.055846769  0.055587977            5 
 3203000   0.73622182   -3.7276857    2149.7248  0.055929982  0.055576379           10 
 3204000   0.75651686   -3.7137221    2148.3173  0.055875917  0.055564902            6 
 3205000   0.72841533   -3.7243588    2139.4688  0.055628414  0.055553389            4 
 3206000    0.7512207   -3.7186355    2145.3133  0.055762978  0.055541744            4 
 3207000   0.74069073   -3.7376727    2140.5201  0.055621041  0.055530013            6 
 3208000   0.73926761   -3.7290847    2140.9762  0.055615549   0.05551837            6 
 3209000    0.7424773   -3.7294954    2141.5392   0.05561284  0.055506707            9 
 3210000   0.72946086   -3.7396564    2147.3542  0.055746475  0.055495095           13 
 3211000   0.73451146   -3.7318572    2144.0019  0.055642114  0.055483382            5 
 3212000   0.73280549    -3.728287    2137.8166  0.055464316  0.055471762            6 
 3213000   0.74074998   -3.7348174     2135.267  0.055380925  0.055460023            6 
 3214000   0.73588684   -3.7322342    2139.0386  0.055461485  0.055448196           15 
 3215000   0.73135689   -3.7422234    2143.3413  0.055555761  0.055436501            9 
 3216000   0.73672071   -3.7122019    2141.8391  0.055499561  0.055424726            7 
 3217000   0.74552303   -3.7405386    2136.3889  0.055341128   0.05541304            4 
 3218000   0.71205746   -3.7320731    2139.0243  0.055392176   0.05540133            6 
 3219000   0.73775003   -3.7381663    2144.6683  0.055521081  0.055389516            3 
 3220000   0.72690276   -3.7537815    2142.3573  0.055444028  0.055377827            9 
 3221000   0.72826901   -3.7311729    2146.4094  0.055531652  0.055366062            8 
 3222000   0.74683681   -3.7199187    2148.0588  0.055557077  0.055354338            4 
 3223000   0.73297149   -3.7353372    2137.0447  0.055255061   0.05534266            5 
 3224000   0.73481078   -3.7314574    2142.7402  0.055385138  0.055330898            5 
 3225000   0.73325119    -3.753885    2146.0955  0.055454664  0.055319115            4 
 3226000   0.73567672   -3.7207041    2147.9087  0.055484312    0.0553073            7 
 3227000   0.72554569   -3.7469126    2147.0776  0.055445656  0.055295554            6 
 3228000   0.73223382   -3.7379016    2152.6049   0.05557117  0.055283857            4 
 3229000   0.72587305   -3.7385531    2144.4802   0.05534428  0.055272204            4 
 3230000    0.7491551    -3.751974    2141.9379  0.055261556  0.055260649            4 
 3231000   0.74648249   -3.7384417    2144.8247  0.055318908  0.055249082            3 
 3232000   0.75262669   -3.7312227    2143.5021  0.055267689  0.055237482            7 
 3233000    0.7473133   -3.7290592     2144.882  0.055286165  0.055225784            3 
 3234000   0.73725447   -3.7206188    2146.4223  0.055308758  0.055214087            4 
 3235000   0.73612961   -3.7465199     2143.386  0.055213447  0.055202402            9 
 3236000   0.72838762    -3.722699    2147.1132  0.055292368  0.055190685            5 
 3237000   0.73067729   -3.7314551    2149.4208  0.055334692  0.055178874            5 
 3238000    0.7094628   -3.7605966    2142.5682  0.055141246  0.055167077           10 
 3239000   0.72875181   -3.7313611    2145.0359  0.055187711  0.055155292            6 
 3240000   0.73188177   -3.7384767    2145.0544  0.055171152  0.055143583            9 
 3241000   0.71994333   -3.7396298    2142.1032  0.055078248  0.055131788            3 
 3242000   0.73546219   -3.7429665    2151.7683  0.055309692  0.055119957            4 
 3243000   0.72937282   -3.7181169    2152.5325  0.055312276  0.055108166            3 
 3244000   0.71978239   -3.7100254    2153.2182   0.05531284  0.055096478           10 
 3245000   0.73042313   -3.7267004    2147.0713  0.055137939  0.055084782            4 
 3246000   0.74211338   -3.7430722     2145.751  0.055087056  0.055072944            5 
 3247000   0.73921429    -3.745686    2149.2043  0.055158719  0.055061093            4 
 3248000   0.74022958   -3.7418539    2147.2719  0.055092156  0.055049302            6 
 3249000   0.73579271   -3.7306433    2153.1759  0.055226631  0.055037518            4 
 3250000   0.72298135   -3.7334156     2142.469  0.054935102  0.055025754            3 
 3251000   0.71802358   -3.7485796    2147.6512   0.05505104  0.055013875            4 
 3252000   0.73273135    -3.745092    2143.5422  0.054928818     0.055002            6 
 3253000   0.72786019   -3.7414726    2149.1817  0.055056402  0.054990282            7 
 3254000   0.73218247    -3.733152    2144.6941  0.054924557  0.054978512           10 
 3255000    0.7412677   -3.7548876    2148.8934  0.055015192  0.054966664            5 
 3256000   0.73335105   -3.7480878     2152.877   0.05510025  0.054954901            5 
 3257000   0.73442245   -3.7348568    2148.5949  0.054973772   0.05494315           10 
 3258000   0.74721547   -3.7407705    2148.5477  0.054955692  0.054931443            4 
 3259000   0.73514922   -3.7344816    2158.9702  0.055205333  0.054919701            3 
 3260000   0.73623795   -3.7356312    2157.6223  0.055153944  0.054907945            3 
 3261000   0.72514098   -3.7347726    2153.9307  0.055042695  0.054896309            6 
 3262000   0.73311377   -3.7473853    2153.3338   0.05501057  0.054884683            6 
 3263000    0.7316853    -3.738203    2157.5555   0.05510153  0.054873042            5 
 3264000   0.73791577   -3.7601637    2151.6105  0.054932866  0.054861377            7 
 3265000   0.73484526   -3.7462434    2151.1152  0.054903399   0.05484973            3 
 3266000   0.72887997   -3.7554562    2155.7351  0.055004467  0.054838167            5 
 3267000   0.74011198   -3.7251099    2155.6887  0.054986447  0.054826571            7 
 3268000   0.71939491   -3.7458201    2155.7961  0.054972362  0.054814869            3 
 3269000   0.72854722    -3.738586    2157.8524  0.055007963   0.05480323            8 
 3270000   0.72424249   -3.7499717    2156.0121  0.054944244  0.054791577            3 
 3271000   0.72499776   -3.7578757    2149.6899  0.054766379  0.054779802            6 
 3272000   0.72767927   -3.7217853    2150.1524  0.054761421  0.054768068            4 
 3273000   0.72082248   -3.7639737    2150.0017  0.054740852  0.054756324            4 
 3274000   0.71630031   -3.7580024    2155.2639  0.054858072  0.054744589           11 
 3275000   0.71764336    -3.752298    2157.3619  0.054894705  0.054732969            6 
 3276000   0.73651914   -3.7456401     2148.982  0.054664784  0.054721236            7 
 3277000    0.7456435   -3.7427266    2147.1317  0.054601051  0.054709529            5 
 3278000   0.71477324   -3.7509718       2156.7  0.054827638  0.054697895            5 
 3279000   0.71695531   -3.7475779    2156.1024  0.054795731  0.054686261            7 
 3280000   0.73832022   -3.7832903    2150.7253  0.054642411  0.054674554            2 
 3281000    0.7318397   -3.7539867    2163.8876  0.054960063  0.054662882            4 
 3282000   0.72827657   -3.7332028    2166.6989  0.055014699  0.054651299            5 
 3283000   0.72271105   -3.7666788    2155.2647  0.054707705  0.054639742            7 
 3284000   0.72360159   -3.7470523    2158.8754  0.054782667  0.054628078            4 
 3285000   0.72824237   -3.7580255     2157.071  0.054720218  0.054616458           10 
 3286000   0.73892555    -3.734384    2165.1059  0.054907332  0.054604873            3 
 3287000   0.73424624   -3.7695675    2160.1197  0.054764216  0.054593257            9 
 3288000   0.71353091   -3.7214747    2167.1096  0.054924717  0.054581644            4 
 3289000   0.73305374   -3.7626748    2157.8366  0.054673066  0.054570069            5 
 3290000   0.73252339   -3.7405457    2159.6299  0.054701872  0.054558525            4 
 3291000   0.72075946   -3.7675659    2160.3025  0.054702282  0.054546829            5 
 3292000   0.72704988   -3.7444022    2165.7007  0.054822315  0.054535322            4 
 3293000     0.715403   -3.7473149    2161.2241   0.05469238  0.054523909            5 
 3294000   0.71569457   -3.7709601    2165.7622  0.054790584  0.054512311            5 
 3295000   0.73268177   -3.7341206    2161.7162  0.054671628  0.054500707            5 
 3296000   0.71957424    -3.740942    2161.2022  0.054642047  0.054489206            6 
 3297000   0.72335702   -3.7397761     2158.202  0.054549641  0.054477748            6 
 3298000   0.73638261   -3.7401896    2159.9985  0.054578496  0.054466177            9 
 3299000   0.74498919   -3.7476027    2160.9752  0.054586623  0.054454614            5 
 3300000   0.71160857   -3.7531528    2166.0307  0.054697745  0.054443155            5 
 3301000   0.70989476    -3.744792    2162.3483  0.054588212  0.054431512            6 
 3302000   0.71728952   -3.7463551    2164.4648  0.054625097  0.054419966            5 
 3303000   0.72669352   -3.7317138    2161.3812  0.054530759  0.054408484            4 
 3304000   0.71348314   -3.7311422    2162.7108  0.054547791  0.054396911            4 
 3305000    0.7324029   -3.7583044     2157.516  0.054400303  0.054385344            5 
 3306000   0.74014008   -3.7373737    2168.4438    0.0546593    0.0543738            3 
 3307000   0.72637521   -3.7633947    2165.0067  0.054556161    0.0543623            4 
 3308000   0.72906489   -3.7613442    2170.8556   0.05468701  0.054350877            4 
 3309000   0.71585714   -3.7387191    2167.4174  0.054583898  0.054339433            6 
 3310000   0.72739269   -3.7541499    2156.6057  0.054295208  0.054327942            3 
 3311000   0.72264333   -3.7573059    2165.5586  0.054504143  0.054316399           10 
 3312000   0.73976336   -3.7585122     2162.119  0.054401143  0.054304768           11 
 3313000   0.72308633   -3.7686141    2164.7375  0.054450587  0.054293287           16 
 3314000   0.72117681   -3.7782289    2158.3456  0.054273427   0.05428162           10 
 3315000   0.71970635   -3.7369519    2172.7112   0.05461818  0.054270056            3 
 3316000   0.70897683   -3.7534844    2169.3071  0.054516161  0.054258509            4 
 3317000   0.73315885   -3.7699466     2169.067  0.054493694  0.054247098            6 
 3318000   0.71280887   -3.7395467     2167.114  0.054428221  0.054235594            6 
 3319000   0.72055904   -3.7611676    2167.6518  0.054425324  0.054224101            5 
 3320000   0.72595268   -3.7747636    2162.6452  0.054283263  0.054212609            6 
 3321000   0.72645255   -3.7663968    2174.2573  0.054558298  0.054201029            6 
 3322000   0.71541598   -3.7630186    2165.0391  0.054310633  0.054189527            9 
 3323000   0.72794068   -3.7586818    2167.3166  0.054351405  0.054178017            3 
 3324000   0.70332998    -3.758643     2167.868  0.054348876  0.054166468            4 
 3325000   0.73894475   -3.7798157    2169.7657  0.054380094  0.054155054            6 
 3326000   0.71401873    -3.769204    2169.8472  0.054365786  0.054143517            4 
 3327000   0.73115976   -3.7826368    2167.8576  0.054299609  0.054132132            6 
 3328000   0.73938781   -3.7554979     2177.185  0.054516853   0.05412071            5 
 3329000   0.71195659   -3.7385143    2181.3084  0.054603695  0.054109288            4 
 3330000   0.72048008   -3.7807375    2174.1345   0.05440777  0.054097976            5 
 3331000    0.7248527   -3.7760985    2166.9099  0.054210695  0.054086512            6 
 3332000   0.73881706   -3.7577463    2172.1019  0.054324277  0.054075064            4 
 3333000   0.73539024   -3.7550564    2172.6996  0.054322923  0.054063545           10 
 3334000   0.71303459   -3.7715448    2167.6606  0.054180678  0.054052035            4 
 3335000   0.71562225   -3.7422229    2165.0656   0.05409959  0.054040496            6 
 3336000   0.69868737   -3.7554576    2173.5799  0.054296061  0.054028993            4 
 3337000   0.70956164   -3.7591967    2179.9092  0.054437847  0.054017548           10 
 3338000   0.70626017   -3.7790462    2167.6949   0.05411661   0.05400609           15 
 3339000   0.73649225   -3.7395743    2175.9902  0.054307432  0.053994677            6 
 3340000   0.71350231   -3.7626218     2175.051  0.054267741  0.053983264            7 
 3341000   0.72228976   -3.7670442    2169.6665  0.054117193  0.053971885            4 
 3342000   0.70733679    -3.756897    2174.2414  0.054215077  0.053960503           10 
 3343000   0.71955912   -3.7278293     2169.225  0.054073812  0.053949002            5 
 3344000   0.70699508   -3.7553414    2169.9738  0.054076301  0.053937528            7 
 3345000   0.72350178   -3.7580116    2174.0556  0.054161824  0.053926035            4 
 3346000   0.71868774   -3.7723736    2171.3011  0.054077034   0.05391463           13 
 3347000    0.7183005    -3.755318    2173.1919  0.054107956  0.053903198            4 
 3348000   0.71954642    -3.770663    2174.9731  0.054136127  0.053891847            8 
 3349000   0.72970134      -3.7523    2170.4932  0.054008491  0.053880571           11 
 3350000   0.73363649   -3.7803595    2169.4482  0.053966373  0.053869182            6 
 3351000   0.71145447   -3.7727148    2177.0694  0.054139795  0.053857788            4 
 3352000   0.71343284    -3.767284     2180.445  0.054207563  0.053846462            4 
 3353000   0.71841004   -3.7603476    2175.1033  0.054058636  0.053835148            5 
 3354000   0.69649257   -3.7547486    2178.3593  0.054123417   0.05382379            8 
 3355000    0.7061439   -3.7863208    2166.5925  0.053815016  0.053812384            7 
 3356000   0.70421961   -3.7768365    2174.2501  0.053989127   0.05380096            3 
 3357000   0.70481725   -3.7708738    2173.3531  0.053950777  0.053789632            7 
 3358000   0.70800288   -3.7483111    2181.1944  0.054129302  0.053778289            3 
 3359000   0.70889466   -3.7836613    2179.8187  0.054079058  0.053766834            3 
 3360000   0.71746625   -3.7636632    2179.1369  0.054046055  0.053755463            4 
 3361000   0.72882423   -3.7468619    2179.8501  0.054047656  0.053744005            7 
 3362000   0.71986774   -3.7647756      2169.62   0.05377801  0.053732629            6 
 3363000   0.71240462   -3.7746718    2182.2063    0.0540739  0.053721224           11 
 3364000   0.71186377   -3.7564693    2183.8661  0.054098943  0.053709861            5 
 3365000   0.70588987   -3.7831913     2181.171  0.054016121   0.05369847            3 
 3366000   0.69906073   -3.7802514     2178.148  0.053925233  0.053687036            2 
 3367000   0.71610076   -3.7864856    2184.6142  0.054069254  0.053675625            4 
 3368000   0.72647608   -3.7929045    2177.5675  0.053878846  0.053664191            3 
 3369000   0.71716876   -3.7737953    2186.0048  0.054071554  0.053652826            5 
 3370000   0.71264575   -3.7752136    2182.9077  0.053978923  0.053641319            5 
 3371000   0.70697374   -3.7820971    2181.1853  0.053920332  0.053629989           17 
 3372000   0.70666901   -3.7991083    2182.0554  0.053925846  0.053618634            6 
 3373000   0.72285845   -3.7650176    2173.7467  0.053704582  0.053607209            5 
 3374000   0.71569488   -3.7538974    2176.5757  0.053758538  0.053595887            3 
 3375000   0.71300606   -3.7832322    2185.5346  0.053963818   0.05358458            3 
 3376000   0.70517541   -3.7752413    2184.0488  0.053911158  0.053573354            5 
 3377000   0.69726052   -3.7911115    2186.2534  0.053949595  0.053561967            7 
 3378000   0.71310471   -3.7812342    2183.8963  0.053875477  0.053550642            7 
 3379000   0.69864795   -3.7723386    2184.4749  0.053873801  0.053539205            8 
 3380000   0.70514267   -3.7816096    2181.4193  0.053782528  0.053527791            3 
 3381000   0.70062935   -3.7772615    2184.5039  0.053842647  0.053516536            7 
 3382000   0.70988395   -3.7837552    2181.4575  0.053751663   0.05350526            6 
 3383000   0.70938934   -3.7707777    2180.3333  0.053708081  0.053494019           12 
 3384000   0.71199801    -3.772492      2181.39  0.053718233  0.053482777            7 
 3385000    0.7208028   -3.7768557    2181.1468  0.053696376  0.053471431            9 
 3386000    0.7130246   -3.7773214    2182.8643  0.053722787    0.0534601            6 
 3387000   0.71059703   -3.7610261    2182.7926  0.053705163  0.053448713            4 
 3388000    0.7262772   -3.7725412    2183.1782  0.053698794  0.053437504            6 
 3389000   0.71292262   -3.7700398    2183.0765   0.05368045  0.053426269            4 
 3390000   0.70464861   -3.7983727    2183.3164   0.05367051  0.053414911            6 
 3391000   0.72862121    -3.779661    2187.2249  0.053750734  0.053403562            6 
 3392000   0.71478611   -3.7771314    2190.2247  0.053808585  0.053392268            3 
 3393000   0.72306009   -3.7840421    2185.5576  0.053678103  0.053380877           14 
 3394000   0.71407328   -3.7653301    2185.7655  0.053667391  0.053369555            6 
 3395000     0.714366   -3.7948297    2183.9988  0.053608218  0.053358259            5 
 3396000   0.71196036    -3.783457    2187.8535  0.053687021  0.053346959            5 
 3397000   0.70059217   -3.8028647    2186.8588  0.053646815   0.05333567            5 
 3398000   0.70058944   -3.7847855    2184.4598  0.053572195  0.053324337            5 
 3399000   0.71211845   -3.7932285    2187.7791  0.053637811  0.053313102            4 
 3400000   0.69934576   -3.7724298    2192.3683  0.053734517  0.053301758            4 
 3401000   0.71372683   -3.7833842    2190.7133  0.053678166  0.053290482           22 
 3402000   0.70243672   -3.7752842    2189.2779  0.053627227  0.053279251            4 
 3403000   0.70678577    -3.790079    2186.5502  0.053544672  0.053268011           10 
 3404000   0.70920508   -3.7779525    2193.7651   0.05370557   0.05325683            7 
 3405000   0.71119837   -3.7873658     2191.154  0.053625893  0.053245614            3 
 3406000   0.71439923   -3.7625835    2192.1096   0.05363353  0.053234509            3 
 3407000   0.71283803   -3.7889022    2188.6016  0.053531984  0.053223323            8 
 3408000   0.70340583   -3.7884482    2193.5075  0.053636236  0.053212152           13 
 3409000   0.71058226   -3.7746607    2198.6119   0.05374528  0.053201063            9 
 3410000   0.68922138   -3.7487336    2194.7395  0.053634886  0.053189985            7 
 3411000   0.70379408   -3.7723766     2194.352  0.053609694  0.053178916            9 
 3412000   0.69610557   -3.7998879    2192.8501    0.0535573  0.053167755            5 
 3413000   0.70421559    -3.769162    2185.2832  0.053356852  0.053156622           12 
 3414000   0.70305982   -3.7705343    2202.4591  0.053760474   0.05314557            5 
 3415000   0.69954188   -3.7920615    2200.4318   0.05369526  0.053134529            7 
 3416000   0.68170446   -3.7701545    2196.3042  0.053578848  0.053123455           13 
 3417000    0.6991607   -3.7722027    2196.2847  0.053562695  0.053112432            6 
 3418000    0.7049616   -3.7608687    2190.5673  0.053407628  0.053101418            6 
 3419000   0.69839168   -3.7944596    2197.7331  0.053566664   0.05309027            7 
 3420000    0.7199195   -3.8012855    2199.1923  0.053586557  0.053079237            2 
 3421000   0.69272711   -3.7899784    2199.6536  0.053582131  0.053068155            2 
 3422000    0.7219388   -3.7997219    2197.2418   0.05350774  0.053057074            5 
 3423000   0.70690364   -3.8191274    2192.1584  0.053368351   0.05304606            3 
 3424000   0.71270505   -3.7860028    2192.9401  0.053371791  0.053034994            2 
 3425000   0.70532981   -3.7878307    2196.2794  0.053437455  0.053023926            5 
 3426000   0.71044182   -3.8131343    2193.9119  0.053364272  0.053012817            5 
 3427000   0.71460066   -3.7719693    2200.8875  0.053518324  0.053001853            3 
 3428000   0.69398602   -3.7880104    2195.9095  0.053381698  0.052990882            5 
 3429000   0.71534213   -3.7897629    2201.8606  0.053510756  0.052979859            5 
 3430000   0.69052994   -3.7972057    2200.5708   0.05346382  0.052968938            4 
 3431000   0.69264218   -3.7733575     2203.594  0.053521666  0.052957966            4 
 3432000   0.71606389   -3.7654552    2198.1423  0.053373696  0.052947028            3 
 3433000    0.7126863   -3.7922325      2197.61  0.053345227  0.052936045            6 
 3434000   0.71726687   -3.7717417     2202.087  0.053438336  0.052925022            5 
 3435000   0.70103483    -3.778774     2207.189  0.053546556    0.0529141            8 
 3436000   0.71543799   -3.7913731    2207.5143  0.053538862   0.05290319           16 
 3437000   0.69353995   -3.7781227    2204.6696   0.05345431  0.052892253           10 
 3438000   0.71420394   -3.7999406    2206.2658  0.053477453  0.052881324            3 
 3439000   0.70624912    -3.773892    2201.6628  0.053350363  0.052870374            5 
 3440000   0.72069176    -3.786772    2199.4375  0.053280947  0.052859427            7 
 3441000    0.7052197   -3.7895182    2198.8953  0.053252331  0.052848499           21 
 3442000   0.70679742   -3.7885053    2198.2306  0.053220769  0.052837528            5 
 3443000   0.71348086   -3.7783337    2200.2791  0.053254891  0.052826595            8 
 3444000   0.70657042   -3.7871335    2204.1385  0.053332813   0.05281565            3 
 3445000   0.68758399   -3.7928738    2200.1069   0.05321981  0.052804626            3 
 3446000   0.70317916    -3.797114    2202.8053  0.053269619  0.052793652            4 
 3447000   0.71181745   -3.8073027    2208.4291  0.053390125  0.052782726            6 
 3448000      0.68427   -3.8055888    2202.9689  0.053242675  0.052771815           15 
 3449000   0.69642548   -3.8085286    2201.4199  0.053189811  0.052760785            3 
 3450000   0.70876401   -3.7830475    2203.3138   0.05322014  0.052749774            5 
 3451000   0.70612458   -3.7762425    2200.4515  0.053135602  0.052738767            7 
 3452000   0.68787354   -3.7732973    2200.7025  0.053126267   0.05272772            8 
 3453000   0.70698976    -3.780722    2204.4253  0.053200727  0.052716718            5 
 3454000   0.70724664   -3.8091423    2203.1817  0.053155319  0.052705879           10 
 3455000   0.70354043   -3.7864666    2202.8631  0.053132249  0.052694936            4 
 3456000   0.69608271   -3.7855488    2213.3413  0.053369534  0.052683889            5 
 3457000   0.69151989   -3.8000183    2201.1312  0.053059762  0.052672953            5 
 3458000   0.69627921   -3.7991557    2205.2107  0.053142729  0.052661911            5 
 3459000   0.70047081   -3.7970108    2205.5306  0.053135073    0.0526509            5 
 3460000    0.7068214   -3.8072964    2206.5589  0.053144483  0.052639894           20 
 3461000   0.70850861   -3.7991642    2207.9095  0.053161646  0.052628862            8 
 3462000   0.69793189   -3.7848137     2210.051  0.053197837  0.052617826            3 
 3463000   0.71114804   -3.8076842    2204.0755  0.053038683  0.052606855            5 
 3464000   0.69027753   -3.8233187    2210.0136  0.053166224  0.052595958            7 
 3465000   0.71459695    -3.782842    2206.2014  0.053059196  0.052584925           11 
 3466000   0.69265397   -3.7696949     2208.028  0.053087804  0.052573973           20 
 3467000   0.69202834   -3.7958097    2204.7219  0.052993026   0.05256305           21 
 3468000   0.70756923   -3.7988917    2209.5334  0.053093363  0.052552021            3 
 3469000   0.70902113   -3.7700259    2210.5728  0.053103027  0.052541021            6 
 3470000   0.70260561   -3.8077053    2201.4873  0.052869532   0.05253004            7 
 3471000   0.69150214   -3.8088437    2200.0607  0.052820049  0.052519098            6 
 3472000   0.68018196   -3.7730568    2209.1425  0.053022814  0.052508139            7 
 3473000   0.70734218   -3.8071065    2203.1917  0.052864758  0.052497243            6 
 3474000   0.69703594   -3.8214839     2203.025  0.052845544  0.052486324            6 
 3475000   0.69168207   -3.8196703    2216.4071  0.053151249  0.052475416            9 
 3476000   0.71603027   -3.8046223    2205.3051  0.052869799  0.052464495            7 
 3477000   0.70257576   -3.8206959     2205.402  0.052856916  0.052453443            4 
 3478000   0.69394039   -3.8241288     2204.947  0.052830818  0.052442365            7 
 3479000   0.71505992   -3.8090084    2209.7733  0.052931237  0.052431318            3 
 3480000   0.69563007   -3.8022802    2214.6747  0.053033397  0.052420342            8 
 3481000   0.68919588   -3.7953923     2207.231  0.052839965  0.052409352            6 
 3482000   0.67597221   -3.8101132    2199.7705  0.052646241  0.052398294            7 
 3483000   0.68943713   -3.7977451    2217.5448  0.053056388    0.0523873            5 
 3484000   0.69122937   -3.8222478    2205.3297  0.052748987  0.052376383            4 
 3485000   0.69369196   -3.7992669    2211.4559  0.052880342  0.052365337            7 
 3486000   0.69517349   -3.8066593    2208.0875   0.05278465  0.052354418            3 
 3487000   0.70804267   -3.8018652    2217.4647  0.052993613  0.052343475           17 
 3488000   0.69625687   -3.7987556    2216.6096   0.05295799  0.052332542            7 
 3489000   0.69051766   -3.8025958    2216.7049  0.052945088   0.05232165           13 
 3490000   0.68242098   -3.8211595    2211.3088  0.052801069  0.052310589            4 
 3491000   0.68934584   -3.8043964     2208.704  0.052723766   0.05229962            8 
 3492000   0.68956751   -3.8245151    2202.9223  0.052570692  0.052288607           18 
 3493000   0.67410147   -3.7912191    2203.5685  0.052571059  0.052277622            5 
 3494000   0.69804896    -3.805857    2213.9828  0.052804399  0.052266575            5 
 3495000   0.70620687   -3.7848689    2210.6691  0.052710278   0.05225558            6 
 3496000   0.68262678   -3.7882896     2206.925  0.052605955  0.052244539            5 
 3497000   0.70098666   -3.8081343    2210.3155  0.052671706  0.052233535            4 
 3498000   0.68991329    -3.801119    2210.9503  0.052671773  0.052222491            5 
 3499000   0.69355892     -3.80717    2213.0191  0.052705989  0.052211551            5 
 3500000   0.70179865   -3.8024793    2219.0443  0.052834387  0.052200533            8 
 3501000    0.6801101   -3.8030257    2210.4398  0.052614485  0.052189599            4 
 3502000   0.67500099   -3.8216758    2206.2698  0.052500232  0.052178536            6 
 3503000   0.70298997   -3.8355401    2210.6613  0.052589715  0.052167509           10 
 3504000   0.68351843   -3.7941681    2209.7467  0.052552956    0.0521565            5 
 3505000   0.69642216   -3.8045049    2212.2717  0.052597996  0.052145565            8 
 3506000   0.68942062   -3.8035656    2215.1858  0.052652258  0.052134601            5 
 3507000   0.67327642   -3.8125333    2211.3501  0.052546101  0.052123536            8 
 3508000   0.67782785   -3.7927865    2205.8829  0.052401246  0.052112521            6 
 3509000    0.7056966   -3.8022993    2211.7838   0.05252645  0.052101508            7 
 3510000   0.70180398    -3.801624    2216.9334  0.052633747  0.052090468            6 
 3511000   0.68657948   -3.8245739    2209.4011  0.052439977  0.052079393            5 
 3512000   0.67761925   -3.8087668    2216.5627  0.052594977  0.052068345           10 
 3513000   0.70639606   -3.8226927    2214.8444  0.052539244  0.052057372            8 
 3514000   0.68431152   -3.8294165    2212.5353  0.052469535  0.052046264            4 
 3515000   0.68396815   -3.8045559    2213.4704  0.052476775  0.052035158            6 
 3516000    0.6873581   -3.8155972    2214.3337  0.052482313  0.052024172            7 
 3517000    0.6804207   -3.7892974    2209.9017  0.052362375  0.052013125            6 
 3518000   0.69188211   -3.8061556    2223.1449  0.052661193  0.052002152            4 
 3519000   0.67707286   -3.8117306    2212.5789  0.052396014  0.051991181           14 
 3520000    0.6834375    -3.802239    2217.8287  0.052505414  0.051980153            8 
 3521000    0.6860362    -3.820917    2212.5093  0.052364605  0.051969152            9 
 3522000   0.67741187   -3.8022927     2218.001  0.052479676  0.051958085            5 
 3523000   0.68996264   -3.7972198    2217.2722   0.05244754  0.051947072            7 
 3524000    0.6795792   -3.8330201    2213.3835    0.0523407   0.05193595            4 
 3525000   0.68772444   -3.8060678    2214.2828  0.052347111  0.051924913            7 
 3526000   0.68756076   -3.8199164    2216.3033  0.052380017  0.051913701           12 
 3527000   0.67882669   -3.8035622    2215.2906  0.052341239  0.051902588            5 
 3528000   0.67966837   -3.8247957    2214.2035  0.052300725  0.051891429            6 
 3529000   0.68193072    -3.817149     2218.192  0.052380089  0.051880228            4 
 3530000   0.68405381   -3.8322876    2212.9499    0.0522415  0.051869103            6 
 3531000   0.68873992   -3.8040469    2212.2298  0.052209709  0.051858051            4 
 3532000   0.69010145   -3.7847263    2216.3423  0.052291956  0.051847067           11 
 3533000   0.66901086   -3.8164141    2213.3612  0.052206841  0.051835937           13 
 3534000   0.70309454   -3.8201299    2218.3206  0.052309014  0.051824966           12 
 3535000   0.69592361    -3.834219    2214.5518   0.05220537  0.051813856            6 
 3536000   0.68762541    -3.822072    2220.7215  0.052336009  0.051802877            6 
 3537000   0.69160152   -3.8305511    2215.7424  0.052203901   0.05179191            7 
 3538000   0.69356134   -3.8247446    2219.9235  0.052287628  0.051780835            7 
 3539000    0.6813828    -3.814649    2214.6869  0.052149546  0.051769784            6 
 3540000   0.69075757   -3.8211389    2218.0953  0.052215049  0.051758724           16 
 3541000   0.68230669   -3.8103115    2224.6507  0.052354578  0.051747711            4 
 3542000     0.680145   -3.8270887    2218.1014   0.05218571  0.051736624           14 
 3543000   0.68430524   -3.8216539    2212.3951  0.052036765    0.0517255            6 
 3544000   0.68233007   -3.7941547    2216.8616  0.052127107   0.05171434            4 
 3545000     0.675621   -3.8369896    2215.9861  0.052091821  0.051703227            3 
 3546000   0.69119655   -3.7986698     2222.173  0.052222528  0.051692139            3 
 3547000   0.67716205   -3.8263371    2218.7923  0.052128378  0.051681074            9 
 3548000   0.70089189   -3.8108496    2228.8316  0.052349484   0.05167002            4 
 3549000   0.68357976   -3.8203746     2217.411  0.052066569  0.051658939            6 
 3550000    0.6824207   -3.8560463     2213.445  0.051958803  0.051647773            7 
 3551000     0.684054   -3.8294204    2213.0451  0.051934786  0.051636668            6 
 3552000   0.69915535   -3.7925502    2217.4715  0.052024013   0.05162564            4 
 3553000   0.68383407   -3.8160213    2219.0239  0.052045781   0.05161454            5 
 3554000   0.66826552   -3.8183499    2215.9797  0.051959756  0.051603436            6 
 3555000   0.67241914   -3.8255452    2224.6409  0.052148168  0.051592381            4 
 3556000   0.68815778   -3.8325276    2217.7435  0.051971866  0.051581195            8 
 3557000   0.66825466   -3.8391912    2215.5089  0.051904904  0.051570035            4 
 3558000   0.69132522   -3.8363184    2212.4636  0.051818991  0.051558934           10 
 3559000   0.69126636   -3.8315267    2214.6934   0.05185664  0.051547782            5 
 3560000    0.6794811   -3.8288949    2214.2997  0.051832859   0.05153674            3 
 3561000   0.68585961   -3.7950777    2230.3099  0.052192967  0.051525731           13 
 3562000   0.69261959   -3.8369386      2222.52   0.05199607  0.051514761            3 
 3563000   0.67647772   -3.8299668    2223.8616  0.052012854  0.051503713            6 
 3564000   0.68679888   -3.8173378    2221.3473  0.051939472  0.051492617            3 
 3565000   0.69353469   -3.8301295    2215.4126  0.051786176  0.051481476            7 
 3566000   0.68819608   -3.8077136    2226.6893  0.052035177  0.051470437            3 
 3567000   0.67397886   -3.8097311    2214.1756  0.051728239  0.051459441           15 
 3568000   0.66758866    -3.804204    2222.5393  0.051909082  0.051448439            8 
 3569000   0.67867625   -3.8417642    2222.8211  0.051901117  0.051437408            6 
 3570000   0.69500184   -3.8131612    2222.5364  0.051879934  0.051426363           10 
 3571000   0.67971233   -3.8237707    2220.6357  0.051821051  0.051415245            4 
 3572000   0.67129763   -3.8444068    2222.2963  0.051845286  0.051404197            7 
 3573000   0.68196172   -3.8334073    2226.1618  0.051920931  0.051393176            7 
 3574000   0.67580098   -3.8467361    2221.5976  0.051799981  0.051382124            5 
 3575000   0.69041743   -3.8360321    2218.3141  0.051708953  0.051371046            3 
 3576000    0.6979688   -3.8161515    2218.4244  0.051697063  0.051360024            5 
 3577000   0.68696278   -3.8219043    2222.4612  0.051776657  0.051348994            4 
 3578000   0.67291058   -3.8328061    2222.4752  0.051762512  0.051338062            5 
 3579000   0.67972403   -3.8309691    2225.8897  0.051827552  0.051326984            5 
 3580000   0.67737948   -3.8132339    2223.7233  0.051762648  0.051316059           11 
 3581000   0.68561925   -3.8154981    2227.0407  0.051825392  0.051304992           10 
 3582000    0.6713804   -3.8141466    2232.3145  0.051933616  0.051294005            4 
 3583000   0.67685611   -3.8193447    2223.0599  0.051703877   0.05128303            4 
 3584000   0.68280666   -3.8230936    2228.6181  0.051818688  0.051272026           11 
 3585000   0.69125164   -3.8353493    2219.8615  0.051600686  0.051260906           11 
 3586000   0.66454817   -3.8344277    2225.3324  0.051713433  0.051249941           16 
 3587000   0.67851788   -3.8600287    2222.4498  0.051632047  0.051239003            3 
 3588000   0.66172366   -3.8409252    2226.0812  0.051701998  0.051227973            4 
 3589000    0.6619025   -3.8328936    2224.5329   0.05165164   0.05121707            7 
 3590000   0.67927257   -3.8212953    2229.8808  0.051761394   0.05120616            7 
 3591000   0.67567866   -3.8371644    2228.1294  0.051706336  0.051195231            3 
 3592000   0.67410309   -3.8118096    2231.5747   0.05177187   0.05118437            5 
 3593000   0.68092546   -3.8287487    2232.2168  0.051772353  0.051173611            4 
 3594000   0.67059623    -3.839764    2227.5534   0.05164982  0.051162815            9 
 3595000   0.69240229   -3.8624791    2226.0642  0.051600931  0.051151906            9 
 3596000   0.68109665   -3.8074399    2233.2936  0.051754115  0.051141042            3 
 3597000   0.68311627   -3.8239571    2235.3912  0.051788323   0.05113023            7 
 3598000   0.67515573   -3.8531249    2226.2193    0.0515615  0.051119359            4 
 3599000   0.68351939   -3.8531858    2231.8477  0.051677495   0.05110845            5 
 3600000   0.68287537   -3.8451059    2232.1384   0.05166987  0.051097605            7 
 3601000   0.67113627   -3.8149595    2230.1296  0.051609036  0.051086737           11 
 3602000   0.66606256   -3.8320271    2234.7402  0.051701374  0.051075938            9 
 3603000   0.68500894   -3.8446184    2236.8931  0.051736819  0.051065088            9 
 3604000    0.6860579    -3.838276    2230.8982  0.051583846  0.051054205            6 
 3605000   0.67581309   -3.8362012    2226.5505  0.051469036  0.051043319            6 
 3606000   0.68056983   -3.8280687    2232.4732  0.051591634  0.051032417            6 
 3607000   0.68796476   -3.8447173    2232.2857  0.051572999  0.051021704            8 
 3608000   0.67838817    -3.842226    2233.7098  0.051591597  0.051010863           11 
 3609000   0.66875664   -3.8510929    2234.8575  0.051603803   0.05100005            9 
 3610000   0.69243224   -3.8680077    2224.7711  0.051356673  0.050989138           16 
 3611000   0.66971793   -3.8252419    2228.8496  0.051436574  0.050978219            6 
 3612000   0.67453682   -3.8237594    2239.0406  0.051657451  0.050967337            5 
 3613000   0.68468052   -3.8609493    2232.7519  0.051498107  0.050956489            5 
 3614000   0.66072559   -3.8462163    2232.0051  0.051466637  0.050945617           11 
 3615000   0.68154605   -3.8537149    2228.5753  0.051373336  0.050934618            6 
 3616000   0.67797617   -3.8403797    2232.9174  0.051459195  0.050923689            8 
 3617000   0.68212933   -3.8370217    2230.0721  0.051379414  0.050912777            6 
 3618000   0.67923461   -3.8338163    2226.7378  0.051288414  0.050901905            5 
 3619000   0.66360664   -3.8517154    2231.3324   0.05138004  0.050891009            8 
 3620000   0.67406464   -3.8238729    2236.4439  0.051483515  0.050880079            3 
 3621000    0.6517666   -3.8486331    2233.3087  0.051397143  0.050869133            5 
 3622000   0.68151935   -3.8509608    2233.0019  0.051375894  0.050858204            8 
 3623000    0.6800517   -3.8457819    2231.5876  0.051329183  0.050847189            7 
 3624000   0.67631909   -3.8540357    2233.5688  0.051360578  0.050836261            8 
 3625000   0.67254869   -3.8633733    2223.1455  0.051106794  0.050825338            7 
 3626000   0.67564037   -3.8431634    2235.8932  0.051385668  0.050814381            7 
 3627000   0.67841628   -3.8500222    2227.9906  0.051189931  0.050803457           10 
 3628000   0.66883377   -3.8340294    2237.6654  0.051398047  0.050792619            8 
 3629000   0.66458652    -3.853089    2232.3543  0.051261925  0.050781649            9 
 3630000   0.67892149   -3.8730114    2230.6611  0.051208932  0.050770628            7 
 3631000   0.66993411   -3.8554556     2228.925  0.051154985  0.050759685            4 
 3632000   0.68129202   -3.8525725    2230.3275  0.051173079  0.050748652            7 
 3633000   0.67117253   -3.8517089     2232.163  0.051201097  0.050737675            7 
 3634000   0.65932629     -3.85405    2228.7522  0.051108791  0.050726675           10 
 3635000   0.68139101   -3.8316678    2233.8103  0.051210691  0.050715668            5 
 3636000    0.6686221    -3.846311    2232.3078   0.05116217  0.050704758           11 
 3637000   0.66919653    -3.863939     2229.839  0.051091537   0.05069381           14 
 3638000   0.66404363   -3.8434357    2232.9703  0.051149219  0.050682902           11 
 3639000   0.68481832   -3.8422884    2234.9725  0.051181014  0.050672049           13 
 3640000   0.66623777   -3.8418967    2230.2261   0.05105829  0.050661111            4 
 3641000   0.66233397   -3.8450479    2244.9952  0.051382294  0.050650233           10 
 3642000   0.66877282   -3.8465421    2240.1038  0.051256264  0.050639397            3 
 3643000   0.66356692   -3.8437773    2242.1601  0.051289233  0.050628557            7 
 3644000   0.66431997   -3.8439076     2234.289  0.051095156  0.050617734            6 
 3645000    0.6721503   -3.8449714     2240.629  0.051226086  0.050606855            8 
 3646000   0.65679746   -3.8493796    2241.3131  0.051227671  0.050595965            7 
 3647000   0.67259665   -3.8497266     2237.908   0.05113582  0.050585099            6 
 3648000   0.66855898   -3.8647989    2238.0089  0.051124106  0.050574301            5 
 3649000   0.67169604    -3.853067    2231.4336  0.050959933  0.050563455            8 
 3650000   0.66953407   -3.8588244    2238.9306  0.051117136  0.050552542            9 
 3651000    0.6567679    -3.853755    2237.7119  0.051075319  0.050541611            5 
 3652000   0.66886409   -3.8664998    2234.3286  0.050984132  0.050530727            6 
 3653000   0.67077883   -3.8646615    2233.7867  0.050957814  0.050519821           31 
 3654000   0.65262979   -3.8490116    2236.4843   0.05100539  0.050508974            5 
 3655000   0.67704502   -3.8586768     2243.209  0.051144755  0.050498082            8 
 3656000   0.66425171    -3.843221    2248.9286  0.051261138  0.050487269            6 
 3657000   0.65858591   -3.8310004    2242.1245  0.051092073  0.050476463            9 
 3658000   0.67300104   -3.8502454    2235.0152  0.050916148    0.0504656            5 
 3659000   0.65097515    -3.855187    2241.4279  0.051048281  0.050454745            6 
 3660000   0.66132243   -3.8655485    2231.8622  0.050816535   0.05044379            7 
 3661000   0.66334641   -3.8675603    2232.7066  0.050821874   0.05043279            7 
 3662000   0.67635605   -3.8406764    2237.0976  0.050907919  0.050421876           14 
 3663000   0.66578214   -3.8597635    2237.5385  0.050904051  0.050410969           14 
 3664000   0.65654857   -3.8710581    2239.3182  0.050930636   0.05040008            6 
 3665000   0.67556162   -3.8852424    2240.2386  0.050937667  0.050389182            7 
 3666000   0.65547263   -3.8547327    2237.1715  0.050854053  0.050378264            4 
 3667000   0.65325886   -3.8705621    2241.3297  0.050934682  0.050367356           10 
 3668000   0.66484111   -3.8302874    2239.7049   0.05088388  0.050356585            4 
 3669000   0.64744234   -3.8449833      2241.59  0.050912828  0.050345806           16 
 3670000   0.65948299   -3.8578377    2241.3181  0.050892781   0.05033509            5 
 3671000   0.66936761   -3.8415239     2245.617  0.050976505  0.050324351           11 
 3672000   0.66531479   -3.8690056    2240.2719   0.05084132  0.050313518           10 
 3673000   0.65610885   -3.8379951    2246.3683  0.050965793  0.050302711            7 
 3674000   0.65611002   -3.8558847    2239.5095  0.050796351  0.050291896            8 
 3675000   0.67515484   -3.8602435    2235.7565  0.050697427  0.050281025           11 
 3676000   0.65309891   -3.8623889    2240.7353  0.050796502  0.050270075            7 
 3677000   0.67591277   -3.8663822    2242.4344  0.050821194  0.050259148            7 
 3678000   0.67935898   -3.8544294    2237.6331  0.050698592  0.050248289            2 
 3679000   0.66079878   -3.8529553    2243.4921  0.050817525  0.050237474            5 
 3680000   0.67200452   -3.8609457    2243.5579  0.050805207   0.05022653            9 
 3681000   0.65818368   -3.8595229     2237.335  0.050650525  0.050215687            6 
 3682000   0.66394751   -3.8479425    2239.7537   0.05069151  0.050204843            6 
 3683000   0.66385391   -3.8404685    2237.6017  0.050629054  0.050193936            4 
 3684000   0.65344061   -3.8601476    2239.5724   0.05065989   0.05018304            4 
 3685000   0.64788845   -3.8767366    2232.5151  0.050486547  0.050172069            8 
 3686000   0.66204261   -3.8579956    2240.7655  0.050659377  0.050161177            8 
 3687000   0.65988819    -3.854715    2240.5329  0.050640379  0.050150294           13 
 3688000   0.65539955   -3.8628586    2236.0246  0.050524778  0.050139315            6 
 3689000   0.65581163   -3.8536805    2241.3879  0.050632237  0.050128382            8 
 3690000   0.66732749    -3.873232    2246.5035  0.050734044    0.0501175            5 
 3691000   0.66778773   -3.8458382    2243.2315  0.050646427  0.050106572           18 
 3692000   0.66029958    -3.842182    2243.2194  0.050632435  0.050095628            7 
 3693000   0.67816031   -3.8576122    2234.3963  0.050419629  0.050084663           10 
 3694000   0.67868242    -3.856096    2237.9331  0.050485768  0.050073702            5 
 3695000   0.66405768   -3.8689494    2238.0418  0.050474556  0.050062794            5 
 3696000   0.65901658   -3.8578462    2238.7934  0.050477845  0.050051833            4 
 3697000   0.64365597    -3.867041    2245.0371  0.050604929  0.050040828            5 
 3698000   0.66504618    -3.863269    2239.4336  0.050464972  0.050029902            7 
 3699000    0.6618704   -3.8735661    2241.1646  0.050490326   0.05001887            8 
 3700000   0.65948223   -3.8639714    2233.0284  0.050293433  0.050007889            7 
 3701000   0.66159599   -3.8832738     2240.839  0.050455709   0.04999691            8 
 3702000   0.63677914   -3.8638038     2239.459  0.050411016  0.049985928            7 
 3703000   0.66064987   -3.8697997    2240.4585  0.050419897  0.049974958            9 
 3704000   0.65816455   -3.8659326    2246.4737  0.050541615  0.049964003            6 
 3705000   0.66693392   -3.8719981    2244.6066  0.050485978  0.049953151            8 
 3706000   0.66210047   -3.8931441     2243.978   0.05045822  0.049942191           11 
 3707000   0.64618445   -3.8658527    2244.8868  0.050465038  0.049931199            9 
 3708000   0.65964303   -3.8878251    2243.8846  0.050428906  0.049920288           15 
 3709000     0.646982   -3.8419384    2247.6498  0.050499905  0.049909337            4 
 3710000   0.65446408   -3.8430363    2250.0026  0.050539142   0.04989844           13 
 3711000   0.64868975   -3.8643907    2233.3882  0.050152435  0.049887474           11 
 3712000   0.65606163   -3.8498524    2242.2849  0.050338651  0.049876577            8 
 3713000   0.65829863   -3.8477164    2242.8061  0.050336793  0.049865651            7 
 3714000    0.6448904   -3.8920935    2242.9793  0.050327124  0.049854756            7 
 3715000    0.6438483   -3.8734783    2244.0526  0.050337654   0.04984381            6 
 3716000   0.66425034   -3.8648691     2249.035  0.050435841  0.049832958           11 
 3717000   0.66642693   -3.8710417    2237.8904  0.050172416  0.049822001            2 
 3718000   0.66268606   -3.8566103    2245.7131  0.050334254  0.049811152            3 
 3719000   0.67479063   -3.8823843    2240.1162  0.050195308  0.049800242            6 
 3720000   0.65221266   -3.8715462    2245.0211  0.050291691  0.049789272            9 
 3721000    0.6515886     -3.87255    2247.5297  0.050334356  0.049778283            7 
 3722000   0.66196407   -3.8491369    2247.7186  0.050325062  0.049767356           19 
 3723000   0.65213017   -3.8622383    2248.1325  0.050320809  0.049756539           10 
 3724000   0.66349001   -3.8558306    2250.6124  0.050362791  0.049745722           13 
 3725000   0.66382577   -3.8553552    2249.9207  0.050333797   0.04973486           12 
 3726000   0.63900418     -3.88737    2250.0042  0.050322154  0.049724006           18 
 3727000   0.65154431   -3.8842466     2252.751   0.05037007   0.04971317            7 
 3728000   0.66241635    -3.868513    2247.3186  0.050235125  0.049702397            4 
 3729000   0.65993222   -3.8697552    2249.4407  0.050269078  0.049691552           12 
 3730000   0.65179875   -3.8735092    2248.8942  0.050243391  0.049680661            4 
 3731000   0.65662054   -3.8892749    2248.7083  0.050225772  0.049669754            3 
 3732000   0.65209056   -3.8915612    2248.2456  0.050201983   0.04965888           10 
 3733000   0.65972919   -3.8554109    2248.9821  0.050204975  0.049647961            6 
 3734000   0.65059201   -3.8673224    2239.2406  0.049974126   0.04963711            5 
 3735000    0.6687506    -3.874134    2245.0796  0.050091022  0.049626195           12 
 3736000   0.65431626   -3.8756688    2247.4042  0.050129466  0.049615285            5 
 3737000   0.65431125   -3.8782051    2241.4436  0.049983132  0.049604422            5 
 3738000   0.66544824   -3.8740844    2246.1434  0.050074536  0.049593479            6 
 3739000   0.65550178   -3.9024472    2234.9582  0.049811853  0.049582484           23 
 3740000   0.65121817   -3.8848919    2248.1244  0.050091898  0.049571535           12 
 3741000    0.6458095   -3.9086085    2242.1875  0.049946259   0.04956067            6 
 3742000    0.6539995   -3.8609575    2249.5219  0.050096247  0.049549769            9 
 3743000   0.66484259   -3.8704099     2249.168  0.050074984  0.049538974            5 
 3744000   0.63092179   -3.8902466    2251.4444  0.050112278  0.049528086            7 
 3745000   0.64374629   -3.8847787    2247.9488  0.050021112  0.049517149            7 
 3746000   0.65477167   -3.8476083    2246.6203  0.049978205  0.049506262           24 
 3747000   0.64144822   -3.8817607    2248.5772  0.050008389  0.049495389            8 
 3748000   0.64088519   -3.8821464    2249.7789  0.050021764  0.049484533            5 
 3749000   0.65353281   -3.8631509    2256.0767  0.050148411  0.049473642           11 
 3750000   0.64564994   -3.8713945    2251.3786  0.050030635  0.049462723            9 
 3751000   0.64507217   -3.8655531    2243.9449  0.049852148  0.049451794            9 
 3752000   0.65260568   -3.8559393    2243.2395  0.049823194  0.049440948            5 
 3753000   0.64943846   -3.8814292    2245.1623  0.049852614  0.049430049            8 
 3754000   0.65280115   -3.8923397    2253.5032  0.050024489  0.049419115            9 
 3755000   0.64781117   -3.8865728    2247.4772  0.049877435  0.049408188           11 
 3756000   0.64647115   -3.8748708    2252.0498  0.049965605   0.04939722            8 
 3757000   0.65116655   -3.8893033    2244.2586  0.049779491  0.049386338            5 
 3758000   0.64589721   -3.8789308    2246.8173  0.049822984  0.049375379            3 
 3759000   0.65184562   -3.8870375    2246.8572  0.049810615  0.049364443            8 
 3760000   0.66033193   -3.8843241    2246.1227  0.049781088  0.049353485           15 
 3761000   0.63899517   -3.8871068    2242.7481   0.04969308  0.049342448            7 
 3762000    0.6541343   -3.9015638     2244.992  0.049729576  0.049331443           20 
 3763000   0.66500591   -3.8996021     2239.581  0.049596532  0.049320425            8 
 3764000   0.64933386   -3.8918953    2245.6694   0.04971815   0.04930937           11 
 3765000   0.65693873   -3.8721725     2248.382  0.049764983  0.049298329           12 
 3766000   0.65121349   -3.9027293    2244.8087  0.049672701  0.049287311            6 
 3767000    0.6466718   -3.8754273    2245.4669  0.049674074   0.04927628           17 
 3768000   0.65518135   -3.8682529    2244.7172  0.049644312  0.049265317           12 
 3769000   0.64615786   -3.9064397    2243.6057  0.049606565  0.049254289            6 
 3770000   0.66645011   -3.8848555    2250.2563  0.049740414  0.049243197            9 
 3771000   0.65006784   -3.8608246    2245.8624  0.049630124  0.049232307            4 
 3772000   0.64198274   -3.8754878    2248.8724  0.049683466  0.049221372            5 
 3773000   0.64841831   -3.8787594    2251.9107  0.049737405  0.049210387            5 
 3774000   0.65856898   -3.9151265    2243.9313  0.049548033  0.049199326            9 
 3775000   0.64862615   -3.8882923    2252.4775  0.049723564  0.049188233            8 
 3776000    0.6640841   -3.8959517    2249.5177  0.049645077  0.049177192            7 
 3777000   0.64234127   -3.8934205    2250.2943  0.049649066  0.049166135           10 
 3778000   0.65383286   -3.8853536    2250.7156  0.049645217  0.049155137            6 
 3779000   0.65117423   -3.9103286    2243.4725  0.049472357  0.049144083           16 
 3780000   0.64261621   -3.8889596    2242.1609  0.049430356  0.049133006            5 
 3781000   0.65600181   -3.9088174    2249.0701  0.049569561  0.049122064            8 
 3782000   0.64738993   -3.9068912    2252.0807   0.04962279  0.049111015            7 
 3783000   0.66467336   -3.8967657    2247.8287  0.049516009  0.049099965            8 
 3784000    0.6522997   -3.8861146    2252.8471  0.049613441  0.049088958            6 
 3785000   0.64744289   -3.9025249    2252.1299  0.049584541  0.049077993           12 
 3786000   0.64000047   -3.8955821    2242.6794   0.04936343  0.049066938           16 
 3787000    0.6538582   -3.8830455     2248.713  0.049483167  0.049055897            6 
 3788000   0.63630639    -3.887628    2246.2871  0.049416735  0.049044865           12 
 3789000   0.65264163   -3.8912992    2248.4363   0.04945096  0.049033841            5 
 3790000   0.64034385   -3.8805642    2246.0748  0.049385989  0.049022759            6 
 3791000   0.65021173   -3.8791299    2247.0796  0.049395049  0.049011715            4 
 3792000   0.65793941   -3.8935002    2241.3888  0.049256962  0.049000576            9 
 3793000   0.64315682   -3.9099866    2244.9289  0.049321754  0.048989475            6 
 3794000   0.64266705   -3.8899488    2248.9663  0.049397433  0.048978451            5 
 3795000   0.64485367    -3.870283    2250.2879  0.049413436  0.048967507            9 
 3796000   0.66310493   -3.8790352    2253.6417  0.049474045  0.048956526           14 
 3797000   0.64608254   -3.8915117     2250.664  0.049395664  0.048945525            8 
 3798000   0.64872672   -3.9101886    2249.3462  0.049353742  0.048934496            6 
 3799000   0.63748778   -3.9192838    2251.8274  0.049395178  0.048923424            3 
 3800000   0.62916122   -3.9012337     2253.816  0.049425791  0.048912385            7 
 3801000   0.65285973    -3.904933     2246.915  0.049261488  0.048901422            5 
 3802000   0.64888154   -3.9099443    2252.1642  0.049363585  0.048890445            5 
 3803000   0.63590086   -3.9082606    2252.7156  0.049362688   0.04887944           10 
 3804000   0.65333972   -3.8947451    2250.2699  0.049296134  0.048868431            8 
 3805000   0.63643702   -3.8946254    2255.8368  0.049405099  0.048857516            6 
 3806000   0.64102398   -3.8946854    2256.7114  0.049411267   0.04884658            6 
 3807000   0.64700383    -3.891637    2248.3901   0.04921614  0.048835551            9 
 3808000   0.64006467   -3.9243224    2245.1914  0.049133215  0.048824482           11 
 3809000    0.6613508   -3.8925135    2250.6506  0.049239753  0.048813447            6 
 3810000   0.64241135   -3.9037593    2248.6237  0.049182496  0.048802406            7 
 3811000   0.63360551   -3.9083276    2246.0861  0.049114102  0.048791413            5 
 3812000   0.64916892   -3.8918584    2259.8066  0.049401159  0.048780447            7 
 3813000   0.64358871   -3.9086334    2254.1583  0.049264759  0.048769361            8 
 3814000   0.63649168   -3.8990133    2252.0411  0.049205582    0.0487583           15 
 3815000   0.62706966   -3.8664547    2251.0122  0.049170209  0.048747359            7 
 3816000   0.63712139   -3.8923409    2254.5031  0.049233558  0.048736388           10 
 3817000   0.63433434   -3.9074057    2247.2712  0.049062773  0.048725317            9 
 3818000   0.63028563    -3.896328    2255.9575  0.049239513  0.048714193            6 
 3819000     0.653954   -3.8817294    2256.2669   0.04923337  0.048703134            5 
 3820000   0.62920604   -3.9225484    2248.3782  0.049048389  0.048692052            7 
 3821000   0.62647872   -3.8907346    2251.6101   0.04910604  0.048680997            6 
 3822000   0.63997885   -3.8831955    2252.0344  0.049102441  0.048669975            7 
 3823000   0.64022109   -3.8913443    2251.6255  0.049080685  0.048658923           12 
 3824000   0.64786542     -3.88927    2254.4235  0.049128825   0.04864793            6 
 3825000   0.63380299   -3.9184981    2255.2689  0.049134398  0.048636876           13 
 3826000   0.64809723   -3.9047073    2257.6532  0.049173489  0.048625823           21 
 3827000   0.64079917   -3.8998503    2258.1781   0.04917207  0.048614774           10 
 3828000   0.63617617   -3.8752518    2251.5842  0.049015678  0.048603774           21 
 3829000   0.63266982   -3.9051795    2247.1226  0.048905775  0.048592703           11 
 3830000   0.63825369   -3.8846713    2247.1118  0.048892772  0.048581674           11 
 3831000   0.63917514   -3.8999506    2248.4899  0.048909986  0.048570621            5 
 3832000   0.63447102   -3.8953828     2252.009  0.048973753  0.048559594            9 
 3833000   0.64066377   -3.9006611    2247.5345  0.048863695  0.048548457           22 
 3834000   0.63799141   -3.8957245     2246.144  0.048820726   0.04853729            8 
 3835000   0.64641228   -3.9004215    2253.5035  0.048967915  0.048526258            8 
 3836000   0.62824116   -3.9090891    2245.4831  0.048780915  0.048515182            7 
 3837000   0.62645183   -3.9029098    2246.2502  0.048784862  0.048504046            6 
 3838000   0.64391258    -3.903241    2249.3086  0.048838557  0.048493027            4 
 3839000   0.62758004    -3.891614    2249.0986  0.048821277  0.048481939            8 
 3840000   0.65030905   -3.9170698    2250.7286  0.048843936  0.048470915            9 
 3841000    0.6378312   -3.9026398    2252.3181  0.048865705  0.048459928            6 
 3842000   0.64055888   -3.8879418    2251.5209  0.048835694  0.048448998           15 
 3843000    0.6260289   -3.9189153    2254.3849  0.048885093  0.048437984            7 
 3844000   0.63578937   -3.8940801    2251.9108  0.048818739  0.048427001            6 
 3845000   0.63582558   -3.8870952    2249.6079  0.048756131  0.048416026            4 
 3846000   0.64536775     -3.90471    2250.8898  0.048771229   0.04840506            9 
 3847000   0.62141031   -3.9080609    2250.0928  0.048741288  0.048394119            8 
 3848000   0.64040718   -3.9092391    2257.5659  0.048890461  0.048383087            6 
 3849000   0.63658131   -3.8876442    2257.2035  0.048869911   0.04837205           16 
 3850000   0.62672812   -3.9121393    2255.9549  0.048830192  0.048360994           12 
 3851000   0.63545785   -3.8953104    2255.8629  0.048815522  0.048349995            5 
 3852000   0.62421558   -3.9064812    2255.6523  0.048798293  0.048339003            9 
 3853000    0.6509137   -3.9153527     2251.357  0.048692729  0.048327948            5 
 3854000   0.64130383   -3.8875997    2251.7444  0.048688471  0.048316982            6 
 3855000   0.62879703   -3.9032235    2255.0345  0.048746963  0.048306027           10 
 3856000   0.63434237   -3.9117552    2256.6212  0.048768612  0.048294964            8 
 3857000   0.63346922    -3.904835     2247.159   0.04855153  0.048283986            9 
 3858000   0.64270565   -3.9123631       2251.6   0.04863487  0.048272977            9 
 3859000   0.64356289   -3.9134525      2249.73  0.048581886   0.04826191            6 
 3860000   0.62890017   -3.9092137    2251.5898  0.048609452  0.048250874           13 
 3861000   0.62126098   -3.9097626    2254.3485  0.048656405  0.048239838            4 
 3862000     0.628372   -3.9099304    2252.0976  0.048595236   0.04822881            8 
 3863000   0.63013907   -3.9095364    2256.9617  0.048687585  0.048217762            5 
 3864000   0.64047581   -3.9049087    2250.1199  0.048527431  0.048206707            7 
 3865000   0.62673135   -3.9100479    2261.1507  0.048752711  0.048195661            5 
 3866000   0.63399654   -3.9045428     2256.024  0.048629592  0.048184684            7 
 3867000   0.62973901   -3.9269186    2251.0526  0.048509883  0.048173649           15 
 3868000   0.64596114   -3.8900332    2254.7996  0.048578068  0.048162632            9 
 3869000   0.62878436    -3.900182     2260.659  0.048691717  0.048151654            4 
 3870000   0.62712538   -3.9250632    2259.5665  0.048655609  0.048140701           12 
 3871000   0.64189199   -3.9082681    2253.8194  0.048519319  0.048129692           10 
 3872000   0.62609705   -3.9085093    2255.1922  0.048536333  0.048118645            5 
 3873000    0.6212998   -3.8912341    2256.2322  0.048546178  0.048107657            6 
 3874000   0.63688559   -3.9090802     2256.798  0.048545818  0.048096684            6 
 3875000   0.62646677   -3.9205558    2252.9924  0.048451449  0.048085709            6 
 3876000   0.65139658   -3.8979572    2259.5521   0.04857998   0.04807472            8 
 3877000    0.6387797   -3.9225867    2250.5404  0.048373751  0.048063695            5 
 3878000   0.64003592   -3.9219805    2257.8075  0.048517438  0.048052667            6 
 3879000   0.63682228    -3.909771    2250.8853  0.048356219  0.048041628           17 
 3880000   0.63304264   -3.9231325    2257.2409   0.04848026  0.048030567            6 
 3881000   0.63620756   -3.9227029     2253.204  0.048381088  0.048019542            8 
 3882000   0.63549965   -3.9210733    2252.7641  0.048359182  0.048008495           18 
 3883000   0.63412861   -3.9049873    2253.5461  0.048363509  0.047997502           11 
 3884000   0.64152301   -3.9238869    2257.0075  0.048425325  0.047986469           12 
 3885000   0.62967431   -3.9228146    2255.8815  0.048388708  0.047975454           16 
 3886000   0.63634742   -3.9120643     2262.659  0.048521594  0.047964449            5 
 3887000   0.62501322   -3.9290836    2256.3891  0.048374691   0.04795345            3 
 3888000   0.62718241   -3.9527781    2253.4912  0.048300137  0.047942356            8 
 3889000   0.64055695   -3.9219897    2258.8238  0.048401985  0.047931338            7 
 3890000   0.62464465   -3.9135604    2265.3325  0.048528974  0.047920407            6 
 3891000   0.61378829   -3.9149815    2253.4926  0.048262927  0.047909382            5 
 3892000   0.61793124   -3.9192931    2261.5814   0.04842372   0.04789837           10 
 3893000   0.63496719   -3.9010685      2257.07  0.048314709  0.047887405            9 
 3894000   0.62083597   -3.9244042    2256.7776  0.048296045  0.047876432            6 
 3895000    0.6280642   -3.9080479    2258.8251  0.048327452  0.047865444            7 
 3896000   0.62636941   -3.9150558     2257.971  0.048296778  0.047854466           12 
 3897000   0.60791351   -3.9148444    2261.4007  0.048357726  0.047843513            5 
 3898000   0.62470799   -3.9454575     2257.755  0.048267381  0.047832514            9 
 3899000   0.63099935   -3.9263078    2260.9549  0.048323394  0.047821513            7 
 3900000   0.63880911    -3.916611    2257.9891   0.04824763   0.04781044           11 
 3901000   0.62995202   -3.9377291    2256.3892  0.048201084  0.047799398            8 
 3902000   0.62657437   -3.9242964    2254.4941  0.048148259  0.047788365            8 
 3903000   0.63043866   -3.9101745    2255.2906  0.048152929  0.047777351            7 
 3904000   0.63379957   -3.9383951    2256.5894  0.048168318  0.047766371           10 
 3905000   0.63118019    -3.940593    2264.9799  0.048335039  0.047755378            9 
 3906000   0.63602994   -3.9225019    2261.9298   0.04825759  0.047744414            5 
 3907000   0.63163388   -3.9139203    2264.9376  0.048309394  0.047733488            7 
 3908000   0.60930613   -3.9045043    2254.1638  0.048067294  0.047722539            8 
 3909000   0.62846282   -3.9289813    2260.4685  0.048189402  0.047711567            6 
 3910000   0.62568024   -3.9283883    2253.1473  0.048021043  0.047700557            7 
 3911000   0.63309797   -3.9438555    2257.0982  0.048092946  0.047689613            8 
 3912000   0.62650719   -3.9368287    2261.5488   0.04817546  0.047678642           11 
 3913000    0.6475463   -3.9231816    2263.3729  0.048201995  0.047667689            9 
 3914000   0.62947749   -3.9244936    2260.1403  0.048120855  0.047656747           10 
 3915000   0.63467499   -3.9371398    2267.1828  0.048258468  0.047645774            8 
 3916000   0.61384208   -3.9339174    2257.1529  0.048032705  0.047634724            5 
 3917000   0.62450982   -3.9002237    2261.0712  0.048103803  0.047623704            7 
 3918000   0.63453124   -3.9397019     2255.437  0.047971691   0.04761268           13 
 3919000   0.62952178     -3.96431     2260.254  0.048061879  0.047601628           17 
 3920000   0.62782999   -3.9123324    2265.2092  0.048154958  0.047590681            8 
 3921000   0.60816243   -3.9077945    2256.5792  0.047959263  0.047579715           12 
 3922000    0.6235659   -3.9179814     2259.986  0.048019421  0.047568791            5 
 3923000   0.61878603   -3.9133804    2257.6169  0.047956855  0.047557844           10 
 3924000   0.63091151   -3.9311878    2262.6139  0.048050755  0.047546926            9 
 3925000   0.61725473   -3.9203114    2266.1311  0.048113187   0.04753597            8 
 3926000   0.62941536   -3.9208078    2260.6388  0.047984353  0.047525056           15 
 3927000   0.61962949   -3.9148446    2261.0132  0.047980079  0.047514134            8 
 3928000   0.61180218   -3.9120539    2261.1513  0.047970793  0.047503184           11 
 3929000   0.60972988   -3.9468749    2259.7499   0.04792886  0.047492192           10 
 3930000    0.6278812   -3.9334007     2259.704   0.04791569   0.04748114            9 
 3931000   0.61956959   -3.9425286    2263.3882  0.047981604   0.04747011            9 
 3932000   0.62209279   -3.9412273     2258.585  0.047867603  0.047459106            8 
 3933000   0.62197452   -3.9329011    2260.4526  0.047895004  0.047448072           16 
 3934000   0.62845245   -3.9368798    2258.7399  0.047846549  0.047437084            9 
 3935000   0.61875207   -3.9205262    2261.6141  0.047895259  0.047426117            6 
 3936000   0.63138455   -3.9432248    2256.1178  0.047766723  0.047415104           10 
 3937000   0.62772822   -3.9319495    2258.9643   0.04781484  0.047404105           10 
 3938000    0.6106891   -3.9485635    2256.9124  0.047759276  0.047393047            9 
 3939000   0.61748694   -3.9496593    2261.3087  0.047840161  0.047382068           13 
 3940000   0.62377229   -3.9330389    2261.7117  0.047836543  0.047371086            4 
 3941000   0.60811548   -3.9519378    2260.6565  0.047802091  0.047360059           13 
 3942000   0.61222485   -3.9525226    2261.2145  0.047801761  0.047349081            4 
 3943000   0.60928904   -3.9194473    2264.0345  0.047849237  0.047338127            8 
 3944000   0.62310331   -3.9383003    2259.8784   0.04774929  0.047327259           16 
 3945000   0.61453877   -3.9272824    2263.1955  0.047807256  0.047316239           11 
 3946000   0.62533487   -3.9302434    2266.6805  0.047868739   0.04730523           12 
 3947000   0.61181369   -3.9420887    2262.1111  0.047760135   0.04729431            6 
 3948000   0.61568891    -3.902768     2259.469   0.04769227  0.047283409            9 
 3949000   0.60769759   -3.9397045    2263.9911   0.04777562  0.047272527           11 
 3950000    0.6312334   -3.9259967    2265.3475  0.047792142  0.047261641            9 
 3951000   0.62265322   -3.9111749    2260.4762    0.0476773  0.047250721            8 
 3952000   0.61691649   -3.9562067    2265.6192  0.047773684  0.047239832           13 
 3953000   0.61950819   -3.9733755    2269.2481  0.047838101  0.047228902            7 
 3954000   0.61861758   -3.9528461    2264.3756   0.04772331  0.047217956            4 
 3955000   0.61432179   -3.9431615    2266.0266  0.047746031  0.047207102            4 
 3956000    0.6237602   -3.9096388    2266.1108  0.047735736  0.047196304            6 
 3957000   0.61370977   -3.9517672    2261.1736  0.047619695   0.04718551            7 
 3958000   0.61066182   -3.9405876    2261.4978   0.04761449  0.047174665           10 
 3959000    0.6212401   -3.9299408      2265.43  0.047685232   0.04716383            7 
 3960000   0.62016602   -3.9288828    2261.9903  0.047600806  0.047152957            4 
 3961000   0.62370257   -3.9398798    2261.8502  0.047585841  0.047142101           18 
 3962000   0.62282523   -3.9325011    2270.4569  0.047754857  0.047131289            7 
 3963000   0.61263818   -3.9536514    2264.3799   0.04761502  0.047120493            7 
 3964000   0.61337695   -3.9344131    2269.0833  0.047701887  0.047109601            8 
 3965000   0.61817681   -3.9168029    2267.6065  0.047658818  0.047098753            9 
 3966000   0.63449661   -3.9448125    2268.2838  0.047661032  0.047087902           15 
 3967000   0.61715657   -3.9440488    2264.6847  0.047573413  0.047077083           21 
 3968000   0.61968133   -3.9273169     2267.308  0.047616516   0.04706628            4 
 3969000   0.61566503   -3.9416345    2268.4466  0.047628425  0.047055441            6 
 3970000   0.62470598   -3.9453834    2270.1849  0.047652915  0.047044606           14 
 3971000   0.61865722   -3.9403363    2269.4629  0.047625764  0.047033884            7 
 3972000   0.62603577   -3.9362399    2267.4027  0.047570551  0.047023134            9 
 3973000     0.615979   -3.9456635    2268.2851  0.047577085  0.047012316           13 
 3974000   0.62596538   -3.9405094    2267.9665  0.047558432  0.047001507            5 
 3975000   0.60539217   -3.9417558    2265.8662  0.047502435  0.046990705            4 
 3976000   0.61087674   -3.9576537    2273.1512  0.047643177  0.046979948           14 
 3977000   0.61645967   -3.9252183    2276.0448  0.047691827  0.046969256            6 
 3978000   0.62366424    -3.937416    2270.2748  0.047558966   0.04695853            5 
 3979000   0.62197106   -3.9421253    2276.9502  0.047686818  0.046947827            8 
 3980000   0.60444812   -3.9459666    2268.3285  0.047494316  0.046937179            9 
 3981000   0.61023442   -3.9465594    2267.6244  0.047467646  0.046926488            5 
 3982000   0.62002263   -3.9485633    2270.7947  0.047522073  0.046915841            7 
 3983000    0.6170435   -3.9184317    2272.1302  0.047538082  0.046905211            8 
 3984000   0.61491108   -3.9236304    2272.7222  0.047538534  0.046894607           11 
 3985000   0.61437244    -3.942916    2270.6922  0.047484153  0.046883971           12 
 3986000   0.61382542   -3.9553841     2265.493  0.047363544  0.046873222            9 
 3987000   0.60694301   -3.9622955     2269.372  0.047432741  0.046862468            8 
 3988000   0.61363503   -3.9645698    2260.7326  0.047240316  0.046851753            7 
 3989000    0.6102075   -3.9280564    2260.7811  0.047229487  0.046841031            7 
 3990000   0.60932375   -3.9370801    2272.4405  0.047461164  0.046830304            7 
 3991000   0.61155236   -3.9452078     2272.783  0.047456424  0.046819604            5 
 3992000    0.6111781   -3.9700716    2273.0278  0.047449646  0.046808897            4 
 3993000   0.61475609    -3.970183     2271.652  0.047409049  0.046798184           13 
 3994000   0.61350097     -3.94324    2271.0463  0.047384541  0.046787453           11 
 3995000   0.59382348   -3.9483965    2270.6137  0.047363656  0.046776734            7 
 3996000   0.61283049   -3.9392968    2273.4339  0.047410618  0.046766035            8 
 3997000   0.61323315   -3.9619101    2273.9898  0.047410346  0.046755272            4 
 3998000   0.59616284   -3.9432751    2271.3475  0.047343412  0.046744523            6 
 3999000   0.60625274   -3.9413209    2272.9307  0.047364565  0.046733812            5 
 4000000   0.59963622   -3.9515659    2274.6734  0.047389029  0.046723092            6 
 4001000   0.61514456   -3.9652129     2268.436  0.047247272  0.046712309           13 
 4002000   0.61752917   -3.9450875    2270.8832  0.047286424  0.046701636            6 
 4003000   0.59693148   -3.9537525      2271.84  0.047294529  0.046690883           17 
 4004000   0.61359439   -3.9527933    2267.6888   0.04719632  0.046680132            7 
 4005000   0.61823651   -3.9397251    2270.5243  0.047243535  0.046669389           10 
 4006000   0.61251939   -3.9384059     2272.466  0.047272133   0.04665862           14 
 4007000   0.61008036   -3.9383491    2271.8378  0.047247271  0.046647886            3 
 4008000   0.61119175   -3.9595765     2268.174  0.047159306  0.046637164            7 
 4009000   0.61028057   -3.9444147      2269.63  0.047177807  0.046626434            6 
 4010000   0.62193482   -3.9784757    2271.9167  0.047213564  0.046615673           12 
 4011000   0.60170948   -3.9506919    2270.7378  0.047177299  0.046604977           15 
 4012000   0.60893244   -3.9479172    2276.5342  0.047285938  0.046594252            9 
 4013000   0.61619336   -3.9600924    2270.4931  0.047148707  0.046583525           11 
 4014000    0.6089791   -3.9576763    2268.8653  0.047103166  0.046572789           13 
 4015000   0.60639344   -3.9510237    2270.7776  0.047131124  0.046562038           12 
 4016000   0.60006127   -3.9713773     2272.987  0.047165235  0.046551257           16 
 4017000   0.59500358   -3.9519621    2269.4761   0.04708066  0.046540487           13 
 4018000   0.60320054   -3.9654331    2269.8165  0.047076002   0.04652968            6 
 4019000   0.60942061   -3.9728192    2275.0955  0.047173747  0.046518902           15 
 4020000   0.59522392    -3.956505    2272.1544  0.047101045  0.046508214            8 
 4021000   0.60855438   -3.9754457     2274.133  0.047130337  0.046497486           10 
 4022000   0.60678925   -3.9437246    2271.9677  0.047073755  0.046486751            6 
 4023000   0.61040763    -3.964808    2273.6985  0.047097906  0.046476042           15 
 4024000   0.60015983   -3.9390885    2268.4919  0.046978379  0.046465335            7 
 4025000   0.58680617    -3.961257    2268.7739  0.046972545   0.04645466           10 
 4026000   0.61717469   -3.9556261    2275.2466  0.047094854  0.046443945           14 
 4027000   0.61365796   -3.9510026    2273.0204  0.047037092   0.04643321           10 
 4028000   0.60697805   -3.9604156    2277.1082  0.047109983  0.046422448            8 
 4029000   0.60957547   -3.9603377    2276.8433  0.047092812  0.046411779           10 
 4030000   0.61800147   -3.9798088    2268.5958  0.046910583  0.046401146           10 
 4031000   0.62250107   -3.9589738    2278.4236  0.047102117  0.046390396            8 
 4032000   0.60792037   -3.9672599    2269.0348  0.046896388  0.046379707            6 
 4033000   0.59505176   -3.9557817    2272.1375  0.046948869  0.046368996            4 
 4034000   0.60534799   -3.9551028    2276.1933  0.047021015  0.046358251            9 
 4035000   0.58504661   -3.9599568    2274.6867  0.046978246  0.046347546            7 
 4036000   0.61087852   -3.9587984    2267.7647  0.046823685  0.046336812            7 
 4037000   0.61170125   -3.9626937    2275.3618  0.046968908  0.046326031           18 
 4038000   0.61066112   -3.9737786    2272.3117  0.046894331  0.046315322            6 
 4039000   0.61359503   -3.9756492    2267.1229  0.046775664  0.046304636           12 
 4040000   0.60430088   -3.9397787    2279.2434  0.047014096  0.046293913            9 
 4041000   0.60504986   -3.9365051    2274.8003  0.046910837  0.046283203            7 
 4042000   0.60405087   -3.9687878    2270.4766  0.046810091  0.046272471           13 
 4043000   0.60058874   -3.9681687    2278.3706   0.04696122  0.046261693           14 
 4044000   0.60049662   -3.9766595     2270.703  0.046791605  0.046250902           15 
 4045000   0.59407282   -3.9585095    2273.1083   0.04682959  0.046240078           11 
 4046000   0.60145307   -3.9846174    2269.2905  0.046739382  0.046229268            8 
 4047000   0.61423357   -3.9916116    2261.9714  0.046577122  0.046218435            8 
 4048000   0.59242675   -3.9916247    2264.9858  0.046627673  0.046207541            7 
 4049000   0.59458088   -3.9762377    2265.6231  0.046629273  0.046196679            9 
 4050000   0.59970312   -3.9513767    2275.1635  0.046814063  0.046185836            5 
 4051000   0.60644509   -3.9666465    2275.1784  0.046802813  0.046175032            9 
 4052000    0.6100109   -3.9783651    2274.6314  0.046780014  0.046164285            8 
 4053000    0.6093197   -3.9680562    2276.0232  0.046797088  0.046153512           13 
 4054000   0.59968121   -3.9582548    2275.4648  0.046774067  0.046142673            6 
 4055000   0.60785096   -3.9655211    2274.4056  0.046740765  0.046131835            5 
 4056000   0.60587848   -3.9672489    2270.8113  0.046655393  0.046121099           17 
 4057000   0.59819404   -3.9727117    2271.0777  0.046649366  0.046110335           10 
 4058000   0.59951541   -3.9489205    2267.0926  0.046556034  0.046099539            8 
 4059000   0.59255446   -3.9832364    2265.9414  0.046520928   0.04608872           11 
 4060000   0.59803744   -3.9653263    2271.3435  0.046620352  0.046077883            8 
 4061000   0.60473199   -3.9614538    2272.7972  0.046638702  0.046067075            4 
 4062000   0.60297704   -3.9747996    2273.5165  0.046641975  0.046056309           10 
 4063000   0.60721306   -3.9737274    2274.7263   0.04665531  0.046045526           10 
 4064000   0.58520594   -3.9626651    2275.1259  0.046652023  0.046034799           10 
 4065000   0.60518919   -3.9588703    2273.1089  0.046599199   0.04602402           21 
 4066000   0.60450208     -3.98445    2269.1364  0.046506321  0.046013263           11 
 4067000   0.60322176    -3.969081    2272.5805  0.046565455  0.046002494            7 
 4068000   0.60410273   -3.9600352    2278.8233  0.046681893  0.045991717            9 
 4069000   0.61244219   -3.9720418    2271.4623  0.046519667  0.045980927            5 
 4070000   0.60517043   -3.9504445    2272.5414  0.046530331  0.045970151            9 
 4071000   0.59997291   -3.9554687    2270.2151  0.046471283  0.045959386            6 
 4072000   0.59646386   -3.9626957    2276.3177   0.04658476  0.045948602           10 
 4073000   0.58460904   -3.9819735    2270.8433  0.046461316  0.045937772            6 
 4074000   0.61385531   -3.9749178     2277.868  0.046593603  0.045926984           16 
 4075000    0.6002788   -3.9724122    2271.3764  0.046449415  0.045916213            7 
 4076000   0.60562194   -3.9788887     2269.924  0.046408326  0.045905414            6 
 4077000   0.59809782   -3.9545553    2270.0767  0.046400064  0.045894644            8 
 4078000   0.59806985    -3.967151    2267.5148  0.046336334  0.045883874           10 
 4079000     0.601968   -3.9853474      2276.99  0.046518551  0.045873085           19 
 4080000   0.60605239   -3.9931445    2268.5427  0.046334614  0.045862333           19 
 4081000   0.59799778    -3.963305    2272.7709  0.046409599  0.045851546            6 
 4082000   0.61225009   -3.9817606    2269.8084  0.046337751  0.045840728           11 
 4083000   0.59469129   -3.9613235    2270.2911  0.046336253  0.045829955           13 
 4084000   0.60835484   -3.9655802    2275.8755  0.046438856  0.045819227            4 
 4085000   0.59342484   -3.9765114      2274.83  0.046406161  0.045808459           11 
 4086000    0.6067734   -3.9921284    2276.1602  0.046421932  0.045797731            9 
 4087000   0.59844996    -3.979876     2272.989  0.046345915  0.045786983            6 
 4088000   0.60564919   -3.9450021     2270.833  0.046290627   0.04577628            7 
 4089000   0.59710768    -3.969337    2273.9648  0.046343132  0.045765608            7 
 4090000   0.60096557   -3.9648566    2275.8905  0.046371038  0.045754879           16 
 4091000   0.59475787   -3.9694027    2274.3031  0.046327367  0.045744134            8 
 4092000   0.59876821   -3.9842716    2272.7966  0.046285365  0.045733366            9 
 4093000   0.60914608   -3.9791104    2272.4405  0.046266806  0.045722591            8 
 4094000   0.60357065   -3.9757951    2273.9233  0.046285688   0.04571183            6 
 4095000   0.60556096   -3.9742504    2268.2876    0.0461597  0.045701088            9 
 4096000   0.59641136   -3.9795186    2269.2888  0.046168798  0.045690298           13 
 4097000    0.5920212   -3.9624931    2273.9685  0.046252716  0.045679544            8 
 4098000   0.58649353   -3.9855986    2269.9176  0.046159053  0.045668822            8 
 4099000    0.5959244   -3.9786287     2275.621  0.046263743  0.045658093           19 
 4100000     0.589307   -3.9692224    2277.1584  0.046283708  0.045647379            6 
 4101000   0.60061768   -3.9721847    2271.8463  0.046164478  0.045636646            8 
 4102000   0.58857614   -3.9662866    2275.7149  0.046231815  0.045625986           10 
 4103000   0.59353396   -3.9737818    2276.2232  0.046230871   0.04561525           21 
 4104000    0.5946944   -4.0083738    2270.6449  0.046106337  0.045604519           11 
 4105000   0.57999556   -3.9917744    2276.5817  0.046215625  0.045593784           16 
 4106000   0.58642933   -3.9821274    2273.9648  0.046151257  0.045583014           10 
 4107000    0.6208184   -3.9927835    2269.3536  0.046046458  0.045572221           10 
 4108000   0.60018078   -3.9895118    2275.8681    0.0461674  0.045561391           13 
 4109000   0.60681351   -3.9866738    2272.9853  0.046097698  0.045550641           17 
 4110000   0.58085668   -3.9784197    2273.2327  0.046091497  0.045539866           16 
 4111000   0.59878617   -3.9930354    2270.9279  0.046033567  0.045529099           10 
 4112000    0.5893877   -3.9739681    2277.9874  0.046165439  0.045518367            8 
 4113000   0.58544853   -3.9783733    2275.9011  0.046111944  0.045507667           14 
 4114000   0.59172759   -3.9850841    2273.3313  0.046048681  0.045496985            6 
 4115000   0.60472369   -3.9849337    2277.3762  0.046119405  0.045486304           13 
 4116000   0.58831651   -3.9726385    2275.4448  0.046069096  0.045475653            8 
 4117000   0.60919176   -3.9760288     2280.249  0.046155149  0.045465002            5 
 4118000   0.60285024    -3.979823    2277.2809  0.046083877  0.045454275            6 
 4119000   0.59421797   -3.9870015     2278.069  0.046088634  0.045443541           23 
 4120000   0.58812076   -3.9900807     2281.782  0.046152549  0.045432899           10 
 4121000   0.59140243   -3.9730437    2278.0782  0.046066452  0.045422263           15 
 4122000    0.5883872   -4.0048962    2272.3681  0.045939837  0.045411581            5 
 4123000   0.59423671    -3.988477    2279.0842  0.046064438  0.045400875            7 
 4124000   0.58737918   -3.9872865     2278.673   0.04604496   0.04539025            4 
 4125000   0.58260571   -3.9870648    2276.4244  0.045988372  0.045379564            7 
 4126000   0.59351452   -3.9940468    2274.9755  0.045947963  0.045369001           15 
 4127000    0.5869163   -3.9770236    2279.1444  0.046021007  0.045358353           11 
 4128000   0.58785961   -3.9882229    2274.4269  0.045914625  0.045347681            6 
 4129000   0.59913031   -4.0174696    2271.6171  0.045846796  0.045337002            4 
 4130000   0.59685883   -4.0100446    2274.6993  0.045897888   0.04532628           25 
 4131000   0.59050995   -3.9812216     2278.532  0.045964092  0.045315609            8 
 4132000   0.59122534   -4.0192082     2279.896  0.045980478  0.045304903            7 
 4133000   0.58871967   -3.9745089       2274.6   0.04586257  0.045294168           10 
 4134000   0.61118952   -3.9891688    2274.2261  0.045843938  0.045283488            8 
 4135000    0.5840517   -3.9954344    2270.3425  0.045754584   0.04527278            6 
 4136000   0.58351454   -4.0189664     2273.945  0.045816106   0.04526207            8 
 4137000   0.59018274   -4.0047166    2278.3021  0.045892799  0.045251348            6 
 4138000   0.60321296   -3.9745595     2281.126  0.045938578  0.045240714           10 
 4139000   0.59618779    -3.985889    2278.1696  0.045867956  0.045230107            7 
 4140000   0.58521101    -3.996658    2272.2463  0.045737646  0.045219457            9 
 4141000   0.58237919   -3.9727016    2277.1554  0.045825392  0.045208811           11 
 4142000   0.60379513   -3.9994849    2276.9589  0.045810375  0.045198118            9 
 4143000   0.59240039   -3.9864778    2277.6902  0.045814029  0.045187443           17 
 4144000   0.59811454   -3.9801806    2277.7276  0.045803724   0.04517678            8 
 4145000   0.58877135   -3.9864289    2282.5686  0.045890001  0.045166123            7 
 4146000   0.58907673   -4.0055701    2273.0937  0.045688489  0.045155483           14 
 4147000   0.58092032   -3.9936263    2276.5509  0.045746944  0.045144856            8 
 4148000   0.57187703   -4.0083842    2279.2259  0.045789656  0.045134185           21 
 4149000   0.59280257   -4.0015231    2280.5996   0.04580621  0.045123545           13 
 4150000   0.58676375   -3.9791774    2280.4022  0.045791208   0.04511286            5 
 4151000   0.60767592   -4.0076109    2278.5354  0.045742701  0.045102238           12 
 4152000   0.59256113   -3.9973537    2275.7941  0.045676665  0.045091552            6 
 4153000   0.59372376   -3.9891293    2275.5979  0.045661729   0.04508092           11 
 4154000   0.59234765   -4.0005353    2279.8555  0.045736148  0.045070226           11 
 4155000   0.58214879   -4.0221311    2270.7244  0.045542006  0.045059514           47 
 4156000   0.58489981   -4.0001017    2273.2639  0.045581968  0.045048818            6 
 4157000   0.58465031   -3.9982856     2277.234  0.045650588  0.045038105           15 
 4158000   0.58795193    -3.991038    2278.4263  0.045663505  0.045027386            6 
 4159000   0.59934579   -4.0111251    2272.6735  0.045537259  0.045016713            9 
 4160000   0.60263108   -3.9981577    2280.4793  0.045682678  0.045006079            5 
 4161000   0.58695277   -4.0093287      2276.66  0.045595209  0.044995412            8 
 4162000   0.58945665   -4.0159118    2276.9904  0.045590869  0.044984745            9 
 4163000   0.58511244   -3.9939292    2283.4838    0.0457099  0.044974091            7 
 4164000   0.58506611   -3.9897082    2276.9848   0.04556886  0.044963528            7 
 4165000   0.58726278   -4.0044921    2278.4618   0.04558747  0.044952936            8 
 4166000   0.58446332   -4.0007497    2281.4318  0.045635937  0.044942355           20 
 4167000   0.58211904   -4.0054319    2280.5374    0.0456071  0.044931772           12 
 4168000   0.58087191    -3.987789    2280.4886  0.045595181  0.044921128            9 
 4169000   0.58819352   -4.0062603    2282.3669  0.045621789  0.044910437            6 
 4170000   0.58010144   -3.9870584    2277.2498  0.045508588   0.04489979            7 
 4171000   0.57669432   -3.9880465    2282.0618  0.045593817  0.044889166            9 
 4172000   0.57928387   -4.0029043    2282.1447  0.045584546  0.044878509            5 
 4173000   0.57933091   -4.0028701    2275.2853  0.045436642  0.044867872           14 
 4174000   0.57593187   -3.9805785    2275.4007   0.04542806  0.044857242           20 
 4175000   0.58405835   -4.0165474    2273.9765  0.045388753  0.044846583            8 
 4176000   0.58979555   -4.0053449    2277.3315  0.045444833  0.044835977           16 
 4177000    0.5966852   -3.9968977    2281.4364  0.045515848  0.044825315            6 
 4178000   0.58067274   -3.9946714    2283.1482  0.045539098  0.044814747            5 
 4179000   0.57122851   -4.0011893    2286.3228  0.045591505  0.044804247           16 
 4180000   0.57627614   -4.0034721    2284.3613  0.045541493  0.044793705           10 
 4181000   0.57586707   -3.9959409    2283.7828   0.04551907  0.044783129            8 
 4182000    0.5822693    -4.006392    2282.4598  0.045481823  0.044772565           12 
 4183000   0.57163763   -4.0301267    2279.5061  0.045412106  0.044761958            8 
 4184000   0.58458872   -4.0019534      2280.94  0.045429811  0.044751309            8 
 4185000   0.57367789   -4.0267776     2278.206  0.045364516  0.044740702           14 
 4186000   0.57945679   -3.9964743    2277.5178  0.045339978  0.044730077            9 
 4187000   0.59148605   -4.0062159    2278.4007  0.045346721  0.044719448           12 
 4188000   0.58981009   -3.9976814    2280.0337  0.045368387  0.044708873            9 
 4189000   0.58120603   -3.9921007    2278.8623  0.045334254  0.044698342            8 
 4190000   0.58265648   -4.0125817    2280.1576  0.045349196  0.044687713           22 
 4191000   0.58025388    -4.002126    2281.7599  0.045370237  0.044677093           12 
 4192000   0.58038438    -4.018892    2281.0716  0.045345729  0.044666525            9 
 4193000   0.57003885   -3.9926108    2284.1765  0.045396623  0.044655955            9 
 4194000   0.57229785   -4.0148932    2277.1303  0.045245793   0.04464534            8 
 4195000   0.58554779   -3.9938272     2282.394  0.045339572   0.04463481           22 
 4196000   0.57411271   -4.0119218    2277.3018  0.045227634  0.044624247           11 
 4197000    0.5774392   -4.0080334    2283.2324  0.045334613  0.044613716           10 
 4198000   0.58417358   -4.0080262    2288.8174  0.045434679  0.044603196            8 
 4199000   0.57961919   -4.0141083      2284.95  0.045347105  0.044592654            7 
 4200000   0.56992952   -4.0206335    2288.6479  0.045409681  0.044582106           18 
 4201000   0.58148262   -3.9985778     2287.391  0.045373939  0.044571593            8 
 4202000   0.57703758   -3.9855735    2282.7484  0.045271069  0.044561098            5 
 4203000   0.58900358   -4.0137909    2277.7518   0.04516123  0.044550614            6 
 4204000   0.57356943   -3.9926133    2283.1891  0.045258268  0.044540048           13 
 4205000   0.58321014   -4.0068364    2277.5794  0.045136334  0.044529442            7 
 4206000   0.58206879    -3.997063    2283.3643  0.045240219  0.044518907           11 
 4207000   0.57199898   -3.9888271     2284.278  0.045247563  0.044508335           16 
 4208000   0.58916703    -4.016672    2277.6212  0.045104983  0.044497748            8 
 4209000   0.56492148   -4.0340393    2277.7572  0.045096959  0.044487172           13 
 4210000   0.60658906   -4.0258877    2278.6164  0.045103255  0.044476601           24 
 4211000   0.57998012   -4.0106527     2283.516  0.045189505  0.044466076            9 
 4212000   0.57625013   -3.9960375    2281.6808  0.045142466  0.044455493            8 
 4213000   0.56665109   -4.0256713    2278.5907  0.045070629  0.044444952           20 
 4214000   0.58894124   -4.0242835    2277.9096  0.045046465  0.044434354           24 
 4215000   0.56789773   -4.0277475    2280.6489  0.045089935  0.044423722            7 
 4216000   0.58978516   -4.0157782    2284.1473   0.04514839  0.044413123           11 
 4217000   0.58878107   -4.0266382     2277.073  0.044997887  0.044402551           12 
 4218000   0.58211225   -4.0187496    2278.2128  0.045009735  0.044392006           13 
 4219000   0.58344851    -3.997477    2287.1936  0.045176456  0.044381454            5 
 4220000   0.58498927   -4.0179652    2277.5359  0.044975037  0.044370938            8 
 4221000    0.5755689   -4.0012082    2276.5056  0.044944041  0.044360453            8 
 4222000   0.57010771   -3.9976975    2288.1592  0.045163414  0.044349979            6 
 4223000   0.59126786   -4.0104037    2285.1299  0.045092942  0.044339467           26 
 4224000   0.58015903    -4.002702    2289.8102  0.045174601  0.044329007           21 
 4225000   0.58674136   -4.0274137     2281.904  0.045007968  0.044318542           12 
 4226000   0.57407621   -4.0229205    2284.2449  0.045043479  0.044308045           17 
 4227000   0.57418913   -4.0123275    2286.4325   0.04507595  0.044297554            7 
 4228000   0.57647972   -4.0074657    2288.0317   0.04509681  0.044287081           22 
 4229000   0.58167491   -4.0270557    2283.7006    0.0450008  0.044276573            7 
 4230000   0.57421092   -4.0082695    2284.5901  0.045007685   0.04426607            6 
 4231000    0.5756636   -4.0294338    2283.3265   0.04497216  0.044255587           13 
 4232000   0.56777894   -4.0143012    2281.0418  0.044916544  0.044245119            8 
 4233000   0.57196418   -4.0192721    2283.9058  0.044962317  0.044234696           12 
 4234000   0.57194921   -4.0323822    2276.7115  0.044810099   0.04422418           11 
 4235000   0.56712983   -4.0291852    2288.8865   0.04503909  0.044213705            8 
 4236000   0.58322423   -4.0267019    2285.6525  0.044964836  0.044203255            6 
 4237000   0.57416068   -4.0156587    2288.8548  0.045017205  0.044192856            6 
 4238000   0.56363243   -4.0198381    2283.7604   0.04490641  0.044182408           13 
 4239000   0.58088948    -4.017715    2287.7616  0.044974475  0.044171941           15 
 4240000   0.56190236   -4.0331579    2285.5378  0.044920162  0.044161499           10 
 4241000   0.57698282   -4.0045839    2288.0781  0.044959485  0.044151081            9 
 4242000   0.56214929   -4.0238277     2284.772  0.044883939  0.044140665            8 
 4243000   0.57195585   -4.0477376     2278.675  0.044753614  0.044130206           11 
 4244000   0.57438121   -4.0110041    2283.5529  0.044838849  0.044119699            8 
 4245000   0.57018056   -4.0309724    2284.5803  0.044848456  0.044109281           23 
 4246000   0.56146741    -4.028374    2287.9071  0.044903186  0.044098828           23 
 4247000   0.57510672   -4.0327708    2288.2782  0.044899894  0.044088439           11 
 4248000   0.57462813   -4.0344759    2284.2738   0.04481077  0.044078015           21 
 4249000   0.56098804   -4.0232801    2283.3291  0.044781696  0.044067599           11 
 4250000   0.56955175   -4.0230482    2289.0727  0.044883779  0.044057186            5 
 4251000   0.57316377   -4.0240477    2285.4326  0.044801862  0.044046752           14 
 4252000   0.57810446   -4.0274396    2281.0032  0.044704516  0.044036289            9 
 4253000   0.56637641   -4.0067672    2292.6814  0.044922828  0.044025917            7 
 4254000   0.56461611   -4.0150858    2275.3004  0.044571784  0.044015498           17 
 4255000   0.56917147    -4.016645    2288.7248  0.044824223   0.04400509            9 
 4256000   0.57355119   -4.0212031    2289.0622  0.044820296  0.043994685            7 
 4257000   0.56390959   -4.0550765     2285.053  0.044731286  0.043984177           12 
 4258000   0.58387011   -4.0377793    2282.2199  0.044665333  0.043973684           13 
 4259000   0.57181743   -4.0396432    2279.9431  0.044610299  0.043963199           12 
 4260000   0.57737597    -4.020379    2281.2972  0.044626315  0.043952699           11 
 4261000   0.57648216   -4.0345612    2286.4969  0.044717533  0.043942247            9 
 4262000   0.55398106   -4.0234496    2286.2439  0.044702094  0.043931765           27 
 4263000   0.56544253   -4.0404092    2289.0489  0.044746439  0.043921277           10 
 4264000   0.56806878   -4.0149858    2283.5144  0.044627783  0.043910811            9 
 4265000   0.57581763   -4.0279041    2288.8722  0.044722004  0.043900364           15 
 4266000   0.56359295   -4.0317307     2286.795  0.044670945  0.043889913            7 
 4267000   0.57279409   -4.0163446     2286.236   0.04464956  0.043879416            9 
 4268000   0.56277766   -4.0166047     2288.723  0.044687657  0.043868955           18 
 4269000   0.56926005   -4.0179943      2284.97  0.044603927  0.043858525            9 
 4270000   0.57540591   -4.0396138     2284.655  0.044587335  0.043848036            7 
 4271000   0.57854459    -4.021903    2288.1362  0.044644818  0.043837571           14 
 4272000   0.58140646   -4.0193567    2292.4253  0.044718035  0.043827162           14 
 4273000   0.55777398   -4.0231343    2289.0246  0.044641247  0.043816728           16 
 4274000   0.57451767   -4.0430037    2286.9943  0.044591215  0.043806301            9 
 4275000   0.56257545   -4.0252523    2283.7071  0.044516708  0.043795869           19 
 4276000   0.57331314   -4.0348635    2288.8044  0.044605637  0.043785408            9 
 4277000   0.56557942    -4.041694     2284.441   0.04451019  0.043774945            9 
 4278000   0.57310172   -4.0315945    2286.9139  0.044547956  0.043764518           10 
 4279000   0.56926945    -4.038281    2291.1068  0.044619202  0.043754122           15 
 4280000   0.56078555   -4.0220436     2286.009   0.04450952  0.043743667            4 
 4281000   0.55873321   -4.0401895    2286.9759  0.044517946  0.043733232           12 
 4282000   0.56777886   -4.0322224    2286.5362  0.044498992  0.043722794           22 
 4283000   0.56244911   -4.0611669     2282.904  0.044417931  0.043712292           13 
 4284000   0.56906544   -4.0310594    2288.2852   0.04451224  0.043701812            9 
 4285000   0.56575497   -4.0319305    2281.8661  0.044377014  0.043691351           13 
 4286000   0.56881169   -4.0501833    2286.8681  0.044463916  0.043680876           10 
 4287000     0.567838   -4.0241009    2283.4873  0.044387825  0.043670457            7 
 4288000   0.56805939   -4.0378167    2281.5719   0.04434025  0.043659977           16 
 4289000     0.572663   -4.0505883    2281.7805  0.044333965  0.043649497           13 
 4290000   0.56756102   -4.0186517    2287.7396  0.044439387  0.043639038           24 
 4291000   0.56130201   -4.0317126    2287.5795   0.04442592  0.043628648           15 
 4292000     0.572716   -4.0217819    2290.7374  0.044476883  0.043618212           20 
 4293000   0.56099813   -4.0430483    2286.6495   0.04438717   0.04360776           14 
 4294000   0.56960483   -4.0244505    2293.1985   0.04450393  0.043597377           30 
 4295000        0.565    -4.029214     2289.693  0.044425554   0.04358691           11 
 4296000   0.56999874   -4.0420898    2283.9285  0.044303392  0.043576481            5 
 4297000   0.54923572   -4.0327505    2289.2101   0.04439551  0.043566028           24 
 4298000   0.56178801    -4.041579    2281.1819  0.044229523  0.043555552           11 
 4299000    0.5568556   -4.0433071    2284.7934  0.044289242  0.043545066           10 
 4300000   0.56471045   -4.0415293     2282.279  0.044230213  0.043534557           12 
 4301000   0.56549434   -4.0390705    2291.2156   0.04439308  0.043524111           15 
 4302000   0.56863976   -4.0196401    2281.9315  0.044202919  0.043513673           11 
 4303000   0.55826035   -4.0347254    2282.3649   0.04420104  0.043503209           10 
 4304000   0.55305451   -4.0262497    2285.7088  0.044255515  0.043492788           10 
 4305000   0.55898542   -4.0613721    2284.5904  0.044223585  0.043482398           12 
 4306000   0.55664462   -4.0253455     2286.103  0.044242588  0.043471957           10 
 4307000   0.54955865   -4.0249636    2285.6079  0.044222736   0.04346149           19 
 4308000   0.55975208   -4.0395615    2282.1383  0.044145355  0.043451079           11 
 4309000   0.56916162   -4.0300929    2281.5924  0.044124553  0.043440572           19 
 4310000   0.56468406   -4.0489897    2282.6514  0.044134792  0.043430053           14 
 4311000   0.56191686   -4.0217797    2284.6491   0.04416317  0.043419568            7 
 4312000   0.56303069   -4.0505437    2291.6264  0.044287771  0.043409078            9 
 4313000   0.56246599   -4.0359385     2289.735  0.044240957  0.043398627            7 
 4314000   0.55988317   -4.0576978    2277.5594  0.043995507  0.043388158            9 
 4315000    0.5657836   -4.0640061    2288.3235  0.044193192   0.04337767           12 
 4316000   0.56505406   -4.0467801    2284.3826  0.044106862  0.043367239            6 
 4317000   0.56624536    -4.033123    2284.7831  0.044104375  0.043356802           14 
 4318000    0.5576008   -4.0327335    2283.3788  0.044067061   0.04334636           14 
 4319000   0.55401346   -4.0439262     2287.232  0.044131202  0.043335986            7 
 4320000   0.56173483   -4.0783754    2282.7934  0.044035366  0.043325577           17 
 4321000   0.54631882   -4.0323055    2292.2692  0.044207922  0.043315165           22 
 4322000   0.55627871   -4.0573483    2289.2705  0.044139876  0.043304725           19 
 4323000   0.56407685   -4.0525177    2287.1518  0.044088823  0.043294356           15 
 4324000   0.55749537   -4.0514401    2290.5906    0.0441449  0.043283978           19 
 4325000   0.56871769   -4.0366531    2285.5632  0.044037827  0.043273555           13 
 4326000   0.56021414   -4.0494787    2281.0515  0.043940737  0.043263068           14 
 4327000   0.55610822   -4.0450532    2284.6937  0.044000725  0.043252641           14 
 4328000   0.56609137   -4.0393988      2286.73  0.044029768  0.043242228           52 
 4329000   0.56103034    -4.066762    2284.1619  0.043970161   0.04323183           10 
 4330000   0.56503022   -4.0529924    2292.0295  0.044111422  0.043221436           18 
 4331000   0.56615043    -4.060459    2281.1708  0.043892303  0.043211042           10 
 4332000   0.55528978   -4.0476336    2290.3824  0.044059372  0.043200662           11 
 4333000   0.55590508   -4.0563834    2288.3224  0.044009586  0.043190243            5 
 4334000    0.5544646   -4.0576127    2294.1795   0.04411205  0.043179826            9 
 4335000   0.55623637   -4.0658054    2286.6084  0.043956332  0.043169415           13 
 4336000   0.54482621   -4.0817403    2286.1164  0.043936739  0.043159006           11 
 4337000     0.571885   -4.0615436    2284.5323  0.043896171  0.043148583            7 
 4338000   0.56452425   -4.0580712    2287.8229  0.043949264  0.043138128           19 
 4339000   0.56726057   -4.0607365    2282.7314   0.04384135   0.04312773            9 
 4340000   0.56028778   -4.0404968    2283.9928  0.043855469  0.043117327           11 
 4341000   0.56604129   -4.0566428    2287.4795  0.043912298  0.043106907           10 
 4342000   0.55764792   -4.0563743    2285.1652  0.043857768  0.043096476           15 
 4343000   0.55799337   -4.0584062    2288.5993  0.043913563  0.043086097            8 
 4344000    0.5495397   -4.0555135    2286.3886  0.043861046  0.043075718            9 
 4345000   0.54949908   -4.0377457    2287.7521  0.043877102   0.04306535            7 
 4346000   0.55595342   -4.0423308    2287.2539  0.043857453  0.043054997           22 
 4347000   0.55985892   -4.0566028    2290.5363  0.043910289  0.043044638           27 
 4348000   0.57243623   -4.0551725     2289.964  0.043889222  0.043034258           11 
 4349000   0.54993677   -4.0330724    2290.0235  0.043880269   0.04302386            9 
 4350000   0.55684143   -4.0399133    2283.3805  0.043742921  0.043013502            8 
 4351000   0.55930525   -4.0742795    2288.1527  0.043824269   0.04300317           20 
 4352000   0.55400832   -4.0585621    2290.7324  0.043863595   0.04299284            7 
 4353000   0.56077507   -4.0564871    2291.1748  0.043861987  0.042982526           11 
 4354000   0.55973424   -4.0561811    2292.7362  0.043881798  0.042972168           21 
 4355000    0.5553945     -4.04685     2284.377  0.043711768  0.042961861            7 
 4356000   0.55121953   -4.0672782     2287.824  0.043767677  0.042951506            9 
 4357000   0.56189421   -4.0510378    2292.2562  0.043842403   0.04294118           18 
 4358000   0.55476843   -4.0596732     2286.988  0.043731606  0.042930893           14 
 4359000   0.55050702   -4.0594141    2292.7444   0.04383162  0.042920603           12 
 4360000   0.56319547   -4.0466857    2294.4114  0.043853429  0.042910301           13 
 4361000   0.55412209   -4.0597063     2289.017  0.043740292  0.042899972           11 
 4362000   0.55522735   -4.0420656    2298.5455    0.0439123  0.042889677           11 
 4363000   0.55765203   -4.0454103    2291.6702  0.043770918  0.042879417            8 
 4364000   0.55068227   -4.0778531    2290.3293  0.043735283  0.042869106           21 
 4365000   0.56245455   -4.0644858    2288.9616  0.043699152  0.042858747           25 
 4366000   0.55925195   -4.0632338    2288.9883  0.043689653  0.042848398           22 
 4367000   0.55098053   -4.0642993    2288.6609  0.043673401  0.042838089           22 
 4368000   0.54515706   -4.0644741    2283.8377  0.043571384  0.042827733           11 
 4369000   0.54680744   -4.0679534    2282.5111  0.043536109  0.042817379           15 
 4370000    0.5589445   -4.0610527    2287.6366  0.043623887  0.042807056           12 
 4371000   0.54658451    -4.068783    2292.3035  0.043702881   0.04279671           11 
 4372000   0.55294003   -4.0598672    2285.9626  0.043572023  0.042786399           14 
 4373000   0.57267083   -4.0585874    2289.2708  0.043625102  0.042776128           15 
 4374000   0.54939055   -4.0519345     2288.079  0.043592421  0.042765849            6 
 4375000   0.55163029    -4.053996    2287.4882  0.043571203  0.042755553            7 
 4376000   0.54969175   -4.0557894    2289.2404  0.043594615   0.04274522            9 
 4377000    0.5457751   -4.0480708    2290.4583  0.043607842   0.04273488           37 
 4378000   0.57197363   -4.0424791    2293.8236  0.043661938  0.042724632            7 
 4379000   0.54998762   -4.0714586    2290.2543  0.043584044  0.042714349           10 
 4380000   0.55274514   -4.0682433    2287.8748   0.04352882  0.042704051            9 
 4381000   0.54924599   -4.0610512    2285.0968  0.043466044  0.042693739            7 
 4382000   0.55570496   -4.0693615    2281.3561  0.043384985  0.042683427            8 
 4383000   0.54991114   -4.0680503    2286.4375    0.0434717  0.042673109            6 
 4384000   0.55601457   -4.0750964    2290.4241  0.043537563   0.04266281            9 
 4385000    0.5464223   -4.0714199    2289.6636  0.043513182  0.042652455           14 
 4386000   0.54215232   -4.0643455    2289.3166  0.043496667  0.042642143           11 
 4387000   0.56236488   -4.0533922    2286.2877  0.043429217  0.042631851            6 
 4388000   0.56179784   -4.0659779    2288.6215  0.043463641  0.042621585           10 
 4389000   0.55389525   -4.0744712    2287.6397  0.043435096  0.042611257            7 
 4390000   0.54568883   -4.0686244    2289.3446  0.043457566  0.042600899           13 
 4391000   0.53922535    -4.074997    2281.0057  0.043289412  0.042590496           17 
 4392000   0.54350702   -4.1031387    2290.2289  0.043454555  0.042580086           11 
 4393000   0.55210194   -4.0661535    2287.2432  0.043388026  0.042569739           14 
 4394000   0.53726218   -4.0521954    2285.4758  0.043344633  0.042559393           13 
 4395000   0.54328316   -4.0630882    2289.9964  0.043420485  0.042549052            9 
 4396000   0.54119293   -4.0661883    2287.8587  0.043370084  0.042538759            5 
 4397000   0.55833324   -4.0755777    2284.9158  0.043304446  0.042528445           15 
 4398000   0.55345672    -4.066921    2286.2876  0.043320592  0.042518105           12 
 4399000   0.54950859   -4.0625475    2288.7733  0.043357832  0.042507766           36 
 4400000   0.55125691   -4.0840188     2288.536  0.043343485  0.042497408           15 
 4401000    0.5574287   -4.0599824    2284.7301  0.043261571  0.042487034            9 
 4402000   0.55385616   -4.0672985    2284.0229  0.043238355  0.042476691           16 
 4403000    0.5522814   -4.0669887    2292.9568  0.043397622  0.042466403           10 
 4404000    0.5433639   -4.0679483    2291.9957  0.043369582  0.042456122            9 
 4405000   0.54929362   -4.0780408     2285.971  0.043245762  0.042445825           15 
 4406000   0.54070243   -4.0539023    2290.0053   0.04331225  0.042435503           13 
 4407000   0.56261235   -4.0716445    2288.3713  0.043271525   0.04242519            8 
 4408000   0.54188731   -4.0663856    2290.2459  0.043297147  0.042414903            7 
 4409000   0.54745929   -4.0548517    2293.0213  0.043339784  0.042404618            8 
 4410000   0.54263961   -4.0766733    2291.1981  0.043295505  0.042394319            8 
 4411000   0.54332997   -4.0681916    2289.3378  0.043250543   0.04238404           12 
 4412000   0.53877065    -4.070676    2280.5247   0.04307428  0.042373707           14 
 4413000   0.53639649   -4.0684753    2284.1045  0.043132119  0.042363398           20 
 4414000   0.53744879   -4.0868848    2284.6374  0.043132408  0.042353094           10 
 4415000   0.53962625   -4.0865878    2291.1271  0.043245132  0.042342816           14 
 4416000   0.54600514   -4.0841119    2288.5544   0.04318679   0.04233253            9 
 4417000   0.54224602   -4.0670751    2285.8331  0.043125671   0.04232223           12 
 4418000   0.54004738   -4.0747317    2288.2897  0.043162247  0.042311935           16 
 4419000   0.54232973   -4.0601517    2294.8081  0.043275403  0.042301668           20 
 4420000   0.54463032   -4.0710044    2290.8651  0.043191273  0.042291372           11 
 4421000   0.55041062   -4.0803733    2293.0727  0.043223115  0.042281109           43 
 4422000   0.54017889   -4.0635839    2292.0626  0.043194305  0.042270867           47 
 4423000   0.54053108   -4.0842877    2291.6455  0.043176681  0.042260644            9 
 4424000   0.54653791   -4.0586368    2290.0687  0.043137219  0.042250413           30 
 4425000   0.54657311   -4.0680771    2286.2368  0.043055308  0.042240163           17 
 4426000   0.54557488   -4.0751769    2291.6683  0.043147844  0.042229953            9 
 4427000   0.54614874   -4.0663318    2290.7396  0.043120615  0.042219718           16 
 4428000   0.54282959   -4.0891928    2291.8877  0.043132485  0.042209522           10 
 4429000   0.54702901   -4.0718438    2291.0632  0.043107232  0.042199298           34 
 4430000   0.55422252   -4.0629339    2294.3147  0.043158666  0.042189107           18 
 4431000   0.56090701   -4.0764781    2287.3562  0.043018059  0.042178878           12 
 4432000   0.54078991   -4.0826371    2284.7484  0.042959319  0.042168614           10 
 4433000   0.54596391   -4.0955287     2288.067  0.043012013  0.042158386           17 
 4434000   0.52752269   -4.0715575      2292.46  0.043084875   0.04214818            9 
 4435000   0.54534062   -4.0693911    2286.8413  0.042969585  0.042137982           17 
 4436000    0.5395743   -4.0650375    2289.2591  0.043005319  0.042127776           11 
 4437000   0.54772921   -4.0779715    2286.9044  0.042951401  0.042117585            9 
 4438000   0.55137623   -4.0987105     2288.906  0.042979308  0.042107338           12 
 4439000   0.54408604   -4.0601935    2290.7642   0.04300451  0.042097121            6 
 4440000   0.53207274   -4.0640512    2289.1986  0.042965438  0.042086976            9 
 4441000   0.54403643   -4.0900444    2294.6317  0.043057713  0.042076783            5 
 4442000   0.53792147   -4.0902533    2290.4621  0.042969799  0.042066624           17 
 4443000   0.53332953   -4.0844954    2289.8069  0.042947838  0.042056443           15 
 4444000   0.54029304   -4.0780903    2287.4679  0.042894313  0.042046282           18 
 4445000    0.5447676   -4.0724192    2284.5672   0.04283028  0.042036123           22 
 4446000   0.54132328    -4.069498    2295.1775  0.043019521  0.042025915           18 
 4447000   0.52931641   -4.0966867    2295.7455  0.043020492  0.042015747           27 
 4448000   0.53799367   -4.0851442    2288.0241  0.042866159  0.042005574           15 
 4449000   0.53669215   -4.0838266    2293.2666   0.04295472  0.041995372           20 
 4450000   0.52803071    -4.094039    2291.2524  0.042907349  0.041985154            9 
 4451000   0.54045822   -4.0842595    2296.3905  0.042993905  0.041974964           13 
 4452000   0.53609878   -4.0894974    2290.9861  0.042883088  0.041964839           13 
 4453000   0.53616841   -4.0818436    2295.5662   0.04295917  0.041954665           21 
 4454000   0.54418589   -4.0867339    2286.7969  0.042785454  0.041944463           11 
 4455000    0.5416521    -4.079517    2296.8145  0.042963234  0.041934315            9 
 4456000   0.54248043   -4.0970384    2296.0817  0.042939888  0.041924186           20 
 4457000   0.53906969   -4.0941406    2291.5886  0.042846245  0.041913998           16 
 4458000   0.53783926   -4.0931891    2293.5898  0.042874042  0.041903806           18 
 4459000   0.54443526   -4.0997053    2294.5402   0.04288219  0.041893608            7 
 4460000   0.53120675    -4.093668    2292.9903  0.042843615  0.041883409           16 
 4461000   0.54528862   -4.0921096    2292.5505  0.042825796  0.041873251           17 
 4462000   0.53645579   -4.1028227    2290.3849  0.042775752  0.041863053           12 
 4463000   0.54279953   -4.0867161    2288.3832  0.042728792  0.041852888           16 
 4464000   0.52207851   -4.0733792    2291.2159    0.0427721  0.041842716           11 
 4465000   0.53606273   -4.0934787    2300.3141  0.042932328   0.04183258           22 
 4466000   0.54335936   -4.0904366     2295.097  0.042825366  0.041822458           11 
 4467000   0.52570121   -4.0955003    2291.8726  0.042755627  0.041812345           11 
 4468000   0.54510656   -4.0953754    2290.0906  0.042712821  0.041802258            6 
 4469000   0.53512111   -4.0729818     2297.387  0.042839319  0.041792157            6 
 4470000   0.52776489   -4.0845336    2287.4095  0.042643727  0.041782027           23 
 4471000   0.53890159   -4.1020884    2290.4569  0.042690989  0.041771831           10 
 4472000    0.5384174   -4.1153026    2287.2566  0.042621807  0.041761625            6 
 4473000   0.52531591   -4.1179048    2289.5739  0.042655449  0.041751417           14 
 4474000    0.5401992   -4.0976103    2298.1769  0.042806156   0.04174119           28 
 4475000    0.5292247   -4.1028485    2293.2846  0.042705485  0.041731026           23 
 4476000   0.53442561   -4.0977093     2293.819  0.042705894  0.041720918           46 
 4477000   0.54397457   -4.0919589    2300.3747  0.042818381  0.041710802           18 
 4478000   0.53094113   -4.0770366     2294.727  0.042703718  0.041700678           16 
 4479000   0.53298362   -4.0944624    2287.4906  0.042559548  0.041690544           22 
 4480000   0.53895704   -4.0829815    2289.5168  0.042587738  0.041680371           20 
 4481000   0.54249846   -4.0845728    2290.2975  0.042592752  0.041670227           14 
 4482000   0.54879101   -4.0991227    2290.6376  0.042589572  0.041660094            6 
 4483000   0.53895341   -4.0847252    2292.3913  0.042612672  0.041649956           22 
 4484000    0.5418891   -4.1065199    2291.9748  0.042595427  0.041639799           10 
 4485000   0.53704975   -4.0882306    2289.7888  0.042545314  0.041629608            8 
 4486000   0.54115358   -4.0734402    2290.0075  0.042539893  0.041619442           60 
 4487000   0.52564992   -4.0923316    2286.8441  0.042471661  0.041609291           20 
 4488000   0.53727403   -4.0979281    2285.2766  0.042433093  0.041599164           27 
 4489000   0.52334537   -4.0982313    2285.9472  0.042436088  0.041588969           14 
 4490000   0.54217125   -4.0951257    2289.3543  0.042489872  0.041578787           18 
 4491000   0.54016861   -4.1082105    2287.2405  0.042441189  0.041568594           23 
 4492000   0.53665101   -4.0916072    2287.5938  0.042438294  0.041558429           24 
 4493000   0.51042079   -4.0987687    2288.4051  0.042443895  0.041548239           28 
 4494000   0.52744379   -4.0983863    2287.3451  0.042414796  0.041538049           20 
 4495000   0.52474278   -4.1021372    2294.3916  0.042535996  0.041527824           24 
 4496000   0.52609835   -4.0943638    2290.9588  0.042462907  0.041517671           19 
 4497000    0.5294482   -4.0933251    2292.3541  0.042479321  0.041507518           12 
 4498000   0.53501748   -4.0935285    2295.1362   0.04252142   0.04149737            8 
 4499000   0.54267313   -4.0941784    2291.8015  0.042450201  0.041487232           18 
 4500000   0.51535133   -4.0990774    2287.2885  0.042357195  0.041477064           14 
 4501000    0.5302122   -4.0936561    2292.8213  0.042450219  0.041466924            8 
 4502000    0.5324267   -4.1056412    2288.5454  0.042361643  0.041456748            6 
 4503000   0.52320687   -4.1089723    2289.1497  0.042363419  0.041446606           17 
 4504000    0.5229477   -4.1079042    2291.8188  0.042403397  0.041436501           19 
 4505000   0.53518899   -4.0795988    2291.3927  0.042386102  0.041426355           10 
 4506000   0.53301052   -4.0944602    2289.7789  0.042346851  0.041416227           30 
 4507000   0.52516535    -4.081597     2290.786  0.042356075  0.041406124            7 
 4508000   0.53406149   -4.1163285      2287.12  0.042278912  0.041396019           11 
 4509000   0.54897566   -4.1123625    2293.5239   0.04238789  0.041385882           13 
 4510000   0.53380697   -4.0951233    2293.3731  0.042375704  0.041375801           16 
 4511000   0.53898065   -4.0904514    2287.5184  0.042258154  0.041365691           12 
 4512000   0.53171212   -4.0978371    2287.9169  0.042256149  0.041355594            7 
 4513000   0.52267183   -4.1079775    2292.7471  0.042335975  0.041345492           22 
 4514000   0.53990239   -4.0986982    2284.9814  0.042183234  0.041335434           14 
 4515000   0.53970304   -4.0950536    2296.4739  0.042386008  0.041325364            6 
 4516000   0.52786645   -4.1081402    2294.0665  0.042332199   0.04131529           11 
 4517000    0.5302574   -4.1187156    2301.4407  0.042458873  0.041305221           13 
 4518000   0.51997764   -4.1024965    2292.9595   0.04229304  0.041295109           14 
 4519000     0.535675   -4.1014043    2296.5838  0.042350516  0.041285015           13 
 4520000   0.52006114   -4.1070295    2287.9473   0.04218192  0.041274905           22 
 4521000   0.52496414   -4.1084765    2290.6469   0.04222235  0.041264781           10 
 4522000   0.51927324    -4.118339    2290.6327   0.04221275  0.041254673           17 
 4523000   0.52779766   -4.1167576      2287.25  0.042141093  0.041244537           29 
 4524000   0.53138943   -4.1179938    2288.3172  0.042151436  0.041234375           40 
 4525000   0.53826372   -4.1113487    2291.0324  0.042192125  0.041224264            8 
 4526000   0.52339148   -4.1084636    2293.4929  0.042228106  0.041214147           12 
 4527000   0.52579887    -4.117378    2293.8215  0.042224826  0.041204057            9 
 4528000   0.53215572   -4.1003013    2290.0705  0.042146468  0.041193975           12 
 4529000   0.53288406   -4.1166064    2292.7279  0.042186059  0.041183843           12 
 4530000   0.52457109   -4.1180549    2292.3453  0.042169708  0.041173753           18 
 4531000   0.51856655   -4.1014609    2294.6956  0.042203627  0.041163686           10 
 4532000    0.5270012   -4.1097623    2290.2797  0.042113116  0.041153634           34 
 4533000   0.52807204   -4.1041357    2293.7152  0.042166982  0.041143573           16 
 4534000    0.5384802   -4.1001666    2293.1671  0.042147609  0.041133551           13 
 4535000   0.52448113   -4.0873574     2295.588    0.0421828  0.041123518           21 
 4536000   0.52549898   -4.1040599    2290.1469   0.04207354  0.041113493           15 
 4537000   0.52592841    -4.102866    2295.5578   0.04216365  0.041103435            9 
 4538000   0.52766635       -4.111    2294.0997  0.042127583  0.041093388           17 
 4539000   0.51922543   -4.1116624    2290.5328  0.042052817  0.041083325           24 
 4540000   0.52682285    -4.128851    2287.4767  0.041987457  0.041073229           19 
 4541000   0.52513244   -4.1430547    2294.0888  0.042099552  0.041063178           15 
 4542000   0.53064897   -4.1067803    2291.5333  0.042043396  0.041053175           20 
 4543000   0.52338674    -4.098178    2291.3395  0.042030588  0.041043165           11 
 4544000   0.52887874   -4.1277613    2291.6006  0.042026125  0.041033166           17 
 4545000   0.51925036   -4.1244579    2294.6964  0.042073641  0.041023143            6 
 4546000   0.52364869   -4.1087847    2291.4927   0.04200566  0.041013116           11 
 4547000   0.52391396   -4.1204909    2291.9429  0.042004671  0.041003102           10 
 4548000   0.51287446   -4.1274628     2286.269  0.041891472  0.040993086            7 
 4549000   0.52741732     -4.09882    2285.5889  0.041869805  0.040983051            9 
 4550000   0.53479456   -4.1059591    2296.8702  0.042067221  0.040973082            5 
 4551000   0.52640973   -4.1060939    2293.5946  0.041997998   0.04096308           13 
 4552000   0.54243652   -4.1184193    2288.1037  0.041888249  0.040953072           13 
 4553000   0.52625678   -4.0935393     2296.792  0.042038071  0.040943078            9 
 4554000   0.52392594   -4.0993221    2288.8744  0.041883955  0.040933126           10 
 4555000   0.52129256   -4.1103213    2292.1082  0.041933923   0.04092314           13 
 4556000   0.51743563   -4.0983916    2292.7644  0.041936721  0.040913153           13 
 4557000   0.52297348   -4.1027878    2291.4184  0.041902904  0.040903159           17 
 4558000   0.53019005   -4.1211121     2288.418  0.041838856  0.040893174           11 
 4559000   0.51653556   -4.1162289    2297.9827  0.042004509  0.040883168           22 
 4560000   0.51996357   -4.1094077    2297.3506  0.041983747  0.040873193           23 
 4561000   0.51384547   -4.1089944    2291.8857  0.041874692   0.04086324           14 
 4562000   0.51880054   -4.1154294    2295.7893  0.041936821  0.040853286           16 
 4563000   0.52479745   -4.1091845    2294.6822  0.041907412  0.040843346           21 
 4564000   0.51754113   -4.1183615    2294.4872  0.041894668  0.040833374            9 
 4565000   0.52011224   -4.1235512     2290.716  0.041816648   0.04082343           17 
 4566000   0.52054826   -4.0964806      2292.71  0.041843882  0.040813508           12 
 4567000   0.52445236   -4.1038742    2299.1246  0.041951766  0.040803589           13 
 4568000   0.50514514   -4.1331184    2288.6429  0.041751366   0.04079364           11 
 4569000   0.52297814   -4.1277936    2297.8653  0.041910434  0.040783687            7 
 4570000   0.52532383    -4.132389    2293.1497  0.041815275   0.04077374           22 
 4571000   0.50937253   -4.1310004    2294.6598  0.041833658  0.040763794           12 
 4572000   0.52739417   -4.1318947    2293.9087  0.041810818  0.040753842           30 
 4573000   0.52565063   -4.1208367    2290.9037  0.041746915  0.040743858            9 
 4574000    0.5077265   -4.1191969    2296.5745  0.041841104  0.040733909           13 
 4575000   0.51939918   -4.1208319    2298.4014  0.041865235  0.040723999           17 
 4576000   0.53197377   -4.1245128    2299.9217  0.041883771  0.040714083           25 
 4577000   0.51872265   -4.1347794    2300.7458  0.041889626  0.040704161           15 
 4578000   0.53313494   -4.1204987    2295.5157  0.041785273  0.040694236           15 
 4579000   0.52427702   -4.1480315     2297.506  0.041812368  0.040684316            7 
 4580000   0.52681291    -4.124837    2296.6401  0.041787484  0.040674392           10 
 4581000   0.52799344   -4.1230327     2293.931  0.041729081  0.040664469           13 
 4582000    0.5119428   -4.1242582    2292.8319  0.041699984  0.040654548           12 
 4583000   0.51140317   -4.1366418    2299.2916  0.041808342  0.040644655           10 
 4584000   0.51702526    -4.135834    2295.0944   0.04172292  0.040634762           11 
 4585000   0.51597993   -4.1412203    2297.4424  0.041756496  0.040624831           12 
 4586000   0.51485764   -4.1105638    2295.9187  0.041719703  0.040614911           13 
 4587000   0.51849816   -4.1344928    2294.3448  0.041682014  0.040604986            8 
 4588000   0.53773135   -4.1349728    2293.1087  0.041650478   0.04059509           10 
 4589000   0.52701341   -4.1333512    2298.9617  0.041747688  0.040585186           10 
 4590000     0.508057   -4.1238367    2296.9418   0.04170192  0.040575333           13 
 4591000   0.52527891   -4.1221224     2304.315  0.041826671  0.040565414           29 
 4592000   0.53088976   -4.1362542     2294.383  0.041637323  0.040555483           14 
 4593000   0.52943221   -4.1218503     2300.354  0.041736593  0.040545572           25 
 4594000   0.51094573   -4.1123389     2296.601  0.041659428  0.040535679           13 
 4595000   0.51378747   -4.1173542    2294.2537  0.041607794  0.040525789           30 
 4596000   0.51707196   -4.1476319    2292.5926  0.041568621  0.040515851           18 
 4597000   0.50897953   -4.1247375    2293.4361   0.04157487   0.04050593           20 
 4598000   0.52000614   -4.1426088     2284.954  0.041412099  0.040496005           24 
 4599000   0.51462553   -4.1197354    2290.9337  0.041511447  0.040486114           10 
 4600000   0.51819374   -4.1298012    2297.6021  0.041623226  0.040476229           16 
 4601000   0.51207625   -4.1269592     2299.611  0.041650566  0.040466397           27 
 4602000   0.51686586   -4.1389549    2300.7864  0.041662799  0.040456534           12 
 4603000   0.52081444   -4.1341319     2296.796  0.041581504  0.040446691           32 
 4604000   0.50117988   -4.1589047    2292.9005  0.041501963  0.040436822           36 
 4605000   0.50452569   -4.1176149    2298.9665  0.041602724  0.040426916           17 
 4606000   0.51877086   -4.1443273    2292.8493  0.041483016  0.040417049           13 
 4607000   0.50955736   -4.1411944    2301.4598  0.041629762  0.040407172           14 
 4608000    0.5162048   -4.1202177    2298.3747  0.041564936  0.040397281           21 
 4609000   0.51015344   -4.1265318    2300.8375  0.041600447  0.040387453           20 
 4610000   0.51608766   -4.1260737    2298.0809  0.041541593  0.040377623           53 
 4611000   0.51518171   -4.1320566    2296.9419  0.041511999   0.04036782            8 
 4612000   0.50978583   -4.1285097    2298.3972  0.041529293  0.040358014           46 
 4613000   0.51070394   -4.1352381    2294.2174  0.041444783  0.040348195           26 
 4614000   0.50841555   -4.1153718    2297.0366  0.041486719  0.040338372           17 
 4615000   0.52708054   -4.1331419    2296.9609  0.041476362  0.040328533           20 
 4616000   0.51789853    -4.123801    2296.9264  0.041466753   0.04031871           29 
 4617000   0.51425718   -4.1240071    2301.6329   0.04154272  0.040308936           14 
 4618000   0.51150097   -4.1311191    2292.7763  0.041373905   0.04029912            9 
 4619000   0.50846116   -4.1435936    2300.6295   0.04150663  0.040289341            9 
 4620000   0.51406013   -4.1229721    2301.0392  0.041505036  0.040279541           14 
 4621000   0.51550839   -4.1450323    2296.9611  0.041422511  0.040269694           28 
 4622000   0.50585296   -4.1397492    2293.6479  0.041353814  0.040259809           24 
 4623000   0.51397176   -4.1364538    2304.0793  0.041532902  0.040249971           15 
 4624000   0.50660158    -4.139803    2295.6651  0.041372281  0.040240151           25 
 4625000   0.51941209   -4.1597756    2296.3875  0.041376352  0.040230271           44 
 4626000   0.51493972   -4.1550428    2295.4824  0.041351103  0.040220391           16 
 4627000   0.51143739   -4.1413258    2298.7545  0.041401098  0.040210556           27 
 4628000   0.49879827   -4.1477019    2296.8788  0.041358376  0.040200757           20 
 4629000   0.52200976   -4.1460855     2299.133  0.041390023  0.040190926           10 
 4630000   0.50812085    -4.155953    2304.3703  0.041475348  0.040181121           16 
 4631000   0.50617812   -4.1509159    2292.3745  0.041250531  0.040171311           17 
 4632000   0.51520973   -4.1649634    2299.7518  0.041374348  0.040161487           30 
 4633000   0.51695757   -4.1338747    2294.8391  0.041277054  0.040151645           10 
 4634000   0.50307453   -4.1443152    2298.8504  0.041340282   0.04014185           13 
 4635000   0.50754674   -4.1341397    2295.5934  0.041272805  0.040132034           17 
 4636000   0.51236015   -4.1288136    2297.1362  0.041291634  0.040122198           11 
 4637000   0.50587321   -4.1400787    2301.9488  0.041369219  0.040112403           10 
 4638000   0.51377392   -4.1437476      2299.35  0.041313604  0.040102586           19 
 4639000   0.50550407    -4.146074    2302.2053  0.041355992  0.040092783           20 
 4640000   0.50695758   -4.1362295    2292.6776  0.041175962  0.040082988            8 
 4641000   0.51241744   -4.1310067    2297.2205  0.041248662  0.040073194           14 
 4642000   0.51833991   -4.1550968     2298.707  0.041266462  0.040063396           11 
 4643000   0.51800655   -4.1439225    2289.3309  0.041089291  0.040053572           44 
 4644000    0.5117492   -4.1451195    2294.0178  0.041164546   0.04004374           23 
 4645000   0.51175931   -4.1451585    2296.6611  0.041203105  0.040033932           15 
 4646000   0.50263631   -4.1564009    2291.5446  0.041102464  0.040024142           22 
 4647000   0.50336537   -4.1401127    2293.0097  0.041119893   0.04001432           18 
 4648000   0.50643062   -4.1478171    2298.7841  0.041214574  0.040004517           29 
 4649000   0.51047378   -4.1413851    2293.4208  0.041109573  0.039994718           20 
 4650000   0.49774484   -4.1500113    2299.5232  0.041210093  0.039984961           31 
 4651000   0.50235998   -4.1357854    2292.1952  0.041069934  0.039975204           21 
 4652000    0.4919219   -4.1471821    2301.1776  0.041222012  0.039965445           13 
 4653000   0.50357081   -4.1669612    2294.7779  0.041098537    0.0399557           13 
 4654000   0.50679954   -4.1391237    2303.5317  0.041246449  0.039945967            9 
 4655000   0.50151988   -4.1615164    2301.0976  0.041194013  0.039936254            8 
 4656000   0.50170516   -4.1385935    2304.4249  0.041244718  0.039926487            5 
 4657000   0.49745463   -4.1618584    2301.3026  0.041179991  0.039916792           26 
 4658000   0.50276542   -4.1590782    2293.4569  0.041030788  0.039907082           15 
 4659000   0.50314184   -4.1653527    2299.6164  0.041132153  0.039897315           23 
 4660000   0.49784247   -4.1571711    2299.5232  0.041121659  0.039887635           39 
 4661000   0.51248091   -4.1437603    2301.8659  0.041154721  0.039877945           12 
 4662000   0.50164758   -4.1473205    2301.1721  0.041133492  0.039868287           25 
 4663000    0.5058114   -4.1458542    2297.8423  0.041065163   0.03985861           12 
 4664000   0.51075979   -4.1526099    2301.8371  0.041127735  0.039848932           10 
 4665000   0.51058135   -4.1456208    2295.4573  0.041004953  0.039839263           41 
 4666000   0.51568961   -4.1468436    2302.3709   0.04111964  0.039829586           11 
 4667000   0.51839448   -4.1393153    2300.3266  0.041074326  0.039819919           33 
 4668000   0.50930805   -4.1456423    2299.8347  0.041056746  0.039810248           14 
 4669000   0.51064961   -4.1552539    2300.4252  0.041058492  0.039800582           23 
 4670000   0.49652827   -4.1553473    2295.4576  0.040961057  0.039790866           19 
 4671000   0.51104359   -4.1569146    2299.5422   0.04102516  0.039781161           22 
 4672000   0.49013835   -4.1524783    2301.5515  0.041052218  0.039771452           11 
 4673000    0.5125657   -4.1448466    2297.6042   0.04097304   0.03976174           40 
 4674000   0.51580852   -4.1479927    2302.5766  0.041052927  0.039752038           19 
 4675000   0.51327953   -4.1581269    2300.8886  0.041014057  0.039742371           26 
 4676000   0.49655146   -4.1446376    2296.6963  0.040930573  0.039732693           24 
 4677000    0.5122784    -4.162729    2293.4502  0.040863982  0.039722989           14 
 4678000   0.50350581   -4.1498351    2297.1122  0.040920483  0.039713255           17 
 4679000   0.49318411   -4.1448441    2299.0515  0.040946276  0.039703541           20 
 4680000   0.50690003   -4.1582118    2297.5484  0.040910763  0.039693835           13 
 4681000   0.50587575   -4.1470377    2296.8527  0.040889637  0.039684151           36 
 4682000   0.50176799    -4.174509    2297.8157  0.040898044  0.039674425           15 
 4683000   0.49702227   -4.1728527    2291.9673   0.04078524  0.039664681           21 
 4684000   0.50195521   -4.1731157    2295.2089  0.040834203  0.039654945           15 
 4685000   0.49266035   -4.1802836    2296.3567  0.040845903  0.039645197           14 
 4686000   0.50516079   -4.1619521    2294.7207  0.040808094  0.039635436           12 
 4687000   0.51142269   -4.1674064    2296.1775  0.040825288   0.03962566           30 
 4688000   0.49450277   -4.1650885    2297.5009  0.040840103  0.039615921           72 
 4689000   0.49818231    -4.166737    2302.4691   0.04091969  0.039606185           39 
 4690000   0.49870914   -4.1756414    2297.6273  0.040824934  0.039596466           42 
 4691000   0.49794908    -4.170484    2299.7141  0.040853302  0.039586738           28 
 4692000   0.49712484   -4.1664498    2294.9305  0.040759636  0.039577008           25 
 4693000   0.50202426   -4.1771684      2300.59  0.040851445  0.039567283           19 
 4694000   0.50319256   -4.1447883    2297.0369  0.040779663  0.039557566           25 
 4695000   0.49615322   -4.1376557    2297.8878  0.040786081  0.039547877           35 
 4696000   0.49630995    -4.159692    2297.5485  0.040771375  0.039538186           41 
 4697000   0.49407869   -4.1708177    2295.8974  0.040733401  0.039528498           25 
 4698000   0.51043145   -4.1680977    2295.4218  0.040716295  0.039518757           22 
 4699000   0.49813095   -4.1697147    2296.9828  0.040735312  0.039509033           33 
 4700000   0.49308822   -4.1759103    2300.5593  0.040790058  0.039499315           19 
 4701000   0.49425301   -4.1725562    2297.2923  0.040723469  0.039489594           25 
 4702000   0.49317959   -4.1655157    2300.2205  0.040766703  0.039479877           29 
 4703000   0.50236967    -4.173626    2300.2068  0.040757793  0.039470218           23 
 4704000    0.5027874   -4.1683266    2293.9122  0.040637617  0.039460547           35 
 4705000   0.50747508   -4.1547484    2294.3417  0.040636587  0.039450851           18 
 4706000   0.50506963   -4.1734688    2302.3882  0.040770438  0.039441224           20 
 4707000    0.4991939   -4.1548713     2294.599  0.040623875  0.039431554           23 
 4708000   0.49817653    -4.171346    2298.3503  0.040681647  0.039421909           15 
 4709000   0.50634255    -4.163622    2299.1887  0.040687845  0.039412258           14 
 4710000   0.50369648    -4.154261    2299.5744   0.04068603  0.039402651           14 
 4711000   0.50401655    -4.166145    2296.7193   0.04062689  0.039393013           30 
 4712000   0.50668614   -4.1624812    2300.8773  0.040691802  0.039383359           12 
 4713000    0.4974046   -4.1752508    2302.6686  0.040714842  0.039373732           20 
 4714000   0.49083675   -4.1610753     2298.138  0.040626114  0.039364119           24 
 4715000   0.50173329   -4.1562564    2303.5538  0.040713217  0.039354511           14 
 4716000   0.49923102   -4.1594678    2299.0695  0.040625345   0.03934493           12 
 4717000   0.50171321   -4.1666175    2299.3418  0.040621542  0.039335313           25 
 4718000   0.49355646   -4.1517135    2295.7225  0.040549005  0.039325744           15 
 4719000   0.49680311   -4.1670398    2305.2041   0.04070785  0.039316154           17 
 4720000   0.49099722   -4.1598596    2301.6542  0.040636551  0.039306534           13 
 4721000   0.49281262   -4.1765943    2297.3272  0.040551563  0.039296932           13 
 4722000   0.49066353   -4.1592546    2299.6292  0.040583601  0.039287325           33 
 4723000   0.49994227   -4.1674927    2299.3733  0.040570494  0.039277736           15 
 4724000   0.48806639   -4.1791983    2303.8435  0.040640761  0.039268133           15 
 4725000    0.4940465   -4.1836996     2301.037  0.040582663  0.039258525           20 
 4726000   0.49433369   -4.1856409    2298.8898  0.040536215  0.039248907           11 
 4727000   0.49262797   -4.1716474    2301.9059  0.040580811  0.039239282           21 
 4728000   0.49215933   -4.1712544     2299.895  0.040536784  0.039229645           16 
 4729000   0.51184351   -4.1669881    2296.7057  0.040472011  0.039220014            9 
 4730000   0.50329428   -4.1676184    2299.4368  0.040511571  0.039210418           21 
 4731000   0.49541142   -4.1681371    2302.1187  0.040550249  0.039200801           24 
 4732000   0.49100211   -4.1628333    2299.0086  0.040486908  0.039191213           18 
 4733000   0.50005365   -4.1773188    2296.7313  0.040438258  0.039181588           39 
 4734000   0.49262661   -4.1642312    2302.7815  0.040536218  0.039171965            6 
 4735000   0.50159172   -4.1714615    2297.6223  0.040436859  0.039162355           27 
 4736000   0.48482406   -4.1829685    2300.1078  0.040472055  0.039152727           29 
 4737000   0.48770947     -4.16527    2295.5361  0.040383086  0.039143131           26 
 4738000   0.50479326   -4.1684415    2296.5756  0.040392845  0.039133534           16 
 4739000    0.4865926   -4.1625912    2296.6119   0.04038496  0.039123955           13 
 4740000   0.50700473   -4.1870809    2296.0499   0.04036656   0.03911437           19 
 4741000   0.49065822   -4.1803286    2295.2844   0.04034459  0.039104751            7 
 4742000   0.48205585   -4.1782394    2294.7029  0.040325863  0.039095145           29 
 4743000   0.47638846   -4.1841777    2294.2382  0.040309196  0.039085543           17 
 4744000   0.50728165   -4.1783793    2293.2442  0.040283238  0.039075948           28 
 4745000   0.48961059   -4.1663445    2296.4607  0.040331238  0.039066356           38 
 4746000   0.49011672   -4.1837124    2295.0461  0.040297902  0.039056764           89 
 4747000   0.49465083   -4.1781964     2297.642  0.040334984   0.03904716           26 
 4748000   0.48502254   -4.1815976    2297.6715  0.040327006  0.039037565           97 
 4749000   0.47901551    -4.185523    2300.0875  0.040360909  0.039027978           40 
 4750000   0.48839269   -4.1764968    2301.2336   0.04037252  0.039018361           14 
 4751000   0.47955892   -4.1848396    2295.3489  0.040260803  0.039008776           27 
 4752000   0.49574743    -4.177719    2301.9546  0.040368172  0.038999223           12 
 4753000   0.49751695   -4.1762665    2305.3109  0.040418524  0.038989659           10 
 4754000   0.49358427   -4.1809226    2302.2504  0.040356374  0.038980075           19 
 4755000   0.48096117   -4.1821743     2300.402  0.040315492  0.038970476           26 
 4756000   0.49199853   -4.1779593    2301.9848  0.040334749    0.0389609           20 
 4757000   0.49084214   -4.1805301    2301.3337  0.040314865  0.038951358           23 
 4758000    0.4882472    -4.176899    2298.3542  0.040254207  0.038941815           14 
 4759000     0.491903   -4.1783969    2299.1782  0.040260177  0.038932258           11 
 4760000   0.47676488   -4.1800708    2301.8897   0.04029919  0.038922694            6 
 4761000   0.48969108   -4.1780877    2301.0965  0.040276842  0.038913125            7 
 4762000   0.48741419   -4.1795776    2303.9443  0.040318219  0.038903581           28 
 4763000   0.49051344   -4.1747538    2297.5595  0.040198045  0.038894058           10 
 4764000   0.49136008   -4.1738954     2300.726  0.040244996  0.038884502           17 
 4765000   0.49155002     -4.19317    2304.5547   0.04030351  0.038874974           16 
 4766000   0.47871851   -4.1877879    2302.2493  0.040254743   0.03886542           16 
 4767000   0.48501911    -4.169773    2298.5391  0.040181441  0.038855841           18 
 4768000   0.49248046    -4.172916    2302.9507  0.040250116  0.038846315           16 
 4769000    0.4808248   -4.1550526    2299.0122  0.040172856  0.038836798           20 
 4770000   0.48604303     -4.19044    2297.6891  0.040141319  0.038827295           24 
 4771000   0.48291289   -4.1747961    2300.2506  0.040177647  0.038817803           24 
 4772000   0.48323799   -4.1719042    2302.8426  0.040214492  0.038808299           20 
 4773000   0.49304019    -4.171413    2299.8472  0.040153768  0.038798807           24 
 4774000    0.4836525   -4.1845397    2298.7764  0.040126665  0.038789278           19 
 4775000   0.48026162   -4.1930043    2301.9337  0.040173363  0.038779733           12 
 4776000    0.4956667   -4.1942551    2300.4066  0.040138305   0.03877019           21 
 4777000   0.48309868   -4.1905847    2302.5471  0.040167244  0.038760676           17 
 4778000   0.49907283   -4.1944969    2297.2554  0.040066544  0.038751142           13 
 4779000    0.4933116   -4.1887419    2295.8198  0.040033127  0.038741594           18 
 4780000   0.49012362   -4.1794177    2298.3667  0.040069155  0.038732061            9 
 4781000   0.47804065   -4.1772219    2298.2542  0.040058812  0.038722557           17 
 4782000   0.48448032   -4.1873375    2299.5456  0.040072941  0.038713035           23 
 4783000   0.48337755   -4.1708896    2301.8759  0.040105162  0.038703521            9 
 4784000   0.47890367   -4.1915529     2304.347  0.040139824  0.038694004           10 
 4785000   0.49063991   -4.1930173     2299.199   0.04004178   0.03868445           66 
 4786000   0.47360154   -4.1906016    2303.7626  0.040112874  0.038674934           30 
 4787000   0.49009863   -4.1903342     2295.636  0.039963025  0.038665389           15 
 4788000   0.49299574   -4.1764818    2298.8941  0.040011384  0.038655845           25 
 4789000   0.47515534   -4.2132465      2298.44  0.039995128  0.038646277            7 
 4790000   0.48400135   -4.1826865    2300.4415  0.040021599  0.038636718           10 
 4791000   0.48288719   -4.2009514    2293.6289  0.039894749   0.03862716           19 
 4792000    0.4860249   -4.1820805    2294.4876  0.039901356  0.038617555           20 
 4793000   0.48820269   -4.2238235    2291.8323  0.039846865  0.038607956           39 
 4794000   0.47482996   -4.1833821    2297.5323  0.039937635  0.038598389           15 
 4795000   0.49129466   -4.1933154    2297.9298  0.039936214  0.038588844           42 
 4796000   0.48886118   -4.1910914    2296.3818   0.03990099  0.038579282           37 
 4797000   0.49080506   -4.1656963    2297.7948  0.039917219  0.038569695           67 
 4798000   0.49089074   -4.1793032    2295.4088  0.039867459  0.038560144           38 
 4799000   0.47643374   -4.2021776     2296.759  0.039882598  0.038550609           51 
 4800000   0.49314374   -4.1808937    2296.7889  0.039874808  0.038541075           31 
 4801000   0.47459773   -4.1846123    2298.4127  0.039894687   0.03853155           36 
 4802000   0.49126515   -4.1765568    2300.9964  0.039931217  0.038522046           45 
 4803000   0.48591058   -4.1946327    2296.4649   0.03984428   0.03851252           40 
 4804000    0.4892826   -4.2028336    2297.5213  0.039854311  0.038502979           33 
 4805000   0.47763389   -4.2113231    2296.4877   0.03982809  0.038493406           35 
 4806000   0.47970902    -4.215094    2296.7976  0.039825177   0.03848383           54 
 4807000   0.48212549   -4.1901022    2296.4267  0.039810462  0.038474288           33 
 4808000   0.47936839   -4.1993222    2297.3702  0.039818536  0.038464749           23 
 4809000   0.48569179    -4.204372    2292.8241  0.039731477  0.038455235           29 
 4810000   0.48407183   -4.1887683    2296.2253  0.039782143  0.038445734           35 
 4811000   0.47303946   -4.1859173     2303.002  0.039891257  0.038436268           28 
 4812000   0.48324639   -4.1994081    2296.6448  0.039772873  0.038426757           17 
 4813000   0.49143148   -4.1998562    2296.6311  0.039764373  0.038417248            9 
 4814000   0.48091273    -4.200042    2294.8236  0.039724823  0.038407742           10 
 4815000   0.47567002   -4.2005509    2291.3579  0.039656591  0.038398237           25 
 4816000    0.4853778   -4.1975964    2296.1601  0.039731453  0.038388692           22 
 4817000     0.481658     -4.18709    2294.1043   0.03968764  0.038379216           10 
 4818000     0.486047   -4.1925565     2295.739  0.039707677  0.038369737           14 
 4819000   0.49394235   -4.1893141    2295.9335    0.0397028  0.038360243           32 
 4820000   0.48338981   -4.1964876    2296.7056  0.039707912  0.038350729            5 
 4821000   0.47739016   -4.2001013    2294.1009  0.039654651  0.038341248           12 
 4822000    0.4726768   -4.1981595    2296.7578  0.039692345  0.038331726           34 
 4823000   0.47303032   -4.2041494     2294.628  0.039647315  0.038322197           34 
 4824000   0.47945989   -4.2038596    2298.0253  0.039697784  0.038312668           18 
 4825000   0.46990352   -4.2141255    2297.1407  0.039674279  0.038303163           14 
 4826000   0.48696601    -4.189127    2296.7489  0.039659292  0.038293666           21 
 4827000   0.48146383   -4.1917896    2297.9101  0.039671122  0.038284216           46 
 4828000   0.47693941   -4.2029585    2297.1799  0.039650303  0.038274783           25 
 4829000   0.48683093   -4.1997817    2301.0864  0.039709505  0.038265334           23 
 4830000   0.46203643   -4.1934016    2301.6364  0.039710773  0.038255872           29 
 4831000   0.47366526   -4.2055991     2299.559  0.039666718  0.038246434           48 
 4832000    0.4757429   -4.2074097     2296.838  0.039611582  0.038236957           45 
 4833000    0.4682794   -4.2048926    2295.9242   0.03958763  0.038227495           40 
 4834000   0.48349288   -4.1937075    2299.8041  0.039646326  0.038218026           39 
 4835000   0.48213716   -4.2121973    2295.8306  0.039569641  0.038208537           86 
 4836000   0.46968277   -4.2102588     2301.902  0.039666081  0.038199067           63 
 4837000   0.48086043   -4.2149684    2298.7232  0.039603115  0.038189594           52 
 4838000    0.4825897   -4.2112262    2299.1377  0.039602069   0.03818013           37 
 4839000   0.46782361   -4.1921204    2297.7255  0.039569565  0.038170681           40 
 4840000   0.48976483   -4.2085447    2296.4475  0.039539386  0.038161249           21 
 4841000   0.46865784    -4.222766    2298.4573  0.039565814  0.038151779           25 
 4842000   0.48341777   -4.2004178    2292.0383  0.039447169  0.038142302           45 
 4843000   0.47489975   -4.2130305    2294.8751  0.039487837  0.038132827           24 
 4844000   0.47175967   -4.2148944     2289.276  0.039383361  0.038123337           46 
 4845000    0.4728755   -4.2022912    2296.9528  0.039507272   0.03811383           12 
 4846000   0.47385327    -4.207922    2299.9715  0.039551031  0.038104384           34 
 4847000   0.48268076   -4.1971387    2292.9265  0.039421746  0.038094947           39 
 4848000   0.47296029   -4.1840317    2299.2492  0.039522298  0.038085533           59 
 4849000   0.47616705   -4.2137362    2297.7155  0.039487789  0.038076153           44 
 4850000     0.474554   -4.2133592    2300.0711  0.039520122  0.038066747           52 
 4851000     0.475111   -4.2148571    2303.8321  0.039576584  0.038057341           85 
 4852000    0.4817207   -4.2088302    2301.0045  0.039519863  0.038047923           72 
 4853000   0.48506901   -4.2097696    2297.8219   0.03945707  0.038038494           53 
 4854000   0.46528775   -4.1921788    2296.4137  0.039424765  0.038029088           30 
 4855000   0.47414671   -4.2083541    2297.5093   0.03943545  0.038019675           22 
 4856000   0.47835626   -4.2113774    2295.4439  0.039391885  0.038010263           35 
 4857000   0.47275332   -4.2233786    2305.6529  0.039558934  0.038000852           56 
 4858000   0.47432939   -4.2076614     2302.829   0.03950235  0.037991412           26 
 4859000   0.46597533   -4.2140302    2300.5808  0.039455663  0.037982023           68 
 4860000   0.47719396   -4.2013054    2301.5914  0.039464874  0.037972632           29 
 4861000   0.47295497   -4.2241732    2297.0622  0.039379109   0.03796322           32 
 4862000   0.47115759    -4.197223    2298.1891  0.039390324  0.037953796           63 
 4863000   0.47445294   -4.2259208     2291.199  0.039262441  0.037944348           54 
 4864000   0.48247684   -4.2259164    2295.8925   0.03933478  0.037934922           49 
 4865000   0.47914559   -4.2334889    2299.5641  0.039389587  0.037925479           36 
 4866000    0.4729396   -4.2254911    2294.5736  0.039296027  0.037916054           52 
 4867000   0.47169486   -4.2171322    2297.7043  0.039341557  0.037906624           41 
 4868000   0.47152735    -4.209467    2291.4272   0.03922602  0.037897201           54 
 4869000   0.48928551   -4.2143971    2299.2695  0.039352186  0.037887779           19 
 4870000   0.47042919   -4.2109146    2299.8477  0.039353999  0.037878368           15 
 4871000    0.4716037   -4.2312132    2299.8562  0.039346065  0.037868962           25 
 4872000   0.47907807   -4.2103054    2294.7412    0.0392505  0.037859527           54 
 4873000   0.47101501   -4.2214287    2296.4473  0.039271621  0.037850135           37 
 4874000    0.4677706   -4.2196008    2293.3225  0.039210138   0.03784075           44 
 4875000   0.46531772   -4.2262412    2297.7967  0.039278577  0.037831348           24 
 4876000   0.46733667   -4.2106634    2297.0452  0.039257678  0.037821964           45 
 4877000   0.47092513   -4.2213902    2294.7515  0.039210435  0.037812589           49 
 4878000   0.47121879   -4.2193132    2296.2027  0.039227189   0.03780321           33 
 4879000     0.471041   -4.2154053     2301.237  0.039305134  0.037793845           18 
 4880000    0.4777941   -4.2029762    2300.3538  0.039281999  0.037784478           25 
 4881000   0.46800908   -4.1955495    2298.8393  0.039248093   0.03777512           11 
 4882000   0.47103976   -4.2191283    2295.4202  0.039181692  0.037765731           31 
 4883000     0.462469    -4.201818     2298.741   0.03923034   0.03775636           19 
 4884000   0.46187215   -4.2138344    2299.0656  0.039227845  0.037746997           21 
 4885000   0.47267468   -4.2150931    2298.5212  0.039210528  0.037737662           24 
 4886000    0.4690472   -4.2226239    2294.6864  0.039137099  0.037728304           26 
 4887000   0.47193176   -4.2290611    2300.1425  0.039222129  0.037718956           24 
 4888000   0.47612332   -4.2296672     2293.644  0.039103314   0.03770958           36 
 4889000   0.46112438   -4.2186902    2297.9393   0.03916853  0.037700206           10 
 4890000   0.47837189   -4.2321125    2302.4633  0.039237616  0.037690832           25 
 4891000    0.4650021   -4.2184796    2298.2173  0.039157251  0.037681465           16 
 4892000   0.47219206   -4.2177027    2299.2791  0.039167333  0.037672103           28 
 4893000   0.46925718    -4.208345    2298.5477  0.039146871  0.037662729           17 
 4894000   0.47321666   -4.2311436    2294.0731  0.039062681  0.037653343           26 
 4895000   0.47266453   -4.2281846    2297.1162  0.039106507  0.037643942           37 
 4896000   0.46266395   -4.2381658    2294.0241   0.03904589  0.037634551           14 
 4897000   0.46624347    -4.216139    2298.7157  0.039117754  0.037625167           27 
 4898000   0.46245691   -4.2190511     2294.784  0.039042875  0.037615794           26 
 4899000   0.47411777   -4.2357639    2297.3013  0.039077726   0.03760644           50 
 4900000   0.47589771   -4.2193717    2294.5629  0.039023179  0.037597098           47 
 4901000    0.4716909   -4.2210174    2297.2002  0.039060059  0.037587779           57 
 4902000   0.47838463    -4.208963    2297.3886  0.039055294  0.037578485           20 
 4903000   0.47251574   -4.2116798    2293.0575  0.038973715  0.037569141           23 
 4904000   0.46220479   -4.2288668     2298.587   0.03905973  0.037559811           34 
 4905000   0.46409328   -4.2154379    2302.2461  0.039113933  0.037550501           19 
 4906000   0.46491797   -4.2252666    2293.0519  0.038949788  0.037541164           26 
 4907000   0.47533973   -4.2225686    2299.7579  0.039055735  0.037531837           20 
 4908000   0.45883933   -4.2231547    2296.8952  0.038999171  0.037522497           14 
 4909000   0.46309794   -4.2200702    2296.3422   0.03898184  0.037513161           16 
 4910000   0.47372761   -4.2089261    2295.3332  0.038956775  0.037503827           29 
 4911000   0.46929771   -4.2267023       2296.2  0.038963551  0.037494498           56 
 4912000   0.46215313   -4.2334358    2296.9551   0.03896843  0.037485179           19 
 4913000   0.47114355   -4.2098893    2295.7188  0.038939528  0.037475873           18 
 4914000   0.45881627   -4.2253688    2288.7819  0.038813965  0.037466573           35 
 4915000   0.46054566   -4.2529639    2291.8726   0.03885847  0.037457251           40 
 4916000   0.47005707   -4.2233869     2294.082  0.038888018  0.037447931           30 
 4917000   0.46349344   -4.2241521    2294.1608  0.038881445  0.037438634           80 
 4918000   0.47197616   -4.2277873    2298.3408  0.038944367  0.037429329           26 
 4919000   0.46986901   -4.2164944    2294.9882  0.038879653   0.03742003           37 
 4920000   0.46729654   -4.2124078    2297.7123  0.038917892  0.037410757           20 
 4921000   0.45163981   -4.2236738     2293.961  0.038846457  0.037401456            9 
 4922000   0.46954856   -4.2197786    2291.0619  0.038789481  0.037392167           15 
 4923000   0.45775233   -4.2194765    2299.6208  0.038926481  0.037382868           36 
 4924000   0.45500853   -4.2208844    2303.6331   0.03898648  0.037373587           12 
 4925000   0.46521345   -4.2142082    2297.9152  0.038881814  0.037364319           17 
 4926000   0.45395136   -4.2269121    2295.7034  0.038836504  0.037355044           29 
 4927000   0.46643794   -4.2481301     2296.263  0.038838087   0.03734575           14 
 4928000    0.4680134   -4.2215598    2292.0494  0.038758952  0.037336459           14 
 4929000   0.46267789   -4.2548182    2295.6234  0.038811513  0.037327158           10 
 4930000   0.45980365   -4.2341263    2296.0103  0.038810182  0.037317859           17 
 4931000   0.46085774   -4.2202195    2297.2816  0.038823796  0.037308548           15 
 4932000   0.47370275   -4.2290912     2290.653  0.038703923  0.037299248           19 
 4933000   0.46420161   -4.2370622     2298.239  0.038824228  0.037289939           42 
 4934000   0.46409931   -4.2315007    2293.8339  0.038741958  0.037280676           26 
 4935000   0.46596306   -4.2300796    2297.5682  0.038797167   0.03727141           35 
 4936000   0.45831115   -4.2261522    2301.2944  0.038852214  0.037262174           50 
 4937000   0.46804343   -4.2195374    2297.4306  0.038779128  0.037252934           29 
 4938000   0.46358022   -4.2395333    2297.3437  0.038769807  0.037243693           43 
 4939000   0.47585932   -4.2237031    2303.4335  0.038864708  0.037234463           26 
 4940000   0.45665182   -4.2239017     2298.211  0.038768742  0.037225247           24 
 4941000   0.45621922   -4.2274304    2300.3058  0.038796226  0.037216035           20 
 4942000   0.46249503   -4.2281534    2299.4816  0.038774477   0.03720682           31 
 4943000   0.46123348   -4.2336226    2293.2814  0.038662105  0.037197614           23 
 4944000   0.45721141   -4.2425584    2297.9699  0.038733311  0.037188388           18 
 4945000   0.45145977   -4.2234586    2298.9944  0.038742744  0.037179183           10 
 4946000   0.46387869   -4.2278853    2301.1736  0.038771627  0.037170002           16 
 4947000   0.47121284   -4.2453601     2301.436  0.038768211  0.037160831            8 
 4948000     0.464545   -4.2254478    2298.7924  0.038715852  0.037151677           20 
 4949000   0.45239287   -4.2453727    2298.2485  0.038698871  0.037142455           18 
 4950000    0.4533089   -4.2350911    2291.3348   0.03857466  0.037133208           15 
 4951000   0.46482267   -4.2318979    2302.7877   0.03875964  0.037123958           18 
 4952000   0.45875483   -4.2306886    2298.2982  0.038676263  0.037114726           28 
 4953000   0.45900799   -4.2315076    2295.6482  0.038623868  0.037105476           73 
 4954000   0.45961182   -4.2467161    2298.1733  0.038658547  0.037096234           36 
 4955000   0.45785875   -4.2473685    2296.2073  0.038617681  0.037087002           45 
 4956000   0.45228323   -4.2345592    2296.2354  0.038610361  0.037077761           65 
 4957000   0.45768267   -4.2487813    2294.6957  0.038576688  0.037068525           51 
 4958000   0.46349873   -4.2421325    2297.5461  0.038616817   0.03705929           60 
 4959000   0.45766336   -4.2583379    2294.3567  0.038555434  0.037050047          111 
 4960000   0.46566905    -4.255658    2290.2403  0.038478499  0.037040777          112 
 4961000   0.46137235   -4.2468069    2292.5149  0.038508952  0.037031493          131 
 4962000    0.4557832   -4.2567094    2297.0765  0.038577799  0.037022237          128 
 4963000   0.45713089   -4.2595425    2292.5121  0.038493386  0.037012992          123 
 4964000   0.46375751   -4.2464389    2290.3843  0.038449912  0.037003748           63 
 4965000   0.45414629   -4.2494356    2293.9326  0.038501723  0.036994481           71 
 4966000   0.46145558   -4.2423044    2296.6277  0.038539196  0.036985211           33 
 4967000   0.45427665   -4.2456028    2300.1409  0.038590379   0.03697598           69 
 4968000    0.4551483   -4.2463421    2294.3226  0.038485013  0.036966753           62 
 4969000   0.45771699   -4.2356669    2298.2403  0.038542972  0.036957547           72 
 4970000   0.46018098   -4.2657736    2292.9119  0.038445874  0.036948321           47 
 4971000    0.4573869   -4.2408421    2297.9083  0.038521898  0.036939081           57 
 4972000   0.45682039   -4.2634592    2293.7443   0.03844436  0.036929858           49 
 4973000   0.45090579   -4.2542096    2296.9306  0.038490023  0.036920639           27 
 4974000   0.45897173   -4.2519991    2300.0393  0.038534366  0.036911461          132 
 4975000   0.45341238   -4.2487205    2298.9759  0.038508809  0.036902284           50 
 4976000   0.46192418   -4.2290076    2299.1738  0.038504384  0.036893115           46 
 4977000   0.45996096   -4.2287387    2299.2348  0.038497669  0.036883944           36 
 4978000   0.45232429   -4.2584198    2296.0249  0.038436201  0.036874764           30 
 4979000   0.44535014   -4.2493854    2294.1447  0.038397013  0.036865576           28 
 4980000   0.45275759    -4.251348     2297.688  0.038448595  0.036856393           20 
 4981000   0.45786885   -4.2435839    2297.8142  0.038442987  0.036847226           19 
 4982000   0.45422459   -4.2399715    2294.3151  0.038376741  0.036838076           14 
 4983000   0.46381397   -4.2280673    2297.9479  0.038429792  0.036828919           18 
 4984000    0.4657671   -4.2443464    2292.0563  0.038323574  0.036819706           25 
 4985000   0.46219951   -4.2647135    2297.8548  0.038412819  0.036810507           42 
 4986000   0.44678084   -4.2396369    2294.6043  0.038350788  0.036801295           64 
 4987000   0.46591025   -4.2569783    2296.8338  0.038380352  0.036792127           27 
 4988000     0.453865   -4.2333951    2295.3587  0.038348013  0.036782959           19 
 4989000   0.45767269   -4.2460052    2296.0531  0.038351927  0.036773818           26 
 4990000   0.44342233   -4.2537937    2297.1677  0.038362854  0.036764653           28 
 4991000   0.45299318   -4.2547369    2291.0722  0.038253393  0.036755472           22 
 4992000   0.44516595   -4.2526927    2296.1024  0.038329701  0.036746292           24 
 4993000   0.44673702   -4.2705578    2293.1326  0.038272458  0.036737083           21 
 4994000   0.45332053   -4.2498909    2298.0673  0.038347139  0.036727879           27 
 4995000   0.45222117   -4.2574061    2296.8886  0.038319797  0.036718687           21 
 4996000    0.4566805   -4.2395393     2293.649   0.03825809  0.036709515           15 
 4997000    0.4351289   -4.2529256    2295.1668  0.038275746  0.036700351           16 
 4998000   0.45467644    -4.261541    2298.8467  0.038329443  0.036691212           20 
 4999000   0.44123226   -4.2507963    2297.6236  0.038301387  0.036682049           20 
 5000000   0.46271982   -4.2573826    2299.2459  0.038320765  0.036672892           20 
 5001000   0.44095957   -4.2469479    2298.2659  0.038296772  0.036663772           15 
 5002000   0.43992937   -4.2557347    2295.7168  0.038246648  0.036654641           39 
 5003000   0.45321887   -4.2645214    2302.3119  0.038348855  0.036645505           15 
 5004000   0.44772593   -4.2745768    2288.3496  0.038108673  0.036636345           28 
 5005000   0.46231515   -4.2656372    2291.2335  0.038149076  0.036627185           24 
 5006000   0.45466471   -4.2656536    2297.6366  0.038248045  0.036618029           23 
 5007000    0.4547808   -4.2556031    2294.5192  0.038188523  0.036608875           28 
 5008000    0.4510379   -4.2533152    2295.8165  0.038202484  0.036599737           26 
 5009000   0.44696972   -4.2499963    2298.6327   0.03824171  0.036590591           17 
 5010000   0.44875159    -4.240412    2290.3212  0.038095828  0.036581451           79 
 5011000   0.44282989   -4.2579587     2296.267  0.038187106  0.036572314           49 
 5012000   0.44816057   -4.2528365    2296.8005  0.038188356  0.036563175           85 
Loop time of 12542.8 on 48 procs for 5000000 steps with 4000 atoms

Performance: 68884.121 tau/day, 398.635 timesteps/s
99.4% CPU use with 48 MPI tasks x no OpenMP threads

MPI task timing breakdown:
Section |  min time  |  avg time  |  max time  |%varavg| %total
---------------------------------------------------------------
Pair    | 793.31     | 893.24     | 969.09     | 120.5 |  7.12
Neigh   | 83.043     | 86.396     | 90.297     |  22.5 |  0.69
Comm    | 765.98     | 853.59     | 969.78     | 155.2 |  6.81
Output  | 15.107     | 15.111     | 15.197     |   0.3 |  0.12
Modify  | 10526      | 10575      | 10621      |  25.0 | 84.31
Other   |            | 119.7      |            |       |  0.95

Nlocal:        83.3333 ave          90 max          76 min
Histogram: 2 1 4 8 6 11 3 8 3 2
Nghost:        2227.48 ave        2257 max        2207 min
Histogram: 5 4 8 5 9 6 6 3 0 2
Neighs:        14892.1 ave       16504 max       13041 min
Histogram: 2 2 3 6 8 6 9 7 2 3
FullNghs:      29783.8 ave       32240 max       26770 min
Histogram: 1 2 4 5 8 7 8 7 3 3

Total # of neighbors = 1429624
Ave neighs/atom = 357.40600
Neighbor list builds = 270684
Dangerous builds = 0

#clear
#
#next RN
#
#jump SELF
Total wall time: 3:29:06
