
units lj                  # Use reduced LJ style units
atom_style atomic         # Uncharged point particles
atom_modify map hash      # Needed for indexing of clusters etc
                          # Used to be able to find where atoms are in relation to each other.

lattice fcc 1.0 spacing 1 1 1
Lattice spacing in x,y,z = 1.5874011 1.5874011 1.5874011
region box block 0 10 0 10 0 10 units lattice
create_box 2 box
Created orthogonal box = (0.0000000 0.0000000 0.0000000) to (15.874011 15.874011 15.874011)
  3 by 4 by 4 MPI processor grid
create_atoms 1 box
Created 4000 atoms
  using lattice units in orthogonal box = (0.0000000 0.0000000 0.0000000) to (15.874011 15.874011 15.874011)
  create_atoms CPU = 0.002 seconds
set type 1 type/fraction 2 0.11 78393
Setting atom values ...
  470 settings made for type/fraction
mass 1 1.0
mass 2 1.0
pair_style lj/cut  3.5
pair_modify tail  yes
pair_coeff 1  1  1.0  1.0   # Intearaction between 1 and 1 set with epsilon = 1 and sigma = 1
pair_coeff 1  2  1.5  0.8
pair_coeff 2  2  0.5  0.88

write_data data.0
System init for write_data ...
Neighbor list info ...
  update every 1 steps, delay 10 steps, check yes
  max neighbors/atom: 2000, page size: 100000
  master list distance cutoff = 3.8
  ghost atom cutoff = 3.8
  binsize = 1.9, bins = 9 9 9
  1 neighbor lists, perpetual/occasional/extra = 1 0 0
  (1) pair lj/cut, perpetual
      attributes: half, newton on
      pair build: half/bin/atomonly/newton
      stencil: half/bin/3d
      bin: standard
WARNING: Not all mixed pair coeffs generated from mixing. Use write_data with 'pair ij' option to store all pair coeffs. (../write_data.cpp:312)


#############################
#   M E L T   S Y S T E M   #
#############################

velocity all create 2.4 9622624 mom yes dist gaussian # Assign velocities
                                                    # Temperature 2.4, random number seed, zero linear momentum
                                                                                # Gaussian distribution

timestep 0.002   # simulation timestep
thermo 1000       # output thermodynamic data every 1000 steps bf 100

# Define a fix  in this case with index 1 applied to all
# particles in the simulation. This fix is for simulations
# in the anisotropic NPT ensemble. Note that we use the MTK
# correction.
fix 1 all npt temp 2.4 2.4 0.1 iso 5.68 5.68 0.5 mtk yes tchain 5 pchain 5 # Use NPT ensemble
                                                                         # Set temperature and pressure and damping
                                                                         # Numbers of thermostats in chain and in barostat
run 10000          # run for 10000 steps
Per MPI rank memory allocation (min/avg/max) = 3.642 | 3.644 | 3.648 Mbytes
Step Temp E_pair E_mol TotEng Press Volume 
       0          2.4   -7.6169122            0   -4.0178122   -3.1065461         4000 
    1000    2.4202894   -4.6438376            0   -1.0143112    5.6204455    4802.3414 
    2000    2.4269341   -4.6846045            0   -1.0451135    5.5934624    4784.4048 
    3000     2.420593   -4.6869006            0   -1.0569189    5.4634361    4790.6621 
    4000    2.4349529   -4.6287091            0  -0.97719285    5.6059647    4817.5544 
    5000    2.3873063   -4.6402272            0   -1.0601631    5.7199646     4791.316 
    6000    2.4579954   -4.6463659            0  -0.96029455    5.6458809    4796.0469 
    7000    2.3795916   -4.6564304            0   -1.0879354    5.6391044    4788.3384 
    8000    2.4369695    -4.660491            0   -1.0059506    5.8625785    4761.6509 
    9000    2.3205908   -4.6217847            0   -1.1417687    5.6332446     4800.152 
   10000    2.4018107   -4.6437417            0   -1.0419262    5.7614503     4776.708 
Loop time of 2.43671 on 48 procs for 10000 steps with 4000 atoms

Performance: 709152.691 tau/day, 4103.893 timesteps/s
99.3% CPU use with 48 MPI tasks x no OpenMP threads

MPI task timing breakdown:
Section |  min time  |  avg time  |  max time  |%varavg| %total
---------------------------------------------------------------
Pair    | 0.92023    | 0.96956    | 1.0188     |   2.3 | 39.79
Neigh   | 0.19078    | 0.19825    | 0.21274    |   0.9 |  8.14
Comm    | 0.73038    | 0.82336    | 0.89855    |   4.5 | 33.79
Output  | 0.00024063 | 0.00024925 | 0.00031697 |   0.0 |  0.01
Modify  | 0.37626    | 0.4309     | 0.49339    |   4.8 | 17.68
Other   |            | 0.0144     |            |       |  0.59

Nlocal:        83.3333 ave          95 max          74 min
Histogram: 3 3 6 10 9 5 5 5 1 1
Nghost:        1459.08 ave        1480 max        1439 min
Histogram: 3 1 7 5 11 5 7 3 3 3
Neighs:        7970.17 ave        9379 max        6951 min
Histogram: 2 3 7 13 8 5 8 0 1 1

Total # of neighbors = 382568
Ave neighs/atom = 95.642000
Neighbor list builds = 906
Dangerous builds = 209

# Equilibrate just above the melting temperature to avoid step fn in T

fix 1 all npt temp 1.25 1.25 0.1 iso 5.68 5.68 0.5 mtk yes tchain 5 pchain 5
run 2000
Per MPI rank memory allocation (min/avg/max) = 3.642 | 3.644 | 3.648 Mbytes
Step Temp E_pair E_mol TotEng Press Volume 
   10000    2.4018107   -4.6437417            0   -1.0419262    5.7614503     4776.708 
   11000    1.2758057      -6.2209            0   -4.3076699    5.6411494    3958.4363 
   12000    1.2301006    -6.234309            0   -4.3896193     5.674845    3946.6092 
Loop time of 0.471868 on 48 procs for 2000 steps with 4000 atoms

Performance: 732407.838 tau/day, 4238.471 timesteps/s
99.7% CPU use with 48 MPI tasks x no OpenMP threads

MPI task timing breakdown:
Section |  min time  |  avg time  |  max time  |%varavg| %total
---------------------------------------------------------------
Pair    | 0.21357    | 0.2251     | 0.24126    |   1.4 | 47.70
Neigh   | 0.031443   | 0.032815   | 0.034595   |   0.4 |  6.95
Comm    | 0.13581    | 0.16028    | 0.17698    |   2.0 | 33.97
Output  | 4.9821e-05 | 5.0932e-05 | 6.616e-05  |   0.0 |  0.01
Modify  | 0.042599   | 0.049119   | 0.055754   |   1.5 | 10.41
Other   |            | 0.004512   |            |       |  0.96

Nlocal:        83.3333 ave          93 max          77 min
Histogram: 5 6 6 12 4 5 4 1 3 2
Nghost:        1661.19 ave        1679 max        1642 min
Histogram: 1 1 6 4 12 8 5 6 3 2
Neighs:        9665.19 ave       11042 max        8745 min
Histogram: 6 4 10 7 7 3 5 2 2 2

Total # of neighbors = 463929
Ave neighs/atom = 115.98225
Neighbor list builds = 141
Dangerous builds = 7

#############################
# L I N E A R  Q U E N C H  #
#############################

# Define solid atoms. This closely follows ten Wolde  Ruiz-Montero and Frenkel  Faraday Discuss  1996  104  93-110
# Compute components of the per-atom q6 vector
compute q6 all orientorder/atom degrees 1 6 components 6 nnn NULL cutoff 1.3 # compute the Q6 parameter.
                                                                             # Use all neighbours within 1.3 unit cell.

# get number of connections
compute coord_number all coord/atom orientorder q6 0.5

# An atom is solid if it has 8 or more connections (of a possible 14)
variable is_solid atom c_coord_number>=8
group solid dynamic all var is_solid    # Must be dynamic to update
dynamic group solid defined

# do clustering
compute cluster solid cluster/atom 1.3 # Create a cluster where all atoms within are solid and max 1.3 units from another member

# define chunks one chunk per cluster
compute clus_chunks solid chunk/atom c_cluster nchunk every compress yes  # Says which atoms are in which chunk

# count the size of each chunk
compute size_chunks solid property/chunk clus_chunks count


# Find the maximum entry in the vector of chunk sizes
variable max_n equal max(c_size_chunks)


# Thermo style which includes this variable
# thermo_style custom step temp pe vol v_max_n

thermo ${N}  # Print the thermo information every 100 steps
thermo 1000  

# Reset the npt fix at a lower temperature (below freezing)
fix 1  all npt temp  ${temp} ${temp}  0.1  iso  5.68  5.68  0.5  mtk yes tchain  5  pchain  5
fix 1  all npt temp  0.45 ${temp}  0.1  iso  5.68  5.68  0.5  mtk yes tchain  5  pchain  5
fix 1  all npt temp  0.45 0.45  0.1  iso  5.68  5.68  0.5  mtk yes tchain  5  pchain  5

dump dmp2 all dcd ${N} traj.dcd
dump dmp2 all dcd 1000 traj.dcd


compute msd all msd com yes
variable twopoint equal c_msd[4]/6/(step*dt+1.0e-6)
fix 9 all vector 10 c_msd[4]
variable fit equal slope(f_9)/6/(10*dt)
thermo_style custom step temp pe c_msd[4] v_twopoint v_fit v_max_n

fix 1 all npt temp 1.25 ${temp} 0.1 iso 5.68 5.68 0.5 mtk yes tchain 5 pchain 5
fix 1 all npt temp 1.25 0.45 0.1 iso 5.68 5.68 0.5 mtk yes tchain 5 pchain 5
run 5000000 # 5000000  # Run for this many steps
Neighbor list info ...
  update every 1 steps, delay 10 steps, check yes
  max neighbors/atom: 2000, page size: 100000
  master list distance cutoff = 3.8
  ghost atom cutoff = 3.8
  binsize = 1.9, bins = 9 9 9
  4 neighbor lists, perpetual/occasional/extra = 1 3 0
  (1) pair lj/cut, perpetual
      attributes: half, newton on
      pair build: half/bin/atomonly/newton
      stencil: half/bin/3d
      bin: standard
  (2) compute orientorder/atom, occasional
      attributes: full, newton on
      pair build: full/bin/atomonly
      stencil: full/bin/3d
      bin: standard
  (3) compute coord/atom, occasional
      attributes: full, newton on
      pair build: full/bin/atomonly
      stencil: full/bin/3d
      bin: standard
  (4) compute cluster/atom, occasional
      attributes: full, newton on
      pair build: full/bin/atomonly
      stencil: full/bin/3d
      bin: standard
Per MPI rank memory allocation (min/avg/max) = 9.754 | 9.759 | 9.762 Mbytes
Step Temp PotEng c_msd[4] v_twopoint v_fit v_max_n 
   12000    1.2301006    -6.234309            0            0 8.3333333e+20            2 
   13000    1.2532024   -6.2235778   0.55485653 0.0035567725  0.045051406            4 
   14000    1.2623613   -6.2468265    1.1233274 0.0066864721  0.046857519            1 
   15000     1.285364   -6.2620083     1.687763  0.009376461  0.046357178            1 
   16000    1.2441136   -6.2685216    2.2086751  0.011503516  0.046105867            2 
   17000    1.2235585   -6.2542946    2.7137078  0.013302489  0.045502563            3 
   18000    1.2390806   -6.2296799    3.2273876  0.014941609  0.044856676            2 
   19000    1.2373979   -6.2515522    3.7860101  0.016605307  0.044637666            2 
   20000    1.2427128   -6.2107009    4.2953599  0.017897333  0.044642259            3 
   21000    1.2360139   -6.2699157     4.798363  0.019041123  0.044430538            2 
   22000    1.2449717   -6.2976868    5.3207302   0.02015428  0.044210224            4 
   23000    1.2603104   -6.2630633    5.8486853  0.021190888  0.044036554            3 
   24000    1.2556321   -6.2304959    6.4656143  0.022450049  0.043998088            1 
   25000    1.2705297   -6.2731498    7.0318475  0.023439491  0.044252168            3 
   26000    1.2254777   -6.2624578    7.6198616  0.024422633  0.044405306            2 
   27000    1.2582047   -6.2479303    8.3399864  0.025740698  0.044891713            2 
   28000    1.2623742   -6.2904856    9.0274491  0.026867408  0.045494867            2 
   29000    1.2535581   -6.2635082    9.4779023  0.027235351  0.045963536            4 
   30000    1.2390039   -6.2588057    10.058596  0.027940544  0.046200001            1 
   31000      1.22258   -6.2499932    10.568928  0.028411098  0.046384712            4 
   32000    1.2176771   -6.2509894    11.251984  0.029302042  0.046574073            6 
   33000    1.2575837   -6.2877384    11.738455  0.029642562  0.046715351            3 
   34000     1.250028   -6.2360983    12.245193  0.030012729  0.046755967            1 
   35000     1.256799   -6.2408015    12.763884    0.0303902  0.046754267            3 
   36000    1.2517552   -6.2493705     13.30609  0.030801134  0.046672289            5 
   37000    1.2770332   -6.3122078    13.772059   0.03101815  0.046578409            5 
   38000    1.2599336   -6.2793451    14.273244  0.031300973  0.046497013            3 
   39000    1.2521423   -6.2835022    14.686378   0.03138115  0.046389203            3 
   40000    1.2580902   -6.2355559    15.373817  0.032028786  0.046267958            3 
   41000    1.2258193   -6.2902371     15.84212   0.03219943  0.046161979            2 
   42000     1.251599   -6.2646651    16.365362  0.032470956  0.046033946            2 
   43000     1.217559   -6.2943679    16.878078  0.032709454  0.045934592            3 
   44000    1.2494194   -6.2811513    17.373179  0.032903748  0.045824287           10 
   45000    1.2439938   -6.2837874    18.020641  0.033371557  0.045753615            1 
   46000    1.2513678   -6.2847305    18.553692   0.03361176  0.045707083            4 
   47000    1.2637093   -6.2352313    19.110102  0.033883159  0.045656568            2 
   48000    1.2466433   -6.2512974    19.519735  0.033888429  0.045600421            3 
   49000    1.2496517   -6.2398452    20.048261  0.034095681  0.045518387            1 
   50000    1.2466262   -6.2762341    20.359626  0.033932709  0.045410129            2 
   51000    1.2475853   -6.2869952    20.946086   0.03422563  0.045295884            2 
   52000    1.2493792   -6.2725834    21.672439  0.034731472  0.045213058            3 
   53000    1.2416309   -6.2516447    22.130022  0.034795632  0.045166119            3 
   54000    1.2441306   -6.2596162    22.582551  0.034849615  0.045106081            1 
   55000    1.2105786   -6.2463248    22.900113  0.034697141  0.045010117            2 
   56000    1.2215728   -6.2670991    23.255114  0.034605824  0.044887515            3 
   57000     1.253173    -6.272257    23.876366  0.034906967  0.044765023            1 
   58000     1.269147   -6.2200583    24.507228  0.035211534  0.044680491            2 
   59000    1.2682674   -6.2778691    24.964558  0.035260675  0.044605189            1 
   60000    1.2680971   -6.2824529    25.732697  0.035739857  0.044560168            2 
   61000    1.2487468   -6.2363607    26.379732  0.036037885  0.044541316            4 
   62000    1.2306657   -6.2732326    26.954752  0.036229505  0.044547344            1 
   63000    1.2233812   -6.2380093    27.501799  0.036378041    0.0445438            2 
   64000    1.2243851   -6.2295936    28.073756  0.036554369  0.044551812            2 
   65000    1.2695163   -6.2593041    28.480874  0.036513941  0.044554187            3 
   66000    1.2726524   -6.2820284    29.075201  0.036711112  0.044557186            4 
   67000     1.257959   -6.2467147    29.713683  0.036957317  0.044572548            1 
   68000     1.271823    -6.218455    30.220196  0.037034554  0.044586768            3 
   69000      1.22872    -6.315452    30.708627  0.037087714  0.044582583            2 
   70000    1.2566566   -6.2961983    31.226701  0.037174643  0.044583023            6 
   71000    1.2434468   -6.2744532    31.788745  0.037310734  0.044579327            2 
   72000    1.2370493   -6.2468368    32.288748  0.037371236  0.044589139            2 
   73000    1.2450355   -6.2584907    32.940875  0.037603738  0.044606639            1 
   74000    1.2413432   -6.2668659     33.63487  0.037877106  0.044627584            4 
   75000     1.230221    -6.255882    34.331202   0.03814578  0.044662804            1 
   76000    1.2329703   -6.2053101    34.639353  0.037981747   0.04469209            8 
   77000    1.2373922     -6.26632    35.252773  0.038152352   0.04471662            2 
   78000    1.2011983    -6.260428    35.642154  0.038079224   0.04473003            4 
   79000    1.2639681   -6.2608769    36.312091  0.038303893  0.044746182            2 
   80000    1.2316119   -6.3026068    36.790294  0.038323223  0.044766264            1 
   81000    1.2446395   -6.2749189    37.482682  0.038562429  0.044786635            4 
   82000    1.2513267   -6.2184039     38.03886  0.038657378  0.044818167            2 
   83000    1.2270085   -6.2589743    38.561799  0.038716665   0.04484368            6 
   84000    1.2677696    -6.285142    39.055331  0.038745368    0.0448606            2 
   85000    1.2389033   -6.2684375    39.738632  0.038959443  0.044883929            1 
   86000    1.2229583    -6.290863    40.475447  0.039220394  0.044914603            3 
   87000    1.2409587   -6.2809707    40.775042  0.039056554  0.044943663            3 
   88000    1.2536566   -6.2738842    41.454679  0.039256325  0.044971216            1 
   89000    1.2174203   -6.2523348    42.110344  0.039429161  0.044999175            1 
   90000    1.2227378   -6.2598153    42.560911  0.039408251  0.045027707            4 
   91000    1.2398708    -6.242875    43.123001  0.039489927  0.045060975            1 
   92000    1.2430836    -6.261073    43.930321  0.039791958  0.045103802            3 
   93000    1.2677817   -6.2759458    44.398036  0.039783186  0.045149354            5 
   94000    1.2275312   -6.2878922    44.796302  0.039713034  0.045183466            2 
   95000    1.2469181   -6.2870048    45.474176  0.039889628  0.045209993            3 
   96000    1.2226112   -6.2728875    46.004252  0.039934246   0.04523971            2 
   97000    1.2212545   -6.2581973    46.581361  0.040018351  0.045266809            2 
   98000    1.2234271    -6.287562    47.132244  0.040078439  0.045297841            4 
   99000    1.2213414   -6.2800469    47.615437  0.040080334  0.045313931            1 
  100000    1.2124502   -6.2460578    48.000645  0.040000537  0.045325822            5 
  101000    1.2274713   -6.2759685    48.610877  0.040107984  0.045335951            2 
  102000    1.2263397   -6.2688222    48.784945  0.039856981  0.045335802            2 
  103000    1.2350344   -6.2790697    49.364446  0.039938872  0.045330602            7 
  104000    1.2599323   -6.2795854    49.880913   0.03996868  0.045326471            2 
  105000    1.2341426   -6.3164737    50.185305  0.039829607  0.045315658            4 
  106000    1.2314275   -6.2601073    50.560791   0.03974905  0.045297481            4 
  107000    1.2563231   -6.2731656    51.069283  0.039773585  0.045271411            3 
  108000    1.2273932   -6.2795337    51.579615  0.039799085  0.045241478            2 
  109000    1.2081305   -6.2861983    52.166578  0.039882705  0.045213974            3 
  110000    1.2455044   -6.2944949    52.482147  0.039759202   0.04518407            6 
  111000    1.1981597   -6.2667056    52.955134  0.039756106  0.045153083            3 
  112000    1.2147199   -6.2458003    53.655902  0.039922546  0.045125366            3 
  113000    1.2269458   -6.2641268    53.991671  0.039816866  0.045094527            3 
  114000    1.2336978   -6.2669366    54.487488  0.039830035  0.045056753            2 
  115000    1.2141825   -6.2506406    54.971681  0.039834551  0.045021862            1 
  116000    1.2456821   -6.2719614      55.3566  0.039767672  0.044986736            2 
  117000    1.2057865   -6.3181521    55.613242  0.039610571  0.044941566            3 
  118000    1.2332864   -6.2799825    56.320965  0.039774693  0.044897958            3 
  119000    1.2374219   -6.3192038    56.738466  0.039732819  0.044859571            1 
  120000    1.2444916   -6.3325917     57.44145  0.039889896  0.044822846            3 
  121000    1.1938118   -6.2760025    57.890417  0.039869433  0.044792058            4 
  122000    1.2421194   -6.2605104    58.476805  0.039943173  0.044762392            3 
  123000     1.233003    -6.265264      59.0081  0.039978388  0.044727801            2 
  124000     1.247858   -6.3005298    59.350979  0.039886411  0.044694741            2 
  125000    1.2346359   -6.2757843     60.14072  0.040093813   0.04466055            2 
  126000    1.2303296   -6.3036993    60.281565  0.039868759  0.044627794            1 
  127000    1.2255064   -6.2971912    60.893929  0.039956646  0.044592388            3 
  128000    1.2077648   -6.2498398    61.453616  0.040008865  0.044556799            3 
  129000    1.2174604   -6.2801107    62.282618  0.040234249  0.044528449            2 
  130000    1.2335978    -6.316489    62.757818   0.04022937  0.044507308            1 
  131000    1.2368122   -6.3024597    63.265887  0.040245475  0.044485164            1 
  132000    1.2197656   -6.2582056    63.750586  0.040246582  0.044463081            2 
  133000    1.2395243    -6.268925    64.455566  0.040385693  0.044444504            2 
  134000    1.2020546   -6.2800222    64.801105  0.040299194   0.04442521            1 
  135000    1.2502381   -6.2420572    65.304834  0.040311626  0.044406107            3 
  136000    1.2112039   -6.3313594    65.917513  0.040390633  0.044385752            2 
  137000    1.2490548   -6.2412941    66.545286  0.040477668  0.044369406            1 
  138000    1.2072164    -6.255135    67.077189  0.040505549  0.044358463            2 
  139000    1.1996228   -6.2477534    67.402406  0.040409116  0.044338908            3 
  140000    1.1969224   -6.2770693    67.917867  0.040427302  0.044319216            3 
  141000    1.1977794   -6.2644635    68.288115  0.040359406  0.044302617            2 
  142000    1.2090849    -6.284802    68.996159  0.040490703  0.044284144            3 
  143000    1.2232284    -6.265533    69.603663  0.040561575  0.044272942            3 
  144000    1.2242015   -6.2871386    70.080338  0.040555751  0.044262121            2 
  145000    1.2260882   -6.2858339    70.738607  0.040654372  0.044249564            8 
  146000     1.200818   -6.2582977    71.210092   0.04064503  0.044237794            1 
  147000    1.2389414   -6.2376743    72.026905  0.040831579  0.044231329            2 
  148000    1.2174974   -6.3064203    72.225029  0.040667246  0.044224103            2 
  149000    1.2294607   -6.2856723    72.880218  0.040760748  0.044220213            2 
  150000    1.2301195    -6.304726    73.648419  0.040915788  0.044219947            2 
  151000    1.2209623   -6.3244584    73.814378  0.040736411  0.044211561            2 
  152000    1.2414324   -6.2917208    74.320084   0.04074566  0.044202738            1 
  153000    1.2078493   -6.2838818    75.314183  0.041020797  0.044200738            2 
  154000    1.2273972   -6.2316146    75.656264  0.040939537  0.044196892            5 
  155000    1.2088687   -6.2467576     76.09956  0.040913742  0.044192851            1 
  156000    1.2362644   -6.2982937    76.914245  0.041086669  0.044188887            3 
  157000    1.2351264   -6.2999212    76.983722  0.040861848   0.04418228            2 
  158000    1.2389936   -6.3073142    77.264264  0.040751194  0.044174771            2 
  159000    1.2290269   -6.2658332     78.07204   0.04091826  0.044161605            7 
  160000    1.2405662   -6.2814748    78.388826  0.040827513  0.044148703            3 
  161000    1.2109569   -6.3143181    78.735477  0.040753352  0.044135711            2 
  162000    1.2322813   -6.2715841    79.417056  0.040852395  0.044123357            6 
  163000    1.2463443   -6.3274317    79.903715   0.04085057   0.04411212            4 
  164000    1.2381752   -6.2454919    80.444014  0.040876023  0.044104675            1 
  165000    1.2223383   -6.3018201    81.575141  0.041199566  0.044100401            4 
  166000    1.2301366   -6.3132701    81.710189  0.041019171  0.044094915            4 
  167000     1.211471   -6.2895492    82.342994  0.041089318   0.04409466            1 
  168000    1.2324266   -6.3079495    82.874683  0.041108473  0.044092559            3 
  169000    1.2070094   -6.2882262    83.599492  0.041222629   0.04409162            3 
  170000    1.2332303   -6.2728024    84.448349  0.041396249  0.044093962            3 
  171000    1.2272272   -6.3447184    84.536609  0.041197178  0.044096832            2 
  172000    1.2205685   -6.2904985    85.392829  0.041372495  0.044102182            2 
  173000    1.2311518   -6.3105064    86.140323  0.041493412  0.044106395            3 
  174000    1.2034395   -6.2669993     86.78754  0.041564913  0.044109894            1 
  175000    1.2360741   -6.3231303    86.774095  0.041320997  0.044112565            3 
  176000    1.2342117   -6.2953377    87.306532   0.04133832  0.044111556            2 
  177000    1.2322581   -6.2880181    88.152907  0.041503252  0.044114044            3 
  178000     1.263766   -6.2871993    88.564117  0.041462601  0.044112711            3 
  179000    1.2423183   -6.3514488    88.903298  0.041388872  0.044112951            3 
  180000    1.2364078   -6.3265458    89.004896   0.04120597  0.044111387            3 
  181000    1.2317315   -6.3074897    89.579483  0.041242856  0.044106059            3 
  182000    1.2350733    -6.309072     90.34393  0.041366268  0.044101877            2 
  183000    1.2102973   -6.2870091     91.08314   0.04147684  0.044098942            3 
  184000    1.2338997   -6.2995453    91.361358  0.041377426  0.044092614            1 
  185000    1.2420086   -6.2790639    91.882704  0.041388605   0.04408622            1 
  186000    1.1943044    -6.318103    92.355192  0.041377774  0.044079188            5 
  187000    1.2508627   -6.3210156    92.203842  0.041089056   0.04406795            2 
  188000    1.2527137   -6.3340905    92.783443  0.041127413  0.044058836            4 
  189000    1.2146712    -6.270272    94.114513  0.041496699  0.044049591            2 
  190000    1.2154235   -6.3097034    94.398357  0.041402788  0.044045324            6 
  191000    1.2259939   -6.3000083    94.790101  0.041356937  0.044038744            4 
  192000    1.2006893   -6.2950323    95.027103  0.041244402  0.044032024            5 
  193000    1.2261895   -6.2878273    95.897574  0.041406552   0.04402369            2 
  194000    1.2066476   -6.2825854    96.576737  0.041484853  0.044016353            2 
  195000    1.2139888   -6.3211887    96.940344  0.041427497  0.044013365            3 
  196000    1.2028729   -6.2861278    97.737769  0.041555174  0.044009855            2 
  197000    1.2166927   -6.2826253    98.281402  0.041574197  0.044006824            2 
  198000    1.2395088   -6.3302666    98.519163  0.041464294  0.044002425            2 
  199000    1.2125158   -6.3455036    99.050396   0.04147839  0.043996713            2 
  200000    1.2102983   -6.3166647    99.239595  0.041349831  0.043992045            3 
  201000    1.2325692   -6.3046748    99.811554  0.041381241  0.043983793            1 
  202000    1.2409141   -6.2765578    100.22056  0.041345115  0.043975232            2 
  203000    1.2153807   -6.2742274    100.69639  0.041336778  0.043966347            1 
  204000    1.1943208   -6.2993204    101.08569  0.041293174  0.043955614            2 
  205000    1.2230706   -6.2853285    101.83378  0.041395844  0.043946667            3 
  206000    1.2092488   -6.2888628    101.99051  0.041258299  0.043936199            6 
  207000    1.2005354   -6.3068323     102.6684  0.041331884  0.043927181            1 
  208000     1.218924   -6.3464877    102.82869  0.041197393  0.043915239            5 
  209000    1.2109785   -6.3422194    103.09289  0.041105619  0.043901868            3 
  210000    1.2263315   -6.2965323    103.84891  0.041209886   0.04388964            3 
  211000    1.1951276   -6.2886094    104.54032  0.041287646  0.043877755            1 
  212000    1.2315925   -6.3300932     105.2864  0.041386161  0.043868941            4 
  213000    1.2297232   -6.3150981    105.78095  0.041385347  0.043859956            5 
  214000    1.1881525   -6.2823097    106.65425  0.041532028  0.043852818            3 
  215000    1.2072993   -6.3085383    106.84662  0.041413418  0.043846044            2 
  216000    1.2299142   -6.2586938    107.69351   0.04154842    0.0438387            1 
  217000    1.2308848    -6.321529    108.20051  0.041551657  0.043832393            2 
  218000    1.2182831   -6.3277927    108.53333  0.041488276  0.043826802            4 
  219000    1.2116744    -6.299769    109.34006  0.041605805  0.043822728            1 
  220000    1.2336974   -6.3019956     109.4513  0.041458825  0.043815764            2 
  221000    1.1964341   -6.3024706    109.85873   0.04142486  0.043809522            3 
  222000    1.2128017   -6.3448481    110.67846  0.041545967  0.043803919            3 
  223000    1.2246324    -6.281949    111.30363  0.041593284  0.043796679            1 
  224000    1.2386701     -6.30819    111.82609  0.041601966  0.043789605            3 
  225000    1.2097808   -6.3093639    112.78253  0.041771308  0.043783913            2 
  226000    1.2072737   -6.2910779    112.54265  0.041498026  0.043777759            2 
  227000    1.2126493   -6.3276832    112.80058  0.041409904  0.043770427            2 
  228000    1.2235312   -6.3471141     114.0561   0.04168717  0.043763096            2 
  229000    1.2145375   -6.3044392    114.02882  0.041495202  0.043755898            2 
  230000    1.2232517   -6.3001359     114.7802   0.04158703  0.043750543            1 
  231000    1.2168487   -6.3276816    115.16258  0.041544941  0.043745081            2 
  232000     1.208554   -6.3230818    115.37145  0.041440893  0.043739259            4 
  233000    1.2146547     -6.32459    115.79161  0.041413307  0.043733771            3 
  234000    1.2197155    -6.297827    116.67175  0.041549769  0.043728326            3 
  235000    1.2515003   -6.3296332    116.80597  0.041420556  0.043722527            3 
  236000    1.2144101   -6.2769278    117.67159  0.041550702  0.043716646            5 
  237000    1.2214774   -6.3002288    117.87453  0.041446741  0.043710062            7 
  238000    1.2168731   -6.3274654    117.85343  0.041265206  0.043698138            2 
  239000    1.2305826   -6.2968632    118.84541  0.041438427  0.043685975            6 
  240000    1.2053353   -6.3030246    119.06629   0.04134246  0.043674929            3 
  241000    1.2239427   -6.3301943    119.82515  0.041433317  0.043666358            2 
  242000    1.2044963   -6.3014393    120.46046  0.041480874  0.043658562            3 
  243000     1.191846   -6.2684717    121.13733  0.041542295   0.04364898            2 
  244000       1.2105    -6.310576    121.03875  0.041338372  0.043637954            2 
  245000    1.1852562   -6.3162968     121.7884  0.041424627  0.043627789            2 
  246000    1.2454834    -6.316174    122.34737  0.041445585  0.043620709            1 
  247000    1.1786466   -6.3344268    122.93416  0.041475764  0.043614441            2 
  248000    1.1965665   -6.2627017    124.14389  0.041715015   0.04360745            4 
  249000    1.2167062   -6.3240415    124.51582   0.04167196  0.043602742            1 
  250000    1.2145789    -6.316746    124.91991  0.041639972  0.043600858            2 
  251000    1.2601216    -6.307272    125.32536  0.041608686  0.043598077            4 
  252000    1.2275396   -6.3227761    126.17155  0.041723395  0.043593348            3 
  253000    1.2368832   -6.3236325    126.44752  0.041649381  0.043588499            3 
  254000    1.2176917   -6.3309043    127.01322  0.041671004  0.043584793            3 
  255000    1.2191605   -6.2926844    127.82572  0.041773111  0.043580199            3 
  256000    1.2109675    -6.297045    127.80217  0.041602269  0.043576298            1 
  257000    1.2189768   -6.3157265    128.90292  0.041797317  0.043572361            4 
  258000    1.2108197     -6.32575    128.89471  0.041632659   0.04356892            2 
  259000     1.208729   -6.3215552    129.63824  0.041711145  0.043564568            2 
  260000     1.206427   -6.3025889    129.74193  0.041583952  0.043559196            1 
  261000    1.2214336   -6.3250785    130.85272  0.041779284   0.04355603            2 
  262000    1.2129189   -6.3258773    131.18241  0.041724685  0.043553273            5 
  263000    1.2059516   -6.3122351    131.46517  0.041655631   0.04354987            2 
  264000    1.2168258   -6.3166252    132.56823  0.041846031  0.043546053            4 
  265000    1.2178867    -6.320116    132.77174  0.041752118  0.043542283            7 
  266000    1.2008446   -6.2825572    133.10077  0.041698238  0.043536606            4 
  267000    1.2000677   -6.3326685     133.3616  0.041623471  0.043531105            2 
  268000    1.1958407   -6.3281029    134.08046  0.041691684  0.043525741            3 
  269000    1.2348835   -6.3326048    134.46812  0.041656792  0.043520804            1 
  270000    1.1978022   -6.3044965    135.37579   0.04178265  0.043517279            3 
  271000    1.2188531   -6.3135647    135.80733  0.041761172  0.043515172            1 
  272000    1.1873517   -6.3166831    136.19517  0.041726462  0.043511312            3 
  273000    1.2151656   -6.3265395    136.62351  0.041704367  0.043507435            5 
  274000    1.2042551   -6.3264838    137.20046  0.041727633  0.043503021            3 
  275000    1.2397465   -6.3030121    137.29406  0.041604259  0.043498433            3 
  276000    1.1936724   -6.2976197    138.52151  0.041824126  0.043494671            2 
  277000    1.2151548   -6.3551727     138.6117  0.041700271  0.043489975            3 
  278000    1.2289286   -6.3105543    138.98215  0.041661316  0.043484457            2 
  279000    1.2029191   -6.3209911    139.24799  0.041591395   0.04347801            2 
  280000    1.2222867   -6.3458927    139.88183  0.041631497  0.043470806            2 
  281000     1.192648   -6.3688358    140.58979  0.041693296  0.043463186            3 
  282000    1.2210191    -6.331895    141.29546  0.041753979  0.043458046            3 
  283000    1.2107977   -6.3145235    142.07633  0.041836376  0.043454558            3 
  284000    1.1941968   -6.3459887    142.14806   0.04171011  0.043450551            2 
  285000    1.2340102   -6.3474119    142.55377  0.041682389  0.043445518            1 
  286000    1.2100842   -6.3050805    143.44189  0.041795424  0.043441735            2 
  287000    1.2120112   -6.3572182    143.71883  0.041730205  0.043437193            2 
  288000    1.2281535   -6.3575989    144.04016  0.041678288  0.043431286            2 
  289000    1.2062443   -6.3253719    144.74602  0.041737607  0.043425947            1 
  290000    1.2159869   -6.3199997    145.25487  0.041739905  0.043420859            3 
  291000    1.1979181   -6.3447479    145.06054   0.04154082   0.04341563            2 
  292000    1.2031473   -6.3877611    145.32925  0.041475242  0.043408932            2 
  293000    1.2086977   -6.3235217    146.41501  0.041642494   0.04340224            3 
  294000    1.2059136   -6.3556854    146.24436  0.041452482   0.04339417            7 
  295000    1.2120867   -6.3407307    147.05525  0.041541032  0.043385828            1 
  296000    1.1927796   -6.3612035    147.29874   0.04146924  0.043376846            3 
  297000    1.2107306   -6.3253148    148.24111  0.041594025  0.043367659            3 
  298000    1.2028901   -6.2749137    149.18431  0.041718209   0.04335889            4 
  299000    1.2036178   -6.3114474    148.71222  0.041447107  0.043350901            2 
  300000    1.2179459   -6.3145707    149.62532  0.041562588  0.043342589            5 
  301000    1.1979753   -6.3255621    150.06276  0.041545615  0.043334698            1 
  302000    1.1853508   -6.3268217    150.27934   0.04146781  0.043326494            4 
  303000    1.2030271   -6.3033576    151.27807   0.04160563   0.04331885            1 
  304000    1.2154794    -6.296532    151.17706  0.041441079  0.043309745            3 
  305000    1.1899378   -6.3398887    151.84928  0.041488874  0.043299788            6 
  306000    1.1945337   -6.3612928    151.69479  0.041311216  0.043289277            2 
  307000    1.1961252   -6.3215447    153.03179  0.041539574  0.043278565            2 
  308000    1.1970547   -6.3054937    153.32125  0.041483021  0.043266629            3 
  309000    1.2099776   -6.3156649    153.66369  0.041441124   0.04325561            3 
  310000    1.2081209   -6.3060651     154.0289  0.041405618  0.043242547            1 
  311000    1.2270729   -6.3133931    154.09174  0.041289319  0.043229002            3 
  312000    1.2071758   -6.3423715    154.76604  0.041337083  0.043216122            2 
  313000    1.2048089    -6.362551    155.34651  0.041359561  0.043203505            1 
  314000    1.2247294     -6.33651    155.56277  0.041285235  0.043192729            2 
  315000    1.1925735   -6.3046336    156.73616  0.041464591  0.043182823            3 
  316000    1.2028109   -6.3433779    157.40533  0.041509844  0.043174439            3 
  317000    1.2110594   -6.3270394    157.67426  0.041449595  0.043166384            2 
  318000    1.2043486   -6.3186672    157.77867  0.041346613  0.043156443            3 
  319000    1.2058102    -6.337309    158.08654  0.041297425  0.043148135            3 
  320000    1.2222408    -6.330941    159.26311  0.041474769  0.043139683            3 
  321000    1.1889252    -6.313004    160.41882  0.041645592  0.043132101            3 
  322000    1.2136344   -6.3337204    160.30033  0.041485593  0.043124699            3 
  323000    1.1885407   -6.3502433    161.36391  0.041631555  0.043117648            3 
  324000    1.1861274   -6.3526428    161.87624  0.041634835   0.04311065            2 
  325000    1.2139714   -6.3658016    162.42768  0.041648122  0.043103795            2 
  326000    1.2163697   -6.3799089    162.46105  0.041528897  0.043097909            5 
  327000    1.2085994   -6.3421185    163.24309  0.041601195  0.043090523            3 
  328000    1.2167473   -6.3416502    163.55333  0.041553184  0.043084471            1 
  329000    1.1661249   -6.3479198    163.57147  0.041431478  0.043078493            3 
  330000     1.160303   -6.2903297    165.25321  0.041730608  0.043073846            1 
  331000    1.1965102   -6.3636253    165.33543  0.041625234  0.043069174            2 
  332000    1.1935384   -6.3471907    165.67063  0.041583994  0.043064247            6 
  333000    1.2321344   -6.3650972    166.14229   0.04157715  0.043058577            6 
  334000    1.1868513   -6.3285279    166.39342  0.041515324  0.043051885            1 
  335000    1.1900285   -6.3297441    166.63818  0.041452285  0.043045312            3 
  336000      1.18701   -6.3088004    167.89415  0.041640414  0.043039248            5 
  337000    1.1890901    -6.336774    167.93151  0.041526091  0.043032698            2 
  338000    1.1955287   -6.3123738    168.60678   0.04156972    0.0430258            3 
  339000     1.217166    -6.337951    169.49951  0.041666545   0.04301968            3 
  340000    1.1824946   -6.3616578    169.20891  0.041472772  0.043013146            3 
  341000    1.1895144   -6.3528625    169.71131  0.041473926  0.043005923            5 
  342000    1.1686987   -6.3072697    170.50409  0.041545831   0.04299835            2 
  343000    1.1680449   -6.3702672    170.37291  0.041392836  0.042989009            5 
  344000    1.2255784   -6.3260054    171.09969  0.041448567   0.04298038            1 
  345000     1.211266     -6.33467    170.60899  0.041209901  0.042970135            2 
  346000    1.1988063   -6.3487024    171.28672  0.041254028    0.0429595            3 
  347000    1.1752345   -6.3519603    172.53709  0.041435421  0.042948271            5 
  348000    1.2324076   -6.3323007    172.77828  0.041374109  0.042938461            2 
  349000    1.1864909   -6.3719711    173.15084  0.041344518   0.04292898            2 
  350000    1.1680845   -6.3224863    174.28384  0.041496152  0.042920978            2 
  351000    1.1810836   -6.3018782    174.95593  0.041537494  0.042913174            3 
  352000    1.2107828   -6.3055516    175.49924  0.041548115  0.042906322            3 
  353000      1.20624   -6.3503974    175.84172  0.041511266  0.042899474            1 
  354000    1.1881869   -6.3722904    176.28036  0.041497259  0.042892818            3 
  355000    1.1867973   -6.3401626    176.72321  0.041484321  0.042885644            4 
  356000    1.2146669   -6.3710775    177.17047  0.041472487  0.042879089            2 
  357000    1.1945813   -6.3570571    178.35378  0.041632536  0.042872956            4 
  358000    1.1839345   -6.3208204    178.53978  0.041559539  0.042866356            5 
  359000     1.199907   -6.3732208    178.47524  0.041428793  0.042861024            2 
  360000    1.1818872   -6.3576826    179.49559  0.041549905  0.042855319            5 
  361000    1.1769975   -6.3475847    180.17985  0.041592762  0.042850034            2 
  362000    1.2009389   -6.3668794    180.56226  0.041565898  0.042844814            2 
  363000    1.1754927   -6.3267642    181.35538  0.041633467  0.042839064            4 
  364000    1.1888478   -6.3295533    181.53501  0.041560212  0.042833428            8 
  365000    1.1815446   -6.3288722    182.16107  0.041589285  0.042829223            2 
  366000    1.1851319    -6.371607    182.79987  0.041621101  0.042824797            2 
  367000    1.1733248   -6.3246502     183.3653   0.04163608  0.042819474            2 
  368000    1.1963528   -6.3361648    183.97613  0.041661262  0.042814386            1 
  369000    1.1904938   -6.3586298    184.33614  0.041629662  0.042809507            4 
  370000    1.1886217    -6.357748    183.76942  0.041389508   0.04280331            3 
  371000    1.1865907   -6.3392513    185.01122  0.041556877  0.042797638            3 
  372000    1.2246767    -6.340361    184.69339  0.041373967  0.042791309            3 
  373000    1.1680516   -6.3373169    185.87921  0.041527974  0.042784384            1 
  374000    1.1865859   -6.3197606    185.84456  0.041409216  0.042776485            2 
  375000    1.1874679   -6.3230098    185.86677  0.041303728  0.042767691            2 
  376000    1.1870042   -6.3711725    186.42047  0.041316593  0.042759364            3 
  377000    1.1834059   -6.3316162    186.34563  0.041190457  0.042750797            3 
  378000    1.1799798   -6.3661033    186.94976  0.041214673  0.042741628            2 
  379000    1.2026729   -6.3401497    188.04033   0.04134572  0.042732564            2 
  380000    1.2088777   -6.3590739    187.82932  0.041190639  0.042722831            1 
  381000    1.1935033   -6.3130097    188.73652  0.041280953  0.042713849            1 
  382000    1.1893258   -6.3620095    188.85774  0.041199332  0.042704146            3 
  383000    1.1650092   -6.3449277    189.69874  0.041274747  0.042695043            2 
  384000     1.196922   -6.3171995    190.66485  0.041376919  0.042686674            3 
  385000    1.1941728   -6.3312365     190.9545  0.041332142   0.04268014            3 
  386000    1.1596182   -6.3683769    191.88411  0.041425757  0.042672722            4 
  387000      1.20754   -6.3926575    191.71207  0.041281668  0.042665388            3 
  388000    1.1687834   -6.3439595    191.95364  0.041227156  0.042656922            4 
  389000    1.1963312   -6.3601014    191.93423  0.041117016  0.042647012            4 
  390000    1.2053842   -6.3649636    192.08133  0.041043019  0.042636475            3 
  391000    1.1850382   -6.3441155    193.35463  0.041209427  0.042626592            2 
  392000    1.2265247   -6.3591517     193.9419  0.041229145  0.042617539            3 
  393000    1.1857363   -6.3525273    194.93452  0.041334716  0.042610118            3 
  394000    1.1892536   -6.3312057    195.58591  0.041367578  0.042602403            3 
  395000    1.2003159    -6.314472    195.86321  0.041321353  0.042594882            3 
  396000    1.1980305   -6.3602222    196.30212  0.041309368  0.042586014            4 
  397000    1.1774145   -6.3394592    196.44605  0.041235526  0.042578904            2 
  398000    1.1978223   -6.3725406    197.08982  0.041266712  0.042571289            6 
  399000    1.1905718    -6.350482    197.98239  0.041349704  0.042564173            3 
  400000    1.1974662   -6.3878188    198.50883  0.041356007  0.042557073            2 
  401000    1.1912415   -6.3551623    198.81708  0.041316933  0.042550671            3 
  402000    1.2224212   -6.3660863    199.94171  0.041447287  0.042544855            1 
  403000    1.1733704   -6.3698994    199.77805  0.041310598  0.042538761            3 
  404000     1.214373   -6.3634832    200.51632  0.041360627  0.042532792            1 
  405000    1.1893202    -6.367614    201.81816   0.04152637  0.042528523            3 
  406000    1.2092745   -6.3196588    202.27244  0.041517333  0.042523504            2 
  407000    1.1968087   -6.3696755    202.10352  0.041380736   0.04251844            3 
  408000    1.1794085   -6.3238796    202.79169  0.041419872  0.042513053            3 
  409000    1.2195115   -6.3875079     202.7033  0.041300592  0.042507829            2 
  410000    1.1716931   -6.3747721    202.85865  0.041231434  0.042501132            2 
  411000    1.1895365   -6.4255905    203.21674  0.041203719  0.042494061            2 
  412000    1.2028088   -6.3481918    204.20109   0.04130281  0.042487643            2 
  413000    1.1860154   -6.3630474    205.19941   0.04140424  0.042481253            1 
  414000    1.1952072   -6.3626174     204.9382   0.04125165  0.042475823            2 
  415000    1.1717876   -6.3731294    206.03018  0.041371523  0.042470757            2 
  416000    1.1667948   -6.3890603     205.7411  0.041214162  0.042464539            3 
  417000    1.1735835   -6.3612735    205.99891  0.041166849  0.042457773            2 
  418000    1.2160238    -6.352578    207.56101  0.041379787  0.042451071            2 
  419000    1.2045512   -6.3709962    207.54972  0.041278783  0.042444393            5 
  420000    1.1736381   -6.3887172    207.58469  0.041187438  0.042436978            2 
  421000    1.1829995    -6.404781    207.90243  0.041152499   0.04243082            4 
  422000    1.1720405   -6.3684704    208.75543  0.041223426  0.042424369            2 
  423000    1.2095854   -6.3957427    208.12026  0.041000839  0.042416245            3 
  424000    1.1549553   -6.3650606    209.18332  0.041113074  0.042407895            2 
  425000    1.2079102     -6.37347    210.06712  0.041189632  0.042399942            2 
  426000    1.1888881   -6.3734563    209.71462  0.041023987  0.042390848            4 
  427000    1.1771019   -6.3740309    211.61851  0.041299474  0.042383059            5 
  428000    1.2085993    -6.361968    211.91364  0.041260443  0.042376218            2 
  429000    1.1718968   -6.3659005     212.2272  0.041225174  0.042368661            2 
  430000    1.1516662   -6.3490343    213.01284  0.041281559  0.042361673            7 
  431000    1.1927493   -6.3899095    212.25218  0.041038704  0.042353612            2 
  432000    1.1940507    -6.396763    212.78193  0.041045898  0.042345276            4 
  433000    1.2157518   -6.3589621    213.68916  0.041125705  0.042336657            2 
  434000    1.1766715   -6.3853878    213.05825  0.040909802  0.042327415            2 
  435000    1.2079667   -6.3139062    214.95521  0.041179158  0.042319072            5 
  436000    1.2015947   -6.3704086    214.55163  0.041007575  0.042310321            1 
  437000    1.1875525   -6.3686773    214.83651   0.04096806  0.042299508            6 
  438000    1.1881723   -6.4099874    214.95265  0.040896623  0.042288291            3 
  439000    1.1877346   -6.3900967    215.31079  0.040871449  0.042276685            3 
  440000     1.170397   -6.3687713    215.81419  0.040873899  0.042265454            3 
  441000    1.2222025   -6.3434923    215.70969  0.040761468  0.042254077            3 
  442000    1.1869746   -6.3317101    216.02832  0.040729322  0.042242174            4 
  443000    1.1829806   -6.3853036    216.24362  0.040677882    0.0422303            3 
  444000    1.1806581   -6.4059547    217.17812  0.040761659  0.042218042            3 
  445000    1.1806453   -6.4109026    217.36688  0.040705409  0.042206382            4 
  446000    1.1870031   -6.3895463    217.65652  0.040668258  0.042194473            2 
  447000    1.1924335   -6.3914066     218.5762  0.040748732  0.042183383            2 
  448000    1.2009137   -6.3590756    219.41732  0.040814234  0.042171938            3 
  449000    1.1851232   -6.3539984    219.46226  0.040731674  0.042160359            3 
  450000    1.1875551   -6.3381786    220.83072  0.040894577  0.042148865            3 
  451000     1.196875   -6.3770594    220.53375   0.04074903  0.042136581            5 
  452000    1.2098638   -6.3872813    220.61654  0.040674141  0.042124517            6 
  453000    1.1868511   -6.3340952    222.29847  0.040893758  0.042112466            2 
  454000    1.1851092   -6.3952398    221.78884  0.040710139  0.042100883            3 
  455000    1.1641303   -6.3650065    221.55363  0.040577587  0.042088633            3 
  456000    1.1913185   -6.3520783    222.72469  0.040702612  0.042076554            1 
  457000    1.1695709   -6.3830033     222.9648   0.04065733  0.042065073            6 
  458000    1.1749604   -6.3825376    223.50727  0.040667261  0.042053723            5 
  459000    1.2080269   -6.3772507    224.53503  0.040765257  0.042042701            2 
  460000    1.1717168   -6.3561033    224.75962  0.040717322  0.042031026            2 
  461000    1.1750963   -6.3952528    224.89247  0.040653013  0.042020165            2 
  462000    1.1594737   -6.3372916    225.74932  0.040719575  0.042008894            3 
  463000    1.1752331   -6.3690542    225.66449  0.040616359  0.041998197            3 
  464000    1.1849701   -6.3830722    225.61232  0.040519455  0.041986929            2 
  465000    1.1852905   -6.3545458     227.2398  0.040723978  0.041975727            2 
  466000    1.1801869   -6.3959398    226.70719  0.040541342  0.041964448            2 
  467000    1.1820139   -6.3952776    227.40468  0.040578994  0.041953886            2 
  468000    1.1694752   -6.3862357    228.22931  0.040639122  0.041942826            4 
  469000    1.1751715   -6.3910111    228.49721  0.040600072  0.041931656            3 
  470000    1.1673544   -6.4120755    228.74636  0.040557866  0.041920027            2 
  471000    1.1857653   -6.3561279    229.52961  0.040610334  0.041908051            2 
  472000     1.182538   -6.3874815    229.50494   0.04051994  0.041897162            3 
  473000    1.1798932   -6.3583502    229.62551  0.040455516  0.041885652            2 
  474000    1.1821771   -6.3567844    231.14932  0.040638066  0.041873534            2 
  475000    1.1569193   -6.3555897     231.4456  0.040604491  0.041861609            2 
  476000    1.1555938   -6.4032483     231.1999  0.040476174  0.041849156            4 
  477000    1.1543504   -6.3994702    231.07601  0.040369674  0.041837428            4 
  478000    1.1546603   -6.3760286    231.96598  0.040440372   0.04182519            3 
  479000    1.1756713   -6.3931583    232.84874  0.040509524   0.04181375            2 
  480000    1.1700901   -6.3634217     232.9499  0.040442692  0.041802244            2 
  481000    1.1893785   -6.3661765    233.18471  0.040399292   0.04179004            2 
  482000    1.1668339   -6.3933739    233.91238  0.040441283  0.041777832            2 
  483000    1.1917134   -6.3708781     234.7114  0.040495411  0.041766087            6 
  484000    1.1604709   -6.3801278    234.38764  0.040355999  0.041754207            3 
  485000    1.1884336   -6.3593204    234.67845  0.040322758  0.041741971            1 
  486000     1.145501   -6.4022099    235.30714  0.040347589  0.041729878            3 
  487000    1.1563024   -6.4121982    235.22371  0.040250464   0.04171736            3 
  488000    1.1787471   -6.3991829    236.96368   0.04046511  0.041705648            6 
  489000    1.1872844   -6.3770372    237.37345  0.040452189  0.041693879            1 
  490000    1.1936491   -6.3680563    237.18239  0.040337142  0.041682201            3 
  491000    1.1608418   -6.3685532    237.91549  0.040379411  0.041669979            3 
  492000    1.1552377   -6.3910361    237.69881  0.040260638  0.041657544            3 
  493000    1.1821648   -6.3692335    238.40943  0.040299092   0.04164526            3 
  494000    1.1470086   -6.3798067    238.63216  0.040255088  0.041632281            6 
  495000    1.1684557   -6.3936553    238.92268  0.040222674   0.04161817            3 
  496000    1.1775937   -6.3801911     239.6134  0.040257628  0.041604471            2 
  497000    1.1631414   -6.4056883    239.56448  0.040168423  0.041590971            5 
  498000    1.1813256   -6.3712553    240.40849  0.040228998  0.041577655            3 
  499000    1.1829379   -6.3702472    241.28998  0.040295587   0.04156434            4 
  500000    1.1773231   -6.3665711    241.53773  0.040256288  0.041551197            3 
  501000    1.1761207   -6.3704647    241.51351  0.040171908  0.041537214            2 
  502000    1.1573833   -6.4119988    241.79066  0.040137892  0.041524302            2 
  503000    1.1897286    -6.399974    241.88688  0.040074035  0.041510538            2 
  504000    1.1951201   -6.3893163     243.8094    0.0403124  0.041497348            2 
  505000    1.1733331   -6.4213875    243.11862  0.040118584   0.04148516            3 
  506000    1.1814233   -6.3901825    243.53257  0.040107472  0.041472234            3 
  507000    1.1890494    -6.402986    244.36907  0.040165856  0.041458766            3 
  508000    1.1543486   -6.4106507    244.57689  0.040120881   0.04144583            2 
  509000    1.1648615   -6.3481736    244.75058  0.040070494  0.041433039            2 
  510000    1.1507032   -6.3416461    246.45143  0.040269842  0.041421041            2 
  511000    1.1620203   -6.3922804    245.48052    0.0400327  0.041408696            4 
  512000    1.1681318   -6.4031167    246.40273  0.040104611  0.041395886            1 
  513000    1.1999748    -6.363045    247.03676  0.040129427  0.041383665            1 
  514000    1.1624551   -6.3562696    247.04174  0.040052162   0.04137048            4 
  515000    1.1605782   -6.3508062    247.86817  0.040108117  0.041357214            1 
  516000    1.1821174   -6.3710992    247.90718   0.04003669  0.041344598            2 
  517000    1.1818006   -6.3693569    249.02127  0.040138826  0.041331999            4 
  518000    1.1910128   -6.4407492     248.3448  0.039952509  0.041319551            2 
  519000    1.1746907    -6.383122    249.52607    0.0400652  0.041307699            1 
  520000    1.1477175   -6.4012403    250.70692  0.040177391   0.04129537            3 
  521000    1.1805714    -6.400443     250.4598  0.040060749  0.041283326            2 
  522000    1.1664106   -6.4091664    250.93863  0.040060445  0.041271344            5 
  523000    1.1901782   -6.4210817    250.88319  0.039975014  0.041259207            1 
  524000    1.1413467   -6.3798511    251.40636  0.039981927  0.041247235            3 
  525000    1.1858444   -6.4146183     251.3182  0.039891778  0.041235224            3 
  526000    1.1598714   -6.4076202    252.53573  0.040008829  0.041223084            4 
  527000    1.1673952   -6.4114978    253.76386  0.040127113  0.041211083            5 
  528000    1.1610903   -6.4172673    253.69398  0.040040085  0.041199427            2 
  529000    1.1820871   -6.4040767    254.07236  0.040024001  0.041187459            3 
  530000    1.1907316   -6.3939607    254.82694  0.040067128  0.041176651            1 
  531000    1.1845452   -6.3519108    255.27938  0.040062677  0.041165744            3 
  532000    1.1887995   -6.3915537    255.44436  0.040013214  0.041155095            3 
  533000    1.1737754   -6.4010929    254.94846   0.03986061  0.041142857            3 
  534000    1.1440331   -6.4104905    255.66529   0.03989783  0.041130517            3 
  535000    1.1695394    -6.406565    256.54478  0.039960246  0.041119268            1 
  536000    1.1339375   -6.4105265    256.89882  0.039940738  0.041107773            1 
  537000    1.1661665    -6.376971    258.54118  0.040121226  0.041096977            2 
  538000    1.1575998   -6.4387164    258.06181  0.039972399  0.041086227            2 
  539000    1.1946356   -6.3817844    259.58939  0.040134414  0.041076158            4 
  540000    1.1935346    -6.363434    260.76646  0.040241738  0.041066387            1 
  541000    1.1720932   -6.3919911    259.57483  0.039983801  0.041056259            9 
  542000    1.1602305   -6.4241799    260.35084  0.040029343  0.041046404            2 
  543000    1.1683276   -6.3709107    261.32559  0.040105216  0.041037348            3 
  544000    1.1414783   -6.3892331    262.13152   0.04015495  0.041028203            1 
  545000    1.1670151   -6.4026226    261.92277  0.040049353  0.041018883            2 
  546000     1.156542   -6.3728714    262.41783  0.040051561  0.041010076            3 
  547000    1.1844788   -6.3838305    263.06176  0.040076441  0.041000885            2 
  548000    1.1760387   -6.3702875     263.4218   0.04005806  0.040991541            2 
  549000    1.1801978   -6.3827897    263.75972  0.040036388  0.040981751            1 
  550000    1.1732443   -6.3941141    263.68551  0.039952351  0.040972181            3 
  551000    1.1739481   -6.4121838    264.06094  0.039936621  0.040961764            3 
  552000    1.1597596    -6.397639    265.12936  0.040025568  0.040951489            2 
  553000    1.1484911   -6.4280007    264.88729   0.03991671  0.040941129            3 
  554000    1.1402495    -6.390831    265.01742  0.039864232  0.040930837            5 
  555000    1.1547124   -6.4300098    265.68217  0.039892217  0.040921189            2 
  556000    1.1772873   -6.4001791    267.68609  0.040120817  0.040912184            2 
  557000    1.1611949    -6.409831    267.32547  0.039994834  0.040903405            3 
  558000    1.1784298   -6.4217241    267.74796  0.039986255  0.040894127            2 
  559000    1.1744883   -6.3824874    268.98552  0.040099213  0.040885514            2 
  560000    1.1572094   -6.3866983     268.7376  0.039990715  0.040876789            2 
  561000    1.1787517   -6.4221996    268.89998  0.039943551  0.040867711            3 
  562000    1.1758137   -6.4199344    268.75549  0.039851051  0.040857921            2 
  563000     1.174957   -6.3730895    270.13739  0.039984811  0.040848421            4 
  564000    1.1833753   -6.4085153    269.96041  0.039887768  0.040838998            1 
  565000    1.1621386   -6.4272163    270.81125  0.039942662  0.040829505            3 
  566000    1.1512628   -6.3999465    270.80842  0.039871675   0.04081979            5 
  567000    1.2008847    -6.377307    271.45284  0.039896067   0.04080996            2 
  568000    1.1784226    -6.429182    271.88382  0.039889057  0.040799773            4 
  569000    1.1687875   -6.3705148    271.66724  0.039787235  0.040789351            3 
  570000    1.1573135   -6.4123865    271.83696  0.039742246  0.040779244            2 
  571000    1.1721629   -6.3912003    272.93294  0.039832595  0.040768685            5 
  572000    1.1414957    -6.426676    272.76486   0.03973847  0.040757775            2 
  573000    1.1443012   -6.3989038    273.75772  0.039813514  0.040747641            4 
  574000    1.1628742   -6.4006377    274.42643  0.039841235  0.040737278            4 
  575000    1.1595237   -6.4312732    274.65239  0.039804694  0.040727156            3 
  576000    1.1710611    -6.384665    275.32451  0.039832829  0.040716984            2 
  577000    1.1524667   -6.4071761    275.56569  0.039798626  0.040706926            4 
  578000    1.1606925   -6.4033425    275.01301  0.039650088  0.040697064            1 
  579000     1.153864   -6.3573514    276.75789  0.039832742  0.040687742            1 
  580000    1.1887275   -6.4250963    276.15738  0.039677785  0.040677574            2 
  581000    1.1626258   -6.4013076    277.38744  0.039785921  0.040667513            4 
  582000    1.1553336   -6.4049076    278.16464  0.039828843   0.04065775            2 
  583000    1.1467538   -6.3867362    277.53859   0.03967104  0.040647769            2 
  584000    1.1472995   -6.3694146    279.10934  0.039827246  0.040637859            3 
  585000    1.1551341   -6.4214271    279.05237   0.03975105  0.040628192            5 
  586000    1.1824273   -6.4070536    279.56248  0.039755756   0.04061867            3 
  587000     1.151649   -6.4057853    279.81646  0.039724086   0.04060972            3 
  588000    1.1633694   -6.3774174    280.98557  0.039822218  0.040600268            3 
  589000    1.1463639   -6.4354729    280.52384  0.039689281  0.040590116            3 
  590000    1.1482061   -6.4383136    281.04968  0.039696282   0.04058022            3 
  591000    1.1596118   -6.4578875    281.10898  0.039637477  0.040569866            4 
  592000    1.1937534   -6.3723869    281.51709  0.039627969  0.040559629            1 
  593000    1.1631313   -6.4050027     281.5041  0.039559317  0.040549268            2 
  594000    1.1650251   -6.4090713    281.42342    0.0394814  0.040538423            2 
  595000     1.166029   -6.3931217    281.82641  0.039471486   0.04052728            2 
  596000    1.1533131   -6.4313102    282.59485  0.039512702  0.040516108            2 
  597000    1.1605902   -6.4522516    282.17357  0.039387712  0.040504868            3 
  598000    1.1549791   -6.4090987    283.36246  0.039487522  0.040493229            2 
  599000     1.156182   -6.4283382    282.63226  0.039320014  0.040481514            5 
  600000    1.1713013   -6.4146375    282.61025  0.039251424  0.040468755            2 
  601000    1.1505931   -6.4427652    282.83292  0.039216988  0.040455763            2 
  602000    1.1515955   -6.4005695    284.11051  0.039328697  0.040442756            1 
  603000    1.1494544   -6.4312499    284.03057  0.039252427  0.040429688            3 
  604000    1.1636109   -6.4528413    283.50803  0.039115346  0.040416676            8 
  605000    1.1445279   -6.4113106    284.65571  0.039208776  0.040403197            3 
  606000    1.1438942   -6.4571774    285.46149   0.03925488  0.040390359            2 
  607000    1.1509224   -6.4568689    284.25305  0.039024307  0.040377183            4 
  608000    1.1230768   -6.4246877    286.34763  0.039247208  0.040363999            1 
  609000     1.165144     -6.43657    285.80081  0.039107937  0.040350938            3 
  610000    1.1559263   -6.4135149    288.13808  0.039363126  0.040338252            6 
  611000    1.1442356   -6.4411509     287.0403  0.039148977  0.040325161            4 
  612000     1.146499   -6.4381656     287.3696  0.039129848  0.040312332            5 
  613000    1.1408671   -6.4517777    288.33028  0.039196613  0.040300016            2 
  614000    1.1876329   -6.4506858    289.54064  0.039297047  0.040288311            2 
  615000    1.1470254   -6.4411847    290.55447  0.039370524  0.040277243            2 
  616000    1.1454446   -6.4408599    291.03692  0.039371878   0.04026651            2 
  617000    1.1545013   -6.4091187    292.48331  0.039503419  0.040255941            2 
  618000    1.1307174   -6.4119658     292.3451  0.039420861  0.040246053            6 
  619000    1.1758998   -6.4324914    292.91606  0.039434041  0.040235879            3 
  620000    1.1435959   -6.3753397     294.0055  0.039516868  0.040226278            3 
  621000    1.1457918   -6.4559663    293.21723  0.039347454  0.040216016            5 
  622000    1.1518418   -6.3977175    294.17818  0.039412939  0.040205848            1 
  623000    1.1500588   -6.4235007    295.45962  0.039521084  0.040196071            3 
  624000    1.1516483   -6.4227429    294.24268  0.039295229  0.040186363            1 
  625000    1.1661471   -6.4506646     294.9085  0.039321134  0.040176408            4 
  626000    1.1537577   -6.4392619    295.21731  0.039299428  0.040166073            2 
  627000    1.1608666   -6.4017072    295.79228  0.039313168  0.040155368            3 
  628000    1.1616799   -6.4080566    296.11008  0.039292738  0.040145289            3 
  629000    1.1640721   -6.4150894    296.45935  0.039276543  0.040135569            2 
  630000    1.1700516   -6.4031156    297.96504  0.039413365  0.040125926            5 
  631000    1.1671938   -6.4293627    298.33213  0.039399383  0.040116912            2 
  632000    1.1343232    -6.429903    298.82874  0.039402523  0.040107876            3 
  633000    1.1590837   -6.4586564    298.44402  0.039289628   0.04009847            3 
  634000    1.1444541   -6.4531128    298.88033  0.039285007  0.040089675            1 
  635000    1.1247376     -6.45987    300.18821  0.039394778  0.040080004            3 
  636000    1.1369665   -6.4411539    300.74712  0.039406069  0.040070067            3 
  637000    1.1503715   -6.3949776    300.16918    0.0392686  0.040060559            4 
  638000    1.1409964   -6.4277163    300.49894  0.039250123  0.040050358            7 
  639000    1.1573521   -6.4108341    300.62862  0.039205611  0.040040299            3 
  640000    1.1401802   -6.4661749    300.62275  0.039143587  0.040030247            4 
  641000    1.1535483    -6.410538     301.9907  0.039260361  0.040020259            4 
  642000    1.1469547   -6.3992687    302.00889  0.039201569  0.040010381            4 
  643000     1.150867   -6.4059501    303.88319  0.039383514  0.040000715            3 
  644000    1.1583324   -6.3970034    303.70507  0.039299311  0.039991976            2 
  645000    1.1446779   -6.4424455    303.99674  0.039276064  0.039982728            8 
  646000    1.1512275   -6.4176633    303.93814  0.039207706  0.039973566            5 
  647000    1.1276056   -6.4440974    304.04617  0.039161021  0.039964255            4 
  648000    1.1784701   -6.4620989    304.90015   0.03921041   0.03995438            6 
  649000    1.1289267   -6.4089949    305.34782  0.039207475  0.039944865            3 
  650000    1.1395962    -6.394577    306.61755  0.039309942  0.039935626            3 
  651000    1.1344594   -6.4167829    306.22337  0.039199101  0.039926153            3 
  652000    1.1432715   -6.4465291    306.83177   0.03921674  0.039917004            3 
  653000    1.1226419   -6.4297092    308.46669  0.039365325  0.039907868            3 
  654000    1.1557567   -6.4379031    306.91026  0.039106812  0.039898235            2 
  655000    1.1449012   -6.4228288    307.90344  0.039173465   0.03988827            5 
  656000    1.1445738   -6.4084137    309.17388  0.039275137  0.039878894            2 
  657000    1.1546289   -6.4498225    307.67363  0.039025067  0.039869185            5 
  658000    1.1527531   -6.4217294    308.71063  0.039097092  0.039859242            4 
  659000    1.1489649   -6.4280506    309.80843  0.039176584  0.039849432            3 
  660000    1.1459813   -6.4152137    309.63533   0.03909537  0.039839916            3 
  661000    1.1656386   -6.4273664     310.7075  0.039171395  0.039830218            2 
  662000    1.1184339   -6.4124146    310.06121  0.039030868  0.039820814            3 
  663000    1.1434846   -6.4234662    310.78656  0.039063167  0.039810771            3 
  664000    1.1353164   -6.4750177    310.71573  0.038995448  0.039800128            4 
  665000    1.1687364   -6.4645507    311.12433  0.038988011   0.03978971            1 
  666000     1.129783   -6.4589512    311.22057  0.038941513  0.039779188            6 
  667000    1.1321147   -6.4346434    311.14109    0.0388732  0.039769125            4 
  668000    1.1536818   -6.4185088    312.62555  0.039000193  0.039759511            2 
  669000    1.1449015   -6.4566022    313.47976  0.039048301  0.039749826            5 
  670000    1.1124825   -6.4461342    313.68445  0.039015478  0.039740075            4 
  671000    1.1578804   -6.4405912    314.18176  0.039019096  0.039730392            4 
  672000    1.1424738   -6.4328342     314.5169  0.039002592  0.039721196            4 
  673000    1.1488443   -6.4052735    314.56471  0.038950558  0.039711413            2 
  674000    1.1546621   -6.4438892    313.62306  0.038776343  0.039701157            2 
  675000    1.1382509   -6.4354185    315.54561  0.038956248  0.039690981            3 
  676000    1.1257438   -6.4461771     315.8829  0.038940199  0.039681292            4 
  677000    1.1715892    -6.444564     315.5221  0.038838269  0.039671699            2 
  678000    1.1403105   -6.4105967    317.00184  0.038962861  0.039661653            1 
  679000    1.1318588   -6.4275183    318.23281  0.039056555  0.039651876            2 
  680000    1.1249544   -6.4473237    317.72497  0.038936884  0.039642275            3 
  681000     1.153184   -6.4208165    318.80897  0.039012356  0.039632896            1 
  682000     1.127042   -6.4439003    318.27594  0.038890022   0.03962336            5 
  683000      1.14304   -6.4584149    318.95202  0.038915571  0.039613998            2 
  684000    1.1271211   -6.4747497    319.70247  0.038950106  0.039604639            1 
  685000    1.1479885   -6.4209409    320.68856  0.039013206  0.039595686            4 
  686000    1.1370614   -6.4350063    321.71151  0.039080602   0.03958711            3 
  687000    1.1363633   -6.4249776    322.15103  0.039077029  0.039578729            3 
  688000    1.1392503   -6.4081451    322.36495  0.039046142  0.039570385            7 
  689000    1.1445167   -6.4432729    322.24577  0.038975056  0.039562205            5 
  690000     1.150491   -6.4451645    322.69391  0.038972695  0.039553814            2 
  691000     1.147179   -6.4465288    322.01137  0.038833981  0.039544553            2 
  692000    1.1306366    -6.448488     323.0459  0.038902444  0.039535553            2 
  693000    1.1251155   -6.4591305      323.725   0.03892797   0.03952675            2 
  694000    1.1563101   -6.4621771    324.02474   0.03890787  0.039518279            2 
  695000    1.1530924   -6.4523714    325.02244  0.038971516  0.039510075            3 
  696000    1.1522932   -6.4254264    324.75932  0.038884018   0.03950196            2 
  697000    1.1173695   -6.4213115    326.15649  0.038995277  0.039493875            4 
  698000    1.1377138    -6.456516    326.67647  0.039001489  0.039485842            3 
  699000    1.1240238   -6.4442735     326.1255  0.038880007  0.039476999            4 
  700000    1.1363626   -6.4398097    326.26393  0.038840944  0.039468371            2 
  701000    1.1121931   -6.4651886    327.72176  0.038958839  0.039460056            6 
  702000    1.1549722   -6.4395389    327.06861  0.038825809  0.039451707            3 
  703000      1.11266   -6.4703584    327.97855  0.038878444  0.039443432            3 
  704000    1.1216603   -6.4480491    328.30118  0.038861408  0.039434692            2 
  705000    1.1086224    -6.466874    328.44794  0.038823633  0.039426222            3 
  706000    1.1369865   -6.4559273    328.50683  0.038775594  0.039417649            2 
  707000    1.1569311   -6.4907067    328.17251  0.038681342  0.039409407            3 
  708000    1.1425509   -6.4822738    330.23085   0.03886898  0.039400902            6 
  709000    1.1244797   -6.4235785    330.73694  0.038873641   0.03939244            2 
  710000    1.1194761   -6.4706627    330.93695  0.038842365  0.039384521            6 
  711000    1.1161568   -6.4193592    331.33889  0.038834844  0.039376291            3 
  712000    1.1499346   -6.4420849    331.56421  0.038806673  0.039368215            2 
  713000    1.1230066   -6.4190441    332.81686  0.038898651  0.039360163            7 
  714000    1.1339047   -6.4271492    333.02313  0.038868245   0.03935208            2 
  715000    1.1438725   -6.4349845    333.37413  0.038854794  0.039344453            5 
  716000     1.145557   -6.4797943    333.20153  0.038780439  0.039336492            3 
  717000    1.1285672   -6.4724643    333.16043  0.038721575  0.039328203            2 
  718000    1.1480405    -6.474134    334.30993   0.03880106  0.039319789            3 
  719000    1.1365656   -6.4545184    334.54063  0.038773832  0.039311882            2 
  720000    1.1293406   -6.4676333    335.24485  0.038801487  0.039303962            3 
  721000    1.1106672   -6.4858034    335.50393  0.038777616  0.039296047            3 
  722000    1.1558258   -6.4609794    335.93297  0.038773427  0.039287833            6 
  723000    1.1427681     -6.44539     337.1253  0.038857227  0.039279649            3 
  724000    1.1529403    -6.477478    336.08461  0.038683771  0.039271149            3 
  725000    1.1244608   -6.4185644    337.40483  0.038782165  0.039262838            7 
  726000    1.1283534   -6.4953485    337.06425  0.038689652  0.039254332            3 
  727000    1.1225998   -6.4258166    337.77513   0.03871792  0.039245393            4 
  728000    1.1396601   -6.4409833    338.54729  0.038753124  0.039236781            2 
  729000    1.1300297   -6.4592976    337.68448  0.038601336  0.039228328            1 
  730000    1.1652459   -6.4493328    338.54716  0.038646936   0.03921964            3 
  731000    1.1397169   -6.4331852    338.36123  0.038572871  0.039211008            1 
  732000    1.1263798   -6.4325512    339.75779  0.038679166   0.03920278            5 
  733000    1.1361782   -6.4814078     340.1003  0.038665337  0.039194342            5 
  734000    1.0879435   -6.4344771    341.38381   0.03875838  0.039186124            4 
  735000    1.1243291   -6.4664236    340.60301  0.038617121  0.039178057            2 
  736000     1.123305   -6.4405027    342.86639  0.038820923  0.039170278            4 
  737000    1.1352108     -6.43635     341.2656  0.038587246  0.039162123            2 
  738000    1.1216298   -6.4514289    341.55712  0.038567877  0.039154245            2 
  739000    1.1210926   -6.4966398    342.59962  0.038633245  0.039146468            3 
  740000    1.1372445   -6.4917382    342.52423  0.038572549  0.039137926            4 
  741000    1.1235454   -6.4455442    344.64666  0.038759183  0.039129774            4 
  742000    1.1264427   -6.4258973    344.65309   0.03870767  0.039122132            3 
  743000    1.1252628   -6.4562426    345.13856  0.038710022  0.039114668            1 
  744000    1.1201725    -6.453391    344.97749  0.038639952  0.039106402            3 
  745000     1.125161   -6.4797863    344.03101  0.038482216  0.039097684            3 
  746000    1.1337136    -6.463366    346.28457   0.03868237  0.039089143            5 
  747000    1.1388769   -6.4635085    345.54289  0.038547845  0.039080789            3 
  748000    1.1273137   -6.4714044    346.89395  0.038646831  0.039072361            4 
  749000    1.1339561   -6.4785368    347.02834  0.038610184  0.039064228            2 
  750000    1.1298368   -6.4498869    347.14799  0.038571999  0.039056426            2 
  751000    1.1213182   -6.4104112     349.5078   0.03878249  0.039048802            5 
  752000    1.1341064   -6.4968575    347.23714  0.038479293   0.03904057            4 
  753000    1.1340657   -6.4560322    347.80609  0.038491156  0.039032212            2 
  754000    1.1306622   -6.4642119    348.64003  0.038532275  0.039023788            3 
  755000    1.1314274   -6.4481807    349.47801  0.038573732  0.039015814            2 
  756000    1.1255236   -6.4905337    349.95701  0.038575508   0.03900792            3 
  757000     1.129357    -6.481138    349.21911  0.038443319  0.038999788            5 
  758000    1.1352273   -6.4741214    350.09182  0.038488547   0.03899164            2 
  759000    1.1315574   -6.4598801    351.07674  0.038545975  0.038982988            3 
  760000    1.1427061   -6.4681989    351.63464   0.03855643  0.038974715            3 
  761000    1.1297192   -6.4466618    352.41394  0.038591102  0.038966752            5 
  762000    1.1155643   -6.4434448    351.32433  0.038421296   0.03895842            4 
  763000     1.120516   -6.4948068    351.46151  0.038385923  0.038950562            1 
  764000    1.1408766   -6.4329358    354.36727  0.038652625  0.038942448            4 
  765000    1.1306791   -6.4657121    352.90213  0.038442498  0.038934345            3 
  766000    1.0935053   -6.4673496    353.96672  0.038508129  0.038926324            5 
  767000    1.1100462   -6.4980818    353.95781  0.038456954  0.038918441            5 
  768000    1.1353907   -6.4407891    355.93634  0.038621565  0.038911155            2 
  769000    1.1431966   -6.4572825     356.2478  0.038605094  0.038903886            5 
  770000    1.1136485   -6.4609997    356.88558   0.03862398  0.038896667            3 
  771000    1.1223849   -6.4119967    356.94887  0.038580726  0.038889514            3 
  772000    1.1260506   -6.4426978    357.14958  0.038552416  0.038882264            3 
  773000    1.1686597   -6.4864342    356.51216  0.038433825  0.038874738            2 
  774000    1.1199915   -6.4542899    357.17534  0.038455571  0.038867548            5 
  775000     1.130043   -6.4409501    359.50571  0.038656528  0.038860812            3 
  776000    1.1336235   -6.4841734    358.64133  0.038513888  0.038854381            4 
  777000    1.1082718   -6.4647966    359.69909  0.038577766  0.038847733            2 
  778000    1.1299989   -6.4823134    360.75915  0.038641725  0.038841084            4 
  779000    1.1315306   -6.4633071    360.07459  0.038518891  0.038834378            4 
  780000    1.1145883   -6.4447451    360.84318  0.038551622  0.038827666            4 
  781000    1.1015332   -6.5034995    360.87065   0.03850519   0.03882056            1 
  782000    1.1224772   -6.5052547    360.00671  0.038363886  0.038812953            3 
  783000    1.1261078   -6.4704845    361.20333  0.038442244   0.03880532            4 
  784000    1.1089154   -6.4732125    360.90343  0.038361334  0.038797531            3 
  785000    1.1251712   -6.4807882    361.61336   0.03838783  0.038790048            2 
  786000    1.1280699   -6.4401056    362.72983  0.038457361  0.038782732            2 
  787000    1.1431083   -6.4740643    363.72624  0.038514003  0.038775039            4 
  788000    1.1202827   -6.4811037    362.74383  0.038361234  0.038767924            4 
  789000    1.1266828   -6.4832183     363.9694  0.038442058  0.038760921            2 
  790000    1.1124882   -6.4351542    363.89196  0.038385228  0.038753966            3 
  791000    1.1495833   -6.4664699    364.84202  0.038436791    0.0387469            4 
  792000    1.1231054   -6.4435946     364.6555  0.038368634  0.038740007            3 
  793000    1.1269661    -6.478154    365.43288  0.038401942  0.038733071            3 
  794000    1.1213972   -6.4929343    364.60558  0.038266749   0.03872534            2 
  795000    1.1134688   -6.4896635    365.87541   0.03835172   0.03871765            5 
  796000    1.1147306   -6.4708268    367.31517  0.038454268  0.038710081            4 
  797000    1.1294486   -6.4250867    366.81472  0.038353693  0.038703017            2 
  798000    1.1364575   -6.4650239    366.81888  0.038306065  0.038695915            4 
  799000    1.1117999    -6.453254    369.67451  0.038555956  0.038688964            2 
  800000    1.1062611    -6.465463    368.81579  0.038418312  0.038681883            2 
  801000    1.1447391   -6.4655777    368.90264  0.038379384  0.038674448            3 
  802000    1.1375792   -6.4761319    368.44137  0.038283601  0.038667303            3 
  803000     1.090987   -6.4708086    369.20679  0.038315358  0.038659924            2 
  804000    1.1377484   -6.4574488    370.02516  0.038352525  0.038653146            4 
  805000    1.1150209   -6.4927914    369.04516  0.038203432  0.038646059            6 
  806000    1.1124445   -6.4989504    370.97414  0.038355474  0.038639066            3 
  807000    1.1109451   -6.4755865    370.79966  0.038289927  0.038631921            3 
  808000    1.1345016   -6.4867198    372.13249  0.038380001  0.038624483            1 
  809000    1.1167304   -6.4853602    371.15109  0.038231468  0.038617344            3 
  810000    1.1069982   -6.4835252    371.66448  0.038237087  0.038610084            1 
  811000    1.1127952   -6.4891447    372.75533  0.038302028  0.038602525            2 
  812000    1.0984748    -6.487124    371.90587  0.038167679  0.038595009            3 
  813000    1.0999078   -6.4831294    371.61549  0.038090968  0.038587453            6 
  814000    1.1158546   -6.5310472     373.2098  0.038207391  0.038579831            2 
  815000    1.1175004   -6.4902123    373.20678  0.038160202   0.03857222            4 
  816000    1.1301055   -6.4761583     374.1082  0.038205494  0.038564967            2 
  817000    1.1242274   -6.4606648     375.9525  0.038346849  0.038558114            2 
  818000    1.0887233   -6.5057706    374.59289  0.038161459  0.038551007            3 
  819000    1.1465701   -6.4616529    375.02331   0.03815866  0.038543505            4 
  820000    1.1515016   -6.4890874    375.94905  0.038206205  0.038536132            2 
  821000    1.1196177   -6.4959496    376.27923  0.038193182  0.038528997            2 
  822000    1.0928539   -6.5199211    375.95379  0.038113726  0.038521762            3 
  823000    1.1267464   -6.4622046    376.98645  0.038171977  0.038514416            2 
  824000    1.1377413   -6.4704389    377.92675  0.038220747  0.038507316            4 
  825000    1.1285105   -6.5229919    377.17145  0.038098126  0.038500097            2 
  826000    1.1133155   -6.4940445    378.23806   0.03815961  0.038492729            3 
  827000    1.1243351   -6.4869939    378.85313  0.038175446  0.038485174            2 
  828000    1.1117021   -6.4819385    378.38983  0.038082713  0.038477924            4 
  829000    1.1081031   -6.4459429    379.39744  0.038138062   0.03847071            2 
  830000     1.121406   -6.4955324    379.74705  0.038127214  0.038463345            4 
  831000    1.1381866   -6.4637942    381.92302   0.03829954  0.038456171            3 
  832000    1.1224144    -6.481538    381.53229  0.038214372  0.038449369           13 
  833000    1.1178636   -6.4559876    382.04772   0.03822006  0.038442439            2 
  834000     1.125636   -6.4604037    381.96235  0.038165703  0.038435624            3 
  835000    1.1128184   -6.4502928    383.90319  0.038313692   0.03842902            6 
  836000    1.1250948   -6.4922814    382.14498  0.038092602  0.038422372            3 
  837000    1.1228262   -6.5103773    382.10445  0.038043056  0.038415514            8 
  838000    1.1067561   -6.4929753    382.46033  0.038033048  0.038408085            2 
  839000    1.1398564   -6.4446762    383.77485   0.03811828  0.038400906            4 
  840000    1.1082379   -6.4846158    384.53291  0.038148106  0.038393907            2 
  841000    1.1190077   -6.4692262    382.83486  0.037934489  0.038386484            1 
  842000    1.1126931   -6.4931021    384.05743  0.038010434  0.038379207            2 
  843000    1.1203151    -6.492745    383.96291  0.037956001  0.038371585            1 
  844000    1.1317774   -6.4338151    385.18651  0.038031843  0.038363734            4 
  845000    1.1078155   -6.5003776    384.77094  0.037945852  0.038355877            3 
  846000    1.0988186   -6.4929352    385.75138  0.037997575  0.038347969            2 
  847000    1.1210234   -6.5024784    386.06277   0.03798335  0.038340019            4 
  848000    1.1358354   -6.5002027    386.11983  0.037944166    0.0383323            6 
  849000    1.1198074   -6.4712253    386.58132   0.03794477  0.038324649            3 
  850000    1.1316156   -6.4936026    386.43872  0.037886149   0.03831696            2 
  851000    1.1294788   -6.4939993    386.71232  0.037868421  0.038308982            2 
  852000    1.0866446   -6.4978513    386.60365  0.037813346  0.038300811            9 
  853000    1.1150586   -6.5087603     388.0397  0.037909311  0.038292496            3 
  854000    1.1053579   -6.5404048    386.38817  0.037703763  0.038284218            2 
  855000    1.1356268   -6.4512345    388.61736  0.037876935  0.038276352            4 
  856000    1.1069856   -6.5114019    388.28411  0.037800244  0.038268615            5 
  857000    1.1177153   -6.4749767     389.4519  0.037869691  0.038260553            3 
  858000    1.1171703   -6.5023343    388.72175  0.037754638  0.038252689            8 
  859000    1.0946045   -6.5289475    388.27552  0.037667396  0.038244661            3 
  860000    1.0948989    -6.525006    390.28308  0.037818128  0.038236702            2 
  861000    1.1034108   -6.4970391     389.9203  0.037739093  0.038228621            5 
  862000     1.145721    -6.495036     391.0579  0.037805288  0.038220829            2 
  863000    1.1037156   -6.4795015    392.37859   0.03788901  0.038213198            2 
  864000    1.1200263   -6.4933106    393.21846  0.037926164  0.038205748            2 
  865000    1.1374127   -6.4992991    391.63643  0.037729907  0.038198047            6 
  866000    1.1163089   -6.5148333    392.89238  0.037807196  0.038190489            4 
  867000    1.1106518   -6.5096962    392.79011  0.037753759  0.038182785            3 
  868000     1.130037   -6.5151699    393.08123  0.037738213  0.038175206            6 
  869000    1.1239234   -6.5067068    394.07424  0.037790011  0.038167753            7 
  870000    1.1227677   -6.4933093     394.4662  0.037784118  0.038160517            3 
  871000    1.0967452   -6.4401521    396.29468  0.037915679  0.038153347            1 
  872000      1.12386   -6.4698749     396.0708  0.037850803  0.038146235            3 
  873000    1.1116778   -6.5024249     396.8473  0.037881568  0.038139309            2 
  874000    1.1080244   -6.5261084    396.16294  0.037772973  0.038132122            3 
  875000    1.1202475    -6.519858    397.51175  0.037858262  0.038124918            5 
  876000    1.0971911   -6.5013633    398.79625  0.037937238  0.038118123            3 
  877000    1.1048768   -6.5254225    397.82724  0.037801904  0.038111128            4 
  878000    1.1177168   -6.4997819    398.70149  0.037841827  0.038104137            5 
  879000    1.1336565   -6.5231525    399.37271  0.037862411  0.038097105            4 
  880000    1.1028532   -6.4905613    400.07339  0.037885738  0.038090191            3 
  881000    1.1114539   -6.5009811     400.0384  0.037839424  0.038083703            1 
  882000    1.1101484    -6.509549    401.23504  0.037909584  0.038077359            3 
  883000    1.1139399   -6.4860578    401.13899  0.037857587  0.038070683            8 
  884000    1.1007845   -6.5167209    401.02044  0.037803586  0.038064089            2 
  885000    1.0980639   -6.5277333    401.61042  0.037816424  0.038056963            5 
  886000    1.1052428   -6.4757864    400.94191  0.037710864   0.03804981            5 
  887000    1.1311049   -6.4851944    403.18839  0.037879405  0.038043123            2 
  888000    1.1018079   -6.4939718    403.27164  0.037844561  0.038036557            2 
  889000    1.0870462   -6.4743398     404.1613  0.037885386  0.038030113            3 
  890000    1.1168859   -6.5113655    403.98896  0.037826682  0.038023997            5 
  891000    1.1321856   -6.5030582    405.38459  0.037914757  0.038017848            3 
  892000    1.1054179   -6.5491756    405.63673  0.037895808   0.03801167            2 
  893000     1.117792   -6.5011398     405.7644  0.037865286  0.038005413            3 
  894000    1.1118688   -6.4824755    406.69793  0.037909948  0.037999485            2 
  895000    1.1118543   -6.5158483     406.4081  0.037840605  0.037993166            1 
  896000    1.1109697   -6.4724315    408.52826   0.03799556  0.037987369            4 
  897000    1.1014649   -6.4862496    407.41128  0.037849431  0.037981385            5 
  898000    1.1099845   -6.4794892    408.40142  0.037899167  0.037975755            2 
  899000    1.1348481    -6.483916    409.15369  0.037926741  0.037969983            5 
  900000    1.1143481   -6.5192238    408.26491  0.037802306  0.037963668            3 
  901000    1.1061352   -6.5006696    408.12653  0.037747552  0.037957604            2 
  902000    1.1054379   -6.5033596    409.69811  0.037850897  0.037951572            7 
  903000    1.1151021   -6.5244055    408.73649  0.037720237  0.037945126            2 
  904000    1.1122165   -6.5275472    410.64715  0.037854642  0.037938689            9 
  905000    1.0987269   -6.5149768    409.97219  0.037750662  0.037932339            7 
  906000    1.1154713   -6.4706074    410.36393  0.037745027  0.037925865            3 
  907000    1.0929862   -6.5168043    410.75063   0.03773894  0.037919403            4 
  908000     1.096265   -6.5147001    410.21399  0.037648127  0.037912447            4 
  909000    1.1068335   -6.5468533    409.40964   0.03753297  0.037904937            4 
  910000    1.0943198   -6.5159178    410.12213  0.037556972  0.037897438            4 
  911000    1.0879569   -6.5202952    410.62183  0.037561455  0.037889833            4 
  912000    1.0961409   -6.5253232    409.39051  0.037407759  0.037882153            3 
  913000    1.1133628   -6.4932094    411.32896  0.037543717  0.037874724            3 
  914000    1.0937339   -6.4901352    411.75658  0.037541628  0.037866782            5 
  915000    1.1317426     -6.51241    411.76823   0.03750166  0.037859265            2 
  916000    1.1109788   -6.4874176    411.72023  0.037456353  0.037851563            3 
  917000    1.0891109   -6.5478815    411.28631  0.037376073  0.037843487            6 
  918000    1.1168195   -6.5078524    411.93011  0.037393801  0.037835385            2 
  919000    1.1096752   -6.5151246     413.2619  0.037473876  0.037827488            2 
  920000    1.1179713    -6.515903    412.72871  0.037384847  0.037819341            7 
  921000    1.0996771   -6.5154847    413.16745  0.037383953  0.037811451            2 
  922000    1.1000034   -6.5189891    412.68756  0.037300032  0.037803476            4 
  923000    1.1045856   -6.5104512    414.67247  0.037438829  0.037795599            2 
  924000    1.1266656   -6.5274184    414.74854  0.037405172  0.037787922            2 
  925000    1.1132366   -6.4909841    415.30855  0.037415184  0.037780083            2 
  926000    1.1153893   -6.4665059    415.65512  0.037405968  0.037772061            7 
  927000    1.0837682   -6.5337802    414.62836  0.037273316  0.037764189            3 
  928000    1.0996885    -6.505553    415.08939   0.03727455   0.03775589            1 
  929000    1.0843752   -6.5393002    415.79879  0.037298062  0.037747568            3 
  930000    1.0659655   -6.5059515    416.37956  0.037309996  0.037739678            3 
  931000    1.1397975    -6.534478    416.06119  0.037241424  0.037731702            2 
  932000    1.1133399   -6.4929107    416.82933  0.037270147  0.037723735            2 
  933000    1.0760941   -6.5550376     416.2899   0.03718202   0.03771544            4 
  934000    1.1279973    -6.518242    418.48254  0.037337843  0.037707282            2 
  935000    1.1013409   -6.5231186    417.95626  0.037251003  0.037699651            2 
  936000      1.08064   -6.5003927    420.06747  0.037399169  0.037691827            2 
  937000    1.1208061   -6.5113072    418.78319  0.037245037  0.037684406            5 
  938000    1.1237021   -6.4906058    420.04852  0.037317744  0.037676983            2 
  939000    1.0946394   -6.4689336    420.76566  0.037341645  0.037669483            1 
  940000    1.0556399   -6.5104993    418.78215  0.037126077  0.037661524            4 
  941000      1.10361   -6.5114395    422.40326  0.037407302  0.037653792            2 
  942000    1.0976829   -6.5121725    422.12055  0.037342582   0.03764636            3 
  943000    1.0974276   -6.5185523    422.45965  0.037332949  0.037638685            2 
  944000    1.0817614   -6.4908378    423.56298    0.0373908  0.037631375            2 
  945000    1.0970918   -6.5630832    422.57009  0.037263676  0.037623874            2 
  946000    1.0956418   -6.5121597    424.11732  0.037360581  0.037616511            3 
  947000    1.1122582   -6.4999137    423.39166  0.037257274  0.037609009            5 
  948000    1.0810955    -6.522345    424.06119  0.037276827  0.037601448            3 
  949000    1.0957908   -6.5124401    424.57286  0.037282478  0.037594118            2 
  950000    1.1029227   -6.5027499    425.41906  0.037317461  0.037586397            2 
  951000     1.098313   -6.4728943    426.42558  0.037366419  0.037578912            2 
  952000    1.0936485   -6.5067499    426.08215  0.037297107  0.037571361            4 
  953000    1.0895026   -6.5029906    425.77631  0.037231227  0.037563845            4 
  954000    1.1040226   -6.4838403    426.78419   0.03728024  0.037556322            2 
  955000    1.1205483   -6.5264259    427.99157  0.037346559  0.037548789            5 
  956000    1.0813588   -6.5000661    426.78602  0.037202408  0.037541281            4 
  957000    1.0962185   -6.5585389     426.0506  0.037099495  0.037533696            2 
  958000    1.0841514   -6.5325814    427.68046  0.037202545  0.037526087            6 
  959000     1.088075   -6.5032457    429.89729  0.037356386  0.037518864            3 
  960000     1.100162   -6.5068023    430.09924  0.037335004   0.03751151            1 
  961000     1.107958   -6.5594142    428.10484  0.037123209  0.037503947            3 
  962000     1.093294   -6.5204921    428.68436   0.03713482  0.037496062            3 
  963000     1.092675    -6.535233    429.01012  0.037124448  0.037488346            3 
  964000    1.1099845   -6.4956352    429.67597  0.037143496  0.037480692            2 
  965000    1.1056763     -6.54317    427.79377  0.036942467  0.037472551            6 
  966000    1.1005349   -6.5260457    428.96083  0.037004903   0.03746438            3 
  967000    1.0935102   -6.5214345    429.61107  0.037022671  0.037456416            4 
  968000    1.0848983   -6.5251311    430.97293  0.037101664  0.037448472            3 
  969000    1.0967882   -6.5509247    430.70194  0.037040071  0.037440295            5 
  970000    1.1171122   -6.5346294    430.46761  0.036981753  0.037432121            3 
  971000    1.0711289   -6.4897161    431.19828  0.037006375  0.037423987            2 
  972000    1.1020052   -6.4920597    431.21442  0.036969686  0.037415987            2 
  973000    1.0813064   -6.4973716    433.32686  0.037112612  0.037407979            4 
  974000     1.079919   -6.5064303    433.54537  0.037093204  0.037399999            3 
  975000    1.1013622   -6.5292477    432.94002   0.03700342   0.03739189            4 
  976000    1.0887493   -6.5205432    433.36157    0.0370015  0.037383975            4 
  977000    1.1205628   -6.5139548    434.39652  0.037051904  0.037376184            1 
  978000    1.0985958   -6.4934929    434.85722  0.037053274  0.037368564            4 
  979000    1.0946101   -6.5269679     435.1725  0.037042263   0.03736096            4 
  980000    1.1133034   -6.5461438    434.20258  0.036921988  0.037353209            3 
  981000    1.0877426   -6.4778219    436.36317  0.037067888  0.037345356            3 
  982000    1.0978291   -6.5460517    435.53385  0.036959763   0.03733747            2 
  983000    1.0913663   -6.5389762    434.35065  0.036821859  0.037329314            5 
  984000    1.0952449   -6.5395329    435.98412  0.036922774  0.037321238            5 
  985000     1.117088   -6.4920133    436.74271  0.036949468  0.037313001            4 
  986000    1.0798493   -6.5128521    436.69118  0.036907638  0.037305101            1 
  987000    1.0772058   -6.5434013    436.11422  0.036821531  0.037297046            4 
  988000    1.0992626   -6.5815534    435.84496  0.036761552  0.037288842            3 
  989000    1.0979739   -6.5398835    437.52552  0.036865986  0.037280508            3 
  990000    1.0813337   -6.5592431     436.9271  0.036778375  0.037272389            5 
  991000    1.0752954   -6.5583156    437.49404  0.036788937  0.037264282            3 
  992000    1.0939469   -6.5491017    438.93099  0.036872563  0.037256266            4 
  993000    1.1136478   -6.5606475    437.80957   0.03674132  0.037248022            2 
  994000    1.1062507   -6.5133179     437.4746  0.036676275   0.03723932            6 
  995000    1.0889735   -6.5274996    438.25542  0.036704809  0.037230788            3 
  996000    1.0840978   -6.5529829    439.00195  0.036730417  0.037222219            2 
  997000    1.0959691   -6.5183438       440.14  0.036788699  0.037213805            4 
  998000    1.0822731   -6.5338111    439.05219  0.036661004  0.037205223            3 
  999000    1.0796699   -6.5273439    440.70518  0.036762194  0.037196375            8 
 1000000    1.0825771   -6.5141865    439.30167  0.036608473  0.037187558            4 
 1001000    1.0538061   -6.5368433    439.90634  0.036622239  0.037178427            2 
 1002000    1.0873453   -6.5443079    440.64225  0.036646894   0.03716942            3 
 1003000     1.111784   -6.5817654     439.3802    0.0365055  0.037160079            2 
 1004000    1.0804116   -6.5249588    439.11682  0.036447279  0.037150516            4 
 1005000    1.0588827   -6.5102774    440.98394  0.036565833  0.037141159            1 
 1006000    1.1049873   -6.5208536    442.15958  0.036626871  0.037131657            6 
 1007000    1.0796539   -6.5484865    442.39925  0.036610332  0.037122051            3 
 1008000    1.0697175   -6.5432294    442.46056  0.036579081  0.037112701            2 
 1009000     1.088939    -6.509964    442.91732  0.036580551  0.037103482            3 
 1010000    1.0992274   -6.5126167    443.27125  0.036573535  0.037094409            4 
 1011000    1.0842014   -6.5509109    443.05706  0.036519705  0.037084913            4 
 1012000    1.0957526   -6.5028001    442.23436  0.036415873  0.037075526            6 
 1013000    1.0947792   -6.5067739    442.85208   0.03643074  0.037066291            3 
 1014000    1.1037338   -6.5368322    444.28504  0.036512577  0.037056618            3 
 1015000    1.0566116   -6.5797302    445.17508  0.036549678  0.037047092            2 
 1016000    1.0886809   -6.5604656    443.84413  0.036404539  0.037037506            3 
 1017000    1.0765326   -6.5470553    444.61953  0.036432279  0.037027774            3 
 1018000    1.1039656   -6.5283059    445.60534  0.036477189  0.037018524            4 
 1019000    1.0813998   -6.5476118    444.42571  0.036344922  0.037009045            6 
 1020000    1.0791301   -6.5350203    444.31939  0.036300603  0.036999582            3 
 1021000    1.0793822   -6.5493736    446.26279  0.036423669   0.03699043            3 
 1022000     1.095491   -6.5491811    446.62438  0.036417513  0.036981339            5 
 1023000    1.0755838   -6.5906886      447.045  0.036416178  0.036972296            2 
 1024000    1.0754768   -6.5478633    447.90507  0.036450608  0.036963284            1 
 1025000     1.088564   -6.5323617    448.65699  0.036476178  0.036954129            3 
 1026000    1.0790081   -6.5414889    447.22811   0.03632457  0.036944881            4 
 1027000    1.0960414   -6.5390387    448.83531  0.036419613  0.036935825            4 
 1028000    1.0865591   -6.6020058    448.69052  0.036372448  0.036926714            3 
 1029000     1.085642   -6.5264606    450.01561  0.036444413  0.036917461            3 
 1030000    1.1003032   -6.5348672    449.39819  0.036359077   0.03690817            6 
 1031000    1.0913982   -6.5538725    448.33727  0.036238059  0.036899049            3 
 1032000    1.0944141   -6.5818396    450.42806  0.036371774  0.036889724            4 
 1033000     1.076636   -6.5435147    450.99686  0.036382451   0.03688031            3 
 1034000    1.0727982   -6.5079976    451.86642  0.036417345  0.036871198            1 
 1035000    1.0603191   -6.5551204    451.84408  0.036380361  0.036861962            5 
 1036000    1.0811377    -6.529428    452.68808  0.036413134  0.036852863            2 
 1037000    1.1035168   -6.5592319    452.17957  0.036337156   0.03684387            5 
 1038000    1.0835795   -6.5126807    453.17188  0.036381814   0.03683472            3 
 1039000    1.0951717   -6.6059819    451.57048  0.036218357  0.036825704            2 
 1040000     1.091208   -6.5348146    453.69744  0.036353961  0.036816464            2 
 1041000    1.0941954   -6.5824555    453.98806  0.036342303  0.036807333            7 
 1042000    1.0873624   -6.5017317    455.07516  0.036394366  0.036798192            3 
 1043000    1.0835753   -6.5428634    454.15808    0.0362862  0.036789155            4 
 1044000    1.0743137   -6.5451135    454.19986  0.036254778  0.036780068            2 
 1045000    1.0799882   -6.5805519    454.45103  0.036240114  0.036770803            6 
 1046000    1.0575204    -6.545303    455.20048  0.036265176  0.036761536            2 
 1047000    1.0913154   -6.5464386    454.18231  0.036149499  0.036752408            4 
 1048000    1.0925001    -6.544631    454.86078  0.036168955  0.036743018            4 
 1049000    1.0583774   -6.5535308    454.55503  0.036110187  0.036733565            3 
 1050000    1.0830728   -6.5259614    455.88904   0.03618167  0.036724414            4 
 1051000    1.0875364   -6.5559641    456.17603  0.036169999  0.036715257            2 
 1052000    1.1121773   -6.5723495    456.08564  0.036128457  0.036705803            4 
 1053000    1.0758144   -6.5253569    457.71985  0.036223477  0.036696442            4 
 1054000    1.0849099   -6.5458783    457.23048  0.036150417  0.036687194            3 
 1055000     1.063133   -6.5455334    456.75992  0.036078982  0.036677954            1 
 1056000    1.0700414   -6.5529506    456.55077  0.036028312  0.036668467            2 
 1057000    1.0866647   -6.5539144    458.66383  0.036160819  0.036658929            2 
 1058000    1.1012717   -6.5364307    459.07922  0.036159359  0.036649519            5 
 1059000    1.1000266   -6.5441409    457.82554  0.036026561  0.036640212            4 
 1060000      1.07456   -6.5578451    458.31155  0.036030783  0.036630708            3 
 1061000    1.1025332    -6.536153    458.00817  0.035972995  0.036621436            2 
 1062000    1.0794916    -6.545593    459.71665  0.036073183  0.036611877            6 
 1063000    1.0836156   -6.5437322    459.18266  0.035997386  0.036602553            3 
 1064000    1.0813588   -6.5136853     461.0202  0.036107472   0.03659306            3 
 1065000    1.0646222   -6.5455163    460.41178  0.036025961  0.036583631            3 
 1066000    1.0865082   -6.5953731    459.82195  0.035946056  0.036574066            4 
 1067000    1.0603588   -6.5758849    461.52804  0.036045614  0.036564606            2 
 1068000    1.0850387   -6.5637921    460.61476  0.035940602  0.036555309            2 
 1069000    1.0600778   -6.5786624    460.60138  0.035905939  0.036545926            8 
 1070000    1.0981325   -6.5443526    462.60326  0.036028291  0.036536503            3 
 1071000    1.0943354   -6.5902663    461.24779  0.035889184  0.036526931            5 
 1072000    1.0730419   -6.5731949    463.98037  0.036068126  0.036517408            4 
 1073000    1.0791131   -6.5445347    463.14499  0.035969632  0.036507722            3 
 1074000    1.0637277   -6.5440398    463.08688  0.035931632  0.036498166            5 
 1075000    1.0975899   -6.5266654     462.9773  0.035889713  0.036488462            2 
 1076000     1.083649   -6.6159081    461.98826   0.03577976  0.036478509            2 
 1077000    1.0784032   -6.5516513    462.61113  0.035794733  0.036468405            2 
 1078000    1.0728692   -6.5787926     462.6293  0.035762933  0.036458369            3 
 1079000    1.0648871   -6.5664563    462.27278  0.035702253  0.036448331            2 
 1080000    1.0868081   -6.5576911    464.95394  0.035876076  0.036438134            6 
 1081000    1.0653275   -6.5756135    463.69869  0.035746122   0.03642791            2 
 1082000    1.0835785   -6.5415943    465.05228  0.035817335  0.036418009            4 
 1083000    1.0639648   -6.5162895    465.57257  0.035824297  0.036408025            5 
 1084000    1.0875898   -6.5827435    465.28933  0.035769475  0.036398307            3 
 1085000    1.0901938   -6.5496989    466.65577  0.035841457  0.036388606            2 
 1086000    1.0586196   -6.5478003    465.62175  0.035729109  0.036378721            2 
 1087000     1.063524    -6.556412    466.43236  0.035758384  0.036369081            3 
 1088000    1.0806926   -6.5852457     467.0366  0.035771798  0.036359206            4 
 1089000     1.083236   -6.5446484    469.26261   0.03590929  0.036349414            1 
 1090000    1.0693323   -6.5815685    468.92908  0.035850847  0.036339667            1 
 1091000    1.0408318   -6.5685269    467.19011   0.03568516  0.036330009            3 
 1092000    1.0965399   -6.5774613    468.15472  0.035726093  0.036320277            4 
 1093000    1.0930327   -6.5925596    468.31982  0.035705994  0.036310825            3 
 1094000    1.0691597   -6.5111136    469.16648  0.035737849  0.036301075            2 
 1095000    1.0663103   -6.5274501    471.04847  0.035848438  0.036291668            3 
 1096000    1.0872904   -6.5935439    469.33372   0.03568535  0.036282085            2 
 1097000    1.0612235   -6.5887403    470.59702  0.035748786  0.036272498            2 
 1098000    1.0798649   -6.5921633    471.10839  0.035755038  0.036263009            4 
 1099000    1.0483612   -6.5681492    470.79734  0.035698919  0.036253694            3 
 1100000     1.089717   -6.5282772    471.24916  0.035700694  0.036244386            2 
 1101000     1.066261   -6.5832514    471.47544  0.035685395  0.036235228            3 
 1102000    1.0636625   -6.5695395    471.65364  0.035666488  0.036226058            2 
 1103000    1.0621416   -6.5744464    471.12257  0.035594029  0.036217083            2 
 1104000    1.0666118   -6.5673018    473.63041  0.035751088  0.036207889            3 
 1105000     1.058681   -6.5792766    473.58318  0.035715172  0.036198817            2 
 1106000    1.0856105   -6.5590242    473.93959  0.035709734  0.036189567            3 
 1107000    1.0988363    -6.538104    474.14078  0.035692621  0.036180504            4 
 1108000    1.0888107   -6.5852407    476.25522  0.035819436  0.036171616            3 
 1109000    1.0953088   -6.5432871    476.06732  0.035773017  0.036162596            4 
 1110000    1.0678913    -6.567701    476.70939  0.035788993  0.036153494            4 
 1111000    1.0801023   -6.5512339    477.51975  0.035817563  0.036144542            2 
 1112000    1.0740609   -6.5765384    476.30949  0.035694656  0.036135818            3 
 1113000    1.0629213   -6.5969734    476.76014  0.035696327  0.036126953            3 
 1114000    1.0565131   -6.5688353    476.73774  0.035662607  0.036118208            3 
 1115000    1.0823161   -6.5816412    478.60255  0.035769996   0.03610936            3 
 1116000    1.0791434   -6.5679456    477.58685    0.0356621  0.036100626            2 
 1117000    1.0834792   -6.5437111    479.67964  0.035786305  0.036091969            3 
 1118000    1.0850032   -6.5592752    479.51884   0.03574231    0.0360833            2 
 1119000    1.0833819   -6.5520353    480.15763  0.035757941  0.036074673            2 
 1120000      1.07646    -6.594803    479.01729  0.035641167   0.03606619            2 
 1121000    1.0776999   -6.5630476    479.96605  0.035679903  0.036057656            2 
 1122000    1.0488203   -6.5731119    481.80034  0.035784339   0.03604889            2 
 1123000     1.080003    -6.581115    479.84124  0.035607097  0.036040151            5 
 1124000    1.0822439    -6.612782    480.72952  0.035641275  0.036031378            8 
 1125000    1.0895215   -6.5707987    480.64348  0.035603221  0.036022713            5 
 1126000     1.067264   -6.5909925    481.64937  0.035646045  0.036013961            5 
 1127000    1.0711556   -6.5923523    481.59567  0.035610446  0.036005018            4 
 1128000    1.0514656   -6.5887158    481.70344  0.035586838  0.035996134            5 
 1129000    1.0551528   -6.5730288    481.64777  0.035551208  0.035987289            5 
 1130000    1.0839542   -6.5464982    482.41151   0.03557607  0.035978512            2 
 1131000    1.0640191   -6.5665804    483.03854  0.035590815  0.035969516            3 
 1132000    1.0724781   -6.5612018    483.86111  0.035619928  0.035960394            3 
 1133000    1.0789033   -6.5866625    482.51553  0.035489521   0.03595119            3 
 1134000    1.0639831    -6.564122     483.2962  0.035515594  0.035942122            4 
 1135000    1.0808998   -6.5634974    482.48403  0.035424671  0.035932996            3 
 1136000    1.0470595   -6.6015007    482.37027  0.035385143  0.035923975            3 
 1137000    1.0635044   -6.5843683    485.02659   0.03554871   0.03591469            2 
 1138000     1.069564   -6.6039797    484.52071  0.035480427  0.035905647            3 
 1139000    1.0747842   -6.5832093    484.68204   0.03546108  0.035896666            3 
 1140000    1.0402641   -6.5832678    483.40825   0.03533686  0.035887694            5 
 1141000    1.0816477   -6.5695464    486.58321  0.035537775  0.035878649            4 
 1142000    1.0926148   -6.5709013    484.42384  0.035349084   0.03586971            6 
 1143000    1.0758842   -6.5849078    486.49206  0.035468946  0.035860845            1 
 1144000    1.0351664   -6.5809657    487.77039   0.03553106  0.035851836            3 
 1145000     1.077173   -6.6043053    486.74574  0.035425454  0.035843231            5 
 1146000    1.0730188   -6.6305446    486.68514  0.035390135  0.035834466            2 
 1147000    1.0762359   -6.5939946    487.94373  0.035450721  0.035825854            3 
 1148000    1.0455345   -6.5995845    488.23898  0.035441273    0.0358172            7 
 1149000     1.064687   -6.6309541    487.08482   0.03532672  0.035808357            3 
 1150000    1.0507608   -6.6126856    490.83676  0.035567881  0.035799708            2 
 1151000    1.0815558   -6.5482431    491.01239  0.035549695  0.035791208            3 
 1152000    1.0453884   -6.6147542    488.47006  0.035334929  0.035782829            2 
 1153000    1.0750886   -6.5768684    490.20035   0.03542934  0.035774402            4 
 1154000     1.058072   -6.5665241    490.50223  0.035420438  0.035765961            8 
 1155000     1.079909   -6.6011148    490.34072  0.035378118  0.035757687            2 
 1156000    1.0745321   -6.5421792    492.25506  0.035485515  0.035749417            2 
 1157000    1.0887033   -6.5552322    493.09963  0.035515675  0.035741082            5 
 1158000    1.0590881   -6.6056579    492.14978  0.035416651  0.035733046            3 
 1159000    1.0633094   -6.5851095    493.59728   0.03549017  0.035725085            4 
 1160000    1.0430031   -6.5447497    494.83717  0.035548648  0.035717193            3 
 1161000    1.0742089   -6.5727549     495.0283  0.035531747   0.03570917            9 
 1162000    1.0672541   -6.5722629    495.02023   0.03550059  0.035701238            1 
 1163000    1.0729999   -6.5714332    495.82597  0.035527799   0.03569342            5 
 1164000    1.0629546   -6.5714468    494.55129   0.03540602  0.035685355            6 
 1165000     1.061958   -6.5929789    495.81916   0.03546632  0.035677249            6 
 1166000    1.0389894   -6.6026977     494.1541  0.035316902  0.035669058            3 
 1167000    1.0510056   -6.5784255    495.28229  0.035367202  0.035660947            2 
 1168000    1.0664654   -6.6027216     496.9942  0.035459061  0.035652988            3 
 1169000    1.0719513   -6.6096952     497.1181  0.035437561  0.035645139            3 
 1170000    1.0759911   -6.5948027    498.06271  0.035474552  0.035637269            2 
 1171000    1.0634391     -6.56442    498.71982  0.035491021  0.035629551            3 
 1172000    1.0561428   -6.5777327     498.8389  0.035469205  0.035621805            5 
 1173000    1.0849869   -6.5993423    497.33593  0.035332192  0.035613935            2 
 1174000     1.077836   -6.6336607    497.08521    0.0352843  0.035605869            3 
 1175000    1.0659805   -6.6244987    497.73256  0.035300181  0.035597736            5 
 1176000    1.0730232   -6.5983562    497.45737  0.035250664  0.035589486            4 
 1177000    1.0685224   -6.6368445    496.27627  0.035137091  0.035581366            2 
 1178000     1.066966   -6.5832745     500.3775   0.03539739  0.035573324            4 
 1179000    1.0721238   -6.5407805    499.39547  0.035297955  0.035565335            4 
 1180000     1.083159   -6.5923443    500.14966  0.035321303  0.035557438            4 
 1181000    1.0745874   -6.6257665    500.57425  0.035321356  0.035549449            2 
 1182000    1.0795406   -6.5523343    502.23558    0.0354086  0.035541545            4 
 1183000    1.0699216   -6.5877647    500.60345  0.035263697  0.035533736            5 
 1184000    1.0716295   -6.6057103    500.63034  0.035235807  0.035525583            4 
 1185000    1.0593574   -6.6143893    502.20745   0.03531698  0.035517453            2 
 1186000     1.053031   -6.5708832    501.23817  0.035219096  0.035509194            3 
 1187000    1.0738101   -6.5848071    500.58027  0.035143237  0.035500842            6 
 1188000    1.0429912   -6.5706089    503.56932  0.035323325  0.035492687            5 
 1189000    1.0628818   -6.5838734     501.8028  0.035169807  0.035484362            5 
 1190000    1.0498878   -6.5928617    503.63705  0.035268701    0.0354761            5 
 1191000    1.0622112   -6.5579557    501.49968  0.035089538  0.035467931            7 
 1192000    1.0473794   -6.6097901    502.19241  0.035108529  0.035459948            3 
 1193000      1.06689   -6.6141802    504.15331  0.035216074  0.035451586            3 
 1194000    1.0619429   -6.5762724    504.65481  0.035221581  0.035443401            2 
 1195000    1.0609059   -6.6175705    502.15446  0.035017745  0.035435169            5 
 1196000    1.0715324   -6.6016052    504.63286  0.035161152  0.035426932            2 
 1197000    1.0655753   -6.6174953    503.99851  0.035087616  0.035418581            5 
 1198000    1.0718738   -6.6129219    505.29535  0.035148535  0.035410097            4 
 1199000    1.0619025   -6.5958285     505.2156  0.035113678  0.035401781            3 
 1200000    1.0273809   -6.5746964    506.74743  0.035190794  0.035393604            2 
 1201000    1.0631511    -6.583448     505.3122  0.035061907   0.03538514            3 
 1202000    1.0463492   -6.5971144     504.0215  0.034943254  0.035376853            3 
 1203000    1.0731454   -6.5924987    507.60822  0.035162664  0.035368565            2 
 1204000    1.0650657   -6.6113578    507.28399  0.035111018  0.035360381            2 
 1205000    1.0539644   -6.5521144      507.644  0.035106778  0.035352351            9 
 1206000    1.0398434   -6.6160716    506.90424  0.035026551  0.035344182            4 
 1207000    1.0365996   -6.5519685    508.14117  0.035082931  0.035336093            8 
 1208000    1.0620356   -6.5861881    509.22548  0.035128689  0.035328247            4 
 1209000    1.0697744   -6.6342031     509.8496  0.035142653   0.03532013            6 
 1210000    1.0573274   -6.6266568    510.65588  0.035169138  0.035312029            3 
 1211000    1.0751764   -6.6103196    509.67182  0.035072379  0.035304145            3 
 1212000    1.0419243   -6.5973422    509.74404  0.035048407  0.035296313            2 
 1213000    1.0483372   -6.5837529    510.62864  0.035080285  0.035288529            3 
 1214000    1.0479197    -6.611358    510.59995   0.03504942   0.03528057            3 
 1215000    1.0763122    -6.580992    511.79889  0.035102804   0.03527263            3 
 1216000    1.0760864   -6.6177038    510.87594  0.035010687  0.035264688            2 
 1217000    1.0491193   -6.6039045    511.79382   0.03504477  0.035256523            3 
 1218000    1.0592291   -6.5912831    513.74885  0.035149757  0.035248486            5 
 1219000    1.0558412    -6.611521    511.38146  0.034959082  0.035240689            5 
 1220000    1.0551629   -6.6036533    512.88658  0.035033236  0.035232768           10 
 1221000    1.0618079   -6.6172408    513.85453  0.035070607  0.035224624            4 
 1222000     1.058451   -6.6215001    511.53622  0.034883812   0.03521633            2 
 1223000    1.0369547   -6.5997627    513.26039  0.034972771  0.035208197            2 
 1224000    1.0495325   -6.5895028    514.05428  0.034998249  0.035200076            2 
 1225000    1.0557292   -6.5772742    515.29134  0.035053833  0.035191946            4 
 1226000    1.0687065   -6.6261369    514.26553  0.034955514  0.035184093            2 
 1227000    1.0847026   -6.5818918    514.71754  0.034957725  0.035176081            2 
 1228000    1.0489202   -6.6140159    513.36818  0.034837688  0.035167942            2 
 1229000    1.0632999   -6.6234255    514.04836  0.034855462  0.035159681           11 
 1230000    1.0404208   -6.5952268    516.05838  0.034963305  0.035151413            3 
 1231000    1.0401176   -6.5788778    515.39413  0.034889936  0.035143161            3 
 1232000    1.0490736   -6.6133556    515.57634  0.034873941  0.035134999            3 
 1233000    1.0548288   -6.5748382    517.28093  0.034960863   0.03512682            3 
 1234000    1.0563295   -6.5944582    516.41448   0.03487402  0.035118643            7 
 1235000    1.0461053   -6.6115552    516.61549  0.034859345  0.035110538            2 
 1236000    1.0358643   -6.6004639    516.76165  0.034840996  0.035102287            4 
 1237000    1.0645942   -6.6076338     517.2579  0.034846261  0.035094004            4 
 1238000    1.0494982   -6.6147836    517.44582  0.034830763  0.035085773            4 
 1239000     1.055227   -6.6266139    518.49657  0.034873324  0.035077772            3 
 1240000    1.0700399   -6.6603208    516.71826   0.03472569   0.03506968            5 
 1241000    1.0629683   -6.5604167    519.25605   0.03486812  0.035061524            4 
 1242000    1.0751538   -6.6237568    519.31787  0.034844194  0.035053447            2 
 1243000    1.0562305   -6.6121644    520.55889  0.034899362  0.035045492            2 
 1244000    1.0445445   -6.6235893    520.14978  0.034843903  0.035037631            3 
 1245000    1.0664922   -6.6165026    521.04876  0.034876088  0.035029672            2 
 1246000    1.0407716   -6.6169475    520.06386  0.034782227   0.03502168            3 
 1247000    1.0550531   -6.5891501    521.24334  0.034833156  0.035013597            9 
 1248000    1.0484159   -6.5945442    520.69392  0.034768557   0.03500558            3 
 1249000    1.0471509   -6.5985801    520.70478  0.034741445  0.034997248            2 
 1250000    1.0578816   -6.5859981    520.47968  0.034698646  0.034989017            4 
 1251000    1.0555843    -6.624395     519.6062  0.034612723  0.034980846            4 
 1252000    1.0251462    -6.606697    520.34896  0.034634515  0.034972451            6 
 1253000    1.0640608   -6.5870251    521.43924  0.034679386  0.034964172            6 
 1254000    1.0445894   -6.6353283    521.82762   0.03467754  0.034956019            3 
 1255000    1.0583582    -6.605245    523.77233  0.034779039  0.034947829            2 
 1256000     1.054142   -6.6618178     520.8737   0.03455903  0.034939639            3 
 1257000    1.0516643    -6.630105     522.7919  0.034658705  0.034931471            3 
 1258000    1.0614415    -6.613031    524.11041  0.034718496  0.034923498            2 
 1259000    1.0358768    -6.591199    524.24422  0.034699776  0.034915541            4 
 1260000    1.0377111   -6.5813137    525.98212  0.034787177  0.034907546            2 
 1261000    1.0417186   -6.6223207    524.23041  0.034643828  0.034899585            4 
 1262000    1.0573691   -6.6021102    525.19952   0.03468037  0.034891709            2 
 1263000    1.0368248   -6.6206273    524.79478  0.034626206  0.034883812            2 
 1264000    1.0603688   -6.6392456    526.82643  0.034732755  0.034875824            3 
 1265000    1.0457006   -6.6166177    524.75822  0.034569052  0.034867737            2 
 1266000    1.0334395   -6.6249661    527.01566  0.034690341  0.034859816            3 
 1267000    1.0456012   -6.5832968    528.19552  0.034740563  0.034851928            4 
 1268000    1.0565491   -6.6176454    528.00395  0.034700575  0.034844262            4 
 1269000     1.027081   -6.6425998    527.89576  0.034666125  0.034836364            2 
 1270000    1.0507535   -6.6409299    527.93976  0.034641716  0.034828411            4 
 1271000     1.091723   -6.6616597    527.26866   0.03457046  0.034820566            4 
 1272000    1.0501351   -6.5607791    529.20455  0.034670109  0.034812684            7 
 1273000    1.0336512   -6.6515484    529.23513  0.034644876  0.034804703            5 
 1274000    1.0427349   -6.6439892     527.5183  0.034505383  0.034796531            3 
 1275000    1.0448797   -6.6339123    528.91494  0.034569604  0.034788428            7 
 1276000    1.0571824    -6.621688    529.68918  0.034593076  0.034780446            5 
 1277000    1.0706366   -6.6534587    529.31725  0.034541716   0.03477245            2 
 1278000    1.0283461   -6.6253511    530.33051  0.034580758   0.03476449            3 
 1279000    1.0407095   -6.6512168    531.84994  0.034652719  0.034756418            2 
 1280000    1.0617236    -6.610763    531.05691  0.034574017  0.034748552            5 
 1281000    1.0423197   -6.6604326    532.22684  0.034623136  0.034740718            2 
 1282000     1.064039   -6.6056778    532.80238   0.03463354  0.034732784            7 
 1283000    1.0597557   -6.5873181    533.35957  0.034642737  0.034725049            4 
 1284000    1.0301589   -6.6365258    533.46079  0.034622325  0.034717515            3 
 1285000    1.0529398   -6.6007793    533.90631  0.034624274   0.03470988            6 
 1286000    1.0253469   -6.6121576    532.97219  0.034536819  0.034702327            3 
 1287000    1.0539056   -6.5921017    534.86021  0.034632233  0.034694663            6 
 1288000     1.046476   -6.5963321    535.14453   0.03462374  0.034687216            3 
 1289000     1.027017   -6.6431546    535.87021  0.034643794  0.034679912            1 
 1290000    1.0406896   -6.6320792    535.99007  0.034624681  0.034672293            3 
 1291000    1.0345276   -6.6167705    535.42961  0.034561684  0.034664652            2 
 1292000    1.0583318   -6.6070949    534.32775  0.034463864  0.034657025            6 
 1293000    1.0465867   -6.6441658     536.2487  0.034561015  0.034649618            7 
 1294000    1.0245668   -6.6352409    535.66061  0.034496433  0.034641976            4 
 1295000    1.0553742   -6.5843602    537.44407   0.03458456  0.034634481            2 
 1296000    1.0521568   -6.6512508    535.28096  0.034418786  0.034626825            5 
 1297000    1.0414457   -6.6605496    535.75853  0.034422933  0.034619136            2 
 1298000     1.049553   -6.6192507    538.23381  0.034555329   0.03461148            4 
 1299000    1.0228667   -6.6202479    536.99978  0.034449563  0.034603699            3 
 1300000     1.040802   -6.6103569    537.91436   0.03448169  0.034596045            3 
 1301000    1.0514798   -6.6295148    537.52028  0.034429944  0.034588395            4 
 1302000    1.0515934   -6.6134779    537.54927  0.034405355  0.034580581            3 
 1303000    1.0735852   -6.6208039    539.14227  0.034480831  0.034572953            4 
 1304000    1.0311543   -6.5977366     540.0476  0.034512245  0.034565355            5 
 1305000     1.037665   -6.6519886    539.15694  0.034428924  0.034557584            4 
 1306000    1.0391349   -6.6308493    539.37571   0.03441652  0.034549782            3 
 1307000    1.0603262   -6.6302226    539.91008  0.034424259  0.034541906            3 
 1308000    1.0369101   -6.6670757    539.13593  0.034348619   0.03453399            3 
 1309000    1.0533327   -6.6192538    539.03575  0.034316001  0.034525857            3 
 1310000    1.0473339   -6.6352891    538.52569   0.03425736  0.034517917            7 
 1311000    1.0561042   -6.6361654     538.5375   0.03423198  0.034509773            4 
 1312000    1.0331038   -6.6338589    541.25333  0.034378387  0.034501893            4 
 1313000    1.0419068   -6.6314876    540.14392  0.034281792   0.03449385            2 
 1314000     1.037698   -6.6407372    540.16251  0.034256882  0.034485915            2 
 1315000    1.0449995   -6.6374126    539.58244  0.034194071  0.034477706            6 
 1316000    1.0556425   -6.6314277    540.94036  0.034254075  0.034469662            3 
 1317000    1.0559682   -6.5783013    542.26895  0.034312133  0.034461734            4 
 1318000    1.0458673   -6.6619953    543.25371  0.034348363  0.034453944            3 
 1319000    1.0541233   -6.6582354    539.76411  0.034101852  0.034445944            2 
 1320000    1.0366344   -6.6083333    542.14801  0.034226516  0.034437941            4 
 1321000      1.03475   -6.6223089    543.41248  0.034280373  0.034430056            4 
 1322000    1.0411121   -6.6405797    541.02842  0.034104161  0.034422188            4 
 1323000    1.0500921   -6.6329317    541.26769  0.034093455  0.034414213            6 
 1324000    1.0637303   -6.6282406     542.9733  0.034175056   0.03440607            5 
 1325000     1.031708     -6.62911     544.6068     0.034252  0.034397999            5 
 1326000    1.0321607   -6.6291045    544.55423  0.034222865  0.034390193            4 
 1327000    1.0495936   -6.6343005    544.84705  0.034215464  0.034382102            2 
 1328000    1.0207483   -6.6362962    544.56026  0.034171703   0.03437435            3 
 1329000    1.0267078   -6.6429933    545.59026  0.034210576  0.034366498            9 
 1330000    1.0314859   -6.6322523    545.24802   0.03416341  0.034358739            2 
 1331000    1.0741419   -6.6156117    547.74606  0.034294143  0.034351105            2 
 1332000    1.0088978   -6.6237194    547.30102  0.034240555  0.034343418            3 
 1333000     1.036987   -6.6177999    547.07423  0.034200689  0.034335755            2 
 1334000    1.0446069   -6.6396909    546.93028  0.034166059  0.034327931            5 
 1335000    1.0524802   -6.6403908    546.98656   0.03414398   0.03432015            2 
 1336000    1.0384995   -6.6321361     548.5231  0.034214265  0.034312437            3 
 1337000    1.0488514   -6.6448911      547.869  0.034147906  0.034304639            3 
 1338000    1.0248233   -6.6179701     546.8444   0.03405857  0.034296808            2 
 1339000    1.0489376   -6.6517731    548.09928  0.034111232  0.034288921            6 
 1340000    1.0371161   -6.6699582    549.18166  0.034153088   0.03428105            3 
 1341000    1.0347724   -6.6428035    549.58948  0.034152963  0.034273163            4 
 1342000    1.0357006   -6.6144849    548.53294  0.034061907  0.034265346            6 
 1343000    1.0421772    -6.651958    550.24059  0.034142504   0.03425761            4 
 1344000    1.0392704   -6.6302532    550.80563  0.034152135  0.034249792            1 
 1345000    1.0490807   -6.6542095     549.5956  0.034051772  0.034241895            2 
 1346000     1.017619   -6.6641403    549.18801  0.034001239  0.034233884            4 
 1347000    1.0375696   -6.6429519    550.94415  0.034084641  0.034225837            3 
 1348000    1.0449733   -6.6955155    548.64024  0.033916929  0.034217702            2 
 1349000    1.0441442   -6.6505182    551.33565  0.034058293  0.034209725            4 
 1350000    1.0120875   -6.6541058    552.65972  0.034114798  0.034201694            3 
 1351000     1.028303   -6.6586064    549.35755  0.033885859   0.03419373            5 
 1352000    1.0330961   -6.6363001    550.55159  0.033934393  0.034185686            5 
 1353000    1.0317364   -6.5938468    552.47665  0.034027879  0.034177656            3 
 1354000    1.0016573   -6.6198681    553.07934  0.034039841  0.034169745            4 
 1355000    1.0376707   -6.6395876    552.33083  0.033968686  0.034161657            7 
 1356000    1.0532814   -6.6506354    552.24161  0.033938152  0.034153617            2 
 1357000    1.0494287   -6.6408416    551.92352  0.033893608  0.034145522            2 
 1358000    1.0329852   -6.6345158    553.01123  0.033935397  0.034137501            3 
 1359000    1.0435748   -6.6290638    552.71962  0.033892545  0.034129345            3 
 1360000    1.0444321   -6.6210823    552.52186  0.033855506   0.03412135            7 
 1361000    1.0452623   -6.6567083    552.14782  0.033807728  0.034113296            5 
 1362000    1.0305169   -6.6136464    553.62485  0.033873278   0.03410518           10 
 1363000    1.0304636   -6.6890305    553.96117  0.033868988  0.034096941            1 
 1364000    1.0463193    -6.655478    554.25759  0.033862267  0.034088645            3 
 1365000    1.0259364   -6.6442508    553.91604  0.033816608  0.034080512            5 
 1366000    1.0298327   -6.6659066    555.68261  0.033899622  0.034072488            2 
 1367000    1.0234742   -6.6408003    554.63429  0.033810917  0.034064532            2 
 1368000    1.0428795   -6.6242141    556.77968  0.033916891  0.034056563            2 
 1369000    1.0122538   -6.6496511    555.68612  0.033825549    0.0340488            4 
 1370000    1.0348259   -6.6686711    557.57194  0.033915568  0.034040992            4 
 1371000     1.036126   -6.6408488    557.01751  0.033857131  0.034033118            4 
 1372000      1.03815   -6.6226438     558.5137  0.033923329  0.034025343            4 
 1373000    1.0326294   -6.6869169     557.0471  0.033809608  0.034017665            4 
 1374000    1.0044229   -6.6481968    561.13202  0.034032752  0.034009938            2 
 1375000    1.0238747   -6.6357715    558.59601  0.033854304  0.034002309            4 
 1376000    1.0470036   -6.6475704    560.34353  0.033935534  0.033994659            2 
 1377000    1.0122953   -6.6577227    560.76478  0.033936382  0.033987231            5 
 1378000    1.0231479   -6.6622351    560.66689  0.033905835  0.033979773            9 
 1379000    1.0291912   -6.6696851    559.55057  0.033813788  0.033972131            7 
 1380000    1.0187037   -6.6369793    561.43514  0.033903088  0.033964691            4 
 1381000    1.0239269   -6.6618451    561.26878    0.0338685  0.033957188           10 
 1382000    1.0422788   -6.6626473    562.03278  0.033890061  0.033949734            7 
 1383000    1.0330399   -6.6635489    563.00394  0.033924074  0.033942313            3 
 1384000    1.0350855    -6.645865    562.75897  0.033884813  0.033934959            3 
 1385000    1.0289689   -6.6462654    562.61413  0.033851632  0.033927443            2 
 1386000    1.0261041   -6.6589318    562.84351     0.033841  0.033919853            5 
 1387000    1.0475602   -6.7067818    562.38145   0.03378884   0.03391214            3 
 1388000    1.0210251   -6.6463265    560.92274  0.033676918  0.033904435            3 
 1389000    1.0302523    -6.651488    562.57219  0.033751632  0.033896664            3 
 1390000    1.0336525   -6.6333515    563.61536   0.03378989  0.033888768            3 
 1391000    1.0087021   -6.6671724    563.04034  0.033731149  0.033880866            4 
 1392000    1.0150173   -6.6723686     563.3314  0.033724341  0.033873156            3 
 1393000    1.0289357   -6.6734605    563.69929   0.03372214  0.033865487            3 
 1394000    1.0444313   -6.6367685    564.14946   0.03372486   0.03385787            3 
 1395000    1.0127838   -6.6497151    566.47696  0.033839723  0.033850256            2 
 1396000    1.0403363   -6.6678953    564.53536  0.033699579  0.033842797            3 
 1397000    1.0211653   -6.6728107    565.93032  0.033758669  0.033835282            5 
 1398000    1.0315632   -6.6676853    566.20438  0.033750857  0.033827763            3 
 1399000    1.0130505    -6.642452    567.34978   0.03379496  0.033820403            6 
 1400000    1.0239628   -6.6505485    566.54608  0.033722981  0.033813121            2 
 1401000    1.0486341   -6.6235269    567.14046  0.033734265  0.033805718            5 
 1402000    1.0221408   -6.6032564     570.0035  0.033880379  0.033798396            4 
 1403000    1.0073006   -6.6676152    567.80009  0.033725356  0.033791101            3 
 1404000    1.0500792   -6.6348013    569.17656  0.033783034  0.033783692            3 
 1405000     1.007252   -6.6490199    571.06989  0.033871287    0.0337766            4 
 1406000    1.0108804   -6.6695457     570.4725  0.033811789  0.033769492            2 
 1407000    1.0438345   -6.6754014    569.53531   0.03373225  0.033762265            3 
 1408000    1.0381757   -6.6516063    569.11945  0.033683679  0.033754957            3 
 1409000    1.0263709   -6.7106822    569.69319  0.033693707  0.033747623            5 
 1410000     1.016169   -6.6681343    569.12754   0.03363638  0.033740187            9 
 1411000     1.036164   -6.6842474    571.20057  0.033734974  0.033732891            9 
 1412000    1.0467955   -6.6665123    571.20553  0.033711374  0.033725583            3 
 1413000    1.0427279   -6.6463031    571.43784  0.033701217  0.033718378            3 
 1414000    1.0264145   -6.6594818    572.22526  0.033723789  0.033711161            4 
 1415000    1.0265679   -6.6500608    570.79583  0.033615773  0.033703899            3 
 1416000    1.0199413   -6.6472939    574.79046  0.033827122   0.03369657            5 
 1417000    1.0395216   -6.6522303    572.20485  0.033651191    0.0336892            4 
 1418000    1.0162122   -6.6683661     571.2169  0.033569399  0.033681707            2 
 1419000    1.0332903   -6.6437055    571.81805  0.033581046  0.033674271            2 
 1420000    1.0097698   -6.6720388    572.81221   0.03361574  0.033666864            5 
 1421000    1.0416702   -6.6941616    573.28381   0.03361974  0.033659408            3 
 1422000    1.0446374   -6.6332917    573.02082  0.033580686   0.03365187            2 
 1423000    1.0374168   -6.6751658    573.50846  0.033585644  0.033644277            2 
 1424000    1.0312959   -6.6642522    573.52658  0.033563119  0.033636709            3 
 1425000    1.0382689   -6.6748456    571.97746  0.033448974  0.033629012            6 
 1426000    1.0239975   -6.6710807    572.36384  0.033448097  0.033621161            4 
 1427000    1.0309896   -6.6817394    573.01906  0.033462921  0.033613524            5 
 1428000    1.0490618   -6.6579498    574.66037  0.033535269  0.033605978            6 
 1429000    1.0240851   -6.6531217    574.87895  0.033524548   0.03359849            3 
 1430000    1.0225833   -6.6791669    573.56736  0.033424671    0.0335909            3 
 1431000    1.0344545   -6.6574105    574.69421  0.033466935  0.033583265            4 
 1432000     1.001968   -6.6561844    575.07791  0.033465893  0.033575828            5 
 1433000    1.0362478   -6.6422812    575.55686  0.033470392  0.033568412            3 
 1434000    1.0242743    -6.650782    576.89267  0.033524679  0.033560882            3 
 1435000    1.0150478   -6.6454637    577.43467  0.033532791  0.033553359            7 
 1436000    1.0218542   -6.6715868    577.12751  0.033491615  0.033546023            3 
 1437000    1.0002602   -6.6624658     578.2233  0.033531855  0.033538652            5 
 1438000    1.0376293   -6.6934152     575.9251  0.033375354  0.033531326            3 
 1439000    1.0451692   -6.6590041    578.38889   0.03349484  0.033524014            5 
 1440000    1.0250194   -6.6886354    578.80487  0.033495652  0.033516706            6 
 1441000    1.0147126   -6.7019915    578.69829  0.033466244  0.033509337            2 
 1442000     1.028815     -6.67233    578.00624  0.033403042  0.033501952            5 
 1443000    1.0338171   -6.6374911    579.95127  0.033492219  0.033494608            4 
 1444000    1.0151722   -6.6403394    578.90055  0.033408388  0.033487112            3 
 1445000    1.0239534    -6.697669    579.40545  0.033414386  0.033479646            5 
 1446000    1.0098825   -6.6821453    579.14817  0.033376451  0.033472047            3 
 1447000    1.0213861   -6.6605248    579.94456  0.033399249  0.033464709            2 
 1448000    1.0333139   -6.6684859     580.6321  0.033415751  0.033457478            7 
 1449000    1.0305411   -6.6390922    581.11721   0.03342059  0.033450257            4 
 1450000    1.0065628   -6.6950951    580.97627  0.033389441  0.033442909            3 
 1451000    1.0201354   -6.6751306    580.10064   0.03331614  0.033435435            3 
 1452000    1.0299547   -6.7268137     580.8346  0.033335319  0.033427929            4 
 1453000    1.0164354   -6.6515454    583.21548  0.033448926  0.033420462            2 
 1454000    1.0056314   -6.6461745      583.254  0.033428129  0.033413284            2 
 1455000    1.0295685   -6.6973447    582.70407  0.033373658  0.033405882            5 
 1456000    1.0366913   -6.6738972    581.27953  0.033269204  0.033398568            4 
 1457000     1.026492   -6.6919472    583.30579  0.033362262  0.033391321            3 
 1458000    1.0225098   -6.6865623    583.67793   0.03336065  0.033384014            4 
 1459000    1.0128758   -6.6336053    583.59775  0.033333205   0.03337674            3 
 1460000    1.0198188     -6.69865    583.20806  0.033288131  0.033369498            6 
 1461000    0.9993757   -6.7234449    582.17896  0.033206648   0.03336213            3 
 1462000    1.0179324   -6.6468187    585.32456  0.033363233  0.033354873            8 
 1463000    1.0120146   -6.6993696    585.89184  0.033372741  0.033347715            2 
 1464000    1.0272636   -6.6728267    586.74379   0.03339844    0.0333405            4 
 1465000   0.99164475    -6.652975    586.33617  0.033352456  0.033333366            4 
 1466000    1.0001519   -6.6886788    587.20417  0.033379046  0.033326027            3 
 1467000     1.017999   -6.7054322    587.77426  0.033388677  0.033318849            3 
 1468000    1.0283322   -6.6475532    586.79641  0.033310423  0.033311649            5 
 1469000     1.020474   -6.6557016    589.66349  0.033450391    0.0333046            4 
 1470000    1.0232508   -6.6770808    588.55932  0.033365041  0.033297672            5 
 1471000    1.0369137   -6.6933422    587.28989  0.033270444  0.033290682            3 
 1472000     1.016229    -6.667212    585.78602  0.033162705  0.033283638            2 
 1473000    1.0217296   -6.6888953    588.16552  0.033274808  0.033276468            3 
 1474000    1.0180133   -6.7010919    589.16271  0.033308611  0.033269334            4 
 1475000   0.99507542   -6.6746282    590.21457  0.033345456  0.033262256            4 
 1476000    1.0165363   -6.7017501     590.0579  0.033314019  0.033255101            6 
 1477000    1.0102593   -6.6904846    589.62335  0.033266946  0.033247949            5 
 1478000    0.9775126   -6.7013107    588.88003  0.033202528  0.033240621            3 
 1479000    1.0021796   -6.6615927    590.24338  0.033256895  0.033233202            9 
 1480000    1.0219713   -6.6908099    588.86018  0.033156541  0.033225666            3 
 1481000   0.99372004   -6.6757429    588.82797  0.033132341  0.033218315            3 
 1482000    1.0242303   -6.6896043    590.96649  0.033230234  0.033211033            4 
 1483000     1.030807   -6.6618152    591.37696  0.033230892  0.033203898            2 
 1484000    1.0003363   -6.7289916    592.17522  0.033253325  0.033196615            3 
 1485000    1.0173953   -6.6744498    592.00597  0.033221435  0.033189473            5 
 1486000   0.99915956   -6.6820549    590.00317  0.033086764  0.033182498            4 
 1487000   0.99548825   -6.6559587    593.87352  0.033281412  0.033175285            7 
 1488000     1.028025   -6.6875541    591.90313  0.033148697  0.033168114            3 
 1489000    1.0247048   -6.6802563    592.75127  0.033173901  0.033160718            1 
 1490000    1.0129252   -6.6962427    593.24398  0.033179193  0.033153568            2 
 1491000    1.0004716   -6.6750954    593.00689  0.033143689   0.03314631            6 
 1492000    1.0149684   -6.6959076    592.25742  0.033079615  0.033139049            3 
 1493000    1.0040333   -6.6864329    592.55141  0.033073867  0.033131697            6 
 1494000    1.0364311   -6.6902068    592.72099  0.033061189  0.033124366            5 
 1495000    1.0209838    -6.696245    592.32169  0.033016817  0.033117029            5 
 1496000    1.0243912   -6.6748333    594.79637  0.033132597  0.033109608            3 
 1497000    1.0266289   -6.6960898     592.7813  0.032998291  0.033102211            6 
 1498000    1.0297447   -6.7244325    592.70259  0.032971884  0.033094818            2 
 1499000    1.0380579   -6.6949331    592.92225    0.0329621  0.033087195            3 
 1500000    1.0122036   -6.7064322     594.0741  0.033004117  0.033079591            4 
 1501000    1.0156868   -6.7164697    594.20652   0.03298948  0.033072091            6 
 1502000    1.0126778   -6.6949713     594.4714  0.032982212  0.033064508            1 
 1503000    1.0116409   -6.6850912    596.02287  0.033046289  0.033056893            5 
 1504000    1.0178703   -6.6992137    594.67298  0.032949522  0.033049427            4 
 1505000   0.99981384   -6.7060109     596.1492  0.033009369  0.033041973            3 
 1506000    1.0007939   -6.6957673     594.9793  0.032922715  0.033034514            2 
 1507000    1.0442792   -6.7011819    595.95495  0.032954819  0.033027167            6 
 1508000    1.0313725   -6.6692949    597.68472  0.033028554  0.033019932            3 
 1509000    1.0340862   -6.6862785    597.65608  0.033005085  0.033012712            4 
 1510000    1.0157342   -6.6915736    598.40739   0.03302469   0.03300537            3 
 1511000    1.0295701    -6.677592    599.03378   0.03303738  0.032998315            4 
 1512000    1.0042191   -6.6933801    597.81309  0.032948252  0.032991319            5 
 1513000    1.0367206   -6.6835107    599.95869  0.033044651  0.032984155            5 
 1514000    1.0299013   -6.7043739     600.4448  0.033049581  0.032976925            3 
 1515000    1.0188623   -6.6730623    601.13254  0.033065596  0.032969665            3 
 1516000    1.0158407   -6.7054136    600.68101  0.033018965  0.032962385            4 
 1517000     1.007332   -6.7219303    599.51799  0.032933311  0.032955053            8 
 1518000    1.0231108    -6.669914    600.55623  0.032968612  0.032947736            1 
 1519000     1.026865   -6.6711461    600.56988  0.032947656  0.032940621            4 
 1520000    1.0058812   -6.6933148    599.07367  0.032843951  0.032933368            4 
 1521000    1.0051192   -6.6843758    602.21381  0.032994401  0.032926008            3 
 1522000    1.0214629    -6.696462     603.3126  0.033032884  0.032918827            5 
 1523000    1.0004706   -6.7189895    600.47403  0.032855878  0.032911716            2 
 1524000    1.0141691   -6.6795469    601.21222  0.032874684  0.032904515            5 
 1525000    1.0096107   -6.7161913    602.14646  0.032904178  0.032897236            3 
 1526000   0.98960222   -6.7212818    602.19174  0.032885088  0.032890032            5 
 1527000    1.0021717   -6.7116279    603.46305  0.032932932  0.032882954            7 
 1528000    1.0186873   -6.6456307    604.79952  0.032984267  0.032875862            4 
 1529000    1.0103817   -6.7140567    603.79865  0.032908145  0.032868793            5 
 1530000    0.9911386   -6.7171881    602.51486  0.032816714  0.032861522            2 
 1531000   0.98207097   -6.6797132    604.04076  0.032878334  0.032854273            4 
 1532000    1.0187307    -6.704299    602.53877  0.032775172  0.032846952            3 
 1533000    1.0132724   -6.6626401    603.73397  0.032818763  0.032839528            6 
 1534000    1.0077188   -6.6797795    604.63396   0.03284626  0.032832113            5 
 1535000    1.0041653   -6.7283247    604.00785  0.032790872  0.032824703            3 
 1536000   0.99844009    -6.681522     604.7221  0.032808274  0.032817483            5 
 1537000    1.0179954   -6.6972619    604.57532   0.03277897  0.032810271            3 
 1538000    0.9930127   -6.6736341    605.56108  0.032811069  0.032802969            5 
 1539000   0.98588175   -6.6813783    606.30629    0.0328301  0.032795783            3 
 1540000     1.002928   -6.6746845    607.46371  0.032871413  0.032788719            2 
 1541000    1.0075824   -6.6786069     607.5368  0.032854034  0.032781746            5 
 1542000   0.99775551   -6.7175562    606.66399  0.032785559  0.032774752            5 
 1543000   0.97632355   -6.6982961    608.02805   0.03283798  0.032767635            4 
 1544000    1.0002747   -6.7612277    606.20879  0.032718523  0.032760601            3 
 1545000   0.99371515   -6.7269377    607.66894  0.032776103  0.032753638            6 
 1546000    1.0224564   -6.7213258     607.2616  0.032732945  0.032746604            8 
 1547000    1.0045097   -6.7022973    607.61522  0.032730835  0.032739535            4 
 1548000    1.0064091   -6.6917028    609.78903  0.032826714  0.032732428            5 
 1549000    1.0306106    -6.708764    610.10818  0.032822691  0.032725465            3 
 1550000   0.99132473   -6.6872398    609.73263  0.032781324  0.032718336            8 
 1551000    1.0099365   -6.6889859    610.25971  0.032788508  0.032711333            4 
 1552000    1.0218481   -6.7242071    610.48067  0.032779246  0.032704168            4 
 1553000    1.0238116   -6.7263245    610.07107   0.03273616   0.03269713            3 
 1554000    1.0165449   -6.7156691    610.82202  0.032755363  0.032690009            3 
 1555000   0.99046136   -6.7071166    612.10233  0.032802911  0.032682955            9 
 1556000   0.99508044   -6.7129247    611.92782  0.032772484  0.032676005            3 
 1557000    1.0086618   -6.7059331    610.41608  0.032670524  0.032668812            6 
 1558000   0.98455161   -6.6633626    613.65394   0.03282274  0.032661733            3 
 1559000    1.0023258   -6.6988585    612.35024  0.032731999  0.032654596            4 
 1560000   0.99718195   -6.7120855    610.35543  0.032604457  0.032647448            4 
 1561000   0.99000467   -6.6883022    610.96925  0.032616338  0.032640395            3 
 1562000   0.98176599   -6.6923088    612.98119  0.032702795  0.032633309            1 
 1563000    1.0008688   -6.7247204    613.50961  0.032710045  0.032626305            3 
 1564000    1.0063684   -6.7142401    612.80214  0.032651436  0.032619239            5 
 1565000    1.0204269   -6.7010249      612.324  0.032605112  0.032611988            6 
 1566000   0.98474106   -6.7320994    613.06474  0.032623709  0.032604811            2 
 1567000    1.0183652   -6.6978262     614.4684  0.032677537  0.032597604            6 
 1568000    1.0059713   -6.6993385    613.57736  0.032609341   0.03259045            4 
 1569000    1.0095205   -6.7080183    612.44364  0.032528343  0.032583163            2 
 1570000    0.9799586   -6.7421344    613.37737  0.032557185   0.03257586            3 
 1571000    1.0140209   -6.7043828    613.54098   0.03254514  0.032568545            6 
 1572000    1.0279004   -6.6790745    614.43001  0.032571565  0.032561133            2 
 1573000    1.0159075   -6.7017803     614.4752  0.032553253  0.032553896            3 
 1574000    1.0138371   -6.6637312    615.85727  0.032605743  0.032546703            5 
 1575000   0.98923017   -6.7082896    615.57668  0.032570195  0.032539466            5 
 1576000    1.0197663   -6.7032472     615.8426  0.032563589  0.032532178            2 
 1577000    1.0040553   -6.7098984    615.28934  0.032513704   0.03252485            4 
 1578000   0.99237452   -6.6976386    614.67554  0.032460685  0.032517688            2 
 1579000    1.0254891    -6.662842    616.14082  0.032517459  0.032510623            2 
 1580000    1.0138559   -6.7341686    615.60647  0.032468695  0.032503248            4 
 1581000   0.99052945   -6.7431467    614.53012  0.032391425  0.032495855            3 
 1582000   0.98309681    -6.721773    616.59964  0.032479964  0.032488558            3 
 1583000   0.99023689   -6.6928413    617.10113  0.032485846  0.032481275            3 
 1584000   0.98410566   -6.7235598    617.46114  0.032484277  0.032474016            4 
 1585000    0.9973421   -6.7188335    617.80257  0.032481733  0.032466805            6 
 1586000   0.99877506   -6.7012374    618.74561  0.032510803  0.032459604            4 
 1587000    0.9892104   -6.7680328    616.35921  0.032365008  0.032452255            4 
 1588000     1.001728   -6.7501739    617.38895  0.032398664  0.032444949            4 
 1589000   0.99398556   -6.7418408    616.79743  0.032347253  0.032437649            3 
 1590000   0.99044756   -6.7057425    618.30737  0.032406047  0.032430258            3 
 1591000    1.0071363   -6.7060016     618.6166  0.032401875  0.032423009            5 
 1592000   0.99386945   -6.7295689    619.28851  0.032416694  0.032415705            5 
 1593000   0.98829105   -6.7073594    619.71801  0.032418812  0.032408387            2 
 1594000   0.98563455   -6.7015779    618.77809  0.032349336  0.032401103            4 
 1595000    1.0003269   -6.7017637    620.56422  0.032422373  0.032393823            5 
 1596000   0.99196981   -6.6967721    618.14214  0.032275592  0.032386383            3 
 1597000   0.98618416     -6.74296    620.61463  0.032384399  0.032379054            5 
 1598000    1.0117277   -6.7157212    620.80871  0.032374255  0.032371731            3 
 1599000   0.99840542   -6.6907239    621.48203  0.032389099  0.032364484            2 
 1600000   0.99303265   -6.7263089     620.5548  0.032320562  0.032357205            9 
 1601000    1.0058369   -6.7331236    620.28169  0.032286159  0.032349861            4 
 1602000   0.97578864   -6.7499339    619.70597  0.032236057  0.032342494            5 
 1603000    1.0011112   -6.7070606     621.4331  0.032305734   0.03233512            2 
 1604000    1.0255226   -6.6970363    622.36576  0.032334048  0.032328037            3 
 1605000   0.98240328   -6.7158371    623.34319  0.032364651  0.032320918            4 
 1606000    1.0318409   -6.7129497    623.16026  0.032335007  0.032313902            5 
 1607000    1.0080816   -6.7037019    624.87561  0.032403838  0.032306771            3 
 1608000    1.0030103   -6.7191524    623.00386  0.032286684  0.032299478            3 
 1609000   0.98524657   -6.7412166    622.56844  0.032244067  0.032292161            4 
 1610000   0.97100519   -6.7292708    622.13608   0.03220166  0.032284889            4 
 1611000     1.012977   -6.6943916    621.96587  0.032172867  0.032277573            3 
 1612000    1.0009973   -6.6830043    625.12846  0.032316401  0.032270306            4 
 1613000    0.9915696   -6.7225396    624.83194  0.032281047  0.032263075            3 
 1614000   0.98112068   -6.7147455    625.56972  0.032299139  0.032255775            5 
 1615000   0.97614464   -6.7285093    624.16511  0.032206662  0.032248518            3 
 1616000    1.0090251   -6.7406527    623.79294   0.03216754  0.032241103            7 
 1617000   0.97921518   -6.7335515    624.18937  0.032168077  0.032233628            4 
 1618000   0.99550138   -6.7023482    624.29959  0.032153873   0.03222632            4 
 1619000   0.98011897   -6.6890464    626.55776  0.032250245  0.032219156            4 
 1620000   0.99101936   -6.7181165    626.02746  0.032203059  0.032211942            7 
 1621000   0.99797157   -6.7311977    624.92823  0.032126683  0.032204669            2 
 1622000   0.99288125   -6.7170344    625.59056  0.032140904  0.032197421            6 
 1623000   0.98645615   -6.7615217    627.68793  0.032228791  0.032190274            3 
 1624000    1.0045152   -6.7146682    626.86468  0.032166701  0.032183121            4 
 1625000   0.99138864   -6.7324248    624.99483  0.032051017  0.032175872            4 
 1626000    1.0019179   -6.7287841    627.17171  0.032142872  0.032168482            6 
 1627000   0.97058627   -6.7318382    627.90035  0.032160436   0.03216098            8 
 1628000    0.9842799   -6.7195028    627.01051  0.032095133  0.032153635            5 
 1629000   0.99774982   -6.7658433    626.68503   0.03205878  0.032146178            3 
 1630000   0.96918894   -6.7606362    627.85073  0.032098708  0.032138796            4 
 1631000    0.9783927   -6.7071309    628.80225  0.032127644  0.032131309            6 
 1632000   0.97586915   -6.7157845     629.3649  0.032136688  0.032123974            3 
 1633000   0.99395022   -6.7156111    629.23515  0.032110387  0.032116721            2 
 1634000   0.96959284   -6.7135344    628.48534  0.032052496  0.032109392            7 
 1635000   0.98960593   -6.7490264    627.24736  0.031969794  0.032102047            5 
 1636000   0.98908646   -6.7460715    630.74606  0.032128467  0.032094749            4 
 1637000    1.0021078    -6.752058    626.93121  0.031914641  0.032087416            3 
 1638000    0.9855396    -6.740093    628.91167  0.031995913  0.032080058            3 
 1639000   0.97329728   -6.7160046    630.32419   0.03204821  0.032072739            9 
 1640000    0.9720783   -6.7136557    631.48771   0.03208779  0.032065513            3 
 1641000   0.97006675   -6.6997158    631.91293   0.03208983  0.032058229            6 
 1642000    1.0041003   -6.7138033    630.07312  0.031976914  0.032050878            9 
 1643000    0.9925655     -6.72701    631.11104  0.032010095  0.032043579            3 
 1644000    1.0041447   -6.7342902     632.1475  0.032043162  0.032036159            5 
 1645000   0.98589445   -6.7468213    631.26686  0.031979071   0.03202874            1 
 1646000   0.98181613   -6.7223022     631.9119  0.031992299  0.032021337            4 
 1647000    1.0042416   -6.7329046    631.91895  0.031973231  0.032013932            3 
 1648000    1.0105248   -6.7719245    630.06389  0.031860027  0.032006325            4 
 1649000    1.0034487   -6.7167922     631.8766  0.031932312  0.031998758            5 
 1650000   0.99272301   -6.6943419    630.86184  0.031861709  0.031991259            6 
 1651000    0.9796018   -6.7053396    633.45364   0.03197323   0.03198375            5 
 1652000   0.99350379   -6.7430687    632.90581  0.031926242  0.031976237            6 
 1653000   0.99545613   -6.7427515    634.26074  0.031975234  0.031968781            5 
 1654000   0.98615775   -6.7625147    634.02577  0.031944063  0.031961281            4 
 1655000   0.98825921   -6.7460331    633.67066  0.031906881  0.031953926            7 
 1656000   0.97371836   -6.7250098    635.55125  0.031982249  0.031946622            5 
 1657000   0.98755274   -6.7424739    633.87408    0.0318786  0.031939269            6 
 1658000    0.9855849   -6.7345019    635.77761  0.031955047  0.031932116            2 
 1659000   0.98639586   -6.7420097    637.35187  0.032014862  0.031925047            3 
 1660000    1.0036313    -6.737427    634.45056  0.031849928  0.031917774            5 
 1661000     1.009621   -6.7757678    634.37026  0.031826724  0.031910481            8 
 1662000    1.0047448   -6.7285883    635.15821  0.031847082  0.031903158            3 
 1663000   0.97970053   -6.7609323    634.36579  0.031788224  0.031895729            2 
 1664000   0.99044075   -6.7230547    636.53646  0.031877828  0.031888301            5 
 1665000   0.99415775   -6.7666783    636.04912   0.03183429  0.031880963            4 
 1666000   0.99200412    -6.748415     637.4915   0.03188733  0.031873572            2 
 1667000   0.97755451    -6.753155    637.07729  0.031847495  0.031866267            4 
 1668000   0.96959308   -6.7354039    636.94581  0.031821833  0.031859023            4 
 1669000   0.96759724   -6.7463323    635.32666  0.031721922  0.031851621            6 
 1670000   0.99631534   -6.7711013    636.17094  0.031745057  0.031844145            4 
 1671000   0.96715159    -6.739478    637.81836  0.031808217  0.031836608            5 
 1672000   0.96067286   -6.7701586    637.04102   0.03175045  0.031829076            2 
 1673000    0.9801179   -6.7811166    638.32379  0.031795367  0.031821646            3 
 1674000    0.9762665   -6.7655233    639.00449  0.031810259  0.031814212            4 
 1675000   0.98527581    -6.760555    637.44788  0.031713825  0.031806784            3 
 1676000   0.99468873    -6.757872    636.81526  0.031663448  0.031799405            2 
 1677000   0.98617438   -6.7734476    637.31917  0.031669607  0.031791853            4 
 1678000   0.98247777   -6.7585694    639.16677   0.03174249  0.031784386            3 
 1679000    1.0062303   -6.7217609    638.66827  0.031698842  0.031776959            2 
 1680000   0.99412912   -6.7508313    640.26594  0.031759223   0.03176945            2 
 1681000    0.9884838   -6.7378316    638.69505  0.031662455  0.031761945            3 
 1682000   0.98761775   -6.7496207    640.15127  0.031715779  0.031754313            5 
 1683000    1.0002072   -6.7198963    639.26115  0.031652859  0.031746737            6 
 1684000    0.9791116   -6.7140221    640.92173  0.031716238   0.03173919            2 
 1685000   0.97649161   -6.7492075    640.09633  0.031656594  0.031731678            6 
 1686000   0.97964903   -6.7365174    640.96404  0.031680706  0.031724124            5 
 1687000   0.99354821   -6.7590578    640.35227  0.031631707  0.031716595            4 
 1688000   0.98428862   -6.7553432    640.18004  0.031604465  0.031709006            3 
 1689000   0.97399598   -6.6998285     641.5752  0.031654588  0.031701489            9 
 1690000   0.95886344   -6.7476154    641.04351   0.03160964  0.031693998            2 
 1691000   0.99021662   -6.7304717     640.0729  0.031543115  0.031686377            3 
 1692000   0.98528116   -6.7906301     639.5933  0.031500852  0.031678706            3 
 1693000   0.99439741   -6.7662701    640.79978  0.031541631  0.031671062            3 
 1694000   0.95492283    -6.731881    641.71921  0.031568241  0.031663366            2 
 1695000   0.97190748   -6.7560628    642.30013  0.031578178  0.031655776            6 
 1696000    1.0028386   -6.7350961    640.97051  0.031494227  0.031648175            8 
 1697000   0.97147353   -6.7360056    642.71936  0.031561548  0.031640595            7 
 1698000   0.96532979   -6.7644118    640.91072  0.031454197  0.031632956            5 
 1699000   0.99871476   -6.7627761    642.75751  0.031526266  0.031625412            3 
 1700000   0.98888325   -6.7630465    644.27099  0.031581911  0.031617863            3 
 1701000   0.98205382   -6.7385184    643.78793  0.031539679   0.03161027            4 
 1702000   0.98279472   -6.7508273    645.11576  0.031586162   0.03160265            5 
 1703000   0.98595763   -6.7364631    645.14693  0.031569139  0.031595178            8 
 1704000   0.96913578   -6.7492595     643.8675  0.031488043  0.031587633            1 
 1705000   0.98971869   -6.7560924    643.90537  0.031471426  0.031580013            7 
 1706000   0.98611659   -6.7751372    644.72096  0.031492818  0.031572385            4 
 1707000   0.99137228     -6.71011     647.0516  0.031588147  0.031564796            7 
 1708000   0.97856201   -6.7452858     645.4375  0.031490901  0.031557251            3 
 1709000   0.99320393   -6.7195949    646.51609  0.031525068  0.031549753            4 
 1710000   0.98617746    -6.734433    644.07994  0.031387911  0.031542125            3 
 1711000   0.97553391   -6.7613167    644.36654  0.031383525  0.031534388            2 
 1712000   0.97566663   -6.7430885     645.0523  0.031398574   0.03152673            5 
 1713000    0.9564592   -6.7155648     646.7508  0.031462872  0.031519113            4 
 1714000   0.97869339   -6.7485304     646.4255    0.0314287  0.031511369            2 
 1715000   0.97060116   -6.7940939    646.03779  0.031391535  0.031503712            3 
 1716000   0.98916335   -6.7421579    647.29781  0.031434431  0.031496019            4 
 1717000    0.9877741   -6.7949285    646.57135  0.031380865  0.031488319            2 
 1718000   0.97141465   -6.7423116    647.44407  0.031404932  0.031480646            5 
 1719000   0.97750514   -6.7496946    646.00033  0.031316673  0.031473036            5 
 1720000     1.001335   -6.7428248    647.30221  0.031361541  0.031465416            5 
 1721000   0.97853265   -6.7577555    645.40204  0.031251309  0.031457833            3 
 1722000   0.98303186   -6.7632092    647.61947   0.03134047  0.031450021            4 
 1723000   0.95825899   -6.7650389    648.11856  0.031346419  0.031442371            3 
 1724000   0.95385445   -6.7764244    646.75649  0.031262398  0.031434609            6 
 1725000   0.95573859   -6.7438061    648.87159  0.031346454  0.031426801            2 
 1726000   0.97173758   -6.7777048    649.68815  0.031367717  0.031419014            4 
 1727000    0.9830784   -6.7417989    648.19754  0.031277627  0.031411191            4 
 1728000   0.96071954   -6.7704903    646.17533  0.031162005  0.031403372            4 
 1729000   0.98794063   -6.7602362    647.88528  0.031226397  0.031395532            3 
 1730000    0.9680158   -6.7627295    648.36697   0.03123155  0.031387687            4 
 1731000   0.95160386    -6.716003    650.31718  0.031307394  0.031379945            4 
 1732000   0.98610958   -6.7672744    648.88258  0.031220294  0.031372121            7 
 1733000    0.9799436    -6.768189    649.03451  0.031209584  0.031364211            3 
 1734000   0.96031542   -6.7715453    648.91132  0.031185665  0.031356226            3 
 1735000    0.9578305   -6.7941838    648.04913  0.031126279  0.031348149            3 
 1736000   0.97743686   -6.7607288    648.60369   0.03113497   0.03134011            4 
 1737000    0.9801926   -6.7422873    647.58581  0.031068212  0.031332086            7 
 1738000   0.95511191   -6.7850531    648.33048  0.031086042  0.031323987            5 
 1739000   0.96063118   -6.7722742    649.73993  0.031135707  0.031315861            2 
 1740000   0.94885637   -6.7722552    650.17379  0.031138592  0.031307701            4 
 1741000   0.96797102    -6.757535    649.62017  0.031094207   0.03129961            3 
 1742000   0.98167703   -6.7604069    647.47036  0.030973515  0.031291546            7 
 1743000   0.96806512   -6.7210634    650.90663  0.031120034  0.031283534            3 
 1744000   0.98380816   -6.7504568    648.88839  0.031005753  0.031275513            8 
 1745000   0.96422331   -6.7480262    649.38212  0.031011562  0.031267473            4 
 1746000   0.96869883   -6.7776443    651.14809  0.031078088  0.031259548            5 
 1747000   0.97608695   -6.7839145    652.07671  0.031104594  0.031251561            5 
 1748000    0.9737326   -6.7566639    650.63871  0.031018245  0.031243562            5 
 1749000   0.97590663   -6.7735853    651.34404  0.031034117  0.031235504            3 
 1750000   0.98466593   -6.7642793    651.01937  0.031000922  0.031227371            3 
 1751000   0.97122205   -6.7845495    651.94888  0.031027455   0.03121931            6 
 1752000   0.96851935   -6.7844204    651.45596    0.0309863  0.031211227            5 
 1753000   0.96685441   -6.7530969    652.85066  0.031034924  0.031203195            4 
 1754000   0.94271582      -6.7585    652.00707  0.030977151  0.031195038            5 
 1755000   0.94546444   -6.7888826    651.15978  0.030919268  0.031186938            3 
 1756000   0.97608021   -6.7866831    652.56076  0.030968145  0.031178799            8 
 1757000   0.98535161   -6.7964197    651.96801  0.030922406   0.03117063            8 
 1758000   0.97861374   -6.7843601    652.99309  0.030953408  0.031162429            6 
 1759000   0.97044068   -6.8027077    651.79022  0.030878824  0.031154289            3 
 1760000   0.95412958   -6.7819011    653.05289  0.030921065  0.031146121            3 
 1761000   0.99569007   -6.8018194    652.58892   0.03088155  0.031138161            4 
 1762000   0.96725048   -6.7515245    655.19063  0.030987071  0.031130222            3 
 1763000   0.98764869   -6.7806783     654.2002  0.030922679   0.03112223            3 
 1764000   0.96297131   -6.7543423    654.35161  0.030912302   0.03111418            8 
 1765000   0.98076692   -6.7739845    656.54036  0.030998129  0.031106246            4 
 1766000   0.98537113   -6.7714175    654.47459  0.030883097  0.031098297            4 
 1767000   0.95207663   -6.7608949    654.91252  0.030886272  0.031090293            5 
 1768000   0.99170194   -6.7989031    654.48324  0.030848569  0.031082283            3 
 1769000   0.97753095     -6.76227    656.33356  0.030918295  0.031074275            8 
 1770000   0.97316261   -6.7915854     655.2293  0.030848837   0.03106636            6 
 1771000   0.97214284   -6.7864605    657.34604   0.03093102  0.031058285            6 
 1772000   0.97945251   -6.7669688    655.81414  0.030841523  0.031050285            4 
 1773000   0.97670247   -6.7742168    655.78369  0.030822697  0.031042222            3 
 1774000   0.96947658   -6.7989425    657.08326  0.030866369  0.031034186            4 
 1775000   0.98031034   -6.7777683    655.20797  0.030760938  0.031026106            7 
 1776000   0.93953454   -6.7653436    657.99399  0.030874343  0.031017974            4 
 1777000   0.97643811     -6.76243     659.1285  0.030910171  0.031010044           10 
 1778000    0.9447072   -6.7610829    656.43164  0.030766387  0.031001924            3 
 1779000   0.94127024   -6.7974975    656.28353  0.030742155  0.030993869            8 
 1780000   0.96803747   -6.7790925    657.93545  0.030802222  0.030985765            4 
 1781000   0.94823328   -6.7685159    658.83067  0.030826814  0.030977722            4 
 1782000   0.96175984   -6.7585068      658.624  0.030799851  0.030969657            5 
 1783000   0.96639403   -6.7796875    657.81893  0.030744949  0.030961691            4 
 1784000   0.97543937   -6.7485051    661.08901  0.030880466  0.030953756            2 
 1785000   0.97104296   -6.8046931    659.19065   0.03077454  0.030945869           11 
 1786000   0.97018255   -6.7979325    660.08485  0.030799032  0.030938014            8 
 1787000   0.92803206   -6.7817388    659.19294  0.030740204  0.030930126            4 
 1788000   0.94969677   -6.7875594    661.13186  0.030813379  0.030922315            8 
 1789000   0.95612081   -6.7703863    661.58134  0.030817092   0.03091458            6 
 1790000   0.96773194   -6.7531817     662.7902  0.030856154  0.030906854            4 
 1791000   0.99596381   -6.7784097    662.54869  0.030827689  0.030899112            8 
 1792000   0.97026943   -6.7942304    661.33331  0.030753967  0.030891375            4 
 1793000   0.96428494   -6.7799477    662.58387  0.030794937  0.030883649            6 
 1794000    0.9823142   -6.8041326     662.8892  0.030791955   0.03087588            4 
 1795000   0.95892479   -6.8250645    660.40658  0.030659544  0.030867985            7 
 1796000   0.96448071   -6.7772577    664.05439  0.030811729  0.030860177            4 
 1797000   0.95542178   -6.7970489    660.14226  0.030613164  0.030852248            9 
 1798000   0.97514871   -6.7377209     662.3828  0.030699981  0.030844341            3 
 1799000   0.94772374   -6.7325934    663.37906  0.030729065  0.030836537            4 
 1800000   0.95816414   -6.7954386    661.51306  0.030625604  0.030828733            2 
 1801000    0.9586114   -6.7710324     663.1818  0.030685813  0.030820919            5 
 1802000   0.97003822   -6.7517171    664.62931  0.030735725  0.030813203            3 
 1803000   0.97275492   -6.7577064    664.30131  0.030703518  0.030805508            5 
 1804000   0.95127199   -6.7613094    665.51461  0.030742545  0.030797765            7 
 1805000   0.96514831   -6.7895185    664.16445  0.030663179  0.030790117            2 
 1806000   0.93401689   -6.7628345    664.52379  0.030662781  0.030782486            5 
 1807000   0.99411859    -6.804479    666.54323  0.030738943  0.030774834            4 
 1808000   0.99429553   -6.7512759    667.10124   0.03074766  0.030767239            3 
 1809000   0.97949258   -6.8132467    664.34317   0.03060361  0.030759554            3 
 1810000   0.96874571    -6.799049    666.58305  0.030689827  0.030751797            4 
 1811000   0.96518849   -6.7640797    666.55157  0.030671433   0.03074411            4 
 1812000   0.96994872    -6.790469    665.51491   0.03060683  0.030736519            5 
 1813000   0.96306431   -6.7829438    667.76361  0.030693308  0.030728863            5 
 1814000   0.96049119   -6.7562984    665.67414    0.0305804  0.030721278            4 
 1815000   0.95257752    -6.781939    667.95345  0.030668202  0.030713718            6 
 1816000   0.98024626   -6.7961159     666.6143  0.030589863  0.030706054            4 
 1817000   0.97110616     -6.78809    666.56825  0.030570916  0.030698366            5 
 1818000    0.9684557   -6.7712297     668.7524  0.030654217  0.030690739            3 
 1819000   0.94410796   -6.7754591    668.20988   0.03061251  0.030683279            2 
 1820000   0.95535989   -6.7574747    668.87008  0.030625919  0.030675805            2 
 1821000   0.93833369   -6.7596482      669.301  0.030628821  0.030668352            6 
 1822000   0.93324262     -6.78867    669.75134  0.030632608  0.030660958            3 
 1823000    0.9694345   -6.8121366    671.30761  0.030686945  0.030653604            5 
 1824000   0.94597586   -6.7682194    671.39518  0.030674122  0.030646244           10 
 1825000   0.95237825   -6.7701443    670.85925  0.030632843  0.030638932            3 
 1826000   0.93935259    -6.800375    674.07385  0.030762771  0.030631607            5 
 1827000   0.95385647     -6.80402     671.5196  0.030629429  0.030624261            4 
 1828000   0.96293512   -6.8184678    670.71488  0.030575988    0.0306169            3 
 1829000   0.95579611   -6.7810189    673.17954  0.030671567  0.030609431            5 
 1830000   0.97301324   -6.7962845    670.58028  0.030536443  0.030601978            4 
 1831000   0.96858891   -6.7400073     671.7635  0.030573616  0.030594582           11 
 1832000   0.94627519   -6.8082186    671.52546    0.0305461  0.030587148            5 
 1833000   0.96340328   -6.7949505     670.8509  0.030498768  0.030579658            3 
 1834000   0.95188863   -6.7948897    672.48773  0.030556512  0.030572155            5 
 1835000   0.94551675    -6.816641    670.90815  0.030468127  0.030564601            7 
 1836000   0.93774423   -6.8176889    671.76328  0.030490345  0.030557036            5 
 1837000   0.94234178   -6.8144798    671.70013  0.030470882  0.030549505            5 
 1838000   0.95817121   -6.7872367    673.40739   0.03053171  0.030542063            3 
 1839000   0.94339008   -6.7664333    673.65726   0.03052643  0.030534696            4 
 1840000   0.93133446    -6.776945    675.94901  0.030613633  0.030527378            4 
 1841000   0.96176502   -6.8135267    672.98532  0.030462852  0.030520048            4 
 1842000   0.96908917   -6.7956551    673.03291  0.030448467  0.030512583            7 
 1843000    0.9558351   -6.8249802     674.4367  0.030495419  0.030505126            4 
 1844000   0.95812335   -6.7877363    673.21643  0.030423736  0.030497649            7 
 1845000    0.9487357   -6.7902083    676.07709  0.030536454  0.030490243            7 
 1846000   0.95185082   -6.8108295    675.03356  0.030472804  0.030482846            5 
 1847000     0.955531   -6.8186546    673.42203  0.030383596  0.030475349            5 
 1848000   0.94821471   -6.7719707    676.15989  0.030490615  0.030467858            5 
 1849000   0.93160498   -6.7769055    674.53796  0.030401026  0.030460366            5 
 1850000   0.94257575   -6.8170389    675.17717  0.030413386  0.030452939            4 
 1851000   0.93563665   -6.8197402    675.50725  0.030411816  0.030445477            6 
 1852000   0.96129757   -6.8391363    674.17676  0.030335527  0.030437983            4 
 1853000    0.9610859   -6.8009544    674.58138  0.030337353  0.030430336            5 
 1854000   0.97305766   -6.7924382    677.22057  0.030439616   0.03042279            3 
 1855000   0.96978363    -6.781921    676.49525  0.030390622  0.030415204            3 
 1856000   0.93784272   -6.8328654    675.95949  0.030350193  0.030407575            3 
 1857000   0.95899384   -6.8137217    675.33695  0.030305912  0.030399996            4 
 1858000   0.94373617   -6.8001117    675.48182  0.030296099  0.030392381            4 
 1859000   0.95173207   -6.8144095    677.64357  0.030376706  0.030384932            6 
 1860000   0.95604315   -6.8110931    680.47784  0.030487358  0.030377575            3 
 1861000    0.9578365   -6.8087732    676.98233  0.030314451  0.030370103            5 
 1862000   0.95228945    -6.801804    679.56286  0.030413662   0.03036275            2 
 1863000   0.95582899   -6.7900915    678.85044   0.03036547  0.030355426            4 
 1864000   0.95166091   -6.7984299     679.7131  0.030387746  0.030348118            6 
 1865000   0.95739174   -6.8073742    679.94538  0.030381831  0.030340838            5 
 1866000   0.95052299   -6.7964934    678.23775  0.030289289  0.030333419            3 
 1867000    0.9580054   -6.8266378    678.22279  0.030272397  0.030325955            5 
 1868000   0.96980262    -6.776344    678.86372  0.030284784    0.0303185            8 
 1869000    0.9507309   -6.8202133    680.51162  0.030342055  0.030311098            4 
 1870000   0.96617103   -6.8043563    679.87639  0.030297522  0.030303709            3 
 1871000   0.95605618   -6.7922973    681.82112  0.030367946  0.030296437           11 
 1872000   0.95486614   -6.7948563    679.73547   0.03025888  0.030289215            4 
 1873000   0.94504719   -6.8035361    680.23769  0.030265069   0.03028182            7 
 1874000   0.96850758   -6.8012111    681.22279  0.030292724  0.030274524            5 
 1875000   0.94181674   -6.8002082    682.18413  0.030319295  0.030267293            4 
 1876000   0.95802879   -6.7917077    681.46045  0.030270986  0.030260022            7 
 1877000   0.93853929    -6.827138    680.47715  0.030211204  0.030252698            7 
 1878000   0.96077814    -6.822784    682.68558  0.030293112  0.030245406            7 
 1879000   0.97400267   -6.7934065    681.90878  0.030242539  0.030238183            4 
 1880000   0.96386913   -6.8042486    683.48758  0.030296435  0.030230901            4 
 1881000   0.97292234   -6.7987446    683.15866  0.030265756  0.030223585            3 
 1882000   0.95251537   -6.7732138    684.22552  0.030296914  0.030216339            3 
 1883000   0.95598758   -6.7878189    683.27662  0.030238831  0.030209038            3 
 1884000   0.95577092   -6.8072645    683.36209  0.030226561  0.030201687            2 
 1885000   0.92112394   -6.8107371    684.22806  0.030248809  0.030194381            3 
 1886000    0.9434789   -6.7998141    684.93532  0.030264021  0.030187062            4 
 1887000   0.96398005   -6.8094718    683.64829  0.030191145  0.030179559            5 
 1888000   0.94083594   -6.8313146    683.57296  0.030171829  0.030172204            3 
 1889000     0.950391   -6.8042182    683.86636    0.0301688  0.030164912            2 
 1890000   0.92797546   -6.8099926     684.3376  0.030173616  0.030157631            4 
 1891000   0.95345397   -6.8365728     683.2502  0.030109739  0.030150262            6 
 1892000   0.96091454   -6.8141365    685.47229  0.030191697   0.03014282            2 
 1893000   0.93651172   -6.8103157    684.20557  0.030119985  0.030135453            5 
 1894000    0.9667616   -6.7941945    684.85615  0.030132707  0.030128092            3 
 1895000   0.94563291    -6.805462    685.88199  0.030161917  0.030120761            8 
 1896000   0.93732012   -6.8100458    685.88268  0.030146039  0.030113451            5 
 1897000   0.91970366   -6.8325224    684.46212  0.030067744  0.030106134            3 
 1898000   0.95993159   -6.8201913    685.66813  0.030104853  0.030098754            4 
 1899000   0.96423984   -6.7996643    686.15813  0.030110502  0.030091415            9 
 1900000   0.96237407    -6.800641    686.97218  0.030130359  0.030084091            4 
 1901000   0.96342956   -6.8042382    687.57544  0.030140954  0.030076792            8 
 1902000   0.96305177   -6.7969691     688.2519  0.030154745  0.030069517            5 
 1903000   0.94567841    -6.830475    687.84888   0.03012125  0.030062209            3 
 1904000   0.95105498   -6.8169352    688.24017  0.030122557  0.030054802            2 
 1905000   0.93276067   -6.8254421    687.23643  0.030062836  0.030047364            4 
 1906000   0.96647171   -6.7814975    686.24189   0.03000358  0.030039895            4 
 1907000   0.93730407    -6.830698    686.64455  0.030005442  0.030032517            5 
 1908000   0.95800189   -6.8176514    686.23428  0.029971798  0.030025142            3 
 1909000   0.93916376   -6.8062859    688.38082    0.0300498  0.030017785            5 
 1910000   0.93318315   -6.7858304     689.0401  0.030062832  0.030010492            4 
 1911000   0.94834918   -6.7747255    687.17662  0.029965839  0.030003229            3 
 1912000   0.95688251   -6.7979389    688.49917  0.030007809  0.029995894            6 
 1913000   0.93977899   -6.8158971    688.91279  0.030010141  0.029988608            5 
 1914000   0.95215019    -6.876226    685.24006  0.029834555  0.029981218            4 
 1915000    0.9415186   -6.8415384    688.61179    0.0299657  0.029973783            2 
 1916000   0.95078453   -6.8225238    691.15614  0.030060723  0.029966431           11 
 1917000    0.9471774   -6.8111042    691.19831  0.030046875  0.029959147            8 
 1918000   0.93159753   -6.8447181    689.67787  0.029965149  0.029951913            5 
 1919000    0.9692001    -6.811952    690.47825  0.029984291  0.029944657            7 
 1920000   0.94663219   -6.8086038    690.69542    0.0299781  0.029937372            5 
 1921000   0.95217991   -6.8561456    688.80475  0.029880477  0.029930104            6 
 1922000   0.94802741   -6.8432081    691.49028  0.029981368  0.029922758            3 
 1923000   0.93862556   -6.8204778    689.60264  0.029883976   0.02991541            7 
 1924000   0.95224284   -6.8227773    690.54498  0.029909259  0.029908048            3 
 1925000   0.93180753   -6.7963998    691.01058  0.029913878  0.029900664            7 
 1926000   0.93650259     -6.82475    691.55982   0.02992211  0.029893259            4 
 1927000   0.92086776   -6.8250155    692.19826  0.029934192  0.029885848            2 
 1928000   0.95444387   -6.8093836    692.39722  0.029927266  0.029878489            7 
 1929000   0.95821791   -6.8298179     689.9391   0.02980556  0.029871116            4 
 1930000   0.92816359    -6.845648    691.81674  0.029871189  0.029863793           13 
 1931000   0.93281705   -6.8193038    692.08384  0.029867247  0.029856348            7 
 1932000   0.94152149   -6.8323808    691.39899  0.029822248  0.029848847            3 
 1933000   0.93504426   -6.7770208    694.33995  0.029933607  0.029841498            3 
 1934000   0.95203824   -6.8300905    692.85861  0.029854301  0.029834125            4 
 1935000   0.96570907   -6.8199327    693.61154  0.029871298  0.029826778            4 
 1936000    0.9304124   -6.8033021    691.18954  0.029751616  0.029819336            2 
 1937000   0.95470188   -6.8302062     693.2878  0.029826527   0.02981192            5 
 1938000   0.95542279   -6.8169452    692.07361  0.029758927  0.029804561            4 
 1939000    0.9249204   -6.8331976     692.6252  0.029767285  0.029797104            8 
 1940000   0.96774037    -6.810426    692.79237  0.029759123  0.029789659            6 
 1941000   0.95440382   -6.8385211    694.23497  0.029805726  0.029782138            5 
 1942000   0.95051869   -6.8574039    692.77135  0.029727572  0.029774628            5 
 1943000   0.94322358   -6.8359217    694.77794  0.029798333  0.029767256            3 
 1944000   0.94340975     -6.83677    693.43525  0.029725448  0.029759787            4 
 1945000   0.93630169   -6.8738039    693.16068  0.029698401  0.029752288            6 
 1946000   0.93872349   -6.8019172    696.16594  0.029811834  0.029744995            3 
 1947000   0.93946447   -6.8326717    693.73656  0.029692542  0.029737538            5 
 1948000   0.93282657   -6.8619884    694.87355  0.029725939  0.029730006            5 
 1949000   0.91929155   -6.8225359     693.1001   0.02963486  0.029722515            6 
 1950000   0.92247057    -6.833968    695.15262  0.029707377  0.029715088            3 
 1951000   0.94552285   -6.8104437    693.33753  0.029614622  0.029707536            5 
 1952000   0.92677978   -6.8698519    694.12999  0.029633282  0.029699954            6 
 1953000   0.93424507   -6.8407008      694.555  0.029636243   0.02969236            4 
 1954000   0.92878667   -6.8567544    693.31667  0.029568265  0.029684823            4 
 1955000   0.93020299   -6.8452626    695.64295    0.0296523  0.029677291            6 
 1956000   0.95800555   -6.8142156     696.3618  0.029667766  0.029669798            3 
 1957000   0.93101619   -6.8191777    695.44492  0.029613563    0.0296623            2 
 1958000   0.93525663    -6.844518    696.78755  0.029655582    0.0296548           11 
 1959000   0.92800328   -6.8545081    696.48045   0.02962738   0.02964728            5 
 1960000   0.94409238    -6.839895    696.36739  0.029607457  0.029639747            4 
 1961000   0.90382243   -6.7889982    697.69026  0.029648575  0.029632306            8 
 1962000   0.95293485   -6.8156912    697.78984  0.029637693  0.029624923           12 
 1963000   0.92219109   -6.8416078    696.11023  0.029551292  0.029617448            3 
 1964000   0.93942094   -6.8196603    699.31156  0.029672079  0.029610024            3 
 1965000   0.93244669    -6.845931    698.02422  0.029602384   0.02960261            2 
 1966000   0.95377204   -6.8585847    698.19545  0.029594585  0.029595231            7 
 1967000    0.9393744   -6.8588828    696.33822  0.029500857   0.02958779            3 
 1968000   0.91446508   -6.8159394    698.77444  0.029589026   0.02958036            5 
 1969000   0.94611993   -6.8187818    697.69757  0.029528423  0.029572903            8 
 1970000   0.92207823   -6.8271108    699.36091  0.029583795  0.029565382            4 
 1971000    0.9192218   -6.8124419    698.00947  0.029511647  0.029557853            4 
 1972000   0.94432848   -6.8161827    698.98541  0.029537923  0.029550375            8 
 1973000   0.92540461   -6.8554104     698.7829  0.029514399  0.029542908            6 
 1974000   0.92237366    -6.820769    698.92844  0.029505591  0.029535507            6 
 1975000   0.93757986   -6.8495596    699.74298   0.02952502  0.029528154            5 
 1976000   0.96399579   -6.8635287    699.95112  0.029518856  0.029520769            6 
 1977000   0.93675026   -6.8166686    701.69575  0.029577464  0.029513388            5 
 1978000   0.93342783    -6.842198    699.52307  0.029470975  0.029505985            4 
 1979000   0.94652434   -6.8640072    699.23619  0.029444003  0.029498449            4 
 1980000   0.91957804    -6.819777    699.68352   0.02944796  0.029490915            3 
 1981000   0.93403714    -6.857448    699.41922  0.029421976  0.029483396            5 
 1982000   0.93484311   -6.8488864    699.17576  0.029396895  0.029475849            3 
 1983000   0.93996746   -6.8269269    700.53525  0.029439202  0.029468391            4 
 1984000   0.92802313   -6.7983928     701.0852  0.029447463  0.029460937            6 
 1985000    0.9242541   -6.8349133    700.21747  0.029396199  0.029453471            3 
 1986000   0.93092213   -6.8819141    700.53316  0.029394644  0.029445876            5 
 1987000   0.92658609    -6.838445    700.34407  0.029371921  0.029438304            4 
 1988000   0.94826732   -6.8626544    699.85227   0.02933653  0.029430813            4 
 1989000   0.95021947   -6.8788161     700.3034  0.029340682    0.0294233            4 
 1990000   0.91667525   -6.8385029    702.03642   0.02939851  0.029415778            9 
 1991000   0.93534768   -6.8452956    701.60175  0.029365551  0.029408273            3 
 1992000   0.93731088   -6.8456294     702.3906   0.02938381  0.029400734            5 
 1993000   0.93566345   -6.8479567    702.88238   0.02938963  0.029393153            9 
 1994000   0.93675994    -6.779999    705.43355  0.029481509  0.029385682            9 
 1995000   0.93861828   -6.8217799    702.85037  0.029358829  0.029378286            4 
 1996000   0.92255505   -6.8522659    702.53811  0.029331084  0.029370715            4 
 1997000   0.90228075   -6.8688485    701.79994  0.029285593  0.029363157            6 
 1998000   0.94015849   -6.8577707    702.82049    0.0293135  0.029355618            2 
 1999000   0.93376961   -6.8348663    704.69707  0.029377066  0.029348136            6 
 2000000   0.93671118   -6.8458845    705.01254  0.029375522  0.029340734            6 
 2001000   0.93498987   -6.8486609    704.82945  0.029353217  0.029333349            9 
 2002000   0.93482928   -6.8667212    703.72163  0.029292442  0.029325931            3 
 2003000   0.94785586   -6.8276636    705.32017  0.029344324  0.029318573            4 
 2004000   0.92681412   -6.8302146    705.64578  0.029343221  0.029311294            6 
 2005000   0.94010383   -6.8234197      705.608  0.029327016  0.029303968            2 
 2006000   0.93593063   -6.8460687    707.12235  0.029375305  0.029296684            2 
 2007000    0.9373844   -6.9144302    703.55317  0.029212472  0.029289304            4 
 2008000    0.9148335   -6.8352872     706.2413  0.029309483  0.029281927            9 
 2009000   0.94229671   -6.8613292    706.57337  0.029308668   0.02927461            3 
 2010000   0.93282333   -6.8399721     707.5283  0.029333678  0.029267267            6 
 2011000   0.93859966   -6.8755996    706.79953  0.029288891  0.029259943            4 
 2012000   0.92907544   -6.8475959    707.08461  0.029286142  0.029252618            5 
 2013000   0.92740954   -6.8198796    706.24943  0.029237019   0.02924539            2 
 2014000   0.92120031   -6.8502782    707.73977  0.029284168  0.029238104            5 
 2015000   0.92991039   -6.8581303    704.58041  0.029138975  0.029230704            3 
 2016000   0.92960388   -6.8813196     707.8326  0.029258953  0.029223376            4 
 2017000   0.92801985   -6.8433018    706.51229  0.029189898  0.029216066            3 
 2018000   0.92426346   -6.8936654    707.35953   0.02921042  0.029208701            4 
 2019000   0.92909943   -6.8632511    707.46277  0.029200213  0.029201304            8 
 2020000   0.93890326   -6.8705837      708.105  0.029212253  0.029194006            5 
 2021000   0.91937309   -6.8528786    710.48323  0.029295861  0.029186801            4 
 2022000   0.91816438   -6.8748895    709.05196  0.029222385  0.029179579            3 
 2023000   0.92830649   -6.8631322    710.01742   0.02924771  0.029172276            5 
 2024000    0.9246617   -6.8517935    710.15242  0.029238818  0.029165056           11 
 2025000   0.91068885   -6.8901167    708.74168  0.029166324  0.029157745            3 
 2026000     0.897709   -6.8780118    706.58925  0.029063395  0.029150406            6 
 2027000   0.93259663   -6.8504954    708.60338  0.029131861  0.029143069            5 
 2028000   0.92059237   -6.8468131    710.58319  0.029198849  0.029135836            5 
 2029000   0.93049302   -6.8646347    711.61426  0.029226806   0.02912858            4 
 2030000   0.93728105   -6.8372402    711.73644  0.029217424  0.029121267            5 
 2031000   0.93212589   -6.8710552    711.33052  0.029186383  0.029114034            6 
 2032000   0.91821098   -6.8830827    711.58023   0.02918226  0.029106797            3 
 2033000   0.91404376   -6.8713953     711.4137  0.029161079  0.029099553            5 
 2034000   0.92531288   -6.8570153    713.86966  0.029247364  0.029092343            9 
 2035000   0.94509089    -6.875029    710.93558  0.029112841  0.029085063            4 
 2036000   0.93813033   -6.8722895    712.06664  0.029144836  0.029077832            9 
 2037000   0.91201709   -6.8797379    711.01738  0.029087604  0.029070529            7 
 2038000   0.95392336   -6.8924947    711.52235  0.029093979  0.029063167            7 
 2039000    0.9118956   -6.8742053    712.82927  0.029133123  0.029055921            5 
 2040000   0.91660508   -6.8724037    712.53949  0.029107005  0.029048662            9 
 2041000   0.93514599   -6.8241998    715.02335  0.029194159  0.029041408            7 
 2042000   0.90852457   -6.8498847    715.12845  0.029184152  0.029034281            4 
 2043000   0.93318625   -6.8889152    714.03671  0.029125335   0.02902711            4 
 2044000   0.90383492   -6.8711642    714.06142  0.029112093  0.029019873            5 
 2045000   0.92299373   -6.8498324    713.47564  0.029073987  0.029012693            6 
 2046000   0.91432715   -6.9033181    712.66761  0.029026866  0.029005473            4 
 2047000   0.92945687   -6.8494812    712.77778  0.029017171  0.028998232            3 
 2048000   0.95215444   -6.8537093    714.03862  0.029054306  0.028991084            8 
 2049000   0.91559863   -6.8335786    714.12368  0.029043586  0.028983873            5 
 2050000   0.90643958   -6.8571882    714.50525  0.029044929  0.028976688            4 
 2051000   0.92063773    -6.861504    713.67717  0.028997122  0.028969479            7 
 2052000   0.93905617   -6.8450418    714.47194  0.029015267  0.028962252            3 
 2053000   0.93977115   -6.8602616    714.71916  0.029011169  0.028954969            7 
 2054000   0.90928501    -6.863383    714.79377  0.029000072   0.02894766            4 
 2055000   0.90719737   -6.8494867    714.09286  0.028957537  0.028940437            4 
 2056000   0.93067902    -6.899317     714.8813  0.028975409  0.028933249           10 
 2057000   0.94372567   -6.8937507    715.40609  0.028982583  0.028926056            8 
 2058000   0.91962178   -6.8560193    713.94555   0.02890936  0.028918827            9 
 2059000   0.92026163   -6.8711573    716.49074   0.02899833  0.028911623            6 
 2060000   0.92600586   -6.8769514       714.19  0.028891181  0.028904467            6 
 2061000   0.93247788   -6.8823686    715.20465  0.028918189  0.028897269            6 
 2062000   0.92955561   -6.8629712    715.99487  0.028936101  0.028890036           15 
 2063000   0.92336157   -6.8677568     717.4947  0.028982659  0.028882846            5 
 2064000   0.92748109   -6.8667553    716.40187  0.028924494   0.02887563            9 
 2065000   0.92555296   -6.8742078    716.94246  0.028932303  0.028868367            7 
 2066000   0.91183435   -6.8758289    716.42053  0.028897246  0.028861094            3 
 2067000   0.95535898   -6.8846324    717.55875  0.028929155  0.028853828            5 
 2068000   0.90373584   -6.8779639    717.03319  0.028893988  0.028846558            5 
 2069000   0.92759508   -6.8598446    717.48248  0.028898118  0.028839227            4 
 2070000   0.91346008   -6.8253565    718.66029  0.028931574   0.02883199           11 
 2071000   0.90950316   -6.8796854    715.09252  0.028774043  0.028824745            4 
 2072000   0.92659171   -6.8657999    718.68397    0.0289046  0.028817433            6 
 2073000   0.92187895   -6.8729338    716.60639  0.028807139  0.028810158            3 
 2074000   0.91664822   -6.8500051     717.1649   0.02881569   0.02880285            6 
 2075000   0.91368663   -6.9024897    717.40477  0.028811437  0.028795461            6 
 2076000   0.91838152   -6.8404439     717.6374  0.028806896  0.028788064            6 
 2077000   0.90295401   -6.8526588    716.18875  0.028734904  0.028780684            4 
 2078000   0.91051113   -6.8595041     717.2279  0.028762749  0.028773319            6 
 2079000   0.91285856   -6.8907568    716.26481   0.02871031  0.028765958            3 
 2080000   0.92819799   -6.8594449     717.8988  0.028761971  0.028758529            4 
 2081000   0.92005552   -6.8335455    718.70416    0.0287804   0.02875115            4 
 2082000   0.90838415   -6.8589617    719.13256  0.028783724  0.028743804            5 
 2083000   0.90199231   -6.8601145    718.16933   0.02873137  0.028736359            3 
 2084000   0.93429991   -6.8485716    716.64184  0.028656504  0.028728852            4 
 2085000   0.91022646   -6.8696925    717.96605  0.028695685  0.028721298            5 
 2086000   0.89591808   -6.8886055    716.25261  0.028613479  0.028713755            9 
 2087000   0.90776487   -6.8905077    717.68802  0.028657084  0.028706087            6 
 2088000   0.92958096   -6.8689585    718.51515  0.028676371  0.028698507            3 
 2089000   0.91781699   -6.9181113    718.06297  0.028644606  0.028690899            8 
 2090000   0.93046062   -6.8771722    717.23672  0.028597955  0.028683281            4 
 2091000   0.91345087   -6.8811443    719.11161  0.028658999  0.028675713            3 
 2092000   0.89965543   -6.8695053    718.85513  0.028635083   0.02866821            7 
 2093000   0.92202117   -6.8465632    719.36621  0.028641751  0.028660687            5 
 2094000   0.93307006   -6.8825712    719.27264  0.028624349   0.02865327           16 
 2095000    0.9427506   -6.8913222    718.03949  0.028561634   0.02864575            4 
 2096000   0.91133528   -6.8715127    720.34717  0.028639757   0.02863824            4 
 2097000   0.92465553    -6.887857    718.67216  0.028559536  0.028630778            3 
 2098000   0.94303173   -6.8817447    721.08673  0.028641831  0.028623266            4 
 2099000   0.91585507   -6.8609234    722.11368  0.028668957   0.02861586            5 
 2100000   0.91304912   -6.8809901      722.533  0.028671945  0.028608512           12 
 2101000   0.91054148   -6.8997647    721.95505  0.028635374  0.028601088            6 
 2102000    0.9100849   -6.8769706    721.32959  0.028596955  0.028593678            5 
 2103000   0.91552408   -6.8718669     719.2893  0.028502508  0.028586269            5 
 2104000   0.91423104   -6.8660496    721.91574  0.028592987  0.028578892            5 
 2105000    0.9188173   -6.8728308    720.18521  0.028510895  0.028571469            6 
 2106000   0.90418783   -6.8659423    724.27743  0.028659284  0.028564123            6 
 2107000   0.91161687   -6.8438761    722.91613  0.028591842  0.028556765            7 
 2108000   0.90931199   -6.8708964    724.65268  0.028646928  0.028549503           11 
 2109000   0.92777181   -6.8619687      724.665  0.028633831  0.028542314            2 
 2110000    0.9024554   -6.9003441     724.1074  0.028598239  0.028535083            7 
 2111000   0.91908037   -6.8818203     723.8868  0.028575983  0.028527774            3 
 2112000   0.93964676   -6.9188269    722.41099  0.028504221  0.028520432            3 
 2113000   0.92191534   -6.8451145    724.12495  0.028558327  0.028513099            3 
 2114000   0.90783068   -6.8811898    724.19553    0.0285476   0.02850572            7 
 2115000   0.91126741   -6.8916573    722.78616  0.028478572  0.028498468            8 
 2116000   0.91960358   -6.8612871     724.9621  0.028550808  0.028491082            3 
 2117000   0.92250652   -6.8814049    725.40798  0.028554872  0.028483679            7 
 2118000   0.91619934   -6.8809338    723.95088  0.028484061  0.028476314            7 
 2119000   0.91630141   -6.8944189    722.71265  0.028421923  0.028468892            5 
 2120000   0.90826634   -6.9031264    724.01136  0.028459566  0.028461492            5 
 2121000   0.92384755   -6.8854771    723.83188  0.028439096  0.028454083            4 
 2122000   0.91743535   -6.9073751    721.16374  0.028320913  0.028446635           10 
 2123000   0.91355372   -6.8634088    725.55014  0.028479751  0.028439225            4 
 2124000   0.92023532   -6.8968212    725.03638  0.028446186  0.028431854           16 
 2125000   0.93095545   -6.8764223    725.29059  0.028442768  0.028424431            5 
 2126000   0.91004251   -6.9021794    724.24953  0.028388583  0.028416957            5 
 2127000   0.90712815   -6.8658442    723.31213   0.02833851  0.028409373            9 
 2128000   0.91528753   -6.8822065    725.89777  0.028426448   0.02840186            3 
 2129000    0.8969412   -6.9035167    723.48378  0.028318607  0.028394348            3 
 2130000   0.91390325   -6.9123632    724.25925  0.028335651  0.028386841            5 
 2131000   0.91186039   -6.8753172    725.73661  0.028380127  0.028379326            6 
 2132000    0.9116633   -6.8917119    725.13826  0.028343428  0.028371853            3 
 2133000   0.90600122   -6.8855828    725.16941  0.028331357  0.028364375            7 
 2134000   0.90488539   -6.8939878    726.36113  0.028364618  0.028356884            3 
 2135000   0.90331652   -6.8747443    726.01421  0.028337791  0.028349436            6 
 2136000   0.90505045   -6.8896912    727.71223  0.028390771  0.028341996            3 
 2137000   0.91996566   -6.9019369    725.41635  0.028287956  0.028334525            5 
 2138000   0.91975309   -6.8964676    725.87821  0.028292727   0.02832692            6 
 2139000   0.92463922   -6.8879327    725.59568  0.028268493  0.028319331            4 
 2140000   0.91681382   -6.9094375    724.65108    0.0282185  0.028311706            6 
 2141000   0.92708658   -6.8650304    726.47796  0.028276427  0.028304075            6 
 2142000   0.90712689   -6.8944474     727.5661   0.02830556  0.028296519            3 
 2143000   0.89856815   -6.8786464    726.47744  0.028250017  0.028288925            3 
 2144000   0.90843846   -6.8899375    725.90966  0.028214772  0.028281329           10 
 2145000    0.9063918    -6.877221      727.215  0.028252331  0.028273764            7 
 2146000   0.89410252   -6.9190785    725.72078  0.028181142  0.028266153            5 
 2147000   0.87115265    -6.920502    725.03403  0.028141361  0.028258487           11 
 2148000   0.91489819   -6.9075989    725.72706  0.028155147  0.028250806            6 
 2149000    0.9331469   -6.8944088    727.04109     0.028193  0.028243199            5 
 2150000   0.93031949   -6.8817922    725.95147  0.028137654  0.028235608            7 
 2151000    0.8923223   -6.8980397    727.16715   0.02817167  0.028228112            4 
 2152000   0.91590798   -6.8923591    727.25811  0.028162101  0.028220589            3 
 2153000   0.93213116   -6.8940365    728.05729  0.028179954  0.028213073           10 
 2154000   0.89258064   -6.9031415    727.12957   0.02813098  0.028205527            7 
 2155000   0.88987653   -6.9025509    726.93304  0.028110326  0.028197903            8 
 2156000    0.9086269   -6.8798806    728.77449  0.028168463   0.02819031            3 
 2157000   0.89653136   -6.9210227    727.02081  0.028087653  0.028182727            6 
 2158000   0.90563725   -6.8961278    729.35229   0.02816467  0.028175151            5 
 2159000   0.91232559   -6.9088132    726.49975  0.028041522  0.028167507           10 
 2160000   0.90765143   -6.8910543    728.30234  0.028098084  0.028159793           11 
 2161000   0.93153132   -6.8881096    728.54317  0.028094369  0.028152194            3 
 2162000   0.92345044   -6.8808665    727.99191  0.028060126  0.028144621            8 
 2163000   0.89589022   -6.9132373    729.52598  0.028106256  0.028137065            8 
 2164000   0.89879502   -6.9215103    729.33087  0.028085754  0.028129534           10 
 2165000   0.90075581   -6.8841607    730.08669  0.028101874  0.028121984            4 
 2166000   0.90340911   -6.9151589    728.16166  0.028014838  0.028114376            6 
 2167000   0.90138215   -6.9175874    729.39487  0.028049334  0.028106769            7 
 2168000   0.91911481   -6.9040231    728.19507  0.027990278  0.028099208            4 
 2169000   0.91945721   -6.8786159    730.07435  0.028049575  0.028091648            4 
 2170000   0.90376924   -6.9172557    729.17792  0.028002224  0.028084063            5 
 2171000    0.8837309   -6.8799661    731.49288  0.028078185  0.028076442            4 
 2172000   0.91016147   -6.8784638    731.47435  0.028064547  0.028068945            4 
 2173000   0.90212883   -6.8992719    730.37582  0.028009504  0.028061409            7 
 2174000   0.89453019   -6.8939584     731.4919  0.028039401  0.028053773           12 
 2175000   0.91896323   -6.9170921    729.32909  0.027943643  0.028046124            4 
 2176000   0.92682588   -6.8989198     730.3996  0.027971799  0.028038492            7 
 2177000   0.90195677   -6.8850974    731.82003  0.028013322  0.028030911            6 
 2178000   0.90510639    -6.895042    730.33314   0.02794357  0.028023334            2 
 2179000   0.90554314   -6.8916678    731.86728  0.027989417  0.028015771            4 
 2180000   0.93806993   -6.8746248    730.47791  0.027923468  0.028008197            5 
 2181000   0.89259098   -6.8916955    729.62612  0.027878118  0.028000623            5 
 2182000    0.8862256   -6.9122244    731.90546  0.027952393  0.027993131            4 
 2183000   0.90101092   -6.9106358     733.2637  0.027991438  0.027985637           14 
 2184000   0.90259432   -6.9163338    733.47534  0.027986697  0.027978143           12 
 2185000   0.89857877   -6.9127052    732.54285  0.027938324  0.027970678            6 
 2186000   0.89688901   -6.8738712    734.33293  0.027993783  0.027963274            5 
 2187000   0.91707131   -6.9049561      734.058  0.027970507  0.027955825            8 
 2188000   0.88416495   -6.9416206    733.30786  0.027929154  0.027948328            9 
 2189000   0.88920123   -6.9484327    733.39041  0.027919538  0.027940885            7 
 2190000   0.90299047   -6.9130092    734.26142  0.027939932  0.027933445            3 
 2191000   0.88241437   -6.9356273    732.29039  0.027852213  0.027925987            3 
 2192000   0.89673548   -6.9313922    734.44073  0.027921257  0.027918444            6 
 2193000   0.90436277   -6.9133837    733.65335  0.027878604  0.027910981            4 
 2194000   0.89135535   -6.9008612     735.5644  0.027938484  0.027903549            3 
 2195000   0.88964689   -6.9177645    735.19212  0.027911622  0.027896111            7 
 2196000   0.91463442   -6.9147799    735.89814  0.027925703  0.027888649            5 
 2197000   0.90352008   -6.9348258    735.19227  0.027886219  0.027881251            4 
 2198000   0.90104847   -6.9423751    734.26002  0.027838187  0.027873867            4 
 2199000   0.90583127   -6.8905664    737.32381  0.027941633  0.027866467            2 
 2200000   0.91122154   -6.8830133    735.22472  0.027849421  0.027859094            8 
 2201000   0.87644765   -6.9146681    736.86943   0.02789904  0.027851702            4 
 2202000   0.88475537   -6.9283967    736.10056  0.027857272  0.027844263            3 
 2203000   0.91911633   -6.8925787    736.52692  0.027860755  0.027836834            4 
 2204000   0.91314907   -6.9408966    735.34404  0.027803389  0.027829388            4 
 2205000   0.87840572   -6.9283532    736.97656  0.027852478   0.02782197            5 
 2206000   0.89758245    -6.935493    736.65067  0.027827541  0.027814516            5 
 2207000   0.89926628   -6.9228024    737.24738  0.027837463  0.027807069            6 
 2208000   0.92520291   -6.9226099    736.00043  0.027777794  0.027799595           13 
 2209000   0.89469246   -6.9429547    737.16354  0.027809097  0.027792229            3 
 2210000   0.91502305   -6.9183048    737.37564  0.027804511  0.027784847            9 
 2211000   0.89136781    -6.896106    739.24796  0.027862504  0.027777521            8 
 2212000   0.89139007    -6.906469    739.02935  0.027841672  0.027770143            7 
 2213000   0.90193804   -6.9249623    737.68043  0.027778296  0.027762731            4 
 2214000   0.89875633   -6.8831693    738.30642  0.027789311  0.027755477           12 
 2215000   0.91150423   -6.9503806    739.20169  0.027810447  0.027748144            5 
 2216000   0.90233646   -6.8969259    740.41912  0.027843679  0.027740825            2 
 2217000   0.89761034    -6.891266    737.89662  0.027736304  0.027733576            7 
 2218000   0.91075409   -6.9271569    738.23592  0.027736546   0.02772634            2 
 2219000   0.88893441   -6.9059852    738.59114  0.027737387  0.027719044            3 
 2220000   0.91892434   -6.9306255    739.31109  0.027751918   0.02771175            6 
 2221000   0.88209969   -6.9166409    740.15643   0.02777114  0.027704539            4 
 2222000   0.88311222   -6.8865915    739.22219  0.027723604  0.027697253            4 
 2223000    0.8929057   -6.9279921    737.78621  0.027657303  0.027689936            4 
 2224000   0.89774748   -6.9390385    740.50229  0.027746638  0.027682582            8 
 2225000   0.89682219   -6.9496551    741.72784  0.027780069  0.027675245            4 
 2226000   0.89112266   -6.9370747    739.51224  0.027684645  0.027667894            3 
 2227000   0.89784386   -6.9154211    740.74566  0.027718368  0.027660612            5 
 2228000   0.89683691   -6.9222115    739.30738  0.027652131  0.027653314            3 
 2229000   0.89861408   -6.9369937    740.23286  0.027674326  0.027646002            7 
 2230000   0.90471478   -6.9302542    741.15989  0.027696558   0.02763872           10 
 2231000    0.9073139   -6.9154173    742.02633  0.027716507  0.027631452            8 
 2232000   0.89553846   -6.9177207    740.67349   0.02765358  0.027624155            6 
 2233000   0.88344645   -6.9330422    741.25606  0.027662937  0.027616844            3 
 2234000   0.88011386   -6.9479158    739.86272   0.02759858  0.027609545           10 
 2235000   0.90542949      -6.9365     741.2896  0.027639433  0.027602306            6 
 2236000   0.89569108   -6.9534472    741.94858  0.027651632  0.027595043            4 
 2237000   0.89422864   -6.9311964    742.82531  0.027671931  0.027587788            5 
 2238000   0.88123489   -6.9278437    740.84217  0.027585723  0.027580506            6 
 2239000   0.88746745   -6.9209137    742.95875  0.027652179  0.027573296            5 
 2240000   0.89985217   -6.8846362    742.50632  0.027623003  0.027566095            4 
 2241000   0.87791921   -6.9162108    745.22491   0.02771177   0.02755892            3 
 2242000   0.88544671   -6.9328517    743.61415  0.027639539  0.027551708            5 
 2243000   0.89904104   -6.9567874    744.14777  0.027647041  0.027544465            5 
 2244000   0.86865783   -6.9257202    742.18306  0.027561759  0.027537245            4 
 2245000   0.88689178   -6.9006053    742.11228  0.027546855  0.027529963            4 
 2246000   0.87097284   -6.9238549    742.11419  0.027534661  0.027522681            8 
 2247000   0.90420927   -6.9386171    745.26091  0.027639108  0.027515428           11 
 2248000   0.90473357   -6.9295897    744.19654  0.027587357  0.027508226            8 
 2249000   0.89129426   -6.9077267    744.86717  0.027599939  0.027501017           20 
 2250000   0.90062564   -6.9253139    744.82075  0.027585954  0.027493794            3 
 2251000   0.89152541    -6.893202     746.7935  0.027646731    0.0274866            6 
 2252000   0.88852243   -6.8952941    745.86011  0.027599915  0.027479491            5 
 2253000   0.89819297     -6.93484    744.65308   0.02754302  0.027472368            3 
 2254000   0.90113297   -6.9262763    746.02471  0.027581511  0.027465192            4 
 2255000    0.8816161   -6.9362059    746.05913  0.027570552  0.027458009            5 
 2256000   0.88600999   -6.9449139    745.78161  0.027548079  0.027450852            3 
 2257000   0.88113858   -6.9347137    745.05906  0.027509196  0.027443716            4 
 2258000   0.87389808   -6.9531728    746.02499  0.027532661  0.027436644            4 
 2259000   0.90011081   -6.9285076    746.68781  0.027544924  0.027429599            2 
 2260000   0.87817222   -6.9473679    745.64906  0.027494434   0.02742245            5 
 2261000     0.894186   -6.9069769    747.28944  0.027542733  0.027415306            7 
 2262000   0.89463385   -6.9436261    746.74516  0.027510505  0.027408164            4 
 2263000   0.90054133    -6.946803    747.05677  0.027509824  0.027401039           10 
 2264000   0.89338388   -6.9117807    748.28185  0.027542765  0.027393935            6 
 2265000   0.91115198   -6.9372139    749.91753  0.027590785  0.027386838            4 
 2266000   0.89742611   -6.9424641    747.84938  0.027502551  0.027379733            8 
 2267000   0.90042531   -6.8862116    748.05311  0.027497909  0.027372716            4 
 2268000   0.87107881   -6.9142503    749.80308  0.027550084  0.027365685            4 
 2269000   0.88920356   -6.9197831    748.92968  0.027505865  0.027358626            7 
 2270000   0.89583492    -6.951044    746.99028  0.027422551  0.027351578            5 
 2271000   0.89598302   -6.9394459    747.74594  0.027438204  0.027344506            6 
 2272000   0.88467516   -6.9869059    746.71827  0.027388434   0.02733742            3 
 2273000   0.86959721   -6.9241328    748.81276  0.027453173  0.027330261            3 
 2274000   0.86842605   -6.9299886    751.75249  0.027548831  0.027323155            5 
 2275000   0.87369276   -6.8861652    750.82105  0.027502603  0.027316048            3 
 2276000   0.87902587   -6.9257706    750.50575  0.027478974  0.027308958            8 
 2277000   0.87855353   -6.9801625    749.10954  0.027415808  0.027301816            6 
 2278000   0.89205341   -6.9258608    750.18083  0.027442963  0.027294697            6 
 2279000   0.89710019   -6.9571411    748.95483  0.027386091  0.027287618            8 
 2280000   0.89190344   -6.9577047    749.93876  0.027410042  0.027280536            4 
 2281000   0.88679538   -6.9411964    749.97407  0.027399316  0.027273433            6 
 2282000   0.90103925   -6.9304289    751.23282  0.027433276  0.027266358            4 
 2283000   0.90178724    -6.920157    752.19482  0.027456374  0.027259358            4 
 2284000   0.88815719    -6.950596    751.75448  0.027428287  0.027252443            5 
 2285000   0.89138878   -6.9402122    750.44855  0.027368656  0.027245457            8 
 2286000   0.87348653   -6.9500002    749.64634   0.02732744  0.027238476            7 
 2287000   0.88466456   -6.9511467    753.36056  0.027450829  0.027231542            4 
 2288000   0.87100592   -6.9447992    752.78704  0.027417943  0.027224577            5 
 2289000   0.87910913   -6.9461918    752.23265  0.027385781  0.027217649            4 
 2290000    0.8895314   -6.9420051    753.46491  0.027418665  0.027210671            2 
 2291000   0.88710007   -6.9602341    750.38975   0.02729484  0.027203682            4 
 2292000   0.87348896   -6.9823162    751.88878  0.027337434  0.027196699           13 
 2293000   0.85909673   -6.9382377    750.97003  0.027292122  0.027189726            5 
 2294000     0.911241   -6.9331918    752.69721  0.027342967  0.027182747            7 
 2295000   0.87884128    -6.914778    754.40539  0.027393079  0.027175759            4 
 2296000   0.89473894   -6.9347623    753.59271  0.027351652  0.027168773            7 
 2297000   0.88183774   -6.9442738    752.07858  0.027284813  0.027161764            7 
 2298000   0.86080178   -6.9331073    752.91088  0.027303121   0.02715472            6 
 2299000   0.87739483   -6.9331842     752.9273   0.02729184  0.027147676            7 
 2300000   0.88120669   -7.0006977    751.63865  0.027233285  0.027140557            7 
 2301000    0.8697399   -6.9409395     752.8576  0.027265595  0.027133483            5 
 2302000   0.89047889   -6.9379854    753.36955  0.027272283  0.027126438            7 
 2303000   0.89293465   -6.9534131    753.29822   0.02725786  0.027119307            7 
 2304000   0.87104735    -6.919212    755.05178  0.027309454  0.027112293            7 
 2305000   0.88200114   -6.9145244    755.30024  0.027306589  0.027105206           12 
 2306000   0.87100438   -6.9729452    752.82698  0.027205369  0.027098123            7 
 2307000   0.88054232   -6.9409539    753.32543  0.027211582  0.027091053            7 
 2308000   0.88765832   -6.9545834    752.58856  0.027173186  0.027084047           15 
 2309000   0.86857433   -6.9412647    753.52501  0.027195215  0.027077004            7 
 2310000   0.88338288   -6.9762864    751.97555  0.027127545  0.027069903           10 
 2311000   0.89061274   -6.9568688    753.22361  0.027160811  0.027062774            6 
 2312000    0.8893413   -6.9478655    752.95603  0.027139419   0.02705564            4 
 2313000   0.89028977   -6.9625776    755.55704  0.027221395  0.027048571           12 
 2314000   0.86759686   -6.9597565    755.04702  0.027191264  0.027041511           19 
 2315000   0.87631373   -6.9640232    753.93567  0.027139513  0.027034452            4 
 2316000   0.86043401     -6.96375    755.04172  0.027167592  0.027027346            8 
 2317000   0.88135646   -6.9284724    757.12438  0.027230772  0.027020362            9 
 2318000   0.87467573   -6.9383285    755.53434  0.027161862  0.027013324            3 
 2319000   0.86763663   -6.9367275    754.89712   0.02712725  0.027006315            6 
 2320000   0.87410349   -6.9477334    756.18581  0.027161847  0.026999286            3 
 2321000   0.88059478   -6.9531313    756.35143   0.02715609  0.026992236            6 
 2322000   0.86434635   -6.9401746    753.30813  0.027035175  0.026985245            3 
 2323000   0.89224326   -6.9618333    756.19258  0.027127012  0.026978171            8 
 2324000   0.89030093   -6.9675605    754.23332  0.027045085  0.026970995            5 
 2325000   0.88508634   -6.9308158    755.12136  0.027065282  0.026963866            5 
 2326000   0.86610031   -6.9228815     753.3459  0.026990036  0.026956743           10 
 2327000   0.87387548    -6.943831    755.57316    0.0270582  0.026949623            5 
 2328000    0.8596056   -6.9726817    754.54219  0.027009672    0.0269425            8 
 2329000   0.85957603   -6.9648648    755.73823   0.02704087  0.026935334            4 
 2330000    0.8928614   -6.9566231    757.52325  0.027093106  0.026928217            4 
 2331000   0.89154584   -6.9523763    755.95636  0.027025467  0.026921177           14 
 2332000   0.88025375   -6.9622118    756.75719  0.027042495  0.026914113            4 
 2333000   0.87206912   -6.9564946    755.50078  0.026986026  0.026906989            7 
 2334000   0.88441764   -6.9355657    754.52597  0.026939659  0.026899885           11 
 2335000   0.90025697   -6.9368513    758.00965   0.02705245  0.026892801            3 
 2336000   0.84809644   -6.9795876    757.70006  0.027029825  0.026885736            5 
 2337000   0.88046378   -6.9537692    755.50766  0.026940082  0.026878651            3 
 2338000   0.87375967   -6.9602247    757.00642   0.02698198  0.026871592            4 
 2339000   0.86526282   -6.9664207    757.16775  0.026976192  0.026864513            8 
 2340000   0.88327056   -6.9543497    758.92898  0.027027385  0.026857437            6 
 2341000   0.86257608   -6.9709506    755.98729  0.026911124  0.026850304            6 
 2342000   0.86348986    -6.973926    758.24027  0.026979799  0.026843231           11 
 2343000   0.87815366   -6.9856439    758.63696  0.026982393  0.026836196            8 
 2344000   0.87760201   -6.9496341    757.25891   0.02692189   0.02682917            3 
 2345000   0.87555575   -6.9432826    759.49013  0.026989699  0.026822156            8 
 2346000   0.88646098   -6.9673107    759.50926  0.026978874  0.026815098            4 
 2347000   0.87661388   -6.9822015    756.90458  0.026874896  0.026808046            6 
 2348000   0.88434123   -6.9741321    760.25573  0.026982387  0.026800934            7 
 2349000   0.89004931   -6.9823471    758.43793  0.026906411  0.026793782            5 
 2350000   0.87565244   -6.9870042    758.20421  0.026886674  0.026786652            6 
 2351000   0.87150396   -6.9849567    758.49342  0.026885489  0.026779474            3 
 2352000   0.87680243   -6.9697809    758.67877  0.026880625    0.0267724            3 
 2353000   0.88402829   -6.9845546    758.86324  0.026875735  0.026765259            5 
 2354000   0.86384937   -6.9617831    757.49695   0.02681595  0.026758101            2 
 2355000   0.86459549   -6.9734895    759.02798   0.02685874  0.026751007            7 
 2356000   0.86949149   -6.9619322    757.75073  0.026802162  0.026743815            4 
 2357000   0.87974318   -6.9715841     758.4774  0.026816483  0.026736597           12 
 2358000    0.8961672   -6.9511174    757.85676  0.026783176   0.02672942            4 
 2359000   0.88404074   -6.9754568    759.89784  0.026843925  0.026722256            8 
 2360000    0.8800946   -6.9688078    756.96457  0.026728975  0.026715044            7 
 2361000    0.8957185   -6.9954453    756.57925  0.026704054  0.026707759            5 
 2362000   0.86039409   -6.9806295    757.31476  0.026718697  0.026700456            4 
 2363000   0.87919362   -6.9771532    759.99746  0.026801998  0.026693163            4 
 2364000   0.87251136   -6.9789627     757.2053  0.026692234  0.026685887            5 
 2365000   0.89104193   -6.9890669     758.4096  0.026723383  0.026678611            8 
 2366000   0.86556771   -6.9652855    757.59179  0.026683284  0.026671314            7 
 2367000   0.87467213   -6.9580848    759.71326    0.0267467  0.026664028            7 
 2368000   0.86908191   -6.9796609    758.41226  0.026689621  0.026656683           14 
 2369000   0.87456592   -6.9604153    758.70904  0.026688794  0.026649339            4 
 2370000   0.87911223   -6.9891236    757.74215  0.026643536  0.026641978            8 
 2371000   0.87839828   -6.9795446    759.54661  0.026695719  0.026634603            3 
 2372000   0.87866497   -7.0053771    756.82673   0.02658891  0.026627205            8 
 2373000   0.87461299    -6.968983    758.63832  0.026641323  0.026619867            5 
 2374000   0.87107673   -6.9760018    758.48423  0.026624692  0.026612514            6 
 2375000   0.86279705   -6.9762926    758.88402  0.026627509  0.026605236            4 
 2376000   0.86208062   -6.9332181    758.53113  0.026603926  0.026597936            6 
 2377000   0.85573893    -6.981163    758.80083  0.026602189  0.026590584            5 
 2378000   0.87371077   -6.9950783    759.44989  0.026613747  0.026583221            4 
 2379000   0.88479505   -6.9857145    760.62008  0.026643551  0.026575908            2 
 2380000   0.85481251   -6.9439789    760.43382  0.026625834  0.026568625            5 
 2381000   0.86607184   -6.9825383    761.04302  0.026635973  0.026561347            3 
 2382000   0.86561149    -6.956907    761.16725  0.026629137  0.026554078            3 
 2383000   0.88195434   -6.9776664    760.20827  0.026584427  0.026546783            5 
 2384000   0.86424376   -6.9841995    760.05256  0.026567833  0.026539464            5 
 2385000   0.86963725   -6.9440136    762.80148  0.026652742  0.026532221            7 
 2386000   0.86172919   -6.9537456    761.58833  0.026599201  0.026525014           13 
 2387000   0.87362459    -6.969142    760.30899  0.026543394   0.02651777            5 
 2388000   0.87274423   -6.9407339    762.11249  0.026595215  0.026510544            6 
 2389000   0.87333644   -6.9673233    762.53712  0.026598895  0.026503366            7 
 2390000   0.87576976   -6.9940858    762.31055  0.026579866  0.026496134            9 
 2391000   0.86557016   -6.9882627    760.95443  0.026521484  0.026488897            9 
 2392000   0.87684409   -6.9947295     761.7717  0.026538869  0.026481657           13 
 2393000   0.88341435   -6.9775765    760.80954  0.026494273  0.026474454            7 
 2394000   0.86457645     -6.96263    763.06993  0.026561888  0.026467238            6 
 2395000   0.87806131   -7.0005178    762.25664    0.0265225  0.026459993            6 
 2396000   0.86358098   -7.0093189    762.11654  0.026506558   0.02645272            7 
 2397000   0.86411625    -7.005602    761.78449  0.026483955  0.026445437            6 
 2398000   0.87680594   -6.9880324    761.13726  0.026450419  0.026438109           15 
 2399000   0.88141735   -6.9890497      761.366  0.026447339  0.026430813            4 
 2400000   0.86945798   -6.9835186    760.85676  0.026418637  0.026423563            9 
 2401000   0.86114491   -6.9824363    763.10023    0.0264855   0.02641632           13 
 2402000   0.87042112   -6.9715392    764.93486  0.026538123  0.026409093            4 
 2403000   0.87874704   -6.9540891    764.15349  0.026499982  0.026401854            4 
 2404000   0.85649157   -7.0001363    762.00999  0.026414656  0.026394638            6 
 2405000   0.86059754   -6.9838045    761.96151  0.026401993  0.026387356            7 
 2406000   0.84742382   -7.0022788    762.50709  0.026409916  0.026380068            8 
 2407000   0.86281168   -6.9620356    761.50329  0.026364191  0.026372783            4 
 2408000    0.8716944   -6.9896866    762.69383  0.026394443  0.026365468            7 
 2409000   0.86804348   -6.9947727     763.4591  0.026409959  0.026358189            6 
 2410000    0.8769009   -6.9696107       763.22  0.026390733  0.026350918            3 
 2411000   0.87295319   -6.9545039      763.479  0.026388739   0.02634366            5 
 2412000   0.86968186   -7.0030495    765.32517  0.026441583  0.026336404            7 
 2413000   0.87190582   -6.9813811    762.86197  0.026345558  0.026329137            3 
 2414000    0.8536363   -6.9707882     763.5701  0.026359089  0.026321838            5 
 2415000   0.87424828   -6.9668501    764.80499  0.026390786  0.026314538            9 
 2416000   0.86248247   -7.0029328    763.34316  0.026329441   0.02630718            3 
 2417000   0.86973055   -6.9843591    763.56942  0.026326349  0.026299821           12 
 2418000    0.8599007   -6.9849308    763.65056  0.026318258  0.026292481            4 
 2419000   0.86804919   -6.9969098    764.03321   0.02632056  0.026285096            4 
 2420000   0.84959645   -7.0256055    762.29078  0.026249683  0.026277686            8 
 2421000   0.85095072   -7.0068446    763.23667  0.026271399   0.02627024           17 
 2422000   0.87924474   -6.9875463    764.50208   0.02630409  0.026262846            5 
 2423000    0.8624287   -6.9861592    763.58971  0.026261856  0.026255448           13 
 2424000   0.86567935   -6.9898033    763.05798  0.026232741   0.02624811            3 
 2425000   0.85649258   -6.9716807    764.47287  0.026270545  0.026240722            6 
 2426000   0.85336583   -6.9884947    762.99577  0.026208978  0.026233405            6 
 2427000   0.84068658   -6.9980297     764.6276  0.026254209  0.026226027            5 
 2428000   0.87497585   -6.9830836    766.06783  0.026292828  0.026218666           10 
 2429000     0.855581   -6.9737837    766.18293  0.026285952  0.026211406            4 
 2430000   0.86481783   -6.9649774    764.91892  0.026231787  0.026204131            3 
 2431000   0.85801846   -6.9726293    765.88211  0.026254014  0.026196867            2 
 2432000   0.83042575   -7.0205972    764.43867  0.026193759  0.026189578            4 
 2433000   0.85819549   -6.9986245    765.64446  0.026224293  0.026182281            6 
 2434000   0.84935524   -6.9498509    765.51024  0.026208924  0.026175021            2 
 2435000   0.86545829   -6.9568017    766.85113   0.02624405  0.026167749            7 
 2436000   0.85357277    -6.982253    764.87697  0.026165742  0.026160431            9 
 2437000   0.88123921   -6.9753666    764.38762  0.026138272  0.026153119            3 
 2438000   0.85425377   -6.9865823    766.66252  0.026205309  0.026145829            3 
 2439000   0.86212884   -6.9970162    765.43353  0.026152574  0.026138563            6 
 2440000   0.86235826   -7.0090231    766.95046  0.026193663  0.026131212            4 
 2441000   0.84032497   -7.0002821    766.55063  0.026169283  0.026123867            5 
 2442000   0.86843926   -6.9924671    765.50859  0.026123007  0.026116522            4 
 2443000    0.8737718   -6.9627452    767.29631  0.026173295  0.026109198            6 
 2444000   0.85762762   -6.9785749    766.30141  0.026128662   0.02610185            7 
 2445000   0.86987117    -7.033139    766.18907  0.026114147  0.026094462            5 
 2446000    0.8577303   -6.9859477    766.93421  0.026128857  0.026087101            7 
 2447000   0.86060204   -6.9925899    767.21772  0.026127834  0.026079717           10 
 2448000   0.86990848   -6.9808748    766.18697  0.026082073  0.026072412           10 
 2449000   0.87719935    -7.006333    767.97156  0.026132148  0.026065108            9 
 2450000   0.87312043   -6.9979532    767.10156   0.02609189  0.026057737            4 
 2451000   0.87849694   -6.9846443    768.30954  0.026122315  0.026050429            4 
 2452000    0.8661727   -7.0062541    768.97101  0.026134143  0.026043136           12 
 2453000   0.86864052   -6.9956196    765.47259   0.02600464  0.026035852            5 
 2454000   0.87308225    -6.972689    770.16376  0.026153347   0.02602852            5 
 2455000   0.86683553    -6.985051    770.39151  0.026150425  0.026021334            5 
 2456000    0.8546909   -6.9961007    768.55993  0.026077631  0.026014081            7 
 2457000   0.85799464   -6.9670658    768.03165    0.0260491  0.026006781            9 
 2458000   0.84612966   -6.9976852    768.18294  0.026043631  0.025999543            6 
 2459000   0.86890079   -7.0200628     769.5005  0.026077691  0.025992293            7 
 2460000   0.84288626   -7.0257226    768.50274  0.026033291  0.025985032            5 
 2461000    0.8691546   -7.0380995    765.27094  0.025913278  0.025977718            5 
 2462000   0.86519493    -7.027456    767.26654    0.0259703  0.025970359           10 
 2463000    0.8425488   -6.9986568    769.15671  0.026023708  0.025963074            5 
 2464000   0.85492409   -7.0215307    768.74529  0.025999232  0.025955801            4 
 2465000   0.84802177   -7.0068025    767.41166  0.025943599  0.025948461           10 
 2466000    0.8802354   -6.9824538    769.11129  0.025990514  0.025941199           10 
 2467000   0.85674543   -6.9841861    769.76644  0.026002109  0.025933936            3 
 2468000    0.8603432    -7.000266    768.17163  0.025937724  0.025926642            4 
 2469000   0.87668834   -6.9970269    769.25292  0.025963714  0.025919336            3 
 2470000   0.84121418   -7.0166119    769.50278  0.025961632  0.025912045            8 
 2471000   0.86039589   -7.0229697    769.43836  0.025948953  0.025904793            7 
 2472000   0.86652481   -7.0086526    770.15304  0.025962549  0.025897496            2 
 2473000    0.8500038   -6.9938406    771.32736  0.025991622  0.025890221            3 
 2474000   0.85768809   -7.0062626     770.5941  0.025956417  0.025882985            5 
 2475000   0.84592464   -6.9888751    769.34222  0.025903779  0.025875748            6 
 2476000   0.84242531   -6.9879398     769.7391  0.025906674   0.02586848            5 
 2477000   0.87313952   -7.0022132    774.34944   0.02605132  0.025861264            4 
 2478000   0.87214771   -6.9960351    770.13784  0.025899174  0.025854069            3 
 2479000   0.85759005    -7.011141    771.72624  0.025942122  0.025846792           11 
 2480000   0.85594069   -7.0161949     771.0513  0.025908982  0.025839592            5 
 2481000   0.84387743   -7.0090622    770.87439  0.025892597  0.025832347            8 
 2482000   0.86303217   -6.9800162    770.41519  0.025866747  0.025825123            5 
 2483000    0.8702241   -7.0108311    770.91994  0.025873269  0.025817891            4 
 2484000   0.85363752   -6.9930273    772.41327  0.025912952  0.025810663            3 
 2485000   0.84563981   -7.0053601    771.68128  0.025877977   0.02580338            7 
 2486000   0.83867178   -7.0269254    769.91713  0.025808431   0.02579609            7 
 2487000   0.86128148   -7.0003117     769.5595  0.025786071  0.025788843            6 
 2488000   0.83827286   -7.0308824    773.85467   0.02591957  0.025781616            6 
 2489000   0.85669251   -6.9937552    773.44509  0.025895443  0.025774471            3 
 2490000   0.83559898    -6.981887    774.07679  0.025906185  0.025767296            4 
 2491000   0.86183485   -7.0164552    771.43462  0.025807394  0.025760163           16 
 2492000    0.8528511   -7.0186359    772.59892  0.025835973  0.025753012           13 
 2493000   0.84398416   -6.9873085    773.56416  0.025857874  0.025745852            5 
 2494000   0.85369196   -7.0060926    773.34366  0.025840138  0.025738747            5 
 2495000   0.85495812   -7.0338705    775.26497  0.025893954  0.025731651            6 
 2496000   0.84661054   -7.0368465    773.60704  0.025828226  0.025724529            4 
 2497000   0.88151022    -7.032474    772.50452  0.025781088  0.025717355            6 
 2498000   0.84840464   -7.0221547     772.7737  0.025779747  0.025710196            7 
 2499000   0.84523814   -7.0171526    771.99248   0.02574338  0.025703059            6 
 2500000   0.83697002   -7.0032339     773.0793   0.02576931   0.02569586           22 
 2501000   0.85360809   -6.9865624    776.40357  0.025869771   0.02568877            8 
 2502000   0.84947035    -7.003673    774.88096  0.025808718  0.025681694            9 
 2503000   0.84265776   -6.9832284    775.54565  0.025820537  0.025674593            6 
 2504000   0.84478205   -7.0115884    774.50545  0.025775607  0.025667472            7 
 2505000   0.83178209    -6.990772    773.65737  0.025737105  0.025660338            8 
 2506000   0.84926565   -7.0109314    774.48006  0.025754192  0.025653255            4 
 2507000   0.84495095   -7.0086786    775.66324  0.025783248  0.025646201            4 
 2508000   0.86623741   -7.0278155     774.1001  0.025721029  0.025639107            6 
 2509000   0.83568312   -6.9776902    774.97866  0.025739958   0.02563205            6 
 2510000   0.84375366   -7.0701046    774.73684  0.025721675  0.025624931           11 
 2511000   0.81765426   -7.0246384    776.20349  0.025760105  0.025617843            7 
 2512000   0.84931048   -7.0282843    776.21851  0.025750349   0.02561067            6 
 2513000   0.86304098   -7.0542397    775.65278  0.025721342  0.025603564            6 
 2514000   0.83279865   -7.0151428    775.34513  0.025700912  0.025596454            8 
 2515000   0.85885906   -7.0008794    776.70423  0.025735726   0.02558937            2 
 2516000   0.86505771   -7.0014208    776.69834  0.025725303  0.025582347            5 
 2517000   0.85743796    -6.993204    777.25386  0.025733474  0.025575297            7 
 2518000   0.86099515   -7.0084825    777.30619  0.025724986  0.025568262            8 
 2519000   0.85729628   -7.0212499    778.93904  0.025768792  0.025561247            4 
 2520000   0.84999714   -6.9789948    778.77096  0.025753008  0.025554231            5 
 2521000   0.85359013   -7.0055483    778.89415  0.025746865  0.025547208            6 
 2522000   0.84711651   -7.0613835    776.80176  0.025667518  0.025540154            5 
 2523000   0.86092683   -7.0280144    778.24327  0.025704957  0.025533099            4 
 2524000   0.83844784   -7.0044923    779.78721  0.025745748  0.025526065           10 
 2525000   0.85778835   -7.0137377    778.59669   0.02569626  0.025519001            5 
 2526000   0.86514472   -7.0164866    779.73842  0.025723754  0.025511967           13 
 2527000    0.8288948   -7.0174436    778.02652   0.02565712   0.02550494           11 
 2528000   0.85972438   -6.9879844    779.88271  0.025708159   0.02549791            4 
 2529000   0.86651312   -6.9821678    779.52053   0.02568606  0.025490932            3 
 2530000   0.84390152   -7.0209722     778.5783  0.025644871  0.025483918            2 
 2531000   0.84834024   -7.0087344     778.2929  0.025625342  0.025476902            8 
 2532000   0.85120065   -7.0261394    777.95602  0.025604134  0.025469856            3 
 2533000   0.83335881   -6.9493258     778.3007  0.025605366  0.025462809            3 
 2534000   0.83545803   -6.9949411    778.90416  0.025615106  0.025455764            6 
 2535000    0.8236729   -7.0100115    777.90486  0.025572152  0.025448747            5 
 2536000   0.84963204   -7.0213407    778.43753  0.025579572  0.025441786           12 
 2537000   0.83189324   -7.0500718    779.91416  0.025617992  0.025434739            5 
 2538000   0.84241406   -7.0517787     777.3293  0.025523027  0.025427668            5 
 2539000   0.84369345    -7.046733    777.54887  0.025520181  0.025420634            5 
 2540000   0.84548443   -7.0308095    780.64084  0.025611576  0.025413592            7 
 2541000    0.8614373   -7.0034533    779.40656  0.025561018  0.025406584            7 
 2542000   0.83461145   -7.0293141    780.04503  0.025571893  0.025399553            8 
 2543000    0.8500181   -7.0140353    780.08067  0.025563005  0.025392515           18 
 2544000   0.83294505   -7.0323846    777.79439  0.025478066  0.025385456            8 
 2545000    0.8599591   -7.0037016    780.26753  0.025549035  0.025378484            3 
 2546000   0.84443335   -7.0052859    779.67705  0.025519673  0.025371519            7 
 2547000   0.83194744   -7.0472975    778.44981    0.0254695  0.025364513           10 
 2548000   0.83679539   -7.0227049    780.23525  0.025517898  0.025357468            7 
 2549000   0.84501185   -7.0387392    777.55485  0.025420258  0.025350407            4 
 2550000   0.86234819   -7.0123167     779.3032  0.025467425  0.025343331            7 
 2551000   0.83922438   -7.0661473    779.48609  0.025463416  0.025336237           10 
 2552000    0.8407194   -7.0314936    779.61626  0.025457689  0.025329107           13 
 2553000   0.85445035   -7.0347559    779.98816  0.025459856  0.025321995           12 
 2554000   0.84211694   -7.0358218    781.12781  0.025487073  0.025314911            7 
 2555000   0.84885669   -7.0483438    778.91508  0.025404928  0.025307841            4 
 2556000   0.82661715   -7.0284894    778.40013  0.025378199  0.025300722            8 
 2557000   0.84324223   -7.0329936    780.62448  0.025440767  0.025293633            5 
 2558000   0.83435558   -7.0083244    780.23673  0.025418189  0.025286543           10 
 2559000   0.85303055   -7.0184783    781.48863  0.025449024  0.025279463            3 
 2560000   0.84481494   -7.0635264     781.5733  0.025441839  0.025272401            5 
 2561000    0.8347911   -7.0125718     780.2798  0.025389815   0.02526533           12 
 2562000     0.834226   -7.0423065    781.34086  0.025414418  0.025258294            9 
 2563000   0.84489266   -7.0090653    781.85842   0.02542133  0.025251269            6 
 2564000   0.83390383   -7.0097759    781.07996  0.025386114  0.025244261           18 
 2565000   0.83800414   -7.0119305     781.8857  0.025402394   0.02523726            7 
 2566000   0.83657178   -7.0318369     783.4377  0.025442897  0.025230249           10 
 2567000   0.85655848   -7.0549123    780.92369  0.025351373    0.0252232            5 
 2568000   0.83978279   -7.0270128    781.13174  0.025348252  0.025216193            4 
 2569000   0.85822782   -7.0368211    783.84618  0.025426436  0.025209179            6 
 2570000   0.82625337   -7.0379619    783.28668  0.025398401  0.025202192            8 
 2571000   0.84525303   -7.0504161    782.32088  0.025357218  0.025195204            9 
 2572000   0.84913038   -7.0528689    782.35644  0.025348511  0.025188223           10 
 2573000   0.82463568   -7.0572304    784.67079  0.025413616  0.025181255            5 
 2574000   0.84963222   -7.0249673     783.0282  0.025350563  0.025174263            5 
 2575000   0.84514559   -7.0345495    781.87305  0.025303335  0.025167289            4 
 2576000   0.83980183   -7.0572526    782.84592  0.025324984  0.025160271            5 
 2577000   0.83593624   -7.0052969     782.1234  0.025291793   0.02515331            7 
 2578000   0.84065167   -7.0346485      782.627  0.025298261  0.025146369            5 
 2579000   0.82429829   -7.0241155    783.48538  0.025316188  0.025139418            6 
 2580000   0.81575166   -7.0526207    781.87166  0.025254253   0.02513242            6 
 2581000   0.84748297   -7.0677421      783.084  0.025283611  0.025125437            4 
 2582000   0.83037737   -7.0439525    784.44904  0.025317875  0.025118462            3 
 2583000     0.854442   -7.0158452    783.50365  0.025277573  0.025111503            3 
 2584000   0.84518808   -7.0118451    786.20069  0.025354769  0.025104611            9 
 2585000   0.84632556   -7.0355009    785.01043   0.02530659  0.025097698            7 
 2586000   0.82845552   -7.0530357    785.03304  0.025297533  0.025090777            7 
 2587000   0.84564323   -7.0279432    786.44025  0.025333084  0.025083837            7 
 2588000   0.83167208   -7.0443519    785.37573  0.025289017  0.025076914            3 
 2589000   0.84623096    -7.043905    784.05824  0.025236843  0.025069992            4 
 2590000   0.84456665   -7.0368464    784.63381  0.025245618  0.025063083            3 
 2591000   0.83336645   -7.0451797    785.85993   0.02527531  0.025056233           11 
 2592000   0.84116955   -7.0587707    785.87801   0.02526614  0.025049351            9 
 2593000   0.84154636   -6.9998581    787.44281  0.025306685  0.025042504            6 
 2594000   0.84172244   -7.0188676    785.06332  0.025220487  0.025035641            6 
 2595000   0.82642885   -7.0236981    785.23805  0.025216379   0.02502879           11 
 2596000   0.84094042   -7.0634693    786.70254  0.025253677  0.025021928            3 
 2597000   0.82334724   -7.0677203    785.07175  0.025191623  0.025015013            7 
 2598000     0.835173   -7.0340771    785.18797  0.025185655  0.025008125            7 
 2599000   0.82904626   -7.0301754    786.99848  0.025234016   0.02500131           11 
 2600000   0.81264466   -7.0511218    786.41099  0.025205481  0.024994466            5 
 2601000   0.83003647    -7.045685    784.95379  0.025149102  0.024987584            4 
 2602000   0.84994101   -7.0436693    786.87655  0.025201017  0.024980645            8 
 2603000   0.83189464   -7.0488898    786.49245  0.025179039  0.024973762            4 
 2604000   0.81952333   -7.0224382    787.14794  0.025190346  0.024966896            4 
 2605000   0.83708042   -7.0284333    788.16431   0.02521319  0.024960052           10 
 2606000    0.8339449   -7.0239826    787.88151  0.025194471  0.024953213            6 
 2607000   0.83158923   -7.0416854    788.75474   0.02521272  0.024946372            4 
 2608000   0.84204049   -7.0246935    789.71108  0.025233611  0.024939544            6 
 2609000   0.82259005   -7.0761498    787.57457  0.025155697  0.024932703            8 
 2610000    0.8421849   -7.0486769    787.44048  0.025141778  0.024925841            6 
 2611000   0.83782329   -7.0523154    788.29491  0.025159419  0.024918935            4 
 2612000   0.81973794   -7.0608842    785.76528  0.025069081   0.02491205            5 
 2613000   0.82359061    -7.046818     786.5591  0.025084803  0.024905139           12 
 2614000   0.83623985   -7.0667548    786.53629   0.02507448  0.024898226            5 
 2615000   0.82378981    -7.057602    785.37816  0.025027985   0.02489132            8 
 2616000   0.83137175   -7.0153138     788.1761  0.025107546  0.024884427            7 
 2617000   0.82719013   -7.0428861    788.33402  0.025102981  0.024877545            7 
 2618000   0.83157672   -7.0481256    788.67363  0.025104203  0.024870674            6 
 2619000   0.82922119    -7.050987    786.54215  0.025026796  0.024863796            5 
 2620000   0.83138437   -7.0575047    786.40906  0.025013011  0.024856902            7 
 2621000   0.80513361   -7.0474238    786.91534  0.025019564   0.02484999            9 
 2622000   0.83882679   -7.0289064    789.65806  0.025097192  0.024843154            6 
 2623000   0.83542562   -7.0399414     788.3963  0.025047538  0.024836319            3 
 2624000   0.82265312   -7.0532595    787.45703  0.025008163   0.02482944            5 
 2625000   0.84350915   -7.0746755    788.58713  0.025034512  0.024822551            5 
 2626000   0.84247539   -7.0444787    786.77039  0.024967326  0.024815709            5 
 2627000   0.84812883   -7.0439383    789.06648  0.025030659  0.024808841            5 
 2628000   0.82067767   -7.0291024    789.15706  0.025024006  0.024801957            8 
 2629000   0.83021356   -7.0622686    789.16357  0.025014694  0.024795074            5 
 2630000   0.84013603   -7.0399082    790.30097  0.025041222  0.024788184           13 
 2631000   0.82427081   -7.0320329    789.94619  0.025020467  0.024781352            7 
 2632000    0.8393541   -7.0379013     788.5962  0.024968218  0.024774508            6 
 2633000   0.84317249   -7.0508019    788.95317  0.024970033  0.024767643            4 
 2634000    0.8494981   -7.0731976    789.96297  0.024992501  0.024760811            8 
 2635000   0.82716175   -7.0449624    790.83577  0.025010619  0.024753982            7 
 2636000   0.82850451   -7.0446859    790.31341  0.024984617  0.024747146            4 
 2637000   0.82287575    -7.068155    788.07632  0.024904447  0.024740256            5 
 2638000   0.83931253   -7.0690411    787.65817  0.024881797  0.024733359            5 
 2639000   0.82312707   -7.0896968    789.97314   0.02494547  0.024726489            9 
 2640000    0.8260378   -7.0652442    789.51797  0.024921653  0.024719592           11 
 2641000   0.83954329   -7.0674599     789.7447  0.024919371  0.024712665           13 
 2642000   0.82928523   -7.0766648    789.53577  0.024903349  0.024705773            7 
 2643000   0.83038927   -7.0668235    789.18541   0.02488288  0.024698915            6 
 2644000   0.81412873   -7.0581775    790.99814  0.024930602   0.02469204            8 
 2645000   0.83582055   -7.0539503    790.48242  0.024904928  0.024685138            4 
 2646000   0.82856877   -7.0511475    790.94172  0.024909981  0.024678244           11 
 2647000   0.82141771   -7.0752148    790.22493  0.024878004  0.024671348           10 
 2648000   0.82454191   -7.0640848    788.99484  0.024829898  0.024664438            5 
 2649000   0.83392522   -7.0604747    788.56456  0.024806989  0.024657462           10 
 2650000   0.83278942   -7.0548663    789.22705  0.024818461  0.024650537            5 
 2651000   0.83285017   -7.0462288    789.66866  0.024822981  0.024643601            5 
 2652000   0.83429466   -7.0688225    789.42889  0.024806086  0.024636642            8 
 2653000   0.83818703    -7.061135    791.45972  0.024860526  0.024629719            8 
 2654000   0.84604654   -7.0710403    790.28324  0.024814219  0.024622811            8 
 2655000   0.84123661   -7.0548147    789.66084  0.024785337  0.024615924            7 
 2656000   0.82817966   -7.0722455    791.79706   0.02484303  0.024609041            6 
 2657000   0.83231863   -7.0506078    789.74886  0.024769441  0.024602079            6 
 2658000   0.82299385    -7.081122    791.08273  0.024801942  0.024595167            3 
 2659000   0.82566054   -7.0711194    792.22857  0.024828525  0.024588261            9 
 2660000   0.82507664    -7.089597    791.00639  0.024780902  0.024581352           14 
 2661000   0.82409603   -7.0917567    788.86332  0.024704476  0.024574425           13 
 2662000   0.81221365   -7.0572334    792.46598  0.024807976  0.024567465            7 
 2663000   0.82446623   -7.0635739    792.38923  0.024796258  0.024560514            8 
 2664000   0.83447134   -7.0827023    793.17304  0.024811469  0.024553659            8 
 2665000   0.82246023   -7.0565069    792.77335  0.024789661  0.024546818            5 
 2666000   0.82492628   -7.0631991    793.97534  0.024817934  0.024539955            2 
 2667000   0.83675255   -7.0833365    791.41171  0.024728525  0.024533128            6 
 2668000    0.8552969   -7.0970376    793.40127  0.024781399  0.024526286            4 
 2669000    0.8310657   -7.0601692    793.70319  0.024781541  0.024519439            8 
 2670000   0.82192434   -7.0618144    792.43123   0.02473256  0.024512606            8 
 2671000   0.81107697   -7.0995428    792.64256  0.024729894  0.024505712            5 
 2672000   0.81570838   -7.0477364    793.58593   0.02475006  0.024498846            6 
 2673000   0.82818516   -7.0668994    791.86573  0.024687172  0.024491965            4 
 2674000   0.81704048   -7.0844885    792.76874  0.024706081  0.024485125            7 
 2675000    0.8310417   -7.0156217    793.56851   0.02472176  0.024478291            6 
 2676000   0.83732671   -7.0595984    791.81425  0.024657893  0.024471475            9 
 2677000    0.8290385   -7.0607556    793.55297  0.024702807  0.024464643            9 
 2678000   0.81155533   -7.0834098    794.08345   0.02471009  0.024457788            8 
 2679000   0.81703485   -7.0735643    791.70688   0.02462694  0.024450912            6 
 2680000   0.82014362   -7.0514573    793.80661  0.024683041  0.024444055            6 
 2681000   0.83542034   -7.0498802     793.7723  0.024672768  0.024437233            6 
 2682000   0.81919709    -7.092889     791.7222   0.02459987  0.024430383            5 
 2683000   0.83086723   -7.0972466    793.14941  0.024635029    0.0244235            5 
 2684000   0.81600949   -7.0882661     794.6499  0.024672438  0.024416684            6 
 2685000   0.81753614   -7.0571589    793.66622  0.024632719  0.024409806           13 
 2686000    0.8340124    -7.068785    794.16398  0.024638992  0.024402928            9 
 2687000   0.82799132   -7.0624884     793.8229  0.024619244  0.024396041            6 
 2688000    0.8334957   -7.0523964    793.01075  0.024584907   0.02438914           12 
 2689000   0.82741093   -7.0664333    794.88623  0.024633886   0.02438225            4 
 2690000   0.81054875   -7.0971921    792.91201  0.024563569  0.024375378            7 
 2691000   0.80608799   -7.0683985    794.46889  0.024602654  0.024368499            9 
 2692000   0.82126291   -7.0970924    793.11947  0.024551742  0.024361589            7 
 2693000     0.827276   -7.0904496    793.46753  0.024553395  0.024354686           10 
 2694000   0.83879925    -7.054005    794.75315   0.02458405  0.024347754           14 
 2695000   0.81575571   -7.0879683    794.36723  0.024562994  0.024340854            7 
 2696000   0.83134905   -7.0539765    794.80397  0.024567383  0.024333959            8 
 2697000   0.84127387   -7.0920279    796.20953  0.024601703  0.024327107            6 
 2698000   0.81624778    -7.079741    795.07655   0.02455759  0.024320255            6 
 2699000   0.82019868   -7.0671324    793.25976  0.024492397  0.024313389            3 
 2700000   0.82657692   -7.0949126    793.51091  0.024491077  0.024306495            6 
 2701000   0.81879131   -7.0769962    795.04022  0.024529193  0.024299608            6 
 2702000   0.83472038   -7.0895326    796.36551  0.024560989   0.02429275            5 
 2703000    0.8258486   -7.0773325     794.6697  0.024499621  0.024285899           13 
 2704000   0.82671538   -7.0743935    795.13639  0.024504943  0.024279064            6 
 2705000   0.81208467   -7.0719865     794.6235  0.024480083  0.024272245            8 
 2706000   0.84490816   -7.0758637     793.4813  0.024435862  0.024265387            7 
 2707000   0.82847979   -7.0878727    795.35426  0.024484493  0.024258567            7 
 2708000   0.83259655   -7.0459567    797.30317  0.024535425  0.024251737           11 
 2709000   0.81125644   -7.0904961    796.06385  0.024488244  0.024244952            8 
 2710000   0.83859248    -7.089435    796.52496  0.024493388  0.024238154            6 
 2711000   0.84145157   -7.0716931    795.48187  0.024452289  0.024231339           13 
 2712000   0.81107994   -7.0608116     797.8502  0.024516046  0.024224534            8 
 2713000   0.80901316    -7.077949    795.53284  0.024435829  0.024217744           12 
 2714000   0.83240303   -7.0581272    796.56336  0.024458467  0.024210899            7 
 2715000    0.8087606   -7.0836484     795.1414  0.024405814  0.024204006            4 
 2716000   0.81681315    -7.091275    795.80879  0.024417304  0.024197093            7 
 2717000   0.81208315    -7.094654    795.98638  0.024413764  0.024190153            6 
 2718000   0.82800504   -7.1281854    793.58068  0.024331024  0.024183232            9 
 2719000   0.83290836   -7.0717072    795.17219  0.024370853  0.024176328            6 
 2720000   0.80972067   -7.0617376    795.29531  0.024365665  0.024169447            8 
 2721000   0.81756181   -7.0848729    796.34497  0.024388857  0.024162584           10 
 2722000   0.82261064    -7.096764    794.84991  0.024334126  0.024155679            8 
 2723000   0.81657888   -7.0907342    796.05165  0.024361968  0.024148783            5 
 2724000   0.81633215   -7.0889698    795.43003  0.024334007  0.024141875            6 
 2725000   0.82079674   -7.0953668    794.30457   0.02429066  0.024134967            9 
 2726000   0.80397932   -7.1083133    794.51155  0.024288076  0.024128047            4 
 2727000   0.81838903   -7.0853968     796.0994  0.024327692  0.024121159           18 
 2728000   0.81609285   -7.0910171    795.33277  0.024295356  0.024114269           10 
 2729000   0.81098222   -7.0990532    796.35556  0.024317685   0.02410739            8 
 2730000   0.82171106   -7.0551796    796.35448  0.024308745  0.024100565            9 
 2731000   0.81075794   -7.0707234    797.14708  0.024324029  0.024093698           17 
 2732000   0.82331516   -7.0779528    797.51826  0.024326448  0.024086888            4 
 2733000   0.81704807   -7.1035947    795.97024  0.024270345  0.024080054            8 
 2734000   0.82690748   -7.1141407    795.72485  0.024253988  0.024073179            9 
 2735000    0.8208913   -7.0911692    796.17176  0.024258737  0.024066316            6 
 2736000    0.8191009   -7.0859943     796.2803  0.024253177  0.024059495            6 
 2737000   0.81182804   -7.1022864    795.29429  0.024214295  0.024052614            8 
 2738000   0.83914576   -7.0779475    796.13869  0.024231151  0.024045722            5 
 2739000   0.81645387    -7.099368    797.80505  0.024273003  0.024038821           14 
 2740000   0.80330884   -7.1057307    796.77799  0.024232907  0.024031898           13 
 2741000   0.80860984   -7.0753375    797.08036  0.024233259  0.024024997            5 
 2742000   0.81400798   -7.1020259    795.58552  0.024178991  0.024018074           11 
 2743000   0.80927446   -7.1209646    796.14015  0.024187026  0.024011157            4 
 2744000   0.80867861   -7.0842649     798.3476   0.02424525  0.024004257            4 
 2745000   0.79181834   -7.1114897    796.13199  0.024169156  0.023997366            7 
 2746000   0.80012702   -7.0684106    796.16698  0.024161416  0.023990504           11 
 2747000   0.80392077   -7.1011445    798.56354  0.024225323  0.023983592            4 
 2748000   0.79998326   -7.0808206    797.14061  0.024173357  0.023976717           12 
 2749000   0.78790681   -7.0889503     799.4337  0.024234076  0.023969836            7 
 2750000   0.80447501   -7.1119264    796.74569  0.024143809  0.023962916           15 
 2751000    0.8049991   -7.1169616    796.72616  0.024134441  0.023955994            9 
 2752000     0.828139   -7.0962091    797.74397  0.024156491  0.023949056           11 
 2753000   0.82130749    -7.101744    797.67783  0.024145715  0.023942136            7 
 2754000    0.8092989   -7.0895734    797.99618   0.02414658  0.023935247            4 
 2755000   0.81128658   -7.0929532    795.54539  0.024063684  0.023928373            7 
 2756000    0.8227076   -7.0903269    797.63444  0.024118119  0.023921513            8 
 2757000   0.80407408   -7.1308267    797.76491  0.024113315  0.023914608           13 
 2758000   0.80442481   -7.1062031    798.21085  0.024118046  0.023907687            6 
 2759000    0.8083928   -7.1024011    796.63395  0.024061675  0.023900809            5 
 2760000   0.81503571   -7.1059774    795.92028  0.024031409   0.02389393            4 
 2761000   0.81960685   -7.0938651    798.44315  0.024098852  0.023887063            5 
 2762000   0.81119284   -7.1132248    795.78636  0.024009967  0.023880197            8 
 2763000   0.82010794   -7.0732327    800.08281  0.024130861  0.023873357            9 
 2764000   0.81043935   -7.1034501    798.40977  0.024071689  0.023866493           11 
 2765000   0.79711804   -7.0969878    799.38507  0.024092377  0.023859671            6 
 2766000   0.80477313   -7.1321159    797.97749   0.02404126  0.023852801            7 
 2767000   0.80206837    -7.102708    798.48924  0.024047984  0.023845903            3 
 2768000   0.81621411   -7.1067061    798.45335  0.024038215   0.02383902            6 
 2769000   0.79548075   -7.1308467     796.9499  0.023984287  0.023832137            6 
 2770000   0.82202595   -7.1103372    800.18977  0.024073098  0.023825242           11 
 2771000   0.82835638   -7.1071956    799.82597  0.024053469  0.023818369            6 
 2772000   0.79723731   -7.1324753    800.53076   0.02406598   0.02381151            8 
 2773000   0.81349429   -7.0867569    798.81332  0.024005689  0.023804646            5 
 2774000    0.7924366   -7.0894901    800.95931  0.024061503  0.023797774           12 
 2775000   0.80715901   -7.1329148    798.36026  0.023974783   0.02379092            5 
 2776000   0.81540367   -7.1090164    799.60129  0.024003401  0.023784027            9 
 2777000     0.812735   -7.1036225     798.9998  0.023976708  0.023777177            8 
 2778000   0.81306502   -7.1051423     800.0736  0.024000288  0.023770363            5 
 2779000   0.80671763   -7.0653474    801.55449  0.024036059  0.023763545            4 
 2780000   0.80666628   -7.0778789    801.13117  0.024014723  0.023756757            6 
 2781000   0.81826918   -7.0762613    801.64064  0.024021354  0.023749953            5 
 2782000   0.78869681   -7.0862331     801.6039  0.024011619  0.023743184           10 
 2783000   0.79721433   -7.1239626     799.8129  0.023949362  0.023736378            4 
 2784000   0.81834444   -7.1267213    800.34065  0.023956557   0.02372957            5 
 2785000   0.81370669    -7.121562    801.19522  0.023973525  0.023722735            8 
 2786000   0.81565375   -7.1069412    801.38943  0.023970729  0.023715886            7 
 2787000   0.80577146   -7.1165388    802.45693  0.023994048  0.023709088            5 
 2788000   0.81713541   -7.1014605    801.68838  0.023962469  0.023702267           12 
 2789000   0.80523692   -7.1031532    801.73714  0.023955335  0.023695488            9 
 2790000   0.79985406   -7.1226277    800.25243  0.023902402  0.023688722           15 
 2791000   0.81974857   -7.0979833    800.21619  0.023892756  0.023681889            9 
 2792000   0.81437258   -7.1296454     799.4008  0.023859862  0.023675086           12 
 2793000   0.80790214   -7.1243619    801.00379  0.023899146  0.023668257           11 
 2794000   0.81635752   -7.1285101    802.47365  0.023934433  0.023661422           21 
 2795000   0.79160917   -7.1060665    800.51412  0.023867446  0.023654632           12 
 2796000   0.79087525   -7.1293325     802.0916  0.023905925   0.02364781           11 
 2797000   0.80650866   -7.1136753    803.78145  0.023947725  0.023640989            7 
 2798000   0.80884219   -7.1264471    800.54924  0.023842901  0.023634139            7 
 2799000   0.82072974   -7.1120484    801.83005  0.023872516  0.023627328            7 
 2800000   0.80237511   -7.1111929    801.10164  0.023842311  0.023620507            3 
 2801000   0.80953314   -7.1088034    801.11209   0.02383411  0.023613699            5 
 2802000   0.79644195   -7.1132418    803.09114  0.023884462  0.023606877           19 
 2803000   0.79943367   -7.1012408    802.11854  0.023847025  0.023600055            5 
 2804000   0.78310716    -7.101639    799.01463  0.023746274  0.023593221            7 
 2805000     0.791467   -7.1240453    801.03213  0.023797746  0.023586396            4 
 2806000   0.79634589   -7.1362052    801.04565  0.023789666  0.023579553           15 
 2807000   0.79542824   -7.1180081    801.67479  0.023799869  0.023572743            7 
 2808000   0.80752137   -7.0909942    802.62697  0.023819651  0.023565951           12 
 2809000   0.78963852   -7.1018316    802.40518  0.023804592   0.02355915            7 
 2810000   0.81153147   -7.0997423    804.55016  0.023859732  0.023552375            6 
 2811000   0.79241436   -7.1260621    801.63369  0.023764784  0.023545555            5 
 2812000   0.78198682   -7.1327332    800.83327  0.023732612  0.023538719            7 
 2813000   0.78266162   -7.1382732    801.27161  0.023737161  0.023531875           10 
 2814000   0.79754924   -7.1273848    800.44202  0.023704158  0.023525015            4 
 2815000   0.80604915   -7.1374308    801.09022  0.023714927  0.023518186            8 
 2816000   0.81438231   -7.0967008    803.45956   0.02377662   0.02351137           10 
 2817000   0.80205052   -7.0981793    802.97704  0.023753906  0.023504591            8 
 2818000   0.78966061   -7.1166265     803.9229  0.023773447  0.023497787           11 
 2819000   0.79819959   -7.1425609    801.60342  0.023696447  0.023490918            9 
 2820000   0.79027444   -7.1228836    802.51832   0.02371508  0.023484092           12 
 2821000   0.81339228    -7.125874    800.72383  0.023653664  0.023477323            8 
 2822000   0.79980924   -7.1589184    801.56406  0.023670094  0.023470493            6 
 2823000   0.80542483   -7.1367542    801.80934   0.02366895  0.023463625           11 
 2824000   0.79840867   -7.1324546     801.7357  0.023658395  0.023456786            5 
 2825000    0.8013678   -7.1010621    802.79678  0.023681321  0.023449943            8 
 2826000   0.80445445   -7.1134381    803.56503  0.023695595   0.02344309           26 
 2827000    0.8090607   -7.1706173     801.6611   0.02363109  0.023436259            9 
 2828000   0.80518581   -7.1104559    802.17487  0.023637873  0.023429411            9 
 2829000   0.79794242   -7.1317313    804.31283  0.023692495  0.023422589            5 
 2830000   0.81364802   -7.0950389    803.52483  0.023660919  0.023415804            5 
 2831000   0.80385391   -7.1247963    802.55147   0.02362391  0.023409039           11 
 2832000   0.79384081   -7.1084289    804.09961  0.023661123  0.023402242            8 
 2833000    0.8139966    -7.127041    803.76922  0.023643053  0.023395479           11 
 2834000   0.79356449   -7.1090216    802.49757  0.023597317   0.02338874            7 
 2835000   0.79954363   -7.0990068    805.68741  0.023682757  0.023381999            9 
 2836000   0.80384158   -7.1294099    803.43045  0.023608088  0.023375235            7 
 2837000   0.81229635   -7.1349248    804.04855  0.023617922  0.023368468           10 
 2838000   0.78654724   -7.1175443    802.61659  0.023567553  0.023361697            9 
 2839000   0.77971292   -7.0851937    805.63633   0.02364789  0.023354891            6 
 2840000   0.81067463   -7.1284716     803.6509  0.023581306  0.023348131            8 
 2841000   0.80054313   -7.1134197    804.64118  0.023602053  0.023341358            8 
 2842000   0.81795704   -7.1310959    802.78786  0.023539405  0.023334577            9 
 2843000   0.80607998   -7.1338101     802.9073  0.023534626  0.023327765            5 
 2844000   0.79784882    -7.111687    802.73196  0.023521213  0.023320974            4 
 2845000   0.79270253   -7.1165539    803.32897  0.023530433  0.023314215            7 
 2846000   0.80434082   -7.1290087    805.38935  0.023582494  0.023307417            9 
 2847000   0.79920254   -7.1516133     804.4339  0.023546245  0.023300659           22 
 2848000   0.79569137   -7.1379955    805.75581  0.023576656  0.023293875           10 
 2849000   0.78452705   -7.1029613    806.80876   0.02359918  0.023287087           12 
 2850000   0.79145803   -7.1173383    805.84367   0.02356268  0.023280351            6 
 2851000   0.79129427   -7.1198333    806.90582  0.023585462  0.023273602            7 
 2852000   0.79207776   -7.1076874    804.99444  0.023521343  0.023266842            6 
 2853000   0.78760697   -7.1280033     805.5257  0.023528616   0.02326012           11 
 2854000   0.79764918   -7.1440138    804.89354  0.023501914  0.023253347            5 
 2855000     0.797089   -7.1148504     804.5269   0.02348298  0.023246566            6 
 2856000    0.7875774   -7.0778855    807.12622  0.023550602  0.023239827           10 
 2857000   0.78500625   -7.1375848    805.19018  0.023485888  0.023233116            3 
 2858000   0.79640022   -7.1252533    803.69289  0.023434013  0.023226347            3 
 2859000   0.78911228   -7.1127968     806.2938  0.023501626  0.023219596            3 
 2860000   0.81007728   -7.1414351    807.36448  0.023524606  0.023212829            3 
 2861000   0.78841221   -7.1410719    803.93273  0.023416426  0.023206034            4 
 2862000   0.80277689   -7.1354639    803.99724  0.023410122   0.02319924           12 
 2863000   0.80396946   -7.1421947    803.79999  0.023396204  0.023192413            5 
 2864000   0.80729412   -7.1585101    803.21758  0.023371089  0.023185591            6 
 2865000   0.78487465   -7.1395186     804.5189  0.023400782  0.023178768            7 
 2866000   0.80475929   -7.1415162    803.75565  0.023370425  0.023171927           10 
 2867000   0.77476615   -7.1115988    805.13345  0.023402321  0.023165107           11 
 2868000   0.79926176    -7.122705    804.64273  0.023379903  0.023158278           22 
 2869000   0.77625758   -7.1146925     804.9157  0.023379682  0.023151463            7 
 2870000   0.77709821   -7.1274944    805.63276  0.023392357  0.023144676            8 
 2871000   0.79163949   -7.1266102    806.22303  0.023401342  0.023137863           16 
 2872000   0.80350365   -7.1440597    806.81089  0.023410251  0.023131047           11 
 2873000   0.79331167   -7.1563699    804.77026  0.023342913  0.023124212           11 
 2874000   0.80335747   -7.1497242    804.17487  0.023317527  0.023117373            6 
 2875000   0.80227793   -7.1393551    805.35337  0.023343576  0.023110516            9 
 2876000   0.80441457   -7.1547239    805.16288   0.02332994  0.023103673            6 
 2877000   0.76569019    -7.140794    804.03965  0.023289296  0.023096834           13 
 2878000   0.78458179   -7.1443746    804.94617  0.023307452  0.023089983           17 
 2879000   0.79613193   -7.1378967    805.84594  0.023325401  0.023083153            6 
 2880000   0.81204496   -7.1430612    805.74732  0.023314448  0.023076315            9 
 2881000   0.78470488   -7.1205753    804.85737  0.023280613  0.023069524            4 
 2882000   0.78939217   -7.1391225    807.73153  0.023355642  0.023062735           17 
 2883000   0.79269322   -7.1374941    807.32622  0.023335826  0.023055951           11 
 2884000   0.80241776   -7.1008886    808.43992  0.023359915  0.023049175            5 
 2885000   0.79648449   -7.1471011    805.89463  0.023278297  0.023042402            5 
 2886000   0.80197778   -7.1381426    807.06623  0.023304061   0.02303561            4 
 2887000   0.78943226   -7.1498834    805.64953  0.023255095  0.023028814            7 
 2888000   0.81283816   -7.1190383    807.17603   0.02329109  0.023022053           11 
 2889000   0.79740254   -7.1200482    807.28498  0.023286171  0.023015314            7 
 2890000   0.79299412   -7.1480233    807.20956  0.023275939  0.023008578           11 
 2891000   0.79426232   -7.1592912    807.50818  0.023276495  0.023001822            7 
 2892000   0.80222882    -7.109467    807.42808  0.023266139  0.022995074           18 
 2893000   0.78996608    -7.155299    807.80008  0.023268812  0.022988371            7 
 2894000   0.80882341   -7.1487177    808.56248  0.023282725  0.022981682            5 
 2895000   0.78975256   -7.1415126    807.77203  0.023251929  0.022974953            4 
 2896000   0.78414931   -7.1350092    807.71769  0.023242337  0.022968254            7 
 2897000   0.78199838   -7.1345995    805.87159   0.02318121  0.022961546           11 
 2898000   0.77810751   -7.1595349    806.82565  0.023200646  0.022954815            8 
 2899000   0.78630425   -7.1440262    808.84195  0.023250602  0.022948123            8 
 2900000   0.78284182   -7.1526194    807.85869   0.02321433  0.022941433            7 
 2901000   0.79068888   -7.1338755    807.58533  0.023198476   0.02293474           12 
 2902000    0.7836327   -7.1793073    807.01944  0.023174232  0.022928036            8 
 2903000   0.78397601   -7.1580482    807.49632  0.023179938  0.022921308           13 
 2904000   0.80903462   -7.1480503     807.2907  0.023166055  0.022914569           13 
 2905000   0.79996715   -7.1537291    808.59458  0.023195484  0.022907851            7 
 2906000   0.77631028   -7.1576831    808.58849  0.023187328   0.02290113            7 
 2907000   0.78427434   -7.1421243    810.13024  0.023223548  0.022894452            9 
 2908000   0.79555796   -7.1541235    810.29867  0.023220388  0.022887792            5 
 2909000   0.78657898   -7.1208642    807.72771  0.023138756  0.022881144            7 
 2910000   0.77450581   -7.1482051    810.30337  0.023204564  0.022874477            3 
 2911000   0.78698565   -7.1492781    807.19293   0.02310755  0.022867779           12 
 2912000   0.78105599   -7.1232587    810.22235  0.023186308  0.022861098            6 
 2913000   0.78505672   -7.1398608    809.46425  0.023156661  0.022854426           15 
 2914000   0.79254202   -7.1375282    808.40191  0.023118334  0.022847752           12 
 2915000   0.77792521   -7.1525704    807.79919  0.023093173  0.022841037           16 
 2916000   0.77532768   -7.1621498     809.3482  0.023129521  0.022834331           13 
 2917000   0.78067335   -7.1453084    807.26185  0.023061989  0.022827614            6 
 2918000   0.78368055   -7.1492272    809.20484  0.023109574  0.022820901            4 
 2919000   0.78956978   -7.1362237    809.34231  0.023105582  0.022814174            5 
 2920000   0.77484937    -7.143757    808.54317  0.023074862  0.022807455            5 
 2921000   0.78261396   -7.1491495    808.60192  0.023068639  0.022800694            7 
 2922000   0.78304182   -7.1438954    807.75199  0.023036504  0.022793964            7 
 2923000   0.78167273   -7.1568131    806.45719  0.022991709  0.022787237            6 
 2924000   0.78960447   -7.1504844     807.9713  0.023026998    0.0227805            3 
 2925000   0.77626308   -7.1571638    809.27024  0.023056132  0.022773751            6 
 2926000   0.78249089   -7.1608479    806.59815  0.022972151  0.022766984            5 
 2927000   0.77228027   -7.1658097    809.15189  0.023037009  0.022760224           10 
 2928000   0.78397892   -7.1327973    808.30286  0.023004977  0.022753472            6 
 2929000   0.79288966   -7.1386103    810.07088  0.023047425  0.022746749            4 
 2930000   0.79640122   -7.1736382    810.63212  0.023055521  0.022740036            8 
 2931000   0.78977496    -7.155148     809.6565  0.023019916  0.022733323            6 
 2932000   0.80998008   -7.1395257    809.57971  0.023009883  0.022726617            8 
 2933000   0.78355687   -7.1436843    811.10527  0.023045382  0.022719917            7 
 2934000   0.78871884   -7.1417568    809.19333  0.022983223  0.022713222            6 
 2935000   0.79550924   -7.1542436    810.15829  0.023002791  0.022706514           13 
 2936000   0.77440881    -7.152677    810.70166  0.023010379   0.02269983            7 
 2937000   0.77789556    -7.121315     811.1931  0.023016488  0.022693176            6 
 2938000   0.78945096   -7.1390207    812.35366  0.023041572  0.022686498            8 
 2939000   0.78075303   -7.1462203    808.55024  0.022925889  0.022679844           10 
 2940000   0.77440228   -7.1449757    811.00855  0.022987771  0.022673186           10 
 2941000   0.79245446   -7.1607808     811.4331  0.022991984  0.022666519            8 
 2942000   0.78761787   -7.1909767    809.14647  0.022919399  0.022659828           23 
 2943000   0.78044557   -7.1893305    809.64447  0.022925713  0.022653117            5 
 2944000    0.7786588   -7.1682464    809.51911  0.022914377  0.022646376            6 
 2945000   0.78028312    -7.130583    811.11172  0.022951662  0.022639648            5 
 2946000   0.77189843     -7.17605    807.79229  0.022849974  0.022632928           12 
 2947000   0.78833965   -7.1951347    809.92422  0.022902506  0.022626181            9 
 2948000   0.78206443   -7.1798521    810.69686  0.022916578  0.022619473            8 
 2949000   0.78855191   -7.1489051    810.26898  0.022896716  0.022612772           11 
 2950000   0.78060585   -7.1533519    808.01593  0.022825309  0.022606092            7 
 2951000    0.7682107   -7.1977818    810.74618  0.022894673  0.022599381            5 
 2952000   0.77361928   -7.1458171    810.30313  0.022874411  0.022592689            9 
 2953000   0.79796066   -7.1702361    811.49133  0.022900195  0.022585985           11 
 2954000   0.78197429   -7.1941884    810.19257  0.022855805  0.022579294            6 
 2955000   0.78332327   -7.1915859    809.80099  0.022837027  0.022572601           10 
 2956000    0.7783699   -7.1819178    810.40899  0.022846442  0.022565889            3 
 2957000   0.77080029   -7.1875407    811.76241  0.022876857  0.022559214           14 
 2958000   0.79584875   -7.1428348    811.50961  0.022862002  0.022552557            8 
 2959000   0.77569315   -7.1772694    811.21999  0.022846119  0.022545915            8 
 2960000    0.7435729    -7.147106    810.93046  0.022830249  0.022539248           10 
 2961000   0.78306685   -7.1588076    812.08203  0.022854948  0.022532582            8 
 2962000   0.76407135   -7.1575199    811.83304  0.022840227    0.0225259            7 
 2963000   0.77486037   -7.1682085    809.78558  0.022774935  0.022519216           16 
 2964000   0.78161303   -7.1451154    812.03708  0.022830552  0.022512545            9 
 2965000   0.77052227   -7.1700392    812.65559  0.022840236  0.022505879            7 
 2966000   0.79707467   -7.1580569    810.73441  0.022778557  0.022499239            5 
 2967000   0.77788352   -7.1214422    811.63923  0.022796293  0.022492596            4 
 2968000   0.76911965   -7.1680013     813.3602  0.022836933   0.02248598            8 
 2969000   0.76602643    -7.157664    813.31104  0.022827861  0.022479361            6 
 2970000   0.77948305   -7.1716232    812.88929  0.022808342  0.022472771           10 
 2971000   0.77607422   -7.1793641    813.23251  0.022810291  0.022466179            6 
 2972000   0.76407463   -7.1486768    812.50105  0.022782107   0.02245959            8 
 2973000   0.77951248   -7.1770856    813.63403  0.022806201  0.022452985            6 
 2974000   0.77891835   -7.1562851    813.77024  0.022802349  0.022446345            3 
 2975000   0.77417595   -7.1589453     813.4965  0.022787017  0.022439728            5 
 2976000   0.75658177   -7.1717584    811.74701  0.022730371  0.022433101            6 
 2977000   0.78483984   -7.1614654    813.27192  0.022765422  0.022426485            6 
 2978000   0.76975963   -7.1475443    812.02149  0.022722786  0.022419885            5 
 2979000   0.77933098   -7.1651381    810.78839  0.022680664  0.022413251            7 
 2980000    0.7805498    -7.199245    811.46016  0.022691839   0.02240662            9 
 2981000    0.7645372   -7.1701407    812.91628  0.022724932  0.022399964            9 
 2982000   0.77849797   -7.1709723    812.07051  0.022693676  0.022393321            8 
 2983000    0.7731483   -7.2157927    811.02688  0.022656914  0.022386657            5 
 2984000    0.7807442   -7.1557538     812.2405  0.022683213   0.02238001            5 
 2985000   0.76668208   -7.1649659    812.68893  0.022688133  0.022373351            6 
 2986000   0.76703151   -7.1573797    814.08382  0.022719464  0.022366666            6 
 2987000    0.7761598   -7.1563485    813.13831  0.022685479  0.022360013            8 
 2988000   0.76887749   -7.1767586    810.44189  0.022602686   0.02235337            5 
 2989000   0.77143276   -7.1955899    812.70663  0.022658264  0.022346703            8 
 2990000   0.78840972   -7.2009266    810.37246  0.022585632  0.022340015            5 
 2991000   0.75909876    -7.177173    810.89726  0.022592702  0.022333317            8 
 2992000   0.77460709   -7.2002514    811.71857  0.022608026   0.02232666            5 
 2993000   0.77117354   -7.1915059    811.62696  0.022597922   0.02232002            4 
 2994000   0.77256668   -7.1796649    813.02008  0.022629149  0.022313372           10 
 2995000   0.75618428   -7.2196561    812.18838  0.022598453  0.022306748           10 
 2996000   0.77179692   -7.1980754    812.13614  0.022589457  0.022300118           16 
 2997000   0.76737442   -7.1896489    813.54993   0.02262123  0.022293502           14 
 2998000   0.77136579   -7.1567172    813.85228  0.022622089   0.02228689            9 
 2999000   0.78506743   -7.1853274    812.11681  0.022566322  0.022280285           10 
 3000000   0.78976545   -7.2142111     813.0698  0.022585272  0.022273643            5 
 3001000    0.7600927   -7.1772349    814.54624  0.022618745  0.022266988           10 
 3002000   0.76170341   -7.1855169    813.35508  0.022578144  0.022260364           28 
 3003000   0.76847998   -7.1456759    812.98129  0.022560253  0.022253775           11 
 3004000   0.77978056   -7.1797529    813.01027  0.022553547  0.022247142           13 
 3005000   0.77557489   -7.1773693    813.01936  0.022546294  0.022240518           11 
 3006000   0.78637917   -7.1754545    812.25604  0.022517633  0.022233914            9 
 3007000   0.77068431   -7.1835986    814.60611  0.022575272  0.022227329           16 
 3008000   0.76945245   -7.2083984    813.20054  0.022528827  0.022220729            9 
 3009000   0.76692109   -7.1929388    813.20487   0.02252146  0.022214121            6 
 3010000   0.77300515   -7.1594122    817.99087   0.02264648  0.022207544            8 
 3011000   0.76914523   -7.1550323    815.86723  0.022580185  0.022201017            8 
 3012000   0.76202271   -7.1691313    814.04469  0.022522263  0.022194488            8 
 3013000   0.76405204   -7.1744548    814.79875  0.022535644  0.022187975           11 
 3014000   0.76084576   -7.1925781    816.09515  0.022564011  0.022181436            9 
 3015000    0.7668901   -7.1808577    815.86074  0.022550048  0.022174931            8 
 3016000   0.77686847   -7.1717582    815.05351  0.022520267  0.022168424            5 
 3017000    0.7679237   -7.1633196    817.37433  0.022576907  0.022161938           10 
 3018000   0.78504298   -7.1343515    815.56649  0.022519508  0.022155456            9 
 3019000   0.75117495   -7.1493327    817.41858  0.022563172  0.022148989           11 
 3020000   0.78655801   -7.1711985    816.02064  0.022517126  0.022142503            7 
 3021000    0.7524744   -7.1708248    816.68547  0.022528011  0.022135997            9 
 3022000   0.75205303   -7.1793957    816.64917  0.022519556  0.022129499            5 
 3023000   0.76298542   -7.1716683    816.17892  0.022499143     0.022123            8 
 3024000   0.77571012   -7.1810102    816.05008  0.022488152  0.022116522            4 
 3025000    0.7754581   -7.1821625    814.67727    0.0224429  0.022110051            9 
 3026000    0.7846943   -7.1953881    816.46731   0.02248478   0.02210359            5 
 3027000   0.77433221   -7.1956934    818.92527  0.022545019  0.022097156            6 
 3028000   0.77192488   -7.1627717    817.70357  0.022503951  0.022090733            5 
 3029000   0.78245791   -7.1849411    817.27636  0.022484768   0.02208432            7 
 3030000   0.76875507   -7.1794584    817.63459    0.0224872  0.022077889           12 
 3031000   0.76268186   -7.1697467    818.57528  0.022505644  0.022071458            6 
 3032000   0.77340321   -7.2010061    815.90372  0.022424794  0.022065031           12 
 3033000   0.76233808   -7.1709975    816.05557  0.022421573   0.02205859            8 
 3034000   0.76317363   -7.2068985    818.60581  0.022484229  0.022052132           10 
 3035000   0.74996797   -7.1960554    818.82044  0.022482714  0.022045711            9 
 3036000   0.77273218   -7.2004622     819.0225  0.022480855  0.022039314            4 
 3037000    0.7559535   -7.1815043    819.42347  0.022484455  0.022032902            6 
 3038000   0.77568323    -7.197311    816.66854  0.022401485   0.02202648            9 
 3039000   0.76715479   -7.2208832    817.22229  0.022409298  0.022020043            4 
 3040000   0.77903352   -7.2132231    816.04141  0.022369556  0.022013591            5 
 3041000   0.78432751   -7.1919146    818.63705  0.022433329  0.022007184            6 
 3042000   0.75321411   -7.1805699    820.27369  0.022470789  0.022000765            4 
 3043000   0.75964119   -7.2011018    819.27223   0.02243598  0.021994355            5 
 3044000   0.75680011    -7.187129    820.64292  0.022466133  0.021987952           13 
 3045000   0.75317161   -7.1714429    820.97301  0.022467789  0.021981547            3 
 3046000   0.76345566   -7.1719457    818.64044  0.022396598  0.021975167            6 
 3047000   0.77684201   -7.2071783    820.34309  0.022435814  0.021968776            4 
 3048000   0.78000069   -7.1853032    818.32813  0.022373363  0.021962393            6 
 3049000   0.76313998    -7.205029    820.51905  0.022425906  0.021956022           13 
 3050000    0.7587867    -7.184368    820.00342  0.022404465  0.021949642            9 
 3051000   0.76450337   -7.1905628    818.79779  0.022364192  0.021943304            4 
 3052000   0.75672391   -7.1808997    820.20644  0.022395326  0.021936972           16 
 3053000   0.77072446   -7.2051566    819.87333  0.022378899  0.021930614            3 
 3054000   0.76852023   -7.1964721    819.25441  0.022354683  0.021924248            8 
 3055000   0.76099984   -7.2088499    819.66836  0.022358657  0.021917862           13 
 3056000   0.76269444   -7.2330104    819.30943  0.022341553  0.021911457            8 
 3057000   0.77260534   -7.2272492    820.20739  0.022358723  0.021905061           16 
 3058000   0.76872267   -7.2037927    818.61048  0.022307894  0.021898694            8 
 3059000   0.76251386   -7.1985682    819.73351  0.022331195   0.02189232            9 
 3060000   0.76433399   -7.1890949    819.89208  0.022328216  0.021885961            7 
 3061000   0.76593392   -7.2003276    818.64597  0.022286997  0.021879638            7 
 3062000   0.76533091   -7.1955529    820.17142  0.022321234  0.021873297            8 
 3063000   0.75088544   -7.1884646    821.60533  0.022352958  0.021866987            6 
 3064000   0.75972372    -7.192854    822.05393  0.022357864  0.021860671           15 
 3065000   0.76489467   -7.2186499    821.36635  0.022331875  0.021854336            9 
 3066000   0.75666533    -7.192899    820.98188  0.022314141  0.021848039           13 
 3067000   0.76139878   -7.2029584    822.60705  0.022351023  0.021841743            8 
 3068000   0.74258597   -7.1946169    819.20565  0.022251349   0.02183543            6 
 3069000   0.75772188   -7.1923324     819.5037  0.022252191  0.021829134            6 
 3070000   0.75593394    -7.189281    819.62392  0.022248206  0.021822795            9 
 3071000   0.73757208   -7.1903951    820.32011  0.022259853  0.021816491           10 
 3072000   0.76281938   -7.1629277    820.14967  0.022247984  0.021810216            4 
 3073000    0.7617825   -7.1560337     823.0468  0.022319308  0.021803962            3 
 3074000    0.7634578   -7.1835941    821.99227   0.02228346  0.021797712            5 
 3075000   0.78141922   -7.1741707    823.11716  0.022306698  0.021791475           10 
 3076000    0.7470488   -7.1830626     821.2216  0.022248093  0.021785218           10 
 3077000   0.77429581   -7.1812369    822.52091  0.022276051  0.021778965            8 
 3078000    0.7500932   -7.1933276    821.90499  0.022252139  0.021772695            9 
 3079000   0.76481534   -7.2102831    822.68582  0.022266045  0.021766433           10 
 3080000   0.77171029    -7.206143    820.62922  0.022203171  0.021760163           12 
 3081000   0.74718743   -7.1814794    823.42905  0.022271693  0.021753903            9 
 3082000   0.75844013   -7.2030873    823.81845  0.022274996  0.021747651           10 
 3083000   0.75258743   -7.2092796    823.30803  0.022253974  0.021741389           10 
 3084000   0.76099479   -7.2026465    823.59623  0.022254546  0.021735124            6 
 3085000   0.75261137   -7.1922869    823.65271  0.022248858  0.021728893            7 
 3086000   0.74138206   -7.2204771      823.045  0.022225238  0.021722632            5 
 3087000   0.74973279   -7.2171944    822.50896  0.022203568  0.021716363           11 
 3088000   0.76387039   -7.1882123    822.25011  0.022189392  0.021710074           12 
 3089000   0.74763399   -7.2325941    820.71894  0.022140902  0.021703799            4 
 3090000   0.76604189   -7.2163028    822.68236  0.022186687  0.021697539           15 
 3091000   0.75548767   -7.2323156      822.546  0.022175833  0.021691276            6 
 3092000   0.74981726   -7.1903409     822.5975  0.022170049  0.021685023           10 
 3093000    0.7704878   -7.2304891    822.13058  0.022150301  0.021678745            7 
 3094000   0.77596363   -7.2048013    820.82947  0.022108098  0.021672485           12 
 3095000   0.75653175   -7.2140401    821.30988   0.02211389  0.021666205            7 
 3096000   0.74923081    -7.216764    825.08912  0.022208471  0.021659939           15 
 3097000   0.74209304   -7.2176697    823.21736  0.022150935  0.021653714           12 
 3098000   0.74976105   -7.2061101    822.20916  0.022116666   0.02164744           20 
 3099000   0.75203555   -7.2133918    821.62791  0.022093899  0.021641181           23 
 3100000   0.76345158   -7.2368141        822.6  0.022112903    0.0216349            9 
 3101000   0.74933492   -7.2087809    822.15995  0.022093947  0.021628613           10 
 3102000   0.75015207   -7.2404114    823.68653  0.022127835  0.021622348           14 
 3103000   0.74986645   -7.2296419    821.98765  0.022075079  0.021616073            5 
 3104000   0.74253134   -7.2346042    823.04707   0.02209641  0.021609806           18 
 3105000   0.77272553   -7.2247684    822.91908  0.022085858  0.021603551            7 
 3106000   0.74536115   -7.2322665    822.40708  0.022065011  0.021597285           10 
 3107000   0.74013944   -7.2358977    822.20523  0.022052495  0.021591001           22 
 3108000   0.76569956     -7.23207    821.63493  0.022030109  0.021584742           17 
 3109000   0.77411127   -7.2164571    821.69653  0.022024674  0.021578472           15 
 3110000   0.74215706   -7.2153525    824.81904   0.02210126  0.021572206           12 
 3111000   0.76072799   -7.1984215     824.7937  0.022093478  0.021565952           15 
 3112000   0.74079138   -7.2214867    823.98397  0.022064695  0.021559704            5 
 3113000   0.75543693   -7.1946365    824.15371  0.022062151  0.021553479           17 
 3114000   0.75575848   -7.2105629     823.5749  0.022039577  0.021547231           10 
 3115000   0.75989425   -7.2077512     825.3654  0.022080401  0.021540989            5 
 3116000   0.75050258   -7.2175119    822.49434  0.021996532  0.021534758           12 
 3117000   0.74425478   -7.2378339    824.37751  0.022039822  0.021528525            9 
 3118000   0.75184109   -7.2245371    822.21175   0.02197487  0.021522297            8 
 3119000   0.74550882   -7.2188754    825.53909  0.022056725  0.021516083            9 
 3120000   0.77132232   -7.2054841    822.68338  0.021973381  0.021509876            6 
 3121000   0.75659014   -7.1894528    824.68814  0.022019869  0.021503664            7 
 3122000   0.74342408   -7.1901848    825.37431  0.022031132  0.021497456            9 
 3123000   0.76551413   -7.2134731    826.52314  0.022054732  0.021491266           10 
 3124000   0.75826429   -7.2238886    825.36491  0.022016776  0.021485078           16 
 3125000   0.74092071   -7.2138234    825.51293  0.022013678  0.021478886           14 
 3126000   0.75448235   -7.2299281    824.73944  0.021986016  0.021472689           15 
 3127000   0.74718437   -7.2524766    823.40036  0.021943299  0.021466472           15 
 3128000   0.74970807   -7.2367782    823.69863   0.02194423  0.021460249           28 
 3129000   0.75253768   -7.2234947    824.72423  0.021964532   0.02145405            8 
 3130000   0.76597899   -7.2316837    825.50814  0.021978385  0.021447859           10 
 3131000    0.7459047   -7.2122098    826.21926  0.021990292  0.021441674            4 
 3132000   0.75820291   -7.2175399    824.67749  0.021942249  0.021435495            7 
 3133000    0.7610447   -7.2451299    824.56553  0.021932267  0.021429314           17 
 3134000   0.74021595   -7.2131642    823.82439  0.021905562  0.021423128           14 
 3135000   0.74269273    -7.219619    824.97743  0.021929225  0.021416946            3 
 3136000   0.76694837   -7.2150274    825.37354  0.021932758   0.02141078            6 
 3137000   0.73007502   -7.1945071    825.33713  0.021924799  0.021404623            9 
 3138000   0.76224931   -7.2156523     824.7261  0.021901585   0.02139845           16 
 3139000   0.75216799   -7.2603534    824.18308  0.021880192  0.021392237            7 
 3140000   0.74609021   -7.2174969    826.47593  0.021934075  0.021386029            6 
 3141000    0.7673941   -7.1827328    827.20293  0.021946379  0.021379851           12 
 3142000   0.73615882   -7.2447369    825.49937  0.021894212   0.02137367           14 
 3143000    0.7516399   -7.2137336    826.04015  0.021901584   0.02136751            8 
 3144000   0.75346242   -7.2107348    826.55752  0.021908331  0.021361341            9 
 3145000   0.76780011   -7.2238312    824.31749  0.021842011  0.021355172           15 
 3146000   0.75209331   -7.2363049    825.44186  0.021864851  0.021348971           21 
 3147000   0.75306118   -7.2349785    825.34234  0.021855268  0.021342762           32 
 3148000   0.72799903   -7.2449003    824.72087  0.021831874  0.021336543           30 
 3149000   0.75300302   -7.2278047     826.2198  0.021864608  0.021330355           16 
 3150000   0.73856713   -7.2155955    826.70021  0.021870376  0.021324155           10 
 3151000   0.76136924   -7.2102084    825.29852  0.021826365  0.021317975            8 
 3152000   0.75247091   -7.2271651    825.31092  0.021819768  0.021311774            9 
 3153000   0.75128923   -7.2396069    824.45982  0.021790354  0.021305568           14 
 3154000   0.74554655   -7.2225973    826.99339  0.021850385  0.021299376           19 
 3155000   0.74146626   -7.2257329     824.2703  0.021771535  0.021293166           16 
 3156000   0.74714597   -7.2384431    826.52583  0.021824193  0.021286979           10 
 3157000   0.75663528   -7.2168778    827.44346  0.021841502  0.021280805            9 
 3158000   0.74904394   -7.2324483    824.79181  0.021764614  0.021274632            8 
 3159000   0.75243546   -7.2261471    826.32978  0.021798295  0.021268454           13 
 3160000   0.75976346   -7.2494724     825.1451  0.021760156  0.021262275           11 
 3161000   0.76427389   -7.2237543    825.48567   0.02176225   0.02125607            8 
 3162000   0.72669738   -7.2406543    825.03849  0.021743582  0.021249847           11 
 3163000   0.72747293   -7.2515104    823.83538  0.021705011  0.021243592            7 
 3164000   0.74526276   -7.2363949    825.64108  0.021745709  0.021237369            6 
 3165000   0.75604637   -7.2556112    825.00329  0.021722046  0.021231161           12 
 3166000   0.72296186   -7.2244022    825.39204  0.021725417  0.021224937            9 
 3167000   0.73280126   -7.2491745    823.20913  0.021661118  0.021218687           12 
 3168000   0.75565551   -7.2470525    823.10085  0.021651432  0.021212419           12 
 3169000   0.75675323   -7.2268311    824.39036  0.021678509  0.021206183           11 
 3170000   0.73279203   -7.2324648     823.4143  0.021646012  0.021199953            9 
 3171000   0.75084179   -7.2686534    822.55385  0.021616573  0.021193716           15 
 3172000   0.73580938   -7.2342385    823.18043   0.02162622  0.021187484            8 
 3173000   0.75168513   -7.2237469     826.1174  0.021696539  0.021181253            5 
 3174000   0.73885418   -7.2235364    825.97181   0.02168588  0.021175021           15 
 3175000   0.74302917   -7.2521902    825.84611  0.021675751    0.0211688           10 
 3176000   0.74012053   -7.2476345     825.6851  0.021664702   0.02116258            6 
 3177000   0.72850293   -7.2511202    825.61811  0.021656125  0.021156335           18 
 3178000   0.75355023    -7.243692    827.30788   0.02169362  0.021150109           14 
 3179000   0.72913974     -7.23777    825.91683  0.021650331    0.0211439           10 
 3180000   0.73477327   -7.2321848    825.36256  0.021628998  0.021137674            7 
 3181000   0.75908281   -7.2445672    825.52365  0.021626419  0.021131465            8 
 3182000   0.73789462   -7.2482784     824.0096  0.021579971  0.021125235            8 
 3183000   0.75724259    -7.231903    826.26237   0.02163217  0.021118998            5 
 3184000    0.7541118   -7.2399182    824.59729  0.021581797  0.021112783           11 
 3185000    0.7139685     -7.22453    826.21097  0.021617241  0.021106577           13 
 3186000   0.74440022   -7.2407082    827.02714  0.021631804  0.021100398            9 
 3187000   0.74663369    -7.227342    826.32255  0.021606593  0.021094204           14 
 3188000    0.7359066   -7.2404614    824.38032  0.021549047  0.021088002           11 
 3189000    0.7446914   -7.2499848    824.82782  0.021553983  0.021081829           12 
 3190000   0.76322192   -7.2217374    825.44374  0.021563316  0.021075605           12 
 3191000     0.735565   -7.2490242    823.72464  0.021511664  0.021069371           10 
 3192000   0.74699277   -7.2334194    825.85128  0.021560445  0.021063161           21 
 3193000   0.74373049   -7.2540132    824.65072  0.021522359  0.021056954            6 
 3194000   0.73523341   -7.2495412    826.85965  0.021573253   0.02105075           10 
 3195000   0.74477385   -7.2523165    826.06875  0.021545872  0.021044526            7 
 3196000   0.71355789   -7.2490031    826.08234  0.021539485  0.021038287            8 
 3197000    0.7349544   -7.2354076    826.51595   0.02154405  0.021032051            9 
 3198000   0.74013299   -7.2103176    826.45847  0.021535816  0.021025832            8 
 3199000   0.74057972   -7.2570361    826.90166  0.021540629  0.021019657           13 
 3200000   0.73989328   -7.2476741    825.91314  0.021508155  0.021013442            9 
 3201000   0.74820569   -7.2600646    824.49576  0.021464536  0.021007222           12 
 3202000   0.72810462   -7.2285885     826.4406  0.021508448  0.021000993           12 
 3203000    0.7473874   -7.2620782    826.97925  0.021515747  0.020994761           13 
 3204000   0.74477056   -7.2570948    824.68319  0.021449313  0.020988509           31 
 3205000   0.71228857    -7.262366    825.68604  0.021468696  0.020982246           26 
 3206000   0.73946524   -7.2343535    826.02947  0.021470926  0.020976016           22 
 3207000   0.73643656   -7.2310164    827.35287  0.021498619  0.020969804           18 
 3208000   0.73504557   -7.2559356    824.85182  0.021426949  0.020963571            9 
 3209000   0.73445151   -7.2320145    826.22004  0.021455802  0.020957341           25 
 3210000   0.72604046   -7.2517391    827.38237  0.021479293  0.020951148           27 
 3211000   0.74312065   -7.2582254    826.90921  0.021460324  0.020944944           15 
 3212000   0.74264447    -7.224438    825.65085  0.021420995  0.020938727           11 
 3213000   0.74476788   -7.2528642    826.29288   0.02143098  0.020932498           10 
 3214000   0.74619689   -7.2689482    825.39026  0.021400909  0.020926277            7 
 3215000   0.73543735   -7.2403124    827.15676   0.02144004  0.020920055           15 
 3216000   0.73965957   -7.2679081    825.71371  0.021395981  0.020913836            4 
 3217000   0.71063039    -7.274002    826.30647  0.021404685  0.020907616           11 
 3218000   0.74933532   -7.2252453    826.97365  0.021415311  0.020901421            8 
 3219000   0.73257841   -7.2505768    827.48063  0.021421783   0.02089524            7 
 3220000    0.7377714   -7.2704876     825.0696  0.021352733   0.02088907            8 
 3221000   0.72871273   -7.2412704    827.03183   0.02139687   0.02088288           15 
 3222000   0.75114138   -7.2736507    825.79873  0.021358337  0.020876699            8 
 3223000   0.75128183    -7.266904    827.90628  0.021406202  0.020870512            7 
 3224000   0.74298026    -7.229251    827.35019  0.021385189   0.02086434           11 
 3225000   0.73296296   -7.2739231    827.93034  0.021393549  0.020858157           13 
 3226000     0.739998   -7.2614167    827.19371  0.021367889  0.020851997            8 
 3227000   0.73216379   -7.2691225    828.93577  0.021406254  0.020845855            8 
 3228000   0.73910876   -7.2355628     830.1031  0.021429758  0.020839727            4 
 3229000   0.72312294   -7.2470526    829.32559  0.021403055  0.020833638           11 
 3230000   0.72782445   -7.2628562    829.23912  0.021394198   0.02082756            8 
 3231000   0.72353259   -7.2772748    828.02328  0.021356218  0.020821447            7 
 3232000   0.74919486   -7.2527112    827.29368  0.021330798  0.020815346           10 
 3233000   0.74016102   -7.2515566    828.44186  0.021353796  0.020809219            5 
 3234000   0.73512369   -7.2517561    828.09665  0.021338298  0.020803102           18 
 3235000   0.73263311   -7.2522136    828.24965  0.021335643  0.020796972           11 
 3236000   0.73044213   -7.2577428    828.20336  0.021327857  0.020790861            8 
 3237000   0.73744061   -7.2549446    827.97587  0.021315412  0.020784731            9 
 3238000   0.74050473   -7.2812044    825.72874  0.021250997  0.020778587           13 
 3239000   0.74515559   -7.2389892    827.93082  0.021301091  0.020772446           10 
 3240000   0.74014402   -7.2517888    826.46014  0.021256691  0.020766325           12 
 3241000   0.72522563   -7.2613239    827.87011  0.021286386  0.020760233            7 
 3242000     0.738859   -7.2667168    826.83186  0.021253132  0.020754117            7 
 3243000   0.72927636   -7.2911877    829.16052  0.021306417     0.020748            8 
 3244000    0.7481389   -7.2612979    827.84807  0.021266134  0.020741878            8 
 3245000   0.73152719   -7.2695878    827.25782  0.021244423  0.020735745            6 
 3246000   0.72665134   -7.2779748    828.57418  0.021271672  0.020729611            7 
 3247000   0.73394885   -7.2526618    827.79432  0.021245106  0.020723504           13 
 3248000   0.73075878   -7.2310679     830.1887  0.021299997  0.020717441            7 
 3249000   0.72665104   -7.2473227    829.38859   0.02127292   0.02071136           12 
 3250000   0.74273107   -7.2498206    829.57354  0.021271116  0.020705294            4 
 3251000    0.7441212   -7.2698177    826.55657  0.021187239  0.020699206            7 
 3252000   0.73463673   -7.2761528    828.09427  0.021220128  0.020693094           13 
 3253000   0.73215773   -7.2686754     828.0349  0.021212084  0.020686964            9 
 3254000   0.72546048   -7.2618001    828.17262  0.021209092  0.020680855            7 
 3255000   0.72870728    -7.248326    828.87485  0.021220554  0.020674737            9 
 3256000   0.72247075   -7.2718067    827.63251  0.021182241  0.020668615            6 
 3257000   0.72179223   -7.2789137    828.45682  0.021196828  0.020662486           18 
 3258000    0.7159868   -7.2682951    827.73506  0.021171861   0.02065636           12 
 3259000   0.73020671   -7.2832966    828.58412  0.021187075  0.020650237           15 
 3260000   0.72894499   -7.2837057    827.61263  0.021155742  0.020644118           10 
 3261000   0.74182284    -7.276102    829.02518  0.021185352     0.020638            4 
 3262000   0.72444773   -7.2667687     830.9441  0.021227879  0.020631906            5 
 3263000   0.72750724   -7.2560227    828.65661  0.021162954  0.020625795            7 
 3264000   0.71999955    -7.256816    829.66289  0.021182161  0.020619698           10 
 3265000   0.73069959   -7.2567817    829.46542  0.021170634  0.020613601            6 
 3266000   0.72816549   -7.2730636    829.11882  0.021155308    0.0206075            5 
 3267000    0.7194142   -7.2463783    831.33471  0.021205354  0.020601382           17 
 3268000   0.72063196   -7.2913925    829.83776  0.021160694  0.020595306            7 
 3269000   0.72831947   -7.2678649    827.45915  0.021093585  0.020589194           10 
 3270000   0.73722777   -7.2701256    828.31592  0.021108968  0.020583066           11 
 3271000   0.70813906   -7.2923851    829.53725   0.02113363  0.020576936           12 
 3272000   0.74154052   -7.2717705    830.22985  0.021144811  0.020570802            5 
 3273000   0.72642216   -7.2919705    828.47681  0.021093717  0.020564661           12 
 3274000   0.74388261    -7.283888    827.89061  0.021072353  0.020558537            9 
 3275000   0.72401268   -7.2809345    828.99171  0.021093937  0.020552398           16 
 3276000   0.72214569   -7.2690109    829.08519  0.021089876  0.020546275           20 
 3277000   0.72439382   -7.3055508    827.99667  0.021055759  0.020540176           12 
 3278000   0.72378996   -7.2756479    829.22429  0.021080544  0.020534071           10 
 3279000   0.74606612   -7.2775654    828.00464  0.021043119  0.020527983           12 
 3280000   0.72923444   -7.2982409    829.27781   0.02106905  0.020521876           12 
 3281000   0.72994523   -7.2911408    829.34317  0.021064289  0.020515792           12 
 3282000    0.7227851   -7.2787929    829.26076  0.021055778  0.020509701            6 
 3283000   0.71281064   -7.2682895    828.37727  0.021026939  0.020503606           12 
 3284000    0.7201962   -7.2697615     828.4118  0.021021412  0.020497514           13 
 3285000   0.72944843   -7.2772785    828.60362  0.021019879  0.020491443            7 
 3286000   0.71828248   -7.2855837    829.84006  0.021044838  0.020485357            5 
 3287000   0.74515726   -7.2882738    830.11887  0.021045504  0.020479278           13 
 3288000   0.72531859   -7.2745543    829.02453  0.021011368  0.020473195            7 
 3289000   0.73966536   -7.2713431    829.71038  0.021022357  0.020467106           14 
 3290000   0.71915438   -7.2786468    829.20622  0.021003197  0.020461012           19 
 3291000    0.7263411   -7.2811286     829.5082  0.021004462  0.020454923           11 
 3292000   0.73116883   -7.2875211    830.58191  0.021025261   0.02044884            7 
 3293000   0.71913841   -7.2804433    828.78078  0.020973296  0.020442738           12 
 3294000   0.71152151   -7.2947219    830.19743  0.021002768   0.02043666           13 
 3295000   0.72782574   -7.2806792    831.12296  0.021019802  0.020430589           12 
 3296000   0.72563126   -7.3208244    828.71844   0.02095263  0.020424483            9 
 3297000   0.73276072   -7.3016968    829.83722  0.020974553  0.020418384           11 
 3298000   0.71999522   -7.2969227    830.84348  0.020993619  0.020412301           11 
 3299000   0.72912771    -7.295881    829.32933  0.020949008  0.020406224           14 
 3300000   0.72675803   -7.2559269    830.19528  0.020964527  0.020400164            6 
 3301000   0.72059718   -7.2884639     829.1497  0.020931781   0.02039412            8 
 3302000   0.73188652   -7.2603289    828.32912  0.020904732  0.020388055            8 
 3303000   0.72993684   -7.2757421    829.75082  0.020934272  0.020381992           10 
 3304000   0.73321106   -7.2591992     830.7217  0.020952424  0.020375936           11 
 3305000   0.71850558   -7.2746467    830.64871  0.020944244  0.020369896            9 
 3306000   0.71982538   -7.2684871    831.24454  0.020952928  0.020363863            9 
 3307000   0.70700406   -7.2593031    832.22937  0.020971408  0.020357832           10 
 3308000   0.72146612   -7.2742087    830.42835  0.020919699  0.020351796           12 
 3309000   0.70883337   -7.3101277    830.12415  0.020905715  0.020345757           17 
 3310000   0.71233461   -7.3051011    829.41205  0.020881471  0.020339681           11 
 3311000   0.73373434   -7.2631712    828.20951  0.020844899   0.02033361           11 
 3312000   0.73174701   -7.2890021     829.9107  0.020881409  0.020327529            7 
 3313000   0.72403562   -7.2717934    829.24408  0.020858338  0.020321452            7 
 3314000   0.73073161   -7.2874434    828.23368  0.020826637  0.020315382           10 
 3315000   0.73140523   -7.3058886    830.96883  0.020889111  0.020309322            6 
 3316000   0.73907143    -7.300299    831.56764   0.02089786  0.020303255            9 
 3317000   0.72090188    -7.312241    829.80588  0.020847299  0.020297195           12 
 3318000   0.71158423   -7.2990488    831.13846  0.020874484  0.020291153            8 
 3319000   0.71758159   -7.2708319    831.50759  0.020877463  0.020285094            7 
 3320000    0.7269647   -7.3241275    831.42295   0.02086905  0.020279023           12 
 3321000   0.73191324   -7.2699606     830.3493  0.020835825  0.020272969           13 
 3322000   0.71243061   -7.2673816    829.03145  0.020796494  0.020266923           19 
 3323000   0.71705412   -7.3133024    831.52696  0.020852818  0.020260846           14 
 3324000   0.72636641   -7.2899162    829.63068  0.020799004  0.020254789           26 
 3325000   0.73119161   -7.2933798    830.27322  0.020808853  0.020248721           23 
 3326000   0.70752724   -7.2924273    830.83316  0.020816625  0.020242663           23 
 3327000    0.7207074   -7.2861067    829.78346  0.020784076  0.020236623           19 
 3328000   0.71147786   -7.2971706    830.08503  0.020785382   0.02023056           19 
 3329000   0.71457846    -7.283072    829.87664  0.020773922  0.020224482           15 
 3330000   0.70421893   -7.3108303    830.54818  0.020784489  0.020218406            7 
 3331000   0.73643153   -7.2959738    830.18708  0.020769215  0.020212343            8 
 3332000   0.71568721   -7.2809651      827.991  0.020708058  0.020206265            9 
 3333000   0.71136797   -7.2817309    831.48656  0.020789243  0.020200206           11 
 3334000   0.72863931   -7.3241924    829.39448  0.020730716  0.020194143           16 
 3335000   0.72480659   -7.2997696    829.95006  0.020738382  0.020188073           31 
 3336000   0.71541979   -7.2993124    830.83745  0.020754333  0.020182004           11 
 3337000   0.73606002   -7.2710462    830.24439  0.020733303  0.020175963           13 
 3338000   0.71345142   -7.2669471    830.95573   0.02074485  0.020169948           10 
 3339000   0.71431591   -7.2877193    830.79656  0.020734665  0.020163942            7 
 3340000   0.69737263   -7.2935833    829.11633  0.020686535  0.020157904            5 
 3341000   0.71754399   -7.3048681    831.59437  0.020742152  0.020151841            8 
 3342000   0.73298853   -7.2869368    830.99529  0.020721008  0.020145803            7 
 3343000   0.72970954   -7.2766532    832.60796  0.020755009  0.020139781            9 
 3344000   0.72211609   -7.3078971    833.09965  0.020761056  0.020133739            7 
 3345000   0.72682444   -7.2828023    831.49885  0.020714969  0.020127685            6 
 3346000   0.72326729   -7.2872385    830.02965  0.020672187  0.020121649           12 
 3347000   0.72389484   -7.2902592    830.96218  0.020689229   0.02011561            9 
 3348000    0.7218001   -7.2785129    830.61945  0.020674518  0.020109578           16 
 3349000   0.72290117   -7.2837909    831.76056  0.020696739  0.020103564           10 
 3350000   0.70112933    -7.309038    831.80828  0.020691748   0.02009752           12 
 3351000   0.71541613   -7.2937252    830.53618  0.020653939  0.020091474           11 
 3352000   0.70769512   -7.2979305    829.17845  0.020614023  0.020085438            9 
 3353000   0.70301124   -7.2873687    830.84728  0.020649351  0.020079383           15 
 3354000    0.6980674   -7.2900819    831.21725  0.020652386  0.020073349            8 
 3355000   0.70914561   -7.2843976    832.05482  0.020667035  0.020067345           12 
 3356000   0.70859641   -7.2903417    831.76508  0.020653682   0.02006133            9 
 3357000   0.72149698   -7.3027569    829.47266  0.020590623  0.020055305            7 
 3358000   0.71491807   -7.2970042    830.21191  0.020602837  0.020049291            7 
 3359000   0.69826031   -7.2828799     831.7095  0.020633857  0.020043263            6 
 3360000   0.73320482   -7.2921072    831.25387  0.020616415  0.020037253           14 
 3361000   0.70505513   -7.2836711    831.39869  0.020613872  0.020031263           16 
 3362000   0.71625802   -7.2927074    830.99562   0.02059775  0.020025269           21 
 3363000   0.70913899   -7.3111446    829.65263  0.020558347  0.020019243           19 
 3364000   0.71635097   -7.3200721    831.08472  0.020587711  0.020013215           30 
 3365000   0.71087489   -7.3201547    828.75852  0.020523985  0.020007173           34 
 3366000   0.71818856   -7.2801894     831.8969  0.020595586  0.020001149            9 
 3367000   0.72635182   -7.2900341    831.33401  0.020575537  0.019995133           12 
 3368000   0.71801309   -7.3107977    830.83358  0.020557046   0.01998912           12 
 3369000   0.70344328   -7.2864782     831.0717  0.020556834  0.019983085           11 
 3370000   0.72482732   -7.2967064    831.73016  0.020567017  0.019977043           20 
 3371000   0.73265214   -7.3135689     830.2038  0.020523183  0.019971029           10 
 3372000   0.70827735   -7.2858039    831.44199  0.020547697  0.019965019            9 
 3373000   0.70738302    -7.272412     830.0187  0.020506441  0.019959007           11 
 3374000   0.70586545    -7.300172    833.23468  0.020579794  0.019953004            6 
 3375000   0.71102803   -7.2926793    834.51833  0.020605391  0.019947007           10 
 3376000   0.70197598   -7.2922104    832.40529  0.020547129  0.019941008            9 
 3377000   0.71306029   -7.3159426      833.962  0.020579459  0.019935013            7 
 3378000   0.71201024   -7.3008641    831.22702  0.020505896  0.019929028           13 
 3379000   0.70185666   -7.2982487    832.39301  0.020528584  0.019923056           21 
 3380000   0.70446244   -7.3012003    831.75824   0.02050686  0.019917069           19 
 3381000   0.70750147   -7.3247129    830.85733  0.020478589  0.019911059           10 
 3382000   0.69625282    -7.287917    831.65025  0.020492072  0.019905053           19 
 3383000   0.70850285   -7.3044259    831.83855  0.020490653  0.019899041           12 
 3384000   0.71624875   -7.3235779     831.5878  0.020478423  0.019893055           26 
 3385000   0.71414607   -7.3117827    830.36687  0.020442316  0.019887056           19 
 3386000   0.71081037   -7.3294291    832.11687  0.020479348  0.019881065           39 
 3387000    0.7226493   -7.3225292    831.39089   0.02045544  0.019875067           13 
 3388000   0.71394459   -7.3110422    835.38601  0.020547669  0.019869103            7 
 3389000   0.71051478   -7.3189178    832.18593  0.020462918  0.019863139           15 
 3390000   0.69410097   -7.2877979    832.55626  0.020465985  0.019857156            7 
 3391000   0.71400961   -7.3103943    833.67593  0.020487465  0.019851196            6 
 3392000   0.70205431   -7.2897735    832.80635  0.020460062  0.019845258           23 
 3393000   0.69609941   -7.2985077    832.79685  0.020453798  0.019839326            7 
 3394000   0.71822457   -7.2803235     834.0834  0.020479361  0.019833413           12 
 3395000   0.71224173   -7.3201267    831.37447  0.020406835  0.019827468           17 
 3396000   0.72056142    -7.293702    831.61794  0.020406801  0.019821518           17 
 3397000   0.70565529   -7.3175357    832.34184  0.020418552  0.019815559           17 
 3398000   0.71860556   -7.3090473    833.81612  0.020448698   0.01980959           23 
 3399000    0.7355139   -7.3154091    833.76516  0.020441433   0.01980365           18 
 3400000   0.70704995   -7.3219139    832.36501  0.020401103  0.019797693           52 
 3401000   0.68784418   -7.3032609    835.28168  0.020466571  0.019791726           19 
 3402000   0.71125163   -7.3016075    830.28475  0.020338153  0.019785771            9 
 3403000   0.69687245   -7.3333842    832.07747  0.020376077  0.019779802           12 
 3404000   0.71714449   -7.3222317    832.81997  0.020388268  0.019773838           26 
 3405000    0.7028088   -7.3171364    833.00369  0.020386777  0.019767867           19 
 3406000    0.7042952     -7.32959    832.32881  0.020364279  0.019761902           24 
 3407000   0.70737689   -7.3338613    833.00853  0.020374927  0.019755941           10 
 3408000   0.71684065   -7.3156137    832.41685  0.020354481  0.019750002           17 
 3409000   0.70875064   -7.2854419    832.65684  0.020354377  0.019744081           19 
 3410000   0.70054443   -7.2988317    832.65143  0.020348276  0.019738144           14 
 3411000   0.69547777   -7.3067298    832.42543  0.020336789   0.01973221           34 
 3412000   0.70027033   -7.3405461    830.58136  0.020285789  0.019726261           23 
 3413000   0.71001491   -7.3435469    831.47804  0.020301739  0.019720314           40 
 3414000    0.7060604   -7.3172345    833.73825  0.020350963  0.019714368           21 
 3415000   0.71384654   -7.3248282    833.16384  0.020330987  0.019708418           34 
 3416000   0.70874732   -7.3433269     832.6164   0.02031168  0.019702482           18 
 3417000   0.70275161   -7.3344149    833.04062  0.020316082  0.019696548           14 
 3418000   0.71186049   -7.2981689    833.80235  0.020328709  0.019690598           23 
 3419000   0.70257324    -7.337055    831.36159  0.020263274  0.019684666           16 
 3420000    0.7080725   -7.3021063    832.49179  0.020284888  0.019678741           15 
 3421000   0.70099746   -7.3150165    832.91932  0.020289373  0.019672828           12 
 3422000   0.68907595   -7.3106099    833.23558  0.020291145  0.019666899           15 
 3423000   0.68798894   -7.3163779    833.48444  0.020291276  0.019660986           15 
 3424000   0.70500972   -7.3267629    833.40715  0.020283468  0.019655052           19 
 3425000   0.69889705   -7.3302678    831.39139  0.020228501  0.019649132            9 
 3426000   0.70231735    -7.299267    833.99674  0.020285968  0.019643211            9 
 3427000   0.70082172   -7.3148272    831.13132  0.020210371  0.019637283           16 
 3428000    0.7176259   -7.3100417    832.77508  0.020244435  0.019631365            7 
 3429000   0.68992158   -7.2956329      832.063  0.020221226  0.019625456           23 
 3430000   0.69536933   -7.3185536    833.84964  0.020258738   0.01961956           13 
 3431000   0.71449371   -7.2959382    831.95448  0.020206803  0.019613658            8 
 3432000   0.70237843   -7.2998821    832.65492  0.020217922  0.019607755            9 
 3433000   0.69238628   -7.3166258    832.73475  0.020213971  0.019601823           14 
 3434000   0.70361842   -7.3501516    833.12276    0.0202175   0.01959591           13 
 3435000   0.70630358   -7.3382812    833.90188  0.020230516  0.019589982           11 
 3436000   0.70279586   -7.3157107    832.85448  0.020199226  0.019584062            6 
 3437000   0.70125681   -7.3312009    832.52535  0.020185369  0.019578137           11 
 3438000   0.69070565   -7.3325665     831.3644  0.020151357  0.019572217           11 
 3439000   0.69627727   -7.3147644     832.7925  0.020180103  0.019566292           11 
 3440000    0.7097405   -7.3257156    832.74928   0.02017319  0.019560361           15 
 3441000   0.68569416   -7.3344092    832.79097  0.020168337  0.019554432            8 
 3442000   0.69937672   -7.3533624    833.74458  0.020185565  0.019548497            6 
 3443000   0.70188874   -7.3463188    832.99662  0.020161599  0.019542572            8 
 3444000   0.70283523   -7.3375317     833.8969  0.020177529  0.019536661            8 
 3445000   0.69248664    -7.336303    830.98442   0.02010122  0.019530733            5 
 3446000   0.69416615   -7.3587178    834.04521  0.020169404  0.019524807            6 
 3447000   0.70604786   -7.3397088    832.68694  0.020130716  0.019518871            8 
 3448000   0.72910626   -7.3505461    833.28489  0.020139329  0.019512934            8 
 3449000   0.70321255   -7.3138277    831.37268  0.020087288  0.019506992           15 
 3450000   0.68729016   -7.3549203    832.16555  0.020100617  0.019501067           11 
 3451000   0.70045531   -7.3321877    832.87472  0.020111917  0.019495176            7 
 3452000    0.6855871   -7.3294119    832.29119  0.020092004  0.019489278            7 
 3453000   0.69784084   -7.3151676    833.42833  0.020113629   0.01948336           12 
 3454000   0.69978778   -7.3457069    832.75882  0.020091653   0.01947744            9 
 3455000   0.69971764   -7.3256141     832.0498  0.020068736  0.019471544            7 
 3456000   0.70044728    -7.331956    832.90073  0.020083447  0.019465636           12 
 3457000   0.69799934   -7.3448462    834.43178  0.020114545  0.019459721            9 
 3458000   0.68661927   -7.3090576    832.68897  0.020066729  0.019453787           15 
 3459000   0.70977454   -7.3370727    832.74729  0.020062332  0.019447881           27 
 3460000   0.70167193   -7.3239215    834.58518  0.020100799  0.019441977           18 
 3461000   0.70737616   -7.3240182    833.86857  0.020077737  0.019436061            9 
 3462000   0.69353225   -7.3175707    833.63977   0.02006643  0.019430158            6 
 3463000   0.70021471    -7.333638    833.02164  0.020045761  0.019424245            7 
 3464000     0.694739   -7.3482281    833.10077  0.020041878  0.019418321            6 
 3465000   0.69384926   -7.3196096    833.18312  0.020038074  0.019412381           16 
 3466000   0.70835265   -7.3565988    832.53576  0.020016728  0.019406468           33 
 3467000   0.70478271   -7.3337296    830.67061  0.019966124  0.019400542           10 
 3468000   0.69449015   -7.3191389    833.87696  0.020037413  0.019394621           21 
 3469000   0.68728635   -7.3198268    830.87749  0.019959582  0.019388694           15 
 3470000   0.70801928   -7.3265974    831.29298  0.019963808  0.019382768            9 
 3471000   0.68667013   -7.3340473    831.54732  0.019964163  0.019376855           20 
 3472000   0.70168431   -7.3328978    831.03301  0.019946069  0.019370941            9 
 3473000   0.69707151   -7.3429303    832.81426  0.019983066  0.019365015            9 
 3474000   0.70618913   -7.3502353    834.18737  0.020010252  0.019359112           13 
 3475000   0.68819156   -7.3297153     831.8554  0.019948571  0.019353196           11 
 3476000   0.69448962   -7.3185007     834.9376  0.020016724  0.019347277           22 
 3477000   0.70594221   -7.3308955    834.53357  0.020001284  0.019341367           16 
 3478000   0.68688542   -7.3587736    833.11957  0.019961653  0.019335452           11 
 3479000   0.70799902   -7.3222141    832.72473  0.019946458  0.019329535           12 
 3480000   0.69750614   -7.3500554    831.88965  0.019920729  0.019323628           21 
 3481000   0.69142556   -7.3455721    832.60883  0.019932223  0.019317718            8 
 3482000   0.69815992    -7.327705    833.75395  0.019953905  0.019311819           13 
 3483000   0.70353393   -7.3713479     831.9667  0.019905414  0.019305898           12 
 3484000    0.6850987   -7.3520431     834.4816  0.019959854  0.019299983           15 
 3485000   0.69113021   -7.3240228    832.38515  0.019903997  0.019294092           10 
 3486000   0.70034229    -7.337906    833.13847  0.019916295  0.019288219           11 
 3487000   0.70636557   -7.3321444      833.089  0.019909402  0.019282348           12 
 3488000   0.69967609   -7.3445827     833.8904   0.01992284  0.019276496           19 
 3489000   0.69021631   -7.3167969    834.38065  0.019928839  0.019270635           11 
 3490000   0.69563053   -7.3221524    834.29671  0.019921125  0.019264783            5 
 3491000   0.68594442    -7.299465    831.85815  0.019857208  0.019258904           18 
 3492000   0.67677905   -7.3607187    833.08283  0.019880747  0.019253015           10 
 3493000   0.70048923   -7.3439131    833.92293  0.019895098   0.01924712           15 
 3494000   0.69073349   -7.3515443    835.60707  0.019929571  0.019241236           13 
 3495000   0.67826326   -7.3471084    830.95207  0.019812877  0.019235349           22 
 3496000   0.70032998    -7.365853    834.07852  0.019881734  0.019229463           26 
 3497000   0.67785739   -7.3244582    832.35102  0.019834883  0.019223567           16 
 3498000    0.6784102   -7.3406549    832.30864  0.019828203  0.019217687           15 
 3499000   0.70152986   -7.3321048    832.31133    0.0198226  0.019211811            9 
 3500000   0.69732469   -7.3436688    832.39879  0.019819019  0.019205937            5 
 3501000   0.69175561   -7.3636748    832.66414  0.019819674  0.019200047           10 
 3502000   0.70001038   -7.3438618    832.60495  0.019812606  0.019194173            8 
 3503000   0.70594856   -7.3355198     832.5838  0.019806447  0.019188295           12 
 3504000   0.69058626    -7.316904    833.22292  0.019815994  0.019182424           10 
 3505000   0.67543581   -7.3302607    833.21401  0.019810129  0.019176551           11 
 3506000   0.70431471   -7.3460113      833.312  0.019806807  0.019170657            8 
 3507000   0.67758869   -7.3411991    833.11642  0.019796512  0.019164776           11 
 3508000   0.68160254   -7.3612471    832.44911  0.019775017  0.019158888            6 
 3509000    0.6928237   -7.3543007    832.46973  0.019769871  0.019152983           10 
 3510000   0.68704849    -7.359295    832.14631   0.01975656  0.019147076            5 
 3511000   0.68970737   -7.3437331    833.28168  0.019777881    0.0191412            8 
 3512000   0.70188422   -7.3595465    834.69315  0.019805741  0.019135321            9 
 3513000   0.67128372   -7.3585311    833.43659  0.019770296  0.019129443            6 
 3514000   0.68381089     -7.37342    834.18687  0.019782462  0.019123549           10 
 3515000   0.68651736    -7.333824     832.9181  0.019746754  0.019117658           15 
 3516000   0.69407933   -7.3452707     831.5009  0.019707549  0.019111769           14 
 3517000   0.68173501   -7.3374472    832.63814  0.019728892  0.019105892            6 
 3518000    0.6971188   -7.3287156    834.62931   0.01977045  0.019100039           14 
 3519000   0.67979464   -7.3566757    833.74707  0.019743939  0.019094184           10 
 3520000   0.68478687   -7.3612473    833.69985  0.019737212  0.019088323            7 
 3521000   0.69044086   -7.3605476    835.65655  0.019777917   0.01908247            9 
 3522000    0.6860688   -7.3579582    833.37872  0.019718406  0.019076614           10 
 3523000   0.68579006   -7.3536387    834.19223  0.019732052  0.019070761            8 
 3524000    0.6912904   -7.3378014    832.81349  0.019693849  0.019064911            7 
 3525000    0.6890117   -7.3534265    832.49339  0.019680695  0.019059057           14 
 3526000   0.68962952   -7.3504414    834.80347  0.019729709  0.019053212           19 
 3527000   0.67694608   -7.3650539    833.29658  0.019688512  0.019047351           11 
 3528000   0.67918237   -7.3690278    833.18934  0.019680398  0.019041491           32 
 3529000    0.6744377   -7.3380835    834.82492  0.019713444   0.01903564           21 
 3530000   0.67588417   -7.3605538    833.82234  0.019684191  0.019029788            9 
 3531000   0.69102916   -7.3492912    833.56277  0.019672491  0.019023934           17 
 3532000   0.69042085   -7.3553067    831.21412  0.019611507  0.019018069           10 
 3533000   0.68487473     -7.35768    831.97769  0.019623967    0.0190122           12 
 3534000   0.68755195   -7.3526095     834.7223  0.019683133  0.019006368            9 
 3535000   0.69471291   -7.3662274    833.90803  0.019658369  0.019000522           19 
 3536000   0.67643055   -7.3733487    833.56061  0.019644622  0.018994675           13 
 3537000   0.67811049   -7.3724855    835.25232  0.019678926  0.018988823           22 
 3538000   0.69381295   -7.3421409    832.70043  0.019613257   0.01898298           17 
 3539000   0.69355454   -7.3840315     832.9167  0.019612807  0.018977137           13 
 3540000   0.68766027    -7.367974    832.70413  0.019602263  0.018971292           13 
 3541000    0.6733721   -7.3610933    832.52854  0.019592595  0.018965455           12 
 3542000   0.69763329   -7.3622131    832.46539  0.019585578  0.018959612           12 
 3543000   0.67598244    -7.344933    832.91856  0.019590708  0.018953776           22 
 3544000   0.68783754   -7.3586446    832.42184  0.019573501  0.018947962           18 
 3545000   0.68272466   -7.3753684    832.75549  0.019575823  0.018942137           16 
 3546000    0.6778151   -7.3595729    833.05928  0.019577441  0.018936312           17 
 3547000   0.68617314   -7.3758084    833.08933  0.019572628  0.018930485           16 
 3548000   0.67946617   -7.3690301    834.05382  0.019589765  0.018924653           20 
 3549000   0.67615817   -7.3674158    836.24433   0.01963568  0.018918831           12 
 3550000   0.69216481   -7.3822331    833.73399   0.01957122  0.018913012           15 
 3551000   0.68745466   -7.3893243    834.49311  0.019583524  0.018907211           39 
 3552000   0.69171923   -7.3696673    834.81048  0.019585456  0.018901375           19 
 3553000   0.68385828   -7.3806763    834.08613  0.019562955  0.018895569           12 
 3554000   0.67779013   -7.3658945    834.62092   0.01956999  0.018889767           15 
 3555000   0.69048694    -7.366575    833.85583   0.01954655  0.018883952           19 
 3556000   0.68136247   -7.3654452    833.28324  0.019527635  0.018878137           15 
 3557000   0.68568043   -7.3935729      833.141  0.019518813  0.018872289           25 
 3558000   0.67164632   -7.3925109    833.19695  0.019514637  0.018866453           14 
 3559000    0.6943636     -7.39177     834.4719  0.019539007  0.018860622           12 
 3560000   0.67702807   -7.3552121    831.56859  0.019465557  0.018854798            7 
 3561000   0.68225504    -7.384353    834.60726    0.0195312  0.018848983           13 
 3562000    0.6731524   -7.3662501    833.90887  0.019509378  0.018843168           29 
 3563000    0.6851705   -7.3548685     832.7489  0.019476773  0.018837351           27 
 3564000   0.67488889    -7.388614    832.18666  0.019458162  0.018831543           14 
 3565000   0.67513822   -7.3615914    834.13457  0.019498237  0.018825717           25 
 3566000   0.68691117   -7.3870712    835.10328  0.019515407  0.018819899           13 
 3567000   0.68023002    -7.389478    833.52094  0.019472968  0.018814094           17 
 3568000    0.6846179   -7.4007888    832.75104  0.019449529  0.018808275           26 
 3569000    0.6826842   -7.3865503    833.75907  0.019467616  0.018802454           38 
 3570000   0.67508827   -7.4124386    834.22935  0.019473141  0.018796618           21 
 3571000   0.68251105   -7.3808245    833.50433  0.019450769  0.018790787           25 
 3572000   0.68204019   -7.3893166    833.83773  0.019453101  0.018784973           21 
 3573000    0.6763123   -7.4148073    831.27099  0.019387793   0.01877916           19 
 3574000   0.68101055   -7.3794442    833.36326  0.019431152  0.018773355           20 
 3575000   0.67604284   -7.4218117    833.55088   0.01943009  0.018767561           23 
 3576000   0.67465735    -7.383975    833.22004  0.019416947  0.018761771           16 
 3577000   0.67413887   -7.3827016    835.08043  0.019454861  0.018755998           20 
 3578000    0.6690152   -7.3991649    835.76754  0.019465426  0.018750214           13 
 3579000    0.6866356   -7.3735078    835.63809  0.019456973   0.01874443            9 
 3580000    0.6807041   -7.3732345    833.85489   0.01941003  0.018738653           10 
 3581000   0.66197116   -7.3808929    834.18549  0.019412303   0.01873288           12 
 3582000   0.67654908   -7.3752867    832.87702  0.019376443  0.018727097           15 
 3583000    0.6879634   -7.3962541    833.92933  0.019395509  0.018721308           21 
 3584000   0.66929772   -7.3492398      834.129  0.019394741  0.018715534            7 
 3585000    0.6774591   -7.3796928     832.3891  0.019348887  0.018709766            9 
 3586000   0.68321295   -7.3803188    834.73776   0.01939807  0.018703991           19 
 3587000   0.67446377    -7.380688    833.53114   0.01936463  0.018698205           21 
 3588000   0.67590842   -7.3751091    833.28908  0.019353611  0.018692423           20 
 3589000   0.69859307   -7.3884107    835.02266  0.019388471   0.01868666           23 
 3590000   0.67665748   -7.3819736     833.2304  0.019341467  0.018680889           12 
 3591000   0.67285171   -7.4237125    834.21772  0.019358993  0.018675123            9 
 3592000   0.67521706   -7.3880804    834.36056  0.019356917   0.01866935           30 
 3593000    0.6833597   -7.3967142    834.53073  0.019355477  0.018663571           28 
 3594000   0.67756445   -7.3791512    833.90811  0.019335655  0.018657821           14 
 3595000   0.68270731   -7.3842897    833.47927  0.019320335  0.018652044           12 
 3596000   0.66994065   -7.3771738    833.76237  0.019321523  0.018646277           14 
 3597000   0.67415188   -7.4175344    834.84132  0.019341148  0.018640508           13 
 3598000   0.66973527   -7.3968974    833.15531  0.019296723  0.018634753           24 
 3599000   0.67335761   -7.3826546     833.5369  0.019300197  0.018629001            9 
 3600000   0.67954299   -7.3898838    834.64389   0.01932046  0.018623285           47 
 3601000   0.68243271    -7.382323    837.18167  0.019373824  0.018617562           18 
 3602000   0.66831084   -7.3959536    835.00166   0.01931801  0.018611824            9 
 3603000    0.6711364   -7.3658862    836.40922  0.019345203  0.018606092           16 
 3604000   0.67709511   -7.3817065    833.75775  0.019278527  0.018600367           14 
 3605000   0.68608265   -7.3789353    835.23668  0.019307367  0.018594629           10 
 3606000   0.67533754   -7.3893262    836.42742   0.01932953  0.018588891           25 
 3607000   0.67894779   -7.3743538    834.63868  0.019282845  0.018583171           11 
 3608000   0.67621715   -7.3741068    835.75872   0.01930337  0.018577461            7 
 3609000   0.66039243   -7.3799599    834.39916  0.019266629   0.01857175           18 
 3610000   0.67389971   -7.3814924    835.22811  0.019280427  0.018566033            8 
 3611000   0.66020961   -7.3917818    834.24364  0.019252369  0.018560308           10 
 3612000   0.67439538   -7.4006417    834.32603  0.019248939  0.018554598           14 
 3613000   0.68241719   -7.4035696    834.61354  0.019250243  0.018548883           11 
 3614000   0.68329528    -7.381474    836.08204  0.019278778   0.01854316           17 
 3615000   0.67248563   -7.3748269    835.25911  0.019254475  0.018537446           12 
 3616000   0.67777218   -7.4039753    832.83289  0.019193236  0.018531722           13 
 3617000   0.67817839   -7.4064209    834.46262  0.019225477  0.018525994           12 
 3618000   0.67059355    -7.408843    836.17987  0.019259717  0.018520279           14 
 3619000   0.67190123   -7.4101788    833.97552  0.019203636  0.018514553           15 
 3620000   0.66728099   -7.4093925    835.06987  0.019223524  0.018508824           20 
 3621000    0.6625219   -7.4207191    834.39136    0.0192026  0.018503106           12 
 3622000   0.65773928   -7.4185516    833.37509  0.019173916  0.018497388           22 
 3623000   0.66753484   -7.3969466    834.34404  0.019190911  0.018491659           16 
 3624000   0.67849447   -7.3658544    836.28643   0.01923028  0.018485951           16 
 3625000   0.67388512   -7.3834665    834.00197  0.019172459   0.01848025           11 
 3626000   0.65759247   -7.4176429    834.90595  0.019187947  0.018474556           21 
 3627000   0.67828219   -7.4184021    835.84264  0.019204178  0.018468861           15 
 3628000   0.66780348   -7.3998903    836.68634  0.019218264  0.018463159           15 
 3629000    0.6974007   -7.4096709    835.41372  0.019183745  0.018457478           22 
 3630000   0.68858827   -7.3902827    835.56517  0.019181937  0.018451804           28 
 3631000   0.67104883   -7.3832175    837.05488  0.019210844  0.018446132           14 
 3632000   0.66080038   -7.4068933    835.58953  0.019171933  0.018440447           23 
 3633000   0.66832009   -7.3902747    837.30168  0.019205929  0.018434764           31 
 3634000   0.66439472   -7.3986461    836.90774   0.01919161  0.018429085           22 
 3635000   0.66364316   -7.3960342    836.67562  0.019181009  0.018423416           16 
 3636000    0.6700834   -7.4175243    834.04245  0.019115384   0.01841774           21 
 3637000   0.67403897   -7.4011335    836.90884  0.019175805  0.018412054           46 
 3638000   0.67741849   -7.4121373     835.7726  0.019144507  0.018406378           35 
 3639000   0.66330773   -7.3989547      836.151  0.019147911    0.0184007           30 
 3640000   0.66359821   -7.4100541    834.68966  0.019109196  0.018395022           31 
 3641000   0.67027169   -7.3952962    835.39289  0.019120042  0.018389335           36 
 3642000   0.66677305   -7.3774803    834.53777  0.019095226  0.018383654           56 
 3643000   0.68683651   -7.4169366     835.7128  0.019116863   0.01837797           27 
 3644000   0.66307312    -7.425992    835.17141  0.019099236  0.018372278           31 
 3645000   0.66765755   -7.4406106    834.60421  0.019081029  0.018366572           51 
 3646000   0.66657469   -7.4276069     835.6438  0.019099557  0.018360885           38 
 3647000   0.67810972   -7.4247884     834.2446  0.019062348   0.01835519           39 
 3648000   0.68261071   -7.4055433    834.34825   0.01905949  0.018349499           22 
 3649000    0.6664984   -7.4103592    835.71965  0.019085586  0.018343815           30 
 3650000   0.67865012   -7.4062856    836.18984  0.019091092  0.018338137           32 
 3651000   0.66450766   -7.4025672    836.17209  0.019085458  0.018332471           47 
 3652000    0.6712795   -7.4096897    834.38699  0.019039499  0.018326795           49 
 3653000   0.66981347   -7.4135067    834.86967  0.019045298  0.018321105           36 
 3654000   0.69279556   -7.4085873    836.31884  0.019073135  0.018315418           51 
 3655000   0.66763657   -7.4135497    836.04478  0.019061668  0.018309745           48 
 3656000   0.66568124   -7.3937341    834.56672  0.019022764  0.018304075           38 
 3657000   0.65398052   -7.4030294    834.26243  0.019010629  0.018298393           38 
 3658000   0.65654582   -7.4249811    835.22762   0.01902742  0.018292715           57 
 3659000   0.68113297   -7.4130897    835.72473  0.019033541  0.018287046           58 
 3660000   0.65654251   -7.4198864    835.25312  0.019017603  0.018281383           61 
 3661000   0.66318665   -7.3970919    835.09272  0.019008757  0.018275714           47 
 3662000   0.65518709   -7.4174304    835.41856  0.019010981  0.018270063           55 
 3663000   0.67637947   -7.4219775    836.29951  0.019025833  0.018264409           60 
 3664000   0.65986927   -7.4133488    837.40853  0.019045863  0.018258773           38 
 3665000   0.65476835   -7.4430502    835.68893  0.019001567  0.018253137           44 
 3666000   0.66316613   -7.4322933    834.87211  0.018977817  0.018247494           66 
 3667000   0.67637876     -7.40126    835.06639  0.018977056  0.018241863           52 
 3668000   0.67288623   -7.4205785    835.43587  0.018980277  0.018236221           61 
 3669000   0.66228139   -7.3901348    836.48068  0.018998834    0.0182306           85 
 3670000   0.65149494    -7.411521    836.31992  0.018990007  0.018224984           80 
 3671000    0.6437433   -7.4390576    834.24785  0.018937797  0.018219354           61 
 3672000   0.66093039   -7.4101412    836.03771   0.01897326  0.018213736           53 
 3673000     0.667318    -7.417335    835.43597  0.018954442  0.018208114           61 
 3674000   0.65701513   -7.4172756    836.10006  0.018964345  0.018202487           68 
 3675000   0.66568353   -7.4170464    834.80088  0.018929725  0.018196861           49 
 3676000    0.6716476   -7.4236854    835.63496  0.018943484  0.018191249           42 
 3677000    0.6617877   -7.4164515    835.41981  0.018933456  0.018185637           50 
 3678000   0.66451973   -7.4087586    837.89338  0.018984352   0.01818004           47 
 3679000   0.65156857   -7.4038454    836.30544  0.018943224  0.018174445           18 
 3680000   0.65226211   -7.4158277    836.97201  0.018953171  0.018168833           40 
 3681000   0.67430038   -7.4140434    834.91688  0.018901496  0.018163234           32 
 3682000   0.65916133   -7.4230455    835.05466  0.018899481  0.018157621           31 
 3683000    0.6638558   -7.4038762    835.83335  0.018911968  0.018152018           66 
 3684000   0.65493702    -7.403476    836.98006  0.018932774  0.018146424           42 
 3685000   0.68046524   -7.4088989    836.35782  0.018913564   0.01814083           45 
 3686000   0.67062784   -7.4304517    835.85228  0.018897004  0.018135236           29 
 3687000   0.67724876   -7.4059929    835.04937  0.018873731   0.01812964           31 
 3688000   0.65648418   -7.4307346    835.63875  0.018881931  0.018124049           38 
 3689000   0.66774995   -7.4304469     836.6974  0.018900727  0.018118451           25 
 3690000   0.66116615   -7.4267455    837.26488  0.018908421  0.018112852           15 
 3691000   0.66094101   -7.4316909    835.72443  0.018868519  0.018107257           17 
 3692000   0.66074392   -7.4618788     836.3804  0.018878214  0.018101654           23 
 3693000   0.65701733   -7.4078968    835.57155   0.01885485  0.018096054           30 
 3694000    0.6546247   -7.4199921      836.858  0.018878767  0.018090466           30 
 3695000   0.66120435   -7.4100452    836.07043  0.018855896  0.018084878           35 
 3696000   0.65670349   -7.4227847    835.02714  0.018827271  0.018079286           41 
 3697000   0.67158976   -7.4133431    836.02445  0.018844659  0.018073678           34 
 3698000   0.65605601   -7.4033552    837.29372  0.018868166  0.018068083           38 
 3699000   0.66481661   -7.4267046    834.55522   0.01880137   0.01806248           27 
 3700000   0.65083032   -7.4314157    835.93044  0.018827262  0.018056881           18 
 3701000   0.64506543   -7.4023788    835.89679  0.018821417  0.018051284           10 
 3702000   0.66125795   -7.4118143    837.10122  0.018843445  0.018045688           20 
 3703000   0.65761636   -7.4125203     835.9487   0.01881242  0.018040111           19 
 3704000   0.65816429   -7.4109776    835.34192   0.01879369  0.018034532           19 
 3705000   0.66404243   -7.4077998    836.82676  0.018822014  0.018028943           20 
 3706000   0.66251412   -7.4087743    835.20649  0.018780502  0.018023367           20 
 3707000   0.64376413   -7.4311979    834.68078  0.018763618  0.018017782           22 
 3708000   0.64179007    -7.417793    837.29914  0.018817402  0.018012201           15 
 3709000   0.65122617   -7.4157959    836.28451  0.018789532   0.01800662           20 
 3710000   0.66232341   -7.4221931    835.94361  0.018776811  0.018001036           19 
 3711000   0.65662564   -7.4206255    835.41975  0.018759987  0.017995474           30 
 3712000   0.65524236   -7.4088646    836.47078  0.018778529  0.017989905           11 
 3713000   0.66191622   -7.4190971    835.02117  0.018740937   0.01798434           15 
 3714000   0.64716867   -7.4165618    835.79194  0.018753185   0.01797877           17 
 3715000   0.65092675   -7.4263715    837.10027  0.018777485  0.017973196           11 
 3716000   0.65700001   -7.4013931    836.07455  0.018749429  0.017967626            9 
 3717000   0.65894694   -7.4419071    836.77853  0.018760168  0.017962059            9 
 3718000   0.64817122   -7.4099753    837.29265  0.018766645  0.017956503           16 
 3719000   0.65074196   -7.4349005    837.88333  0.018774835  0.017950942           11 
 3720000   0.66044196    -7.425347    836.17664  0.018731556  0.017945383           12 
 3721000   0.65817021   -7.4205195     835.4452  0.018710141  0.017939824           11 
 3722000    0.6420096   -7.4315573    836.77866  0.018734969  0.017934261           13 
 3723000   0.65380392   -7.4077095    836.00887  0.018712706  0.017928699           10 
 3724000   0.65454731   -7.4061482    835.53015  0.018696969  0.017923136            7 
 3725000   0.64965338   -7.4159668    836.95162   0.01872375  0.017917559           12 
 3726000   0.65914405   -7.4036783    836.27837  0.018703667  0.017912007            9 
 3727000   0.66210396   -7.4237432    836.87222  0.018711927  0.017906448           11 
 3728000   0.66282519   -7.4025737    835.76459  0.018682148  0.017900898           18 
 3729000   0.66388539   -7.4232142    836.57864   0.01869533  0.017895338            9 
 3730000   0.64570998   -7.4000133    836.44992  0.018687442  0.017889767            9 
 3731000   0.66705496   -7.4249373    835.80012   0.01866792  0.017884193           12 
 3732000   0.65413144   -7.4081878    836.57653  0.018680255  0.017878631           23 
 3733000   0.65173482   -7.4210241    835.88669  0.018659851  0.017873074           22 
 3734000   0.65207736   -7.4127796    836.16682  0.018661106  0.017867516           21 
 3735000   0.65490792   -7.4398394    835.88272  0.018649771  0.017861959           22 
 3736000   0.65055822   -7.4278378    835.64121  0.018639392  0.017856401           17 
 3737000   0.65659937   -7.4147976    834.96793   0.01861939   0.01785084            8 
 3738000   0.65369992   -7.4317514    835.37451  0.018623473   0.01784529           11 
 3739000   0.65027479   -7.4217763    835.80571  0.018628103  0.017839738           18 
 3740000   0.66408074   -7.4103285    836.17317   0.01863131  0.017834195           11 
 3741000   0.66053434   -7.4120304    835.03886  0.018601062  0.017828647           18 
 3742000   0.65341848    -7.389799    836.56856  0.018630157  0.017823101           20 
 3743000    0.6533123    -7.439963     836.0801  0.018614305  0.017817564            9 
 3744000   0.63477033   -7.4395944    836.44633  0.018617484  0.017812016           13 
 3745000   0.66142386   -7.4217379    834.55781   0.01857049  0.017806464           11 
 3746000   0.65272692   -7.4388701    833.97769  0.018552627  0.017800915           15 
 3747000    0.6656299   -7.4577754    835.07499   0.01857208  0.017795362           13 
 3748000   0.64151063   -7.4444501    835.25572  0.018571143  0.017789816            9 
 3749000   0.64847173   -7.4314438    835.50345  0.018571696  0.017784256           18 
 3750000   0.65783628   -7.4480518    835.20516  0.018560115  0.017778704           12 
 3751000   0.64834422   -7.4418395    835.16537  0.018554283  0.017773149           22 
 3752000   0.65751995   -7.4328024    836.12584   0.01857067  0.017767596           14 
 3753000   0.64018808   -7.4392527    835.18176  0.018544759  0.017762041           12 
 3754000   0.65572345   -7.4150736    836.29944   0.01856463  0.017756482           20 
 3755000   0.63678519   -7.4249459    835.99545  0.018552939  0.017750928           10 
 3756000   0.64676198   -7.4078521    835.32114  0.018533039  0.017745391           22 
 3757000   0.64480758   -7.4379082    833.90007  0.018496586  0.017739835           10 
 3758000   0.64751919   -7.4572977    833.97079  0.018493232  0.017734278           11 
 3759000   0.64646394   -7.4433636    835.81595  0.018529218  0.017728727           15 
 3760000     0.640153   -7.4380053     836.0913  0.018530392  0.017723182            8 
 3761000   0.64400651   -7.4316093    836.14088  0.018526564  0.017717635           13 
 3762000   0.64696376   -7.4404225    836.26054   0.01852429  0.017712098           21 
 3763000   0.64369409   -7.4249386    836.22326  0.018518542  0.017706561           10 
 3764000   0.65567651   -7.4328452    836.25514  0.018514327  0.017701035           14 
 3765000   0.64750155   -7.4240568    835.41947  0.018490913  0.017695521           29 
 3766000    0.6460583    -7.414832    835.92622  0.018497217  0.017690003           21 
 3767000   0.65157109   -7.4293489    836.07068  0.018495502  0.017684483            9 
 3768000   0.64463261   -7.4110141    836.28455  0.018495324  0.017678973           16 
 3769000   0.65476547   -7.4220729     836.6473  0.018498437  0.017673467           19 
 3770000   0.64569403   -7.4288389    835.69215  0.018472417  0.017667956           22 
 3771000   0.63730565   -7.4361038    836.03659   0.01847513  0.017662439           17 
 3772000   0.64234932   -7.4495929    835.81085  0.018465245  0.017656915           11 
 3773000    0.6427631   -7.4386455    836.62576   0.01847835  0.017651383           17 
 3774000   0.65043575   -7.4228835    836.38205  0.018468072  0.017645866           17 
 3775000   0.65366555   -7.4373804    836.56387  0.018467194  0.017640354           14 
 3776000   0.66052767    -7.434393    834.29073  0.018412137  0.017634826           11 
 3777000   0.65514812   -7.4448573    834.23798  0.018406098  0.017629293           25 
 3778000   0.64474441   -7.4355744    833.12549  0.018376687  0.017623768           18 
 3779000   0.65391333   -7.4541929    835.87216  0.018432393  0.017618251           13 
 3780000   0.63784895    -7.464239    835.22453  0.018413239  0.017612733           15 
 3781000   0.63759939   -7.4623871     835.9476  0.018424306  0.017607218           27 
 3782000   0.64118115   -7.4187723    835.51264   0.01840985  0.017601714           19 
 3783000   0.66178089   -7.4262452    835.34783  0.018401353   0.01759622           10 
 3784000   0.64749583   -7.4495923    835.72038  0.018404695  0.017590713           19 
 3785000   0.64957045   -7.4685422    835.52667  0.018395567  0.017585192           12 
 3786000   0.64580859   -7.4366162    835.40411  0.018388011  0.017579676           19 
 3787000   0.63733144   -7.4559541    835.12608  0.018377037  0.017574146           17 
 3788000   0.64903955   -7.4675736    835.43843  0.018379057  0.017568611           21 
 3789000   0.64493214   -7.4583119    834.50024  0.018353573  0.017563076           14 
 3790000   0.64503379   -7.4784815    836.06462  0.018383127  0.017557557           18 
 3791000   0.65943052   -7.4577459    835.85987  0.018373777  0.017552022           12 
 3792000    0.6586493   -7.4860501     833.6909  0.018321266  0.017546484           22 
 3793000   0.65119291   -7.4319366    835.60618  0.018358515  0.017540957           10 
 3794000   0.63720152   -7.4868362     833.9115  0.018316454  0.017535432           13 
 3795000   0.64576645   -7.4465313    835.94377  0.018356253   0.01752993           12 
 3796000   0.63359372   -7.4489534    835.91515  0.018350789  0.017524433           12 
 3797000   0.63525939   -7.4556311    833.99736  0.018303866  0.017518938           13 
 3798000   0.64723135   -7.4344463    834.78494  0.018316327   0.01751345            9 
 3799000   0.63831201   -7.4463096    833.42697  0.018281718  0.017507952           21 
 3800000   0.63151378   -7.4419464    833.65397  0.018281885  0.017502452           29 
 3801000    0.6493685   -7.4576585    834.16371  0.018288251  0.017496944           22 
 3802000   0.64386235   -7.4565104    835.74619  0.018318126  0.017491449           27 
 3803000   0.62474223   -7.4609296    834.62589  0.018288761  0.017485961           18 
 3804000   0.64476811   -7.4577211    836.16255  0.018317616  0.017480467           20 
 3805000   0.65454315   -7.4596989    835.73874   0.01830352   0.01747498           23 
 3806000   0.64473815   -7.4551099    834.95734  0.018281602  0.017469502           42 
 3807000   0.63859149   -7.4720142    835.18393   0.01828176  0.017464021           22 
 3808000   0.63869311   -7.4501473     835.9588  0.018293916  0.017458551           24 
 3809000   0.64740181   -7.4492362    834.80781  0.018263932   0.01745308           12 
 3810000   0.64892569   -7.4665815    836.47727  0.018295653  0.017447602           22 
 3811000   0.65261849   -7.4839247    835.51925  0.018269904  0.017442125           15 
 3812000   0.65323298   -7.4389733    835.34355   0.01826127  0.017436651           15 
 3813000   0.63692257   -7.4828716    832.56233  0.018195697  0.017431167           26 
 3814000   0.65337648   -7.4558543    836.15518  0.018269428  0.017425692           24 
 3815000    0.6349757   -7.4784996    833.53367  0.018207376   0.01742021           36 
 3816000   0.66140352     -7.47209    835.24152    0.0182399  0.017414733           24 
 3817000   0.63583538   -7.4515106    833.55336  0.018198266  0.017409254           13 
 3818000   0.64120202   -7.4631397    835.61567  0.018238512  0.017403774           21 
 3819000   0.63983914    -7.471697    835.53791   0.01823204  0.017398305           11 
 3820000   0.63312751   -7.4416209    834.91653  0.018213711   0.01739283           51 
 3821000   0.65625825   -7.4896023    833.89119  0.018186583  0.017387354           22 
 3822000   0.64421428   -7.4624759    834.28374  0.018190383  0.017381888           11 
 3823000   0.63897235   -7.4904375      835.162  0.018204769  0.017376419           16 
 3824000   0.63316952    -7.469697    834.69327  0.018189794  0.017370948           22 
 3825000    0.6364065   -7.4810385    833.83859  0.018166418  0.017365461           35 
 3826000   0.64372344    -7.484145    834.14034  0.018168242  0.017359989           18 
 3827000   0.64499612   -7.4550472    835.59093  0.018195082  0.017354523           29 
 3828000   0.64785345   -7.4533511    835.43917  0.018187025  0.017349077           25 
 3829000   0.63439255   -7.4579229    836.28693  0.018200725  0.017343625           22 
 3830000   0.63890232   -7.4493271    836.04538  0.018190718  0.017338184           21 
 3831000   0.63599339   -7.4508218    833.77825  0.018136654  0.017332742           22 
 3832000   0.63595505   -7.4657913    833.95255  0.018135711  0.017327289           26 
 3833000    0.6493409   -7.4634962    835.03056  0.018154417  0.017321847           21 
 3834000   0.65750501   -7.4556059    835.68734  0.018163957  0.017316401           11 
 3835000   0.64215474   -7.4448084    834.47955  0.018132976  0.017310981           21 
 3836000   0.63627497   -7.4559429    834.90998  0.018137599  0.017305555           36 
 3837000   0.62908922   -7.4570734    836.16593   0.01816015  0.017300134           26 
 3838000   0.63376436   -7.4795661    836.14154  0.018154888  0.017294716           23 
 3839000   0.63405099   -7.4530805    834.66641  0.018118139  0.017289288           17 
 3840000   0.63049045   -7.4459967    834.72247  0.018114637  0.017283869           21 
 3841000   0.62572776   -7.4537983    835.59468  0.018128844  0.017278439           13 
 3842000   0.61800198   -7.4630344     836.0374  0.018133728  0.017273008           27 
 3843000   0.63092168   -7.4372376      834.469     0.018095  0.017267574           26 
 3844000   0.61995183   -7.4550385    835.12385  0.018104489  0.017262143            9 
 3845000   0.65398019   -7.4515615     835.3658  0.018105024  0.017256721           16 
 3846000   0.62868605   -7.4233639    836.13811   0.01811705  0.017251308           11 
 3847000   0.62752498   -7.4441787    834.04399  0.018066978  0.017245886           24 
 3848000   0.63303613   -7.4761341    836.77995  0.018121534  0.017240465           24 
 3849000   0.64324125   -7.4694315    834.28366  0.018062779  0.017235061           19 
 3850000   0.63684244   -7.4764506    833.89875  0.018049756  0.017229639           30 
 3851000   0.63308707   -7.4721258    833.96182  0.018046434  0.017224212           25 
 3852000   0.62405621   -7.4593659    834.24287  0.018047829  0.017218781           37 
 3853000   0.64540264   -7.4811669     835.4838  0.018069984   0.01721335           23 
 3854000   0.62795021   -7.4798105    836.41948  0.018085528   0.01720793           41 
 3855000   0.62006123   -7.4785812    834.97644  0.018049642  0.017202512           27 
 3856000   0.62833475   -7.4755146    837.33792  0.018095996  0.017197097           19 
 3857000   0.63267152    -7.486805     835.1039  0.018043036  0.017191683           25 
 3858000   0.63526652   -7.4776678    835.21427  0.018040744  0.017186275           18 
 3859000   0.64135886   -7.4772462    835.30825  0.018038098  0.017180871           33 
 3860000   0.62327967   -7.4634152    834.13718  0.018008143  0.017175459           12 
 3861000    0.6290397    -7.458978    835.76871  0.018038693  0.017170047           15 
 3862000   0.64329152   -7.5040547    835.96194  0.018038191  0.017164637           18 
 3863000   0.62652541   -7.4702323    835.11057  0.018015156  0.017159228           31 
 3864000   0.64488635   -7.4815794    835.69235  0.018023041  0.017153823           38 
 3865000   0.62833932   -7.4837257    835.96816  0.018024324   0.01714842           20 
 3866000    0.6363658   -7.4777758    835.08078  0.018000534  0.017142996           14 
 3867000   0.63454541     -7.46824    834.64039  0.017986389  0.017137594           16 
 3868000    0.6268702   -7.4923044    832.94291  0.017945168  0.017132179           16 
 3869000   0.63151445   -7.4930605    833.16633  0.017945342   0.01712677           18 
 3870000   0.61546308   -7.4764686    834.66898  0.017973061  0.017121359           40 
 3871000   0.62860625   -7.5020423    835.64791  0.017989493  0.017115962           11 
 3872000   0.63717872    -7.492672    834.50963  0.017960348  0.017110564           14 
 3873000   0.62537902   -7.4880118    834.94587  0.017965098  0.017105179           21 
 3874000   0.62989694   -7.4856491    834.08519  0.017941946  0.017099786           18 
 3875000   0.64524024   -7.4984873    836.62233  0.017991878  0.017094403           11 
 3876000   0.62801689   -7.4973877    834.41356  0.017939748  0.017089016           19 
 3877000    0.6437963   -7.5066946    835.87741  0.017966585  0.017083619           13 
 3878000   0.63168055   -7.4824566    835.11277  0.017945521  0.017078227           32 
 3879000   0.63677299   -7.4906289    836.65142   0.01797395  0.017072851           16 
 3880000   0.62841796   -7.4810612    835.69513  0.017948779  0.017067469           17 
 3881000   0.62770168   -7.4900242    836.49119  0.017961247    0.0170621           15 
 3882000   0.64304848   -7.4857265    834.92705  0.017923043  0.017056712           21 
 3883000   0.62804643   -7.4864633    834.44319  0.017908043  0.017051331           12 
 3884000   0.63326462   -7.5092935    834.77673  0.017910589  0.017045945           25 
 3885000   0.62528552   -7.4998522    834.89714  0.017908561  0.017040568           11 
 3886000   0.62796304   -7.5010557    834.46076  0.017894595  0.017035184           11 
 3887000   0.64585953   -7.4729422    836.13928  0.017925977  0.017029807           17 
 3888000   0.63773269   -7.4957922    835.38824  0.017905269  0.017024435           29 
 3889000   0.62060753   -7.4870175    834.21422  0.017875508  0.017019054           13 
 3890000   0.63042731   -7.5084283    836.41015  0.017917955  0.017013673           27 
 3891000   0.62742227   -7.4906737    834.80695  0.017879015  0.017008304           13 
 3892000   0.63798393   -7.4953311    834.15107  0.017860377  0.017002943           15 
 3893000   0.62131648   -7.4955065    836.10404  0.017897595  0.016997588           12 
 3894000   0.62587659   -7.4850992    834.78093  0.017864683  0.016992223           13 
 3895000   0.63105251    -7.496284    834.70358  0.017858442  0.016986863           22 
 3896000   0.63249486   -7.5055622     836.0328  0.017882289  0.016981506           17 
 3897000   0.64266927   -7.5115875    835.33483  0.017862776  0.016976143           18 
 3898000   0.63727867   -7.5062799    835.44332  0.017860512  0.016970781           14 
 3899000   0.61570412   -7.5054564    833.76697  0.017820103  0.016965419           21 
 3900000   0.61188589   -7.5100045     833.7234  0.017814603   0.01696006           32 
 3901000   0.62351695   -7.5049265      836.533  0.017870055  0.016954714           15 
 3902000   0.62448474   -7.5007715    835.86716  0.017851255  0.016949378           12 
 3903000   0.61829566   -7.5050121    835.74891  0.017844156  0.016944034           21 
 3904000   0.62634649   -7.4647741    836.50767  0.017855782    0.0169387            9 
 3905000   0.62182957   -7.4775206    835.64672  0.017832836  0.016933373           18 
 3906000    0.6223903   -7.5038811    833.86983  0.017790362   0.01692804           13 
 3907000   0.63633084   -7.4798949     834.7158  0.017803852  0.016922704            8 
 3908000   0.62940123   -7.4966827    834.77593  0.017800579  0.016917372            6 
 3909000   0.61930815   -7.4922922    835.05692  0.017802015  0.016912037           10 
 3910000   0.61707158    -7.514441     834.2894  0.017781104  0.016906697           17 
 3911000   0.63280983   -7.4859937    835.01899  0.017792103  0.016901355           20 
 3912000   0.61606556   -7.4872173    834.94171  0.017785909  0.016896029           11 
 3913000   0.63263822    -7.498504    835.35013  0.017790062  0.016890702           26 
 3914000   0.62723611   -7.4871818    834.31821  0.017763546  0.016885371           22 
 3915000   0.63288171   -7.4976212    835.53358  0.017784878  0.016880046           10 
 3916000   0.61935746   -7.5013844    835.06305  0.017770324  0.016874704           18 
 3917000   0.62208298   -7.4884795    835.11606  0.017766915  0.016869364           18 
 3918000   0.62137627   -7.4961457    835.02094  0.017760357  0.016864032           11 
 3919000   0.62541607   -7.5085253    835.32806  0.017762356  0.016858696           22 
 3920000   0.63186468   -7.5072923    834.58306  0.017741987  0.016853371           24 
 3921000   0.61235669   -7.4993548    833.70074   0.01771871  0.016848044           19 
 3922000   0.61630097   -7.5178768     833.3035  0.017705752  0.016842723           15 
 3923000   0.61847899   -7.4954623    835.88709   0.01775612   0.01683741           24 
 3924000   0.61082072   -7.4876755    835.76528  0.017749008    0.0168321           22 
 3925000   0.63032671   -7.5190219    835.67387  0.017742545  0.016826779           21 
 3926000   0.63486179   -7.5091728     835.3737  0.017731654  0.016821448           15 
 3927000   0.63298025    -7.472718    835.34653  0.017726562   0.01681613           21 
 3928000   0.62710917   -7.5113352     833.5157  0.017683208  0.016810814           26 
 3929000   0.62524513   -7.5205159    834.69328  0.017703684  0.016805503           23 
 3930000   0.64205308   -7.4998548    834.71436  0.017699626  0.016800193           17 
 3931000   0.62386878   -7.5135885    835.87902  0.017719813  0.016794892           21 
 3932000   0.61845426   -7.5097906    835.18172  0.017700528  0.016789586           10 
 3933000   0.62698594   -7.5066502    835.60648  0.017705028  0.016784272           20 
 3934000   0.62162404   -7.5008265    834.47532  0.017676566   0.01677896           19 
 3935000   0.63749967   -7.5013152    835.16303  0.017686638  0.016773658           23 
 3936000   0.62838371   -7.5040902    834.81003   0.01767467  0.016768359           24 
 3937000   0.61263535   -7.5032714    834.55623  0.017664809  0.016763054           36 
 3938000   0.62674104   -7.5130146    834.30136   0.01765493  0.016757748           48 
 3939000    0.6238655   -7.5272638    833.37772  0.017630907   0.01675243           52 
 3940000   0.62289668   -7.5110366    834.43874  0.017648874  0.016747121           51 
 3941000   0.62572889   -7.5012359    836.15097  0.017680601  0.016741812           48 
 3942000   0.62935935   -7.5201795    835.35263  0.017659239  0.016736499           17 
 3943000   0.61648692   -7.5198041    834.56005  0.017638009  0.016731199           29 
 3944000   0.63298857   -7.5085434    834.43812  0.017630961  0.016725898           36 
 3945000    0.6140137   -7.5128916    834.96544  0.017637631  0.016720602           31 
 3946000   0.62432091   -7.4991294    832.24252  0.017575657  0.016715311           37 
 3947000   0.63296998   -7.5121275    833.25526  0.017592586  0.016710018           30 
 3948000   0.62767695   -7.5123887    834.06024  0.017605121  0.016704735           13 
 3949000   0.60934751   -7.5061378    835.55898   0.01763229  0.016699455           21 
 3950000   0.62252279   -7.5133399    835.82524  0.017633444  0.016694173           29 
 3951000   0.63281378   -7.4968802    834.15562  0.017593766  0.016688879           23 
 3952000   0.62550626   -7.5013726    831.90555  0.017541868  0.016683585           22 
 3953000   0.63085618   -7.4930746    833.29572  0.017566737  0.016678292           19 
 3954000   0.62279681   -7.5126407    833.33132  0.017563044  0.016672996           49 
 3955000   0.60960132   -7.5084049     834.2432  0.017577817  0.016667702           44 
 3956000   0.62445974   -7.5281692    835.07163  0.017590825   0.01666242           40 
 3957000   0.61554777   -7.5217801    835.82523   0.01760225  0.016657128           35 
 3958000   0.62133815   -7.5093265    834.47397  0.017569353  0.016651849           35 
 3959000   0.62578313   -7.5056347    834.56327  0.017566794  0.016646573           22 
 3960000   0.62053551   -7.4996908    833.09612  0.017531484  0.016641301           40 
 3961000   0.62060127   -7.5103245    833.65636  0.017538845  0.016636037           49 
 3962000    0.6268817   -7.4830489    834.22249  0.017546325  0.016630778           24 
 3963000   0.62103593   -7.5191446    834.54005  0.017548575  0.016625514           32 
 3964000    0.6164752   -7.5325816    835.21284  0.017558292  0.016620253           39 
 3965000   0.61746633    -7.504238     833.2019  0.017511599  0.016614996           41 
 3966000   0.61604883   -7.5122708    834.64962  0.017537603  0.016609734           26 
 3967000   0.62820401   -7.5276622     835.1221  0.017543108  0.016604466           40 
 3968000   0.62527078   -7.5319975    833.96919  0.017514474  0.016599188           40 
 3969000   0.62215268   -7.5081243    833.50631  0.017500342  0.016593915           34 
 3970000   0.61801971   -7.5309136    832.81064  0.017481332  0.016588639           46 
 3971000   0.62812044   -7.5282578    834.12156   0.01750444  0.016583364           35 
 3972000   0.61231253   -7.4924458    834.78569  0.017513966  0.016578102           49 
 3973000   0.60995007   -7.5287999    833.79182  0.017488712  0.016572848           25 
 3974000   0.59046165   -7.5042664    833.25859  0.017473129  0.016567583           25 
 3975000   0.60136486   -7.5204466    835.15903  0.017508575  0.016562319           22 
 3976000   0.61161887   -7.5166501    835.05178  0.017501924  0.016557056           45 
 3977000   0.61759056   -7.5297742    834.30473  0.017481869  0.016551794           26 
 3978000   0.61527809   -7.5179392    834.09489  0.017473079  0.016546531           22 
 3979000   0.61228952   -7.5376518    834.56004  0.017478429   0.01654126           46 
 3980000   0.60423085   -7.5333718    834.95021  0.017482207  0.016535992           53 
 3981000   0.61595755   -7.5338722    834.05338  0.017459042   0.01653073           54 
 3982000   0.61168488   -7.5397378    833.53119   0.01744373  0.016525465           18 
 3983000   0.59683977    -7.552834    834.68867  0.017463567  0.016520202           56 
 3984000    0.6132613   -7.5332973    833.31079  0.017430363  0.016514948           40 
 3985000   0.61458248   -7.5313966    835.17433  0.017464959  0.016509693           46 
 3986000   0.60520243   -7.5292006    834.06892  0.017437467  0.016504432           34 
 3987000   0.61776625    -7.522834    834.55586  0.017443271  0.016499181           52 
 3988000   0.60481977   -7.5353372    834.41667  0.017435989  0.016493927           49 
 3989000   0.60016008   -7.5239845    835.76084  0.017459698  0.016488671           43 
 3990000   0.60843878   -7.5245011    832.85018  0.017394532   0.01648342           30 
 3991000   0.61214962     -7.53534    833.96068  0.017413361  0.016478173           27 
 3992000   0.61387747   -7.5097852    834.15957  0.017413151  0.016472931           36 
 3993000   0.60362331   -7.5351812    834.22364  0.017410127   0.01646768           84 
 3994000   0.59962672   -7.5376747    834.82142   0.01741824  0.016462431           87 
 3995000   0.63385506   -7.5164925    833.61539  0.017388723  0.016457192           24 
 3996000   0.60747412   -7.5238259    834.15135  0.017395549  0.016451962           36 
 3997000   0.60008604   -7.5320616    833.53429  0.017378331  0.016446718           54 
 3998000   0.60470586   -7.5339095     833.5275  0.017373843   0.01644149           32 
 3999000   0.62633183   -7.5271883    833.65523   0.01737216  0.016436266           27 
 4000000   0.60525929   -7.5431158    833.90764  0.017373076  0.016431048           24 
 4001000   0.60722695   -7.5240722    834.08617  0.017372452  0.016425823           21 
 4002000   0.62336059   -7.5383863     833.2449  0.017350594  0.016420606           55 
 4003000   0.62304789   -7.5561643    833.88555  0.017359596   0.01641538           48 
 4004000   0.61763984   -7.5243249     833.2406  0.017341837  0.016410158           69 
 4005000   0.60416674   -7.5329433    835.74753   0.01738967   0.01640494           37 
 4006000   0.62454457   -7.5327311    833.96465  0.017348241  0.016399715           48 
 4007000   0.61532881   -7.5166165    834.36189  0.017352173  0.016394507           40 
 4008000   0.60664378   -7.5389045    833.58437  0.017331678  0.016389298           51 
 4009000   0.62677339   -7.5246733    833.50631  0.017325732    0.0163841           18 
 4010000   0.60185298   -7.5247144    833.75097  0.017326496  0.016378909           21 
 4011000   0.60534735   -7.5237412    832.82995  0.017303041  0.016373711           20 
 4012000   0.61245373    -7.522701     833.8644  0.017320214  0.016368509           38 
 4013000   0.61507015     -7.55785    835.38694  0.017347515  0.016363315           17 
 4014000   0.61218867   -7.5276541    832.94807  0.017292561  0.016358117           20 
 4015000    0.6084308    -7.516658    833.91607  0.017308345  0.016352919           35 
 4016000   0.61696207   -7.5437686    833.64633  0.017298438  0.016347726           28 
 4017000   0.62039961   -7.5491275    834.86177  0.017319346  0.016342542           30 
 4018000    0.6021917   -7.5556349     834.3552   0.01730453   0.01633736           45 
 4019000    0.6155018   -7.5440955    834.79991  0.017309445  0.016332179           15 
 4020000   0.60438406   -7.5257564    834.21475  0.017293009     0.016327           30 
 4021000   0.62600732   -7.5141301    834.10582  0.017286451  0.016321828           17 
 4022000   0.61048339   -7.5162849    833.52764  0.017270173  0.016316661           11 
 4023000   0.61561657   -7.5223398    833.00542  0.017255063   0.01631149           17 
 4024000   0.60673555   -7.5445068    834.41411  0.017279948  0.016306324           16 
 4025000   0.61191432   -7.5198744    834.45612  0.017276524  0.016301159           13 
 4026000   0.61161523   -7.5432339    833.72406   0.01725708  0.016295997           24 
 4027000   0.60966966    -7.514459    835.38048  0.017287072  0.016290839           24 
 4028000   0.60704492   -7.5015922    834.48826  0.017264322  0.016285687           14 
 4029000   0.60708934   -7.5455595    834.35356  0.017257251  0.016280533           11 
 4030000   0.61715451   -7.5171039    833.29699   0.01723112  0.016275378           21 
 4031000   0.60604556   -7.5435682    835.43492  0.017271044  0.016270221           19 
 4032000   0.61240601    -7.527466    835.17148  0.017261315  0.016265071           23 
 4033000   0.60570619   -7.5303469    835.15052  0.017256602  0.016259932           30 
 4034000   0.60420858    -7.507221    833.66871  0.017221714  0.016254791           16 
 4035000    0.6103222   -7.5508163    833.93278  0.017222899  0.016249642           20 
 4036000   0.59788349   -7.5358864    834.01404   0.01722031  0.016244484           20 
 4037000   0.60135544   -7.5393882    833.24575  0.017200185  0.016239331           11 
 4038000   0.59810401   -7.5449585    834.77415  0.017227467  0.016234181           18 
 4039000    0.5931258    -7.537626    834.45825  0.017216684  0.016229038           33 
 4040000   0.60046941   -7.5284525    833.46663  0.017191969  0.016223895           45 
 4041000   0.60895616     -7.52407    832.63497  0.017170564  0.016218757           30 
 4042000   0.60724543    -7.535748    835.37962  0.017222902  0.016213624           22 
 4043000   0.62058361   -7.5359426    834.19354  0.017194194  0.016208483           34 
 4044000   0.60217027   -7.5418991    834.94862  0.017205502  0.016203335           21 
 4045000   0.59636086   -7.5297218    833.18878  0.017164993  0.016198192           33 
 4046000   0.61122377   -7.5464666    833.89892  0.017175377  0.016193048           35 
 4047000   0.61307712   -7.5589928    833.29013  0.017158597  0.016187901           26 
 4048000   0.60900343   -7.5492286    833.45477  0.017157748  0.016182759           20 
 4049000    0.5807903   -7.5294896    833.45495  0.017153514    0.0161776           26 
 4050000   0.59492323   -7.5518274    834.20507  0.017164713  0.016172458           13 
 4051000    0.6003897   -7.5447148    833.48677    0.0171457  0.016167318           26 
 4052000   0.59933044    -7.528324    836.44834  0.017202376  0.016162176           14 
 4053000   0.59671159   -7.5441564     832.7937  0.017122989  0.016157044           23 
 4054000   0.60955535   -7.5489031    834.01493  0.017143869   0.01615191           21 
 4055000   0.60907278   -7.5579319    835.28524  0.017165747  0.016146779           19 
 4056000    0.6059701   -7.5405272    833.67887  0.017128511  0.016141642           16 
 4057000   0.59967466   -7.5457475    833.83461  0.017127488  0.016136518           13 
 4058000   0.61051804   -7.5529544    835.70691  0.017161716  0.016131399           17 
 4059000   0.59424643   -7.5272439    834.62418  0.017135259  0.016126273           11 
 4060000   0.60947824   -7.5390825    833.33548  0.017104587  0.016121149           33 
 4061000   0.60196105    -7.548135    833.90234  0.017112007  0.016116033           39 
 4062000   0.60470892   -7.5540985    833.60739  0.017101744  0.016110915           24 
 4063000   0.60489613   -7.5499528     834.6733  0.017119397  0.016105793           30 
 4064000   0.59941489   -7.5383604    834.30756  0.017107685  0.016100675           20 
 4065000   0.58201294   -7.5384289    834.15259  0.017100299  0.016095553           20 
 4066000   0.61121266   -7.5611253    834.59413  0.017105143   0.01609043           40 
 4067000   0.60528963   -7.5395604    833.71512  0.017082926    0.0160853           44 
 4068000   0.60951293   -7.5420033    832.73028  0.017058552   0.01608018           21 
 4069000   0.60746449   -7.5407436    834.67751  0.017094239  0.016075063           26 
 4070000    0.5900454   -7.5626784    834.36787  0.017083699  0.016069948           23 
 4071000   0.59760476    -7.547044    833.30768  0.017057801  0.016064832           26 
 4072000   0.58806389   -7.5457586    833.76417  0.017062954   0.01605972           45 
 4073000   0.60609647    -7.537403     833.3294  0.017049869  0.016054612           13 
 4074000   0.60259283   -7.5357692     834.0054  0.017059512  0.016049512           23 
 4075000   0.60982944   -7.5613679    832.95415  0.017033827  0.016044405           22 
 4076000   0.61424319   -7.5501978    833.02367  0.017031069  0.016039295           29 
 4077000    0.6085216   -7.5556209    834.12358  0.017049374  0.016034197           50 
 4078000   0.59485084   -7.5622213    833.91448   0.01704092   0.01602909           64 
 4079000    0.5933117    -7.563106    835.43017  0.017067708  0.016023988           57 
 4080000   0.59679224   -7.5634576    833.79703  0.017030168  0.016018893           45 
 4081000   0.59077203   -7.5589315    834.73956  0.017045241  0.016013797           31 
 4082000     0.596014   -7.5426995    834.17354  0.017029511  0.016008704           25 
 4083000   0.60321677   -7.5555351    833.27309  0.017006962  0.016003605           33 
 4084000   0.59502041     -7.55596    833.64464  0.017010379  0.015998505           60 
 4085000   0.60054067   -7.5644135    832.60984  0.016985105  0.015993403           63 
 4086000   0.60396991   -7.5664409    834.03979  0.017010111  0.015988307           52 
 4087000   0.60616103   -7.5635954    832.30721  0.016970622  0.015983213           20 
 4088000   0.58984282   -7.5783465    832.16913  0.016963656   0.01597811           64 
 4089000   0.58749212   -7.5947606    834.42359  0.017005454  0.015973006           43 
 4090000   0.59900946   -7.5648376    832.06349  0.016953209  0.015967906           38 
 4091000   0.60634432   -7.5536992    833.20284  0.016972273  0.015962815           22 
 4092000   0.59255238   -7.5712282    832.04621  0.016944571  0.015957724           56 
 4093000   0.58136656   -7.5714548    833.93119  0.016978809  0.015952636           62 
 4094000   0.59534787    -7.571859    833.81531  0.016972303   0.01594755           25 
 4095000   0.59614847   -7.5645786    833.61536   0.01696409  0.015942466           57 
 4096000   0.59590029   -7.5618885    831.82731   0.01692357  0.015937391           68 
 4097000   0.58919288   -7.5647655    832.04124  0.016923791  0.015932315           89 
 4098000    0.5970691   -7.5585896    833.36959  0.016946673   0.01592725           77 
 4099000   0.60376884   -7.5634783    834.00147  0.016955385  0.015922186           46 
 4100000   0.58404734   -7.5666768    833.13688  0.016933677  0.015917117           69 
 4101000   0.60370197   -7.5455388    833.23471  0.016931535  0.015912047           63 
 4102000   0.60267693   -7.5637256    833.28845  0.016928499  0.015906987           47 
 4103000   0.59209043   -7.5577449    832.80853  0.016914626  0.015901924           57 
 4104000   0.60345321   -7.5460856    834.88495  0.016952667  0.015896867           89 
 4105000   0.59015461   -7.5599944    832.17829  0.016893591  0.015891799           69 
 4106000   0.59573899   -7.5524063    832.58571  0.016897745  0.015886735           77 
 4107000   0.59472371   -7.5823806     832.8503     0.016899  0.015881667           66 
 4108000   0.59854397   -7.5764556    831.42152  0.016865902  0.015876596           87 
 4109000   0.59391741   -7.5625657    832.42667  0.016882183  0.015871525           79 
 4110000   0.59876808   -7.5662897     833.0355   0.01689042  0.015866461           53 
 4111000   0.57989204   -7.5688361    833.29954  0.016891663  0.015861396           92 
 4112000   0.58971639   -7.5874364     832.6104   0.01687359  0.015856325           70 
 4113000   0.58899707   -7.5685673    831.56102  0.016848225  0.015851252           53 
 4114000   0.58618442    -7.574999    833.25085   0.01687836  0.015846187           63 
 4115000   0.57994565   -7.5743849    834.69008  0.016903404  0.015841122           55 
 4116000   0.59603755   -7.5737142    831.32618  0.016831191  0.015836063           64 
 4117000    0.5796561   -7.5513508    830.97248  0.016819943     0.015831           53 
 4118000   0.58144085   -7.5831783     832.5238  0.016847252  0.015825944          108 
 4119000   0.59338639   -7.5718283    833.34625  0.016859801  0.015820894           59 
 4120000   0.59240179   -7.5749021    833.53518   0.01685953  0.015815843          148 
 4121000   0.58963415   -7.5568305    833.23127  0.016849294  0.015810801           77 
 4122000   0.58818215   -7.5736801    831.33676  0.016806905  0.015805755           75 
 4123000   0.59642806   -7.5694273    833.23843  0.016841265  0.015800713          127 
 4124000   0.59644541   -7.5605259    832.65244   0.01682534  0.015795675           59 
 4125000   0.59412654    -7.567436    832.35131  0.016815178  0.015790625           60 
 4126000   0.60022682   -7.5868387    832.01398  0.016804289  0.015785586          163 
 4127000   0.59528508   -7.6004329    832.93235  0.016818762  0.015780547          131 
 4128000   0.60360174   -7.5805679    833.48789  0.016825902  0.015775514           98 
 4129000   0.58904375   -7.5546546    832.37631  0.016799393  0.015770486          125 
 4130000   0.59575784   -7.5750321    835.51654  0.016858687  0.015765458          100 
 4131000   0.59266125   -7.5733392    832.91093  0.016802044  0.015760429           49 
 4132000   0.59859876   -7.5743618    831.76876  0.016774943  0.015755401           80 
 4133000   0.59261765   -7.5730448    833.02202  0.016796153  0.015750376           61 
 4134000   0.58996047    -7.584629     831.6516  0.016764465  0.015745353           95 
 4135000   0.59018366   -7.5780433    832.28446  0.016773165  0.015740323           65 
 4136000   0.58989731   -7.5788235    831.74646   0.01675827    0.0157353          162 
 4137000   0.59888075   -7.5777666    833.05295  0.016780536  0.015730279          146 
 4138000   0.58420259     -7.56074    832.31233  0.016761566  0.015725264           67 
 4139000     0.598623   -7.5720533    832.55985    0.0167625  0.015720247          113 
 4140000   0.58262168   -7.5482569    834.58622   0.01679924  0.015715234           87 
 4141000   0.59082734   -7.6119829    834.54595  0.016794372  0.015710219           88 
 4142000   0.59514579   -7.5800187    832.77123  0.016754612  0.015705209           98 
 4143000   0.58790266   -7.5878172    833.02162  0.016755604  0.015700201           99 
 4144000   0.59125616   -7.5822145    832.81412  0.016747388  0.015695187          133 
 4145000   0.58655463   -7.5828024    833.54055  0.016757952  0.015690179           60 
 4146000   0.58737523   -7.5599384    832.37507  0.016730485  0.015685169          127 
 4147000   0.58304279   -7.5737214    834.08172  0.016760745  0.015680164           55 
 4148000   0.58780973   -7.5769608    833.40926  0.016743195  0.015675168           67 
 4149000   0.59082105    -7.588156    833.38686  0.016738709  0.015670173           94 
 4150000   0.59074733   -7.5741994    834.20509  0.016751106  0.015665176           43 
 4151000   0.58765073    -7.593004    833.72825  0.016737498  0.015660177           75 
 4152000   0.58871381   -7.5815038    832.78295  0.016714494   0.01565518          103 
 4153000   0.58577361    -7.590685    834.22326   0.01673937   0.01565018          101 
 4154000   0.60038808   -7.5930188    832.70416  0.016704866  0.015645179          134 
 4155000   0.57866695    -7.567003    833.38072  0.016714415  0.015640181           98 
 4156000   0.58470476    -7.574598    833.82022  0.016719206  0.015635186          139 
 4157000   0.58169706   -7.6047186    832.91175  0.016696972  0.015630196          104 
 4158000   0.59130922   -7.5819376    831.70652  0.016668801  0.015625202          152 
 4159000   0.57968445   -7.5999245    832.83472  0.016687399  0.015620216          107 
 4160000   0.59252324   -7.6126188    833.21479  0.016691001  0.015615224          133 
 4161000   0.57616657   -7.5675814    831.17478  0.016646134  0.015610229          158 
 4162000   0.56928526   -7.6017944    834.14377  0.016701581  0.015605238           65 
 4163000   0.58389795   -7.5938524    833.93306  0.016693351  0.015600246          112 
 4164000    0.5716817   -7.6065419    831.06559  0.016631956  0.015595251           47 
 4165000   0.58540066   -7.6025008    831.53941  0.016637443  0.015590258           78 
 4166000   0.60044208   -7.6082392    831.08864  0.016624433  0.015585274           84 
 4167000   0.58132538    -7.596721    832.33441  0.016645357  0.015580284           81 
 4168000   0.58538305   -7.5873196    833.11497  0.016656969  0.015575293           69 
 4169000   0.58303808   -7.5932205    832.03055  0.016631297  0.015570309           34 
 4170000   0.58498827   -7.5814511    832.56809  0.016638051   0.01556533           44 
 4171000   0.57656649   -7.5985434    833.28777  0.016648441  0.015560352           74 
 4172000    0.5940494   -7.5846343    832.01615  0.016619051  0.015555378           45 
 4173000   0.58015459   -7.5883529    831.04378   0.01659565  0.015550404           55 
 4174000   0.58965648    -7.593989    835.07271  0.016672111  0.015545439           46 
 4175000   0.58336664   -7.5886922    832.17535  0.016610286  0.015540479           57 
 4176000   0.58346977   -7.5977756    831.91549  0.016601123  0.015535515           30 
 4177000   0.57665759   -7.6103013    831.86851  0.016596212  0.015530549           39 
 4178000   0.59084095   -7.5848811    834.73131   0.01664934  0.015525592           66 
 4179000    0.5926416   -7.5874416    832.90626  0.016608963  0.015520632           53 
 4180000    0.5808806   -7.5987094    832.84687  0.016603805  0.015515666           65 
 4181000   0.59070496   -7.5943918     832.4988  0.016592896  0.015510712           83 
 4182000   0.58178248   -7.5856304    833.40338  0.016606954  0.015505754           72 
 4183000   0.57871405   -7.5830075    832.97167  0.016594383  0.015500802           76 
 4184000   0.57463352   -7.5860652    832.17041  0.016574459  0.015495848           62 
 4185000   0.57191418   -7.6017252     832.5017  0.016577095  0.015490895           64 
 4186000   0.57680538   -7.6137654    832.62329  0.016575555  0.015485942           58 
 4187000   0.57161063   -7.5893274    833.80084  0.016595033  0.015480997           74 
 4188000   0.57638897   -7.6011231    831.70905  0.016549448  0.015476055          119 
 4189000   0.57765862    -7.602899    832.53245  0.016561877  0.015471113           54 
 4190000   0.58406002   -7.6144521    833.24514  0.016572099   0.01546618           39 
 4191000   0.58606556   -7.6141481    832.86429  0.016560572  0.015461242           81 
 4192000   0.58860902   -7.5949109    833.18928  0.016563082  0.015456302           80 
 4193000   0.57723647   -7.5818612    831.57755    0.0165271  0.015451366          117 
 4194000   0.56628405   -7.5971301    832.16273  0.016534786  0.015446429           51 
 4195000    0.5928876   -7.5822742      832.014   0.01652789    0.0154415           60 
 4196000   0.58443608   -7.6225394     831.5081  0.016513904  0.015436565           80 
 4197000   0.58889232   -7.5948458    833.49528  0.016549426  0.015431634           38 
 4198000   0.57433084   -7.6043685    831.75292  0.016510896  0.015426704           69 
 4199000   0.58368684   -7.6184657    833.46642   0.01654097  0.015421775          101 
 4200000    0.5847785   -7.6014732    831.52036   0.01649842  0.015416851           64 
 4201000   0.58845072   -7.6256045    832.57849  0.016515482  0.015411922           32 
 4202000    0.5676175   -7.6296155    831.91538  0.016498401  0.015406995           40 
 4203000   0.57277867   -7.5923496    833.45484  0.016524999  0.015402067           73 
 4204000   0.58703439   -7.6102816    832.28767  0.016497932  0.015397144           73 
 4205000   0.58948015    -7.586704    832.64283  0.016501047  0.015392222           57 
 4206000   0.57201462     -7.60712    830.72245  0.016459075  0.015387297           85 
 4207000   0.58326221   -7.6074171    833.04361  0.016501141  0.015382375           61 
 4208000   0.57816321   -7.6113121    832.16879  0.016479895  0.015377446           47 
 4209000   0.56812704   -7.5915982    831.54578  0.016463645  0.015372528           94 
 4210000   0.58420609   -7.5972084    832.71684  0.016482914  0.015367596          109 
 4211000   0.58333756   -7.5983851    831.93857  0.016463599  0.015362682          109 
 4212000   0.56259532   -7.6165683    832.40984  0.016469014   0.01535776           90 
 4213000   0.57711859     -7.60488    831.99362  0.016456872  0.015352836           49 
 4214000   0.58648946   -7.6197344    832.41974  0.016461393  0.015347915           61 
 4215000    0.5833769   -7.6266583    832.74989  0.016464015  0.015342997           46 
 4216000   0.57243217   -7.6130909    832.17436  0.016448734  0.015338089          113 
 4217000   0.58106987   -7.6044731      830.992  0.016421469  0.015333185          119 
 4218000   0.57261306   -7.6092332    832.56032   0.01644856  0.015328278          130 
 4219000   0.58114564     -7.62159    831.36599  0.016421071  0.015323366          138 
 4220000   0.57723859    -7.621367    830.60497  0.016402152  0.015318455          131 
 4221000   0.58229829   -7.6110346    833.72958  0.016459954   0.01531355          117 
 4222000   0.58246356   -7.6293256    832.09659  0.016423823  0.015308645          179 
 4223000   0.57641349   -7.6096117     832.7274  0.016432382  0.015303748           31 
 4224000   0.57759584   -7.6062418     832.1576  0.016417251  0.015298852           55 
 4225000   0.57688468   -7.6069167    832.83153  0.016426657  0.015293952           79 
 4226000   0.58376054   -7.6018936    831.02235  0.016387095  0.015289057           52 
 4227000   0.59188427   -7.6193122    830.39976  0.016370944  0.015284159           70 
 4228000   0.56939032   -7.6217505    832.39764   0.01640645   0.01527927          115 
 4229000   0.57065382   -7.6060918    831.25931  0.016380139  0.015274375          161 
 4230000   0.58637881   -7.6184999    830.90267  0.016369241  0.015269478           48 
 4231000   0.56906224   -7.6403352    831.31088  0.016373412  0.015264583          127 
 4232000   0.57661274   -7.6219116    829.59974  0.016335849  0.015259684           77 
 4233000   0.56580919   -7.6291234    831.03612  0.016360267  0.015254786          105 
 4234000   0.58353254   -7.6134198    830.96233  0.016354951  0.015249887          105 
 4235000   0.58296018   -7.6304673     832.0305  0.016372107  0.015244992           47 
 4236000   0.57251033   -7.6281069    831.23622  0.016352617  0.015240102           45 
 4237000   0.56685144   -7.6288585    832.31296  0.016369935   0.01523521           80 
 4238000    0.5791122   -7.6123968    831.47087  0.016349514  0.015230314           58 
 4239000   0.57779051    -7.607975    831.58413  0.016347883  0.015225426           31 
 4240000   0.58055768   -7.6380474    831.64099  0.016345145  0.015220535           38 
 4241000   0.56916111   -7.6099481    830.28474  0.016314642  0.015215647           91 
 4242000   0.56717141   -7.6290299    831.60412  0.016336715  0.015210765           31 
 4243000   0.57502824   -7.6444212    832.01382  0.016340911  0.015205882           33 
 4244000   0.57596607   -7.6258026    832.94242  0.016355294  0.015201001           36 
 4245000   0.57214362   -7.6319917    830.48423  0.016303185   0.01519612           51 
 4246000   0.56628377   -7.6273459    829.54199  0.016280852  0.015191238           38 
 4247000   0.56688248   -7.6432251    831.80912  0.016321504  0.015186361           93 
 4248000   0.56750386   -7.6257552     831.7397    0.0163163  0.015181479           67 
 4249000   0.58585256   -7.6298002     831.0477  0.016298888  0.015176605           38 
 4250000   0.60041419   -7.6126689    832.15779  0.016316819  0.015171734           28 
 4251000   0.57596755   -7.6298298    832.24628  0.016314716  0.015166867           56 
 4252000   0.56933291   -7.6231348    832.26216   0.01631119  0.015161996           24 
 4253000   0.56542509   -7.6223533    830.02536  0.016263527  0.015157132           49 
 4254000   0.57613394    -7.638755      831.481  0.016288219  0.015152268           29 
 4255000     0.579848   -7.6344844    831.57062  0.016286146  0.015147408           47 
 4256000    0.5601139   -7.6255231    831.51336  0.016281198  0.015142546           48 
 4257000   0.55995965   -7.6292322    830.60104  0.016259515  0.015137686           31 
 4258000   0.57991414   -7.6300308    831.73409  0.016277871  0.015132823           36 
 4259000   0.57558006   -7.6285694    830.95395  0.016258784  0.015127971           56 
 4260000   0.56263708   -7.6339605    830.42132  0.016244548  0.015123115           66 
 4261000   0.56622429   -7.6269237    830.65326  0.016245272  0.015118259           58 
 4262000   0.56378409    -7.616757    829.81693  0.016225108  0.015113408           49 
 4263000   0.57085386   -7.6161153      831.731  0.016258718  0.015108571           27 
 4264000   0.56143347   -7.6313057    831.84245  0.016257084  0.015103735           47 
 4265000    0.5676418   -7.6136007    830.58069  0.016228618   0.01509889           75 
 4266000   0.57531161   -7.6274088    830.97556  0.016232528  0.015094047           26 
 4267000   0.58189493   -7.6271188    831.00042  0.016229209  0.015089203           61 
 4268000   0.56662711    -7.643782    831.47317  0.016234637  0.015084366           63 
 4269000   0.57284922   -7.6368134    830.59504  0.016213692  0.015079525           41 
 4270000   0.56964541   -7.6255701    832.31324  0.016243428  0.015074692           75 
 4271000   0.56134111   -7.6160372    831.02683  0.016214525  0.015069864           38 
 4272000   0.56336673   -7.6391348    831.36313   0.01621729   0.01506503           83 
 4273000   0.57355193   -7.6311573    829.84392  0.016183866  0.015060204           35 
 4274000   0.56480702   -7.6562745    831.43629  0.016211127   0.01505537           52 
 4275000     0.577622   -7.6357573    831.89999  0.016216374  0.015050544           70 
 4276000   0.56314557   -7.6387857    830.30524  0.016181502  0.015045719           35 
 4277000   0.56608437    -7.614238    831.50114   0.01620102  0.015040895           76 
 4278000   0.57749295    -7.622878    830.70708  0.016181765  0.015036073           84 
 4279000   0.56250692   -7.6594383    831.29788  0.016189489  0.015031249           48 
 4280000   0.58143498   -7.6353201    830.44073  0.016169017  0.015026426           83 
 4281000   0.56952357   -7.6492505     830.0303  0.016157251  0.015021608           75 
 4282000    0.5761936   -7.6209703     830.7304  0.016167103  0.015016795           40 
 4283000   0.57121562   -7.6254881     831.0477  0.016169502  0.015011985           68 
 4284000   0.55768493   -7.6305208    832.15904  0.016187345  0.015007181           61 
 4285000    0.5699871    -7.615095    831.26975  0.016166273  0.015002381           61 
 4286000   0.56617578   -7.6237631    831.25162  0.016162149  0.014997578           50 
 4287000   0.57134243    -7.627326    831.07962  0.016155035  0.014992775           66 
 4288000   0.56257488   -7.6237813    831.27732   0.01615511  0.014987973           63 
 4289000   0.56352698   -7.6020586     831.2375  0.016150569  0.014983174           48 
 4290000   0.56399028   -7.6333736    830.71246  0.016136606  0.014978373           73 
 4291000    0.5556419   -7.6348021    830.74891  0.016133553  0.014973569           68 
 4292000    0.5579215   -7.6404241    829.66667  0.016108781  0.014968768           50 
 4293000   0.54836816   -7.6202351    831.48113   0.01614025  0.014963971           83 
 4294000   0.56781819    -7.637191    832.51204  0.016156498  0.014959173           56 
 4295000   0.57267113   -7.6263387    832.18944  0.016146477  0.014954378           73 
 4296000   0.56830758   -7.6432212    830.85974  0.016116925  0.014949585           51 
 4297000   0.56165786   -7.6452472    830.80263  0.016112067  0.014944793           69 
 4298000   0.55809741   -7.6388764    831.90922  0.016129774  0.014940006           77 
 4299000   0.56328238   -7.6374185    831.15078   0.01611132  0.014935218           61 
 4300000   0.55111508   -7.6316246    831.37971   0.01611201  0.014930435           94 
 4301000   0.56167886   -7.6226973    831.40164  0.016108689  0.014925654           88 
 4302000   0.56066929   -7.6307845    832.33231  0.016122972  0.014920881           80 
 4303000   0.54924103   -7.6356898    831.21564  0.016097599  0.014916107           70 
 4304000   0.56139941   -7.6238044    831.06904  0.016091021  0.014911334           81 
 4305000   0.55026388   -7.6296909    830.33299  0.016073035  0.014906554           77 
 4306000   0.55405911   -7.6569773    831.64269  0.016094649  0.014901778           76 
 4307000   0.55468988   -7.6297158    830.85003  0.016075575  0.014897002           55 
 4308000   0.57239875    -7.644769    832.03924  0.016094848  0.014892235           54 
 4309000   0.55717622   -7.6439458    831.22729   0.01607541  0.014887466           71 
 4310000   0.56334949   -7.6364753    830.17942   0.01605142  0.014882697           97 
 4311000   0.57072219    -7.635923    830.16133  0.016047346  0.014877926           86 
 4312000   0.57597571   -7.6433386    831.40241   0.01606761  0.014873161           48 
 4313000   0.56753195   -7.6191004    829.65045  0.016030034  0.014868401           36 
 4314000   0.56136944   -7.6388039    831.30611  0.016058301  0.014863639           34 
 4315000      0.56341   -7.6246413    831.40673  0.016056522  0.014858884           62 
 4316000   0.55970596   -7.6316318    831.07553  0.016046407  0.014854131           27 
 4317000   0.57012265   -7.6392902    830.73999  0.016036213  0.014849375           48 
 4318000    0.5602818   -7.6430638    831.27704  0.016042864  0.014844616           36 
 4319000   0.56327944    -7.644011    831.15701  0.016036834  0.014839864           85 
 4320000   0.56703186   -7.6349552    832.22591   0.01605374  0.014835117           36 
 4321000   0.56824818   -7.6353475    830.44269  0.016015635  0.014830366           58 
 4322000   0.55723773   -7.6523717    830.93639  0.016021448  0.014825615           42 
 4323000   0.55632674   -7.6495209    831.06752   0.01602027  0.014820867           45 
 4324000   0.55730463   -7.6292513    830.46871  0.016005024   0.01481612           33 
 4325000   0.56037552   -7.6269711    830.79747  0.016007658  0.014811375           41 
 4326000   0.56437512   -7.6457152      831.905  0.016025293  0.014806631           46 
 4327000   0.55973898    -7.621474    831.30149  0.016009966  0.014801898           64 
 4328000   0.55644947   -7.6499188    831.48929  0.016009883  0.014797155           47 
 4329000   0.55860198   -7.6289401    829.70178  0.015971775   0.01479242           44 
 4330000   0.56395707   -7.6408302    831.32287  0.015999285  0.014787688           37 
 4331000   0.55724203   -7.6367117    830.20422  0.015974067  0.014782955           29 
 4332000   0.55237352   -7.6517511    830.58925  0.015977786  0.014778228           44 
 4333000   0.56140861   -7.6490407    830.25644  0.015967698  0.014773502           76 
 4334000   0.56376591   -7.6384792    831.29472  0.015983978   0.01476878          107 
 4335000   0.56246939   -7.6490497    831.87649  0.015991474  0.014764061          104 
 4336000   0.55757005   -7.6255071    831.72547  0.015984884  0.014759341          131 
 4337000   0.55742248   -7.6510694    830.42179  0.015956149   0.01475462           61 
 4338000   0.56097355   -7.6409255     831.3511  0.015970322  0.014749899           39 
 4339000   0.57290101    -7.648921      829.817  0.015937178  0.014745181           57 
 4340000   0.55799536   -7.6435361    830.96248  0.015955501  0.014740466           36 
 4341000   0.56302305   -7.6260642    830.94028  0.015951399  0.014735751           55 
 4342000    0.5614915   -7.6520853    830.76446  0.015944351  0.014731039           69 
 4343000   0.55602139   -7.6520923    830.34102  0.015932555  0.014726328           35 
 4344000   0.55526752   -7.6377078    831.04491   0.01594239  0.014721618           37 
 4345000   0.55995597   -7.6349482    830.37819  0.015925934  0.014716913           86 
 4346000   0.53878354    -7.635633    830.13841  0.015917672  0.014712206           55 
 4347000   0.56118963   -7.6457033    831.37686  0.015937751  0.014707497           69 
 4348000   0.56761419   -7.6300424    829.67305  0.015901431  0.014702787           63 
 4349000    0.5564819   -7.6281444    830.43049  0.015912288   0.01469808           48 
 4350000    0.5445807   -7.6438108    830.85534  0.015916769  0.014693373          100 
 4351000   0.54490091   -7.6422392    830.12178  0.015899061  0.014688673           38 
 4352000   0.54349441   -7.6433522    830.87742  0.015909877  0.014683969           49 
 4353000   0.56227916    -7.644499    831.08439  0.015910184  0.014679275           37 
 4354000   0.54841931   -7.6273806    829.74482  0.015880891   0.01467458           40 
 4355000   0.55172515   -7.6281108    830.73037  0.015896104  0.014669887           51 
 4356000   0.55480548    -7.645941    831.62457  0.015909561  0.014665199           74 
 4357000    0.5502312   -7.6397955     830.7642  0.015889454  0.014660508           99 
 4358000    0.5651088   -7.6419306    830.71782  0.015884921  0.014655824           45 
 4359000   0.55087834   -7.6466171    831.76648  0.015901324  0.014651135           40 
 4360000   0.55951889   -7.6544191    831.28552  0.015888485  0.014646445           77 
 4361000   0.57010357   -7.6517221    831.02524  0.015879868  0.014641751           66 
 4362000   0.55810139   -7.6445524    830.00707  0.015856776  0.014637064           90 
 4363000   0.56727976   -7.6330202    830.23911  0.015857573   0.01463238           71 
 4364000   0.55211547   -7.6570794    831.09721  0.015870326  0.014627698           54 
 4365000   0.55645669   -7.6259907     830.7902  0.015860829   0.01462302           49 
 4366000   0.55364662   -7.6541289    831.10354  0.015863176  0.014618339           42 
 4367000   0.56082705   -7.6591227     829.3006  0.015825139  0.014613651          142 
 4368000   0.55150996   -7.6503802    831.02386  0.015854393  0.014608977           70 
 4369000   0.54127003   -7.6506108    830.02328  0.015831679  0.014604296          115 
 4370000    0.5584606   -7.6454926    830.31077  0.015833539  0.014599621           81 
 4371000   0.54439583   -7.6371702    830.85517  0.015840295  0.014594951           34 
 4372000   0.55499878   -7.6642078    830.30516  0.015826189  0.014590277          155 
 4373000   0.55782508   -7.6645335    830.90718  0.015834042  0.014585615          113 
 4374000   0.54461318   -7.6607038    830.00718  0.015813275  0.014580949           62 
 4375000   0.54918234   -7.6562348    831.30067  0.015834298  0.014576287           94 
 4376000   0.54291652   -7.6351463    830.97572  0.015824492  0.014571625           64 
 4377000   0.54619015   -7.6544486    829.90915   0.01580057  0.014566966           79 
 4378000    0.5410304   -7.6373016    829.78562   0.01579461  0.014562309           58 
 4379000    0.5578819   -7.6623969    831.05083   0.01581508  0.014557651           53 
 4380000   0.54897741   -7.6593545    829.49409  0.015781851  0.014552993          125 
 4381000    0.5311763    -7.644826    830.86036  0.015804237  0.014548334           57 
 4382000   0.54305541   -7.6520807    829.43907  0.015773602   0.01454368           86 
 4383000   0.55927783   -7.6607146    830.82046  0.015796267  0.014539019           75 
 4384000   0.55692254   -7.6519896    829.00579   0.01575817  0.014534367           75 
 4385000   0.54700092   -7.6298824    832.05006   0.01581243  0.014529718          106 
 4386000   0.55648474   -7.6545373     830.5918  0.015781118  0.014525071           81 
 4387000    0.5494454   -7.6559416     830.7223      0.01578  0.014520425           86 
 4388000   0.55540853   -7.6697435    830.74321  0.015776801  0.014515776           88 
 4389000   0.54444916   -7.6548255    830.08326  0.015760676  0.014511134           88 
 4390000   0.54382789   -7.6570403    830.76336  0.015769995  0.014506494           67 
 4391000   0.53861987   -7.6498648    828.98459  0.015732646  0.014501848           85 
 4392000   0.56034752   -7.6438551    829.65128  0.015741714   0.01449721           73 
 4393000    0.5545235   -7.6542207    830.35281  0.015751438  0.014492567           50 
 4394000   0.55452249   -7.6721638    830.23628  0.015745643  0.014487928           81 
 4395000      0.54609   -7.6544695    830.38133  0.015744811   0.01448329           86 
 4396000    0.5597457   -7.6640344    829.94465  0.015732951  0.014478653           62 
 4397000    0.5534846   -7.6458914    829.88097  0.015728166  0.014474023           54 
 4398000   0.54860289   -7.6604112    828.76631   0.01570347  0.014469386          150 
 4399000   0.54587302   -7.6529284    831.49148  0.015751525  0.014464752           93 
 4400000   0.54107417   -7.6765084    829.93249  0.015718418  0.014460122           97 
 4401000   0.54836041   -7.6564457    829.67286  0.015709931  0.014455491           77 
 4402000   0.53971845   -7.6656856    830.20647  0.015716464  0.014450873           60 
 4403000   0.55073637    -7.672381    829.04207  0.015690856  0.014446244           74 
 4404000   0.54414941   -7.6681656    829.34311  0.015692989  0.014441615          102 
 4405000   0.54938575   -7.6557879    830.38802  0.015709195   0.01443699           88 
 4406000   0.53889144   -7.6644288    829.36741  0.015686326   0.01443237          101 
 4407000   0.53856951   -7.6563077    830.43624  0.015702977  0.014427755           89 
 4408000   0.55055625    -7.639208    830.29821  0.015696805  0.014423136           87 
 4409000    0.5417208   -7.6719472    829.88779  0.015685488  0.014418525           97 
 4410000   0.55122509   -7.6614154     829.9356  0.015682834  0.014413914           71 
 4411000   0.54166645   -7.6743036    830.43695  0.015688751  0.014409301          105 
 4412000   0.53839238   -7.6544448     830.7933  0.015691926  0.014404697          145 
 4413000   0.54418861   -7.6632999    829.71124  0.015667936  0.014400093           97 
 4414000   0.54104367    -7.656668     829.9859  0.015669572  0.014395484           81 
 4415000   0.54735355   -7.6812419    830.84871  0.015682309  0.014390884           57 
 4416000   0.55845053   -7.6592488    830.79902   0.01567782  0.014386282           54 
 4417000   0.55094821   -7.6747708    829.97993  0.015658817  0.014381675           98 
 4418000   0.53616117   -7.6728611    829.50408  0.015646297  0.014377077           81 
 4419000   0.54122236   -7.6457977    830.17024  0.015655319  0.014372481           67 
 4420000   0.54272947   -7.6643101    829.62337  0.015641466  0.014367887           88 
 4421000   0.54446509   -7.6780066    829.48556  0.015635331  0.014363292          143 
 4422000   0.54752615   -7.6709674    828.88581  0.015620492  0.014358697          155 
 4423000   0.54682501   -7.6695874    830.36995  0.015644923   0.01435411          138 
 4424000   0.53997916   -7.6646839    829.48484  0.015624714  0.014349515          161 
 4425000   0.54258764   -7.6664318    830.87941  0.015647447  0.014344927          118 
 4426000   0.54367104   -7.6662619    830.45423  0.015635906  0.014340341          123 
 4427000   0.54592338   -7.6817443    831.12437  0.015644989  0.014335762           97 
 4428000    0.5439968   -7.6600268      830.527  0.015630213  0.014331175           78 
 4429000    0.5475239   -7.6709793    829.08173  0.015599491   0.01432659           87 
 4430000   0.53788593   -7.6475977    829.24633  0.015599066  0.014322011           78 
 4431000   0.53727456   -7.6872946    830.46296  0.015618426  0.014317434           76 
 4432000   0.55201611   -7.6809442     828.8286  0.015584172  0.014312853           76 
 4433000   0.53525137   -7.6798607    829.61958  0.015595526  0.014308275          143 
 4434000   0.54526019   -7.6626627    829.13542  0.015582909  0.014303697           69 
 4435000   0.54291416   -7.6860219    829.95758  0.015594844  0.014299126           59 
 4436000    0.5413955   -7.6809286    832.30252   0.01563538  0.014294559          128 
 4437000   0.53798194   -7.6719125    829.19763  0.015573541  0.014289993           63 
 4438000   0.54538004   -7.6754787    828.83697   0.01556326  0.014285425           58 
 4439000   0.53556411   -7.6838288    830.15629  0.015584522   0.01428086           63 
 4440000   0.54588273    -7.676106    828.49387   0.01554981   0.01427629          123 
 4441000   0.55264786   -7.6808425     829.2601  0.015560686  0.014271729          160 
 4442000   0.54788403   -7.6670874    829.78358  0.015567004  0.014267167           94 
 4443000   0.53464766   -7.6486343    829.69578  0.015561853  0.014262605           85 
 4444000   0.53528989    -7.681739    829.77922  0.015559916  0.014258048          113 
 4445000   0.53255007   -7.6796411    830.11618  0.015562733  0.014253491           86 
 4446000   0.53570716   -7.6804646    829.75982  0.015552553  0.014248938          137 
 4447000   0.53419454   -7.6543004    829.94375  0.015552503  0.014244386          124 
 4448000   0.55150753     -7.68421    829.71435  0.015544708  0.014239831           58 
 4449000   0.54617263   -7.6380631    828.04934  0.015510027  0.014235281           80 
 4450000   0.53843138    -7.659555    829.42197  0.015532247  0.014230733           83 
 4451000   0.54319373   -7.6725619    827.93352   0.01550089  0.014226191          160 
 4452000    0.5322999    -7.686563    829.52989  0.015527289  0.014221644           79 
 4453000   0.53731241   -7.6597984    829.53192   0.01552384    0.0142171           41 
 4454000   0.53061874   -7.6938908     829.0078  0.015510549  0.014212553           82 
 4455000   0.53339194   -7.6582061    829.05929   0.01550803  0.014208011          144 
 4456000   0.53340628   -7.6738085    829.51668  0.015513104  0.014203471          126 
 4457000   0.54276051   -7.6748527    829.12627  0.015502323  0.014198929           95 
 4458000   0.54435069   -7.6660003    828.99814  0.015496451  0.014194393          106 
 4459000   0.52688334   -7.6618117     828.9086  0.015491302  0.014189858           84 
 4460000   0.53853503   -7.6676224    828.88202  0.015487332  0.014185326           87 
 4461000   0.53947222    -7.666875    830.37898  0.015511824  0.014180794          110 
 4462000   0.53932484   -7.6560872    829.41039  0.015490258  0.014176268           59 
 4463000   0.53502252   -7.6959425    829.65788  0.015491409   0.01417174           49 
 4464000   0.53121254   -7.6732527    829.34309  0.015482062  0.014167215           66 
 4465000   0.54521775   -7.6665979     830.2312   0.01549517  0.014162692          126 
 4466000   0.52947834    -7.677892    829.61619  0.015480224  0.014158172          166 
 4467000   0.52646349   -7.6820889    831.09686  0.015504381  0.014153647           64 
 4468000   0.54345438   -7.6780646    829.57114  0.015472455  0.014149128           90 
 4469000   0.53102533   -7.6823706    829.67415  0.015470913  0.014144607           90 
 4470000   0.53945127   -7.6578962     828.5036   0.01544563  0.014140087          196 
 4471000    0.5342447   -7.6689583    829.00237  0.015451472  0.014135569           65 
 4472000   0.53863152   -7.6762545     828.3348  0.015435577  0.014131052          150 
 4473000   0.53859672   -7.6888021     829.3123  0.015450337  0.014126538          124 
 4474000   0.53199538   -7.6780823    829.21268  0.015445028   0.01412202           82 
 4475000   0.54744966   -7.6567016    830.27258  0.015461314  0.014117514          125 
 4476000    0.5351596   -7.6644153    829.89281   0.01545079  0.014113005           67 
 4477000   0.52431134   -7.6594281    829.78994  0.015445424  0.014108498          160 
 4478000   0.52710267   -7.6940801    829.12414  0.015429584  0.014103989          160 
 4479000   0.53506772   -7.6767998    828.49909   0.01541451  0.014099478          136 
 4480000   0.53349694    -7.680449    829.69758  0.015433363  0.014094969          142 
 4481000   0.53542499   -7.6749606    829.28866  0.015422314  0.014090465          125 
 4482000   0.53127701   -7.6831671    828.46433  0.015403546   0.01408596           77 
 4483000   0.52511905   -7.6884657    828.26418   0.01539639  0.014081456          178 
 4484000   0.55011007   -7.6795796    829.64474  0.015418613  0.014076956          122 
 4485000   0.52594053   -7.6887112     829.7428  0.015416997  0.014072459           89 
 4486000   0.52989221   -7.7008439    829.83934  0.015415354  0.014067963          135 
 4487000   0.52798827   -7.6793802    828.74262   0.01539155  0.014063469           76 
 4488000   0.53369753   -7.6830122    828.64356  0.015386281  0.014058973          105 
 4489000   0.53639672   -7.6868228     830.4741  0.015416836  0.014054481          190 
 4490000   0.53757853   -7.6910318    828.41233  0.015375136  0.014049995           81 
 4491000    0.5310183   -7.7019462    828.02885  0.015364597  0.014045506           64 
 4492000   0.53428884   -7.7035393    829.04546  0.015380036  0.014041021          103 
 4493000   0.53125178   -7.6948137     828.2637  0.015362113  0.014036536           85 
 4494000   0.53344564   -7.6762175    829.41859   0.01538011  0.014032052          175 
 4495000   0.52441699   -7.6906217    829.53008  0.015378756  0.014027571          110 
 4496000   0.53682633   -7.7029443    829.04814  0.015366402  0.014023092           89 
 4497000    0.5438926   -7.6856029    830.00538  0.015380724  0.014018615          126 
 4498000   0.52690107   -7.6873067    828.11539  0.015342289  0.014014132           85 
 4499000   0.54024445   -7.6989067    829.23346  0.015359588  0.014009658          211 
 4500000   0.52862469   -7.6880662     828.7093  0.015346469  0.014005185          163 
 4501000   0.54001428    -7.688477    829.37689  0.015355419  0.014000712          102 
 4502000   0.52741835        -7.67    828.02043    0.0153269   0.01399624           63 
 4503000   0.53138947   -7.6918222    829.00162  0.015341654  0.013991771           94 
 4504000   0.52246802   -7.6848345    829.29545  0.015343684  0.013987304          182 
 4505000   0.51916063   -7.6928933    828.87603   0.01533252  0.013982838          150 
 4506000    0.5380531   -7.6784618    829.42855  0.015339335  0.013978376          138 
 4507000   0.52835881   -7.6983889    828.57512  0.015320152   0.01397391          131 
 4508000   0.53462148   -7.6774163    828.16392  0.015309153  0.013969444           71 
 4509000   0.53047067   -7.7062727    829.24522  0.015325741  0.013964985           75 
 4510000   0.52025684   -7.6973707    829.40952  0.015325379  0.013960523          134 
 4511000   0.53292884    -7.682136    828.35256  0.015302456  0.013956065           93 
 4512000   0.53044663    -7.684193    829.05727   0.01531208  0.013951607           72 
 4513000   0.53730215   -7.6948263    826.75908  0.015266251  0.013947149           89 
 4514000   0.52485403   -7.6961259    828.67515  0.015298242  0.013942693           75 
 4515000   0.52251628   -7.7075571    829.03124  0.015301426  0.013938241           75 
 4516000   0.53012104   -7.6856866    827.33365  0.015266712  0.013933793           90 
 4517000   0.54082211    -7.681716    828.21772  0.015279642  0.013929341           90 
 4518000   0.52163921   -7.6943738    829.93471   0.01530793  0.013924896           92 
 4519000   0.52640489   -7.6773929    829.91845  0.015304242  0.013920452          203 
 4520000    0.5203923   -7.6904534     829.5017  0.015293173  0.013916003           72 
 4521000   0.52176008   -7.6932616    828.89645  0.015278634  0.013911556          157 
 4522000   0.51636645   -7.6973095    828.00355    0.0152588  0.013907116           75 
 4523000   0.53038356   -7.6921959    828.37099  0.015262197  0.013902673          109 
 4524000   0.52795425   -7.7111836    829.09079  0.015272082  0.013898229          108 
 4525000   0.52473018   -7.7134127    829.01788  0.015267364  0.013893794          121 
 4526000   0.52597783   -7.6889663    828.61034  0.015256487   0.01388936           88 
 4527000   0.52847812   -7.6797595    828.36799  0.015248656  0.013884925           91 
 4528000   0.52874133   -7.7024006    828.72112  0.015251787  0.013880491           83 
 4529000   0.53224169    -7.691552    827.31436  0.015222535  0.013876062          104 
 4530000   0.52905701   -7.6962483    828.79903  0.015246487  0.013871635          100 
 4531000   0.52501068   -7.6868064    829.37403  0.015253697  0.013867204           98 
 4532000   0.53550639    -7.696808    828.39369  0.015232305  0.013862784          126 
 4533000   0.51466565   -7.6914614    828.61624  0.015233036  0.013858366           75 
 4534000   0.52853673   -7.7143696    828.27549  0.015223414  0.013853941           76 
 4535000   0.51731344   -7.7103272    828.67951  0.015227481  0.013849523           85 
 4536000   0.53379947   -7.7003265    828.72057  0.015224878  0.013845104          180 
 4537000   0.53791083   -7.7036644    827.77081  0.015204078  0.013840689          171 
 4538000   0.53062966    -7.693752    828.22546  0.015209076  0.013836273           81 
 4539000   0.53744047   -7.7028445    827.49821  0.015192374  0.013831857           84 
 4540000   0.52154169   -7.7187627    828.28482  0.015203466   0.01382744          114 
 4541000    0.5080721   -7.7038007    828.31172  0.015200611  0.013823028           83 
 4542000   0.52248838   -7.7109492    827.63461  0.015184842  0.013818618          106 
 4543000   0.52806466   -7.6990275    828.52415  0.015197816   0.01381421          103 
 4544000   0.52753291   -7.6982825    827.72992  0.015179906   0.01380981          163 
 4545000   0.53244435   -7.7023332    827.93704  0.015180364  0.013805409          193 
 4546000   0.52383766   -7.6949264    828.95522  0.015195689  0.013801015           92 
 4547000   0.52315955   -7.7014012    828.52814   0.01518452  0.013796624           91 
 4548000   0.52128921   -7.7124731    829.39587  0.015197081   0.01379223           96 
 4549000   0.50936128   -7.6899472     828.5759  0.015178719  0.013787835          100 
 4550000   0.52897282   -7.6896294    829.51869   0.01519265  0.013783444           80 
 4551000   0.52724448   -7.6855188    829.86452  0.015195644  0.013779049           92 
 4552000   0.52043386   -7.6979365    828.29804  0.015163628  0.013774661           95 
 4553000   0.52085934    -7.704999    827.01403  0.015136797  0.013770266          100 
 4554000   0.52868904   -7.7175786    827.44588  0.015141375  0.013765875          172 
 4555000   0.51079819   -7.7040601      828.656   0.01516019  0.013761485           88 
 4556000   0.52026706   -7.7081467    829.01614   0.01516345  0.013757097          137 
 4557000   0.52670187   -7.6945502    828.31792  0.015147354  0.013752712           89 
 4558000   0.52055642   -7.6879394    828.54713  0.015148222  0.013748333           79 
 4559000   0.52868738   -7.7004598    827.71574  0.015129702  0.013743954           89 
 4560000    0.5280554   -7.7140049    830.15393  0.015170942  0.013739577          108 
 4561000   0.52473826   -7.6916269    827.98339  0.015127958  0.013735202           95 
 4562000   0.52538663   -7.7120223    829.45046  0.015151441  0.013730824          163 
 4563000   0.53048685   -7.6984622     829.3793   0.01514682  0.013726451          105 
 4564000   0.51563727    -7.703541    827.88254  0.015116173   0.01372208          107 
 4565000   0.52950256   -7.7054051    830.25843  0.015156233  0.013717709           97 
 4566000   0.52326985   -7.7197578    827.70062  0.015106231  0.013713337          158 
 4567000   0.51399511   -7.7057858    828.05976  0.015109477  0.013708967           89 
 4568000   0.51985973   -7.6932962     827.8047  0.015101516  0.013704601           82 
 4569000   0.52818201   -7.7061622     829.0084  0.015120165  0.013700236           88 
 4570000   0.51249639   -7.7210562    828.27889  0.015103554  0.013695875           91 
 4571000    0.5141523   -7.6866531    828.38009  0.015102095  0.013691508           80 
 4572000   0.52593217   -7.7109883    827.56817  0.015083993  0.013687141           76 
 4573000     0.514952   -7.7037587    826.98611  0.015070087  0.013682778           86 
 4574000   0.51591108   -7.7249323    828.83217  0.015100426  0.013678415          127 
 4575000    0.5278135    -7.709955    826.44863  0.015053709  0.013674057           89 
 4576000   0.51994809   -7.7252733    827.10547  0.015062381  0.013669696          128 
 4577000   0.52221301   -7.7092914     828.2975  0.015080793  0.013665336           84 
 4578000   0.52327747   -7.7018214    827.75856  0.015067689  0.013660979           96 
 4579000   0.52981835   -7.7060709    828.50735  0.015078026  0.013656623           88 
 4580000   0.51136971   -7.7103097    828.57093   0.01507589  0.013652263           77 
 4581000    0.5140305   -7.7175406    828.63129  0.015073697  0.013647911          161 
 4582000     0.523912   -7.7229884    828.35817   0.01506544  0.013643559          155 
 4583000   0.51678337   -7.7068974    828.16666  0.015058671  0.013639208          100 
 4584000   0.51288401   -7.7087408    827.98103  0.015052011  0.013634858          109 
 4585000   0.51664871    -7.714264    826.93833  0.015029777  0.013630511           83 
 4586000   0.51938509   -7.7027886    827.87824  0.015043579  0.013626168           61 
 4587000   0.52387695   -7.6976005    828.97404  0.015060207  0.013621826          146 
 4588000   0.51563628   -7.7047156    828.68652  0.015051702  0.013617485           92 
 4589000   0.50521555   -7.7204315    826.05505  0.015000636   0.01361314           97 
 4590000   0.50679653   -7.7143063    827.68923  0.015027038    0.0136088           89 
 4591000   0.51506475   -7.7148986    828.32996  0.015035395  0.013604457           84 
 4592000   0.52555964   -7.7062775    828.70274  0.015038885  0.013600123           83 
 4593000   0.51630143   -7.7036972    828.77309  0.015036887  0.013595785           72 
 4594000   0.52602694   -7.7069734    827.28342  0.015006592  0.013591449           77 
 4595000   0.52361263   -7.7129838    826.38603  0.014987052  0.013587115           86 
 4596000   0.51786366   -7.7099629    827.95196  0.015012184  0.013582783          100 
 4597000    0.5143895   -7.7105367      827.253  0.014996247  0.013578455           84 
 4598000   0.51344834   -7.7164515     826.7964  0.014984711  0.013574125          126 
 4599000   0.52723887   -7.7257319    826.56532  0.014977265  0.013569795           94 
 4600000   0.52726389   -7.7229152    827.00704  0.014982012   0.01356547          157 
 4601000   0.52447285   -7.7174904    827.50041  0.014987691  0.013561146           83 
 4602000   0.51480626   -7.7194844    826.96401  0.014974721  0.013556825           75 
 4603000   0.51171441    -7.725599     827.4427  0.014980134  0.013552507           68 
 4604000   0.50999974   -7.7228851    826.95924   0.01496813  0.013548187           80 
 4605000   0.51718668   -7.7087876    827.40936  0.014973025   0.01354387           81 
 4606000   0.51029852     -7.70567    827.63499  0.014973856  0.013539554           79 
 4607000   0.51310819   -7.7283166    827.69737  0.014971735  0.013535242          161 
 4608000   0.51809669   -7.7094528    829.01072  0.014992237   0.01353093           89 
 4609000   0.51340004   -7.7288827    828.94426  0.014987782  0.013526626           83 
 4610000   0.52182109   -7.7064791    828.69878  0.014980094  0.013522318           82 
 4611000   0.52535296   -7.7050743    826.57112  0.014938392  0.013518019           82 
 4612000   0.50986726   -7.7164796    826.08935  0.014926448  0.013513715           87 
 4613000   0.51534744   -7.7215725    826.59756  0.014932393   0.01350941           84 
 4614000   0.51463978   -7.7115972    827.77202  0.014950369  0.013505109           80 
 4615000   0.50346166   -7.6988438    827.80231  0.014947676  0.013500808           87 
 4616000   0.51941157   -7.7282483    828.02276  0.014948418  0.013496509           90 
 4617000   0.49203649   -7.7146107    828.40001  0.014951989  0.013492209          195 
 4618000   0.51925463   -7.7232289    828.62206  0.014952758  0.013487912           81 
 4619000   0.51087563   -7.7131229    828.73825  0.014951617  0.013483618          101 
 4620000   0.50795043   -7.7045794    827.53291   0.01492664  0.013479326          176 
 4621000   0.50650965   -7.7186501    827.91422  0.014930286  0.013475037          101 
 4622000   0.50836847    -7.716929    828.50271  0.014937666  0.013470751          154 
 4623000   0.51636604   -7.7034949    827.47415  0.014915894  0.013466463           85 
 4624000   0.51227708   -7.6996803    827.70515  0.014916832  0.013462183          107 
 4625000   0.50452497   -7.6981142    827.07004  0.014902163  0.013457903          191 
 4626000   0.50831015   -7.7243746    827.31987  0.014903442   0.01345362           99 
 4627000   0.51099485   -7.7159216     828.4861  0.014921225   0.01344934          192 
 4628000   0.50791252   -7.6921663    827.14937  0.014893931  0.013445065          171 
 4629000   0.51799052   -7.7163491    827.39968   0.01489522   0.01344079          111 
 4630000   0.51320026   -7.7206581    828.55976  0.014912883  0.013436516          143 
 4631000   0.51195603   -7.7199101    827.45522  0.014889787  0.013432244           78 
 4632000    0.5072797   -7.7236249    828.84846  0.014911637  0.013427973          122 
 4633000   0.50758498   -7.7153699    827.13632  0.014877623  0.013423705           71 
 4634000   0.50780562   -7.7172368     827.8197  0.014886701  0.013419436          180 
 4635000   0.52116817   -7.7236584     826.7414  0.014864103  0.013415169           91 
 4636000   0.50978597   -7.7115501    827.15149  0.014868268    0.0134109           61 
 4637000   0.51210127   -7.7195406    827.51601  0.014871613  0.013406637           81 
 4638000   0.50127274    -7.720156     827.6191  0.014870258  0.013402377           97 
 4639000   0.49853454   -7.7275415    829.06807  0.014893082   0.01339812           65 
 4640000   0.49954539   -7.7247127     827.5821  0.014863184  0.013393861           95 
 4641000   0.50951696   -7.7086022    826.73261  0.014844728  0.013389604           91 
 4642000   0.49519791   -7.7387374    828.22219  0.014868271  0.013385344          173 
 4643000   0.51283006   -7.7203408    827.16372  0.014846072  0.013381091          194 
 4644000   0.49590232   -7.7234923    827.18131   0.01484319  0.013376832          174 
 4645000   0.50378823   -7.7177765    826.78035  0.014832801  0.013372581           85 
 4646000   0.50211117   -7.7281642    827.31155  0.014839137  0.013368327           92 
 4647000   0.50225483   -7.7234056    826.93274   0.01482915  0.013364076          152 
 4648000   0.50435379   -7.7352433    827.17506  0.014830304  0.013359829          173 
 4649000   0.51901584   -7.7282773    825.81802  0.014802789  0.013355585           87 
 4650000   0.50048664   -7.7334925    827.21191  0.014824586  0.013351337          215 
 4651000   0.50943262   -7.7354185    828.40597  0.014842793   0.01334709          121 
 4652000   0.49938057   -7.7290465    827.80396  0.014828818   0.01334284          201 
 4653000   0.50711002   -7.7280608      827.279   0.01481623  0.013338594           85 
 4654000   0.50788359   -7.7433489    826.80376  0.014804537  0.013334348          169 
 4655000   0.50753485   -7.7432541    827.91446   0.01482124  0.013330107          161 
 4656000   0.50097107   -7.7167416    826.89105   0.01479974  0.013325868          110 
 4657000    0.4971587   -7.7207793      825.992  0.014780474  0.013321628           90 
 4658000   0.49520794   -7.7366203    826.72956  0.014790496  0.013317391          107 
 4659000   0.49772156   -7.7332602    827.50318  0.014801159  0.013313153          194 
 4660000   0.51137788   -7.7442014    827.35328  0.014795302  0.013308919          172 
 4661000   0.50990093   -7.7226336    826.24484   0.01477231  0.013304683          112 
 4662000   0.49822784   -7.7342187    826.68599  0.014777027  0.013300451           93 
 4663000    0.5088148   -7.7273768     827.3367  0.014785487  0.013296219          201 
 4664000   0.50703797   -7.7324244    827.26995  0.014781124   0.01329199          234 
 4665000   0.49960261   -7.7398569    827.19885  0.014776685  0.013287763           77 
 4666000   0.50011358   -7.7495448    827.09509  0.014771665  0.013283539          197 
 4667000   0.49970974   -7.7422052    826.51706  0.014758179  0.013279314          189 
 4668000   0.50252122   -7.7288405    826.68819  0.014758073   0.01327509          144 
 4669000   0.50545171   -7.7332618    826.44045   0.01475049  0.013270867           99 
 4670000   0.50889658   -7.7420189    826.46948  0.014747849  0.013266649          161 
 4671000   0.51093969   -7.7529154    827.41555   0.01476157  0.013262431          142 
 4672000   0.51162732   -7.7183251     826.6132    0.0147441  0.013258214          117 
 4673000   0.51140223   -7.7411361    827.90317  0.014763948     0.013254          232 
 4674000   0.51737577    -7.733892    827.80112   0.01475897  0.013249789          101 
 4675000   0.49824774   -7.7291957    825.45666  0.014714023  0.013245583          124 
 4676000    0.5068178   -7.7386657    826.71141  0.014733237  0.013241376          182 
 4677000   0.51255831   -7.7344016    827.10936  0.014737178   0.01323717          139 
 4678000   0.50350578   -7.7297469    826.28902  0.014719414  0.013232962           98 
 4679000   0.50454102   -7.7449326    826.94854  0.014728014  0.013228759           72 
 4680000    0.5126107   -7.7518996    827.71251  0.014738471  0.013224557          115 
 4681000   0.49869637   -7.7453658    828.46804  0.014748772  0.013220362          127 
 4682000   0.50438214   -7.7453521    828.08213  0.014738753   0.01321616           70 
 4683000   0.49671421   -7.7397739    825.90673  0.014696895  0.013211964           80 
 4684000   0.48716801    -7.729749     826.0979  0.014697159  0.013207773           79 
 4685000   0.50498309   -7.7428314    827.64432  0.014721528  0.013203581          162 
 4686000   0.50169597   -7.7476523     827.3287  0.014712774  0.013199386          212 
 4687000   0.50822899    -7.739289    826.57909  0.014696307  0.013195189           93 
 4688000   0.50583686   -7.7542354     825.9432  0.014681869  0.013190997           80 
 4689000   0.49236912   -7.7230219     826.5427  0.014689392  0.013186809          194 
 4690000   0.50039514   -7.7414674    827.31782  0.014700032  0.013182621          111 
 4691000   0.49545761   -7.7403328     826.7728  0.014687217  0.013178438          164 
 4692000   0.50398417   -7.7388472    826.22577  0.014674371  0.013174257          104 
 4693000   0.50204037    -7.736826    826.73977  0.014680371  0.013170076          158 
 4694000   0.49479109    -7.749876    827.32529  0.014687638  0.013165896          204 
 4695000   0.50335547   -7.7372354     827.1144  0.014680767  0.013161719          117 
 4696000   0.48716315   -7.7362279    827.09975  0.014677381  0.013157543          209 
 4697000   0.51113107   -7.7450724    827.40261  0.014679629  0.013153366           91 
 4698000   0.49924972   -7.7473131    826.37188  0.014658221  0.013149195           78 
 4699000   0.49814814   -7.7557729    826.45454  0.014656568  0.013145027           70 
 4700000   0.51293265    -7.762784    826.19232    0.0146488  0.013140856           91 
 4701000   0.51008887   -7.7466808    826.60199  0.014652946  0.013136688          102 
 4702000    0.5124931   -7.7476478    827.07035   0.01465813  0.013132523          101 
 4703000   0.49283366   -7.7314761    826.57797  0.014646289  0.013128358          151 
 4704000     0.497983    -7.749735    826.16674   0.01463589  0.013124195           58 
 4705000   0.49506686   -7.7317509    825.94074  0.014628777  0.013120032          114 
 4706000   0.50622437   -7.7588264    826.51727  0.014635877  0.013115875          109 
 4707000   0.48941382   -7.7458842    827.70748   0.01465384  0.013111717          162 
 4708000   0.49151835    -7.749295    826.64833   0.01463198  0.013107564           74 
 4709000   0.50352313   -7.7381438    827.53901  0.014644635   0.01310341          105 
 4710000   0.49566395   -7.7405511    827.20926  0.014635691  0.013099255          175 
 4711000   0.50482143    -7.746916    826.85862  0.014626382  0.013095106          116 
 4712000   0.52004332   -7.7381933    825.88947  0.014606138  0.013090957          150 
 4713000   0.49981288   -7.7332256    827.09379  0.014624333  0.013086809           97 
 4714000   0.49305754   -7.7384604    826.62832  0.014613002  0.013082664          205 
 4715000   0.49531047   -7.7547784    826.17649  0.014601918  0.013078522          127 
 4716000   0.49946112   -7.7509171    826.31094  0.014601197  0.013074374           91 
 4717000   0.50571203   -7.7381023    825.81622  0.014589362  0.013070234          187 
 4718000   0.50475415   -7.7528042    827.18192  0.014610391  0.013066096           84 
 4719000   0.50024258   -7.7426263    826.74575  0.014599593  0.013061955           84 
 4720000   0.49632461   -7.7294127    827.12968  0.014603278  0.013057816          135 
 4721000   0.50158274   -7.7588591    826.02345  0.014580658  0.013053677          114 
 4722000   0.49639187   -7.7355417     827.9302   0.01461122  0.013049544          110 
 4723000   0.48977917   -7.7565662    824.80174  0.014552928  0.013045408          207 
 4724000   0.49280033   -7.7417323    826.97041  0.014588104  0.013041275          128 
 4725000   0.49457234   -7.7571999    826.93799  0.014584444  0.013037146          135 
 4726000    0.4958217   -7.7571667    825.53747  0.014556663   0.01303302           60 
 4727000   0.48956239    -7.756003    825.13249  0.014546444  0.013028886           86 
 4728000    0.4964274   -7.7530042    825.90785  0.014557033  0.013024758          222 
 4729000   0.49494953   -7.7464217    827.01064  0.014573388  0.013020634          213 
 4730000   0.48037114   -7.7542174    826.83608  0.014567232  0.013016514          173 
 4731000   0.49449304    -7.738733    826.63003  0.014560523  0.013012393          183 
 4732000   0.49440535   -7.7555358    826.41057  0.014553581  0.013008271          117 
 4733000   0.49526843   -7.7553116    826.16406  0.014546166  0.013004153          177 
 4734000   0.49326409   -7.7389153    827.42215   0.01456524  0.013000038           91 
 4735000   0.49045017   -7.7616694    825.66835  0.014531298  0.012995922          120 
 4736000   0.49597737   -7.7528755    827.13288  0.014553999  0.012991807          116 
 4737000   0.50281054   -7.7455756      827.076  0.014549926  0.012987694           91 
 4738000   0.47934716   -7.7534593    826.57164  0.014537984  0.012983582          133 
 4739000   0.49911801    -7.769569    825.85822  0.014522372  0.012979469           82 
 4740000   0.49283375   -7.7512725     826.6514  0.014533252  0.012975364           79 
 4741000   0.49784577   -7.7376866    825.93695  0.014517629  0.012971256          122 
 4742000   0.49809146   -7.7440109    826.36612   0.01452211   0.01296715           65 
 4743000     0.485657    -7.778971    827.07212  0.014531452   0.01296304          218 
 4744000   0.49264839   -7.7552586    825.17814  0.014495119  0.012958935           94 
 4745000   0.48530099   -7.7505723    824.95954  0.014488225  0.012954832           70 
 4746000   0.50006685   -7.7468123    826.48661  0.014511986   0.01295073          175 
 4747000   0.49959711   -7.7451818    826.52505  0.014509603  0.012946632          138 
 4748000   0.50652852   -7.7524043     826.3903  0.014504183  0.012942535          165 
 4749000   0.50257102   -7.7818525    825.00654  0.014476847  0.012938438          203 
 4750000     0.496794   -7.7404034    826.18424   0.01449446  0.012934342          102 
 4751000   0.48825424   -7.7643682    826.29609  0.014493371   0.01293025          107 
 4752000   0.49455009   -7.7548901    825.47793  0.014475974  0.012926157          253 
 4753000   0.49839808   -7.7659416    826.20717  0.014485714  0.012922068          264 
 4754000   0.49600059    -7.751589    826.51995  0.014488149   0.01291798           84 
 4755000   0.49497269    -7.760035    825.98241  0.014475682  0.012913891          156 
 4756000   0.48860849   -7.7715395    826.15129  0.014475597  0.012909806           97 
 4757000    0.5011099   -7.7585664    824.85413  0.014449831  0.012905725          112 
 4758000   0.48996148   -7.7458023     827.0635  0.014485489   0.01290164           86 
 4759000   0.48394259   -7.7562047    827.99331  0.014498727  0.012897558          189 
 4760000   0.48189666   -7.7696946    826.26768  0.014465471  0.012893476          121 
 4761000   0.49064434   -7.7547054    826.78347   0.01447146  0.012889396          130 
 4762000   0.49660838   -7.7673471    826.00843  0.014454858  0.012885316          100 
 4763000   0.48176868   -7.7434471    825.83539  0.014448796  0.012881238          184 
 4764000   0.49041625   -7.7597922    825.90085  0.014446908  0.012877164          115 
 4765000   0.48728356   -7.7558782    824.89544  0.014426293   0.01287309          105 
 4766000   0.48971959   -7.7408653    826.15982  0.014445374   0.01286902          103 
 4767000   0.49272584   -7.7535175    826.42341  0.014446951  0.012864948          105 
 4768000    0.4875149   -7.7602033    825.91865  0.014435099  0.012860879          106 
 4769000   0.47851914   -7.7737758    825.65897  0.014427535  0.012856815           97 
 4770000   0.49730602    -7.750736    825.71236  0.014425443  0.012852752           75 
 4771000   0.49419297   -7.7516158    826.35781  0.014433693  0.012848687          181 
 4772000   0.48627579    -7.754808    825.39595  0.014413872  0.012844627           98 
 4773000   0.50281099   -7.7590246    825.53036  0.014413199  0.012840564          210 
 4774000   0.48964714   -7.7863993    826.27068  0.014423102  0.012836508           95 
 4775000   0.48657946   -7.7649478    826.23823  0.014419515  0.012832452          130 
 4776000   0.48773009   -7.7633004    826.03187  0.014412896  0.012828398           88 
 4777000   0.48385883   -7.7659235    827.15438   0.01442946  0.012824342          138 
 4778000   0.49077672   -7.7535258    825.55049  0.014398467  0.012820287          170 
 4779000   0.49173903   -7.7748735    827.77322  0.014434212  0.012816236           73 
 4780000    0.4871554    -7.762108    826.35195  0.014406415   0.01281219          177 
 4781000   0.48758745   -7.7670915    827.22431  0.014418607  0.012808142          163 
 4782000   0.49194141   -7.7656732    826.68154  0.014406133  0.012804102           89 
 4783000   0.48777462   -7.7694859     825.5125  0.014382753  0.012800059          137 
 4784000   0.48434764   -7.7637241    825.41431  0.014378036  0.012796019          108 
 4785000   0.49102759   -7.7730424    825.84243  0.014382487  0.012791979           66 
 4786000   0.48159616   -7.7679853    826.39406  0.014389087   0.01278794          103 
 4787000   0.48033504   -7.7673202    827.07991  0.014398021  0.012783904           76 
 4788000   0.49196595   -7.7452877    825.21973  0.014362638  0.012779868          124 
 4789000   0.48813061   -7.7707847    826.61164   0.01438386  0.012775837          179 
 4790000   0.49143751   -7.7806239    826.55291  0.014379835  0.012771803          118 
 4791000   0.49737357   -7.7641726    826.99171  0.014384466   0.01276777           86 
 4792000   0.48094913   -7.7646557    826.12487   0.01436639   0.01276374          167 
 4793000   0.48358865    -7.772478    824.72797  0.014339105  0.012759712           67 
 4794000   0.48752484   -7.7627779     827.1383  0.014378012  0.012755685          107 
 4795000   0.48001523   -7.7719816    826.34488  0.014361225  0.012751657          259 
 4796000    0.4912198   -7.7579022    825.09213  0.014336463  0.012747631           90 
 4797000     0.493342   -7.7802624    825.87545  0.014347082  0.012743607          115 
 4798000   0.49478832   -7.7815602    826.24809  0.014350564  0.012739587          189 
 4799000    0.4828082   -7.7655546    826.19478  0.014346648  0.012735567          303 
 4800000    0.4907972   -7.7740697     826.6647  0.014351818  0.012731546          189 
 4801000   0.47810349   -7.7706863    826.56168   0.01434704  0.012727527           89 
 4802000   0.47228828    -7.774296    826.01183  0.014334511  0.012723511          124 
 4803000   0.49593315    -7.760414     826.8935  0.014346823  0.012719499          147 
 4804000    0.4726673   -7.7426198    826.26523  0.014332938  0.012715491           76 
 4805000   0.48499623   -7.7619858    827.63255  0.014353669  0.012711482          103 
 4806000   0.48469542   -7.7587841    825.49855   0.01431368  0.012707474          165 
 4807000   0.47331962   -7.7681747    825.75522  0.014315152  0.012703466          114 
 4808000    0.4761268   -7.7659639    825.94026  0.014315382  0.012699459           85 
 4809000   0.48432875    -7.773268    826.73208  0.014326126  0.012695458          148 
 4810000   0.48011759   -7.7755261    825.67974  0.014304916  0.012691456          207 
 4811000   0.48539847   -7.7738666    826.22786  0.014311437  0.012687458          110 
 4812000   0.48424088   -7.7695162     824.9794  0.014286842   0.01268346          203 
 4813000   0.47499464   -7.7724887    825.26961  0.014288898  0.012679462          148 
 4814000   0.48714504   -7.7771403    824.79515  0.014277717  0.012675469          127 
 4815000   0.48252916   -7.7457423    826.68496  0.014307459  0.012671478          164 
 4816000    0.4761809   -7.7825277    824.84416  0.014272636  0.012667489          216 
 4817000   0.48066036   -7.7583218    825.70156  0.014284505  0.012663498          106 
 4818000   0.48384794    -7.777104    826.07515  0.014288003  0.012659505           78 
 4819000   0.48210182      -7.7763     825.2654  0.014271035  0.012655515          103 
 4820000   0.47933753   -7.7562079    824.89705  0.014261706  0.012651525           84 
 4821000   0.47456633   -7.7695066    824.96365  0.014259899  0.012647534          115 
 4822000   0.49222176   -7.7784036     825.8933  0.014273007  0.012643546          179 
 4823000   0.47932877   -7.7724257    826.18518  0.014275091  0.012639557          148 
 4824000   0.48266675   -7.7762931    825.13426  0.014253978  0.012635574          193 
 4825000   0.48132765   -7.7758818    826.70776    0.0142782  0.012631589          186 
 4826000   0.47539321    -7.796051    825.64569  0.014256902  0.012627603          136 
 4827000   0.48121833   -7.7739478    825.78899  0.014256422  0.012623625          180 
 4828000   0.48043832    -7.774616    826.95067   0.01427352  0.012619644          136 
 4829000   0.46088916   -7.7937342    825.87657  0.014252029  0.012615665          114 
 4830000   0.48209115   -7.7732404    824.13833  0.014219088  0.012611685          158 
 4831000   0.47476471   -7.7743505    824.47872  0.014222016  0.012607704          223 
 4832000   0.47603749   -7.7815672    824.73482   0.01422349  0.012603734          112 
 4833000    0.4791165   -7.7826177    824.93119  0.014223932  0.012599761           88 
 4834000   0.47128073   -7.7789744    825.59942   0.01423251  0.012595789          100 
 4835000    0.4746762   -7.7681847    825.74772  0.014232122  0.012591821           66 
 4836000   0.47601167   -7.7821782    825.31624  0.014221744  0.012587854           74 
 4837000   0.47883756    -7.783449    825.25258  0.014217707  0.012583885          191 
 4838000   0.48242822   -7.7900514    824.58638  0.014203293  0.012579916           88 
 4839000   0.47144001   -7.7847764    824.32471  0.014195852  0.012575951          145 
 4840000   0.47917315   -7.7824043    824.49734  0.014195891  0.012571989          106 
 4841000   0.46674509   -7.7849332    825.95619  0.014218071  0.012568029           87 
 4842000   0.47500595   -7.7712746    825.63122  0.014209542  0.012564066          105 
 4843000   0.48081503    -7.775546    826.12938   0.01421518   0.01256011           98 
 4844000   0.47474624   -7.7952402    825.49335  0.014201303  0.012556152          125 
 4845000   0.47936125   -7.7756751    825.41842  0.014197083  0.012552199          104 
 4846000   0.47614965   -7.7711248    824.90778  0.014185373  0.012548244           79 
 4847000   0.47877078   -7.7926366     824.2412  0.014170985  0.012544289          107 
 4848000   0.47492857   -7.7809242    824.86816  0.014178839  0.012540339           85 
 4849000   0.46769502   -7.7787851    825.20902  0.014181773  0.012536392          108 
 4850000   0.48244777   -7.7794571    825.04023  0.014175949  0.012532444          172 
 4851000   0.47561406    -7.785573    823.69142  0.014149856    0.0125285          112 
 4852000   0.48261534   -7.7721685    826.11308  0.014188532  0.012524557          113 
 4853000   0.46817408   -7.7900203    825.85702  0.014181211  0.012520617           82 
 4854000   0.47922634   -7.7761462    825.02708  0.014164041  0.012516675           71 
 4855000   0.47596356   -7.7715708    825.20336   0.01416415  0.012512734           82 
 4856000   0.48035144   -7.7825589    824.64883  0.014151717  0.012508796          157 
 4857000   0.46933075   -7.7985584    824.53905  0.014146919  0.012504862          106 
 4858000   0.46829518   -7.7611545    825.21962  0.014155682  0.012500926           79 
 4859000   0.47177078   -7.7827458    825.30124  0.014154168  0.012496994           93 
 4860000   0.47430912   -7.7918758    825.64691  0.014157183  0.012493065          172 
 4861000   0.48351793   -7.7760708    824.75703  0.014139015  0.012489132          140 
 4862000   0.48384166   -7.7832112    824.90714   0.01413868  0.012485204           83 
 4863000   0.46925416   -7.8036156    825.12122  0.014139441  0.012481274           96 
 4864000    0.4710545   -7.7862536    826.07874  0.014152939  0.012477347           97 
 4865000   0.47403971    -7.789633     824.5781  0.014124325   0.01247342          177 
 4866000   0.46888552   -7.8047218    824.83166  0.014125765  0.012469497           96 
 4867000   0.46343844   -7.7674672    824.69471  0.014120518  0.012465572          158 
 4868000   0.48021983   -7.7877493    825.99584   0.01413989  0.012461651          155 
 4869000   0.47004364   -7.7708158    824.75624   0.01411577   0.01245773          148 
 4870000    0.4804226   -7.7931077    825.46303  0.014124966  0.012453813           90 
 4871000   0.47571384   -7.7742403    824.46772  0.014105039  0.012449895           77 
 4872000   0.46446133    -7.799581    824.01895  0.014094468  0.012445977          123 
 4873000   0.46771421   -7.8010069    823.75545  0.014087069  0.012442063          141 
 4874000   0.47113513   -7.7899555    824.60442  0.014098694  0.012438152          108 
 4875000   0.47435567   -7.7895973    824.68629  0.014097202  0.012434237           67 
 4876000    0.4640809   -7.7790391     825.6401  0.014110612  0.012430327           74 
 4877000    0.4646577   -7.8040577    825.74067  0.014109437  0.012426417          167 
 4878000   0.46816624   -7.8059873    824.55092  0.014086219  0.012422511           68 
 4879000   0.47856795   -7.7962749    824.47227  0.014081989  0.012418605           95 
 4880000    0.4720131   -7.7817452    825.62066  0.014098714  0.012414706           88 
 4881000   0.47421437   -7.7789589    824.27719  0.014072888  0.012410805           87 
 4882000   0.47603972   -7.7997738    826.03746  0.014100052  0.012406905           68 
 4883000   0.47141692   -7.7803427    826.03611  0.014097142  0.012403005           96 
 4884000   0.46553331   -7.8065045    823.05182  0.014043336  0.012399109          102 
 4885000   0.46049109   -7.7851329    824.56693  0.014066307   0.01239521          127 
 4886000   0.46561714   -7.7766996    825.28632  0.014075698  0.012391319           79 
 4887000   0.46420728   -7.7712801    825.82177  0.014081948  0.012387427           58 
 4888000   0.47314486   -7.7962109    825.27055   0.01406967  0.012383537          103 
 4889000   0.46581813   -7.7936136    824.09298   0.01404672  0.012379649          167 
 4890000   0.45660095   -7.7834986    824.29678  0.014047321   0.01237576           59 
 4891000    0.4630417   -7.7938559    824.94144  0.014055432  0.012371873           90 
 4892000   0.46528676   -7.7798691    824.84653  0.014050943  0.012367989          171 
 4893000   0.45640165   -7.7906277    824.37565  0.014040051  0.012364102          199 
 4894000   0.47647374   -7.7925522    824.86092  0.014045446   0.01236022           73 
 4895000   0.47345302   -7.7871789    824.77784  0.014041162  0.012356337           85 
 4896000   0.47137671    -7.800004    825.33653  0.014047803  0.012352456          132 
 4897000   0.46665091   -7.7869153    824.08911  0.014023707  0.012348577           82 
 4898000   0.46433798   -7.8000346    824.81911  0.014033264  0.012344702           99 
 4899000   0.47882017   -7.7804452    825.07052  0.014034676  0.012340829           68 
 4900000   0.46706176   -7.7859964    824.33568  0.014019314  0.012336955          148 
 4901000   0.47092126   -7.7847987    825.91256  0.014043266  0.012333082           75 
 4902000   0.46812552   -7.8041724    823.57018  0.014000581  0.012329213           93 
 4903000   0.47457518   -7.8087848    825.08377  0.014023451  0.012325342          112 
 4904000   0.47605149   -7.7998304    825.32086   0.01402462  0.012321476          145 
 4905000   0.46720851    -7.791766    824.48199  0.014007509   0.01231761          115 
 4906000   0.45769886   -7.8025369    824.62792  0.014007133  0.012313746           71 
 4907000    0.4646732   -7.8077394    825.47879  0.014018728  0.012309881           98 
 4908000   0.46561745   -7.8115013     824.1522  0.013993348   0.01230602          108 
 4909000   0.46058917    -7.791963    824.36274  0.013994071  0.012302159          171 
 4910000   0.46808175   -7.7843131    824.18485  0.013988202  0.012298301           93 
 4911000   0.46855862   -7.7791657    825.15551  0.014001824  0.012294442           80 
 4912000   0.47502976   -7.8007667    824.04179  0.013980079  0.012290585           95 
 4913000   0.46289658   -7.8115041    824.93291  0.013992349  0.012286733          175 
 4914000   0.46705133   -7.7917457    824.95897  0.013989943  0.012282882          106 
 4915000    0.4681971     -7.80237    824.71803  0.013983012  0.012279028           74 
 4916000   0.46585712   -7.8040577    824.46589  0.013975893  0.012275172           89 
 4917000   0.45813507   -7.7835757     823.8819  0.013963153  0.012271322           93 
 4918000   0.45024433   -7.7904014    823.82565  0.013959361  0.012267475          107 
 4919000   0.45966987   -7.8018898     824.1478  0.013961981  0.012263625           90 
 4920000   0.47437701   -7.8038313    825.26162  0.013978009  0.012259781           68 
 4921000   0.47446344    -7.798653    823.75478  0.013949651  0.012255933           92 
 4922000   0.45928833   -7.7892137    825.48962  0.013976189  0.012252087          187 
 4923000   0.46457042   -7.8007675    824.58649  0.013958062  0.012248247          179 
 4924000    0.4565859   -7.8091163     824.1368  0.013947617  0.012244401           67 
 4925000   0.45690169   -7.7839755    822.88258  0.013923563   0.01224056          105 
 4926000   0.46103583   -7.8161204    824.37484  0.013945981  0.012236718           78 
 4927000    0.4615027   -7.8034759    823.50856  0.013928499  0.012232879           81 
 4928000   0.46555032   -7.8076487    825.00916  0.013951048  0.012229046           99 
 4929000   0.46066435   -7.8062521    822.68217  0.013908875  0.012225212           93 
 4930000   0.46365787   -7.8014722    824.79963  0.013941846  0.012221382           66 
 4931000   0.45737996   -7.7911278    825.23874   0.01394644  0.012217551          133 
 4932000   0.46442492   -7.8079961    825.10285  0.013941316  0.012213723          101 
 4933000   0.45027797   -7.8023402    823.68552  0.013914547  0.012209895           57 
 4934000   0.45847321   -7.8082622    822.98176  0.013899841  0.012206066           70 
 4935000   0.45559067   -7.7879532    822.78167  0.013893645   0.01220224           67 
 4936000   0.45856749   -7.8124825    823.84422  0.013908769  0.012198418           82 
 4937000   0.45736899   -7.7935547    825.45351  0.013933116  0.012194593           75 
 4938000   0.46588257    -7.790991    823.17553  0.013891851  0.012190774           74 
 4939000   0.44483552   -7.7886065    824.46347  0.013910769  0.012186954           63 
 4940000   0.46245958   -7.8048129    824.51386  0.013908803  0.012183134          185 
 4941000   0.47498182   -7.8144266    824.82832  0.013911292  0.012179321          169 
 4942000    0.4592548   -7.8052393    824.14339  0.013896928  0.012175501          115 
 4943000   0.46499504   -7.7946392    825.26036  0.013912947   0.01217169           93 
 4944000   0.45891578   -7.8030354    823.67923  0.013883482  0.012167878           90 
 4945000   0.45754643   -7.8119537    823.69268  0.013880901  0.012164068          156 
 4946000   0.46584511    -7.797421    823.67194  0.013877745  0.012160256           79 
 4947000   0.46240361   -7.8060325    825.45064  0.013904903   0.01215645           62 
 4948000    0.4621822   -7.8206674    824.04181  0.013878365  0.012152642           51 
 4949000   0.45595313   -7.7940547    822.83662  0.013855267  0.012148838          147 
 4950000   0.45994477   -7.8153276    823.89493  0.013870285  0.012145032           81 
 4951000   0.44436743    -7.814137    824.50904   0.01387782  0.012141229          100 
 4952000    0.4505725   -7.8090666    824.50642  0.013874973  0.012137427          136 
 4953000     0.460596   -7.8193767    823.99554  0.013863577  0.012133626           58 
 4954000   0.44330658   -7.8166459     822.8732  0.013841899  0.012129825          129 
 4955000   0.45028466   -7.8000833    824.50293  0.013866514   0.01212603          162 
 4956000   0.46790245   -7.8096013    825.14227  0.013874467  0.012122233          161 
 4957000   0.46397867   -7.8095299    824.39617  0.013859125  0.012118441          143 
 4958000   0.46358814   -7.8138342    824.35069  0.013855565  0.012114647           81 
 4959000   0.46090954   -7.8128604    825.14122  0.013866055  0.012110857          173 
 4960000   0.45477981   -7.8038309    823.39612   0.01383394  0.012107064          108 
 4961000   0.46740161   -7.8119931    823.40949  0.013831376  0.012103275          186 
 4962000   0.46320469   -7.8084108    824.36015  0.013844555  0.012099486          116 
 4963000   0.44528422   -7.8049567    824.59181  0.013845655  0.012095703           76 
 4964000   0.46858703   -7.8081371    822.86345  0.013813851  0.012091921           66 
 4965000   0.46379361   -7.8130298    825.15287  0.013849494   0.01208814          143 
 4966000    0.4602274   -7.8140962     824.9342  0.013843036  0.012084359          191 
 4967000   0.45846596   -7.8030414    824.71595  0.013836587  0.012080581           85 
 4968000   0.45755958   -7.8042362    823.76062  0.013817778  0.012076804          169 
 4969000   0.45847383     -7.80137    823.95621  0.013818277  0.012073027           67 
 4970000   0.45417002   -7.7901612    824.09302   0.01381779  0.012069251          186 
 4971000   0.45911751   -7.8156655    826.00452  0.013847055  0.012065478           79 
 4972000   0.45423805   -7.8109441    824.32957  0.013816197  0.012061706          178 
 4973000   0.45171749   -7.8102839    823.95103  0.013807075  0.012057937          109 
 4974000   0.45601224   -7.8166294    824.47087  0.013813009  0.012054166          161 
 4975000   0.45523164   -7.8076255    824.81199  0.013815946  0.012050399           90 
 4976000   0.45668104   -7.8159582    822.95612  0.013782089  0.012046632          183 
 4977000    0.4590722   -7.8205977    823.37856  0.013786393  0.012042867           90 
 4978000   0.46425966   -7.8080854    823.59481  0.013787244  0.012039105          148 
 4979000   0.45985718   -7.8021809    824.56524  0.013800717  0.012035344           62 
 4980000   0.45416456   -7.8302912    824.71404  0.013800436  0.012031585          143 
 4981000   0.45076683    -7.806868    824.31327   0.01379096  0.012027826          216 
 4982000   0.45623924   -7.8076635    823.75643  0.013778878  0.012024069           81 
 4983000   0.45891608   -7.8278351    822.95126  0.013762647  0.012020309           71 
 4984000   0.46123082   -7.8200527    823.52191  0.013769427  0.012016555          131 
 4985000   0.45587307   -7.8079905    822.88882  0.013756082  0.012012801           77 
 4986000   0.45189328   -7.8279876    825.20926  0.013792105   0.01200905          104 
 4987000   0.45122902   -7.8188773    823.04111   0.01375311  0.012005298          177 
 4988000   0.44251458   -7.8091715    823.68473  0.013761106  0.012001547           72 
 4989000   0.44002519   -7.8133404    823.74984  0.013759435    0.0119978           69 
 4990000   0.45630492   -7.8238878    823.14287  0.013746541  0.011994051          145 
 4991000   0.45041058   -7.8156308    823.13938  0.013743728  0.011990308           84 
 4992000    0.4492551   -7.8030097    824.67831  0.013766665  0.011986565          154 
 4993000   0.45112467   -7.8125968    823.85893  0.013750233  0.011982822          112 
 4994000   0.46140742   -7.8174238    824.29877  0.013754819  0.011979083           76 
 4995000   0.45205948   -7.8051422    824.41057   0.01375393  0.011975345           98 
 4996000   0.45527536   -7.8269509    823.17677  0.013730597  0.011971608          158 
 4997000   0.44318783   -7.8117345    822.72057  0.013720242  0.011967872           75 
 4998000   0.44111533   -7.8163046     823.6866  0.013733603  0.011964137           71 
 4999000   0.45096453   -7.8122034    822.84653  0.013716852  0.011960401           70 
 5000000   0.44059063   -7.8276256    825.05757  0.013750959  0.011956671           57 
 5001000   0.45772464   -7.8076574    823.20478  0.013717336   0.01195294           55 
 5002000   0.45021472   -7.8287608    823.03539  0.013711772   0.01194921          103 
 5003000   0.44411799   -7.8133235    823.60803  0.013718569  0.011945482           78 
 5004000   0.46089372   -7.8089126    823.72945   0.01371785  0.011941756           90 
 5005000   0.44630157   -7.8251097    824.30417  0.013724678  0.011938033           65 
 5006000   0.45035088   -7.8177323    822.83366  0.013697457  0.011934308          102 
 5007000   0.44918937    -7.834172    823.12861  0.013699631  0.011930587           73 
 5008000   0.45563629   -7.8114533    823.59979  0.013704736  0.011926866          160 
 5009000   0.45122748   -7.8063648    823.59341  0.013701893  0.011923149           99 
 5010000   0.45552783    -7.824378    823.30958  0.013694438  0.011919432          190 
 5011000   0.45557329   -7.8161053     822.7388  0.013682213  0.011915718          153 
 5012000    0.4451383   -7.8283311    824.74333  0.013712811  0.011912005          175 
Loop time of 11101.9 on 48 procs for 5000000 steps with 4000 atoms

Performance: 77824.302 tau/day, 450.372 timesteps/s
99.4% CPU use with 48 MPI tasks x no OpenMP threads

MPI task timing breakdown:
Section |  min time  |  avg time  |  max time  |%varavg| %total
---------------------------------------------------------------
Pair    | 694.56     | 716.72     | 742.17     |  46.4 |  6.46
Neigh   | 68.02      | 69.664     | 71.676     |   8.8 |  0.63
Comm    | 625.5      | 668.79     | 726.16     |  92.4 |  6.02
Output  | 13.742     | 13.746     | 13.829     |   0.3 |  0.12
Modify  | 9398       | 9494.6     | 9551       |  44.8 | 85.52
Other   |            | 138.4      |            |       |  1.25

Nlocal:        83.3333 ave          93 max          76 min
Histogram: 4 4 8 6 9 5 3 8 0 1
Nghost:        1819.96 ave        1851 max        1792 min
Histogram: 2 2 3 7 14 10 4 4 1 1
Neighs:        11250.4 ave       12952 max        9922 min
Histogram: 2 5 10 7 6 5 6 2 4 1
FullNghs:      22500.3 ave       25628 max       20425 min
Histogram: 4 4 11 6 8 3 9 2 0 1

Total # of neighbors = 1080015
Ave neighs/atom = 270.00375
Neighbor list builds = 269348
Dangerous builds = 1

#clear
#
#next RN
#
#jump SELF
Total wall time: 3:05:05
