
units lj                  # Use reduced LJ style units
atom_style atomic         # Uncharged point particles
atom_modify map hash      # Needed for indexing of clusters etc
                          # Used to be able to find where atoms are in relation to each other.

lattice fcc 1.0 spacing 1 1 1
Lattice spacing in x,y,z = 1.5874011 1.5874011 1.5874011
region box block 0 10 0 10 0 10 units lattice
create_box 2 box
Created orthogonal box = (0.0000000 0.0000000 0.0000000) to (15.874011 15.874011 15.874011)
  3 by 4 by 4 MPI processor grid
create_atoms 1 box
Created 4000 atoms
  using lattice units in orthogonal box = (0.0000000 0.0000000 0.0000000) to (15.874011 15.874011 15.874011)
  create_atoms CPU = 0.002 seconds
set type 1 type/fraction 2 0.23 78393
Setting atom values ...
  954 settings made for type/fraction
mass 1 1.0
mass 2 1.0
pair_style lj/cut  3.5
pair_modify tail  yes
pair_coeff 1  1  1.0  1.0   # Intearaction between 1 and 1 set with epsilon = 1 and sigma = 1
pair_coeff 1  2  1.5  0.8
pair_coeff 2  2  0.5  0.88

write_data data.0
System init for write_data ...
Neighbor list info ...
  update every 1 steps, delay 10 steps, check yes
  max neighbors/atom: 2000, page size: 100000
  master list distance cutoff = 3.8
  ghost atom cutoff = 3.8
  binsize = 1.9, bins = 9 9 9
  1 neighbor lists, perpetual/occasional/extra = 1 0 0
  (1) pair lj/cut, perpetual
      attributes: half, newton on
      pair build: half/bin/atomonly/newton
      stencil: half/bin/3d
      bin: standard
WARNING: Not all mixed pair coeffs generated from mixing. Use write_data with 'pair ij' option to store all pair coeffs. (../write_data.cpp:312)


#############################
#   M E L T   S Y S T E M   #
#############################

velocity all create 2.4 2750902 mom yes dist gaussian # Assign velocities
                                                    # Temperature 2.4, random number seed, zero linear momentum
                                                                                # Gaussian distribution

timestep 0.002   # simulation timestep
thermo 1000       # output thermodynamic data every 1000 steps bf 100

# Define a fix  in this case with index 1 applied to all
# particles in the simulation. This fix is for simulations
# in the anisotropic NPT ensemble. Note that we use the MTK
# correction.
fix 1 all npt temp 2.4 2.4 0.1 iso 5.68 5.68 0.5 mtk yes tchain 5 pchain 5 # Use NPT ensemble
                                                                         # Set temperature and pressure and damping
                                                                         # Numbers of thermostats in chain and in barostat
run 10000          # run for 10000 steps
Per MPI rank memory allocation (min/avg/max) = 3.642 | 3.644 | 3.648 Mbytes
Step Temp E_pair E_mol TotEng Press Volume 
       0          2.4   -6.8530311            0   -3.2539311   -3.7471165         4000 
    1000    2.4156298   -4.8978902            0   -1.2753514    5.5960473    4376.4779 
    2000    2.3330499   -4.9343632            0   -1.4356633    5.2313156    4385.7747 
    3000    2.3629403   -4.8498342            0   -1.3063098    5.6750609    4383.0078 
    4000    2.3861676   -4.8873856            0    -1.309029    5.6101392    4376.7217 
    5000    2.3661642   -4.8596004            0   -1.3112414    6.0084534    4348.4558 
    6000    2.3927786   -4.9142471            0   -1.3259765     5.782499    4347.9356 
    7000    2.4009887   -4.9637751            0   -1.3631925    5.5453093    4342.8511 
    8000    2.4049095   -4.8546227            0   -1.2481603    5.6481898    4387.0659 
    9000    2.4044001   -4.9115237            0   -1.3058252    5.7390378    4359.2027 
   10000    2.4269201   -4.8720167            0   -1.2325467    5.4139461    4409.7436 
Loop time of 2.35236 on 48 procs for 10000 steps with 4000 atoms

Performance: 734581.876 tau/day, 4251.053 timesteps/s
99.6% CPU use with 48 MPI tasks x no OpenMP threads

MPI task timing breakdown:
Section |  min time  |  avg time  |  max time  |%varavg| %total
---------------------------------------------------------------
Pair    | 0.98317    | 1.061      | 1.1715     |   3.8 | 45.10
Neigh   | 0.20033    | 0.20771    | 0.2291     |   1.5 |  8.83
Comm    | 0.66602    | 0.81652    | 0.8913     |   5.4 | 34.71
Output  | 0.00023591 | 0.00024233 | 0.00030331 |   0.0 |  0.01
Modify  | 0.20918    | 0.2522     | 0.2884     |   3.9 | 10.72
Other   |            | 0.01469    |            |       |  0.62

Nlocal:        83.3333 ave          94 max          75 min
Histogram: 3 4 5 7 8 11 6 3 0 1
Nghost:        1537.17 ave        1569 max        1498 min
Histogram: 2 2 3 3 7 10 8 6 4 3
Neighs:        8652.25 ave        9888 max        7654 min
Histogram: 6 3 6 2 9 7 9 3 2 1

Total # of neighbors = 415308
Ave neighs/atom = 103.82700
Neighbor list builds = 904
Dangerous builds = 196

# Equilibrate just above the melting temperature to avoid step fn in T

fix 1 all npt temp 1.25 1.25 0.1 iso 5.68 5.68 0.5 mtk yes tchain 5 pchain 5
run 2000
Per MPI rank memory allocation (min/avg/max) = 3.643 | 3.645 | 3.649 Mbytes
Step Temp E_pair E_mol TotEng Press Volume 
   10000    2.4269201   -4.8720167            0   -1.2325467    5.4139461    4409.7436 
   11000    1.2458854    -6.632294            0    -4.763933    5.6079301     3560.622 
   12000    1.2402368   -6.6546125            0   -4.7947223    5.8056948    3543.3092 
Loop time of 0.526222 on 48 procs for 2000 steps with 4000 atoms

Performance: 656757.462 tau/day, 3800.680 timesteps/s
99.6% CPU use with 48 MPI tasks x no OpenMP threads

MPI task timing breakdown:
Section |  min time  |  avg time  |  max time  |%varavg| %total
---------------------------------------------------------------
Pair    | 0.23447    | 0.25223    | 0.28017    |   2.1 | 47.93
Neigh   | 0.032799   | 0.034967   | 0.037874   |   0.6 |  6.64
Comm    | 0.14985    | 0.17927    | 0.20455    |   2.8 | 34.07
Output  | 5.6121e-05 | 5.7672e-05 | 6.9654e-05 |   0.0 |  0.01
Modify  | 0.04708    | 0.055073   | 0.064696   |   2.1 | 10.47
Other   |            | 0.004623   |            |       |  0.88

Nlocal:        83.3333 ave          94 max          70 min
Histogram: 1 0 4 2 9 12 9 7 3 1
Nghost:        1782.73 ave        1809 max        1755 min
Histogram: 3 4 3 4 9 7 6 4 5 3
Neighs:        10779.0 ave       11926 max        8964 min
Histogram: 1 0 3 4 8 7 8 7 3 7

Total # of neighbors = 517392
Ave neighs/atom = 129.34800
Neighbor list builds = 142
Dangerous builds = 12

#############################
# L I N E A R  Q U E N C H  #
#############################

# Define solid atoms. This closely follows ten Wolde  Ruiz-Montero and Frenkel  Faraday Discuss  1996  104  93-110
# Compute components of the per-atom q6 vector
compute q6 all orientorder/atom degrees 1 6 components 6 nnn NULL cutoff 1.3 # compute the Q6 parameter.
                                                                             # Use all neighbours within 1.3 unit cell.

# get number of connections
compute coord_number all coord/atom orientorder q6 0.5

# An atom is solid if it has 8 or more connections (of a possible 14)
variable is_solid atom c_coord_number>=8
group solid dynamic all var is_solid    # Must be dynamic to update
dynamic group solid defined

# do clustering
compute cluster solid cluster/atom 1.3 # Create a cluster where all atoms within are solid and max 1.3 units from another member

# define chunks one chunk per cluster
compute clus_chunks solid chunk/atom c_cluster nchunk every compress yes  # Says which atoms are in which chunk

# count the size of each chunk
compute size_chunks solid property/chunk clus_chunks count


# Find the maximum entry in the vector of chunk sizes
variable max_n equal max(c_size_chunks)


# Thermo style which includes this variable
# thermo_style custom step temp pe vol v_max_n

thermo ${N}  # Print the thermo information every 100 steps
thermo 1000  

# Reset the npt fix at a lower temperature (below freezing)
fix 1  all npt temp  ${temp} ${temp}  0.1  iso  5.68  5.68  0.5  mtk yes tchain  5  pchain  5
fix 1  all npt temp  0.45 ${temp}  0.1  iso  5.68  5.68  0.5  mtk yes tchain  5  pchain  5
fix 1  all npt temp  0.45 0.45  0.1  iso  5.68  5.68  0.5  mtk yes tchain  5  pchain  5

dump dmp2 all dcd ${N} traj.dcd
dump dmp2 all dcd 1000 traj.dcd


compute msd all msd com yes
variable twopoint equal c_msd[4]/6/(step*dt+1.0e-6)
fix 9 all vector 10 c_msd[4]
variable fit equal slope(f_9)/6/(10*dt)
thermo_style custom step temp pe c_msd[4] v_twopoint v_fit v_max_n

fix 1 all npt temp 1.25 ${temp} 0.1 iso 5.68 5.68 0.5 mtk yes tchain 5 pchain 5
fix 1 all npt temp 1.25 0.45 0.1 iso 5.68 5.68 0.5 mtk yes tchain 5 pchain 5
run 2000000 # 5000000  # Run for this many steps
Neighbor list info ...
  update every 1 steps, delay 10 steps, check yes
  max neighbors/atom: 2000, page size: 100000
  master list distance cutoff = 3.8
  ghost atom cutoff = 3.8
  binsize = 1.9, bins = 9 9 9
  4 neighbor lists, perpetual/occasional/extra = 1 3 0
  (1) pair lj/cut, perpetual
      attributes: half, newton on
      pair build: half/bin/atomonly/newton
      stencil: half/bin/3d
      bin: standard
  (2) compute orientorder/atom, occasional
      attributes: full, newton on
      pair build: full/bin/atomonly
      stencil: full/bin/3d
      bin: standard
  (3) compute coord/atom, occasional
      attributes: full, newton on
      pair build: full/bin/atomonly
      stencil: full/bin/3d
      bin: standard
  (4) compute cluster/atom, occasional
      attributes: full, newton on
      pair build: full/bin/atomonly
      stencil: full/bin/3d
      bin: standard
Per MPI rank memory allocation (min/avg/max) = 9.782 | 9.788 | 9.794 Mbytes
Step Temp PotEng c_msd[4] v_twopoint v_fit v_max_n 
   12000    1.2402368   -6.6546125 1.114266e-30 7.7379582e-33 8.3333333e+20            3 
   13000    1.2509155   -6.6337543   0.53249243 0.0034134129  0.043059891            1 
   14000    1.2488448   -6.7096803    1.0259816 0.0061070332  0.042349852            2 
   15000    1.2359423   -6.6417407    1.5754115  0.008752286  0.043355966            2 
   16000    1.2336421   -6.6694051    2.0458048  0.010655233   0.04276714            3 
   17000    1.2545053   -6.6610847    2.5470671  0.012485623  0.042277897            1 
   18000    1.2574563   -6.6607434     3.047915  0.014110717  0.041994945            4 
   19000    1.2177426   -6.6773452     3.533162  0.015496324  0.042011074            2 
   20000    1.2642672   -6.6411708    4.0131877  0.016721615  0.041731937            3 
   21000    1.2622123   -6.6522732    4.4811044   0.01778216  0.041560875            2 
   22000    1.2481532   -6.6475789    4.9705227  0.018827737  0.041303366            1 
   23000    1.2657304   -6.6788274    5.4745093  0.019835178  0.041215303            1 
   24000     1.253453   -6.6510578    5.9671387  0.020719231  0.041085616            1 
   25000    1.2402687   -6.6766661    6.4917314  0.021639104  0.041039151            3 
   26000     1.271764   -6.7025159    6.9910009  0.022407054  0.041106245            3 
   27000    1.2583084   -6.7019501    7.5461044  0.023290445  0.041199059            2 
   28000    1.2598951   -6.6751947    8.0068495  0.023829909   0.04126373            2 
   29000    1.2546415   -6.6285593    8.5843205  0.024667587  0.041386982            2 
   30000    1.2393079   -6.6935594    9.0860529  0.025239035  0.041525595            1 
   31000    1.2486387   -6.7013139    9.6731326  0.026003044  0.041747935            2 
   32000    1.2415977   -6.6650109    10.290728  0.026798771  0.041976168            3 
   33000    1.2590896    -6.717124    10.809084  0.027295667  0.042162078            1 
   34000    1.2543462   -6.6603878    11.376762   0.02788422  0.042394677            2 
   35000    1.2252123   -6.7075456    11.881174   0.02828851  0.042563932            3 
   36000    1.2678175   -6.6878921    12.474195  0.028875451  0.042774776            1 
   37000    1.2475326   -6.6602886     13.02218  0.029329235  0.042955079            2 
   38000    1.2080058   -6.7068617    13.516182   0.02964075  0.043106861            6 
   39000    1.2554721   -6.7066103    14.036529  0.029992582  0.043223457            2 
   40000    1.2208685   -6.7180646    14.554312  0.030321483  0.043331575            3 
   41000    1.2552552   -6.7192825    14.973174  0.030433279  0.043369262            1 
   42000    1.2121357   -6.6574072     15.44557  0.030645972  0.043344098            2 
   43000    1.2340606   -6.6704878    15.954461  0.030919498  0.043323691            2 
   44000    1.2379597   -6.6892504    16.423605  0.031105313  0.043269888            1 
   45000     1.255442   -6.7055413    16.788991  0.031090725  0.043214739            2 
   46000    1.2486812   -6.6585359     17.30833  0.031355669  0.043116453            1 
   47000    1.2221234   -6.7021983     17.60403   0.03121282  0.043003889            3 
   48000    1.2053016   -6.6915291    18.131324  0.031477992  0.042863083            1 
   49000    1.2387599    -6.691524    18.501312  0.031464816  0.042723461            2 
   50000    1.2318356   -6.6946421    18.908541  0.031514234  0.042566341            3 
   51000    1.2672883   -6.6487415    19.332157  0.031588492  0.042388035            1 
   52000    1.2122385   -6.7246238    19.850909  0.031812354  0.042229696            2 
   53000    1.2406818    -6.702155     20.34302  0.031985881  0.042097656            1 
   54000    1.2252976   -6.6604506    20.860547  0.032192202  0.041985302            2 
   55000    1.2071616   -6.6706238    21.172577  0.032079662  0.041835391            3 
   56000    1.2110452   -6.6780056    21.614248   0.03216406  0.041692454            2 
   57000    1.2138598   -6.6956374    22.060984    0.0322529  0.041575025            1 
   58000    1.2448126   -6.7230783    22.509092  0.032340649  0.041450532            1 
   59000    1.2164455     -6.65378    23.168267   0.03272354  0.041354906            1 
   60000     1.227713   -6.7206144    23.643133  0.032837685  0.041284435            1 
   61000    1.2258961   -6.6999719    24.268206  0.033153287  0.041227277            2 
   62000    1.2362211   -6.7031301    24.598841  0.033062958   0.04117442            2 
   63000    1.2184604   -6.6839754    25.196941  0.033329287   0.04112012            2 
   64000    1.2302147   -6.6963023    25.426877  0.033107913  0.041055166            2 
   65000     1.211025   -6.6865211    25.911847  0.033220316  0.040979879            2 
   66000    1.2437599    -6.755329     26.42199  0.033361098  0.040908873            1 
   67000    1.2234575   -6.6760953    27.025036  0.033613229  0.040869416            1 
   68000    1.2110289   -6.6953369    27.422775  0.033606342  0.040824233            2 
   69000     1.229733   -6.6969164    27.855621  0.033642054  0.040777876            2 
   70000    1.2106342   -6.6692956      28.3406   0.03373881  0.040729304            2 
   71000    1.2229318   -6.6978365    28.852579  0.033864529  0.040698328            1 
   72000    1.2375598   -6.7163418    29.262843  0.033869032  0.040658727            1 
   73000    1.2044053   -6.7391732    29.632273  0.033826795  0.040613543            1 
   74000    1.2142171   -6.7122657    30.071679  0.033864503  0.040556506            1 
   75000    1.2407296   -6.6812991    30.389919  0.033766577  0.040482255            2 
   76000    1.2323512   -6.6840613    30.907008  0.033889262   0.04041459            3 
   77000    1.2030539   -6.7045145    31.429564   0.03401468  0.040350183            1 
   78000    1.2359867   -6.7074821    31.885863  0.034066093  0.040304436            3 
   79000    1.2279122   -6.7422619    32.356048  0.034130852  0.040250899            1 
   80000    1.1934891   -6.7067017    32.903573  0.034274555  0.040206523            2 
   81000    1.2460695   -6.7720571     33.09706  0.034050473  0.040154614            3 
   82000    1.2251099   -6.7380984    33.829512  0.034379585  0.040118625            1 
   83000    1.2316488   -6.7544946    34.356222  0.034494198  0.040085715            3 
   84000    1.2200212   -6.6812278    34.879886  0.034603062   0.04005808            1 
   85000    1.2294108   -6.7371039     35.42232  0.034727764  0.040033913            1 
   86000    1.2236036   -6.7672614    35.857768  0.034745899  0.040020258            1 
   87000    1.2251551   -6.7214342    36.431884   0.03489644  0.040010202            1 
   88000    1.2105947   -6.7072265    36.884568  0.034928568  0.040004022            1 
   89000    1.2464282   -6.7517453    37.224341  0.034854252  0.039991132            2 
   90000     1.214649   -6.7110646    37.682594  0.034891291  0.039972067            1 
   91000    1.2243938   -6.7453913    38.019045  0.034815975  0.039949448            4 
   92000    1.2086726   -6.7088166    38.468964  0.034845076  0.039928719            1 
   93000    1.2082879   -6.7222277    38.870728  0.034830401  0.039904376            3 
   94000    1.2060082   -6.7166386     39.29362  0.034834769  0.039868347            5 
   95000    1.2108211   -6.7650045    39.635491  0.034767974  0.039838486            4 
   96000    1.2502004   -6.7046526    40.481315   0.03514003  0.039816784            4 
   97000    1.1931386   -6.7179132    41.039234  0.035257074  0.039802773            1 
   98000    1.2185233   -6.7478525    41.302638  0.035121291  0.039785341            1 
   99000    1.2070053   -6.7341978    41.895098  0.035265234  0.039770369            2 
  100000    1.2133222   -6.6999615    42.308956  0.035257463  0.039756181            2 
  101000    1.2246794   -6.7029301    42.713083  0.035241818  0.039734832            1 
  102000    1.2172309   -6.7544182    43.066983  0.035185444  0.039711154            2 
  103000    1.2104971   -6.7526917    43.348645  0.035071719  0.039683196            1 
  104000     1.207062    -6.737116    44.024452  0.035276003  0.039660581            2 
  105000    1.2156948   -6.7204938    44.696268  0.035473229   0.03964498            2 
  106000    1.2330251   -6.7398516    45.179163   0.03551821  0.039638944            1 
  107000    1.1988594   -6.7711037    45.687763   0.03558237   0.03963889            3 
  108000    1.2119918    -6.704978    46.256697  0.035691896  0.039635416            1 
  109000    1.2220678   -6.7132234    46.508748  0.035557147  0.039623683            2 
  110000    1.2381493   -6.7817762    46.863593  0.035502722  0.039606039            1 
  111000    1.2237924   -6.7394831    47.371676  0.035564321  0.039584792            1 
  112000    1.1968731   -6.7374871    47.804298  0.035568674  0.039567438            1 
  113000    1.1998749   -6.7850545    48.373764  0.035673867   0.03955594            3 
  114000    1.2018853   -6.7216594    48.912254  0.035754571  0.039548191            1 
  115000    1.2087513   -6.7200718    49.409726  0.035804149  0.039543018            2 
  116000    1.2185298   -6.7784821    49.587328   0.03562308  0.039527737            2 
  117000    1.2269415   -6.7564273    49.975601  0.035595157  0.039506819            2 
  118000    1.2071787   -6.7288939     50.32331   0.03553906  0.039479364            3 
  119000    1.1771647   -6.7750161    50.562043  0.035407593  0.039450245            2 
  120000    1.2315239   -6.7424909    51.315061  0.035635459  0.039424737            1 
  121000    1.2008297   -6.7099569    51.911941  0.035752025  0.039405884            1 
  122000    1.2010336   -6.7692802     52.27588  0.035707568  0.039385518            2 
  123000    1.1848005   -6.7525074    52.792671  0.035767392   0.03936786            3 
  124000    1.2073647   -6.7070474    53.320808  0.035833876   0.03935077            4 
  125000    1.1870362   -6.7602825    53.675165  0.035783443  0.039337349            3 
  126000    1.2061378    -6.711613    54.178534  0.035832364  0.039323012            2 
  127000    1.1991957   -6.6964781    54.387059  0.035687046  0.039301175            2 
  128000    1.2026612   -6.7445526    54.735393  0.035635021  0.039276096            5 
  129000    1.2028129   -6.7911244    54.940714  0.035491417  0.039246871            1 
  130000    1.1931529    -6.718597     55.44805  0.035543621  0.039213769           10 
  131000    1.2184973   -6.7363036      56.1981  0.035749427  0.039184423            1 
  132000    1.2094584   -6.7611442    56.439111  0.035630752  0.039159077            1 
  133000    1.1973493   -6.7313222    56.867767  0.035631433  0.039132521            2 
  134000    1.1951578    -6.763716    57.200318  0.035572337  0.039102653            2 
  135000    1.1961243   -6.7558492    57.605315  0.035558836  0.039073374            2 
  136000     1.212865   -6.7809736    58.028309  0.035556562  0.039043848            1 
  137000    1.1628044   -6.7422286    58.583481   0.03563472  0.039013355            1 
  138000    1.1901822   -6.7613774    59.082684  0.035677949  0.038988298            2 
  139000    1.1948289   -6.7650142    59.594283  0.035727987  0.038966359            1 
  140000     1.208062   -6.7884457    59.916281  0.035664453  0.038942796            2 
  141000    1.2190133   -6.7868984    60.230119  0.035596997  0.038914186            2 
  142000    1.2094935    -6.776249    60.712718  0.035629529  0.038889677            2 
  143000    1.1981717   -6.7883195    61.145439   0.03563254  0.038864976            2 
  144000    1.2053308    -6.782473    61.731119  0.035724027  0.038842121            1 
  145000    1.1966332   -6.8206532    62.202705  0.035748681  0.038821292            1 
  146000    1.2084932    -6.790608     62.67311  0.035772323  0.038801527            2 
  147000    1.1901562   -6.7771498    63.185521  0.035819456   0.03878558            2 
  148000    1.2238584   -6.7399099    63.691474  0.035862316  0.038773117            2 
  149000    1.1898619   -6.7910887     64.22046  0.035917483  0.038758971            4 
  150000    1.1816965   -6.7471405    64.529395  0.035849664  0.038738924            4 
  151000    1.1952372   -6.7646936     64.74487  0.035731164  0.038715517            1 
  152000    1.1956328   -6.7117074    65.636209  0.035984763  0.038694713            1 
  153000    1.2310711   -6.7417002    65.691041  0.035779434  0.038675392            1 
  154000    1.2001829   -6.7589705    66.135085  0.035787384  0.038650975            3 
  155000    1.1987931   -6.7950657    66.210771  0.035597188  0.038624777            4 
  156000    1.1899066    -6.780271    67.134882  0.035862651  0.038606726            3 
  157000    1.1961996   -6.7736503    67.658278  0.035912037  0.038592164            1 
  158000    1.2010456   -6.7327915    68.148876    0.0359435  0.038576911            1 
  159000     1.199151   -6.8040863     68.35603  0.035826011  0.038566966            3 
  160000    1.1846852   -6.8081262    68.807102  0.035837032  0.038552365            2 
  161000    1.2074246   -6.7665147    69.499324  0.035972735   0.03853529            2 
  162000    1.1831925   -6.7571552    69.902257  0.035957951  0.038522157            3 
  163000    1.1693666   -6.8076727     70.50339  0.036044678  0.038510304            1 
  164000    1.1717638   -6.8053332    70.761056  0.035955821  0.038501339            4 
  165000    1.1802045   -6.7614712    71.651959  0.036187858  0.038493769            2 
  166000     1.195062   -6.7977468    71.743279  0.036015702  0.038486529            1 
  167000    1.1890657   -6.7607342    72.340999  0.036098303  0.038476945            1 
  168000    1.1953366   -6.7891511    72.661655  0.036042488  0.038465175            1 
  169000     1.188087   -6.8089664    73.155515  0.036072739  0.038452441            2 
  170000    1.1968812   -6.7302977    73.822305  0.036187404  0.038442193            3 
  171000    1.1931662   -6.7927749    73.963945  0.036044808  0.038430377            1 
  172000    1.1813612   -6.7824071    74.659035  0.036172013  0.038417843            3 
  173000    1.1643474    -6.818625    75.093011   0.03617197  0.038409436            1 
  174000    1.2104705   -6.7534203    75.586095  0.036200237  0.038403732            1 
  175000    1.1844822   -6.7651045    76.143046  0.036258593   0.03839877            1 
  176000    1.1663174   -6.8311771     76.24991  0.036103177  0.038389983            2 
  177000    1.1793824   -6.8118581    76.710448   0.03611603  0.038381783            1 
  178000    1.1891249   -6.7953337    77.490444  0.036278298  0.038376579            2 
  179000     1.171358   -6.7823616    77.816341  0.036227347  0.038371521            2 
  180000    1.2001942   -6.7934589    78.188906  0.036198567    0.0383659            1 
  181000    1.1857602   -6.8402329    78.837581  0.036297229  0.038357563            2 
  182000    1.1780139   -6.8234101    78.894124  0.036123683  0.038351489            1 
  183000    1.1561054   -6.8165842     79.64608  0.036268707  0.038342616            1 
  184000    1.1817346   -6.8021834    79.881363  0.036178154  0.038333207            2 
  185000    1.1848084   -6.8071566    80.425599  0.036227747  0.038326545            3 
  186000    1.1843605   -6.8021153    81.037449  0.036307101  0.038319311            2 
  187000    1.1802032    -6.810625    81.418775  0.036282876  0.038312725            4 
  188000    1.1591777   -6.7653081    82.093898  0.036389139  0.038307318            2 
  189000    1.1818198   -6.8154518    82.169052  0.036229741  0.038301566            2 
  190000    1.1802016   -6.7820888    82.824537  0.036326551  0.038294417            1 
  191000    1.1818945   -6.8156892    83.098627  0.036255945   0.03828726            1 
  192000    1.2028978   -6.7770096    83.448126  0.036218805  0.038280946            1 
  193000    1.1722924   -6.8135821    83.786868  0.036177404  0.038271861            2 
  194000    1.1939829   -6.7801955    83.978277  0.036073143  0.038260557            2 
  195000    1.1471444   -6.8069144    84.746025   0.03621625  0.038249601            1 
  196000    1.1615079    -6.803689    84.952502  0.036119261  0.038237515            1 
  197000    1.1887565   -6.8339349    85.000311  0.035956138   0.03822425            1 
  198000    1.1322183   -6.8136735    85.420345  0.035951324  0.038210543            2 
  199000    1.1700549   -6.8247063    86.091115  0.036051556  0.038195837            1 
  200000    1.1898141   -6.8091451    86.419939  0.036008308  0.038181869            2 
  201000    1.1666261   -6.8107796    86.868662    0.0360152  0.038168577            1 
  202000    1.1410561   -6.8056724    87.538342  0.036113177  0.038154092            3 
  203000    1.1442644   -6.8087454    87.869403  0.036071183  0.038141805            1 
  204000    1.1347956   -6.8043155    88.303881  0.036071847  0.038129071            4 
  205000    1.1827296   -6.8051761    88.760968  0.036081694  0.038114439            2 
  206000    1.1578477   -6.8184679    89.192247  0.036081006  0.038101069            2 
  207000    1.1901976    -6.791924    89.548545  0.036050139  0.038085774            2 
  208000    1.1837933   -6.7723959    90.201978  0.036138613  0.038073012            1 
  209000    1.1691562   -6.7567129    90.616918  0.036131147  0.038060744            2 
  210000    1.1856338    -6.832963    91.206721  0.036193143  0.038048682            3 
  211000    1.1964695   -6.8206849    91.432563  0.036110807  0.038036141            2 
  212000    1.1603824   -6.8154192    91.723588   0.03605487  0.038025597            2 
  213000    1.1541522   -6.8388263    92.652726   0.03624911  0.038015548            3 
  214000    1.1782326   -6.8250998    92.744359  0.036115405  0.038006062            2 
  215000    1.1781214    -6.825777    93.433796   0.03621465   0.03799342            2 
  216000    1.1833955   -6.7736277    93.740459    0.0361653  0.037982834            1 
  217000    1.1559114   -6.8183251    94.121955  0.036145144  0.037970201            2 
  218000    1.1709372   -6.8158387    94.034046  0.035945736  0.037958016            2 
  219000    1.1500804   -6.8242235    94.694007  0.036032727  0.037943961            2 
  220000    1.1544412   -6.8514604    95.001132  0.035985277  0.037927952            2 
  221000    1.1541715   -6.8732521    95.168657  0.035885617  0.037912845            1 
  222000    1.1710569   -6.8547203    96.066354  0.036060944  0.037899669            1 
  223000    1.1683875   -6.8312264    96.521483  0.036069313  0.037887416            3 
  224000    1.1417789   -6.8419864    96.809194  0.036015325  0.037873928            2 
  225000    1.1538071   -6.8363904    97.431428  0.036085714  0.037861223            5 
  226000    1.1510415   -6.8304553    97.741651  0.036040432  0.037848248            2 
  227000    1.1532159   -6.8507885    97.748229  0.035884078  0.037833683            2 
  228000    1.1909819   -6.8670432    98.203238  0.035892996  0.037818518            2 
  229000    1.1720035    -6.824919    98.758119   0.03593818  0.037802039            1 
  230000    1.1594455   -6.8051345    99.260543  0.035963965  0.037786322            2 
  231000    1.1609415   -6.8668416    99.332436  0.035834212  0.037770827            1 
  232000     1.175458   -6.7837943    99.833422  0.035859706  0.037754706            2 
  233000    1.1611783   -6.8016743    100.20306  0.035838004  0.037740159            3 
  234000    1.1592321   -6.8206253    100.62449  0.035834933  0.037723803            1 
  235000    1.1669164   -6.8518952     101.1206  0.035858367  0.037707394            3 
  236000    1.1501801   -6.8441582    101.40873  0.035808169  0.037690682            1 
  237000    1.1563208    -6.868537    101.80701  0.035797121  0.037673369            2 
  238000    1.1773325   -6.8545993    102.40776  0.035857057  0.037655738            1 
  239000    1.1567292   -6.8663776    102.56337  0.035761287  0.037637364            1 
  240000    1.1623393   -6.7912718    102.68297  0.035653808  0.037617803            2 
  241000    1.1377094   -6.8176653    103.05472  0.035634412  0.037596987            2 
  242000     1.163915   -6.8555203    103.08223  0.035496636  0.037574185            2 
  243000    1.1339611   -6.8082645     103.4411  0.035473628   0.03755017            2 
  244000    1.1806128   -6.8424839    104.10809  0.035556042  0.037525808            3 
  245000    1.1658666   -6.8332543    104.40544  0.035512056   0.03750336            3 
  246000    1.1585925   -6.8589604    104.58636  0.035428985  0.037480239            3 
  247000    1.1299925   -6.8052647    104.98724  0.035420797  0.037456927            1 
  248000    1.1635816   -6.8551273    105.59629  0.035482623  0.037433175            2 
  249000     1.143316   -6.8443801    105.88407  0.035436435  0.037407934            1 
  250000    1.1353706   -6.8389178    106.67478  0.035558261  0.037385978            2 
  251000     1.151726   -6.8746997    106.43329  0.035336418  0.037363308            1 
  252000    1.1569785   -6.8026675     107.5984   0.03558148  0.037341673            2 
  253000    1.1702038   -6.8197158    107.67734  0.035466845  0.037321152            4 
  254000    1.1698266   -6.8454655    108.10151  0.035466374  0.037301028            1 
  255000    1.1663502    -6.876758    108.38315  0.035419331  0.037279118            1 
  256000    1.1657656   -6.8290405    109.07982  0.035507754  0.037257926            5 
  257000    1.1431854   -6.8572753    108.77675  0.035271319  0.037236305            2 
  258000    1.1552488   -6.8813847    109.05046  0.035223016  0.037212661            4 
  259000    1.1590343   -6.8475858    109.57069  0.035254405   0.03718865            6 
  260000    1.1418028   -6.8528247     109.8174  0.035197886  0.037164445            1 
  261000    1.1294467   -6.8314924    110.35606  0.035235013  0.037140347            2 
  262000    1.1532896   -6.8930287     110.5955  0.035176687  0.037116229            3 
  263000    1.1653468   -6.8521771    111.24569  0.035248951  0.037093998            2 
  264000    1.1360867   -6.8727206    111.61117  0.035230797  0.037073422            2 
  265000    1.1457052   -6.8325023    112.03616  0.035231496  0.037051364            3 
  266000    1.1262584   -6.8722146    112.59848  0.035275212  0.037028066            1 
  267000    1.1658537   -6.8310206    112.51552  0.035117205  0.037005183            1 
  268000    1.1477322   -6.8909628    112.88126  0.035099894  0.036981659            3 
  269000    1.1506284   -6.8638684    113.22377  0.035075519  0.036957874            1 
  270000     1.153902   -6.8288573    114.04419  0.035198823  0.036935641            3 
  271000    1.1359812   -6.8531724    114.37024  0.035169199  0.036914052            2 
  272000     1.159999   -6.8707325    114.56394  0.035099245  0.036892693            1 
  273000    1.1523571   -6.8535292    115.29725  0.035194521  0.036870861            1 
  274000    1.1533075   -6.8712207    115.58366  0.035153182  0.036849341            4 
  275000    1.1308452   -6.8508028    116.04304  0.035164557  0.036829142            3 
  276000    1.1448638   -6.8622235     116.8219  0.035272313   0.03680982            1 
  277000    1.1552629   -6.8763728    117.16715  0.035248841  0.036790676            2 
  278000     1.136902   -6.8812843    117.77597  0.035304548  0.036772814            2 
  279000    1.1579286   -6.8822577    118.07691  0.035267894  0.036755186            2 
  280000    1.1122291   -6.8947039    118.47942  0.035261733   0.03673785            2 
  281000    1.1291527   -6.8603574    118.70277  0.035202482  0.036720129            2 
  282000    1.1584055    -6.880388    119.36988  0.035274788  0.036703513            2 
  283000    1.1195696   -6.9456609    119.36264  0.035148011  0.036685951            1 
  284000     1.150684   -6.8763402    120.15316  0.035256208  0.036669418            3 
  285000    1.1282707   -6.8953882    120.26649   0.03516564  0.036653402            1 
  286000    1.1461123   -6.9113281    120.73288  0.035178579  0.036636552            2 
  287000    1.1497861   -6.8752045    121.33907  0.035232019  0.036619884            3 
  288000    1.1374544    -6.882282    121.67366  0.035206498  0.036603097            2 
  289000    1.1543145   -6.9104036    121.95986  0.035167202  0.036587235            1 
  290000    1.1570499   -6.8699529    122.22449  0.035121979  0.036570794            2 
  291000    1.1771269   -6.8635361    123.40989  0.035340747  0.036555409            1 
  292000    1.1406223   -6.9072534     123.2218  0.035166038  0.036540601            3 
  293000    1.1260474   -6.8796615    123.75481  0.035197613  0.036524495            1 
  294000    1.1163929   -6.8784605    123.90346  0.035120028  0.036508637            3 
  295000    1.1411373   -6.8991613    124.22902  0.035092944  0.036492645            3 
  296000     1.131029   -6.8916174     124.2506  0.034980462  0.036475313            2 
  297000    1.1423688   -6.8947237    124.50234  0.034933317  0.036457268            1 
  298000    1.1291989   -6.8852101     124.7421  0.034883138  0.036438365            2 
  299000    1.1504153   -6.9141315    125.09403  0.034864557  0.036418344            3 
  300000     1.116954   -6.8930287    125.53158  0.034869883   0.03639791            2 
  301000     1.132201   -6.8824608     125.8026   0.03482907  0.036374541            2 
  302000    1.1354271    -6.883641    125.42902  0.034610657  0.036350434            4 
  303000    1.1531649   -6.8459469    126.03102  0.034661997  0.036325575            1 
  304000    1.1473549   -6.9274939    125.90479  0.034513374  0.036300548            1 
  305000    1.1453451   -6.8826686    126.22734  0.034488345  0.036272502            1 
  306000    1.1071922   -6.8688204    126.62673  0.034484403  0.036246009            3 
  307000    1.1347084   -6.9091383    126.42411  0.034317076  0.036219849            1 
  308000    1.1280056   -6.9032631    127.71533  0.034555014  0.036193008            1 
  309000    1.1361685   -6.8967794    127.70771   0.03444113  0.036167293            2 
  310000    1.1511027   -6.9021207    128.25149  0.034476207  0.036140524            2 
  311000     1.116009   -6.8915604    128.68646  0.034481902  0.036115096            2 
  312000    1.1649916   -6.8884271    128.95196  0.034442296  0.036090971            3 
  313000    1.1597384    -6.884855    129.61299   0.03450825  0.036067245            2 
  314000    1.1238385   -6.8714843    130.32661  0.034587741   0.03604538            3 
  315000    1.1377718   -6.9100219    130.76028  0.034592666  0.036024744            2 
  316000    1.1243668   -6.8591851    131.74402  0.034742622  0.036004637            3 
  317000     1.138131   -6.8865211    131.69709  0.034620687  0.035986197            4 
  318000    1.1147253    -6.907165    132.35815  0.034685051  0.035966641            2 
  319000    1.1350572   -6.8505055    133.01272  0.034747315  0.035949119            1 
  320000    1.1192972   -6.9088562    133.32277  0.034719472  0.035932508            1 
  321000    1.1348041    -6.913171    133.39007  0.034628782  0.035915327            1 
  322000    1.1236928   -6.8787101     134.2126  0.034734108  0.035897648            2 
  323000    1.1312772   -6.8931315    134.28505  0.034645266  0.035879597            3 
  324000    1.1513227   -6.9028019     134.2096   0.03451893  0.035860979            1 
  325000    1.1246235   -6.9009894    134.72223  0.034544161  0.035841673            3 
  326000    1.1310608   -6.9045416    135.44431  0.034622779  0.035823415            1 
  327000    1.1400019   -6.9383419    135.05844  0.034418562  0.035804019            1 
  328000    1.1306499   -6.8998217    135.77009  0.034494434  0.035784539            1 
  329000    1.1711658   -6.9053005    136.29436   0.03452238  0.035764901            1 
  330000    1.1212419   -6.8975842    136.77703  0.034539654  0.035744397            2 
  331000    1.1258816   -6.9338536    136.81076  0.034443797  0.035724001            3 
  332000    1.1186017    -6.892356    137.42594  0.034494464  0.035704068            2 
  333000     1.114154   -6.9129078    137.62307  0.034440207  0.035684945            3 
  334000     1.121793    -6.918255    137.99389  0.034429614  0.035666006            3 
  335000    1.1462326   -6.9031471    138.61711  0.034481867  0.035646795            2 
  336000    1.1512213   -6.9041505    138.06022  0.034241125  0.035626611            2 
  337000    1.1389748   -6.9140311    138.87834  0.034341825  0.035606474            2 
  338000     1.115548   -6.9346509    139.06936  0.034287317  0.035585642            1 
  339000    1.1081151   -6.9113721    139.74545  0.034352373  0.035565727            1 
  340000    1.1325088   -6.9483385    139.74197  0.034250482  0.035545971            2 
  341000    1.1221306   -6.9007242    139.95475   0.03420204  0.035527017            4 
  342000    1.1075718   -6.9458462    140.48289  0.034230723  0.035506903            1 
  343000    1.1191721   -6.9083316    140.66985  0.034176349  0.035486343            3 
  344000    1.1254052   -6.9511374    141.14137  0.034191223  0.035466347            1 
  345000    1.1272682   -6.8959273    141.88514  0.034271774  0.035446139            2 
  346000    1.1372769   -6.9274282    141.72954  0.034135245  0.035426088            2 
  347000    1.1134082   -6.8937637    142.38641  0.034194622   0.03540651            2 
  348000    1.1313524   -6.9245947    142.76029  0.034185894  0.035386748            4 
  349000    1.0760422   -6.9241051    143.30101  0.034217051  0.035367206            2 
  350000     1.143797   -6.9011958     143.9319    0.0342695  0.035348681            2 
  351000     1.114839   -6.9145833    143.74483  0.034127453  0.035329575            2 
  352000     1.092881   -6.9742507    143.76378  0.034034985  0.035310231            1 
  353000    1.1278922      -6.9357    144.48256  0.034108253  0.035290694            1 
  354000     1.117911   -6.9324431    144.82849  0.034093335   0.03527135            1 
  355000    1.1084251   -6.9429294    144.90854   0.03401609  0.035251832            2 
  356000    1.1059825    -6.930093    146.00099  0.034176261  0.035233269            2 
  357000    1.1258618   -6.9529377    145.95592  0.034070009  0.035215383            2 
  358000    1.0874958   -6.9536077    146.65694  0.034138022  0.035196862            1 
  359000    1.1271467   -6.9441502    146.68566  0.034049596  0.035179546            5 
  360000    1.0816792   -6.9412432    147.24872  0.034085352  0.035162299            2 
  361000    1.1074601    -6.906504    147.70243  0.034095668  0.035145418            2 
  362000    1.1173782    -6.954934    148.34813  0.034150123  0.035129268            4 
  363000    1.0976372   -6.9628065    147.99692  0.033975418  0.035112418            3 
  364000    1.0774193    -6.907614     148.9836  0.034107967  0.035096281            1 
  365000    1.1030861   -6.9720226    149.08839  0.034038445  0.035079434            2 
  366000    1.1098472    -6.941358    149.12476  0.033953725  0.035062431            2 
  367000    1.1017291   -6.9191703    149.99372  0.034058518  0.035044915            2 
  368000    1.1024255   -6.9445427    150.17725  0.034007529  0.035028238            2 
  369000    1.0978925   -6.9282165    150.73823  0.034042057  0.035011547            2 
  370000    1.1172392   -6.9771699    150.35061  0.033862751  0.034994541            3 
  371000    1.0924965   -6.9250743    150.94591  0.033905191   0.03497701            2 
  372000    1.1011992   -6.9369263     151.3646  0.033907841  0.034960329            1 
  373000    1.1420161   -6.9556636    151.82765  0.033920386  0.034942716            1 
  374000    1.1074568   -6.9632049    152.06696  0.033883013  0.034925497            1 
  375000    1.1213726    -6.943453    152.50986  0.033891081  0.034908546            2 
  376000    1.1111118   -6.9466805    152.90619  0.033888783  0.034891824            1 
  377000    1.1009939   -6.9369522    153.58843  0.033949696  0.034874952            1 
  378000    1.0861484   -7.0134989    153.62541  0.033868035  0.034858966            3 
  379000    1.1090369   -6.9400675    154.47033  0.033964453   0.03484309            1 
  380000    1.1057515   -6.9647822    155.01971  0.033995551  0.034826536            2 
  381000    1.0921166     -6.96173    155.00797  0.033903756  0.034810038            1 
  382000    1.0884808   -6.9509729    155.03637  0.033821197  0.034792908            1 
  383000    1.0860927   -6.9461908    155.45891  0.033824828  0.034775944            1 
  384000    1.1088723   -6.9574267    155.86579  0.033825041  0.034758494            4 
  385000     1.089592   -6.9691357    156.19698  0.033808869  0.034740816            2 
  386000    1.0850126   -6.9604423    157.07653  0.033911169  0.034724417            3 
  387000    1.1126754   -6.9617469    157.14409  0.033838089   0.03470831            2 
  388000    1.0890429    -6.961622    157.55647  0.033839449  0.034692269            1 
  389000    1.1002941   -6.9716738    157.50198  0.033740784  0.034676028            6 
  390000    1.0912766   -6.9750344    157.80047  0.033718048  0.034660535            2 
  391000    1.0907307   -6.9608613    158.35472   0.03374994  0.034643708            2 
  392000    1.1047748    -6.963762    158.57831  0.033711375  0.034626953            1 
  393000    1.0863497   -6.9876043    158.84481  0.033682105  0.034610228            4 
  394000     1.091674   -6.9871218    159.10946  0.033652592   0.03459363            3 
  395000    1.0962984   -6.9727297    159.47316  0.033644126  0.034576499            3 
  396000    1.1170952   -6.9760872    159.69327  0.033605486  0.034559496            1 
  397000    1.0892695   -6.9864674    160.02955  0.033591425  0.034541608            2 
  398000    1.0975708   -6.9622208    160.46299  0.033597778  0.034524851            3 
  399000    1.0894962   -7.0100522    160.70782  0.033564708  0.034508857            2 
  400000    1.0949215   -6.9875176    160.66352  0.033471567  0.034491375            4 
  401000    1.0894055    -6.965653    161.59307   0.03358127  0.034474124            6 
  402000    1.1074323   -6.9855789    161.96925  0.033575715   0.03445809            1 
  403000    1.0875179   -6.9854162    162.25272  0.033551018   0.03444179            1 
  404000    1.0952281   -6.9513016    163.33324  0.033690849  0.034426227            2 
  405000    1.0826873   -6.9834011    162.61263  0.033459388  0.034409959            2 
  406000    1.0898139   -6.9772088    163.26389   0.03351065  0.034392794            2 
  407000    1.0899961   -6.9809151    163.38604  0.033453325  0.034375777            2 
  408000    1.0898181   -6.9559532    164.10293  0.033517756  0.034359565            2 
  409000    1.0958408   -6.9433052    163.89428  0.033393292   0.03434253            1 
  410000    1.0911029   -7.0109897    164.24033   0.03338218  0.034325096            3 
  411000    1.0858867    -6.951295    164.42237  0.033337869  0.034307618            2 
  412000    1.0879027   -6.9355382    165.25821  0.033426014   0.03429055            2 
  413000    1.0927609   -6.9915275     165.3472  0.033363035  0.034273054            1 
  414000    1.0811282   -6.9966624    165.89199  0.033392107   0.03425589            2 
  415000    1.0739216   -6.9612236    165.77446  0.033288044  0.034238379            2 
  416000     1.095538   -6.9564304    166.16408  0.033286073  0.034221495            3 
  417000    1.1039286   -6.9758879    166.89837  0.033352991  0.034204598            2 
  418000    1.0785707   -6.9842961    167.18257  0.033329858  0.034187537            2 
  419000     1.083724   -6.9469259     167.5942   0.03333218  0.034170461            1 
  420000    1.0676252   -6.9716988    167.69806  0.033273425  0.034153837            3 
  421000    1.0732064   -6.9812773    167.71238  0.033197226  0.034136287            1 
  422000    1.0991263   -6.9645709    168.14776  0.033204534  0.034118125            2 
  423000    1.0906254   -6.9989005     168.3576  0.033167376  0.034099735            2 
  424000    1.0543204   -7.0298521    168.69601  0.033155663  0.034081184            3 
  425000    1.0912595   -6.9998086    169.03138  0.033143407  0.034063201            2 
  426000    1.0939275   -7.0120195    169.59094  0.033175066  0.034045332            2 
  427000    1.0741358   -6.9782002    170.09049  0.033194865  0.034027686            2 
  428000    1.0842875   -6.9984267    170.27827  0.033153868  0.034010207            4 
  429000    1.0928094   -7.0104205    169.98077  0.033018797  0.033992528            2 
  430000     1.069293   -7.0127075    170.40749  0.033024708  0.033974038            2 
  431000    1.0828678   -7.0102043    171.34763  0.033129858  0.033955898            2 
  432000    1.0979183   -6.9834837     170.8476  0.032956714  0.033937832            2 
  433000     1.117078   -7.0218506    170.80325  0.032872065  0.033917867            1 
  434000    1.0946956   -7.0107734    171.02384  0.032838679  0.033897042            3 
  435000    1.0715089   -6.9752747    171.43793  0.032842516  0.033876549            1 
  436000    1.1063521   -6.9888895    171.77459  0.032831535  0.033856942            2 
  437000    1.0893395   -6.9963508    171.99659  0.032798739  0.033836877            4 
  438000    1.0809636   -6.9788585    172.46749  0.032813449  0.033816653            1 
  439000     1.088251   -6.9915421    173.19861  0.032877488  0.033796522            3 
  440000    1.0928327   -7.0195105    172.68611  0.032705702  0.033775741            3 
  441000    1.0883926   -7.0395006    172.91372   0.03267455  0.033754736            2 
  442000    1.0497224   -7.0275872    173.01266   0.03261928    0.0337338            2 
  443000    1.0843829   -6.9805431    173.36649  0.032612207  0.033713028            3 
  444000    1.0762706   -7.0142987    173.99611  0.032656928  0.033692273            2 
  445000    1.0695894   -6.9899292    174.88679  0.032750334  0.033672888            2 
  446000     1.074196   -7.0065252    175.12408   0.03272124  0.033653716            2 
  447000    1.0602322   -7.0202107     175.3212  0.032684787  0.033634697            4 
  448000    1.0750746   -7.0310657    175.35623  0.032618347  0.033615216            2 
  449000    1.0578937   -7.0223874    175.65616  0.032601366  0.033595344            1 
  450000    1.0922127    -7.057705     176.1419   0.03261887  0.033576075           10 
  451000     1.078107   -7.0033142    176.55694  0.032623233  0.033556614            4 
  452000    1.0469252   -7.0087316    176.60213   0.03255939  0.033536765            3 
  453000    1.0723514   -7.0042033    176.83901  0.032531091  0.033517248            2 
  454000     1.074146   -7.0155922    177.15829  0.032518041  0.033497151            4 
  455000    1.0947251   -7.0317945    177.56745   0.03252151  0.033477769            2 
  456000    1.0632431   -6.9846217    178.49148  0.032619057  0.033458734            2 
  457000    1.0839487   -7.0155588    179.43858  0.032720383  0.033440351            2 
  458000    1.0856001   -7.0336271    178.44606  0.032468352  0.033421536            1 
  459000    1.0539547   -7.0685738    179.45271  0.032580375  0.033403173            2 
  460000    1.0823423   -7.0355502    179.80076  0.032572602  0.033384733            2 
  461000    1.0719466   -7.0517711    179.93618  0.032526425  0.033366171            3 
  462000    1.0865607   -7.0446591    180.64996  0.032584768  0.033347747            3 
  463000    1.0746116   -7.0516123    180.02195  0.032401358  0.033329018            3 
  464000    1.0740085   -7.0435817    180.65025  0.032444369  0.033310075            2 
  465000    1.0378899   -7.0386421    181.45471  0.032518764  0.033291001            1 
  466000     1.063184     -7.03688    181.44075  0.032446487  0.033272372            4 
  467000    1.0751992   -7.0110865    181.72824  0.032428308  0.033254143            6 
  468000    1.0843007   -7.0566893    182.19621  0.032442345  0.033235619            1 
  469000    1.0843685   -7.0288409    181.80243  0.032303204  0.033216762            2 
  470000    1.0651804   -7.0534146    182.02397  0.032273754  0.033197575            1 
  471000    1.0733625    -7.051016    182.10614  0.032219769   0.03317802            3 
  472000    1.0629911   -7.0341659    182.94023  0.032298769   0.03315872            2 
  473000    1.0672768   -7.0355547    182.90908  0.032224996  0.033138935            2 
  474000    1.0725042   -7.0300904    183.28725  0.032223496  0.033119399            2 
  475000    1.0818744   -6.9739584    183.91226  0.032265308   0.03309998            2 
  476000    1.0625457   -7.0216381    183.72727  0.032165139  0.033080213            3 
  477000    1.0494703   -7.0635008    183.42942  0.032045671  0.033060321            5 
  478000    1.0617247   -7.0366837    184.68642  0.032197772  0.033040538            1 
  479000     1.059524   -7.0516032    184.74268   0.03214034   0.03302053            1 
  480000    1.0676835   -7.0481059     184.4995  0.032031164  0.033000336            2 
  481000    1.0649501   -7.0529867    184.61091  0.031983872  0.032979644            2 
  482000    1.0540035   -7.0632402    185.26612  0.032030796  0.032959531            2 
  483000    1.0728954   -7.0071586    185.48308  0.032001911  0.032939338            2 
  484000    1.0905493   -7.0558492    185.57006  0.031950769  0.032919776            2 
  485000      1.07076   -6.9908108     186.7455  0.032086856  0.032900354            1 
  486000    1.0594743   -7.0243588    186.89493  0.032046455  0.032880773            2 
  487000    1.0761743   -7.0436868    187.53295  0.032089827  0.032861063            3 
  488000    1.0792681   -7.0351411    187.13834  0.031956683  0.032841571            1 
  489000    1.0728403   -7.0699948    186.67219  0.031811894  0.032821755            2 
  490000    1.0563719    -7.058963    187.69383  0.031920719  0.032801525            2 
  491000    1.0418694   -7.0329305    188.76941  0.032038257  0.032782342            2 
  492000    1.0563963   -7.0470323    188.85121  0.031986994  0.032763418            4 
  493000    1.0487144   -7.0594975    189.37489  0.032010631  0.032745217            1 
  494000     1.055757   -7.0575518    189.62391  0.031987839  0.032726181            2 
  495000     1.053794   -7.0515906    189.78601  0.031950507  0.032707292            1 
  496000    1.0618142   -7.0526928    189.18882  0.031785755  0.032687915            2 
  497000    1.0571631   -6.9952011       190.59  0.031956741  0.032669017            1 
  498000    1.0554134   -7.0452321    190.53352  0.031883118   0.03265017            2 
  499000    1.0591931   -7.0167403    191.04377  0.031904437  0.032631647            2 
  500000    1.0537533   -7.0509545    190.93446   0.03182241  0.032612925            3 
  501000    1.0822146   -7.0515918    191.77539  0.031898767  0.032594155            3 
  502000    1.0383578   -7.0931362    191.62624  0.031810464  0.032574855            1 
  503000    1.0455404   -7.0555923    192.05594  0.031818414  0.032556528            1 
  504000    1.0503757   -7.0558048    192.83487  0.031884073  0.032538991            1 
  505000    1.0611038    -7.069719    192.72557  0.031802899  0.032521377            2 
  506000    1.0732904   -7.0225499     193.8321  0.031922282  0.032503999            2 
  507000    1.0380099   -7.0729744    194.08298  0.031900555  0.032486675            2 
  508000    1.0427272   -7.0642778    194.02682  0.031828547  0.032468965            2 
  509000     1.051428   -7.0776234    193.82657  0.031733231   0.03245125            2 
  510000    1.0432141   -7.1071858    194.47846  0.031777527   0.03243338            3 
  511000    1.0253592   -7.0664411    194.75236  0.031760007  0.032416149            2 
  512000    1.0350149   -7.0495064    195.60718  0.031837107  0.032399268            2 
  513000    1.0406004   -7.0296154    195.72975  0.031794957  0.032382516            4 
  514000    1.0439763   -7.0673499    195.53715  0.031701873  0.032365022            3 
  515000    1.0531278   -7.0718788     195.9023  0.031699401  0.032347583            1 
  516000    1.0365534   -7.0894316    195.68628  0.031603082  0.032329833            3 
  517000    1.0355581   -7.0249251    197.30888  0.031803494    0.0323129            1 
  518000     1.044149   -7.0465059    196.47864  0.031608533  0.032295556            4 
  519000    1.0403133   -7.0733324    197.47221  0.031707163  0.032278532            1 
  520000    1.0586023   -7.0760718    197.17021  0.031597791  0.032261533            2 
  521000    1.0381335   -7.0645783    197.95229  0.031662235  0.032244468            3 
  522000    1.0717675   -7.0517795    198.85316  0.031745396  0.032227679            2 
  523000    1.0488765   -7.0616322     198.9091   0.03169361  0.032210878            2 
  524000    1.0589192   -7.0691783    199.14518  0.031670672  0.032194124            3 
  525000    1.0414094   -7.0464963    199.48233  0.031663862  0.032177557            4 
  526000     1.023903   -7.0907595    199.70465  0.031638887  0.032160964            3 
  527000    1.0537258   -7.0643424    200.23433  0.031662608  0.032144747            2 
  528000    1.0667224   -7.0974048    200.02171  0.031569083    0.0321285            1 
  529000    1.0329838   -7.1005017    200.38211  0.031566181  0.032111704            5 
  530000    1.0543974    -7.062576    200.54784  0.031532678  0.032095105            4 
  531000    1.0517664   -7.1116314    201.01615  0.031546791   0.03207844            2 
  532000    1.0453968   -7.0529645     200.9961  0.031484351  0.032061395            1 
  533000     1.066721   -7.0515671    202.19383  0.031612544  0.032045114            2 
  534000    1.0536004   -7.0841557    201.61018  0.031462263  0.032029156            3 
  535000    1.0451564   -7.1336689    202.41927  0.031529481  0.032012935            2 
  536000    1.0354017   -7.1007865    202.22093  0.031439821  0.031996536            2 
  537000    1.0320516   -7.0653887    203.61884  0.031598205  0.031980289            3 
  538000    1.0391643   -7.1227229    203.19195   0.03147335  0.031964182            2 
  539000    1.0182861   -7.1024778    203.62927  0.031482572  0.031948155            1 
  540000    1.0307437   -7.0688098    204.04207  0.031487973  0.031931736            3 
  541000    1.0501519   -7.1051358    204.09132  0.031437357  0.031916019            2 
  542000    1.0166328   -7.1114295    204.31291  0.031413423  0.031900268            1 
  543000    1.0577301   -7.0984208    204.68985  0.031413421  0.031884204            1 
  544000    1.0252132   -7.0654759    205.80808  0.031526972   0.03186834            3 
  545000    1.0623381   -7.0860879    205.15726  0.031369611  0.031852431            2 
  546000    1.0422478    -7.106023    205.23732  0.031324377   0.03183593            2 
  547000    1.0214711   -7.0753033    205.54441  0.031313896   0.03181963            1 
  548000    1.0307719   -7.1400368    205.52657  0.031254041  0.031803177            3 
  549000    1.0435304   -7.0866028    206.00463  0.031269676  0.031786568            3 
  550000     1.041443   -7.1229032    204.67774  0.031011779  0.031769603            2 
  551000    1.0277981   -7.0974286    206.66077  0.031255411  0.031752426            3 
  552000    1.0024379   -7.1111499    205.91516  0.031086225  0.031735977            2 
  553000    1.0263865    -7.056264     206.9228  0.031181857  0.031719122            2 
  554000    1.0313257   -7.1008069    206.66661  0.031087035  0.031702043            2 
  555000    1.0529103   -7.0901193    207.19349  0.031110133  0.031684997            2 
  556000    1.0290167   -7.1320529    206.38419  0.030932883  0.031667416            1 
  557000    1.0374818   -7.0991308    206.95631  0.030962943  0.031649431            3 
  558000    1.0411013   -7.1251272    207.38467  0.030971426  0.031631511            2 
  559000    1.0411614   -7.1521452    207.64152  0.030954311  0.031613804            2 
  560000    1.0445712   -7.0925046      207.851  0.030930208  0.031595852            3 
  561000    1.0216976   -7.1093896    208.20864    0.0309282  0.031577847            3 
  562000    1.0361804   -7.1413926    207.97179  0.030838047  0.031559328            3 
  563000    1.0330421   -7.1537326    207.97223  0.030783338  0.031540824            3 
  564000    1.0077006   -7.1731455    207.94854  0.030725257  0.031521362            1 
  565000    1.0513965   -7.0999635    208.83154  0.030801113  0.031502398            1 
  566000    1.0231871   -7.1050798    209.25292  0.030808734  0.031483634            1 
  567000    1.0112558   -7.1217165    208.67003  0.030668728  0.031465199            4 
  568000    1.0446126   -7.1431344    210.33127  0.030858461  0.031447026            2 
  569000    1.0209843   -7.1394718     210.3941   0.03081343  0.031429232            3 
  570000    1.0461906   -7.1075875    210.55683  0.030783162  0.031411449            1 
  571000    1.0136516   -7.1222972    211.12011  0.030811457  0.031394108            2 
  572000     1.038076    -7.112145     211.5066  0.030813899  0.031376814            3 
  573000    1.0352665   -7.0848481    212.07354  0.030842574  0.031358672            2 
  574000     1.024886   -7.1081516    211.62472  0.030723682  0.031340547            2 
  575000    1.0107507   -7.1485113    212.08401  0.030736814  0.031322746            3 
  576000    1.0308539   -7.1551698    211.58852  0.030611765  0.031304814            2 
  577000    1.0065777   -7.1320744    212.70565  0.030720054   0.03128698            2 
  578000    1.0260712   -7.1368113     213.0763  0.030720343  0.031269403            5 
  579000    1.0436318    -7.123499    213.58914  0.030741097  0.031252183            2 
  580000    1.0187199   -7.1373091    213.17179  0.030628131  0.031234315            3 
  581000    1.0217433   -7.1191127    213.87385  0.030676111  0.031216272            2 
  582000    1.0606081   -7.1443445    213.37773  0.030552367  0.031198117            6 
  583000    1.0064883   -7.1460111    214.36469  0.030641037  0.031180024            4 
  584000    1.0443992   -7.0943469    214.78383  0.030648377  0.031162418            2 
  585000    1.0177492   -7.1379942    214.11562    0.0305008   0.03114462            2 
  586000    1.0331266   -7.1582819    214.25248  0.030468213  0.031126542            3 
  587000      1.00985   -7.1642219    214.52601  0.030455141  0.031108083            1 
  588000    1.0092578    -7.123097    215.21606  0.030501143  0.031090075            2 
  589000    1.0217047   -7.1178413    214.86795  0.030400105  0.031072226            5 
  590000    1.0213434   -7.1262305    215.34421  0.030415848  0.031054158            2 
  591000      1.01287   -7.1321698    215.66806  0.030410047  0.031035679            3 
  592000    1.0310313   -7.1346524    215.84304   0.03038331  0.031017687            1 
  593000   0.99469684   -7.1258493     216.3008  0.030396403  0.030999522            2 
  594000    1.0298654   -7.1276951    216.64998  0.030394217  0.030981336            3 
  595000    1.0237624   -7.1191215    217.32397  0.030437531  0.030962843            2 
  596000   0.98682468   -7.1351961    216.89193  0.030326053  0.030944609            2 
  597000    1.0345316   -7.1013953     217.9306  0.030420239  0.030926589            4 
  598000    1.0055355   -7.1272959    217.23563  0.030272523  0.030908422            2 
  599000    1.0202045   -7.1582141    217.08809  0.030201459  0.030889677            2 
  600000    1.0137957    -7.156047    217.88801  0.030262224  0.030870833            5 
  601000    1.0108748   -7.1224152    218.71381  0.030326374  0.030852426            2 
  602000    1.0087437   -7.1727105    218.62136  0.030263201  0.030834094            3 
  603000    1.0066288    -7.123474    219.02434  0.030268704  0.030815979            3 
  604000    1.0355205   -7.1622019    218.94573  0.030207744  0.030797351            1 
  605000     1.000441   -7.1475431    219.41312  0.030222192  0.030779142            2 
  606000    1.0045325    -7.115761    218.91803   0.03010424    0.0307609            6 
  607000     1.004229   -7.1509898    219.83388  0.030180379  0.030742484            2 
  608000    1.0024636   -7.1440039    219.82141  0.030129031  0.030724291            4 
  609000    1.0398423   -7.1479409    220.37236  0.030154948  0.030706069            1 
  610000    1.0247256   -7.1269342    220.71061  0.030151722  0.030688061            4 
  611000      1.00229   -7.1415699    220.74431   0.03010697  0.030669571            1 
  612000    1.0024299   -7.1799219    220.54518  0.030030662  0.030650992            5 
  613000    1.0155454   -7.0892072    221.60835  0.030126203  0.030632959            3 
  614000    1.0285617   -7.1103213    221.41005  0.030050224   0.03061495            2 
  615000    1.0296735   -7.1904994     221.5799  0.030024376  0.030596771            2 
  616000    1.0079826   -7.1524435    221.71153  0.029993442  0.030578593            4 
  617000    1.0008045   -7.1136063    221.90554  0.029971034  0.030559764            2 
  618000   0.99540706   -7.1788718    222.02654  0.029938854  0.030541458            1 
  619000   0.97448264    -7.139332    221.87021  0.029869442  0.030522854            2 
  620000    1.0231236   -7.1728226    221.79014  0.029810502  0.030504078            2 
  621000    1.0182027   -7.1471993    222.26369  0.029826045  0.030484672            3 
  622000    1.0235946   -7.1617588    223.20525  0.029904241  0.030465918            3 
  623000    1.0016505   -7.2018039    222.96117  0.029823592   0.03044747            1 
  624000   0.99428292   -7.1190858    223.15423   0.02980158  0.030428692            4 
  625000    0.9987903   -7.1182483    224.19434  0.029892579  0.030410231            3 
  626000   0.98093344    -7.153011    224.15336  0.029839372  0.030392025            1 
  627000    1.0256042   -7.1856647    224.31056  0.029812674  0.030373725            3 
  628000   0.98709068   -7.2026686    224.13242  0.029741563  0.030355273            1 
  629000   0.99588676   -7.1825406    225.48672  0.029873704  0.030337179            2 
  630000    0.9920071    -7.135751    225.56958  0.029837246  0.030319223            3 
  631000    1.0070257   -7.1618724    226.09142  0.029858878  0.030301647            2 
  632000   0.99845339   -7.1760823    225.68654  0.029758246  0.030283676            5 
  633000    1.0053149   -7.1391194    226.05623  0.029759904  0.030265876            2 
  634000   0.99701934   -7.1538654    227.37425  0.029886205  0.030248141            3 
  635000   0.98845762   -7.1675095    226.66622  0.029746223  0.030230371            2 
  636000    1.0277897   -7.1792727    226.90626  0.029730904  0.030212348            2 
  637000   0.98951382   -7.1884232    226.79705  0.029669944  0.030194018            2 
  638000    1.0103335   -7.1775653    225.84042  0.029498488  0.030175389            3 
  639000   0.99570188   -7.2134272    225.87827  0.029457261  0.030156416            1 
  640000   0.99623416   -7.1591085    226.53873  0.029497231  0.030137573            3 
  641000   0.96813183   -7.1581103    226.36112  0.029428123  0.030118577            2 
  642000   0.97703625    -7.203384    226.64783    0.0294195  0.030099269            2 
  643000   0.99787884    -7.183762    227.29784  0.029457989   0.03008019            2 
  644000   0.99630598   -7.1830651    227.73023  0.029468198  0.030060881            5 
  645000    1.0134742   -7.1705004     227.2875   0.02936531  0.030041817            3 
  646000   0.99632736   -7.1728811    228.24254  0.029443052  0.030022932            3 
  647000   0.97727323   -7.1562314    228.61475  0.029445485  0.030003837            2 
  648000   0.99237029   -7.1645518     228.1507  0.029340368  0.029985014            2 
  649000   0.99365758   -7.1571271    229.20595  0.029430656  0.029966257            1 
  650000   0.99610442   -7.2014057    229.32096  0.029400123  0.029947826            2 
  651000   0.98350047   -7.2095351    229.00526  0.029314549  0.029929296            2 
  652000    1.0007416   -7.1903755    229.73594  0.029362979  0.029910629            2 
  653000    1.0003469   -7.2058404    229.64418  0.029306302  0.029892127            6 
  654000    1.0377383   -7.1959513    230.67391    0.0293927  0.029873639            1 
  655000   0.98719165   -7.1443162    230.71659  0.029353256  0.029855291            4 
  656000   0.99859685   -7.1533943    230.58225  0.029291444  0.029836504            3 
  657000   0.99402891   -7.2037963    230.14221  0.029191046  0.029817722            2 
  658000    0.9915106   -7.2242951    229.87439  0.029112764  0.029798724            3 
  659000    1.0054654   -7.2184422    231.02691  0.029214328  0.029779774            2 
  660000    1.0038995   -7.1943044    231.30108  0.029204682  0.029760882            2 
  661000   0.98793504   -7.2214317    231.17265  0.029144308  0.029742179            3 
  662000   0.99884295   -7.2228403     231.7507  0.029173049  0.029723364            8 
  663000   0.96520524   -7.2241142    231.46535  0.029093182    0.0297045            3 
  664000   0.98194817   -7.1585079    232.05994  0.029123989   0.02968565            3 
  665000   0.98602294   -7.2170659    231.47015  0.029006285  0.029666587            2 
  666000    0.9837949    -7.209304    231.56889  0.028975087  0.029647245            3 
  667000    1.0032335   -7.2113659    232.45854  0.029042796  0.029627816            3 
  668000   0.97732704   -7.2118118    231.41048  0.028868573  0.029608328            3 
  669000   0.98326144   -7.2416464    232.49495  0.028960507  0.029588737            2 
  670000     0.998088   -7.1984647    232.87302  0.028964306  0.029569162            1 
  671000   0.99247506   -7.2235782    232.50169  0.028875024  0.029549768            3 
  672000   0.97383324   -7.2262278    233.26764  0.028927039  0.029530711            4 
  673000   0.98746655    -7.204811    233.22263  0.028878483  0.029511471            2 
  674000    0.9961646   -7.1959868    233.76117  0.028902222  0.029492016            1 
  675000   0.98309982    -7.201949    233.74774  0.028857745   0.02947248            3 
  676000    0.9931008   -7.2144358    233.07248  0.028731814  0.029452854            2 
  677000   0.98824303   -7.2012519     233.5144  0.028743772  0.029433319            1 
  678000   0.97212336   -7.2812232    233.38347  0.028685284  0.029413641            1 
  679000   0.97767473   -7.2232939    234.03809  0.028723379  0.029394061            2 
  680000   0.97781155   -7.2037074    234.35253  0.028719673   0.02937452            1 
  681000    0.9923183   -7.2323749    234.37651  0.028680434  0.029354829            3 
  682000   0.97058072    -7.197242    234.55358  0.028660017   0.02933493            2 
  683000   0.97146077   -7.2036673    234.16265  0.028570358  0.029315079            2 
  684000   0.98008314   -7.1960758    234.92165  0.028621059    0.0292954            3 
  685000    0.9790325   -7.2283577    235.58427  0.028659887  0.029275733            1 
  686000   0.98981469   -7.2052638    236.44623  0.028722817  0.029255812            3 
  687000   0.97604636   -7.2058659    236.19799  0.028650897  0.029236188            4 
  688000   0.98596576   -7.2501949    236.36919  0.028629989  0.029216674            2 
  689000   0.98353998   -7.1911928    237.00678  0.028665551  0.029197623            2 
  690000   0.98832576   -7.2075909    237.32579  0.028662535  0.029179014            3 
  691000    0.9709269   -7.1829403    237.18916  0.028604578  0.029160215            2 
  692000   0.96876771   -7.2036471    237.72482  0.028627748  0.029141648            2 
  693000   0.95556444    -7.211497    238.29071  0.028654487  0.029122886            2 
  694000   0.98676855   -7.1930178    238.30552  0.028614976   0.02910473            1 
  695000   0.97121637   -7.2135713    238.16118  0.028556497   0.02908624            3 
  696000   0.96908286   -7.2275015    238.80458  0.028592503  0.029067813            3 
  697000   0.95384617   -7.2105503    239.36042  0.028617936  0.029049396            1 
  698000   0.99200568   -7.2136762    238.23713  0.028442828  0.029030801            2 
  699000   0.97267363   -7.2419064    238.63895  0.028450042  0.029012014            2 
  700000    0.9670675   -7.2340004    238.95621  0.028447168  0.028993407            5 
  701000   0.96838499   -7.2339881    238.46695  0.028348425  0.028974403            3 
  702000   0.97973245   -7.2456303    239.94876  0.028483946  0.028955639            3 
  703000   0.95891372   -7.2189089    239.66744   0.02841008  0.028937081            3 
  704000   0.96974478   -7.2236111    240.32612  0.028447694   0.02891855            2 
  705000   0.97728047   -7.2404599    240.16204  0.028387948  0.028900003            3 
  706000   0.97523832   -7.2535178    240.10442  0.028340937  0.028881387            3 
  707000   0.97001591   -7.2300872    239.95062  0.028282722  0.028862894            2 
  708000   0.95545187   -7.2382012     240.4436    0.0283008  0.028844149            1 
  709000   0.97740735   -7.2559701    240.96121  0.028321721  0.028825711            2 
  710000   0.97499444   -7.2747431    240.81056   0.02826415  0.028806758            2 
  711000   0.96870268   -7.2647245    240.18955  0.028151612  0.028787518            2 
  712000   0.96305097   -7.2383023     240.6876  0.028170366  0.028768213            2 
  713000   0.97246827   -7.2433381    241.19943  0.028190677  0.028749258            2 
  714000   0.97190707   -7.2470786    241.82572  0.028224291  0.028730233            3 
  715000   0.97080682   -7.2447689    242.07716  0.028214122  0.028711347            2 
  716000   0.97687856   -7.2533933    242.47422  0.028220929  0.028692537            2 
  717000   0.95720641   -7.2614213     241.8889  0.028113541  0.028673387            2 
  718000   0.98724154   -7.2422516     242.5444  0.028150464  0.028654454            3 
  719000   0.96756353   -7.1965001    242.67571  0.028126531  0.028635687            3 
  720000    0.9413549   -7.2848129    242.58113  0.028076519  0.028616875            2 
  721000   0.94979696    -7.233464    242.83143  0.028066508  0.028598032            2 
  722000   0.97138385   -7.2728514    242.57022  0.027997486  0.028579175            6 
  723000   0.98580503   -7.2555262    242.89695  0.027996422  0.028560065            2 
  724000   0.96507768   -7.2947262    243.18729  0.027991171  0.028540895            3 
  725000   0.96523936   -7.2349231    244.10465  0.028058005  0.028521832            2 
  726000   0.97229622   -7.2828635    243.60685  0.027962219  0.028502928            2 
  727000    0.9771614   -7.2523039    243.88605   0.02795576   0.02848399            3 
  728000   0.95578565   -7.2622602    243.93096    0.0279225  0.028465014            2 
  729000   0.95602411   -7.2501951    244.59372  0.027959959  0.028446138            2 
  730000   0.92935506   -7.2702114    244.66166  0.027929413   0.02842719            2 
  731000   0.95532444   -7.2847071    244.76534  0.027903026  0.028408445            2 
  732000   0.97697313     -7.23155    245.48169  0.027946459  0.028389809            3 
  733000   0.97255709   -7.2501738    245.45799  0.027905638  0.028371272            3 
  734000   0.98082178   -7.2284737    245.70872  0.027896086  0.028352674            2 
  735000   0.97198951   -7.2644525    246.42754   0.02793963  0.028334144            2 
  736000   0.96166068   -7.2722991    245.73142  0.027822851  0.028315589            3 
  737000   0.97067617   -7.2635427    246.03842  0.027819812  0.028296853            3 
  738000   0.95349331   -7.2499331    246.96084  0.027886274  0.028278022            1 
  739000   0.95717402   -7.2614474    247.27113  0.027883529  0.028259479            2 
  740000   0.95632161   -7.2711696    246.29549  0.027735979   0.02824116            3 
  741000   0.97877453     -7.23497    246.95082  0.027772247  0.028222936            4 
  742000   0.97495026   -7.2480942    247.70477  0.027819493  0.028204846            2 
  743000   0.97663125    -7.239045    247.33565  0.027740651  0.028186865            3 
  744000   0.97705095   -7.2382226    248.09331  0.027788229  0.028168681            2 
  745000   0.97529864   -7.2483246    248.22462  0.027765617  0.028150662            4 
  746000   0.93984129   -7.2692413    247.98931  0.027702112  0.028132512            5 
  747000   0.95130032   -7.2482059    249.04985  0.027783339  0.028114207            1 
  748000   0.94782065   -7.2633545     248.7262  0.027710138  0.028096243            1 
  749000   0.94301714   -7.2594864    248.41264  0.027638255  0.028077922            3 
  750000   0.94253809   -7.2609162    248.61623  0.027624026  0.028059199            2 
  751000   0.95762971    -7.309062     247.7209  0.027487894  0.028040273            3 
  752000   0.96135097   -7.2538104    248.90321  0.027582359  0.028021477            5 
  753000    0.9603975   -7.2454267    248.99361  0.027555734  0.028003014            4 
  754000   0.95044183   -7.2875507    248.99189  0.027518997  0.027984663            2 
  755000   0.94945546   -7.2548796    249.68458  0.027559005  0.027966145            1 
  756000   0.95389529   -7.2690052    249.76624  0.027531553  0.027947745            2 
  757000    0.9494561   -7.2944444    249.63308  0.027480524  0.027929289            2 
  758000   0.94870265    -7.291708    250.46519  0.027535751  0.027910478            2 
  759000   0.96152553   -7.3018584    250.12439  0.027462054  0.027892023            7 
  760000   0.96088877   -7.2831853    250.17159  0.027431095   0.02787349            1 
  761000   0.94876348   -7.2851199    249.97498  0.027373519  0.027855028            3 
  762000   0.93181643   -7.2809785    250.09212  0.027350407   0.02783634            2 
  763000   0.96010982   -7.2643273     250.4365  0.027352173  0.027817828            2 
  764000   0.94096122   -7.2700408    250.57192  0.027331143  0.027799461            1 
  765000   0.93533672   -7.2721089     250.9733   0.02733914  0.027780791            1 
  766000   0.95522813   -7.2716624    252.15119  0.027431592   0.02776231            4 
  767000   0.95187224   -7.2698853    251.82824  0.027360738  0.027744235            6 
  768000   0.93632996   -7.3015245    251.54663  0.027294556  0.027726026            1 
  769000   0.94751603   -7.2955636    251.24641  0.027226529  0.027707835            2 
  770000   0.91905118   -7.2716813    252.01681  0.027274546  0.027689559            3 
  771000     0.958454   -7.3192376    252.06177  0.027244031  0.027671349            4 
  772000   0.90732604   -7.2760432    252.42708  0.027248173  0.027653062            2 
  773000   0.94651257   -7.3199259    252.28552  0.027197663  0.027634911            3 
  774000   0.97136753   -7.2789443    253.24246  0.027265554  0.027617028            2 
  775000    0.9433684   -7.2946721    253.78846  0.027289082  0.027599502            1 
  776000   0.94662075   -7.2808284    253.95576  0.027271882  0.027581938            2 
  777000   0.94181187    -7.326166    253.79688  0.027219742  0.027564168            2 
  778000   0.94222149   -7.2744388    255.04273  0.027318202  0.027546514            3 
  779000   0.94698732   -7.2843386    254.28878   0.02720248  0.027528824            2 
  780000   0.93306183   -7.2993604    254.89278  0.027232135  0.027511158            4 
  781000   0.92571047   -7.3101965    255.08645  0.027217931  0.027493784            1 
  782000   0.92703505   -7.3261061     254.2697  0.027096089  0.027476255            3 
  783000   0.91938514   -7.3312783     255.0526  0.027144806  0.027458661            2 
  784000   0.95807619   -7.2845494    255.34685   0.02714146  0.027441151            2 
  785000   0.94483234   -7.3397885    255.21013   0.02709237  0.027423792            3 
  786000   0.94648291    -7.301865    255.96039  0.027137446  0.027406338            2 
  787000   0.93906947   -7.3198373    256.31394    0.0271404  0.027389065            1 
  788000    0.9384115   -7.2937492    256.08786  0.027082049  0.027371829            1 
  789000   0.93285928   -7.3081379    255.90311  0.027028212   0.02735439            2 
  790000   0.93770431   -7.2895874    256.87719   0.02709675  0.027336977            2 
  791000   0.94475403   -7.3328314    256.36664  0.027008706  0.027319446            7 
  792000   0.95268538   -7.3351519    256.40108  0.026978229   0.02730165            3 
  793000   0.93636835   -7.2675172    256.77119  0.026983102  0.027284078            2 
  794000   0.93949364   -7.3369543    255.95505   0.02686346   0.02726642            1 
  795000   0.93737787    -7.276803    257.98035  0.027041966   0.02724872            3 
  796000   0.94070096    -7.276067    257.04666  0.026910245  0.027231299            3 
  797000   0.93796219   -7.3354169    257.25206  0.026897956  0.027213609            2 
  798000   0.91830184   -7.3084335    257.73911  0.026915112  0.027195592            2 
  799000   0.93876346    -7.316448    256.93527  0.026797588  0.027177468            2 
  800000    0.9422442    -7.289237    257.29796   0.02680187  0.027159475            3 
  801000   0.93111812   -7.3260796    257.97925   0.02683929  0.027141606            2 
  802000     0.935582   -7.3061471     258.2917   0.02683829  0.027123723            2 
  803000   0.94620217   -7.2644065    258.46252  0.026822594  0.027105758            2 
  804000   0.93447736   -7.3072704    258.42129   0.02678496   0.02708763            3 
  805000    0.9346667   -7.3079455    258.01814  0.026709953  0.027069481            3 
  806000    0.9247567   -7.3362665    257.85089  0.026659522  0.027051252            3 
  807000    0.9196254   -7.3368638    258.34284  0.026677287  0.027032959            2 
  808000   0.92643842   -7.3121436    258.37938  0.026648038   0.02701457            2 
  809000   0.91877863   -7.3299292     257.9611  0.026572013   0.02699597            2 
  810000   0.93483089   -7.3089083    258.44371  0.026588859  0.026977659            3 
  811000   0.91910619   -7.3240137    258.91356  0.026604353  0.026959524            3 
  812000   0.92357496    -7.330322    259.21954   0.02660299  0.026941357            2 
  813000   0.94907643   -7.3243289    259.75801  0.026625463  0.026923234            3 
  814000   0.96783496   -7.3291428     259.4564  0.026561875  0.026905311            3 
  815000   0.92589312   -7.3207931    259.48845  0.026532562  0.026887576            4 
  816000   0.92861105   -7.3661613    259.90228  0.026542308  0.026869501            1 
  817000    0.9387268   -7.3023748     260.4486  0.026565545   0.02685156            4 
  818000   0.91407861   -7.3658844    260.11391  0.026498972  0.026833568            3 
  819000   0.89735521   -7.3364116    259.93018  0.026447922  0.026815434            3 
  820000    0.9043199    -7.326184    260.75245  0.026499232  0.026797375            3 
  821000   0.93476311   -7.3340083    260.88427  0.026480336  0.026779298            3 
  822000   0.92275399   -7.3259348    260.76562  0.026436092  0.026761402            3 
  823000   0.93636724   -7.3110636    262.01071  0.026530043   0.02674389            2 
  824000   0.91119962   -7.3516576    261.22522  0.026418408  0.026726401            3 
  825000    0.9214331   -7.3406215    261.75869  0.026440271  0.026708832            3 
  826000   0.93376036   -7.3205045    262.02102  0.026434728  0.026691334            3 
  827000   0.92195255   -7.3202125    262.69488  0.026470665  0.026674128            2 
  828000   0.90857449   -7.3302098    262.54242  0.026423351  0.026656711            6 
  829000   0.91710686   -7.3820712     262.5918  0.026396441  0.026639314            2 
  830000   0.94219983   -7.3088553    263.04069  0.026409708  0.026622163            3 
  831000   0.92520189   -7.3550489    263.08561  0.026382431   0.02660489            2 
  832000   0.92189015    -7.347544    263.35664  0.026377868  0.026587508            2 
  833000   0.91761801   -7.3424396    263.25338  0.026335872  0.026570148            2 
  834000   0.90915158    -7.368173    262.81962  0.026260953  0.026552726            2 
  835000   0.90907792   -7.3433051    262.87604  0.026235133  0.026535045            4 
  836000   0.93074164   -7.3801343    263.45043  0.026261008  0.026517607            3 
  837000    0.9156045   -7.3599968    263.64253  0.026248759  0.026499928            1 
  838000     0.921237   -7.3682232    263.44162  0.026197456  0.026482291            2 
  839000   0.91544539    -7.364104    264.42755  0.026264159  0.026464672            2 
  840000   0.91973405   -7.3826423    263.12867  0.026104034  0.026446943            4 
  841000   0.90932347    -7.374316    264.43013  0.026201955  0.026429185            3 
  842000   0.93439376   -7.3726015    263.98834  0.026127112  0.026411457            6 
  843000   0.92339951   -7.3479857    264.72396  0.026168837  0.026393738            1 
  844000   0.91275652   -7.3537226    264.40487  0.026106326  0.026376048            2 
  845000   0.92440229   -7.3492693     264.6086  0.026095522  0.026358221            4 
  846000   0.92204281   -7.3734855    263.70403  0.025975574  0.026340337            4 
  847000   0.92898489    -7.363259    264.50749  0.026023956  0.026322464            1 
  848000   0.93072441   -7.3674593    264.47232  0.025989812  0.026304726            1 
  849000   0.93773922   -7.3336433    265.10353  0.026021155  0.026287036            1 
  850000   0.92805511    -7.363715     265.2569  0.026005578  0.026269252            3 
  851000   0.92375353   -7.3523497    265.08007  0.025957704  0.026251608            5 
  852000   0.94083828   -7.3838024     265.3771  0.025956289  0.026233962            4 
  853000   0.91996739   -7.3738022    266.02302  0.025988963  0.026216157            4 
  854000   0.91079285   -7.4002265    265.41594  0.025899291   0.02619827            2 
  855000   0.91224403    -7.334413    266.20649  0.025946052  0.026180338            3 
  856000   0.91496328   -7.3345755    266.25873  0.025920826  0.026162597            7 
  857000      0.92716   -7.3858862    265.18373   0.02578605   0.02614464            3 
  858000   0.91275444   -7.3604806    266.29257  0.025863692  0.026126913            5 
  859000   0.94509663   -7.3591076    266.94525    0.0258969  0.026109113            2 
  860000   0.89630716   -7.3524635    266.73089  0.025846016  0.026091452            2 
  861000   0.91905868   -7.3842893    266.23436   0.02576794  0.026073808            2 
  862000   0.90756395   -7.3536903    266.53228  0.025766848  0.026056042            2 
  863000   0.89045591   -7.3874988    266.49005  0.025732914  0.026038345            3 
  864000    0.9150442   -7.3743721    266.82751  0.025735678  0.026020621            5 
  865000   0.90068294   -7.3757199    267.02679  0.025725124  0.026002838            3 
  866000   0.91967626   -7.3664383    267.71134  0.025761291  0.025985101            2 
  867000   0.90011826   -7.3819137    267.63935  0.025724659  0.025967549            2 
  868000   0.90280154   -7.3836009    267.44193  0.025676069  0.025949927            2 
  869000   0.88945905   -7.3223938    268.08996  0.025708665  0.025932599            2 
  870000   0.91364802   -7.3916962    268.69355  0.025736931  0.025915193            3 
  871000   0.91093336   -7.3821014    268.64205  0.025702454  0.025897544            2 
  872000   0.89294125   -7.3656528    268.62177  0.025671041  0.025879912            5 
  873000   0.90288293   -7.3680073    267.96491  0.025578933   0.02586246            2 
  874000   0.90601226    -7.370377    268.41968  0.025593028  0.025844968            4 
  875000   0.90925909   -7.3984722    268.84768  0.025604541  0.025827454            3 
  876000   0.90718622   -7.3969813    269.51954  0.025639226  0.025809908            2 
  877000   0.90701755   -7.4075178    269.01823  0.025562355  0.025792396            7 
  878000   0.88576768   -7.3774639    269.25202  0.025555431  0.025774961            2 
  879000   0.91386903   -7.4148061    269.31677  0.025532496  0.025757258            3 
  880000   0.88829938   -7.4106126    268.92654  0.025466528  0.025739619            2 
  881000    0.9107609   -7.3983567    270.36175  0.025573378  0.025722153            4 
  882000   0.89672214   -7.3914084    269.75931  0.025487463  0.025705048            6 
  883000    0.8981504    -7.354326    270.33866  0.025513274  0.025687794            5 
  884000   0.90277994   -7.3701591    269.99157  0.025451694  0.025670398            5 
  885000   0.89237952    -7.370038    270.00552  0.025424248  0.025653019            3 
  886000   0.90989401   -7.3961876    269.86866  0.025382681  0.025635627            9 
  887000    0.8876593   -7.3980972    269.35032  0.025305366  0.025618128            2 
  888000   0.88546911   -7.3822481    270.79059   0.02541203  0.025600726            3 
  889000   0.89578169   -7.4000569    271.50842  0.025450733  0.025583433            4 
  890000   0.90324037   -7.4221346    270.11367  0.025291542  0.025566137            2 
  891000   0.90074055   -7.3787547    271.01828  0.025347763   0.02554874            3 
  892000   0.91444145   -7.4010389    271.31718   0.02534727  0.025531323            5 
  893000   0.90202249   -7.3689906    271.07442  0.025296232  0.025513881            2 
  894000   0.90115088   -7.4023589    271.56522  0.025313685  0.025496565            2 
  895000   0.88845622   -7.3881272    271.46656  0.025276216  0.025479148            3 
  896000   0.91944309   -7.3952911    271.14697  0.025218282  0.025461591            4 
  897000   0.89765224   -7.4262847    270.19766  0.025101975   0.02544372            4 
  898000   0.90613073   -7.3621532    271.79543  0.025222293  0.025425986            2 
  899000   0.88763203   -7.3991591     270.0069  0.025028448  0.025408336            3 
  900000   0.90654773   -7.4225606    270.55887  0.025051747  0.025390507            3 
  901000   0.87900011   -7.3957796    272.11046  0.025167449  0.025372828            3 
  902000   0.89810686   -7.3888613    271.80703  0.025111514  0.025355342            2 
  903000   0.86764861   -7.3978364    273.22665  0.025214715  0.025337985            3 
  904000   0.91223815   -7.4276137    272.45808  0.025115973  0.025320613            2 
  905000   0.91395485   -7.4253156    272.55273  0.025096936  0.025303051            5 
  906000   0.91957518   -7.3946988    273.35961  0.025143452  0.025285639            4 
  907000   0.87546913   -7.4177145    273.31627  0.025111749  0.025268264            2 
  908000   0.86458554   -7.4178786    272.60408   0.02501873  0.025250723            2 
  909000   0.87268801   -7.3896405    272.77108  0.025006517  0.025233283            4 
  910000   0.88468875   -7.3787492    273.17879  0.025016372  0.025215865            2 
  911000   0.89874604   -7.4112074    273.38055  0.025007369  0.025198424            2 
  912000   0.90119189   -7.3865229    273.17238  0.024960927  0.025180934            3 
  913000   0.87568031   -7.4307893    272.38514  0.024861732  0.025163294            3 
  914000   0.89396417   -7.4454801    272.44775   0.02484024   0.02514568            5 
  915000   0.88105841   -7.4600081    273.09435  0.024871981  0.025127942            4 
  916000   0.89064991   -7.4088889    273.37708   0.02487055  0.025110339            3 
  917000   0.88689089   -7.4464333    273.84236  0.024885711  0.025092792            2 
  918000    0.8901339   -7.4387877     274.4383    0.0249127  0.025075355            6 
  919000   0.87722499   -7.4130356    274.88121  0.024925754  0.025058099            3 
  920000   0.87615596   -7.4073461    275.39343  0.024945057  0.025041086            3 
  921000   0.90003843   -7.4198629    275.55664  0.024932739  0.025024026            3 
  922000   0.88847739   -7.4405697    274.40355  0.024801478  0.025006801            2 
  923000   0.88237726   -7.4475486    274.56054  0.024788782  0.024989614            2 
  924000   0.89436026   -7.4691603    275.38281  0.024836112  0.024972528            4 
  925000   0.87436605   -7.4164627    276.00126  0.024864978  0.024955356            3 
  926000   0.88683862   -7.4331565    274.87767  0.024737012  0.024938111            2 
  927000   0.90260602   -7.4207322    275.87744  0.024800202  0.024921001            3 
  928000   0.88069475   -7.4033024    276.58793  0.024837278  0.024903911            2 
  929000   0.86318093   -7.4303824    275.52388  0.024715095  0.024886802            7 
  930000   0.88695847   -7.4212162    275.69267  0.024703645  0.024869818            3 
  931000   0.89689923   -7.4405585    275.21283  0.024634159  0.024852632            3 
  932000   0.90326876   -7.4152076    276.96252  0.024764174  0.024835619            2 
  933000   0.87529275   -7.4311664     276.9576  0.024737192  0.024818773            1 
  934000   0.87347247   -7.4278597    276.32694  0.024654438  0.024802095            3 
  935000   0.89052503   -7.4248781    276.47987    0.0246417  0.024785278            2 
  936000   0.90726224   -7.4553725    276.43704   0.02461156  0.024768428            3 
  937000   0.87229045   -7.4474228    276.95128  0.024631028  0.024751384            3 
  938000   0.89630355   -7.4719947    277.39714  0.024644379  0.024734354            2 
  939000   0.88397255   -7.4225406    277.72866  0.024647556  0.024717366            2 
  940000    0.8773002   -7.4322445    276.79572  0.024538628  0.024700416            3 
  941000   0.90080286   -7.4524707    276.66684  0.024501137  0.024683268            6 
  942000   0.87992367   -7.4075447    277.00626  0.024505153  0.024666049            3 
  943000   0.86395483   -7.4533675    276.44308  0.024429399  0.024648798            4 
  944000   0.88977031   -7.4447828    277.17682  0.024468293  0.024631574            4 
  945000   0.88319917   -7.4552636    276.73241  0.024403211  0.024614247            3 
  946000   0.88966291   -7.4265074     277.5136   0.02444623  0.024596951            4 
  947000   0.87063159   -7.4215912    278.31406  0.024490853   0.02457974            3 
  948000   0.88219472   -7.4279624    278.16701  0.024452093  0.024562546            2 
  949000   0.86372675   -7.4154648    277.92976  0.024405493  0.024545341            2 
  950000    0.8915759   -7.4544904    277.40866  0.024334093  0.024528033            1 
  951000   0.87150511   -7.4302202     278.4039  0.024395715   0.02451064            5 
  952000   0.86453505   -7.4427343    278.03686   0.02433796  0.024493326            5 
  953000   0.86729904   -7.4614897    277.75158  0.024287476   0.02447612            4 
  954000    0.8697289   -7.4697487     278.0913  0.024291693  0.024458893            3 
  955000   0.88146804   -7.4589201    279.02637   0.02434785   0.02444171            2 
  956000   0.86486019   -7.4611414    278.95446  0.024316114  0.024424498            8 
  957000   0.86907443   -7.4108964    279.64722   0.02435103  0.024407517            4 
  958000   0.87868437   -7.4635062     278.9508  0.024265031  0.024390481            3 
  959000   0.87683317   -7.4620257    278.94586    0.0242393  0.024373472            1 
  960000   0.89096667   -7.4678603     278.6158    0.0241854  0.024356403            3 
  961000   0.84792357   -7.4245856    279.41014  0.024229113  0.024339389            1 
  962000   0.85905676   -7.4338193    279.28641  0.024193209  0.024322387            4 
  963000   0.86959374   -7.4849858     279.0755  0.024149835  0.024305277            3 
  964000   0.85484834   -7.4600126    279.28241   0.02414267  0.024288182            2 
  965000   0.87941808   -7.4731517    280.37403  0.024211919  0.024271076            2 
  966000   0.87984199   -7.4673606    279.94746  0.024150057  0.024254158            3 
  967000   0.86307127   -7.4662489    279.35326  0.024073876  0.024237295            1 
  968000    0.8725741   -7.4311442     279.7112  0.024079821  0.024220369            3 
  969000   0.86175471    -7.475814    279.65356  0.024050014  0.024203411            3 
  970000   0.86817609     -7.45492    280.51097  0.024098881  0.024186389            4 
  971000   0.85890833   -7.4978901    280.49564  0.024072746  0.024169195            3 
  972000   0.87847928    -7.508279    279.47594  0.023960557  0.024152113            3 
  973000   0.85946982   -7.4908572    280.40178  0.024015226  0.024134932            3 
  974000   0.87717901   -7.4606062    280.68421  0.024014734  0.024118048            4 
  975000   0.87701239   -7.4738956    279.74242  0.023909609  0.024101053            5 
  976000   0.85341983   -7.4642142    280.89782  0.023983762  0.024084007            3 
  977000   0.84553522    -7.494772    280.40735  0.023917379  0.024066911            4 
  978000   0.86032289   -7.4551792    281.39575  0.023977143  0.024049869            2 
  979000   0.87368679   -7.4846889    280.80144  0.023902063  0.024032807            5 
  980000   0.87293719   -7.4947901    281.34478  0.023923876  0.024015742            3 
  981000   0.85415287   -7.4645692    281.38438  0.023902852  0.023998679            3 
  982000   0.86602634   -7.5043761    281.02577   0.02384808  0.023981802            2 
  983000   0.86196142   -7.4682811    281.21514  0.023839872  0.023964751            4 
  984000   0.86858297   -7.4981566    280.79079  0.023779708  0.023947785            4 
  985000   0.87154547   -7.4753866    281.78902  0.023840018  0.023930709            1 
  986000    0.8610923   -7.4926428     281.2921  0.023773842  0.023913736            2 
  987000   0.85495236   -7.4960029    281.20955  0.023742786  0.023896733            6 
  988000   0.85595832    -7.511047    281.35972   0.02373142  0.023879652            3 
  989000   0.86463436    -7.499945    281.79759   0.02374432  0.023862697            2 
  990000   0.85580742   -7.5239362    281.60424  0.023704061   0.02384575            4 
  991000   0.86250164   -7.4721476    282.45311  0.023751523  0.023828976            4 
  992000   0.86181756   -7.4792729    282.65341  0.023744406   0.02381221            2 
  993000   0.85134341   -7.5074149    282.46371  0.023704574  0.023795572            3 
  994000   0.85845422    -7.498258    282.58132  0.023690587  0.023778684            2 
  995000   0.85415586   -7.4784237    281.93846  0.023612936  0.023761743            4 
  996000   0.85619468   -7.4973627    282.54913  0.023640322  0.023744805            2 
  997000   0.85213736   -7.4790967    282.73394  0.023632057  0.023727859            3 
  998000   0.84256243   -7.4906073    282.80461  0.023614279  0.023711045            3 
  999000   0.85345513   -7.4864592    282.55207  0.023569576   0.02369426            3 
 1000000   0.86449434   -7.4940438    283.00057  0.023583381  0.023677416            3 
 1001000   0.86673681   -7.4847501    283.63234  0.023612416  0.023660684            2 
 1002000   0.85031564   -7.5009401     283.1025  0.023544785  0.023643868            3 
 1003000   0.82459694   -7.4840339    282.39126  0.023462219  0.023627006            3 
 1004000   0.85147791   -7.5041261    283.97619  0.023570401  0.023610168            2 
 1005000   0.87177467   -7.5270438    283.59018   0.02351494  0.023593268            2 
 1006000   0.85467132   -7.5061787    283.87603  0.023515244  0.023576494            2 
 1007000   0.87192591   -7.5073839    283.81447  0.023486798  0.023559726            6 
 1008000   0.85376651   -7.5296952    283.95851  0.023475406  0.023542905            3 
 1009000   0.85932195   -7.5042218    284.40499  0.023489015  0.023526078            4 
 1010000   0.85707169   -7.4971899    283.05284  0.023354194  0.023509333            1 
 1011000   0.85104819   -7.5026522    284.11961  0.023419025  0.023492571            7 
 1012000   0.83642503   -7.5033533    284.56802  0.023432808  0.023475924            3 
 1013000   0.87583465   -7.4733727     284.4145  0.023397047  0.023459388            4 
 1014000   0.84294965   -7.5255813    284.25118  0.023360551  0.023442893            2 
 1015000   0.85887508   -7.4803852    285.13547  0.023410137  0.023426532            2 
 1016000   0.85271821   -7.5204415    284.58564  0.023341998  0.023410017            3 
 1017000   0.83955501   -7.5345144    285.07839  0.023359422  0.023393457            3 
 1018000   0.83728533    -7.484806    285.39523  0.023362413  0.023376927            3 
 1019000   0.83830248   -7.5068822    285.49663  0.023347778  0.023360585            2 
 1020000    0.8474243   -7.5312923     284.5379   0.02324656  0.023344105            4 
 1021000   0.83094832   -7.5361067    285.86724  0.023332292  0.023327607            3 
 1022000   0.85296911   -7.5288168    285.69718  0.023295595  0.023311143            7 
 1023000   0.82598009   -7.5055831    285.85955   0.02328605  0.023294682            5 
 1024000   0.82728037   -7.5182855     284.8786   0.02318348  0.023278127            3 
 1025000    0.8455788   -7.5148183    286.05883  0.023256815  0.023261638            2 
 1026000    0.8493774   -7.4844044    286.45065  0.023265972  0.023245205            4 
 1027000   0.83614317   -7.4914093    286.10389  0.023215181  0.023228775            3 
 1028000   0.83020397   -7.5425396    285.27323  0.023125262  0.023212088            6 
 1029000   0.81940876   -7.4995218    286.33937  0.023189129  0.023195447            3 
 1030000   0.82928703   -7.5163634    286.38856  0.023170596  0.023178899            3 
 1031000   0.83147983   -7.4721516    287.10108  0.023205713  0.023162457            2 
 1032000   0.82971444   -7.5163293    286.08993  0.023101577  0.023145935            6 
 1033000   0.81296581   -7.5443585    286.17683  0.023086224  0.023129298            2 
 1034000   0.84323495   -7.5152238    286.54156  0.023093291  0.023112726            2 
 1035000   0.83396492   -7.5578796    286.13508  0.023038251   0.02309614            4 
 1036000   0.82904113   -7.5556796     286.1956  0.023020882  0.023079517            3 
 1037000   0.85696979   -7.5077899    286.62641  0.023033302  0.023062836            2 
 1038000    0.8398788   -7.5039693    286.39335  0.022992401  0.023046144            3 
 1039000   0.85016637   -7.5421615    285.74067  0.022917924  0.023029281            2 
 1040000   0.83879455   -7.5385569      286.767  0.022978125  0.023012516            2 
 1041000   0.84078219   -7.5438365    286.31433  0.022919815  0.022995712            6 
 1042000   0.83934702   -7.5215046    286.63706   0.02292363  0.022978983            3 
 1043000   0.84805387   -7.5218224    287.01067  0.022931501  0.022962369            1 
 1044000   0.84175709   -7.5185407    287.23263  0.022927253  0.022945653            3 
 1045000   0.84184611   -7.5568194    286.62522  0.022856876  0.022928902            6 
 1046000   0.82903549   -7.5404644    286.99687  0.022864633  0.022912041            2 
 1047000   0.85479127   -7.5304753    287.11106  0.022851883  0.022895176            4 
 1048000    0.8213905   -7.5460681    287.08571  0.022828063  0.022878333            3 
 1049000   0.82825421   -7.5320676    286.48518  0.022758594  0.022861413            3 
 1050000   0.84695682   -7.5245742    287.22778  0.022795856  0.022844595            4 
 1051000   0.81296977   -7.5291516    287.48559  0.022794608  0.022827692            3 
 1052000   0.85415028   -7.5455538    287.02563  0.022736504  0.022810806            2 
 1053000   0.84851579   -7.5437977    286.45793  0.022669985  0.022793921            3 
 1054000   0.82861931   -7.5479223    286.77399  0.022673466  0.022777029            4 
 1055000   0.83644648   -7.5587873    287.61106  0.022718093  0.022760144            3 
 1056000   0.83839632    -7.553573     287.2522  0.022668261  0.022743291            3 
 1057000   0.82572794   -7.5198376    287.30479  0.022650961  0.022726356            3 
 1058000   0.83901881   -7.5251281    287.87516  0.022674477  0.022709569            3 
 1059000   0.85252249   -7.5577433     287.7709  0.022644862  0.022692794            2 
 1060000   0.83136179   -7.5730604    287.56915  0.022607638  0.022676058            5 
 1061000   0.83842386   -7.5781197     287.8646  0.022609535  0.022659216            4 
 1062000   0.84610012   -7.5565322    288.52505   0.02264007  0.022642567            2 
 1063000   0.82233881   -7.5719493    288.40439  0.022609312  0.022625833            3 
 1064000   0.81711672   -7.5623223    288.83716  0.022621958  0.022609178            2 
 1065000   0.84183355   -7.5286484    288.74363  0.022593398  0.022592475            2 
 1066000   0.83147892   -7.5489562    288.56346  0.022558119  0.022575922            2 
 1067000   0.81821309   -7.5592597    288.77536  0.022553527  0.022559327            6 
 1068000    0.8301053   -7.5346515    289.07075  0.022555458  0.022542833            7 
 1069000   0.83310411   -7.5837117    289.33055  0.022554611  0.022526398            2 
 1070000   0.83472763   -7.5461056    289.32723  0.022533274  0.022509851            5 
 1071000   0.82864025   -7.6177437    289.22408  0.022504208  0.022493346            2 
 1072000   0.83386625   -7.5843939    288.40314  0.022419398  0.022476748            2 
 1073000   0.84786485   -7.5367203    290.06713  0.022527736  0.022460403            4 
 1074000   0.81017859   -7.5531966    289.60901  0.022471214  0.022444146            2 
 1075000   0.80717764   -7.5377624    290.30972   0.02250463  0.022427947            3 
 1076000   0.83232266   -7.5708689    289.48881  0.022420137  0.022411681            4 
 1077000   0.81771565   -7.5678152    289.87941  0.022429543  0.022395388            3 
 1078000   0.81892764   -7.5764024    289.08958  0.022347679  0.022379049            4 
 1079000   0.82669714   -7.5778666    289.43884  0.022353942  0.022362662            4 
 1080000   0.80474281   -7.5622375    289.98199  0.022375154  0.022346242            3 
 1081000   0.81782743   -7.5639686    290.50163  0.022394513  0.022329864            6 
 1082000    0.8183571   -7.5458376    291.14759  0.022423567  0.022313508            2 
 1083000   0.82055418   -7.5599689    290.46065  0.022350004  0.022297107            3 
 1084000   0.81484643   -7.5959391    289.60292  0.022263447  0.022280682            5 
 1085000   0.84259825   -7.5794693    289.31352    0.0222207  0.022264246            5 
 1086000   0.81524625   -7.5820632    290.24803  0.022271948  0.022247823            2 
 1087000   0.80408222   -7.5594828    291.40061   0.02233982  0.022231558            3 
 1088000   0.80747297   -7.5834368    290.37946  0.022241074  0.022215303            4 
 1089000   0.83314819   -7.5476132    290.85174  0.022256791  0.022199143            2 
 1090000   0.81616972   -7.5702029    291.01246  0.022248659  0.022182975            5 
 1091000   0.81408999    -7.580932    290.90312  0.022219915  0.022166674            3 
 1092000   0.82377936   -7.5963923    290.71009  0.022184836  0.022150382            3 
 1093000   0.81980927   -7.5737702    290.65419  0.022160277  0.022134046            3 
 1094000   0.82637088   -7.5808581    290.56596    0.0221333  0.022117686            3 
 1095000   0.81572104   -7.5993851    290.73071  0.022125625  0.022101268           10 
 1096000   0.81070853   -7.5621274    290.57562  0.022093645  0.022084931            4 
 1097000    0.8128255   -7.5868483    290.76206  0.022087668  0.022068518            2 
 1098000   0.82130002   -7.5793872    291.06945  0.022090881  0.022052243            2 
 1099000   0.79430449   -7.5710627    291.37113  0.022093656  0.022035921            4 
 1100000   0.81825558   -7.6103177     291.2599  0.022065144  0.022019688            1 
 1101000   0.81440816   -7.6071146    290.76076  0.022007324  0.022003209            4 
 1102000   0.81155375    -7.583533    291.00621  0.022005914  0.021986792            2 
 1103000   0.83791346   -7.6127223    291.24493  0.022003999  0.021970471            2 
 1104000   0.82985182   -7.5975138     290.8267  0.021952499  0.021954288            1 
 1105000   0.83751465   -7.5862265    291.40453  0.021976209  0.021938201            3 
 1106000   0.79435354     -7.61466    291.98607  0.022000156  0.021922053            2 
 1107000    0.8146135     -7.55752    292.13278  0.021991327   0.02190604            4 
 1108000   0.81662414   -7.6102018    291.55737  0.021928202  0.021889962            7 
 1109000   0.79478584   -7.5900378    292.07534   0.02194735  0.021873828            4 
 1110000   0.81264832   -7.6137264    291.46197  0.021881529  0.021857572            2 
 1111000    0.7886072    -7.596907    291.96278  0.021899398  0.021841468            3 
 1112000   0.81272003    -7.615031    291.40854   0.02183817  0.021825231            4 
 1113000    0.8274044   -7.5976286    292.05345  0.021866835  0.021809052            4 
 1114000   0.78987971   -7.6093635    291.76089  0.021825321  0.021792723            4 
 1115000   0.80558358   -7.5683388    291.86162  0.021813275  0.021776534            3 
 1116000   0.81982177   -7.6277601    292.71874  0.021857731  0.021760337            4 
 1117000   0.81223636     -7.59358    292.10144   0.02179211  0.021744128            3 
 1118000   0.80893239    -7.621283    293.06089  0.021844133   0.02172795            5 
 1119000   0.81186721   -7.6175565    292.39662  0.021775143  0.021711943            3 
 1120000   0.82068438   -7.6233234    292.59513  0.021770471  0.021695881            5 
 1121000   0.81308067   -7.6216046    292.18259  0.021720383  0.021679795            3 
 1122000   0.82297775   -7.6053877    293.37145  0.021789323  0.021663764            8 
 1123000   0.80781837   -7.6016057    293.55492  0.021783535  0.021647693            2 
 1124000   0.78971022   -7.6346023    292.56504  0.021690765  0.021631648            7 
 1125000   0.78841349   -7.6276372    292.89799  0.021696147  0.021615649            3 
 1126000   0.80921954   -7.6185001    293.94914  0.021754673  0.021599697            2 
 1127000   0.78832526   -7.6104095    293.30478  0.021687724  0.021583799            4 
 1128000   0.81156037   -7.6245586    292.71665  0.021625048  0.021567832            5 
 1129000   0.79762842   -7.6314182    292.95385  0.021623402  0.021551719            3 
 1130000   0.79490249   -7.6288379    293.01604  0.021608852  0.021535655            4 
 1131000   0.80778868   -7.6188099    293.28252  0.021609381  0.021519632            2 
 1132000   0.81706871   -7.6002211    293.56609  0.021611167   0.02150374            2 
 1133000   0.80516806   -7.6552551    293.11467   0.02155889  0.021487843            5 
 1134000   0.81493604   -7.6233669    294.15541  0.021616359  0.021471857            2 
 1135000   0.80626674   -7.6399209     292.8616   0.02150232  0.021455945            3 
 1136000   0.79689731   -7.6126642    294.17963  0.021580078  0.021440025            2 
 1137000   0.80310324   -7.6066937    294.23839  0.021565405  0.021424234            2 
 1138000   0.80323554   -7.6141267    293.60368  0.021499976  0.021408347            3 
 1139000   0.80978564   -7.6450536    293.98384  0.021508914  0.021392443            4 
 1140000   0.79598384   -7.6369333    294.07893  0.021496997  0.021376516            3 
 1141000   0.78895097   -7.6658272    293.73877  0.021453314  0.021360694            2 
 1142000    0.7959877   -7.6413037    293.69639  0.021431436  0.021344755            2 
 1143000   0.78779073   -7.6322417    294.28389  0.021455519  0.021328942            4 
 1144000    0.7900801   -7.6207996    294.09451  0.021422969  0.021313073            3 
 1145000   0.79042888   -7.6036668     295.4097  0.021499978  0.021297296            2 
 1146000   0.78552412   -7.6090961    294.74578  0.021432939  0.021281574            2 
 1147000   0.78908126   -7.6063791    295.00141  0.021432826  0.021265972            1 
 1148000   0.78876393   -7.6071309     294.3389  0.021366064  0.021250402            2 
 1149000   0.78511375   -7.6422771    294.81418   0.02138194  0.021234819            2 
 1150000    0.7896683   -7.6551356    294.75635  0.021359156   0.02121931            2 
 1151000   0.79281876   -7.6443854    294.77399  0.021341876  0.021203751            6 
 1152000   0.79852663   -7.6318521    295.76739  0.021395211  0.021188327            2 
 1153000   0.76540757   -7.6074745    296.01117  0.021394274  0.021172812            2 
 1154000   0.78771279   -7.6482298    294.70926   0.02128172  0.021157305            7 
 1155000    0.7918477   -7.6441114    295.32115  0.021307443  0.021141804           11 
 1156000   0.79078359   -7.6250331     295.4068  0.021295184  0.021126312            6 
 1157000   0.78405197   -7.6151227    295.66126  0.021295106  0.021110798            2 
 1158000   0.78155826   -7.6736159    294.81667  0.021215938   0.02109516            2 
 1159000   0.80188746   -7.6525237    295.36774  0.021237255  0.021079577            2 
 1160000   0.79331206   -7.6524018    295.01454  0.021193573  0.021064054            4 
 1161000   0.80701345   -7.6437432    295.50117  0.021210247  0.021048535            3 
 1162000    0.8087567   -7.6493394    295.27247  0.021175593  0.021032922            3 
 1163000    0.7900799   -7.6646875    296.26316  0.021228372  0.021017397            3 
 1164000   0.79504974   -7.6364982     296.0554  0.021195261  0.021001937            4 
 1165000   0.79904846   -7.6496469    296.37636  0.021200026  0.020986466            6 
 1166000   0.79392719   -7.6294742    296.24555  0.021172495  0.020971055            3 
 1167000   0.78652796   -7.6451767    296.20524  0.021151474  0.020955638            4 
 1168000   0.78611318   -7.6520622    295.92231  0.021113179  0.020940141            4 
 1169000   0.78162941   -7.6518476    296.55148  0.021139968  0.020924692            4 
 1170000   0.80940854   -7.6384216    296.57212   0.02112337  0.020909243            2 
 1171000   0.78519768   -7.6604269    296.31862  0.021087292  0.020893836            3 
 1172000   0.77131751   -7.6632194    296.43475  0.021077556  0.020878436            3 
 1173000   0.78038482   -7.6601694     296.5677  0.021069032  0.020863003            4 
 1174000   0.78420928   -7.6534395    296.42835  0.021041195  0.020847679            3 
 1175000   0.80142236   -7.6562174    296.47134  0.021026336  0.020832285            8 
 1176000   0.78950497   -7.6288642    297.65418  0.021092275  0.020816924            5 
 1177000   0.78475496   -7.6460534    296.56495  0.020997235   0.02080154            4 
 1178000   0.78226144   -7.6795183    296.21161  0.020954415  0.020786156            5 
 1179000   0.80132652   -7.6665949    297.21514  0.021007573  0.020770782            3 
 1180000   0.78965935   -7.6368087     297.3925  0.021002295  0.020755481            2 
 1181000   0.78165405   -7.6502844    296.68464  0.020934564  0.020740176            6 
 1182000   0.77645156   -7.6570504    297.34963  0.020963736  0.020724874            5 
 1183000   0.77050799   -7.6909279    296.97761  0.020919809  0.020709468            4 
 1184000   0.77419575   -7.6875407    297.13703  0.020913361  0.020694105            3 
 1185000   0.79437957   -7.6963617    297.37969  0.020912777  0.020678831            2 
 1186000   0.79804292   -7.6475676    297.38734  0.020895681  0.020663634            3 
 1187000   0.78463975   -7.6541967    297.41261  0.020879852  0.020648495            2 
 1188000   0.79258251    -7.668659    297.85276  0.020893151  0.020633326            3 
 1189000   0.78897653    -7.695871    297.70299  0.020865082  0.020618207            4 
 1190000   0.79706374   -7.6650598    298.28583  0.020888364  0.020603107            8 
 1191000    0.7817892   -7.6632341    297.44386  0.020811913  0.020588002            3 
 1192000   0.79273115   -7.6658974    298.33038   0.02085643  0.020572909            3 
 1193000   0.75085735   -7.6698198    298.33361  0.020839174  0.020557806            3 
 1194000   0.77676194   -7.7067966    297.69361  0.020777053  0.020542729            5 
 1195000   0.76755373   -7.6774549    298.52895  0.020817918  0.020527589            6 
 1196000   0.76382387    -7.660095    298.61745  0.020806679  0.020512462            4 
 1197000   0.77736326   -7.6989901    298.32194  0.020768723  0.020497353            5 
 1198000   0.76610801   -7.6793839    297.96257  0.020726389  0.020482257            3 
 1199000   0.76439008   -7.6810241    298.61702  0.020754589  0.020467149            6 
 1200000   0.76983672   -7.7075489    298.09185  0.020700823  0.020452045            3 
 1201000   0.76314597   -7.7032036    298.31538  0.020699097  0.020436926            3 
 1202000   0.78639325   -7.6770199    297.81899  0.020647462   0.02042182            4 
 1203000   0.77148194   -7.7254124    297.74709  0.020625318  0.020406611            2 
 1204000   0.78674386   -7.7096529    297.68003  0.020603546  0.020391455            5 
 1205000   0.76062241   -7.6871523    298.29397  0.020628906   0.02037633            4 
 1206000   0.76639957   -7.6890541    298.83704  0.020649326  0.020361253            3 
 1207000    0.7870026   -7.6944795    298.81793  0.020630898  0.020346133            2 
 1208000   0.78305626   -7.6767225    298.75153  0.020609239  0.020331073            4 
 1209000    0.7638324   -7.6855882    298.36605  0.020565622  0.020316015            2 
 1210000   0.76936123   -7.6820903    298.83506  0.020580927  0.020300969            2 
 1211000    0.7761825   -7.7244285    299.20156  0.020589152  0.020285905            4 
 1212000   0.78366955   -7.6933441    298.81004  0.020545245  0.020270815            3 
 1213000   0.78252182   -7.6843659    298.83039  0.020529705   0.02025572            4 
 1214000   0.77695262   -7.7177444     297.8685  0.020446767  0.020240597            2 
 1215000   0.77402723   -7.7201476    298.18735  0.020451807  0.020225434            3 
 1216000   0.77566169   -7.7002733    298.64311  0.020466222  0.020210258            3 
 1217000   0.76730013   -7.7068772    299.12351    0.0204823  0.020195178            3 
 1218000   0.74318481   -7.7063785    298.55995  0.020426926  0.020180119            3 
 1219000    0.7560314   -7.7104745    298.29457  0.020392027  0.020164967            5 
 1220000   0.77768212   -7.7027331    298.75281  0.020406613  0.020149865            3 
 1221000   0.77408381   -7.7422397    297.75234  0.020321617  0.020134626            7 
 1222000    0.7500688   -7.7126694     298.4233  0.020350743  0.020119439            2 
 1223000   0.74424582   -7.7129026    297.92007  0.020299814  0.020104255            3 
 1224000   0.77710187   -7.7215951    298.98417  0.020355676  0.020089052            5 
 1225000   0.76672983   -7.7152591    298.82637  0.020328325  0.020073888            2 
 1226000   0.77636748   -7.7202993    298.25379  0.020272824  0.020058736            3 
 1227000   0.76585071   -7.7101851    299.05819  0.020310934  0.020043599            3 
 1228000    0.7744304   -7.7225518    298.67671  0.020268507  0.020028483            3 
 1229000   0.76537751   -7.7096712    299.42627  0.020302839  0.020013435            2 
 1230000   0.74773315   -7.7224917    299.00132  0.020257542  0.019998367            3 
 1231000   0.75873491   -7.7134425    299.52157  0.020276304  0.019983328            2 
 1232000   0.77501987   -7.7064941    299.79844  0.020278574  0.019968336            3 
 1233000   0.78056464   -7.6871029    299.23326   0.02022393  0.019953349            4 
 1234000   0.75951946   -7.7015953    299.83044  0.020247869  0.019938398            3 
 1235000   0.75445315   -7.7310364    298.94602  0.020171796  0.019923426            2 
 1236000   0.75418209   -7.7159535    299.45741  0.020189955   0.01990848            2 
 1237000   0.74649823   -7.7034157    299.58407  0.020182166  0.019893514            4 
 1238000   0.75781451   -7.7012887    299.44332  0.020156389  0.019878581            2 
 1239000    0.7690182   -7.7266414    299.77204  0.020162231  0.019863659            3 
 1240000   0.76580526   -7.7188783    299.77421  0.020146116  0.019848786            4 
 1241000   0.76229054   -7.7374771    299.87862  0.020136894  0.019833906            4 
 1242000   0.76899872   -7.7085576    300.46672  0.020160139  0.019819006            6 
 1243000    0.7647645   -7.7481463    300.25092  0.020129453  0.019804157            2 
 1244000   0.74974353   -7.7128975     300.3712  0.020121329  0.019789303            2 
 1245000   0.73441867   -7.7325306    299.13688  0.020022549  0.019774408            4 
 1246000   0.75728565   -7.7035085    300.38801  0.020090155  0.019759569            3 
 1247000   0.75388083   -7.7010547        300.6  0.020088212  0.019744763            3 
 1248000   0.75365528   -7.7508933    299.87974  0.020024021  0.019729875            3 
 1249000    0.7627447   -7.7076028    300.30879  0.020036615   0.01971506            5 
 1250000   0.74107608   -7.7262037    300.43443  0.020028962  0.019700148            4 
 1251000    0.7370417   -7.7599297    299.57311  0.019955576  0.019685279            5 
 1252000   0.75829291   -7.7598892    299.79597  0.019954471  0.019670372            2 
 1253000   0.75106172     -7.74692    300.13447  0.019961058  0.019655506            5 
 1254000   0.75199013   -7.7362114     300.3018   0.01995626  0.019640622            3 
 1255000   0.74950571   -7.7363204    300.10008  0.019926964  0.019625758            5 
 1256000   0.74745179    -7.736014    300.26055  0.019921746  0.019610932            2 
 1257000   0.74838407    -7.759758    299.67042  0.019866774   0.01959613            3 
 1258000   0.76406891   -7.7503689    300.08692  0.019878572  0.019581268            4 
 1259000   0.74935915   -7.7778828    300.53034  0.019892133  0.019566449            3 
 1260000   0.76005897   -7.7325921    299.86885  0.019832596  0.019551645            2 
 1261000    0.7619921   -7.7461369    300.94778   0.01988817  0.019536842            2 
 1262000   0.75817108   -7.7426538    300.57786  0.019847984  0.019522012            2 
 1263000   0.74881532    -7.748053    301.25265  0.019876791    0.0195072            3 
 1264000   0.74180933   -7.7349111    300.71555  0.019825656  0.019492437            5 
 1265000   0.74135249   -7.7324918    300.39782  0.019789053  0.019477691            2 
 1266000   0.74433987   -7.7416512    301.32291  0.019834315  0.019462936            4 
 1267000   0.75355413   -7.7416496    300.66558  0.019775426  0.019448262            6 
 1268000   0.73867295   -7.7558919    300.20654  0.019729662  0.019433551            3 
 1269000   0.74661011   -7.7383992    300.63312  0.019742128  0.019418844            3 
 1270000   0.73952339   -7.7925768    300.51186  0.019718626  0.019404116           10 
 1271000   0.74909737   -7.7301246    300.91743  0.019729703  0.019389399            3 
 1272000   0.75278061    -7.750101    301.03609  0.019721966  0.019374687            2 
 1273000   0.73905459    -7.727555    300.62761  0.019679734  0.019359968            3 
 1274000   0.72482665   -7.7707006     300.4895  0.019655252  0.019345273            3 
 1275000   0.75708037   -7.8008155    300.85319  0.019663607  0.019330505            6 
 1276000   0.74784838   -7.7535525     300.1576  0.019602769  0.019315809            4 
 1277000     0.755801   -7.7750001    300.99233   0.01964189   0.01930113            6 
 1278000   0.75222654   -7.7620507    301.03222  0.019629123  0.019286518            4 
 1279000   0.74455151   -7.7724267    300.91745  0.019606297   0.01927182            9 
 1280000   0.75686055   -7.7403224    301.39073  0.019621793  0.019257227            3 
 1281000   0.73494031   -7.7707667    301.11482  0.019588526  0.019242562            6 
 1282000   0.73100015    -7.787802    301.21255  0.019579599  0.019227926            4 
 1283000   0.73161106   -7.7856179    301.51214  0.019583797  0.019213275            4 
 1284000   0.73646866   -7.7300046    302.16863  0.019611152  0.019198681            4 
 1285000   0.74928654   -7.7700929    301.08705  0.019525749  0.019184089            4 
 1286000   0.74163878   -7.7399695    302.29976   0.01958915  0.019169549            7 
 1287000   0.73552461   -7.7545872     301.5693  0.019526632  0.019155026            3 
 1288000   0.74093894   -7.7627577    301.97843  0.019537942  0.019140505            6 
 1289000   0.72554768   -7.7703272    301.77077  0.019509359  0.019126041            5 
 1290000   0.73650779   -7.7874054    301.63866  0.019485702  0.019111573            3 
 1291000   0.73115155   -7.7431953    301.94381  0.019490306  0.019097102            3 
 1292000    0.7567514   -7.7741921    300.97708  0.019412867  0.019082636            5 
 1293000   0.73507187   -7.7767682    301.56767  0.019435916  0.019068157            2 
 1294000   0.71415077   -7.7649997    301.60198  0.019423105  0.019053701            3 
 1295000   0.72435502   -7.8059969    301.82997  0.019422778  0.019039221            3 
 1296000   0.74711633   -7.7771455     302.3519  0.019441351  0.019024832            3 
 1297000   0.72714789   -7.7887852    301.95095  0.019400601  0.019010363            3 
 1298000   0.72578491   -7.7560499    302.35625  0.019411675  0.018995834            2 
 1299000   0.74570783    -7.803363    301.57086  0.019346347  0.018981394            2 
 1300000   0.74201665   -7.7874589    301.44314  0.019323278  0.018966963            5 
 1301000    0.7294111   -7.7827761    301.91599  0.019338713  0.018952553            5 
 1302000   0.73916349   -7.7907125    301.83054  0.019318391  0.018938142            3 
 1303000    0.7103314   -7.8107234     301.5334  0.019284561   0.01892373            3 
 1304000   0.73757771   -7.7856383    301.93966  0.019295735  0.018909346            3 
 1305000   0.75089575   -7.7779365    301.31684  0.019241177  0.018894973            9 
 1306000   0.72404694   -7.8206109     301.6816  0.019249719  0.018880527            3 
 1307000   0.73030934   -7.8178801     302.1508  0.019264907  0.018866112            4 
 1308000   0.72708946   -7.8086544     302.2349  0.019255537  0.018851687            5 
 1309000   0.72453206   -7.7975769    302.08122  0.019231043  0.018837313            4 
 1310000   0.73945597   -7.8212283    301.72801  0.019193894   0.01882289            2 
 1311000   0.71764924   -7.8180005    301.95535  0.019193704  0.018808506            4 
 1312000   0.72859125   -7.8021953    302.82769  0.019234483  0.018794051            3 
 1313000   0.71701749   -7.7938646    302.52923  0.019200891   0.01877962            2 
 1314000   0.71840828   -7.7785209    302.45722  0.019181711  0.018765231            3 
 1315000   0.72724176   -7.8043449    302.33435  0.019159337  0.018750843            2 
 1316000   0.72001293   -7.7895857    302.13512  0.019132163  0.018736479            5 
 1317000   0.71330696   -7.8001663     302.1787  0.019120394  0.018722151            6 
 1318000   0.72125225   -7.8058762    302.60542  0.019132867  0.018707839            8 
 1319000   0.72204348   -7.7994889     302.5324  0.019113748  0.018693565            3 
 1320000    0.7160578    -7.795817    302.41861  0.019092084  0.018679302            6 
 1321000   0.71057247   -7.8379755    302.16492  0.019061628  0.018664997            4 
 1322000   0.72808106   -7.8125328    302.59119  0.019074079  0.018650712            6 
 1323000   0.72082291   -7.7959062    302.64109  0.019062805  0.018636513            6 
 1324000   0.73447819   -7.8062542    303.05434  0.019074417   0.01862233            4 
 1325000    0.7213409   -7.8439609    302.56711  0.019029378  0.018608129            3 
 1326000   0.72129658   -7.7923796    303.43413  0.019069515  0.018593875            5 
 1327000    0.7241226   -7.8134727    302.26718  0.018981862  0.018579677            4 
 1328000   0.73208084   -7.8009758    302.84342  0.019003729  0.018565413            3 
 1329000   0.72630553   -7.8043019     302.9587  0.018996658  0.018551262            2 
 1330000   0.71465286   -7.8150157    302.98354  0.018983931  0.018537074            4 
 1331000   0.72560394   -7.8085962    303.41063  0.018996408  0.018522906            2 
 1332000    0.7201371   -7.8005873     302.9422   0.01895284  0.018508747            4 
 1333000   0.71423735   -7.8047484    302.92032  0.018937254  0.018494624            3 
 1334000   0.72203761   -7.8167356    303.47451  0.018957678  0.018480513            2 
 1335000   0.72625174   -7.7992627    303.68918  0.018956878  0.018466421            2 
 1336000   0.72241713   -7.8193603      303.579  0.018935816  0.018452319            4 
 1337000   0.71378011   -7.8049583    303.26066  0.018901811   0.01843824            3 
 1338000   0.72577748   -7.8001065    303.07806  0.018876311  0.018424203            4 
 1339000   0.71642076   -7.7923784     303.3893  0.018881585  0.018410149            4 
 1340000   0.72232829   -7.7939065    303.11615  0.018850507  0.018396147            8 
 1341000   0.72413203   -7.7816822     303.9682  0.018889398  0.018382156            3 
 1342000   0.71053947    -7.780341    304.07536  0.018881977  0.018368212            3 
 1343000   0.71896294   -7.7912507     303.5526   0.01883548  0.018354275            5 
 1344000   0.71777721   -7.8243815    303.42377  0.018813478  0.018340295            3 
 1345000   0.71027885   -7.8531153    302.95399  0.018770384   0.01832623            3 
 1346000   0.70608771   -7.8242443    303.44732  0.018786981  0.018312162            4 
 1347000   0.72444579   -7.8172087    303.77197  0.018793118  0.018298155            2 
 1348000   0.70779054   -7.8270426     303.2661  0.018747904  0.018284168            2 
 1349000    0.7254698   -7.8342343    303.47473  0.018746895  0.018270127            4 
 1350000   0.71497876    -7.844707    303.16472  0.018713872  0.018256103            4 
 1351000   0.72101723   -7.8213059    303.32878  0.018710139  0.018242112            3 
 1352000   0.71643368   -7.7971207    304.03196  0.018739642  0.018228135            1 
 1353000   0.71034906   -7.8264526    303.21806  0.018675662  0.018214199            4 
 1354000   0.70716158   -7.8465685     303.4087  0.018673603   0.01820021            7 
 1355000   0.71175488   -7.8343964    303.08166  0.018639708  0.018186275            7 
 1356000   0.71916368   -7.8598101    302.95367  0.018618097  0.018172358            3 
 1357000   0.71311627   -7.8203312    303.21015  0.018620127  0.018158458            5 
 1358000   0.69807628   -7.7968453     303.5938  0.018629958  0.018144602            4 
 1359000   0.73391181   -7.7926698    303.47749  0.018609117  0.018130809            4 
 1360000   0.71062226   -7.8491541    303.30799  0.018585048  0.018116901            3 
 1361000   0.71550234   -7.8517877     303.8688  0.018605731  0.018103027            3 
 1362000    0.7226196   -7.8345057    303.14276  0.018547648  0.018089115            1 
 1363000   0.70737186   -7.8742019    303.25056  0.018540631  0.018075139            3 
 1364000   0.71506771   -7.8345601    303.98474  0.018571893  0.018061224            3 
 1365000   0.71017461   -7.8446558    304.32125  0.018578831   0.01804732            3 
 1366000   0.71844851   -7.8384531    303.32444  0.018504419  0.018033427            3 
 1367000   0.71141622   -7.8859847    303.05224  0.018474289  0.018019484            8 
 1368000   0.70551756   -7.8789523    303.56264  0.018491876  0.018005522            3 
 1369000   0.69586818   -7.8298338    304.45063  0.018532422  0.017991596            6 
 1370000   0.69829331   -7.8570535    303.17402  0.018441242  0.017977698            3 
 1371000   0.70321725   -7.8503466    303.87293  0.018470273  0.017963767            2 
 1372000    0.6903395   -7.8624723    303.37841  0.018426774  0.017949846            4 
 1373000   0.70673326   -7.8419596    303.33568   0.01841076  0.017935996            3 
 1374000   0.69815336   -7.8595293    304.02902  0.018439412  0.017922204            2 
 1375000   0.72823441   -7.8316323     304.3446  0.018445127  0.017908389            4 
 1376000   0.72417951   -7.8677458    303.78497   0.01839783  0.017894584            3 
 1377000   0.71550822   -7.8634482    304.02393   0.01839893  0.017880782            3 
 1378000   0.72239529   -7.8596164    303.86489  0.018375961  0.017866944            3 
 1379000   0.71066917   -7.8415676    303.83194  0.018360644  0.017853175            2 
 1380000   0.68862459    -7.870855    303.84285  0.018347998  0.017839385           10 
 1381000   0.69055251   -7.8495219    305.29792  0.018422515  0.017825669            4 
 1382000   0.70065399   -7.8660195    303.96363  0.018328728   0.01781195            9 
 1383000   0.70447758   -7.8549441    303.84482  0.018308316  0.017798241            3 
 1384000   0.69571566   -7.8448312    304.35054  0.018325538  0.017784524            5 
 1385000   0.70322969   -7.8510301    304.30025  0.018309281  0.017770792            3 
 1386000    0.7008744   -7.8527823    303.90238  0.018272149  0.017757046            5 
 1387000   0.69277223   -7.8802146    303.45563  0.018232133  0.017743282            3 
 1388000   0.70168687   -7.8659903     304.0797  0.018256466  0.017729533            5 
 1389000   0.70904483   -7.8606525    304.31649  0.018257529  0.017715817            3 
 1390000   0.69886494   -7.8616094    304.62416  0.018262839  0.017702117            5 
 1391000   0.68665502   -7.8625837    303.84941  0.018203296  0.017688407            6 
 1392000   0.70772578   -7.8308102    304.75789  0.018244605  0.017674756            7 
 1393000   0.68720189   -7.8667227    304.04695  0.018188977  0.017661096            2 
 1394000   0.70331322   -7.8457897    304.47756  0.018201672  0.017647432            2 
 1395000   0.69763173   -7.8725365    304.59866  0.018195858  0.017633742            5 
 1396000   0.70094699   -7.8658892     303.5908   0.01812266  0.017620061            5 
 1397000    0.6995869   -7.8787221    304.21246   0.01814677  0.017606437            3 
 1398000   0.67367096    -7.876881    303.76488   0.01810711  0.017592779            9 
 1399000   0.70775439   -7.8968855      303.906  0.018102573  0.017579123            6 
 1400000    0.6922045   -7.8748482    304.12167  0.018102481  0.017565433            6 
 1401000   0.70010318   -7.9051506    304.00668  0.018082719  0.017551774            3 
 1402000   0.69262683   -7.8709419    304.15268    0.0180785  0.017538099            7 
 1403000   0.68758597   -7.8815882    304.08409   0.01806154  0.017524463            2 
 1404000   0.68405299   -7.8764888     304.3573  0.018064892  0.017510894            4 
 1405000   0.68845413   -7.8822454    304.28509  0.018047751  0.017497346            5 
 1406000   0.67938545   -7.8790038    304.84057  0.018067838  0.017483781            4 
 1407000   0.69109125   -7.9113467    304.03588  0.018007337  0.017470207            8 
 1408000   0.69903142    -7.877259      304.018   0.01799349  0.017456646           14 
 1409000   0.69901938   -7.8937808    303.94564  0.017976439  0.017443089            4 
 1410000   0.68708386   -7.8682975    304.40436  0.017990802  0.017429529            5 
 1411000   0.68509227   -7.9044423    304.58282  0.017988591  0.017415987            3 
 1412000   0.70038058   -7.9139054     303.9671  0.017939512  0.017402393            3 
 1413000   0.69241916   -7.8912135    303.92143  0.017924123   0.01738882            5 
 1414000   0.69052828   -7.8997606    304.23898  0.017930161  0.017375261            2 
 1415000   0.68780188   -7.9058106    304.29887  0.017921017  0.017361733            4 
 1416000   0.68815925   -7.8879153    304.86666  0.017941776  0.017348235            3 
 1417000   0.69832224   -7.9043052    304.40718  0.017902093  0.017334695            5 
 1418000   0.68830415    -7.893918    304.16593   0.01787529  0.017321135            6 
 1419000   0.67645835   -7.8704827    304.29383  0.017870204   0.01730761            6 
 1420000   0.68366526   -7.9182239    303.95641  0.017837817  0.017294126            4 
 1421000   0.70044771   -7.8896862    304.19854  0.017839464  0.017280619            4 
 1422000   0.68536499   -7.9109483    304.18307  0.017826012  0.017267124            4 
 1423000   0.67810188    -7.905537    304.32527  0.017821812   0.01725361            2 
 1424000   0.69612086   -7.8905879    304.23277  0.017803884    0.0172401            9 
 1425000   0.69556934   -7.8770958    304.28252  0.017794299  0.017226612            6 
 1426000   0.67582544   -7.9022377    304.34668   0.01778557  0.017213131            3 
 1427000   0.67961839   -7.9218316    304.40061  0.017776256  0.017199653            5 
 1428000   0.68673801    -7.919031    304.41084  0.017764405  0.017186142            3 
 1429000   0.70508262   -7.9040873    304.07202  0.017732215  0.017172643            7 
 1430000   0.67669174   -7.9094098    304.01802  0.017716668   0.01715919            7 
 1431000   0.67126583    -7.918591     304.4807  0.017731231  0.017145675            2 
 1432000   0.69184498   -7.8922111    304.40071  0.017714194   0.01713217            3 
 1433000   0.68098582    -7.910516    304.51629  0.017708554  0.017118707            3 
 1434000   0.68682313   -7.8877449    304.37981  0.017688273  0.017105231            2 
 1435000   0.67855191   -7.9101198    304.44856  0.017679939  0.017091789            4 
 1436000   0.67500895   -7.9219756    304.53941    0.0176729  0.017078336            5 
 1437000   0.68503183   -7.9076692    304.58001  0.017662956  0.017064889            3 
 1438000   0.68443419   -7.9034709    304.60621  0.017652191  0.017051472            3 
 1439000   0.67512884   -7.9265554     303.9622  0.017602629  0.017038052            3 
 1440000   0.68096608   -7.8947005    304.39862  0.017615661  0.017024654            4 
 1441000   0.68118356   -7.9265793     304.3294  0.017599433  0.017011257            3 
 1442000   0.67073432   -7.9177096    304.45823  0.017594673   0.01699788            5 
 1443000   0.68797985   -7.9225345    304.03718  0.017558165  0.016984519            5 
 1444000   0.67899353   -7.9245796    304.37069  0.017565252  0.016971121            4 
 1445000   0.65624862    -7.914548    304.03468  0.017533719  0.016957748            5 
 1446000   0.65940704   -7.9550635    303.97578  0.017518198  0.016944328            3 
 1447000   0.69061496   -7.9361757     304.5669  0.017540135  0.016930896            8 
 1448000   0.68776263   -7.9296571     304.0364  0.017497491  0.016917491            8 
 1449000   0.67856451   -7.9574515    303.79511  0.017471538  0.016904074            7 
 1450000   0.67699338   -7.9545488    304.28714  0.017487766  0.016890694            5 
 1451000   0.66898673   -7.9393768    303.98267  0.017458228  0.016877345           10 
 1452000    0.6678076   -7.9369457    304.68851  0.017486714  0.016864012            3 
 1453000   0.67161092   -7.9493991    303.67151  0.017416352  0.016850632            9 
 1454000   0.67601634   -7.9305499    304.31571  0.017441295  0.016837274            2 
 1455000   0.66003347   -7.9541664    304.03913  0.017413467  0.016823897            5 
 1456000   0.67942509   -7.9547327    304.11144  0.017405646  0.016810565            8 
 1457000    0.6723615   -7.9461309    303.98929  0.017386713  0.016797227            5 
 1458000   0.67231696   -7.9651672    304.55987    0.0174074  0.016783925            5 
 1459000   0.66898888   -7.9415228    304.23199  0.017376742  0.016770632            4 
 1460000   0.67743553   -7.9130344    304.42544  0.017375882  0.016757399            3 
 1461000   0.68124549   -7.9504343    304.24688  0.017353804  0.016744171            4 
 1462000   0.66499661   -7.9393314      304.675  0.017366336  0.016730958            5 
 1463000   0.68697867   -7.9599032    304.69698  0.017355718  0.016717777            7 
 1464000   0.66676702   -7.9267298    303.79592  0.017292573  0.016704591            3 
 1465000   0.66794042   -7.9395371    304.73783  0.017334348  0.016691422            8 
 1466000   0.67079193   -7.9472816    304.92272  0.017333033  0.016678271            5 
 1467000   0.68097379   -7.9435879    304.05127  0.017271715  0.016665159            5 
 1468000   0.65348837   -7.9395555    304.83864  0.017304646  0.016652007            5 
 1469000   0.66659738   -7.9239035    304.80775  0.017291114  0.016638864            3 
 1470000   0.68190431   -7.9607037    304.56512  0.017265596  0.016625737            4 
 1471000   0.65957774   -7.9425015    304.49549  0.017249914  0.016612578            6 
 1472000   0.66352301   -7.9548055    305.66337  0.017304312  0.016599466            6 
 1473000   0.67209985   -7.9281103    304.31675  0.017216381  0.016586381            2 
 1474000   0.66893704    -7.987136    304.26442  0.017201742  0.016573259            6 
 1475000    0.6535913   -7.9423175    304.34569  0.017194672  0.016560139            7 
 1476000   0.67901714   -7.9436825    304.49238  0.017191304  0.016547094            4 
 1477000   0.67263374   -7.9677658    304.10585  0.017157856   0.01653406            8 
 1478000   0.66484385   -7.9139877    304.09547  0.017145662  0.016521041            6 
 1479000   0.65619076   -7.9633106    304.54497  0.017159396  0.016508014            3 
 1480000    0.6517499    -7.950502    304.97738   0.01717215  0.016494964            8 
 1481000   0.65679875   -7.9346011    304.31948  0.017123536  0.016481916            5 
 1482000   0.65829348   -7.9603538    304.89925  0.017144582  0.016468873            4 
 1483000   0.65638372   -7.9280689    304.84755  0.017130116  0.016455841            8 
 1484000   0.65928237   -7.9309701    304.74559  0.017112848  0.016442826            7 
 1485000    0.6543388   -7.9673828     304.5428  0.017089944  0.016429812            4 
 1486000   0.66340456   -7.9617767    304.77508  0.017091469  0.016416805            5 
 1487000    0.6658139   -7.9620343     304.4168  0.017059897  0.016403773            2 
 1488000    0.6603549   -7.9455408    304.04404  0.017027556  0.016390759           10 
 1489000   0.66119354   -7.9673415    304.39259  0.017035628  0.016377751            7 
 1490000   0.66227246   -7.9604918    304.92772  0.017054123  0.016364788            4 
 1491000   0.64282843   -7.9387333    304.71899  0.017031019  0.016351828            5 
 1492000   0.65953514   -7.9581894     304.6405   0.01701522  0.016338866            4 
 1493000   0.66423978   -7.9541463    304.76429  0.017010733  0.016325893            4 
 1494000   0.66202628   -7.9530206    304.30308  0.016973621  0.016312931            3 
 1495000   0.65403234   -7.9726006    304.20171  0.016956617  0.016299996            4 
 1496000   0.64383828   -7.9680007    304.76371  0.016976588  0.016287002            4 
 1497000    0.6390104   -7.9717416    303.86884  0.016915433  0.016273995            4 
 1498000   0.66360728   -7.9512089    304.59916  0.016944769  0.016261045            3 
 1499000    0.6591093   -7.9748128     304.4835  0.016927035  0.016248094            3 
 1500000   0.65435039   -7.9683437    304.24835  0.016902686  0.016235137            8 
 1501000   0.64896853     -7.96835     303.7581  0.016864207  0.016222191            4 
 1502000   0.64802464   -7.9635554    304.49536  0.016893884   0.01620924            3 
 1503000   0.64963174   -7.9687112    304.54571  0.016885435  0.016196308            3 
 1504000   0.64581358   -7.9735406    304.27522  0.016859221  0.016183397            3 
 1505000   0.64509646   -7.9791207    304.32574  0.016850816   0.01617047            5 
 1506000   0.66132653   -7.9686534    304.87313  0.016869916  0.016157611            4 
 1507000    0.6528346   -7.9710012    304.19794  0.016821386  0.016144731           12 
 1508000   0.64985896   -7.9921935    303.62461  0.016778549  0.016131836            2 
 1509000   0.64411415   -7.9710427    304.80962  0.016832871  0.016118928            3 
 1510000   0.64709259   -7.9768559    304.20067  0.016788116  0.016106044            2 
 1511000   0.65052385   -7.9850897    304.40949  0.016788522  0.016093171            2 
 1512000   0.63459978    -7.994506    304.46087  0.016780251  0.016080341            4 
 1513000    0.6439839   -7.9862103    304.69588  0.016782104  0.016067506            3 
 1514000   0.64633116   -7.9719075    304.47148  0.016758668  0.016054695            6 
 1515000   0.64955787   -8.0057189    304.16408  0.016730697  0.016041877            2 
 1516000   0.64665844   -8.0027915    304.23062  0.016723319  0.016029041            4 
 1517000   0.64775296   -7.9869109    304.58527  0.016731777  0.016016222            6 
 1518000   0.65929448   -7.9802936    304.08799  0.016693456  0.016003406            4 
 1519000   0.64500472   -7.9926375    304.77919  0.016720386  0.015990589            3 
 1520000   0.64330203   -8.0010273    304.33377  0.016684965  0.015977781            7 
 1521000   0.64626633   -8.0013378    304.24351   0.01666905   0.01596496            2 
 1522000   0.64832067   -7.9788049    304.14785  0.016652861  0.015952168            5 
 1523000   0.64503221    -8.001299    304.26216  0.016648181   0.01593936            3 
 1524000   0.64871972   -7.9982878    304.01834  0.016623925   0.01592655            5 
 1525000   0.64771401   -7.9670877    303.68579  0.016594852  0.015913784            3 
 1526000   0.64369046   -7.9858777    304.29432  0.016617208  0.015900972            5 
 1527000    0.6564499   -7.9861609    304.63988  0.016625185  0.015888193            6 
 1528000    0.6596749   -7.9881125    304.18341  0.016589409  0.015875425            3 
 1529000   0.64542403   -8.0075255    304.15707  0.016577124  0.015862722            6 
 1530000   0.64546743   -8.0085774    303.67712  0.016540148  0.015849995            6 
 1531000   0.63295974   -7.9939097     303.8858  0.016540703  0.015837265            4 
 1532000   0.64436583   -7.9962017     303.9619  0.016534046  0.015824522            9 
 1533000   0.62711294   -7.9948825    303.87177  0.016518361  0.015811776            7 
 1534000   0.63212228   -7.9890465    304.18227  0.016524461  0.015799039            7 
 1535000   0.63114671   -8.0054977    303.78234  0.016491983  0.015786314            6 
 1536000   0.65369199   -7.9991935    303.82176  0.016483386  0.015773591            3 
 1537000   0.64125324   -8.0170602    303.86056  0.016474765  0.015760879            5 
 1538000   0.64397519   -8.0036977    304.26422  0.016485924  0.015748164            5 
 1539000   0.63469863   -7.9924712    303.89046  0.016454974  0.015735457            4 
 1540000   0.63632871   -8.0248391    303.85819  0.016442543  0.015722747            4 
 1541000   0.65144396   -8.0252675     303.7394  0.016425449  0.015710058            4 
 1542000   0.63410186   -7.9900487    303.85173  0.016420868  0.015697371            4 
 1543000    0.6361514   -7.9961267    303.88151  0.016411833  0.015684702            3 
 1544000   0.64745544   -8.0232027    303.53192  0.016382336  0.015672041            3 
 1545000   0.63703633   -8.0013922    303.91663  0.016392483  0.015659356            6 
 1546000   0.63457156   -8.0033342    304.40591  0.016408253  0.015646706            3 
 1547000   0.62503124   -8.0052738    304.27842  0.016390779  0.015634091            4 
 1548000   0.63219393   -8.0165224     304.0661  0.016368761  0.015621512            5 
 1549000   0.64684796   -8.0134653    303.86155  0.016347189  0.015608891            6 
 1550000   0.62739292   -8.0161609    304.60794  0.016376771  0.015596285            7 
 1551000   0.61927183   -8.0132315    303.96445  0.016331638  0.015583675            4 
 1552000    0.6299103   -8.0135695      303.416  0.016291666  0.015571042           10 
 1553000   0.63110826   -8.0227544    303.30658  0.016275305  0.015558433            3 
 1554000   0.62927903   -8.0096304    303.30941  0.016264984  0.015545841            9 
 1555000   0.63806835   -8.0041564    303.24893  0.016251283  0.015533251           11 
 1556000    0.6268957   -8.0197205    303.62724  0.016261099   0.01552069            3 
 1557000   0.63847567   -8.0360191    303.85975    0.0162631  0.015508103            7 
 1558000   0.63399946   -8.0198143    303.24149  0.016219592   0.01549556            7 
 1559000   0.63499671   -8.0233237    303.59256  0.016227954  0.015483005            2 
 1560000   0.63259678   -8.0186878    303.55202  0.016215386  0.015470459            8 
 1561000   0.63157306   -8.0208186    303.75903  0.016216049   0.01545791            7 
 1562000    0.6333307   -8.0283521    303.47667  0.016190603  0.015445405            4 
 1563000   0.63161339   -8.0361325    303.60331  0.016186997  0.015432909            6 
 1564000   0.63290654   -8.0371592    304.34249  0.016216032  0.015420415            5 
 1565000   0.61775193   -8.0311999    303.76003  0.016174655  0.015407921            3 
 1566000   0.63568575   -7.9935608    303.92694  0.016173209  0.015395431            5 
 1567000   0.62607166   -8.0202297     303.9327  0.016163194  0.015382949            4 
 1568000   0.64901622    -8.028311    303.41539  0.016125393  0.015370459            7 
 1569000   0.61931062   -8.0265167    303.80118  0.016135605  0.015357977            6 
 1570000   0.62694365   -8.0399183    303.65734  0.016117693  0.015345492            5 
 1571000   0.63549202   -8.0315175    303.44628  0.016096238  0.015332999            9 
 1572000   0.62660648   -8.0452362    303.36068  0.016081461  0.015320529            3 
 1573000   0.62156608   -8.0473753    303.33482  0.016069868  0.015308049            4 
 1574000   0.64214427   -8.0459988    303.23589   0.01605442  0.015295603            3 
 1575000   0.62473348   -8.0606333     303.6178  0.016064434  0.015283159            6 
 1576000   0.62711442   -8.0469743    303.47056  0.016046455   0.01527072            8 
 1577000   0.61007557   -8.0508443    303.48208  0.016036888  0.015258281            6 
 1578000   0.63804568   -8.0612786    302.73312  0.015987174  0.015245857            3 
 1579000   0.62275356   -8.0399048    303.21953  0.016002719  0.015233433            3 
 1580000   0.62218446   -8.0438285    303.33491  0.015998677  0.015221005            5 
 1581000   0.61528109   -8.0591795    303.58011  0.016001482  0.015208585            5 
 1582000   0.62934629    -8.050743    302.44108  0.015931367  0.015196131            6 
 1583000    0.6145041   -8.0710875    302.69502  0.015934671  0.015183702            4 
 1584000    0.6285402   -8.0710792    303.09645  0.015945731  0.015171276            4 
 1585000   0.62420568   -8.0887209      302.696  0.015914616  0.015158864           13 
 1586000   0.61893126   -8.0660364    302.35929   0.01588689  0.015146457            8 
 1587000   0.62979642   -8.0529914    303.13686   0.01591771   0.01513406            9 
 1588000    0.6290637    -8.070345     302.9742   0.01589915  0.015121679            6 
 1589000   0.62262846   -8.0674604    303.30422  0.015906452  0.015109332            6 
 1590000   0.61919304   -8.0461367    303.32958  0.015897777  0.015096993            5 
 1591000   0.61182516   -8.0880171    303.22647  0.015882384  0.015084692            6 
 1592000   0.61432008   -8.0821959    302.96649  0.015858799  0.015072365            8 
 1593000   0.62318137     -8.07292    303.06154  0.015853816   0.01506008            6 
 1594000   0.61515347   -8.0555428    303.03225  0.015842338    0.0150478            7 
 1595000   0.61113431   -8.0647083    303.84173  0.015874698   0.01503552            4 
 1596000   0.62422157   -8.0724037    303.14344  0.015828291  0.015023287            4 
 1597000   0.62909888   -8.0600253    302.52586  0.015786154  0.015011051            6 
 1598000    0.6316141   -8.0514403    303.54731  0.015829543  0.014998829            6 
 1599000   0.61251391   -8.0426632     303.3129  0.015807426  0.014986603            4 
 1600000   0.61193747   -8.0685176    303.56115  0.015810477  0.014974393            4 
 1601000   0.61612784   -8.0414806    303.42695  0.015793616  0.014962203            3 
 1602000   0.61261693   -8.0845101    302.81262  0.015751801  0.014949998            6 
 1603000   0.61896607   -8.0694275    303.35487  0.015770164  0.014937821            3 
 1604000   0.60783419   -8.0669722    303.80613  0.015783776  0.014925631           11 
 1605000   0.60369142   -8.0825933    303.25118  0.015745129  0.014913417            6 
 1606000   0.61493054   -8.0640763    303.28703  0.015737185  0.014901218            6 
 1607000   0.60995262   -8.0888166    303.30792  0.015728475  0.014889022            5 
 1608000   0.60012936   -8.0775173     303.1442   0.01571021  0.014876858           10 
 1609000   0.60528637   -8.0703402    303.06162  0.015696168  0.014864721            4 
 1610000   0.62006433   -8.1094478    303.42026  0.015704982  0.014852592            6 
 1611000   0.61005075   -8.0872108    302.98612  0.015672777  0.014840463           11 
 1612000   0.60791073   -8.1028967    303.34866  0.015681796  0.014828346            4 
 1613000   0.61736807   -8.0838534    303.41084  0.015675286  0.014816216            5 
 1614000   0.61522137    -8.093837    303.22855  0.015656162  0.014804114            4 
 1615000   0.60283686   -8.1042457    302.97936   0.01563361  0.014792017            6 
 1616000   0.60069556    -8.097728    303.13276  0.015631846  0.014779939            4 
 1617000   0.61062759    -8.082807     302.7049  0.015600129  0.014767865            5 
 1618000   0.61686629   -8.0761442    302.84445  0.015597675  0.014755796            4 
 1619000   0.59774485   -8.1064134    302.96262  0.015594123  0.014743743            2 
 1620000   0.60476703   -8.0795594    302.99669  0.015586249    0.0147317            5 
 1621000   0.59473276   -8.0799143      302.985  0.015576033  0.014719679            3 
 1622000   0.60463776   -8.0914646    303.25533  0.015580319  0.014707676            4 
 1623000    0.6086637   -8.0727891    303.33325   0.01557472  0.014695697            2 
 1624000   0.59603751    -8.077567    303.46388  0.015571833  0.014683714            4 
 1625000   0.61078569   -8.1042445    302.81134  0.015528787  0.014671718            5 
 1626000   0.61398513   -8.0879962    303.61228  0.015560285   0.01465976            3 
 1627000   0.58333141    -8.089245    303.64235  0.015552261  0.014647814            4 
 1628000   0.61221829    -8.074091     302.6813  0.015493514  0.014635888            5 
 1629000   0.58906059   -8.0846278    303.34215   0.01551781  0.014623972            8 
 1630000   0.59067759   -8.0779749    303.11568  0.015496712  0.014612065            9 
 1631000   0.59854595   -8.0911991    303.44802   0.01550419  0.014600175            4 
 1632000   0.59449773   -8.1057487    303.07489  0.015475638  0.014588293           11 
 1633000   0.59476067   -8.0767884    303.18702  0.015471883  0.014576443            8 
 1634000   0.60158393   -8.0719283    304.00964  0.015504368  0.014564602            5 
 1635000   0.59961556    -8.092851    303.68261  0.015478217  0.014552755            8 
 1636000   0.59789342   -8.0938077    303.33683  0.015451142  0.014540925            5 
 1637000   0.59729002    -8.111788    303.20999  0.015435247  0.014529112           11 
 1638000   0.60450156   -8.1129517    303.32102  0.015431472  0.014517307            8 
 1639000   0.59243866   -8.0983793    303.41678  0.015426926  0.014505501            6 
 1640000    0.5988914   -8.0908624    302.87386  0.015389932   0.01449371            8 
 1641000   0.59749559   -8.1020072    302.75493  0.015374514  0.014481917            9 
 1642000   0.60292826   -8.1071854    303.28605  0.015392106  0.014470115           10 
 1643000    0.5992311   -8.0960829    303.22885  0.015379836  0.014458331            6 
 1644000   0.59140064   -8.1026351    302.71131  0.015344247  0.014446537            4 
 1645000   0.60735744   -8.1214861    302.82494  0.015340676  0.014434759           10 
 1646000   0.60903229   -8.1106232     302.7999  0.015330088   0.01442298            4 
 1647000   0.61159741   -8.1076011    303.09969  0.015335949  0.014411209            5 
 1648000   0.59192593   -8.1127515    303.13204  0.015328279   0.01439943            3 
 1649000   0.59499843   -8.1177799    302.97089   0.01531084   0.01438768            5 
 1650000   0.59456915   -8.1031789    302.83222  0.015294557   0.01437594            5 
 1651000   0.59035428      -8.1077    303.05122  0.015296346  0.014364215            5 
 1652000   0.59328521   -8.0821392    302.95385  0.015282176  0.014352507            2 
 1653000   0.59900873    -8.099585    303.13345  0.015281985  0.014340804            4 
 1654000   0.58160747   -8.1055554    302.87549  0.015259748  0.014329104           14 
 1655000   0.60008924   -8.1337265     303.0791   0.01526078  0.014317433           12 
 1656000   0.59710629   -8.1067062    302.90936  0.015243024  0.014305762            4 
 1657000   0.58575228   -8.1053212    302.79925  0.015228287  0.014294071           13 
 1658000    0.5871151   -8.1082851    302.68109  0.015213163  0.014282398            5 
 1659000   0.59732541   -8.0984232    302.72195  0.015206045   0.01427074            9 
 1660000   0.59466877   -8.1171516    302.91115  0.015206383  0.014259103            7 
 1661000   0.58221749   -8.1201764    302.68886  0.015186076  0.014247463            4 
 1662000   0.56536618   -8.1387231    303.06766  0.015195932   0.01423582            6 
 1663000    0.5870758   -8.1241115    302.86648  0.015176713  0.014224175            5 
 1664000   0.59153581   -8.1443196    302.53248  0.015150865  0.014212546            2 
 1665000   0.58792212   -8.1211978     303.5173  0.015191056  0.014200922            2 
 1666000   0.58699235   -8.1372908    302.29624   0.01512086  0.014189307            2 
 1667000   0.58012097    -8.124989     302.8481  0.015139377  0.014177709            4 
 1668000   0.58431991   -8.1215939    302.59652  0.015117732  0.014166115            8 
 1669000   0.58376927   -8.1490628    302.07485  0.015082627  0.014154511            3 
 1670000    0.5855282   -8.1390701    303.20238  0.015129859  0.014142917            6 
 1671000   0.58743956   -8.1571406    302.90632   0.01510604  0.014131322            3 
 1672000   0.56672158   -8.1243632    302.54955  0.015079224  0.014119773            3 
 1673000   0.58349466   -8.1367037    303.20123  0.015102671  0.014108219            4 
 1674000   0.57401649   -8.1412174    302.66698  0.015067054  0.014096682            4 
 1675000   0.59505516   -8.1226079    302.56131  0.015052802  0.014085142            4 
 1676000   0.57840202   -8.1353056    303.02781  0.015067015  0.014073608            2 
 1677000   0.57627129    -8.118293    302.03844  0.015008867  0.014062114            6 
 1678000   0.58171344   -8.1353922    302.33565  0.015014683  0.014050647            5 
 1679000   0.58151866   -8.1374069    302.70115  0.015023881  0.014039165            5 
 1680000   0.58453542   -8.1385339    302.64505  0.015012155  0.014027691            3 
 1681000   0.57645373    -8.144702    302.68213  0.015005063  0.014016227            5 
 1682000   0.57547464   -8.1328277    302.41447  0.014982881  0.014004775           10 
 1683000   0.58902848   -8.1431515    302.96246  0.015001112   0.01399332            4 
 1684000   0.56711119   -8.1360554    302.36016  0.014962399  0.013981879            5 
 1685000   0.58436624    -8.132761    302.48189   0.01495954  0.013970438            6 
 1686000   0.58025015   -8.1231805      303.003  0.014976424  0.013959008            3 
 1687000   0.57179519   -8.1208965     302.1428  0.014925054  0.013947616            2 
 1688000   0.57294106   -8.1510986    302.20291   0.01491918  0.013936212            2 
 1689000   0.58274717    -8.153925    302.25324   0.01491283   0.01392481            7 
 1690000   0.57239811   -8.1607762    302.66837  0.014924476  0.013913409            2 
 1691000   0.57554574   -8.1553293    303.01717  0.014932839  0.013902021            3 
 1692000   0.57570149   -8.1491359    301.92022  0.014869987  0.013890649            3 
 1693000   0.57810598   -8.1514928    302.25731  0.014877796  0.013879288            3 
 1694000   0.57707205   -8.1502145     302.6483  0.014888248  0.013867931            3 
 1695000   0.57953743   -8.1446914    302.10465  0.014852736  0.013856576            2 
 1696000   0.59001514   -8.1508654     302.5099   0.01486389  0.013845244            3 
 1697000    0.5682032   -8.1551698    302.53056  0.014856146  0.013833927            5 
 1698000   0.59001044   -8.1380195    302.78998  0.014860129    0.0138226            5 
 1699000   0.57433242   -8.1593265    302.48518  0.014836432  0.013811328            2 
 1700000   0.59290009   -8.1507565    302.09458  0.014808558  0.013800055            2 
 1701000   0.56939096   -8.1585341    302.71596  0.014830294  0.013788783            3 
 1702000   0.57858918   -8.1390266    303.15996   0.01484332  0.013777536            3 
 1703000   0.57061464   -8.1568276    302.43941  0.014799345  0.013766293            4 
 1704000   0.58345133   -8.1375168    302.88736  0.014812566  0.013755054            4 
 1705000   0.57497577   -8.1510999    302.73062  0.014796218  0.013743825            4 
 1706000   0.56784317   -8.1488702    302.36217  0.014769547  0.013732597            2 
 1707000   0.58103104   -8.1454248    301.63902  0.014725592  0.013721384            5 
 1708000   0.58768211    -8.142942      302.909  0.014778932  0.013710178            4 
 1709000   0.57477285   -8.1553959      301.981  0.014725034  0.013698972            3 
 1710000   0.55740181   -8.1618476    302.30576   0.01473225  0.013687783            5 
 1711000   0.56815706   -8.1567508    302.88103  0.014751657  0.013676606            3 
 1712000   0.57560932    -8.137631    302.33588  0.014716505  0.013665426            5 
 1713000   0.57370564   -8.1603077    302.83005  0.014731954  0.013654274            6 
 1714000   0.56005441   -8.1653666    302.52542  0.014708548  0.013643141            5 
 1715000   0.56843995   -8.1744764     301.9835   0.01467364  0.013631998            4 
 1716000   0.57542245   -8.1876873    302.41067  0.014685833  0.013620859            4 
 1717000   0.56731258   -8.1458166    302.61058  0.014686982  0.013609745            6 
 1718000    0.5722978   -8.1521317    302.58776  0.014677326  0.013598637            5 
 1719000   0.56744017   -8.1660495    302.80818  0.014679474  0.013587558            4 
 1720000   0.55446616    -8.152282    302.82696  0.014671849  0.013576468            6 
 1721000   0.55571907   -8.1790144    302.64638   0.01465458  0.013565388            4 
 1722000   0.55718413   -8.1753883    302.09938  0.014619598   0.01355431            5 
 1723000   0.57331587   -8.1647373    302.82701  0.014646306  0.013543249            4 
 1724000   0.55735715   -8.1523216    302.34535  0.014614528  0.013532191            2 
 1725000   0.55598841   -8.1794593    301.93397  0.014586182  0.013521146            5 
 1726000   0.57135566   -8.1598778    301.81108  0.014571798  0.013510104            4 
 1727000   0.56494322   -8.1672392    302.60825  0.014601827  0.013499084            5 
 1728000   0.55672096   -8.1727152    302.07227  0.014567528  0.013488081            7 
 1729000   0.56263242   -8.1608629    302.02183  0.014556672  0.013477072            6 
 1730000   0.57116069   -8.1924724    302.37831  0.014565429  0.013466064            3 
 1731000   0.56807782   -8.1739899    302.21028  0.014548926  0.013455076            6 
 1732000   0.55643759   -8.1702114    301.97342  0.014529129  0.013444093            3 
 1733000   0.55714552   -8.1692324    301.88341  0.014516417  0.013433117            4 
 1734000   0.55187433   -8.1786545    302.31698  0.014528882   0.01342215            7 
 1735000   0.56771524   -8.1794389    302.31342  0.014520337  0.013411179            3 
 1736000   0.56053734   -8.1788198    301.98549  0.014496231  0.013400213            3 
 1737000   0.56589371   -8.1892161    301.80964  0.014479449  0.013389246            3 
 1738000   0.55333554   -8.1813295    301.93794   0.01447727  0.013378291            4 
 1739000   0.55373393   -8.1719161    302.39743  0.014490964  0.013367375            4 
 1740000   0.56093322   -8.1772938    301.70037  0.014449251  0.013356475            4 
 1741000   0.55988964   -8.1743816    302.15552  0.014462738  0.013345555            5 
 1742000   0.56755958   -8.1790579    302.57664  0.014474581  0.013334664            6 
 1743000   0.56657287   -8.1771438    302.22296  0.014449367  0.013323776            3 
 1744000   0.55923641       -8.191    302.13646  0.014436949  0.013312899            6 
 1745000   0.56394901   -8.1920915    302.40693  0.014441592   0.01330202            2 
 1746000   0.55478018   -8.1944327    302.06036  0.014416779  0.013291151            4 
 1747000   0.55533377   -8.1814344    301.52469  0.014382975  0.013280301            4 
 1748000   0.55736095   -8.1764399    301.48808  0.014373002  0.013269452            7 
 1749000   0.55787301   -8.2038637    302.19012  0.014398233  0.013258626            5 
 1750000   0.55433969    -8.173714    302.25182  0.014392944   0.01324779            5 
 1751000   0.55214538   -8.1920916    302.21431  0.014382939   0.01323696           10 
 1752000   0.56867131    -8.186533    301.70157  0.014350341  0.013226143            7 
 1753000    0.5510082    -8.182392    301.38825   0.01432726  0.013215334            7 
 1754000   0.54339238   -8.2002119     301.2026  0.014310272  0.013204519            4 
 1755000    0.5512142   -8.1878154    301.87768  0.014334173  0.013193744            2 
 1756000   0.55142507   -8.1941208    301.41077  0.014303852  0.013182961            3 
 1757000   0.55092228   -8.1883885    301.70377  0.014309608  0.013172187           15 
 1758000   0.54601418   -8.1757697    301.92339  0.014311878  0.013161418            7 
 1759000   0.55446458   -8.1987713    302.16026  0.014314964  0.013150649            5 
 1760000    0.5492506   -8.1944061    301.75678  0.014287726  0.013139902            4 
 1761000   0.54453015   -8.2096389     301.8606  0.014284526  0.013129157            4 
 1762000     0.542267   -8.2084062    302.19346  0.014292161  0.013118421            6 
 1763000    0.5384415   -8.2012575    301.19579  0.014236897  0.013107706            5 
 1764000     0.558131   -8.2222037    301.74058  0.014254562  0.013096986            6 
 1765000   0.54717015   -8.2065769    301.47567  0.014233979  0.013086291            6 
 1766000    0.5472837    -8.187236    302.08527  0.014254684  0.013075605            6 
 1767000   0.54622541   -8.1988432    301.61731  0.014224548  0.013064934            6 
 1768000   0.54729409   -8.2041132     301.6084  0.014216082  0.013054265            6 
 1769000   0.53701915   -8.2086394    302.11489  0.014231906  0.013043601            7 
 1770000   0.53910553   -8.1989538    301.63778  0.014201402   0.01303296            5 
 1771000   0.54999099   -8.2115268    301.62068  0.014192578  0.013022328            5 
 1772000   0.55520786   -8.1926393    301.49636  0.014178723  0.013011707            8 
 1773000   0.54227417   -8.2126739    302.09304  0.014198771  0.013001091            7 
 1774000   0.53447509   -8.2048644    301.96677  0.014184835  0.012990498            4 
 1775000   0.54172868   -8.2149118    301.58675  0.014159002  0.012979918            9 
 1776000   0.54671077   -8.2149693     301.7528  0.014158822  0.012969324            4 
 1777000   0.52715397     -8.22553    301.82046  0.014154026  0.012958749            3 
 1778000   0.55337954   -8.2259555    301.85472  0.014147672  0.012948186            4 
 1779000   0.53176873   -8.2113426    301.59379  0.014127496  0.012937631            2 
 1780000   0.54572584   -8.2017056    301.91341  0.014134523  0.012927104            4 
 1781000   0.54877728    -8.219265    301.64001  0.014113794  0.012916583            5 
 1782000   0.54598502   -8.2323405    301.76568  0.014111751  0.012906062            4 
 1783000   0.54004995   -8.2194393    301.58533  0.014095407  0.012895554            4 
 1784000     0.546699   -8.2018506     301.7964  0.014097365  0.012885064            5 
 1785000   0.54201033   -8.2034772    302.02845  0.014100301  0.012874575            9 
 1786000   0.53582807   -8.2069977    301.39476  0.014062839  0.012864097            6 
 1787000   0.53776587   -8.2155269    301.48512  0.014059183  0.012853632            7 
 1788000   0.53749164   -8.2142704    302.10031  0.014079992  0.012843174            9 
 1789000   0.54119259   -8.2422765    301.55013  0.014046494  0.012832737            7 
 1790000   0.54164735   -8.2090174    301.67234  0.014044336  0.012822303            5 
 1791000   0.53548409   -8.2287355    301.46464  0.014026831  0.012811875            4 
 1792000   0.53292042   -8.2176439    301.36537  0.014014387  0.012801445            5 
 1793000   0.53466358   -8.2358048    301.33081  0.014004964  0.012791021            3 
 1794000   0.54065112   -8.2108051    301.64923  0.014011948  0.012780626            9 
 1795000   0.54437626    -8.215711    301.75614  0.014009106  0.012770233            7 
 1796000   0.54984372   -8.2326277    301.52344  0.013990509  0.012759862            4 
 1797000    0.5288613   -8.2136729    301.87182  0.013998879  0.012749491            5 
 1798000    0.5316553   -8.2155362    301.99092  0.013996613  0.012739128           10 
 1799000   0.53643363   -8.2180928     301.7701  0.013978604  0.012728779            4 
 1800000   0.53470032   -8.2171063    300.95847  0.013933262  0.012718431           11 
 1801000   0.53594992   -8.2222274     301.5559   0.01395317  0.012708087           11 
 1802000    0.5350877   -8.2172106    301.34938  0.013935876   0.01269776            4 
 1803000    0.5248892   -8.2372932    301.56839  0.013938269   0.01268743            4 
 1804000   0.54523853   -8.2189189    301.77743  0.013940199  0.012677121            7 
 1805000   0.54223861   -8.2532838    301.37319  0.013913813  0.012666818            5 
 1806000   0.52562752   -8.2340118    301.08276  0.013892708  0.012656539            9 
 1807000   0.54044244   -8.2372173    301.56081  0.013907066  0.012646253            6 
 1808000   0.53091998    -8.221024    301.94026  0.013916863  0.012635977            8 
 1809000   0.52986209   -8.2176459    301.67934   0.01389715  0.012625704            4 
 1810000    0.5217264   -8.2057341    300.73723  0.013846097  0.012615457            4 
 1811000    0.5248645    -8.238592    301.41512  0.013869645  0.012605209           12 
 1812000    0.5369611   -8.2221105    301.53802  0.013867643   0.01259498            9 
 1813000   0.53237595   -8.2285461    301.20856   0.01384485  0.012584741            7 
 1814000   0.52938236   -8.2288614    301.36607  0.013844454  0.012574523           10 
 1815000   0.52888209   -8.2424879    301.30903  0.013834207  0.012564301            9 
 1816000   0.53014274   -8.2377261    301.34851  0.013828401  0.012554093            8 
 1817000   0.51354439   -8.2301608    301.16872  0.013812544   0.01254389            6 
 1818000   0.53162561   -8.2305662    301.44818  0.013817757  0.012533696            7 
 1819000   0.53001813   -8.2291468    301.83877  0.013828055  0.012523531           11 
 1820000   0.53536169   -8.2274047    301.32837  0.013797086  0.012513373            6 
 1821000   0.52518995   -8.2374003    301.00201  0.013774575   0.01250322            9 
 1822000   0.53396437   -8.2370847    301.12003  0.013772412  0.012493071            7 
 1823000   0.52178711   -8.2458796    301.28599  0.013772444  0.012482919            7 
 1824000   0.52878086   -8.2483074    300.78138   0.01374184  0.012472777            6 
 1825000   0.53080384   -8.2573278    300.81527  0.013735857  0.012462631            7 
 1826000   0.52171943   -8.2541315    300.76331  0.013725963  0.012452498            6 
 1827000   0.53507014   -8.2615887    300.93605   0.01372633  0.012442374            5 
 1828000   0.52565526   -8.2358977    300.53082  0.013700347  0.012432257            6 
 1829000   0.51334819   -8.2602024    300.89303   0.01370936   0.01242215            8 
 1830000   0.53343983   -8.2300446    300.66342  0.013691412  0.012412044            7 
 1831000   0.54179102   -8.2348158    301.25602  0.013710906  0.012401966            6 
 1832000   0.51820644   -8.2513186    300.46978  0.013667657  0.012391886            6 
 1833000   0.52358327   -8.2584151    300.85353  0.013677647  0.012381818            3 
 1834000   0.52233638   -8.2672437    300.98198  0.013676026  0.012371758            5 
 1835000   0.50557219    -8.248139     301.1741  0.013677298  0.012361704            5 
 1836000   0.50478588   -8.2448747    300.77833  0.013651885  0.012351665            7 
 1837000   0.52639522   -8.2477131    300.85409   0.01364789  0.012341632            5 
 1838000   0.52255584   -8.2502044    301.11792  0.013652427  0.012331615            8 
 1839000   0.51402387   -8.2572393     300.4634  0.013615343  0.012321602            6 
 1840000   0.51175789   -8.2593218    301.67668  0.013662893  0.012311597            4 
 1841000   0.51979692   -8.2633955    300.88314  0.013619552  0.012301605            3 
 1842000   0.53110198   -8.2582909    300.92263  0.013613945  0.012291628            8 
 1843000   0.51309813    -8.249752    301.27405  0.013622448  0.012281652            4 
 1844000   0.51104248   -8.2554233    300.64105  0.013586454  0.012271703            5 
 1845000   0.52239394   -8.2744683     300.7173  0.013582534   0.01226175            4 
 1846000   0.52061716   -8.2606111    300.89687  0.013583282   0.01225181            6 
 1847000   0.51788562   -8.2571216    300.92272  0.013577094  0.012241883           10 
 1848000   0.51063018   -8.2553345    301.16172  0.013580525  0.012231955           11 
 1849000   0.52314805     -8.25756     300.7115  0.013552889  0.012222038            4 
 1850000   0.50582905   -8.2484423    300.95666  0.013556606  0.012212131            4 
 1851000   0.51520822   -8.2639701    301.00543  0.013551478  0.012202229            8 
 1852000   0.51132273   -8.2338168    301.05816  0.013546534  0.012192346            7 
 1853000   0.51015125   -8.2552564    301.22557  0.013546752  0.012182466            3 
 1854000   0.52449821   -8.2572972     301.2028  0.013538422  0.012172594            5 
 1855000   0.50252765   -8.2775709    300.70913  0.013508946  0.012162736            4 
 1856000   0.52162075   -8.2824423    300.94405  0.013512215   0.01215288            9 
 1857000   0.51764315   -8.2690724    301.31687  0.013521669  0.012143034            6 
 1858000   0.50989209   -8.2683084    300.73752  0.013488407  0.012133194            4 
 1859000   0.50590367   -8.2627376    300.84674  0.013486047  0.012123367           13 
 1860000   0.50935043   -8.2801966    300.94648  0.013483265  0.012113546            6 
 1861000   0.51586382   -8.2620743    300.90413  0.013474124  0.012103741            8 
 1862000   0.50793792   -8.2658903    300.41995  0.013445218  0.012093937            9 
 1863000   0.51623242   -8.2715383    300.98456  0.013463257  0.012084138            6 
 1864000   0.49217781   -8.2790993    301.18651  0.013465062  0.012074352            8 
 1865000    0.5143599   -8.2669541    300.97847  0.013448546  0.012064573           13 
 1866000   0.49768997   -8.2979176    301.02207  0.013443286   0.01205481            7 
 1867000   0.51134268   -8.2773677    301.00899  0.013435502  0.012045048            6 
 1868000   0.51414624   -8.2819361    300.69855  0.013414461  0.012035291            6 
 1869000   0.50650107   -8.2766316     300.4908   0.01339802  0.012025557            5 
 1870000   0.50630842   -8.2943537    300.87269  0.013407874  0.012015827            5 
 1871000   0.50319754   -8.2844465    300.48117   0.01338327    0.0120061            5 
 1872000   0.49263612    -8.266399    300.44566   0.01337454  0.011996391            4 
 1873000   0.50564957    -8.284333    300.51394  0.013370437  0.011986685            6 
 1874000    0.5000536   -8.2907615    300.15719  0.013347438   0.01197698            3 
 1875000   0.50473234   -8.2756642    300.38115  0.013350273  0.011967278            4 
 1876000   0.50403417   -8.2787488    300.56021  0.013351111  0.011957596            2 
 1877000   0.49863607   -8.2847699     300.5915  0.013345387  0.011947919            4 
 1878000   0.52200574   -8.2915954     300.6752  0.013341995  0.011938236            8 
 1879000   0.50751655   -8.2852734    300.07709  0.013308368  0.011928575            4 
 1880000   0.50495962   -8.2827332    300.72072  0.013329819  0.011918917            4 
 1881000   0.51075787   -8.2702691    300.24469  0.013301643  0.011909275            6 
 1882000   0.51102025   -8.2852725    300.80224  0.013319263  0.011899635            8 
 1883000   0.50484054   -8.2906489    300.50037   0.01329883  0.011890004            4 
 1884000   0.50487618   -8.2892157    300.47382  0.013290597  0.011880391            3 
 1885000    0.5077039   -8.2880461    300.08062  0.013266164  0.011870788            5 
 1886000    0.4939376   -8.2865724    300.48161  0.013276847  0.011861199            5 
 1887000   0.49322693   -8.2766854    300.53682   0.01327225  0.011851612            7 
 1888000   0.49895086    -8.298252    300.04782  0.013243636   0.01184203            3 
 1889000   0.49939631   -8.2945049    300.09863  0.013238867  0.011832464            6 
 1890000   0.49252171   -8.2886511    300.77235  0.013261568  0.011822899            4 
 1891000   0.49150385   -8.2941567    300.54268  0.013244433  0.011813346            5 
 1892000   0.49420185   -8.3021714    300.20027  0.013222352  0.011803798            5 
 1893000   0.50551777    -8.291968    300.09977  0.013210943  0.011794266            9 
 1894000   0.49981263   -8.2762365    300.30333  0.013212924  0.011784733            6 
 1895000   0.49873664   -8.3204172    300.00991  0.013193048   0.01177521            6 
 1896000   0.49865353   -8.2944388    300.34123  0.013200652  0.011765698            5 
 1897000   0.50074752   -8.2952037    300.71133  0.013209951  0.011756201            4 
 1898000   0.50278809   -8.3028529    300.16897  0.013179179  0.011746711            5 
 1899000   0.48463663   -8.2975128    300.36154  0.013180689   0.01173723            4 
 1900000   0.49572946    -8.322159    300.08884  0.013161791  0.011727742            7 
 1901000    0.4977638   -8.3007083    300.45583  0.013170955  0.011718274            4 
 1902000   0.48940301   -8.3135062    300.17197  0.013151593  0.011708809            5 
 1903000   0.49688018   -8.2985342     300.6011  0.013163474  0.011699358            5 
 1904000   0.49133354   -8.3128006    300.22244  0.013139988  0.011689913            7 
 1905000   0.49265484   -8.3035202    299.77466  0.013113502  0.011680488            6 
 1906000   0.49549515   -8.3005748    300.06576   0.01311935  0.011671074            5 
 1907000   0.49347545   -8.2873036    299.91051  0.013105686  0.011661663            6 
 1908000   0.49518846   -8.3085167    299.83144  0.013095363  0.011652263            7 
 1909000   0.49054957   -8.3072774    300.53216  0.013119092  0.011642869            7 
 1910000    0.4942795   -8.2975821    300.21423  0.013098352  0.011633485            9 
 1911000   0.49249138   -8.3076112    300.05654  0.013084621  0.011624105            5 
 1912000   0.49516505   -8.2995234    300.56837  0.013100086  0.011614737            7 
 1913000   0.48994362   -8.3085985    300.05303  0.013070789  0.011605371            8 
 1914000   0.49068027   -8.3019063    300.12818  0.013067232  0.011596019            7 
 1915000   0.48303021   -8.3014179     300.0127  0.013055383  0.011586676            6 
 1916000   0.49334116   -8.2914768    300.23608  0.013058285  0.011577346            6 
 1917000   0.49076835   -8.2976697    299.96489  0.013039684  0.011568022           10 
 1918000   0.48840432   -8.3127104     299.9729  0.013033234  0.011558703            5 
 1919000   0.48032062   -8.3066164    300.72237  0.013058988  0.011549393            3 
 1920000   0.47848239   -8.3005415    300.04028  0.013022582   0.01154009            5 
 1921000   0.49339153   -8.3192627    299.96254   0.01301243  0.011530791            8 
 1922000    0.4882059   -8.3254477    300.11493  0.013012267  0.011521515            7 
 1923000   0.48948086   -8.3213273    299.79643  0.012991698  0.011512242            4 
 1924000   0.47808607   -8.2943067    300.03517  0.012995286  0.011502978            4 
 1925000   0.47844596   -8.3141709    300.15976  0.012993929  0.011493722            5 
 1926000   0.50039908   -8.3170304    300.09564  0.012984408   0.01148448            4 
 1927000   0.48685388    -8.307725    299.51279  0.012952465  0.011475235            3 
 1928000   0.48798558   -8.3211005    300.06342  0.012969546  0.011466009            7 
 1929000   0.48450857   -8.3287445    300.29488  0.012972822  0.011456775            4 
 1930000   0.47325897   -8.3423971    300.11358  0.012958272  0.011447561            5 
 1931000   0.49625975   -8.3182576    299.88574  0.012941729  0.011438355            8 
 1932000   0.48661495   -8.3247642    299.71177  0.012927526  0.011429163            6 
 1933000   0.48663633   -8.3070309    299.97725  0.012932284  0.011419983            5 
 1934000   0.47929212   -8.3058631    300.13721  0.012932489  0.011410806            3 
 1935000   0.46794373   -8.3186361    300.12217  0.012925158  0.011401647            5 
 1936000   0.48536783   -8.3203126    299.70862  0.012900681  0.011392487            7 
 1937000   0.47681045   -8.3252948    299.83246  0.012899349  0.011383342            7 
 1938000   0.47964921   -8.3224662    299.95452  0.012897941   0.01137421            5 
 1939000   0.48591582   -8.3190095    299.40494   0.01286767  0.011365087            4 
 1940000   0.48005179   -8.3208958    300.05721  0.012889055  0.011355964            4 
 1941000   0.47914192    -8.346517    299.87937   0.01287478  0.011346861            4 
 1942000   0.47318742   -8.3138779    299.88541  0.012868409   0.01133776            6 
 1943000   0.46984345   -8.3073139    299.42943   0.01284223  0.011328662            8 
 1944000   0.47402075   -8.3175427    299.85389  0.012853819  0.011319575            3 
 1945000    0.4695064   -8.3141402    299.47416  0.012830941  0.011310505            5 
 1946000   0.48262021   -8.3235709    299.64905  0.012831837  0.011301439            5 
 1947000    0.4718821   -8.3439965     300.2105  0.012849277  0.011292383            4 
 1948000   0.47124094   -8.3354789    299.47254  0.012811112  0.011283331            9 
 1949000   0.47109962   -8.3167702    299.99434  0.012826849  0.011274288            5 
 1950000   0.47151383   -8.3241843    299.91588  0.012816918  0.011265268            2 
 1951000   0.47298121   -8.3293291    299.71729  0.012801866  0.011256253            5 
 1952000   0.47524888    -8.332956    300.27114  0.012818952  0.011247243            5 
 1953000   0.47385568   -8.3494914    299.99577  0.012800639  0.011238247            6 
 1954000   0.47622035   -8.3193652    299.61076  0.012777668  0.011229256            5 
 1955000   0.46519134   -8.3257186    299.66864  0.012773599  0.011220277            8 
 1956000    0.4699179   -8.3146225     299.4987  0.012759829  0.011211301            5 
 1957000   0.46941628    -8.328395    299.86045  0.012768713  0.011202333            3 
 1958000   0.45878333   -8.3152706    299.90184  0.012763953  0.011193368            7 
 1959000   0.46792311   -8.3429388    299.86172  0.012755731  0.011184416            4 
 1960000   0.47697396   -8.3327453    299.66446  0.012740836  0.011175485            5 
 1961000   0.47517804    -8.335065    299.77608  0.012739082   0.01116656            5 
 1962000   0.47794097   -8.3554512    299.97878  0.012741199  0.011157643            5 
 1963000   0.47069369   -8.3351122    299.70064    0.0127229  0.011148742            3 
 1964000   0.45768011   -8.3317894    299.83891  0.012722289  0.011139839            4 
 1965000   0.46615177   -8.3366211    299.44741  0.012699212  0.011130951            5 
 1966000   0.46965875   -8.3357261    299.67888  0.012702564  0.011122059            3 
 1967000    0.4633264   -8.3295532    299.77095  0.012700006  0.011113186           10 
 1968000    0.4642223   -8.3320758    299.89081  0.012698629  0.011104324            7 
 1969000   0.46039785   -8.3346569    300.37566  0.012712699  0.011095464            4 
 1970000   0.46551877   -8.3370977    299.82838  0.012683096  0.011086614            5 
 1971000   0.46502624   -8.3448248    299.66935  0.012669937  0.011077775            4 
 1972000   0.47268905   -8.3282638    299.73128  0.012666129   0.01106894            4 
 1973000   0.45975823   -8.3473038    299.81926  0.012663426  0.011060116            5 
 1974000   0.46494772   -8.3495317    299.60197  0.012647837  0.011051298            6 
 1975000   0.46371508   -8.3334466    299.80822  0.012650136  0.011042492            8 
 1976000   0.46595631   -8.3380238    299.72732  0.012640322  0.011033682            7 
 1977000   0.46251363   -8.3409571    299.44424  0.012621996  0.011024893            5 
 1978000    0.4708189    -8.339107     299.6344  0.012623626   0.01101611            7 
 1979000   0.47039091   -8.3370363    299.76259  0.012622646  0.011007335            5 
 1980000   0.46744402   -8.3517786    299.83004   0.01261911  0.010998566            5 
 1981000   0.47201004   -8.3470545    299.80155  0.012611541  0.010989811            4 
 1982000   0.47142072   -8.3586325    299.93929  0.012610969  0.010981065            5 
 1983000   0.46123189   -8.3402494    299.26252  0.012576169  0.010972319            6 
 1984000   0.45520491   -8.3329085    299.60539  0.012584232   0.01096358            6 
 1985000     0.462458   -8.3455671    299.74237  0.012583643  0.010954858            8 
 1986000   0.45529505   -8.3367589    299.35529  0.012561065  0.010946142            5 
 1987000   0.45895469   -8.3452239     299.3258  0.012553506  0.010937436            8 
 1988000   0.46091102   -8.3442264    299.41125  0.012550773  0.010928746            5 
 1989000   0.44567248   -8.3466224    299.12894  0.012532635  0.010920055            5 
 1990000   0.45890342   -8.3554842    299.15034  0.012527234  0.010911368            6 
 1991000   0.45541059   -8.3398478    299.15607  0.012521181  0.010902699            7 
 1992000    0.4544239   -8.3557623    299.54832  0.012531305  0.010894038            5 
 1993000   0.46638029   -8.3592271     299.0214  0.012502986  0.010885384            8 
 1994000   0.46043142    -8.346149     299.3269  0.012509483  0.010876728            8 
 1995000   0.46449212   -8.3533585    299.28279   0.01250137   0.01086808            7 
 1996000   0.45822084   -8.3572243     299.4259  0.012501081  0.010859453            6 
 1997000   0.45621479   -8.3327689    299.64895  0.012504129  0.010850836            6 
 1998000   0.46206995   -8.3522037    299.01768  0.012471541  0.010842228            5 
 1999000   0.45517892   -8.3658325     299.5394  0.012487052  0.010833632            7 
 2000000   0.45677386    -8.346021    299.37039  0.012473766  0.010825032            6 
 2001000   0.44977013   -8.3444081    299.18922  0.012459988  0.010816436            4 
 2002000   0.44225024   -8.3646721    299.22911  0.012455424  0.010807847            5 
 2003000   0.46039646   -8.3602355    299.21624   0.01244867  0.010799266           11 
 2004000   0.44296698    -8.359075    299.25878  0.012444227  0.010790697            5 
 2005000    0.4551288   -8.3620315    299.25821  0.012437997  0.010782138            5 
 2006000   0.44923018   -8.3527207    299.36108   0.01243607  0.010773584            6 
 2007000   0.46082949   -8.3646587    298.89487  0.012410516  0.010765041            6 
 2008000   0.44917689   -8.3598838    299.64485   0.01243546  0.010756505            4 
 2009000   0.45264933   -8.3619427    299.28028  0.012414148  0.010747979            5 
 2010000   0.44850451   -8.3462131    299.08063  0.012399694  0.010739458            5 
 2011000   0.45732782   -8.3719907    299.23667  0.012399995  0.010730945            5 
 2012000   0.45280196    -8.354923    298.81916  0.012376539  0.010722439            4 
Loop time of 4651.73 on 48 procs for 2000000 steps with 4000 atoms

Performance: 74294.980 tau/day, 429.948 timesteps/s
99.4% CPU use with 48 MPI tasks x no OpenMP threads

MPI task timing breakdown:
Section |  min time  |  avg time  |  max time  |%varavg| %total
---------------------------------------------------------------
Pair    | 287.05     | 306.85     | 325.63     |  58.2 |  6.60
Neigh   | 30.096     | 31.504     | 32.763     |  12.9 |  0.68
Comm    | 285.47     | 307.23     | 331.15     |  67.2 |  6.60
Output  | 4.0552     | 4.0573     | 4.0915     |   0.2 |  0.09
Modify  | 3952.7     | 3960.3     | 3970.7     |   6.4 | 85.14
Other   |            | 41.82      |            |       |  0.90

Nlocal:        83.3333 ave          91 max          76 min
Histogram: 1 2 4 9 10 8 6 2 4 2
Nghost:        1971.08 ave        1984 max        1948 min
Histogram: 3 1 0 2 4 8 8 10 7 5
Neighs:        12581.6 ave       14531 max       11309 min
Histogram: 3 6 8 10 7 7 3 0 1 3
FullNghs:      25164.0 ave       27867 max       22611 min
Histogram: 1 3 2 14 9 8 3 4 2 2

Total # of neighbors = 1207871
Ave neighs/atom = 301.96775
Neighbor list builds = 107342
Dangerous builds = 0

#clear
#
#next RN
#
#jump SELF
Total wall time: 1:17:34
