
units lj                  # Use reduced LJ style units
atom_style atomic         # Uncharged point particles
atom_modify map hash      # Needed for indexing of clusters etc
                          # Used to be able to find where atoms are in relation to each other.

lattice fcc 1.0 spacing 1 1 1
Lattice spacing in x,y,z = 1.5874011 1.5874011 1.5874011
region box block 0 10 0 10 0 10 units lattice
create_box 2 box
Created orthogonal box = (0.0000000 0.0000000 0.0000000) to (15.874011 15.874011 15.874011)
  3 by 4 by 4 MPI processor grid
create_atoms 1 box
Created 4000 atoms
  using lattice units in orthogonal box = (0.0000000 0.0000000 0.0000000) to (15.874011 15.874011 15.874011)
  create_atoms CPU = 0.003 seconds
set type 1 type/fraction 2 0.31 78393
Setting atom values ...
  1268 settings made for type/fraction
mass 1 1.0
mass 2 1.0
pair_style lj/cut  3.5
pair_modify tail  yes
pair_coeff 1  1  1.0  1.0   # Intearaction between 1 and 1 set with epsilon = 1 and sigma = 1
pair_coeff 1  2  1.5  0.8
pair_coeff 2  2  0.5  0.88

write_data data.0
System init for write_data ...
Neighbor list info ...
  update every 1 steps, delay 10 steps, check yes
  max neighbors/atom: 2000, page size: 100000
  master list distance cutoff = 3.8
  ghost atom cutoff = 3.8
  binsize = 1.9, bins = 9 9 9
  1 neighbor lists, perpetual/occasional/extra = 1 0 0
  (1) pair lj/cut, perpetual
      attributes: half, newton on
      pair build: half/bin/atomonly/newton
      stencil: half/bin/3d
      bin: standard
WARNING: Not all mixed pair coeffs generated from mixing. Use write_data with 'pair ij' option to store all pair coeffs. (../write_data.cpp:312)


#############################
#   M E L T   S Y S T E M   #
#############################

velocity all create 2.4 1741580 mom yes dist gaussian # Assign velocities
                                                    # Temperature 2.4, random number seed, zero linear momentum
                                                                                # Gaussian distribution

timestep 0.002   # simulation timestep
thermo 1000       # output thermodynamic data every 1000 steps bf 100

# Define a fix  in this case with index 1 applied to all
# particles in the simulation. This fix is for simulations
# in the anisotropic NPT ensemble. Note that we use the MTK
# correction.
fix 1 all npt temp 2.4 2.4 0.1 iso 5.68 5.68 0.5 mtk yes tchain 5 pchain 5 # Use NPT ensemble
                                                                         # Set temperature and pressure and damping
                                                                         # Numbers of thermostats in chain and in barostat
run 10000          # run for 10000 steps
Per MPI rank memory allocation (min/avg/max) = 3.642 | 3.644 | 3.648 Mbytes
Step Temp E_pair E_mol TotEng Press Volume 
       0          2.4   -6.3727134            0   -2.7736134   -4.0086663         4000 
    1000    2.4101833   -5.0040336            0   -1.3896625     5.554505    4122.8901 
    2000    2.3800347   -4.9961866            0   -1.4270271    5.5769455    4129.7167 
    3000    2.3692408   -5.0193173            0   -1.4663445    5.4592456    4130.7044 
    4000    2.4214312   -4.9942373            0   -1.3629986    5.9953931     4093.128 
    5000     2.366538    -4.976046            0   -1.4271264    5.8338812    4123.8041 
    6000    2.4023337   -5.0093432            0   -1.4067435    5.1892467    4165.6893 
    7000     2.392439   -4.9464024            0    -1.358641    5.8255412    4129.3411 
    8000    2.3781663   -5.0392153            0   -1.4728576    5.7199344    4093.1178 
    9000    2.3653817   -5.0159445            0    -1.468759     5.354131    4138.9489 
   10000    2.3956684   -5.0098028            0   -1.4171986      6.13576    4075.6596 
Loop time of 2.42753 on 48 procs for 10000 steps with 4000 atoms

Performance: 711835.719 tau/day, 4119.420 timesteps/s
99.6% CPU use with 48 MPI tasks x no OpenMP threads

MPI task timing breakdown:
Section |  min time  |  avg time  |  max time  |%varavg| %total
---------------------------------------------------------------
Pair    | 1.0678     | 1.1143     | 1.1877     |   2.5 | 45.90
Neigh   | 0.20307    | 0.21046    | 0.22488    |   0.8 |  8.67
Comm    | 0.74829    | 0.83044    | 0.89763    |   4.0 | 34.21
Output  | 0.00024272 | 0.00024685 | 0.00031305 |   0.0 |  0.01
Modify  | 0.22588    | 0.25705    | 0.2999     |   3.8 | 10.59
Other   |            | 0.01508    |            |       |  0.62

Nlocal:        83.3333 ave          91 max          71 min
Histogram: 1 0 0 5 7 7 7 12 3 6
Nghost:        1612.08 ave        1637 max        1572 min
Histogram: 1 0 6 3 2 9 7 7 6 7
Neighs:        9358.25 ave       10689 max        7768 min
Histogram: 1 0 2 8 10 9 7 7 1 3

Total # of neighbors = 449196
Ave neighs/atom = 112.29900
Neighbor list builds = 902
Dangerous builds = 184

# Equilibrate just above the melting temperature to avoid step fn in T

fix 1 all npt temp 1.25 1.25 0.1 iso 5.68 5.68 0.5 mtk yes tchain 5 pchain 5
run 2000
Per MPI rank memory allocation (min/avg/max) = 3.643 | 3.645 | 3.649 Mbytes
Step Temp E_pair E_mol TotEng Press Volume 
   10000    2.3956684   -5.0098028            0   -1.4171986      6.13576    4075.6596 
   11000     1.257819   -6.8682835            0   -4.9820266     5.606088    3322.0488 
   12000    1.2458292   -6.8816974            0   -5.0134208    5.6818437     3311.522 
Loop time of 0.819612 on 48 procs for 2000 steps with 4000 atoms

Performance: 421662.704 tau/day, 2440.178 timesteps/s
99.0% CPU use with 48 MPI tasks x no OpenMP threads

MPI task timing breakdown:
Section |  min time  |  avg time  |  max time  |%varavg| %total
---------------------------------------------------------------
Pair    | 0.24981    | 0.27514    | 0.31747    |   2.4 | 33.57
Neigh   | 0.036025   | 0.039083   | 0.040797   |   0.5 |  4.77
Comm    | 0.2193     | 0.26988    | 0.43333    |   5.8 | 32.93
Output  | 5.1906e-05 | 5.3182e-05 | 6.8156e-05 |   0.0 |  0.01
Modify  | 0.046752   | 0.23059    | 0.24114    |   6.6 | 28.13
Other   |            | 0.004875   |            |       |  0.59

Nlocal:        83.3333 ave          89 max          76 min
Histogram: 2 2 1 6 8 7 9 5 3 5
Nghost:        1868.19 ave        1893 max        1844 min
Histogram: 4 3 5 4 8 5 9 2 6 2
Neighs:        11545.1 ave       13050 max        9968 min
Histogram: 1 2 3 9 9 9 6 4 3 2

Total # of neighbors = 554165
Ave neighs/atom = 138.54125
Neighbor list builds = 140
Dangerous builds = 11

#############################
# L I N E A R  Q U E N C H  #
#############################

# Define solid atoms. This closely follows ten Wolde  Ruiz-Montero and Frenkel  Faraday Discuss  1996  104  93-110
# Compute components of the per-atom q6 vector
compute q6 all orientorder/atom degrees 1 6 components 6 nnn NULL cutoff 1.3 # compute the Q6 parameter.
                                                                             # Use all neighbours within 1.3 unit cell.

# get number of connections
compute coord_number all coord/atom orientorder q6 0.5

# An atom is solid if it has 8 or more connections (of a possible 14)
variable is_solid atom c_coord_number>=8
group solid dynamic all var is_solid    # Must be dynamic to update
dynamic group solid defined

# do clustering
compute cluster solid cluster/atom 1.3 # Create a cluster where all atoms within are solid and max 1.3 units from another member

# define chunks one chunk per cluster
compute clus_chunks solid chunk/atom c_cluster nchunk every compress yes  # Says which atoms are in which chunk

# count the size of each chunk
compute size_chunks solid property/chunk clus_chunks count


# Find the maximum entry in the vector of chunk sizes
variable max_n equal max(c_size_chunks)


# Thermo style which includes this variable
# thermo_style custom step temp pe vol v_max_n

thermo ${N}  # Print the thermo information every 100 steps
thermo 1000  

# Reset the npt fix at a lower temperature (below freezing)
fix 1  all npt temp  ${temp} ${temp}  0.1  iso  5.68  5.68  0.5  mtk yes tchain  5  pchain  5
fix 1  all npt temp  0.45 ${temp}  0.1  iso  5.68  5.68  0.5  mtk yes tchain  5  pchain  5
fix 1  all npt temp  0.45 0.45  0.1  iso  5.68  5.68  0.5  mtk yes tchain  5  pchain  5

dump dmp2 all dcd ${N} traj.dcd
dump dmp2 all dcd 1000 traj.dcd


compute msd all msd com yes
variable twopoint equal c_msd[4]/6/(step*dt+1.0e-6)
fix 9 all vector 10 c_msd[4]
variable fit equal slope(f_9)/6/(10*dt)
thermo_style custom step temp pe c_msd[4] v_twopoint v_fit v_max_n

fix 1 all npt temp 1.25 ${temp} 0.1 iso 5.68 5.68 0.5 mtk yes tchain 5 pchain 5
fix 1 all npt temp 1.25 0.45 0.1 iso 5.68 5.68 0.5 mtk yes tchain 5 pchain 5
run 2000000 # 5000000  # Run for this many steps
Neighbor list info ...
  update every 1 steps, delay 10 steps, check yes
  max neighbors/atom: 2000, page size: 100000
  master list distance cutoff = 3.8
  ghost atom cutoff = 3.8
  binsize = 1.9, bins = 8 8 8
  4 neighbor lists, perpetual/occasional/extra = 1 3 0
  (1) pair lj/cut, perpetual
      attributes: half, newton on
      pair build: half/bin/atomonly/newton
      stencil: half/bin/3d
      bin: standard
  (2) compute orientorder/atom, occasional
      attributes: full, newton on
      pair build: full/bin/atomonly
      stencil: full/bin/3d
      bin: standard
  (3) compute coord/atom, occasional
      attributes: full, newton on
      pair build: full/bin/atomonly
      stencil: full/bin/3d
      bin: standard
  (4) compute cluster/atom, occasional
      attributes: full, newton on
      pair build: full/bin/atomonly
      stencil: full/bin/3d
      bin: standard
Per MPI rank memory allocation (min/avg/max) = 9.810 | 9.818 | 9.826 Mbytes
Step Temp PotEng c_msd[4] v_twopoint v_fit v_max_n 
   12000    1.2458292   -6.8816974 7.6953381e-31 5.3439846e-33 8.3333333e+20            1 
   13000    1.2565638   -6.9086595   0.52773577 0.0033829215  0.043185227            2 
   14000    1.2376151   -6.8910152    0.9944013 0.0059190552  0.041078337            3 
   15000     1.242164    -6.912915    1.4970464 0.0083169239  0.040850041            1 
   16000    1.2528221   -6.9450168    1.9329118  0.010067249  0.040557495            1 
   17000     1.259833   -6.8623311    2.4764652  0.012139535  0.040226732            1 
   18000    1.2478141   -6.8947245    2.9315152  0.013571829  0.040259901            1 
   19000    1.2564555   -6.9196957     3.361876   0.01474507  0.039975685            2 
   20000     1.231078    -6.897278    3.8437557  0.016015648  0.039674088            2 
   21000    1.2461464   -6.9417781    4.2802888  0.016985273   0.03944474            2 
   22000    1.2457933   -6.9031892    4.7242194   0.01789477  0.039216562            4 
   23000    1.2593155   -6.8876018    5.2501888  0.019022423  0.039218036            1 
   24000    1.2380497   -6.8628811    5.8027344  0.020148383  0.039348749            2 
   25000     1.246579     -6.92379    6.2903754  0.020967918  0.039558547            1 
   26000     1.254723   -6.8978911    6.7451241  0.021618987   0.03975126            5 
   27000    1.2928925   -6.9565128    7.1902038  0.022191987  0.039825465            1 
   28000     1.255793   -6.9242966    7.5160516  0.022369201  0.039669973            1 
   29000    1.2384578   -6.8699002    7.9682288  0.022897209  0.039379441            1 
   30000    1.2573814   -6.8781915     8.317691  0.023104697   0.03906381            2 
   31000    1.2191776   -6.9333642    8.8054376  0.023670531   0.03880267            1 
   32000    1.2505875   -6.9309417    9.2531422  0.024096724  0.038602957            1 
   33000    1.2632748   -6.9194293    9.7495444  0.024620061  0.038487888            2 
   34000    1.2289817   -6.9418502    10.211674  0.025028613  0.038438417            1 
   35000    1.2453148   -6.9757703    10.634727  0.025320779  0.038343668            1 
   36000    1.2419909   -6.9165055    11.082165   0.02565316  0.038257003            1 
   37000    1.2524435   -6.9439729    11.434193  0.025752686  0.038130898            2 
   38000    1.2470765    -6.944312    11.968496  0.026246701  0.038032392            1 
   39000    1.2503093   -6.9700662    12.367266  0.026425781  0.037972721            2 
   40000    1.2286859   -6.9423647    12.906712  0.026888984  0.037914843            2 
   41000    1.2407638   -6.8869504    13.285186   0.02700241  0.037877217            2 
   42000    1.2342648   -6.9463315    13.785227  0.027351641  0.037850094            1 
   43000    1.2406495   -6.9196194     14.35172  0.027813411    0.0378604            1 
   44000     1.249298   -6.9482732    14.897472  0.028214908  0.037910815            1 
   45000    1.2240437   -6.9604604    15.413472  0.028543467  0.037986533            1 
   46000    1.2355275   -6.9664187    15.727568   0.02849197  0.038031714            4 
   47000    1.2453271   -6.9703597    16.142702  0.028621812  0.038033187            3 
   48000    1.2350954   -6.8919418    16.679576  0.028957597  0.038032664            1 
   49000    1.2188747   -6.9069562    17.032797  0.028967341   0.03800476            2 
   50000    1.2287999   -6.9512627    17.585035  0.029308391  0.037994072            1 
   51000    1.2809712   -6.9530716    17.877918  0.029212283  0.037983634            1 
   52000    1.2471404   -6.9187852    18.244385  0.029237796  0.037952593            2 
   53000    1.1915124   -6.9379017     18.51911  0.029118098  0.037869073            2 
   54000    1.2515246   -6.9439468    18.949071  0.029242393  0.037782983            3 
   55000    1.2492932    -6.973851    19.415504   0.02941743  0.037697289            3 
   56000    1.2473037   -6.9534995    19.883246  0.029588164  0.037622633            4 
   57000    1.2393499   -6.8993065    20.362507  0.029769747  0.037565851            1 
   58000    1.2016948   -6.9398454    20.865169  0.029978691  0.037529675            2 
   59000    1.2165801   -6.9301125    21.248463  0.030011953  0.037496704            1 
   60000     1.213637   -6.9516579    21.648969  0.030068012  0.037448626            1 
   61000    1.2438532   -6.9589316    22.081969  0.030166624   0.03740003            1 
   62000    1.2367056   -6.9338171    22.664616  0.030463193   0.03735154            1 
   63000     1.232628   -6.9266897    23.046539  0.030484839  0.037327163            2 
   64000    1.2175151    -6.951419    23.488644  0.030584172  0.037319397            1 
   65000    1.2248543   -6.9927555     23.99113  0.030757859  0.037314551            1 
   66000    1.1995435   -6.9427291     24.46921  0.030895467  0.037311693            2 
   67000     1.212862    -6.984557    24.999516  0.031093925  0.037322177            1 
   68000    1.2345166   -6.9761672    25.312688   0.03102045  0.037321369            1 
   69000    1.2320958   -6.9480867    25.774191   0.03112825  0.037315939            1 
   70000    1.2023279   -7.0093298    26.121294  0.031096779  0.037306071            1 
   71000    1.2312414   -6.9552468    26.603976  0.031225324  0.037286087            1 
   72000     1.206881   -6.9737222    26.956616  0.031199787  0.037262576            2 
   73000    1.2219714   -6.9817131    27.167875  0.031013556  0.037228567            2 
   74000     1.212936   -6.9715415    27.842939  0.031354661  0.037194734            2 
   75000    1.2188002   -6.9412742     28.22773  0.031364144  0.037172631            1 
   76000    1.1944854   -6.9762926    28.670037  0.031436444  0.037152806            4 
   77000    1.2052819   -6.9896257    29.313706   0.03172479  0.037143964            3 
   78000    1.2401515   -6.9643281    29.735585  0.031768787  0.037137991            2 
   79000    1.1959282   -6.8913774    30.175934  0.031831154  0.037129641            2 
   80000    1.2515172   -6.9566895    30.527054  0.031799015  0.037121618            1 
   81000    1.2253905   -6.9508278    31.025965  0.031919716  0.037108531            3 
   82000    1.1975483   -7.0031418    31.433425  0.031944537  0.037103536            2 
   83000    1.2160524   -6.9414048     32.01193  0.032140492   0.03709669            4 
   84000    1.2184535   -6.9656879    32.569425  0.032310937  0.037102156            4 
   85000    1.2320647   -6.9710086    33.013886  0.032366555  0.037114966       -1e+20 
   86000    1.1932648   -6.9702141     33.39065  0.032355281  0.037122242            2 
   87000    1.2187787   -6.9391635    34.083313  0.032646851  0.037141822            1 
   88000    1.2264146   -6.9944059    34.300981  0.032481989  0.037160121            1 
   89000    1.2249418   -6.9907663    34.660012  0.032453194  0.037169605            2 
   90000    1.2148088   -6.9486656    35.144617  0.032541312  0.037166911            2 
   91000    1.2129432   -6.9423367    35.609041  0.032609012  0.037170622            1 
   92000    1.2251055   -6.9535848     35.93336  0.032548333  0.037164543            2 
   93000    1.2191052   -6.9935366    36.493671  0.032700422   0.03715885            1 
   94000    1.2285024   -6.9657526    36.847529  0.032666249  0.037160069            1 
   95000    1.2276478   -6.9556331     37.31926  0.032736193  0.037162291            1 
   96000    1.2342901     -6.95708     37.88393  0.032885356   0.03716235            2 
   97000    1.2166093   -6.9591726    38.141889  0.032767946  0.037159817            2 
   98000    1.2166693   -6.9558552    38.575323  0.032802145  0.037153382            2 
   99000    1.2174564   -6.9548681    39.038457  0.032860653  0.037146353            1 
  100000    1.2242284   -6.9925139    39.459937  0.032883281  0.037140517            2 
  101000    1.1642049   -6.9759995    39.978821  0.032985826  0.037135244            1 
  102000    1.2158734   -6.9577262     40.59142  0.033162925  0.037134524            1 
  103000    1.2052126   -6.9759069    40.983732  0.033158359  0.037139507            2 
  104000    1.2235542   -6.9651838    41.222576   0.03303091  0.037133874            1 
  105000     1.199631    -6.987946    41.607897   0.03302214  0.037123191            1 
  106000    1.2206253   -6.9262816    41.940333   0.03297196   0.03710465            1 
  107000    1.2090792   -6.9864635    42.664359  0.033227694   0.03709647            1 
  108000    1.2187343   -6.9868738    43.090201  0.033248612   0.03709339            1 
  109000    1.2129738   -6.9755798     43.44999  0.033218647   0.03709428            2 
  110000     1.209735    -6.958949    43.740117  0.033136452  0.037085444            3 
  111000     1.216996   -6.9723059    44.256101  0.033225301  0.037073534            2 
  112000    1.2068858   -6.9731522    44.550848  0.033147952  0.037065993            2 
  113000    1.2252502   -6.9743709    45.286084  0.033396817   0.03706069            2 
  114000    1.2234611   -6.9622942    45.755248  0.033446818  0.037057245            1 
  115000    1.2107278   -6.9626172    46.052231  0.033371182   0.03704916            1 
  116000    1.1995307   -6.9878878    46.251032  0.033226316  0.037032878            1 
  117000    1.2120875   -6.9963664    46.575781  0.033173633  0.037011306            2 
  118000    1.2098906   -7.0306435    46.609844  0.032916557  0.036983979            1 
  119000    1.2329826   -7.0319036    46.948782  0.032877298  0.036950996            1 
  120000    1.2000902   -6.9689655    47.558182  0.033026515  0.036917209            2 
  121000    1.2037118   -7.0139563    47.851382  0.032955497  0.036884348            2 
  122000    1.1976002   -7.0001292    48.284978  0.032981542  0.036851288            2 
  123000    1.2132478   -6.9656343    48.764207  0.033038081  0.036817508            4 
  124000    1.2100652   -7.0019445    49.329204  0.033151347    0.0367839            1 
  125000      1.20175   -7.0111618    49.548552  0.033032368  0.036750711            1 
  126000      1.18819   -7.0177101    49.849234   0.03296907  0.036717581            2 
  127000    1.1892511   -7.0181275    50.173099  0.032921981   0.03668424            1 
  128000     1.208831   -7.0056461    50.589837  0.032936092  0.036650402       -1e+20 
  129000    1.1943298   -7.0547682     50.85883  0.032854541  0.036615191            1 
  130000    1.1614062   -6.9826449    51.639934  0.033102521  0.036579973            3 
  131000    1.1664054   -7.0340196    51.768558  0.032931653  0.036549679            2 
  132000    1.1988878   -7.0170833    52.101267  0.032892214  0.036512558            1 
  133000    1.2125116   -7.0018326    52.546964  0.032924163  0.036477905            1 
  134000    1.2227946   -6.9878128    52.816488  0.032846074  0.036443644            2 
  135000    1.2198489   -7.0327171    53.040416  0.032740998  0.036405227            1 
  136000    1.2030464    -7.010903      53.4775  0.032768076  0.036365458            1 
  137000    1.2197225   -6.9955796    54.082157  0.032896689  0.036330111            1 
  138000    1.1701247   -7.0352229    54.459982  0.032886462  0.036292983            3 
  139000     1.205765   -6.9980452    55.068913  0.033014935  0.036258677            1 
  140000    1.1768179   -7.0038628    55.511407  0.033042504  0.036229099            2 
  141000    1.2048435   -7.0322515    55.867457  0.033018591  0.036201541            1 
  142000    1.2122033   -6.9606163    56.350391  0.033069478  0.036174002            1 
  143000    1.2100552   -7.0024836     56.79838  0.033099289  0.036146605            1 
  144000    1.2132102   -6.9722313    57.002849   0.03298776  0.036114651            2 
  145000     1.181975   -7.0111492    57.315144  0.032939738  0.036083558            1 
  146000    1.1890363   -7.0046063    57.534537  0.032839347  0.036050058            1 
  147000     1.181414   -7.0198978    57.966652  0.032860914   0.03601612            5 
  148000    1.2077947   -7.0215521    58.243933  0.032795007  0.035977205            1 
  149000    1.1796384   -7.0215678     58.56001  0.032751683   0.03593607            2 
  150000    1.1782759   -7.0435129    58.925147  0.032736193  0.035897949            1 
  151000    1.2132028   -6.9857561    59.616143  0.032900741  0.035862574            1 
  152000    1.1627454   -7.0097701    59.978158  0.032882762  0.035832531            1 
  153000    1.1980775   -7.0137177    60.383528  0.032888631  0.035801799            1 
  154000    1.2055239   -7.0557193    60.739599  0.032867748  0.035773325            2 
  155000    1.1735293   -7.0476662    61.019499  0.032806182  0.035744631            1 
  156000    1.1665617   -7.0799636    61.558147  0.032883626  0.035718393            2 
  157000     1.188671   -7.0650376    61.929248  0.032871151  0.035691773            1 
  158000    1.1878794   -7.0070609    62.677996  0.033058015  0.035666455            3 
  159000    1.1854018   -7.0293812    62.945073   0.03299008  0.035643147            1 
  160000    1.1908072   -7.0107473    63.342753  0.032991017  0.035621645            1 
  161000    1.1909656   -7.0293375    64.077455  0.033166384  0.035600071            1 
  162000    1.1928611   -7.0362498     64.15564  0.033001872  0.035580057            1 
  163000      1.19374   -7.0291329    64.597108  0.033025106  0.035560049            2 
  164000    1.1658882   -7.0257282    65.071954  0.033065017  0.035542023            1 
  165000    1.1870289   -7.0213489    65.351343  0.033005729  0.035522866            2 
  166000    1.1888359   -7.0199268    65.919317  0.033092026  0.035504958            2 
  167000    1.1944863   -7.0026727    66.150506  0.033009234  0.035485479            2 
  168000    1.2076549   -7.0030765    66.810498  0.033140128  0.035465385            1 
  169000    1.2038743   -7.0462272    66.873492  0.032975094  0.035446867            1 
  170000    1.1957601    -7.022832    67.556123  0.033115746   0.03542709            1 
  171000    1.1915473   -7.0238767    67.941234  0.033109763  0.035407724            1 
  172000    1.1651498   -7.0610476    68.066859  0.032978129  0.035387444       -1e+20 
  173000    1.1833157   -7.0124078    68.605053   0.03304675  0.035367129            2 
  174000     1.202624    -7.061313    69.031612  0.033061117  0.035348597            1 
  175000    1.1612365    -7.049537     69.16688  0.032936609  0.035328618            1 
  176000    1.1764761   -7.0306853    69.684166  0.032994396  0.035306792            2 
  177000    1.1827087   -7.0565476    70.176516  0.033039791  0.035287348            2 
  178000     1.164624   -7.0819717     70.52592  0.033017753  0.035270271            1 
  179000    1.1875379   -7.0424129    71.237457  0.033164552  0.035256228            1 
  180000    1.1717864   -7.0575297    71.498805  0.033101299  0.035241707            1 
  181000    1.1806814   -7.0572204    71.884871  0.033096165  0.035226859            1 
  182000    1.1720227   -7.0983772    72.192047  0.033054967  0.035211833            8 
  183000    1.1616375   -7.0460886    72.839731  0.033169276  0.035197565            1 
  184000     1.169704   -7.0395519    73.543857  0.033307906  0.035186569            3 
  185000    1.2056094   -7.0576328    73.655809  0.033178292  0.035171794            1 
  186000     1.214186   -7.0658339    74.132552  0.033213509  0.035160539            2 
  187000    1.1910302    -7.068538    74.398893  0.033154587  0.035148095            1 
  188000    1.2006241    -7.095768    74.731115  0.033125494  0.035134762            1 
  189000    1.1714353   -7.0361534     75.26896  0.033187372  0.035120571            2 
  190000     1.186961   -7.0801653    75.482449  0.033106337   0.03510846            2 
  191000     1.189755   -7.0617338    76.103857  0.033204126   0.03509595            1 
  192000    1.1893521   -7.0282313    76.514235  0.033209304  0.035082579            3 
  193000    1.1754127   -7.0268851    76.888374   0.03319878  0.035067937            2 
  194000    1.1813299   -7.0419319     77.40959  0.033251542  0.035056267            2 
  195000    1.1617211   -7.0789051    77.586203  0.033156497   0.03504501            3 
  196000    1.1780021   -7.0383567     78.55278  0.033398291  0.035035965            1 
  197000    1.1781992   -7.0755329    78.536631  0.033221925  0.035025473            2 
  198000    1.1562014   -7.0332747    79.284724  0.033368991  0.035016867            1 
  199000    1.1687913   -7.0981598    79.359473   0.03323261  0.035009535            2 
  200000    1.1578633   -7.0649229     80.34317  0.033476321   0.03500279            1 
  201000    1.1783877   -7.0406653    80.247424  0.033270076  0.034996749            1 
  202000    1.1819764   -7.0775402    80.572776  0.033239594  0.034989146            1 
  203000    1.1669866   -7.0444601    80.700859  0.033128432  0.034980588            1 
  204000     1.187495     -7.07368    81.260213  0.033194531   0.03496971       -1e+20 
  205000     1.157024   -7.0677909    81.413787  0.033095035  0.034959201            1 
  206000    1.1562802   -7.0462975    81.955617  0.033153566  0.034947281            1 
  207000    1.1638482   -7.0756205    82.583973  0.033246366  0.034935711            2 
  208000    1.1529298   -7.0279394    83.019971  0.033261206  0.034924843            1 
  209000    1.1565288   -7.0501442    83.189321  0.033169586  0.034913344            3 
  210000     1.174922   -7.0800692    83.302015  0.033056355  0.034900297            4 
  211000    1.1655649   -7.0593874    84.009302  0.033179029  0.034886069            2 
  212000    1.1592817   -7.0705809    84.020149  0.033026788  0.034872496            1 
  213000    1.1728576   -7.0746023    84.437121  0.033034867  0.034857107            2 
  214000    1.1471034   -7.0521842    84.593337  0.032941331  0.034838601            2 
  215000    1.1773532   -7.0364162     85.10773  0.032987492  0.034821737            2 
  216000    1.1655635   -7.0730192    85.409484   0.03295119  0.034805287            2 
  217000    1.1752578   -7.0312043    86.401108  0.033180149  0.034789609            1 
  218000    1.1532393   -7.1254065    86.345559  0.033006712  0.034775281            4 
  219000    1.1622385   -7.1274705    86.562423  0.032938517  0.034759207            2 
  220000    1.1851568   -7.1082932     86.82709  0.032889049  0.034742847            3 
  221000     1.135218   -7.0844631    87.614906  0.033037295   0.03472906            3 
  222000     1.176594    -7.071009    88.205768  0.033110273    0.0347165            1 
  223000    1.1658085   -7.0793247    88.179489  0.032951976  0.034703528            3 
  224000    1.1521877   -7.0267887    88.850353  0.033054447  0.034689701            2 
  225000    1.1703573    -7.134497    88.643801  0.032831037  0.034674227            2 
  226000    1.1822904   -7.0891788    89.315944  0.032933608  0.034657598            2 
  227000    1.1497622   -7.0829938     89.69739  0.032928557  0.034641893            1 
  228000    1.1754492   -7.0755908    90.204233  0.032969383  0.034628437            1 
  229000    1.1582718   -7.1017798    90.610407  0.032973219  0.034614915       -1e+20 
  230000     1.152727   -7.0731515    91.148381  0.033024776  0.034600817            1 
  231000    1.1709165   -7.1139271    91.229143  0.032910946  0.034587006            2 
  232000    1.1635429   -7.0859578    91.291416  0.032791457  0.034570752            2 
  233000    1.1444534   -7.1086977    91.906771  0.032870805  0.034552329            2 
  234000    1.1819656   -7.1139231    91.909033  0.032731137  0.034534984            2 
  235000    1.1811745   -7.0770687    92.537814  0.032814828  0.034517523            2 
  236000    1.1525272   -7.0636948     93.15218  0.032892719  0.034500286            1 
  237000    1.1538959   -7.0877554    93.458013  0.032861467  0.034485687            1 
  238000    1.1607823   -7.0282325    94.364753   0.03304088  0.034472872            1 
  239000    1.1375199   -7.1294302    94.470324  0.032939444  0.034458892            4 
  240000    1.1493119   -7.0872949    94.731269  0.032892802  0.034445013            2 
  241000     1.162448   -7.1214047    94.976817  0.032841223  0.034430796            4 
  242000    1.1409644   -7.1200675    95.284183  0.032811358  0.034416685            1 
  243000     1.158333   -7.0958149     96.00951  0.032925072   0.03440416            3 
  244000    1.1761982   -7.1669528    96.476328  0.032949566  0.034392983            1 
  245000    1.1991288   -7.1381689    96.901982  0.032959858  0.034381413            2 
  246000    1.1623799   -7.0476143    97.641889  0.033076521  0.034370496            1 
  247000    1.1299129    -7.140591    97.597855  0.032927751  0.034359592            1 
  248000    1.1230358   -7.1316016    97.565036   0.03278395  0.034345409            2 
  249000    1.1796345   -7.0758204    98.651039  0.033015743  0.034332377            1 
  250000    1.1560608    -7.119774    98.731369  0.032910456  0.034318759            3 
  251000    1.1586122   -7.0920735    98.971717  0.032859136  0.034304542            2 
  252000    1.1320099   -7.0977588    99.553454  0.032921116  0.034290403            1 
  253000    1.1262111   -7.1096792    99.295536   0.03270604  0.034275701            6 
  254000    1.1505633   -7.1014056    100.07865  0.032834201  0.034260107            2 
  255000    1.1551404   -7.1072511    100.10822  0.032715105  0.034243719            1 
  256000     1.140844   -7.1520295    100.35933  0.032669053  0.034227298            2 
  257000    1.1414529   -7.1033062    101.00383  0.032750919  0.034211451            2 
  258000     1.155756    -7.103643     101.4369  0.032763855  0.034196448            2 
  259000    1.1644521   -7.0696084    101.72447   0.03272988  0.034178701            2 
  260000    1.1478214   -7.1483706    101.71297  0.032600311  0.034160926            2 
  261000    1.1132234     -7.14256    102.10851  0.032601694  0.034141667            1 
  262000    1.1527622   -7.1343896    101.87919  0.032404323  0.034122429            1 
  263000    1.1348788   -7.1240638    102.22117   0.03238947  0.034102562            3 
  264000    1.1831657   -7.1419737    103.11198  0.032547973   0.03408201            1 
  265000    1.1391064   -7.1266915    103.78201  0.032635854  0.034063887            1 
  266000    1.1168642   -7.1101402    104.12695  0.032621224  0.034047037            2 
  267000    1.1317401   -7.1532807    104.10546   0.03249234  0.034029535            2 
  268000    1.1486139   -7.1268042    104.59915  0.032524613  0.034013011            1 
  269000     1.141358   -7.1565119    104.81058  0.032469199  0.033996024            1 
  270000    1.1473561   -7.0723669    105.75798   0.03264135  0.033979831            4 
  271000    1.1564949   -7.1236435    105.70613  0.032504961  0.033962695            3 
  272000     1.139844   -7.1126687    106.07524  0.032498541  0.033945277            2 
  273000    1.1313329   -7.1398105    106.55097  0.032524715  0.033928411            1 
  274000    1.1488317   -7.1266023    107.09362  0.032571051  0.033912327            1 
  275000    1.1359683    -7.136585    107.04164  0.032436861  0.033895558            2 
  276000    1.1598335   -7.1103689    107.45019  0.032442691  0.033877867            1 
  277000    1.1465934    -7.183785    107.21639  0.032255231  0.033859278            1 
  278000     1.143925   -7.1431887    108.34726  0.032478195  0.033840476            2 
  279000    1.1595884   -7.1448659    108.56508  0.032426846  0.033823006            3 
  280000    1.1534902   -7.1562177    108.64321  0.032334289  0.033804589            1 
  281000    1.1543234   -7.1433904    108.86801  0.032285885  0.033785831            2 
  282000    1.1330124   -7.1341856    109.48671  0.032354228  0.033767839            2 
  283000    1.1325713   -7.1218944    110.11319  0.032424379   0.03375199            2 
  284000    1.1389853   -7.1671308    110.29912  0.032364764  0.033734602            2 
  285000    1.1508532   -7.1437059    110.12972  0.032201673  0.033716954            3 
  286000     1.136357   -7.1617544    110.73142    0.0322644  0.033698799            1 
  287000    1.1257676   -7.1049169    111.21214  0.032291561  0.033680143            1 
  288000    1.1542061   -7.1050724    111.86451  0.032368202  0.033663794            1 
  289000    1.1317068   -7.1651523     112.1405  0.032335785  0.033648297            2 
  290000    1.1529406   -7.1270571    112.73014  0.032393718  0.033631139            1 
  291000    1.1029968   -7.1517135    112.58232  0.032240068  0.033614272            1 
  292000    1.1182968   -7.1903658    112.46754  0.032096901  0.033596368            2 
  293000     1.168239   -7.1699759    112.78178  0.032076729   0.03357784            2 
  294000    1.1506321   -7.0912025    114.18709  0.032365956  0.033560063            1 
  295000     1.138509   -7.1904881    113.57731  0.032083985  0.033542144            2 
  296000    1.1473325   -7.1499949    114.74509  0.032304362   0.03352528            1 
  297000    1.1418987   -7.1748246    114.50232  0.032127476  0.033507543            8 
  298000    1.1529878   -7.1448123    114.75324  0.032089833  0.033488649            2 
  299000    1.1313058   -7.1390797    114.96638  0.032041912  0.033469025            1 
  300000    1.1452286    -7.140382    115.28294   0.03202304  0.033448839            2 
  301000    1.1104149   -7.1908721    115.26953  0.031912937  0.033428563            1 
  302000    1.1269979   -7.1543035    115.56533  0.031888887  0.033406042            2 
  303000    1.1439485   -7.1681884     115.1138  0.031659461  0.033383084            1 
  304000    1.1599773   -7.1804603    115.54965  0.031674795  0.033358831            2 
  305000     1.138522   -7.1445622     116.4607  0.031819864  0.033334392            1 
  306000    1.1475176   -7.1459415    116.38081   0.03169412  0.033309515            3 
  307000    1.1245397   -7.1353191    116.49973  0.031623163  0.033284884            1 
  308000    1.1197263   -7.1761681    116.83639  0.031611578  0.033258673            1 
  309000    1.1210679   -7.1496546    117.35737  0.031649776  0.033231828            2 
  310000    1.1342888   -7.1656343    117.79406  0.031665069  0.033207297            1 
  311000    1.1433203   -7.1396018    118.26179  0.031688582  0.033183564            2 
  312000    1.1155325   -7.1791623    118.20268   0.03157123  0.033158928            1 
  313000    1.1532499    -7.117207    118.64157  0.031587212  0.033133749            2 
  314000    1.1001104    -7.174076    118.99946  0.031581597  0.033108371            2 
  315000    1.1265122   -7.1421866    119.15976  0.031523746   0.03308285            1 
  316000    1.1247539   -7.1660572    119.00696  0.031383692  0.033056983            2 
  317000    1.1488587    -7.155334    119.12145  0.031314787  0.033029833            2 
  318000    1.1041004   -7.1764759    119.66484   0.03135871  0.033001903            1 
  319000    1.1593875   -7.1909185    119.68018  0.031264415   0.03297468            1 
  320000    1.1381972   -7.1850608    120.32478  0.031334578  0.032947967            3 
  321000    1.1093518    -7.141183    120.58762  0.031305197  0.032921498            3 
  322000    1.1096627    -7.181085    120.94403  0.031300214  0.032894724            2 
  323000    1.1178228   -7.1917647    121.38343  0.031316675  0.032867295            2 
  324000    1.1285343   -7.1461473    121.88869  0.031349972  0.032841076            2 
  325000    1.1389526   -7.2184986    121.39093  0.031125878  0.032813761            1 
  326000    1.1122728    -7.171016    121.98743   0.03118288  0.032786791            2 
  327000    1.1136076   -7.1531303    122.19665  0.031140838  0.032761105            2 
  328000    1.1111726   -7.1889277    122.83238  0.031207415  0.032734983            2 
  329000    1.1192052    -7.145514    123.27317  0.031224208  0.032708916            1 
  330000    1.1400605   -7.1819746    123.66083  0.031227482    0.0326846            2 
  331000    1.1155376   -7.1820962    124.14163  0.031254187  0.032660557            1 
  332000     1.124421   -7.1972454    124.31801  0.031204319   0.03263668            3 
  333000    1.1194116   -7.1194978    124.95438  0.031269865  0.032611307            1 
  334000    1.1217841   -7.2234789    124.47177   0.03105583  0.032586498            2 
  335000    1.1451842   -7.1784744    125.10971  0.031121819  0.032560994            2 
  336000    1.1330214   -7.1605435     125.6855     0.031172  0.032536674            2 
  337000      1.13999   -7.1791919    125.76016  0.031097963  0.032512088            2 
  338000    1.0923385    -7.208704    126.12466  0.031095823  0.032486932            1 
  339000    1.0867723   -7.1803524    126.03978  0.030983231  0.032462486            3 
  340000    1.1217127   -7.1504717    126.83396  0.031086754  0.032437456            2 
  341000      1.10018   -7.2032367    126.92192  0.031017088  0.032412586            2 
  342000    1.1076157   -7.1553775     127.3241   0.03102439  0.032387869            2 
  343000     1.119813   -7.1961616    127.67661  0.031019585  0.032363816            2 
  344000    1.1063274   -7.1951397    128.38836  0.031101832  0.032340955            3 
  345000     1.108496   -7.1787701    128.44776  0.031026028  0.032318392            1 
  346000    1.1174123   -7.1888296    129.05736  0.031083179  0.032296429            3 
  347000    1.1190772   -7.1711532    129.68977  0.031145478  0.032274484            2 
  348000    1.1146258   -7.2174992     129.4633  0.031001749  0.032253029            2 
  349000    1.1341807   -7.2173144    129.89861   0.03101686  0.032231329            4 
  350000    1.0896056   -7.1801432    130.09134  0.030974127  0.032210026            3 
  351000    1.1009198   -7.2292227    130.28438  0.030931715  0.032187534            1 
  352000    1.1116311   -7.1801914    130.05888  0.030790454  0.032164725            1 
  353000    1.1125795   -7.1921103    131.18046  0.030968003  0.032143018            2 
  354000    1.1143183   -7.2067396    131.27238  0.030902162  0.032121153            1 
  355000    1.1189476   -7.2455817    131.80399  0.030939903  0.032099452            4 
  356000    1.0860026   -7.2268689     132.2965  0.030968281  0.032079183            3 
  357000    1.1360087   -7.1904756    132.72475  0.030981502   0.03205811            2 
  358000    1.1170292   -7.2253758    133.22217  0.031010747  0.032038062            3 
  359000    1.1029519   -7.1763174    133.83705  0.031067097  0.032019036            1 
  360000    1.1026712    -7.216573    133.82951  0.030979054  0.032000095            2 
  361000    1.1223688   -7.2270598    132.97365  0.030695671  0.031979808            1 
  362000     1.096212   -7.2305072    133.95271  0.030836259  0.031958621            2 
  363000     1.102773   -7.2132605    134.35795  0.030844341  0.031937626            1 
  364000    1.0938929   -7.1738997    135.08875  0.030926911  0.031917791            1 
  365000    1.1209356    -7.230035    134.83389  0.030783992  0.031898704            2 
  366000    1.1172444   -7.2165159    135.34215  0.030815608  0.031879635            2 
  367000    1.0986519   -7.2330772    136.16982  0.030919578  0.031860113            1 
  368000    1.1079927   -7.2215967    136.01994  0.030801617  0.031841084            1 
  369000    1.0956366   -7.1953798    136.86028  0.030907921  0.031822555            3 
  370000    1.1012435   -7.2321404    136.84161  0.030820183  0.031804281            3 
  371000    1.1286876   -7.2300292    137.26081  0.030831268  0.031785763            1 
  372000    1.1102209   -7.2494124    137.36487  0.030771699  0.031766743            1 
  373000    1.0880771   -7.1642521     137.5656  0.030734049  0.031746559            1 
  374000    1.1255022   -7.2239033    137.67359  0.030675934  0.031726974            2 
  375000    1.1055213   -7.1947763    138.53779  0.030786175  0.031707633            4 
  376000    1.0973037   -7.2136973    138.79438  0.030761165  0.031688491            1 
  377000    1.1034578   -7.2578571    138.63795  0.030644992  0.031668544            5 
  378000    1.0931834    -7.281221    139.00207  0.030644195  0.031648249            2 
  379000    1.0961716   -7.2428223    139.33824  0.030637256   0.03162841            3 
  380000    1.0848712   -7.2293412    140.06278  0.030715523  0.031609581            3 
  381000    1.1072507    -7.234921    140.06026  0.030634353   0.03159104            2 
  382000    1.0885506   -7.2277656    140.45728  0.030640768  0.031571507            1 
  383000    1.0991496   -7.2866732    140.08163  0.030479031  0.031551414            2 
  384000    1.1077348   -7.2003604    140.69953  0.030533753  0.031530996            1 
  385000     1.092251   -7.2290837    140.78885  0.030473776  0.031510102            4 
  386000      1.09821   -7.2331137     141.0577  0.030452872  0.031488908            3 
  387000    1.0951741   -7.2111875     141.6012  0.030491214  0.031468137            1 
  388000    1.0733721   -7.2728987     141.7724  0.030449399   0.03144783            1 
  389000     1.107185   -7.2085607    142.16977   0.03045625  0.031427047            2 
  390000    1.0723287   -7.2387901    142.53108  0.030455358  0.031407566            1 
  391000    1.0894525   -7.2418168    143.30101  0.030541562  0.031388341            3 
  392000    1.1063015   -7.2395141    143.13196  0.030427713  0.031369558            1 
  393000    1.1013856   -7.2507259    143.10294  0.030344134  0.031350659            2 
  394000    1.1249993   -7.2109761    143.75061  0.030404106  0.031332075            3 
  395000    1.1093185   -7.2542558    144.43074   0.03047062  0.031312941            2 
  396000    1.0979912    -7.297567    143.85576  0.030272678   0.03129378            2 
  397000    1.0668849   -7.2367898    144.54527  0.030341157  0.031274084            1 
  398000    1.0754933   -7.2458754    145.06302  0.030373328  0.031255042            3 
  399000    1.0695052    -7.218142    145.48686  0.030385726   0.03123672            2 
  400000    1.0959657   -7.2578661    145.77014  0.030368778  0.031218207            1 
  401000     1.065579   -7.2574953    145.94341  0.030329055  0.031199627            1 
  402000    1.0939521   -7.2486786    146.16523  0.030299592  0.031180956            2 
  403000    1.1032343   -7.2703029     146.7248  0.030340115    0.0311616            1 
  404000    1.0976849   -7.2727824    146.42497   0.03020317  0.031141849            3 
  405000    1.0868447   -7.2450361     146.5683  0.030158086  0.031122549            2 
  406000    1.1168274   -7.1927263    147.50432  0.030275927  0.031103403            2 
  407000     1.090518    -7.250586    147.39128  0.030178395  0.031084818            2 
  408000    1.0975277   -7.2401456    148.44922  0.030320512  0.031067246            1 
  409000    1.0971073   -7.2533552     148.3466  0.030225469  0.031049185            2 
  410000    1.0782524   -7.1962999    149.45426  0.030376883  0.031031831            1 
  411000    1.0958529   -7.2287155    149.40997  0.030293993  0.031015118            2 
  412000    1.0830047   -7.2568105    149.49936  0.030238544  0.030998403            1 
  413000    1.0834138   -7.2635833    150.17786  0.030302232  0.030981828            1 
  414000    1.0864365   -7.2553121    150.25862  0.030245294    0.0309656            1 
  415000    1.1162724   -7.2506795    150.59778  0.030240517  0.030949559            1 
  416000    1.0817899   -7.2371519    151.04903  0.030258219  0.030933455            1 
  417000    1.0971738   -7.2382455     151.4051  0.030256814  0.030916844            2 
  418000    1.0833054   -7.2654703     151.5978  0.030222848  0.030900338            2 
  419000     1.097859   -7.2785168    151.63142  0.030157403  0.030883357            2 
  420000    1.0975847   -7.2721022    152.36853  0.030231852  0.030866354            1 
  421000    1.1024245   -7.2451284    152.40875  0.030168003  0.030849933            1 
  422000     1.108661   -7.2620106    152.44675  0.030104018  0.030833205            1 
  423000    1.0851561   -7.2592368    153.36859  0.030214458  0.030816934            1 
  424000    1.0836941   -7.3096561    153.26789  0.030123406  0.030800594            2 
  425000    1.1096547   -7.2736813    153.76062  0.030149141  0.030784418            1 
  426000    1.0882308   -7.2841575    153.62381  0.030051607  0.030767789            1 
  427000    1.0719848   -7.2683364     153.8438   0.03002416   0.03075083            1 
  428000    1.0639705   -7.2916352    153.76572  0.029938808   0.03073381            2 
  429000    1.0968934   -7.2379271     154.5897  0.030029079  0.030716738            1 
  430000      1.08394   -7.2551311    155.46809  0.030129474  0.030700236            2 
  431000    1.1071323   -7.2814445    155.42998  0.030052201  0.030684511            2 
  432000    1.0584021   -7.2518904    156.20732  0.030132585  0.030669529            2 
  433000    1.0496068   -7.2922328    156.07209   0.03003697  0.030654379            2 
  434000    1.0900192   -7.2815759    156.64833  0.030078404  0.030639583            1 
  435000    1.0933704   -7.2477876     157.2132  0.030117472  0.030625026            1 
  436000    1.0618349   -7.2537549    157.95074  0.030189362  0.030611154            2 
  437000    1.0846955   -7.2117825    158.59673  0.030243465  0.030597944            1 
  438000     1.069826   -7.2926804    158.57072  0.030169467  0.030585041            4 
  439000    1.0711635    -7.247728    158.55047    0.0300969  0.030571447            3 
  440000    1.0992282   -7.3125407      158.886  0.030092045  0.030557307            2 
  441000    1.0779613   -7.2836029    159.24628  0.030091889  0.030543076            1 
  442000    1.0724799     -7.28752    159.17876  0.030011078  0.030528503            3 
  443000    1.0794473    -7.295634    159.89823  0.030078673  0.030514329            1 
  444000    1.0829416   -7.2640133    159.91829  0.030014694  0.030499815            1 
  445000    1.0948408   -7.2661484    160.23298  0.030006176  0.030485383            2 
  446000    1.0665951   -7.2744466    160.34188  0.029959246  0.030470552            1 
  447000     1.089178   -7.2873799    160.84952   0.02998686  0.030455641            2 
  448000    1.0702558   -7.2921449    160.65509   0.02988376  0.030440984            1 
  449000    1.0800797   -7.2686207    161.71436  0.030013802  0.030426435            2 
  450000     1.089304    -7.260187    161.72752  0.029949541  0.030411531            2 
  451000    1.0574324   -7.3110446    161.72521  0.029882708  0.030396612            1 
  452000    1.0720299   -7.2697427    161.95852  0.029859609  0.030381783            2 
  453000    1.0753278   -7.2905872    162.16769  0.029832173  0.030367019            2 
  454000    1.0640166   -7.2302359    162.37332  0.029804207  0.030351877            1 
  455000     1.064277    -7.257361    163.07675  0.029867536  0.030336573            4 
  456000    1.0851612   -7.2769281    162.64616  0.029723349  0.030320275            1 
  457000    1.0719826   -7.3032073    162.88045   0.02970103  0.030303539            1 
  458000    1.0878244   -7.3242639    162.77009  0.029616101  0.030286726            1 
  459000    1.0856458   -7.3071208    163.09342   0.02961028  0.030269147            1 
  460000    1.0752149   -7.2739815     163.7129  0.029658135   0.03025202            2 
  461000    1.0482998   -7.3301159    163.57115  0.029568177  0.030234699            1 
  462000    1.0766984   -7.2503092    163.98712  0.029579206  0.030217829            1 
  463000    1.0601547   -7.2969709    163.81046  0.029483525  0.030200712            1 
  464000    1.0780692    -7.292794    164.33204  0.029513656  0.030183466            1 
  465000     1.084211   -7.2939625    165.06973  0.029582389  0.030166323            3 
  466000    1.0474097    -7.304906    164.81957  0.029474173   0.03014936            1 
  467000    1.0396251   -7.3241282    164.89942  0.029425307  0.030132058            1 
  468000    1.0746771   -7.3066818    164.97724   0.02937629  0.030114406            1 
  469000    1.0786864   -7.3302069    165.49804   0.02940619  0.030096464            2 
  470000    1.0742458   -7.3216605    165.47805  0.029340079  0.030078285            2 
  471000    1.0642436   -7.3137639    165.95816  0.029362733  0.030060231            2 
  472000     1.061922   -7.3058948     166.3563  0.029370816   0.03004271            1 
  473000    1.0697361   -7.3027013    166.91155  0.029406545  0.030025506            1 
  474000    1.0619318   -7.3364042    166.76446  0.029318647  0.030008359            1 
  475000    1.0480997   -7.3042828    167.77399  0.029434034  0.029991189            1 
  476000    1.0693069   -7.2786988    168.24284  0.029454278  0.029974434            2 
  477000    1.0672047   -7.3511281    167.71295  0.029299957   0.02995717            1 
  478000    1.0759265   -7.3234599    168.07651  0.029302041  0.029939751            2 
  479000    1.0533254   -7.3027318    168.72805  0.029354219  0.029922383            1 
  480000    1.0381304   -7.3640843    168.32131   0.02922245  0.029905106            2 
  481000    1.0720854   -7.3503788    168.92779  0.029266769   0.02988785            1 
  482000    1.0690896   -7.3223509    169.46012  0.029298084  0.029871115            1 
  483000    1.0828386   -7.2979669    169.74066  0.029285829  0.029854812            3 
  484000     1.067776   -7.3052279    170.30141  0.029321867  0.029838231            1 
  485000    1.0682979   -7.2910883    171.08967   0.02939685  0.029821847            2 
  486000    1.0668973   -7.3436206    170.42359  0.029222153  0.029805624            3 
  487000    1.0398534   -7.2974201    171.30942  0.029313728  0.029788969            2 
  488000    1.0589422   -7.3446128    171.23081  0.029240234  0.029772724            2 
  489000     1.051359   -7.3351523     171.6948   0.02925951  0.029756427            2 
  490000    1.0424609   -7.3335163    171.69331  0.029199543  0.029740481            2 
  491000    1.0597797   -7.3033338    172.66943  0.029305742  0.029724942            1 
  492000    1.0822752   -7.3365281    172.12182  0.029153425  0.029709086            2 
  493000    1.0404327   -7.3305531    172.66476  0.029186064  0.029693803            1 
  494000    1.0598314   -7.3352286    173.04537  0.029191189  0.029678577            2 
  495000    1.0548951   -7.2973433     173.7962   0.02925862  0.029663466            1 
  496000    1.0669998   -7.2965764    174.34816  0.029292366  0.029648004            1 
  497000    1.0489305   -7.3177443    174.21243  0.029210669  0.029633211            1 
  498000    1.0730518   -7.3196312    174.23051  0.029155039  0.029617557            1 
  499000    1.0487172   -7.3634522    174.42212   0.02912861  0.029601431            5 
  500000    1.0551553   -7.3321865    174.64881  0.029108135  0.029585267            1 
  501000    1.0346332   -7.3391801    174.84912  0.029083353  0.029569205            2 
  502000    1.0750038   -7.3468444    175.41097  0.029118687  0.029552893            1 
  503000    1.0525303   -7.3179559    175.62071  0.029095544  0.029536838            1 
  504000    1.0603967    -7.330109    175.63107  0.029039529  0.029521622            2 
  505000    1.0556158   -7.3578409    175.75902  0.029003138  0.029505907            3 
  506000    1.0701671   -7.3284536    176.37916  0.029047952  0.029490194            1 
  507000    1.0729726     -7.32697    176.02513  0.028932467  0.029474569            1 
  508000    1.0625101   -7.3274601    176.87466  0.029014871  0.029459028            1 
  509000    1.0370883   -7.3642768    176.86842  0.028956847  0.029443106            5 
  510000    1.0520987   -7.3582616    177.15817  0.028947413  0.029427296            1 
  511000    1.0608746   -7.2980309    178.31062  0.029078706  0.029411682            2 
  512000    1.0297042   -7.2915921     178.4363  0.029042367   0.02939626            2 
  513000    1.0303192   -7.3022273      178.017  0.028917642  0.029380658            2 
  514000    1.0451296   -7.3137562    177.88661  0.028840242  0.029364813            1 
  515000    1.0241272   -7.3162662    178.89439  0.028947312   0.02934918            3 
  516000    1.0527426   -7.3294241    178.14604  0.028770355  0.029333267            3 
  517000    1.0441356   -7.3223877    179.78244  0.028978472   0.02931805            2 
  518000    1.0671743   -7.3507183    179.30847   0.02884628  0.029302747            2 
  519000    1.0393399   -7.3679793    179.20061   0.02877338  0.029287242            1 
  520000    1.0475986   -7.3586418    179.23033  0.028722809  0.029270944            1 
  521000    1.0293933    -7.362168    179.74037  0.028749259  0.029254665            3 
  522000    1.0582707   -7.3352875    180.56206  0.028825362  0.029238228            2 
  523000    1.0518756   -7.3591412     180.3038  0.028729095  0.029222113            1 
  524000    1.0332347   -7.3406963    180.70137  0.028737496  0.029206054            3 
  525000    1.0413881   -7.3425749    180.69118  0.028681139  0.029190513            2 
  526000    1.0377816   -7.3564882     181.6524  0.028778898  0.029175055            1 
  527000    1.0398301   -7.3213652    181.53867  0.028706305  0.029159327            2 
  528000    1.0412259   -7.3150924    182.08772  0.028738592  0.029143683            1 
  529000     1.041704   -7.3482676    181.63919  0.028613609  0.029128204            4 
  530000    1.0218726   -7.3524723     181.8395  0.028591117  0.029112534            2 
  531000    1.0337125   -7.4111364     181.7441  0.028522301  0.029095937            2 
  532000    1.0362814    -7.420837    182.13059  0.028529228  0.029078793            1 
  533000    1.0476114   -7.3716298    182.42711  0.028522062  0.029061991            1 
  534000    1.0527778   -7.3329479    182.85827  0.028535935    0.0290453            3 
  535000    1.0478668   -7.3787052    182.74903  0.028465581  0.029028873            1 
  536000    1.0335207   -7.3356133    183.76994  0.028571198  0.029012408            1 
  537000    1.0225175   -7.3838571    183.96558  0.028548352   0.02899653            2 
  538000     1.050774   -7.3651077    184.25284  0.028539784  0.028980556            2 
  539000     1.025365   -7.3343525    184.15152  0.028471168  0.028964757            2 
  540000    1.0537487   -7.4148204    184.01742   0.02839775  0.028948972            3 
  541000    1.0245801   -7.3415106    184.95531  0.028489727  0.028933054            2 
  542000    1.0384116   -7.4075948    184.97847  0.028440724  0.028917037            6 
  543000    1.0616355   -7.3803117    184.98699  0.028389655  0.028900862            1 
  544000    1.0340587      -7.3565    185.59557  0.028430694  0.028884751            1 
  545000     1.031771   -7.3974765    185.60585    0.0283801  0.028868599            2 
  546000    1.0037203   -7.3684243    185.67774  0.028339093  0.028852522            3 
  547000    1.0244521   -7.3637126     187.3875  0.028547761  0.028837007            3 
  548000    1.0461611   -7.3678601    186.70837  0.028392392  0.028821798            2 
  549000    1.0255918   -7.3436344    187.63829  0.028481829  0.028806347            2 
  550000    1.0296859   -7.4202895    186.41223  0.028244277  0.028790256            2 
  551000    1.0482836   -7.3572602    187.32491   0.02833105  0.028774126            2 
  552000      1.01019   -7.4040673    187.60084  0.028321383  0.028758168            2 
  553000    1.0537477   -7.4168859     188.0995  0.028345314  0.028742071            1 
  554000    1.0399966   -7.3791995    188.18464  0.028306956  0.028726217            1 
  555000    1.0573455   -7.3586244     188.8825  0.028360735  0.028710718            2 
  556000    1.0178942   -7.4006161    188.59555  0.028266719  0.028695744            2 
  557000      1.04998   -7.3724435    189.53149  0.028355998  0.028680453            1 
  558000     1.049687   -7.3887396    188.42737  0.028140288  0.028664758            7 
  559000    1.0448085   -7.4341014    188.77066  0.028141124  0.028648384            2 
  560000    1.0261243   -7.3806181    189.56273   0.02820874  0.028632589            1 
  561000    1.0448928   -7.4198898    190.72042  0.028330425  0.028617122            2 
  562000    1.0384451   -7.3615897    190.90968  0.028308079  0.028601599            2 
  563000    1.0286087   -7.3845131    190.12697  0.028141943  0.028585995            1 
  564000    1.0331362   -7.3887929    190.55581  0.028155409   0.02857048            2 
  565000    1.0375892    -7.375238    190.79778  0.028141265  0.028554561            3 
  566000     1.027779    -7.395152     190.4978  0.028047379  0.028538374            3 
  567000    1.0150982   -7.3167225    192.32043  0.028265789  0.028522694            3 
  568000    1.0182934   -7.4203354     191.6659  0.028119997  0.028507482            2 
  569000    1.0305432   -7.3567882    192.19073  0.028147441  0.028492162            2 
  570000    1.0291064   -7.4344762    191.35379    0.0279757  0.028476432            2 
  571000    1.0290963     -7.40142    191.51752  0.027950601  0.028460003            1 
  572000    1.0048223   -7.4499337    191.52123  0.027902278  0.028443269            2 
  573000    1.0346416   -7.4209621     191.6994  0.027879494  0.028426371            1 
  574000    1.0398374    -7.411572    192.01549  0.027876813  0.028409577            1 
  575000    1.0026928    -7.390826    192.49305  0.027897543  0.028392646            1 
  576000    1.0211293   -7.4193096    192.34599  0.027827834  0.028376073            1 
  577000   0.99845557    -7.393382     193.0218  0.027877209  0.028359057            2 
  578000    1.0505221   -7.3519125    192.86028  0.027805692  0.028341899            2 
  579000    1.0259406   -7.4087697    193.41002  0.027836791  0.028325138            2 
  580000    1.0286237   -7.3880353    193.84931  0.027851913  0.028307804            2 
  581000    1.0160747     -7.41038    192.87907  0.027664812  0.028290397            1 
  582000    1.0405308   -7.4249384    192.86322  0.027615008  0.028273071            4 
  583000    1.0339232   -7.4096569    194.03814  0.027735583   0.02825565            1 
  584000    1.0178423   -7.4321894    193.58835  0.027623908  0.028237856            3 
  585000    1.0223446   -7.4017751    194.54047  0.027712317  0.028220618            2 
  586000    1.0169321   -7.3746103    194.98559  0.027728326  0.028203709            1 
  587000    1.0061653   -7.3750196    195.45377  0.027747553  0.028187281            2 
  588000     1.027942   -7.3729026    195.37932  0.027689813  0.028170759            1 
  589000    1.0230057   -7.4058757    195.62684  0.027677821  0.028153872            3 
  590000    1.0128393    -7.404535    196.09266  0.027696704  0.028136889            3 
  591000    1.0097563   -7.4162116    195.50745  0.027567322  0.028120167            3 
  592000    1.0252149   -7.4201014    195.94096  0.027581779  0.028103217            3 
  593000    1.0158924   -7.4207524    196.28223  0.027583225   0.02808614            1 
  594000   0.99963229   -7.4409779    196.43605  0.027558369  0.028069288            1 
  595000    1.0334855   -7.4262452    196.57292  0.027531221  0.028052245            2 
  596000      1.02708   -7.4219531    196.52476  0.027478295  0.028035045            6 
  597000   0.98685911   -7.4392865    197.12879  0.027516581  0.028017956            1 
  598000    1.0288628   -7.3853031    197.74973  0.027557098  0.028001075            1 
  599000    1.0076496   -7.4289563    197.42586  0.027466034  0.027984114            1 
  600000     1.000477   -7.4332406    198.06582  0.027509142  0.027967096            1 
  601000    1.0217702   -7.4222997    198.54598  0.027529947   0.02795045            2 
  602000   0.99535586   -7.4006729    198.33521   0.02745504    0.0279338            1 
  603000    1.0360847   -7.4041955    198.66432  0.027454991  0.027917171            2 
  604000    1.0297359   -7.4019441    198.83225  0.027432705  0.027900304            2 
  605000    1.0032502   -7.4227838     199.0686  0.027419917  0.027883313            2 
  606000    1.0254718   -7.4204727    199.31535  0.027408602  0.027866434            1 
  607000    1.0038391   -7.3960804    199.92658  0.027447361  0.027849337            4 
  608000    1.0083271   -7.4545972     199.6215  0.027360403  0.027832298            3 
  609000    0.9790055   -7.4259652    200.05117  0.027374271  0.027815298            7 
  610000     1.036613   -7.4497881    199.82999  0.027299179  0.027798488            4 
  611000   0.98999908   -7.4441323    200.04052  0.027283213  0.027781856            1 
  612000    1.0164694   -7.4220153    200.25366  0.027267655  0.027764673            2 
  613000    1.0164688   -7.4239852    200.51935  0.027259292  0.027747299            2 
  614000    1.0106006   -7.4340218    200.83301  0.027257465  0.027730052            3 
  615000    1.0153812    -7.440236    200.99032   0.02723446  0.027712843            1 
  616000    1.0056653   -7.4109119    201.64863  0.027279306  0.027695644            2 
  617000    1.0145014   -7.4316544    201.43249  0.027205901   0.02767835            1 
  618000    1.0034613   -7.4116571    201.75866   0.02720586  0.027661041            3 
  619000    1.0159877   -7.4624864    201.49432  0.027126322  0.027643699            2 
  620000   0.99950645    -7.430645    202.10537    0.0271647  0.027626346            2 
  621000    1.0156205   -7.4432353    202.32035  0.027149805  0.027609475            1 
  622000    1.0015089   -7.4355184    202.49866  0.027130045  0.027592343            1 
  623000    1.0172633   -7.4366653    202.70155  0.027113637  0.027574895            1 
  624000   0.98418384   -7.4314522    203.28851  0.027148573  0.027557371            2 
  625000   0.99699686    -7.434629    202.86612  0.027048816  0.027539863            1 
  626000    1.0154229   -7.4386838      203.292  0.027062301  0.027522349            3 
  627000   0.99440585   -7.4700477    203.06615  0.026989121  0.027504942            2 
  628000    0.9857106   -7.4460012    203.57867  0.027014154   0.02748754            1 
  629000    1.0206502   -7.4277351    203.71235  0.026988917  0.027470308            1 
  630000    1.0040198   -7.4622522    204.04115   0.02698957  0.027453191            1 
  631000   0.99933056   -7.4389155    204.27216  0.026977306  0.027435926            3 
  632000   0.98864862    -7.483742    204.21167  0.026926644  0.027418675            1 
  633000   0.97539869   -7.4539908    204.81838  0.026963979  0.027401161            4 
  634000       1.0067   -7.4817982    204.18765  0.026838545  0.027383919            2 
  635000    1.0008778   -7.4601766     205.1512   0.02692273  0.027366645            2 
  636000    1.0220462   -7.4909079    205.36814  0.026908823  0.027349757            2 
  637000    1.0205417   -7.4421091    205.75281  0.026916904  0.027332487            1 
  638000   0.99984389   -7.4238283    205.83261  0.026885137    0.0273156            2 
  639000   0.99043163   -7.4426673    206.26701  0.026899715  0.027298653            2 
  640000   0.98340456   -7.4310386    206.57622  0.026897946  0.027281491            2 
  641000   0.99662356   -7.4582552     206.0745  0.026790757   0.02726476            4 
  642000   0.97456091   -7.4552384    206.79449  0.026842483  0.027248454            1 
  643000    0.9751133   -7.4639955    206.38622  0.026747826  0.027231753            6 
  644000   0.97368167   -7.4561288    206.89904   0.02677265  0.027214691            1 
  645000   0.99968549   -7.4719652    206.71459  0.026707312  0.027197545            1 
  646000    1.0200161   -7.4811378    206.87003   0.02668602  0.027179938            1 
  647000   0.98437533    -7.502863    207.20712  0.026688192  0.027162468            1 
  648000   0.97473579   -7.4782028    207.14584  0.026639125  0.027145082            2 
  649000    0.9858915   -7.4539079    207.74321  0.026674783  0.027127771            3 
  650000   0.98921723   -7.4553698    207.62146  0.026618135  0.027110473            4 
  651000    1.0044737   -7.4702182    208.32333  0.026667093  0.027093322            4 
  652000   0.99979314   -7.5220523    207.83717  0.026564056  0.027075651            1 
  653000   0.99586578    -7.464298    208.96805  0.026667694  0.027058136            1 
  654000   0.99826651   -7.5054225    208.50248  0.026567595  0.027040855            2 
  655000   0.99433526   -7.5008645    208.46731  0.026522558  0.027023372            2 
  656000   0.98577957    -7.452721    209.29673   0.02658749  0.027006295            4 
  657000    1.0004616   -7.4702532    210.29835  0.026674068  0.026989515            1 
  658000   0.99937507   -7.4337625    210.15815  0.026615774  0.026972773            3 
  659000   0.97252665   -7.4769494    209.47844  0.026489433  0.026955913            2 
  660000   0.99093123   -7.5037841    209.87767  0.026499706  0.026938991            2 
  661000   0.97925327   -7.5099198    210.09997  0.026487642   0.02692195            3 
  662000   0.97711903   -7.4939159    210.41441  0.026487212  0.026905103            1 
  663000   0.98474311   -7.4807626    210.23052  0.026424148  0.026888082            1 
  664000     1.006751   -7.5090657    210.98186  0.026478647  0.026870941            1 
  665000   0.99574568   -7.4604374    210.88406  0.026426574  0.026854162            2 
  666000    1.0056916   -7.4754048    210.93887  0.026393752  0.026836884            1 
  667000   0.99298384   -7.4610865    211.24886  0.026392911  0.026820129            1 
  668000   0.98693765   -7.5020908      211.621  0.026399825  0.026802988            2 
  669000   0.98443089   -7.5065572    211.79606  0.026382169  0.026785976            2 
  670000   0.99211099   -7.4956161    212.52995  0.026434074  0.026768945            2 
  671000   0.99450017   -7.4965735    212.50881  0.026392053   0.02675183            1 
  672000   0.99871236   -7.5079988    212.37733  0.026336475  0.026734797            1 
  673000   0.99218201   -7.5040477    211.71884  0.026215805   0.02671745            2 
  674000   0.99888919   -7.5047083    213.10786  0.026348648  0.026700466            2 
  675000   0.97774765   -7.4961365    212.45788  0.026229368  0.026683337            2 
  676000   0.97925789    -7.483854    212.39096  0.026182317  0.026666058            1 
  677000   0.99778508    -7.506793    212.89298  0.026205438  0.026648986            2 
  678000   0.97833452    -7.483874    213.69996  0.026265973  0.026632053            1 
  679000   0.98128159     -7.47675    213.10827  0.026154673  0.026615044            1 
  680000   0.98330999   -7.4911585    213.00158  0.026103135  0.026597718            1 
  681000   0.97750284    -7.468487    213.67463  0.026147164  0.026580428            2 
  682000   0.99260546   -7.5163862     214.3155  0.026187134  0.026563184            1 
  683000   0.98950908   -7.4938513    213.50555   0.02604997  0.026545912            1 
  684000   0.99210753   -7.4633042    214.32699  0.026111963  0.026528181            3 
  685000   0.99606044   -7.5228512    214.32071   0.02607308   0.02651054            1 
  686000   0.97161777   -7.5113308    214.44925  0.026050687  0.026493195            1 
  687000    1.0057603   -7.5295522    214.40171  0.026007001  0.026475831            2 
  688000   0.98378806      -7.4826    215.33364  0.026082079  0.026458508            2 
  689000   0.96313139   -7.4857404    215.45042  0.026058348  0.026441656            3 
  690000   0.98162916   -7.5093072    215.23839  0.025994975  0.026424692            3 
  691000   0.98028943   -7.5224269    215.85674  0.026031928  0.026407514            1 
  692000   0.99307383   -7.5130025    216.46158  0.026067147  0.026390516            2 
  693000    0.9755375   -7.5131996    216.18534  0.025996313  0.026373288            2 
  694000   0.98111846   -7.5234911    215.97544   0.02593365  0.026356386            3 
  695000   0.98916706    -7.491666    216.45666  0.025954036  0.026339246            2 
  696000   0.96799649   -7.5413567    215.84852  0.025843932  0.026321995            1 
  697000   0.99715934   -7.5436777    216.38796  0.025871349  0.026304649            3 
  698000   0.96732541   -7.4675562    217.83441  0.026006974  0.026287498            3 
  699000   0.97914841   -7.5280591     216.4338  0.025802789  0.026270532            2 
  700000    0.9638247   -7.5229811    216.93577  0.025825687  0.026253034            4 
  701000   0.98491125    -7.548148    217.06271  0.025803936   0.02623553            2 
  702000   0.97158584   -7.4933731     217.3936  0.025806458  0.026217874            2 
  703000   0.97552329   -7.4864669    217.41431  0.025772203  0.026200657            2 
  704000    0.9577488   -7.4842681    217.88871  0.025791751  0.026183365            2 
  705000   0.97009653   -7.4883951    217.84072  0.025749494   0.02616605            1 
  706000    0.9561412   -7.4735159    218.67432  0.025811416  0.026148958            1 
  707000   0.97276985   -7.5286422    218.34667  0.025736288  0.026132082            3 
  708000   0.99091203    -7.552706    218.50258  0.025718289  0.026114813            3 
  709000    0.9628979   -7.5554868    218.47371  0.025678621  0.026097613            2 
  710000   0.96522742   -7.5380877    218.53882  0.025650096  0.026080412            2 
  711000   0.97717335   -7.5093528    219.07958    0.0256774  0.026063264            3 
  712000    0.9568083   -7.4925956    219.74557  0.025719285  0.026046054            1 
  713000   0.96926249   -7.5202982    219.04343  0.025601149  0.026028728            4 
  714000   0.96711837   -7.5065611    220.09335  0.025687833  0.026011724            1 
  715000   0.95973639   -7.5086047     219.9178  0.025631446  0.025994617            2 
  716000   0.95349493   -7.5478234    219.35877  0.025530583   0.02597711            2 
  717000   0.95923233    -7.514577    219.48885  0.025510094  0.025959526            1 
  718000   0.97573663   -7.5516844    219.92732  0.025525455  0.025941846            2 
  719000   0.97526387   -7.5243943    219.83637  0.025479412  0.025924256            3 
  720000   0.97890609    -7.525495    219.68779  0.025426827  0.025906748            2 
  721000   0.95787398   -7.5329757    220.35872  0.025469108  0.025889178            1 
  722000   0.94707804   -7.5284137    220.45317  0.025444733   0.02587152            1 
  723000   0.95190291   -7.5548318     220.6681  0.025434313  0.025853644            3 
  724000   0.95145738   -7.5470344    220.99643  0.025436974    0.0258359            2 
  725000   0.95777306   -7.5670554    220.68329  0.025365895   0.02581841            3 
  726000   0.94938607   -7.5363974    221.15052  0.025384587  0.025800914            6 
  727000   0.97210174   -7.5361038    221.54342  0.025394707  0.025783477            2 
  728000   0.95934114   -7.5451863    221.61721  0.025368271  0.025765845            2 
  729000   0.96868896   -7.5628102     221.6991  0.025342833  0.025748458            3 
  730000   0.97321554   -7.5288114    222.42692  0.025391201  0.025731362            1 
  731000    0.9783008   -7.5513398    222.29461  0.025341383  0.025714106            3 
  732000   0.96592227   -7.5574533    222.23716  0.025300223  0.025696715            2 
  733000   0.95860855   -7.5685259    222.48067  0.025293391  0.025679331            3 
  734000   0.96721402   -7.5116014    222.28112  0.025236277  0.025661916            2 
  735000   0.97199184    -7.561972    222.83041  0.025264218  0.025644216            2 
  736000   0.96069682   -7.5476503    223.54265  0.025310536   0.02562708            1 
  737000   0.95489027   -7.5641039    222.62699  0.025172659  0.025609908            1 
  738000   0.96369906   -7.5432348    222.74343  0.025151697  0.025592447       -1e+20 
  739000   0.96961285   -7.5712096    223.83042  0.025240237  0.025575003            1 
  740000   0.96661152   -7.5366927    223.71342  0.025192952   0.02555785            2 
  741000   0.93059709   -7.5598112    223.66296  0.025153279  0.025540707            2 
  742000   0.98241632   -7.5505496    224.12599  0.025171382    0.0255235            1 
  743000   0.95036577   -7.5525845    224.49068  0.025178407  0.025506306            1 
  744000   0.95382752   -7.5362082    224.40271  0.025134712  0.025489161            2 
  745000   0.94232235   -7.5668548    224.48769  0.025110479  0.025471984            3 
  746000   0.95025781   -7.5498168    225.01193  0.025135381  0.025454891            1 
  747000   0.95999085   -7.5708485    225.17446  0.025119864  0.025437656            4 
  748000   0.95206518   -7.5726723    224.81736  0.025046497  0.025420381            1 
  749000   0.94481858   -7.5426372     225.3011  0.025066878  0.025403145            2 
  750000   0.96073628   -7.5622428    225.35755  0.025039727  0.025386175            2 
  751000   0.95644767   -7.5980157    224.96655     0.024963  0.025368897            2 
  752000   0.95100508   -7.5745304    225.30023   0.02496678  0.025351695            2 
  753000   0.97083483     -7.56328    225.83111  0.024992376  0.025334479            2 
  754000   0.95722088   -7.6029024    225.65066  0.024939286  0.025317092            2 
  755000   0.92743134   -7.5798128    225.97026  0.024941529  0.025299766            1 
  756000   0.95682609   -7.5701862    226.04301  0.024916557  0.025282565            2 
  757000   0.95501289   -7.5982472    226.33376  0.024915649  0.025265252            1 
  758000   0.95668029   -7.5851548    226.79805  0.024933823  0.025248065            2 
  759000   0.97497539   -7.5813383     227.1749  0.024942348  0.025231165            1 
  760000   0.93203908   -7.5888487    226.57824  0.024844105  0.025214279            1 
  761000   0.95408835   -7.5676524    227.61413  0.024924893  0.025197272            1 
  762000   0.94726984   -7.5284597    227.55386  0.024885593   0.02518022            2 
  763000   0.93481305   -7.5910741    227.78414  0.024878128  0.025163271            2 
  764000   0.93050831   -7.5903173    227.64475  0.024830361  0.025146092            2 
  765000   0.96099896   -7.5761746    227.95766   0.02483199  0.025128965            2 
  766000   0.94066858   -7.5639936    228.17959  0.024823716  0.025112029            2 
  767000   0.96535733    -7.586748    227.78345  0.024748311  0.025095139            2 
  768000   0.94369247   -7.5852832    228.43225  0.024786485  0.025078277            2 
  769000   0.95618356   -7.5695084    228.99547  0.024815287  0.025061341            2 
  770000   0.95354015   -7.5763403    228.49269  0.024728646  0.025044341            4 
  771000    0.9600259   -7.5875231    228.94607  0.024745576  0.025027361            2 
  772000   0.94029686    -7.601281    228.92927  0.024711708  0.025010325            1 
  773000   0.93882456   -7.5743008      229.768  0.024770159  0.024993457            2 
  774000   0.93901377   -7.5827578    228.72111  0.024625442  0.024976762            2 
  775000   0.94885068   -7.5944374    229.45005  0.024672048  0.024960165            1 
  776000   0.94910896   -7.5906452    229.90273  0.024688867  0.024943424            2 
  777000   0.94377246   -7.5698854    229.89536  0.024656302  0.024926787            1 
  778000    0.9296311   -7.5692672    230.42769  0.024681629   0.02491039            3 
  779000   0.94126469   -7.5473461    230.21844  0.024627561  0.024893812            2 
  780000   0.94688734   -7.5662311      230.236  0.024597863  0.024877415            4 
  781000   0.92698965    -7.609654    230.00621  0.024541849    0.0248609            2 
  782000    0.9318038   -7.5758427    231.01852  0.024618342  0.024844517            1 
  783000   0.96173112   -7.5781051    230.76111  0.024559505  0.024828106            3 
  784000   0.94948617   -7.5657279    230.72522  0.024524365  0.024811628            2 
  785000   0.94512989   -7.5795459    230.97185  0.024519305  0.024795228            2 
  786000   0.93867162    -7.584756    231.41326  0.024534909  0.024778817            1 
  787000    0.9488443   -7.6109085    231.10683  0.024471287  0.024762255            1 
  788000    0.9578791   -7.5949027    231.74985  0.024508232  0.024745866            2 
  789000   0.91467208   -7.5980479    231.67047  0.024468786  0.024729277            2 
  790000   0.92560372   -7.6159347    231.66373  0.024437102  0.024712571            4 
  791000   0.93999037   -7.6292882    232.08976  0.024451092  0.024695805            2 
  792000   0.92652162   -7.6295345    232.20131  0.024431956  0.024679253            1 
  793000   0.94054319   -7.6061574    232.23941   0.02440515  0.024662783            1 
  794000   0.92859596   -7.5742563    232.87068  0.024440668  0.024646479            1 
  795000   0.91300177   -7.6025053    233.00554  0.024424061  0.024630291            1 
  796000   0.92805331   -7.5750833    234.03374  0.024501019  0.024614205            3 
  797000   0.93917122   -7.5958462    232.86764  0.024348353  0.024598076            2 
  798000   0.93106446    -7.593586    234.14646  0.024451385  0.024581773            1 
  799000   0.94741154   -7.6008776    233.33569  0.024336222  0.024565232            3 
  800000   0.93278116   -7.6081406    233.25328  0.024297217  0.024548531            2 
  801000   0.95021028   -7.5994924    233.21057   0.02426244  0.024532249            2 
  802000   0.92799103   -7.6361517     233.5985  0.024272496  0.024515807            1 
  803000   0.93971174   -7.5877458    234.09169  0.024293451  0.024499352            2 
  804000   0.93287378   -7.5759224    234.83228  0.024339996  0.024482803            5 
  805000    0.9120208   -7.6228556    233.94921  0.024218345  0.024466416            2 
  806000   0.93589621   -7.5849918    234.28744  0.024223267  0.024450021            4 
  807000   0.93136688   -7.6043974    234.13259   0.02417726  0.024433714            3 
  808000   0.93027837   -7.6469415    234.28619   0.02416318  0.024417207            2 
  809000   0.93255178   -7.6371367    235.23237  0.024230776  0.024400461            3 
  810000   0.89786382   -7.6516364    234.91086  0.024167784  0.024383921            1 
  811000   0.95011732   -7.6058714    235.47695  0.024196152  0.024367352            3 
  812000   0.94017454   -7.6054991    235.81599  0.024201149  0.024351134            3 
  813000   0.95171765   -7.5938782    236.06803  0.024197215  0.024335191            1 
  814000    0.9621448   -7.6050896    235.93376  0.024153743  0.024319179            2 
  815000   0.90632924   -7.6045183    236.71095  0.024203574   0.02430315            2 
  816000   0.92311505   -7.6132237     236.4527  0.024147538  0.024287091            1 
  817000    0.9334928   -7.6207704    236.57274  0.024130227  0.024271133            2 
  818000   0.91292276   -7.5851344    236.32079   0.02407506  0.024255255            2 
  819000   0.93936365   -7.6198965    236.12696  0.024025942  0.024239283            3 
  820000   0.91835181   -7.6411721    236.08867  0.023992751  0.024223029            2 
  821000   0.92880481   -7.6193089    236.01722  0.023956275  0.024206597            1 
  822000   0.93140707   -7.6266926    236.20305   0.02394597  0.024190297            3 
  823000   0.91170056   -7.6123114    236.64112  0.023961231  0.024174053            2 
  824000   0.91778973   -7.6163877    237.02784  0.023971262  0.024157964            1 
  825000   0.93296668   -7.6196766    237.11496  0.023951006  0.024141678            1 
  826000   0.95148699   -7.6309284     237.1279  0.023923316  0.024125373            4 
  827000   0.91942515   -7.6334068    237.14868  0.023896481  0.024109087            3 
  828000   0.90953487   -7.6444367    237.42582  0.023895513  0.024092699            2 
  829000   0.92247299   -7.6525981    237.32707  0.023856762  0.024076287            2 
  830000     0.903689   -7.6667542    237.27838  0.023823131  0.024059717            1 
  831000    0.9228982   -7.6239371    238.27299  0.023894202  0.024043313            3 
  832000   0.92113916   -7.6328179    238.48917  0.023887136  0.024027238            2 
  833000   0.91366532   -7.6351521    237.89495  0.023799015  0.024010947            1 
  834000    0.9290284   -7.6238778    238.19109  0.023800069  0.023994504            3 
  835000   0.92643457   -7.6189289    238.15854  0.023768317  0.023977963            2 
  836000   0.91810298   -7.6559095    238.32412  0.023756392  0.023961406            1 
  837000   0.90242323   -7.6290208    238.83029  0.023778404  0.023944891            2 
  838000   0.92049485   -7.6563194    238.12075   0.02367947  0.023928374            2 
  839000   0.91637937   -7.6589819    238.89126  0.023727777  0.023911795            2 
  840000   0.92270535   -7.6704592    238.58993  0.023669636  0.023895408            2 
  841000   0.90280234   -7.6743394    238.27821  0.023610603  0.023878873            2 
  842000   0.91836296   -7.6492671    238.77531  0.023631761  0.023862395            2 
  843000   0.91676753   -7.6828411    239.44391  0.023669821  0.023845998            4 
  844000   0.93424449   -7.6244041    239.91621  0.023688409  0.023829718            3 
  845000   0.92232662   -7.6696196     239.1055  0.023580424  0.023813494            2 
  846000   0.90789428   -7.6318132    239.74918  0.023615956  0.023797655            4 
  847000   0.90213052   -7.6340621    239.91401  0.023604291  0.023781808            3 
  848000   0.88356592   -7.6356063    240.73163  0.023656803  0.023765781            4 
  849000   0.91711845   -7.6578547    240.20269  0.023577021  0.023749859            2 
  850000   0.91005318   -7.6676073    240.95926  0.023623457  0.023733959            2 
  851000   0.91301035    -7.651596    240.59596  0.023560122  0.023718278            1 
  852000   0.91161914    -7.623504     241.7638  0.023646694   0.02370266            4 
  853000   0.92732502   -7.6406033    241.65317  0.023608165  0.023687326            2 
  854000   0.91720101   -7.6783463    241.32358  0.023548359  0.023671625            3 
  855000   0.91551339   -7.6762027    241.17409  0.023506247  0.023655798            1 
  856000   0.90961679   -7.6596369    241.53052  0.023513485  0.023639674            2 
  857000    0.8938742   -7.6401948    241.17216  0.023451202  0.023623634            2 
  858000   0.90252361   -7.7071383    241.29574  0.023435872  0.023607327            1 
  859000   0.88931761   -7.6493251    241.20572  0.023399856  0.023591179            2 
  860000   0.92140923   -7.6604698    241.73194  0.023423637  0.023574945            4 
  861000    0.9204992   -7.6789252    241.43968  0.023368145  0.023558678            3 
  862000   0.91291758   -7.6872339    241.20026   0.02331789  0.023542317            1 
  863000   0.90361787   -7.6702122    241.51154  0.023320929  0.023525975            4 
  864000   0.88817765   -7.6546086     241.8972  0.023331135  0.023509775            1 
  865000   0.90069018    -7.700916    241.56977  0.023272618  0.023493457            2 
  866000    0.9199056    -7.668642    243.09228  0.023392252  0.023477191            2 
  867000   0.90856338    -7.691354    242.76662   0.02333397  0.023461227            1 
  868000   0.89122035    -7.695273    242.78067  0.023308436  0.023445172            2 
  869000   0.89814545   -7.6680197    243.54392  0.023354806  0.023429254            3 
  870000   0.91169568   -7.6681062    242.94493  0.023270588  0.023413336            5 
  871000    0.9070203    -7.652069    243.41357  0.023288707  0.023397318            2 
  872000   0.90124489   -7.6721733    243.84609  0.023303334    0.0233814            3 
  873000   0.91668752   -7.6821153    243.84086  0.023276142  0.023365655            2 
  874000   0.89914611   -7.6904996    243.09113  0.023178025  0.023349803            1 
  875000   0.92484146   -7.6694543    244.46976  0.023282834   0.02333384            2 
  876000   0.89680545    -7.729531     243.6431  0.023177616  0.023317927            2 
  877000   0.88077449   -7.6590067    243.94264  0.023179651  0.023301943            4 
  878000   0.91227692   -7.6637737    244.04094   0.02316258  0.023285979            2 
  879000   0.91483595   -7.7096194    244.60073  0.023189299  0.023270006            2 
  880000    0.9040035   -7.6763169     245.1145  0.023211601  0.023254172            1 
  881000   0.90228888   -7.6858595     244.9956  0.023174007  0.023238403            1 
  882000   0.91081535   -7.6702836    244.64751  0.023114844  0.023222554            1 
  883000   0.90536266   -7.6676785     245.3089  0.023151085  0.023206907            3 
  884000   0.89994313   -7.6799913    245.47026  0.023140107  0.023191313            2 
  885000   0.89098428   -7.7047739    245.30519  0.023098417  0.023175637            6 
  886000   0.89766007   -7.6860609    244.98873  0.023042582  0.023159855            1 
  887000   0.91184329   -7.6781482    245.39818  0.023055071  0.023144043            1 
  888000   0.90923901   -7.7533263    244.90828  0.022983134  0.023128102            2 
  889000   0.90108836   -7.6814225    244.96738  0.022962822  0.023112078            5 
  890000   0.89932514   -7.7348605    245.01149  0.022941151  0.023096115            1 
  891000   0.86923442   -7.7073614    245.60041  0.022970483  0.023080132            2 
  892000    0.8823509   -7.6951074      245.663   0.02295058  0.023064348            3 
  893000   0.88964652   -7.6596815    245.76914  0.022934784  0.023048526            3 
  894000   0.90705693    -7.692491    246.38985  0.022966988  0.023032739            1 
  895000    0.8843823   -7.7148808    245.39413  0.022848616  0.023016834            5 
  896000   0.91457226     -7.70022    245.99829  0.022879306  0.023000974            2 
  897000   0.89362899    -7.698964    246.21433  0.022873869  0.022985045            2 
  898000   0.88677286   -7.6815765    246.53343  0.022878009  0.022969113            1 
  899000   0.89784723   -7.6890234    246.64728  0.022863114  0.022953375            2 
  900000   0.89260857   -7.7031168    245.99461  0.022777279  0.022937479            6 
  901000   0.89805174   -7.7337396    246.39845   0.02278935  0.022921447            2 
  902000   0.89444339   -7.6821804    247.04428  0.022823751  0.022905629            5 
  903000   0.90012247   -7.6928426    246.70837  0.022767476  0.022889804            2 
  904000   0.88243014   -7.6595427    247.18198  0.022785949  0.022874052            1 
  905000    0.8843377   -7.7174887    247.19199  0.022761694  0.022858326            2 
  906000    0.8886256   -7.6954719    247.36082  0.022752099  0.022842431            2 
  907000    0.9094847   -7.7396146    246.89568  0.022684278  0.022826481            2 
  908000   0.91441431   -7.7281329    247.36336  0.022702217  0.022810588            3 
  909000   0.90492666   -7.7165507     248.1765  0.022751787  0.022794811            2 
  910000   0.88722427   -7.7117068    248.66123  0.022771175  0.022779092            2 
  911000   0.88079502   -7.7147999     247.4275  0.022633324  0.022763138            4 
  912000   0.89461133   -7.7377731    247.18631  0.022586468  0.022747122            2 
  913000   0.89286227   -7.7275167    247.34083  0.022575833  0.022731168            2 
  914000   0.90525757   -7.7292761    248.17702  0.022627372   0.02271531            4 
  915000   0.89326436   -7.6944997    248.54123  0.022635813  0.022699503            3 
  916000   0.89438316   -7.7212651    247.97922  0.022559973  0.022683637            2 
  917000   0.89152544   -7.6835059    248.84058  0.022613647  0.022668018            1 
  918000   0.88478885   -7.7481267    248.70673  0.022576864  0.022652325            2 
  919000   0.89847397   -7.7317586    249.37016  0.022612455  0.022636628            2 
  920000    0.8804216   -7.7650072    248.34919  0.022495398  0.022620709            1 
  921000   0.90006461   -7.7547657    249.12043  0.022540756  0.022604784            2 
  922000   0.89386262   -7.7337559    249.32862  0.022535125  0.022588986            1 
  923000   0.88881215   -7.7442285    248.96647  0.022478013  0.022573267            2 
  924000   0.87874234   -7.7427605    249.61115  0.022511828  0.022557455            1 
  925000   0.89145651   -7.7601858    249.13892  0.022444948  0.022541516            3 
  926000   0.88193857   -7.7391033    248.92841  0.022401765  0.022525667            4 
  927000   0.88250017   -7.7441724    248.72788  0.022359572  0.022509884            2 
  928000   0.88960472   -7.7465667    248.72187  0.022334938  0.022493903            4 
  929000   0.90007517   -7.7740358     249.0971  0.022344555  0.022478052            3 
  930000   0.86113965   -7.7461045    249.17416  0.022327434  0.022462111            2 
  931000   0.90622305   -7.7654234    249.60484  0.022342001  0.022446425            2 
  932000    0.9054138   -7.7202428    249.77707  0.022333429  0.022430648            2 
  933000   0.85663924    -7.738982    249.79817  0.022311376  0.022414831            7 
  934000   0.87935535   -7.7302155    249.68839  0.022277694  0.022399151            1 
  935000   0.89833009   -7.7425655    250.71067   0.02234498  0.022383289            5 
  936000   0.91404173   -7.7801701    250.56857  0.022308455  0.022367464            2 
  937000   0.84551218   -7.7446785    250.34747  0.022264983  0.022351694            2 
  938000   0.88645589   -7.7810158    250.40705   0.02224654  0.022335895            2 
  939000   0.89277343   -7.7671002     250.5334  0.022234061   0.02232011            1 
  940000   0.87043961   -7.7633867    250.55954  0.022212725  0.022304407            3 
  941000   0.88683822   -7.7273382    251.44529  0.022267561  0.022288574            1 
  942000   0.86996189   -7.7861996    250.33165  0.022145404  0.022272717            3 
  943000   0.90006287   -7.7430328    250.56826   0.02214283  0.022256842            2 
  944000   0.89753432   -7.7376661    250.93533  0.022151777  0.022240865            2 
  945000   0.89407453   -7.7540883    250.45642  0.022086104  0.022224881            1 
  946000   0.87708995   -7.7513206    250.47271  0.022064192  0.022208688            4 
  947000   0.88005171   -7.7656314    250.23762  0.022020206  0.022192456            3 
  948000   0.87883854   -7.7538277    251.08037  0.022071059  0.022176421            2 
  949000   0.87572569   -7.7361954    251.06043  0.022046051  0.022160447            1 
  950000   0.87183765   -7.7553263    250.66863  0.021988476  0.022144468            1 
  951000   0.87351952   -7.7793522    250.90303  0.021985894  0.022128408            1 
  952000   0.86793157   -7.7726278    250.75729  0.021950042  0.022112131            4 
  953000   0.87201031   -7.7635971    250.57101  0.021910721  0.022095861            1 
  954000   0.89285476   -7.7881491    251.25269    0.0219473  0.022079568            4 
  955000   0.87208944   -7.8034818    251.38033  0.021935456  0.022063311            1 
  956000    0.8731638   -7.7596918    251.69277  0.021939746  0.022047126            3 
  957000   0.86219435   -7.7714232    251.12892  0.021867722  0.022030818            2 
  958000   0.86828994   -7.7744997    251.12241   0.02184433  0.022014549            3 
  959000    0.8787846   -7.7980829    251.26413  0.021833866  0.021998083            2 
  960000   0.88541127   -7.7815454    250.56159  0.021750138  0.021981671            1 
  961000   0.87759068   -7.7467587    251.87326  0.021841247  0.021965274            2 
  962000   0.87660524   -7.7451262    251.49155  0.021785477  0.021949019            2 
  963000   0.86288974   -7.7638093    251.96414   0.02180375  0.021932888            2 
  964000   0.89842311   -7.7914296    251.73665  0.021761467  0.021916629            3 
  965000   0.87372365   -7.7910477    250.91777  0.021668201  0.021900374            3 
  966000    0.8650319   -7.7836566    252.22395   0.02175845  0.021884075            3 
  967000   0.87526423   -7.7986748    251.83374  0.021702322  0.021867771            2 
  968000   0.87302026   -7.7974947     252.1176  0.021704339  0.021851306            1 
  969000   0.86143827   -7.7571222     252.4465  0.021710225  0.021834919            3 
  970000   0.86607992   -7.7426482    252.02855  0.021651937  0.021818632            4 
  971000   0.85715468   -7.7826329    251.46684  0.021581431   0.02180211            3 
  972000   0.86791592   -7.7558886    252.48826  0.021646799  0.021785629            2 
  973000   0.86355824   -7.8054528    251.88201  0.021572629  0.021769146            2 
  974000   0.88469108   -7.7829337    252.30648  0.021586797  0.021752585            2 
  975000   0.86230431    -7.782138    251.99617  0.021538134  0.021736111            3 
  976000   0.85134809   -7.8003434     251.9881  0.021515378   0.02171964            4 
  977000    0.8642357   -7.7508707    252.45345  0.021533048  0.021703264            2 
  978000   0.86908247   -7.7500034    252.22972  0.021491967  0.021686897            5 
  979000   0.88225177   -7.7910365    252.04347   0.02145416  0.021670385            4 
  980000   0.85593066   -7.7999455    252.19613  0.021445249  0.021653841            2 
  981000   0.85464638   -7.7787223    253.09461  0.021499712   0.02163733            1 
  982000   0.84938319   -7.8215291    252.60335  0.021436129  0.021620793            2 
  983000   0.85295012   -7.7680277    252.63919  0.021417361   0.02160429            1 
  984000   0.85347426   -7.7955629     252.6713  0.021398315  0.021587773            2 
  985000   0.85335164   -7.8221989    252.64211  0.021374121  0.021571055            1 
  986000   0.86558564   -7.7808048    252.85263  0.021370236  0.021554469            2 
  987000   0.86781379   -7.8036077    252.68023  0.021334028  0.021537734            2 
  988000   0.87520375   -7.7904285    253.23087  0.021358879  0.021521165            4 
  989000   0.83772997   -7.8169168     252.4055  0.021267736   0.02150456            2 
  990000   0.85519617   -7.7952868    253.03764  0.021299465  0.021487934            1 
  991000   0.87692598   -7.7920225     253.1229  0.021285142  0.021471316            2 
  992000   0.86136863    -7.801745    253.38644  0.021285824  0.021454692            3 
  993000    0.8723983   -7.7778467    253.44433  0.021269246   0.02143823            2 
  994000   0.85194446   -7.8158137    253.35221  0.021240125  0.021421761            2 
  995000   0.86441151   -7.8040925    253.40568  0.021223257  0.021405182            2 
  996000   0.86581488   -7.8467669    252.76237  0.021148123  0.021388651            3 
  997000   0.87581977   -7.8118344    253.06993  0.021152619  0.021372088            2 
  998000   0.84001879   -7.7951801    253.48354   0.02116596  0.021355556            4 
  999000   0.85123347   -7.7927202    253.91108  0.021180437  0.021339089            1 
 1000000    0.8461791   -7.8241264    253.07544   0.02108962  0.021322606            2 
 1001000   0.84709752   -7.7976636    254.04418  0.021149199   0.02130604            2 
 1002000   0.84380453   -7.8583216    252.92973  0.021035407  0.021289305            3 
 1003000   0.85775731   -7.8249387    253.89986  0.021095036  0.021272578            3 
 1004000   0.84292973   -7.8298963    253.96611  0.021079525  0.021255818            2 
 1005000   0.86126767   -7.8344795    253.28913  0.021002415    0.0212391            2 
 1006000   0.86296308   -7.8019997    254.60749  0.021090746  0.021222403            3 
 1007000   0.87194744   -7.8199927    254.11214   0.02102881  0.021205842            1 
 1008000   0.84273346   -7.8289589    254.07596  0.021004957  0.021189264            2 
 1009000    0.8549811   -7.8001653    254.18027  0.020992754  0.021172704            2 
 1010000   0.84297937   -7.8232855    254.12892  0.020967733  0.021156126            3 
 1011000   0.85980259   -7.8046939    254.59643  0.020985529  0.021139598            3 
 1012000   0.86495745    -7.838266    253.92936  0.020909862  0.021123104            2 
 1013000   0.83485592   -7.8008301    254.72565  0.020954726  0.021106691            1 
 1014000   0.85026683   -7.8272904    254.42612  0.020909445  0.021090381            1 
 1015000   0.84730396   -7.8452266    255.66679  0.020990705  0.021073985            2 
 1016000   0.84228876   -7.8115456    254.93329  0.020909882  0.021057704            1 
 1017000   0.86139359   -7.8441782    254.99821  0.020894642  0.021041449            4 
 1018000   0.84777305   -7.8270344    254.86591  0.020863287   0.02102516            2 
 1019000   0.86042084   -7.8153942    255.09677  0.020861692  0.021008916            2 
 1020000   0.83934654   -7.8325217    255.25794  0.020854407  0.020992513            1 
 1021000   0.84285111   -7.8431655    254.44659  0.020767759  0.020976068            1 
 1022000   0.84710562   -7.8123064     255.3238  0.020818966  0.020959684            3 
 1023000   0.85223508   -7.8282731    255.31338  0.020797766  0.020943327            3 
 1024000   0.84508496   -7.8621601    255.77084  0.020814684  0.020926947            2 
 1025000   0.85060124   -7.8320129    255.64989  0.020784544  0.020910523            1 
 1026000   0.84556802   -7.8546542    255.62766  0.020762481  0.020894226            4 
 1027000   0.85216135   -7.8239041    255.82014  0.020757883  0.020878005            2 
 1028000   0.83223427   -7.8294874    255.34036  0.020698797  0.020861725            7 
 1029000   0.84018554   -7.8410728    255.67467  0.020705755  0.020845446            2 
 1030000   0.85517746   -7.8388014    256.10625   0.02072057  0.020829132            2 
 1031000   0.83300708   -7.8176576    256.07381  0.020697851  0.020812852            2 
 1032000   0.85602334   -7.8137224    256.04072  0.020675123  0.020796533            3 
 1033000    0.8364113   -7.8615785    255.40521  0.020603841  0.020780315            3 
 1034000    0.8484492   -7.8450187    255.80063  0.020615783  0.020764075            3 
 1035000   0.84278417    -7.870054    256.49998  0.020652173  0.020747924            2 
 1036000   0.82810523   -7.8419636    256.50853  0.020632926  0.020731852            1 
 1037000    0.8267824   -7.8483522    257.28001  0.020675025  0.020715751            2 
 1038000   0.83650295   -7.8515802    256.20472   0.02056878  0.020699717            2 
 1039000    0.8294942    -7.849287    257.01926  0.020614314  0.020683627            1 
 1040000   0.83998371   -7.8702228    256.87102  0.020582614  0.020667574            4 
 1041000   0.85299178   -7.8603398    256.90154  0.020565285  0.020651522            2 
 1042000   0.85036343   -7.8742293    257.45179  0.020589554  0.020635422            2 
 1043000   0.83699591   -7.8640777    257.19547  0.020549335  0.020619418            3 
 1044000   0.85049579   -7.8597036    257.35218   0.02054216   0.02060344            2 
 1045000   0.83496137   -7.8513255    257.83318   0.02056086  0.020587548            2 
 1046000   0.85000369   -7.8667533    257.54497  0.020518241  0.020571833            2 
 1047000   0.83337943   -7.8205251      257.614  0.020504139  0.020556179            4 
 1048000   0.81723357   -7.8420717    258.06764  0.020520645  0.020540441            3 
 1049000    0.8232936   -7.8662602     257.7852  0.020478646    0.0205248            3 
 1050000   0.82430138   -7.8760946    258.33686  0.020502926  0.020509162            2 
 1051000   0.82898715   -7.8176151    258.34127  0.020483767  0.020493518            4 
 1052000   0.83088975   -7.8542767    258.12091   0.02044684  0.020477956            1 
 1053000   0.84620219   -7.8396351    258.73053  0.020475667   0.02046241            2 
 1054000   0.82210483   -7.8483429    258.82145  0.020463429  0.020446847            3 
 1055000   0.85530738   -7.8518694    258.82159  0.020444043  0.020431299            4 
 1056000   0.83122765   -7.8881166    258.49742  0.020399102  0.020415752            2 
 1057000   0.84082237   -7.8455825    258.16883  0.020353897  0.020400276            3 
 1058000    0.8360403   -7.8610522    258.90851   0.02039292  0.020384875            2 
 1059000   0.82153689   -7.8540261    259.68102  0.020434452  0.020369423            1 
 1060000    0.8194644   -7.8469108     259.2447  0.020380873  0.020354003            3 
 1061000   0.83966934   -7.8623949    259.21233  0.020359121  0.020338626            1 
 1062000   0.83594836   -7.8223542    259.18544   0.02033784  0.020323201            3 
 1063000   0.84416502   -7.8850881    258.70324  0.020280907  0.020307761            1 
 1064000   0.81107123   -7.8972142     258.9986  0.020284978  0.020292231            2 
 1065000   0.81831267   -7.8598033     259.4334  0.020299953  0.020276604            2 
 1066000   0.80624136   -7.8688792    258.58922  0.020214917  0.020261013            2 
 1067000   0.82866796   -7.8608909    259.71679  0.020284036   0.02024532            1 
 1068000   0.84117505    -7.874411    259.40376  0.020240618  0.020229822            2 
 1069000   0.82380863   -7.8860171    259.72018   0.02024635  0.020214202            2 
 1070000   0.83988618   -7.8497872    259.53036  0.020212645  0.020198636            3 
 1071000   0.82740368   -7.8430965    259.57784  0.020197467   0.02018319            2 
 1072000   0.82359545   -7.8703998    260.22731  0.020229113  0.020167769            3 
 1073000   0.81423695   -7.8640193     259.5088  0.020154458  0.020152339            6 
 1074000   0.84251243   -7.8554698    260.35176  0.020201099  0.020136935            3 
 1075000   0.81818383   -7.8087563    261.00813  0.020233188  0.020121763            2 
 1076000   0.82096503   -7.8961004    259.69242  0.020112486  0.020106418            2 
 1077000   0.83289145   -7.8781347    259.33919   0.02006648  0.020090914            1 
 1078000   0.81476713   -7.8568429    259.80347  0.020083756  0.020075475            3 
 1079000   0.82597094   -7.8889261    259.93956  0.020075654  0.020060157            2 
 1080000    0.8367231   -7.9073533    260.48863  0.020099432  0.020044775            2 
 1081000   0.81457406   -7.9235369    259.62999  0.020014646   0.02002935            4 
 1082000   0.82503293   -7.8897151    260.06216  0.020029433  0.020013846            5 
 1083000   0.81718074   -7.8797054    260.31841  0.020030656   0.01999843            2 
 1084000   0.82935708   -7.9346323    260.16292  0.020000225  0.019982925            2 
 1085000   0.81242245   -7.9093656    259.36676  0.019920642  0.019967372            2 
 1086000   0.80920871    -7.908304    259.63035  0.019922525  0.019951784            1 
 1087000   0.81518278   -7.9029365    260.26412  0.019952785  0.019936257            2 
 1088000   0.81669106   -7.9277007      260.057  0.019918582  0.019920758            3 
 1089000   0.82195391   -7.8907397    260.40778  0.019927133    0.0199053            2 
 1090000   0.81991146   -7.8845754     260.6651  0.019928524  0.019889905            2 
 1091000   0.81643952   -7.8939631    260.53495  0.019900317   0.01987446            2 
 1092000   0.82281686   -7.8787557    260.97608  0.019915757   0.01985908            1 
 1093000   0.81686568   -7.8940436    260.41334  0.019854631  0.019843609            2 
 1094000   0.81636354   -7.8691231    260.64081  0.019853809  0.019828144            2 
 1095000   0.82426796   -7.8710253    261.32906  0.019888056    0.0198128            2 
 1096000    0.8070036   -7.9262583    260.95934  0.019841799  0.019797501            2 
 1097000    0.8153777   -7.8962195    260.61861  0.019797828   0.01978208            3 
 1098000   0.81495507   -7.9201335    261.04047  0.019811814  0.019766725            2 
 1099000   0.80032627   -7.9285465    260.70182  0.019768109  0.019751321            3 
 1100000   0.81672539   -7.8765498    261.42073  0.019804601   0.01973596            2 
 1101000   0.81377006   -7.9007817    261.01239  0.019755706  0.019720678            2 
 1102000   0.82025487   -7.8772472    262.42149  0.019844336  0.019705397            2 
 1103000   0.80584096   -7.8849643    261.19868  0.019733959  0.019690091            2 
 1104000   0.80354582    -7.893703    262.30184  0.019799354  0.019674841            4 
 1105000   0.80745268   -7.8812155     261.9765    0.0197569  0.019659638            3 
 1106000   0.80329344   -7.8684963    260.78801  0.019649488  0.019644418            2 
 1107000   0.82275874   -7.9032111    262.24349  0.019741305  0.019629208            3 
 1108000   0.80699196   -7.9087296    261.67664  0.019680854  0.019614115            1 
 1109000   0.81308037   -7.9298498    261.75624  0.019669089  0.019598936            2 
 1110000    0.8018164   -7.9367953    262.31454  0.019693284  0.019583798            1 
 1111000   0.80434767   -7.9059586    261.92031  0.019645988  0.019568628            5 
 1112000   0.82029465    -7.906501    262.34038  0.019659801  0.019553474            4 
 1113000   0.82236354   -7.9480675    262.32327  0.019640855  0.019538355            4 
 1114000    0.8155466   -7.9292593    262.63894  0.019646839  0.019523188            3 
 1115000   0.82224522   -7.9352611    261.72644   0.01956102  0.019507969            3 
 1116000   0.81324531   -7.9233726    262.01796   0.01956526  0.019492781            3 
 1117000   0.79722404   -7.8915358    262.03577  0.019549073  0.019477622            4 
 1118000   0.80915672   -7.9203769    261.61348   0.01950011  0.019462432            1 
 1119000   0.79372642   -7.9165582    262.20728  0.019526905  0.019447251            2 
 1120000   0.81908725   -7.9376355    261.85552  0.019483298  0.019431965            2 
 1121000   0.80141243    -7.934074    261.86714  0.019466781  0.019416769            2 
 1122000   0.80446628   -7.8848501    263.23181  0.019550788  0.019401642            5 
 1123000     0.803122   -7.9738291    262.09156  0.019448765  0.019386508            2 
 1124000   0.82490656   -7.9381438    262.08824  0.019431216  0.019371264            2 
 1125000   0.77644188   -7.9627836    262.44689   0.01944051   0.01935605            2 
 1126000   0.81207233   -7.9473697    262.38885   0.01941895  0.019340833            1 
 1127000   0.82173436   -7.9208594     262.7308  0.019427004  0.019325627            3 
 1128000    0.7943728   -7.9405847    262.63153  0.019402448  0.019310391            3 
 1129000   0.80247845   -7.9487001    262.36816  0.019365823  0.019295233            1 
 1130000   0.81028418   -7.9508718    262.33823  0.019346477  0.019280035            1 
 1131000   0.78996852   -7.9480917    262.62414  0.019350437  0.019264858            2 
 1132000   0.79404962   -7.9429218    263.34438  0.019386365  0.019249683            2 
 1133000   0.81377364   -7.9636765    262.37425    0.0192979  0.019234535            2 
 1134000   0.80162269   -7.9282027    262.52793  0.019292176  0.019219421            2 
 1135000   0.81153213   -7.9498235    262.60501  0.019280838   0.01920421            2 
 1136000   0.81019282   -7.9852522    262.84006  0.019281108  0.019188982            1 
 1137000   0.79785746   -7.9561931    262.65413  0.019250523  0.019173818            4 
 1138000   0.77906311   -7.9773351    262.48145  0.019220961  0.019158608            2 
 1139000   0.80470665   -7.9607204    262.70012  0.019220085  0.019143352            1 
 1140000   0.80530017   -7.9354225    263.62368  0.019270737   0.01912823            2 
 1141000   0.79401923   -7.9524113    262.92427  0.019202766  0.019113096            2 
 1142000   0.78845278   -7.9588792    263.17685  0.019204382  0.019098063            4 
 1143000    0.7941818   -7.9332529    263.35564  0.019200615  0.019083094            2 
 1144000   0.81110692   -7.9430911    262.67697  0.019134394  0.019068021            2 
 1145000   0.78980401   -7.9617241    263.19024  0.019155039  0.019052991            3 
 1146000   0.79733792   -7.9789361    263.46389  0.019158224  0.019037947            2 
 1147000   0.80939372   -7.9541486    263.10207  0.019115233  0.019022859            1 
 1148000   0.80178422   -7.9603966    263.11282  0.019099362  0.019007737            1 
 1149000   0.78375499   -7.9696884    264.44401  0.019179287  0.018992714            1 
 1150000   0.77029705   -7.9611472    263.59236  0.019100896  0.018977689            2 
 1151000   0.80478573   -7.9563864    263.03351  0.019043839  0.018962693            1 
 1152000   0.78132304   -7.9832761    263.35572  0.019050616  0.018947764            1 
 1153000   0.79632019    -7.963172    263.60491  0.019052104  0.018932744            2 
 1154000   0.79325703   -7.9711775    264.06216  0.019068614  0.018917822            3 
 1155000   0.80633429    -7.962463    263.36894  0.019002088  0.018902913            6 
 1156000   0.81155516   -7.9619503    263.82885  0.019018804  0.018887968            1 
 1157000   0.81461977   -7.9319064      264.056  0.019018726  0.018872998            2 
 1158000   0.80631008   -7.9701334    264.15977  0.019009771  0.018858081            2 
 1159000   0.77993569   -7.9242399    264.27238  0.019001466  0.018843155            2 
 1160000   0.78073952    -7.980409    263.78949  0.018950395  0.018828173            3 
 1161000   0.79685763    -7.954743    263.63272  0.018922819  0.018813084            1 
 1162000   0.78159564   -7.9748956    263.12081  0.018869823  0.018798025            4 
 1163000   0.79903213   -7.9593353    263.98036  0.018915188  0.018782999            3 
 1164000   0.79123609   -7.9798508    263.48148  0.018863222  0.018767946            2 
 1165000   0.79613713   -7.9689469    264.10901  0.018891918  0.018752973            4 
 1166000   0.79269187   -7.9670739    264.42564  0.018898345  0.018737981            1 
 1167000   0.78765908   -7.9811933    263.48511  0.018814989  0.018722971            4 
 1168000   0.78221942   -7.9619131    264.27988  0.018855585  0.018708014            2 
 1169000   0.77008969   -7.9207742    264.38101  0.018846664  0.018693079            2 
 1170000   0.77375709   -7.9940476     263.8035  0.018789423  0.018678118            1 
 1171000   0.79883613   -7.9938475    264.13731  0.018797133  0.018663099            3 
 1172000   0.81322466   -7.9568463    264.66025  0.018818277  0.018648116            3 
 1173000     0.791219   -8.0009482    263.86775  0.018745933  0.018633137            3 
 1174000   0.80155543   -8.0223305    263.46146  0.018701126  0.018618187            2 
 1175000   0.80043904   -7.9909436    263.86238  0.018713644  0.018603204            3 
 1176000   0.78570098   -8.0129697    263.84393  0.018696423  0.018588195            1 
 1177000   0.77021977   -7.9838006    264.50067  0.018727037  0.018573261            2 
 1178000   0.78568277   -7.9795919    264.76315  0.018729708  0.018558294            2 
 1179000   0.77386229   -7.9777941    264.15436  0.018670791  0.018543453            2 
 1180000    0.7907965   -7.9956986    264.20129  0.018658283  0.018528607            2 
 1181000    0.7678137   -7.9945196    264.09195   0.01863477   0.01851373            5 
 1182000   0.77812901   -7.9881319    264.76572  0.018666506   0.01849888            4 
 1183000   0.76422297   -8.0053242     264.5716  0.018637053  0.018484037            2 
 1184000   0.77800547    -7.970184    264.70526  0.018630719  0.018469298            6 
 1185000   0.79826624   -7.9787093    265.09942  0.018642716  0.018454608            3 
 1186000   0.78269301    -8.002531    264.62705  0.018593806  0.018439962            1 
 1187000   0.79387782   -8.0065734    265.04249  0.018607308  0.018425291            2 
 1188000     0.777922   -8.0273778    264.69149  0.018567024  0.018410641            2 
 1189000   0.77641109    -7.985633    265.00586  0.018573441  0.018395987            2 
 1190000   0.77415477   -8.0003065    265.56071  0.018596689  0.018381396            2 
 1191000   0.76532358   -8.0067482    265.25355  0.018559583  0.018366767            3 
 1192000   0.77664646   -7.9886572    265.90503  0.018589557   0.01835232            4 
 1193000   0.77189436   -7.9869024    265.08958  0.018517015  0.018337785            2 
 1194000   0.76628942   -8.0140025    265.31028  0.018516909  0.018323166            1 
 1195000   0.78821536   -7.9964548    265.67989  0.018527189  0.018308682            2 
 1196000   0.78114619   -8.0108963    265.31616  0.018486355  0.018294162            2 
 1197000   0.76963841   -7.9682464    265.50674  0.018484178  0.018279569            1 
 1198000   0.77530426   -8.0015236    265.63407  0.018477606  0.018265034            5 
 1199000   0.77896095    -8.019841     264.4974  0.018383194   0.01825041            4 
 1200000   0.78083001   -7.9933104    265.23578  0.018419151  0.018235804            2 
 1201000   0.78114029   -7.9841095    265.37013  0.018413137  0.018221167            3 
 1202000   0.78053962   -8.0017814    265.35636  0.018396863  0.018206579            3 
 1203000   0.76738594   -8.0093649    265.12729  0.018365703  0.018191894            1 
 1204000   0.77770174    -7.992024    265.99249  0.018410333   0.01817733            1 
 1205000   0.78611682   -8.0210591    265.06083  0.018330624  0.018162746            2 
 1206000   0.75646459   -8.0178252    264.93696  0.018306865  0.018148092            3 
 1207000   0.77774379   -7.9979124    265.66415  0.018341905  0.018133453            5 
 1208000    0.7755351   -8.0088387    265.74577  0.018332352  0.018118793            2 
 1209000   0.77473976   -8.0027905    265.69828  0.018313915  0.018104141            3 
 1210000   0.76472078   -8.0180104    264.96199  0.018248071  0.018089571            5 
 1211000   0.76097437   -7.9883292    265.78226  0.018289448  0.018075062            2 
 1212000   0.78596755   -8.0118683    265.73161  0.018270875  0.018060512            2 
 1213000   0.75644512   -8.0399049    265.33721  0.018228717  0.018045947            2 
 1214000   0.75933746   -8.0371059    265.29159   0.01821057   0.01803134            2 
 1215000   0.78075409    -8.045389    265.40366  0.018203269  0.018016656            1 
 1216000   0.77305302   -8.0250418    265.12173  0.018168978  0.018002006            3 
 1217000    0.7870931   -8.0610637    264.84302  0.018134965  0.017987331            2 
 1218000   0.76284725   -8.0266952    265.57176  0.018169934  0.017972731            2 
 1219000   0.77232038   -8.0109774    265.57864  0.018155499  0.017958158            3 
 1220000   0.75650391   -8.0344992    265.46157  0.018132621  0.017943534            2 
 1221000   0.78200344   -8.0362943    265.36998  0.018111519  0.017928878            3 
 1222000   0.77033517   -8.0234101    265.62749  0.018114259  0.017914229            1 
 1223000   0.77835774   -8.0309399     265.5257  0.018092512  0.017899647            2 
 1224000   0.76309853   -8.0396986    265.90455  0.018103523  0.017885044            3 
 1225000   0.77205048    -8.036966    265.22038  0.018042203  0.017870441            3 
 1226000   0.75379691   -8.0788103    265.03695  0.018015018  0.017855858            1 
 1227000   0.76828609   -8.0360271    265.68538  0.018044375  0.017841259            3 
 1228000   0.75870787   -8.0573252    265.81774  0.018038663   0.01782675            1 
 1229000   0.73462164   -8.0424314    265.49702  0.018002239  0.017812161            3 
 1230000   0.74273485   -8.0741874    265.57865  0.017993134   0.01779763            4 
 1231000   0.76553021   -8.0514845    265.76622  0.017991214  0.017783119            2 
 1232000   0.75554294   -8.0444069    266.21672  0.018007083  0.017768662            5 
 1233000   0.75481369   -8.0709957    265.85679  0.017968153  0.017754166            3 
 1234000   0.75936478   -8.0626491    266.13536  0.017972404  0.017739695            3 
 1235000   0.76833817    -8.030919    266.04206  0.017951556  0.017725283            1 
 1236000   0.75132062    -8.046137    266.15725  0.017944798  0.017710881            2 
 1237000   0.76300924   -8.0322446    265.83879  0.017908838  0.017696503            2 
 1238000   0.77061823   -8.0327196    266.14958  0.017915292  0.017682068            1 
 1239000   0.75901665   -8.0436859    265.90539  0.017884409  0.017667668            3 
 1240000   0.77721907   -8.0511278    265.89256  0.017869124  0.017653259            2 
 1241000   0.76979266   -8.0735477    265.98657  0.017861038  0.017638856            1 
 1242000   0.74851983   -8.0353626    266.69385  0.017894112  0.017624444            4 
 1243000   0.74185538   -8.0482431    266.31912  0.017854594  0.017610133            2 
 1244000   0.77140951   -8.0550898    266.59861  0.017858964  0.017595816            2 
 1245000   0.75594122   -8.0578281     266.6442  0.017847671    0.0175815            5 
 1246000   0.74131107   -8.0528574    266.12124  0.017798371  0.017567179            1 
 1247000   0.76220752   -8.0791179     266.3556  0.017799759   0.01755285            4 
 1248000   0.73834585   -8.0240348    266.87828  0.017820398  0.017538486            3 
 1249000    0.7631107   -8.0655918    266.68835  0.017793458  0.017524152            1 
 1250000   0.75284384   -8.0543766    266.44611  0.017763074  0.017509836            3 
 1251000   0.78584547   -8.0449487    266.27031  0.017737164   0.01749553            4 
 1252000    0.7541511   -8.0564597    266.05413  0.017708608  0.017481221            4 
 1253000   0.77464355   -8.0819115    266.48348   0.01772303  0.017466928            3 
 1254000   0.74395397   -8.0789874    265.94955  0.017673415  0.017452659            2 
 1255000   0.74334557   -8.0739073     266.4898  0.017695206  0.017438343            1 
 1256000   0.75198174   -8.0489272     266.5601  0.017685781  0.017424059            3 
 1257000   0.76482581   -8.0630953    266.72396  0.017682575  0.017409817            2 
 1258000   0.73990563   -8.0447508    266.50924  0.017654295  0.017395624            2 
 1259000   0.75130437   -8.0717236    266.76137  0.017656961  0.017381395            2 
 1260000   0.75453147   -8.0558553    266.62067  0.017633642  0.017367189            4 
 1261000   0.76545735   -8.0649344    266.51919  0.017612952  0.017352944            1 
 1262000   0.76068779   -8.0682951    266.70011  0.017610942  0.017338752            4 
 1263000   0.74848973   -8.1243622    265.94125  0.017546929  0.017324518            4 
 1264000   0.74162656   -8.0684138    267.01805  0.017604038  0.017310274            1 
 1265000   0.74181107   -8.0868382    266.18507  0.017535248  0.017295989            2 
 1266000   0.75413888   -8.0848003    266.43282  0.017537705  0.017281674            1 
 1267000   0.75431223   -8.0907751    266.30765   0.01751563  0.017267409            2 
 1268000   0.75660649   -8.0979551    266.26165  0.017498794  0.017253172            6 
 1269000   0.75741693   -8.0867481    266.63697  0.017509651  0.017238956            3 
 1270000   0.75304595   -8.0925695    266.64997  0.017496717  0.017224793            3 
 1271000   0.73755025   -8.0970797    266.50439  0.017473406  0.017210578            2 
 1272000   0.74879813   -8.0816133    266.45771  0.017456611  0.017196358            1 
 1273000   0.75256799   -8.0864339    266.31019  0.017433241  0.017182164            2 
 1274000   0.75271996   -8.1127374    266.31123  0.017419625   0.01716797            2 
 1275000   0.75145749   -8.1103062    267.17627  0.017462501  0.017153776            1 
 1276000   0.76813421   -8.1225665    266.54429  0.017407542  0.017139558            3 
 1277000   0.73974063   -8.0878672     266.2738  0.017376259  0.017125346            3 
 1278000   0.74346934     -8.09052     266.3483  0.017367521  0.017111166            3 
 1279000   0.72010913   -8.1274938    267.13714  0.017405339  0.017097094            4 
 1280000   0.73006351   -8.0919968    266.67764  0.017361825  0.017083017            1 
 1281000    0.7340338   -8.0967641    267.47249   0.01739998  0.017068957            3 
 1282000   0.72140295   -8.1051333    266.27599  0.017308631  0.017054851            3 
 1283000    0.7473417   -8.1050195    266.39551  0.017302904  0.017040753            2 
 1284000    0.7229067   -8.0901128    266.65673  0.017306382  0.017026644            4 
 1285000    0.7439718    -8.121422    266.29457  0.017269427  0.017012552            3 
 1286000   0.74173034   -8.1556791    266.13271   0.01724551  0.016998354            1 
 1287000   0.75172163   -8.1367903    266.65597  0.017265991  0.016984151            2 
 1288000   0.72926618    -8.115939    266.66667  0.017253279   0.01696995            1 
 1289000   0.74316656   -8.1206804    266.80935  0.017249117  0.016955762            3 
 1290000   0.72853056   -8.0950671    266.92383  0.017243142  0.016941622            3 
 1291000   0.73166682   -8.1230588    266.21957  0.017184325  0.016927478            2 
 1292000   0.73637741   -8.1029884    266.93404  0.017217108  0.016913359            2 
 1293000   0.74860505   -8.1234952     266.4133  0.017170231  0.016899334            2 
 1294000   0.72795058   -8.1049344    267.03266  0.017196848  0.016885284            3 
 1295000   0.74070989   -8.1172509    266.78032   0.01716733  0.016871256            2 
 1296000   0.72670492   -8.1285801    266.72229  0.017150353  0.016857218            1 
 1297000   0.74132539   -8.1215137    267.33409  0.017176439  0.016843202            2 
 1298000   0.72457158   -8.1331723    266.97749  0.017140311  0.016829166            4 
 1299000   0.73468598   -8.1043954    266.42211  0.017091487  0.016815147           10 
 1300000   0.73017584   -8.1205969    266.85183  0.017105886  0.016801142            3 
 1301000   0.73505058   -8.1366596    266.50817  0.017070726  0.016787143            2 
 1302000   0.73788125   -8.1088162    266.82879  0.017078136  0.016773153            2 
 1303000    0.7185627   -8.1196837    266.86572   0.01706739  0.016759184            2 
 1304000   0.72470555   -8.1265814     266.6639  0.017041405  0.016745196            2 
 1305000   0.73513244   -8.1033175    267.22146   0.01706395  0.016731254            3 
 1306000   0.72824897   -8.1146784    266.87369  0.017028694  0.016717329            5 
 1307000   0.73820239   -8.1200013    266.77219  0.017009193  0.016703408            2 
 1308000   0.72352767   -8.1323554    267.66107   0.01705282  0.016689472            1 
 1309000   0.72833796   -8.1104613    267.07713  0.017002619  0.016675548            2 
 1310000    0.7277049   -8.0981464     267.4968  0.017016336  0.016661643            1 
 1311000   0.72449942   -8.1098678      267.189  0.016983791  0.016647789            2 
 1312000   0.73870804   -8.1066501    266.78462  0.016945161  0.016633928            2 
 1313000   0.72713243   -8.1414787    266.95909  0.016943329  0.016620087            3 
 1314000   0.71217826   -8.1488889     266.9706  0.016931164  0.016606196            3 
 1315000   0.72890452   -8.1310229    267.21146  0.016933552   0.01659229            4 
 1316000   0.72348793   -8.1390626    267.23587  0.016922231  0.016578457            1 
 1317000   0.73597557   -8.1419916    267.22058  0.016908414  0.016564623            2 
 1318000   0.72223149   -8.1656415    267.33574  0.016902867   0.01655074            2 
 1319000   0.71896318   -8.1409447     266.6849  0.016848932  0.016536852            4 
 1320000   0.72590729   -8.1412612    267.23578  0.016870946  0.016522991            1 
 1321000   0.73607595   -8.1275254      267.315  0.016863172  0.016509221            1 
 1322000    0.7219488   -8.1149139    267.23571  0.016845418    0.0164955            1 
 1323000   0.73774699   -8.1267136    267.58652  0.016854782  0.016481808            1 
 1324000   0.71731604   -8.1227961    267.25097  0.016820932  0.016468098            1 
 1325000   0.71408507    -8.146544    267.42114   0.01681894  0.016454367            2 
 1326000   0.70710805   -8.1431603    267.74129  0.016826376  0.016440663            4 
 1327000   0.72275446   -8.1550438    266.98503  0.016766204  0.016426937            1 
 1328000   0.71089115   -8.1206775    267.66758  0.016796409   0.01641318            3 
 1329000   0.72611701   -8.1486898    267.50934  0.016773849  0.016399465            1 
 1330000   0.73696054   -8.1264017    267.18711  0.016741047  0.016385742            4 
 1331000   0.73073628   -8.1172222    267.30925  0.016736117  0.016371997            6 
 1332000   0.71371902      -8.1077    267.49822  0.016735374  0.016358239            3 
 1333000   0.72890828   -8.1397505    267.90359  0.016748161   0.01634451            3 
 1334000   0.70652717   -8.1565491    267.06972  0.016683515  0.016330816            2 
 1335000   0.70703032   -8.1518256    267.08473  0.016671956  0.016317165            3 
 1336000   0.72304621    -8.144819    267.44611  0.016682018  0.016303506            3 
 1337000   0.72232271   -8.1536736    267.43694  0.016668969  0.016289834            2 
 1338000   0.71895068    -8.164197    267.30245  0.016648135  0.016276148            3 
 1339000   0.73085243   -8.1458023    267.41874  0.016642939   0.01626244            1 
 1340000   0.70778197   -8.1746926     266.9497   0.01660135  0.016248757            4 
 1341000   0.72168621   -8.1617696    267.21359  0.016605369   0.01623509            1 
 1342000    0.7266044   -8.1662073    266.62359  0.016556358  0.016221395            2 
 1343000   0.73050464   -8.1548493    267.01103  0.016568071  0.016207668            2 
 1344000   0.72212833   -8.1530436    267.50281  0.016586236   0.01619398            2 
 1345000   0.72543456   -8.1655645    267.12179  0.016550297  0.016180286            2 
 1346000   0.72102304   -8.1586967    267.06775  0.016534655  0.016166601            2 
 1347000   0.71964956   -8.1610656    267.60134  0.016555391  0.016152882            1 
 1348000   0.72916126   -8.1738895    266.99792  0.016505806   0.01613917            3 
 1349000    0.7141721   -8.1853492     267.4375  0.016520725  0.016125432            3 
 1350000   0.70846726   -8.1882227    266.85876  0.016472763  0.016111685            3 
 1351000   0.69708802   -8.1636596    267.13502  0.016477611  0.016097979            3 
 1352000   0.70750658   -8.1573564    267.31509  0.016476522    0.0160843            2 
 1353000   0.71085471   -8.1613854    266.98837  0.016444221  0.016070648            1 
 1354000   0.71976623   -8.1603712    266.42429  0.016397359  0.016057006            2 
 1355000   0.73408413    -8.185995    267.10142  0.016426902   0.01604336            3 
 1356000   0.71579397   -8.1956605    266.42939  0.016373488  0.016029655            4 
 1357000   0.71178689   -8.1672035    266.69476  0.016377718  0.016015995            1 
 1358000    0.7008961   -8.1765173    266.88697  0.016377453   0.01600234            1 
 1359000   0.71688673    -8.192937    266.75832  0.016357513  0.015988695            4 
 1360000   0.71284266    -8.181752    266.76053  0.016345621  0.015975105            4 
 1361000   0.70736276   -8.1586843    267.49621  0.016378656  0.015961515            2 
 1362000     0.723871   -8.1624832    267.05178  0.016339439  0.015947948            2 
 1363000   0.70009579   -8.1801599    267.35932  0.016346253  0.015934406            2 
 1364000   0.70991191   -8.1716337    267.26904  0.016328754  0.015920887            6 
 1365000   0.72102415   -8.1834847     266.6035   0.01627616  0.015907372            3 
 1366000   0.70446586   -8.1789827    267.14981  0.016297572  0.015893864            3 
 1367000    0.7164878   -8.1525618    266.90702   0.01627085  0.015880345            1 
 1368000   0.71028719   -8.1670087    267.52415  0.016296549  0.015866843            2 
 1369000   0.71065928    -8.212377    267.18174  0.016263802  0.015853328            1 
 1370000   0.68780282   -8.1841524     266.9618  0.016238552  0.015839789            4 
 1371000   0.71514362   -8.1891233    267.26848  0.016245349  0.015826259            2 
 1372000   0.72358083   -8.1714123    267.67755  0.016258354  0.015812764            2 
 1373000   0.72253583   -8.2024919     267.1209  0.016212727  0.015799307            2 
 1374000   0.70691463   -8.2052751    266.98742  0.016192832  0.015785816            3 
 1375000   0.69537227   -8.1980154    266.86319  0.016173526   0.01577237            7 
 1376000   0.70505548   -8.2098214    267.19861  0.016182086  0.015758924            4 
 1377000   0.68949382   -8.2295915    267.01759   0.01615938  0.015745491            1 
 1378000   0.69896455   -8.2137573    267.70093  0.016188978  0.015732032            5 
 1379000    0.7129624    -8.209198    267.37198  0.016157359  0.015718654            2 
 1380000   0.70454869   -8.2132778    267.31273  0.016142073  0.015705267            1 
 1381000   0.70292034    -8.198512    267.49687  0.016141496  0.015691953            1 
 1382000    0.6958101   -8.2218331    267.15637  0.016109284  0.015678638            2 
 1383000   0.70360632   -8.2324364    267.11117  0.016094913  0.015665286            3 
 1384000    0.7171792     -8.22774    267.11953  0.016083787  0.015651926            2 
 1385000    0.6950159   -8.2149423    267.59938  0.016101046  0.015638593            3 
 1386000   0.68621708   -8.1905145    268.28205  0.016130474  0.015625316            2 
 1387000   0.70045004   -8.2203875    266.98174   0.01604072  0.015612052            4 
 1388000   0.71133694   -8.2083803    267.54291  0.016062855  0.015598816            2 
 1389000    0.6966555   -8.1948681    267.39732  0.016042556  0.015585577            3 
 1390000    0.7151943   -8.2118251    267.60102  0.016043226  0.015572332            2 
 1391000   0.69574231   -8.2408538    267.22219  0.016008998  0.015559103            1 
 1392000   0.70989798   -8.2248603    267.77409  0.016030537  0.015545907            2 
 1393000   0.70471161   -8.2107632     267.7346  0.016016666  0.015532714            3 
 1394000   0.69243452   -8.2045168    267.51045  0.015991777  0.015519528            2 
 1395000   0.68658719   -8.2413062    267.38975  0.015973103  0.015506308            3 
 1396000   0.68659696   -8.1977466    267.47627  0.015966826  0.015493143            2 
 1397000   0.69184844   -8.2347159    268.10235  0.015992744  0.015479994            5 
 1398000   0.69370256   -8.2297435    267.40026  0.015939453  0.015466842            3 
 1399000   0.68133431   -8.2318882     267.4688  0.015932142  0.015453713            1 
 1400000   0.69278535   -8.2002486    268.03751  0.015954614  0.015440574            4 
 1401000   0.70864051   -8.2093229    267.76982  0.015927303  0.015427505            2 
 1402000   0.69961466   -8.2160738    267.72447  0.015913247  0.015414477            2 
 1403000   0.68688565   -8.2068446     267.7397  0.015902809  0.015401442            3 
 1404000   0.69754103   -8.1930218    267.86168  0.015898723  0.015388418            3 
 1405000   0.70074981   -8.2133792    267.70816  0.015878302  0.015375394            5 
 1406000   0.68326506   -8.2307557    267.57029  0.015858837  0.015362343            3 
 1407000   0.67774442   -8.2243478    267.46241  0.015841176  0.015349279            1 
 1408000   0.69775112   -8.2321067    267.46679  0.015830184  0.015336189            2 
 1409000   0.70481465   -8.2402477    267.58435  0.015825902  0.015323148            1 
 1410000   0.69364281   -8.2338515    267.48039  0.015808534  0.015310129            4 
 1411000   0.70005641    -8.239368    267.43784  0.015794817  0.015297064            3 
 1412000   0.70532156   -8.2576342    267.22804  0.015771249     0.015284            4 
 1413000   0.68363136   -8.2474702    267.27968  0.015763133  0.015270945            2 
 1414000   0.70532357   -8.2481744    267.36788  0.015757183  0.015257912            2 
 1415000    0.6897555   -8.2599599    267.43297   0.01574988  0.015244892            3 
 1416000   0.69901849    -8.245208    267.25789  0.015728454  0.015231887            3 
 1417000   0.67997101   -8.2411903    267.55062   0.01573457  0.015218866            1 
 1418000   0.70669997   -8.2627583    267.96969  0.015748101  0.015205858            5 
 1419000   0.68938854    -8.230734     267.4366  0.015705697  0.015192859            2 
 1420000   0.69268839   -8.2648339    267.97259  0.015726091  0.015179868            3 
 1421000   0.68024242   -8.2349526    267.47829  0.015686036  0.015166872            3 
 1422000   0.67401227   -8.2483341    267.92428  0.015701142  0.015153906            3 
 1423000   0.67420818   -8.2352965    267.62515   0.01567259  0.015140977            4 
 1424000   0.69437155   -8.2559812     267.6564  0.015663413  0.015128054            3 
 1425000   0.68085518   -8.2640101    266.67062  0.015594773  0.015115084            2 
 1426000   0.67590748   -8.2381483    267.07022  0.015607189  0.015102129            3 
 1427000   0.69153893    -8.259806    267.59211  0.015626729  0.015089244            2 
 1428000   0.68020118    -8.253614    267.52052  0.015611608  0.015076357            3 
 1429000   0.67943098   -8.2449681    267.92366  0.015624193  0.015063499            3 
 1430000   0.67376063   -8.2467387    267.88888   0.01561124  0.015050672            3 
 1431000   0.68867073   -8.2398073    267.97332  0.015605248  0.015037818            2 
 1432000   0.67752322   -8.2612452    267.53666   0.01556894  0.015024964            1 
 1433000   0.67605397   -8.2481679    267.85981  0.015576867  0.015012107            1 
 1434000    0.6805726   -8.2607974    267.29535  0.015533203  0.014999315            1 
 1435000   0.68406574   -8.2666725    267.62354  0.015541437  0.014986506            4 
 1436000   0.67379624   -8.2615376    267.50589  0.015523787  0.014973692            2 
 1437000   0.67571735   -8.2757263    267.75991  0.015527715  0.014960907            2 
 1438000   0.68280568   -8.2509291    268.31918  0.015549327  0.014948138            4 
 1439000   0.66983398   -8.2835132    268.03883  0.015522286  0.014935404            6 
 1440000   0.67401932   -8.2772725    267.64851  0.015488918  0.014922639            4 
 1441000   0.67592632   -8.2721183    267.12838  0.015448091  0.014909911            1 
 1442000   0.67398578   -8.2414008    267.90808  0.015482436   0.01489719            1 
 1443000   0.68406845   -8.2808254    268.12276  0.015484105  0.014884521            3 
 1444000   0.69395975   -8.2379519    268.36445   0.01548733  0.014871881            3 
 1445000    0.6639456   -8.2664693     268.2966  0.015472699  0.014859235            3 
 1446000   0.67499046    -8.278278    267.65575  0.015425066  0.014846575            5 
 1447000    0.6813754   -8.2610149    267.85118  0.015425661  0.014833896            1 
 1448000   0.69351488   -8.2703148    268.12644   0.01543085  0.014821261            3 
 1449000   0.65709934   -8.2912655    268.17033  0.015422724  0.014808662            3 
 1450000   0.67337172   -8.2899115    267.97922  0.015401105   0.01479607            2 
 1451000   0.66241581   -8.2874653    267.58822  0.015368035  0.014783477            2 
 1452000   0.65965334   -8.2866836     267.9909  0.015380561  0.014770868            3 
 1453000   0.66883235   -8.2835935    268.10811  0.015376698  0.014758331            7 
 1454000   0.66248542    -8.284403    267.92146  0.015355425  0.014745754            3 
 1455000   0.65729651   -8.3033872     267.9711  0.015347715  0.014733165            2 
 1456000   0.67985225   -8.2921435    267.70482  0.015321934  0.014720642            3 
 1457000   0.67682975   -8.2902909    267.55646  0.015302932  0.014708095            1 
 1458000   0.67377463     -8.27924    267.80448  0.015306612  0.014695557            1 
 1459000   0.67352013   -8.2931521    267.79895  0.015295805  0.014683005            3 
 1460000   0.66709776   -8.2738806    267.64039  0.015276278   0.01467048            1 
 1461000   0.68420638   -8.3012766    267.82596  0.015276407  0.014657961            1 
 1462000   0.66967197   -8.2794595    267.44184  0.015244063  0.014645473            1 
 1463000   0.65606397    -8.254307    267.96927  0.015263686  0.014633021            1 
 1464000    0.6693082   -8.2612387    267.95843  0.015252643  0.014620583            3 
 1465000    0.6647228   -8.2876049    267.72313  0.015228847  0.014608098            2 
 1466000   0.67205873   -8.2729086    267.97349   0.01523269  0.014595599            3 
 1467000   0.66455869   -8.2930347    267.97245  0.015222248  0.014583138            2 
 1468000   0.66327627   -8.2961197    267.19192  0.015167571  0.014570671            4 
 1469000   0.67651485   -8.2852199    267.30221  0.015163502  0.014558223            4 
 1470000    0.6544957   -8.2956441    267.52624  0.015165887   0.01454579            1 
 1471000   0.65113061   -8.3062931    267.86104  0.015174544   0.01453338            2 
 1472000    0.6622325   -8.2899447    267.26547  0.015130518  0.014520967            2 
 1473000   0.66833285   -8.2980891    267.45773  0.015131123  0.014508527            3 
 1474000   0.65135897   -8.2995422    267.25114  0.015109178  0.014496087            3 
 1475000   0.66479893   -8.3031869    267.74577   0.01512688  0.014483667            8 
 1476000    0.6851337   -8.3017766     267.6184   0.01510944  0.014471268            2 
 1477000   0.66227675   -8.2920055    267.61043  0.015098761  0.014458889            3 
 1478000   0.66728383   -8.3014318    267.32312  0.015072346  0.014446516            3 
 1479000   0.66636087   -8.3053843    267.69771  0.015083261   0.01443413            9 
 1480000   0.66672333   -8.2974222    267.51581  0.015062827  0.014421779            2 
 1481000   0.66111528   -8.2801907    267.75735  0.015066247  0.014409418            3 
 1482000   0.67214136    -8.309424    267.55515  0.015044712  0.014397068            2 
 1483000   0.66622824   -8.3304577    267.35892   0.01502354   0.01438469            4 
 1484000   0.66174923   -8.3224296    267.55818  0.015024606  0.014372314            3 
 1485000   0.66917504   -8.3220209    267.34462  0.015002504  0.014359955            1 
 1486000    0.6654648   -8.3332927    266.89423   0.01496715  0.014347602            1 
 1487000   0.66388965   -8.2999615    267.62573  0.014998079  0.014335241            3 
 1488000   0.66342719   -8.3153637    267.30719  0.014970161  0.014322913            2 
 1489000   0.67077713   -8.3134016    267.19767  0.014953978  0.014310566            1 
 1490000   0.67196629   -8.3171476    267.25031  0.014946885  0.014298242            8 
 1491000   0.65438571   -8.3408879    267.70069  0.014962033  0.014285937            1 
 1492000    0.6694428   -8.3205677    267.14068  0.014920726  0.014273655            4 
 1493000   0.64334959    -8.333951    267.69022  0.014941405  0.014261337            1 
 1494000   0.64982645   -8.3271755    267.08555  0.014897677  0.014249036            2 
 1495000   0.65113087   -8.3070173    267.21122  0.014894717  0.014236757            2 
 1496000   0.64881399   -8.3348724    267.70997  0.014912543  0.014224504            2 
 1497000   0.67000399   -8.3193895    267.63308  0.014898301  0.014212245            1 
 1498000   0.66824506   -8.3260021    266.96934  0.014851432  0.014199983            1 
 1499000   0.65599211   -8.3617135    266.62916  0.014822613  0.014187709            2 
 1500000   0.66401593   -8.3565495    266.73791  0.014818773  0.014175438            1 
 1501000   0.64048285   -8.3574662    266.89067  0.014817381  0.014163181            3 
 1502000   0.65453368   -8.3612071    266.81046  0.014803066  0.014150913            5 
 1503000   0.65957503   -8.3681316    266.60154  0.014781633  0.014138644            3 
 1504000   0.63496167   -8.3471113     267.1975  0.014804826  0.014126393            3 
 1505000   0.66458665   -8.3377576    267.36189  0.014804092  0.014114155            2 
 1506000   0.65040685   -8.3469268    266.89089  0.014768199   0.01410195            2 
 1507000   0.64198994   -8.3715484     266.4391  0.014733416  0.014089716            2 
 1508000    0.6467398   -8.3666197    267.10678  0.014760543  0.014077505            2 
 1509000    0.6479816   -8.3543682    266.69719  0.014728142  0.014065344            2 
 1510000   0.65818972   -8.3530669    266.87913  0.014728429   0.01405317            3 
 1511000   0.64640375   -8.3612955    266.90863  0.014720308   0.01404101            1 
 1512000   0.65860397    -8.338027    267.24789  0.014729271  0.014028863            1 
 1513000   0.66486278   -8.3458254    267.27384  0.014720965  0.014016744            2 
 1514000   0.65628549   -8.3563834    267.75612  0.014737787  0.014004632            3 
 1515000   0.64553601   -8.3402554    266.88611  0.014680204  0.013992515            1 
 1516000   0.65961326   -8.3513604    267.26009  0.014691078  0.013980414            1 
 1517000   0.64484109   -8.3489985    267.06225  0.014670525  0.013968311            2 
 1518000   0.66328686   -8.3728658    267.11211  0.014663598  0.013956231            4 
 1519000   0.64309285   -8.3488523    267.35299   0.01466716  0.013944174            1 
 1520000    0.6430538   -8.3464348    266.63363  0.014618072  0.013932115            1 
 1521000   0.64562207   -8.3572641    267.31966  0.014646048   0.01392011            1 
 1522000   0.64640254   -8.3579382    266.94085  0.014615684  0.013908124            2 
 1523000   0.64646408   -8.3378626    267.47547   0.01463534  0.013896127            1 
 1524000     0.624171    -8.362619    267.15027  0.014607954   0.01388416            3 
 1525000   0.64127058   -8.3479295    267.38872  0.014611406  0.013872219            1 
 1526000   0.64693752   -8.3450038    267.47172  0.014606363  0.013860286            2 
 1527000   0.63670033   -8.3395056    267.26756  0.014585656  0.013848334            2 
 1528000   0.64873309   -8.3564438    267.20078  0.014572468  0.013836409            2 
 1529000   0.63530736   -8.3669851    267.16914  0.014561213  0.013824472            2 
 1530000   0.64152139     -8.35964    267.14876  0.014550586  0.013812523            2 
 1531000   0.64825686   -8.3580472    266.58617   0.01451046  0.013800624            2 
 1532000   0.63758073   -8.3458559     266.7308  0.014508855  0.013788704            1 
 1533000   0.63999667   -8.3676444    267.21034  0.014525459  0.013776807            1 
 1534000   0.65399254   -8.3814707    267.19696  0.014515263  0.013764912            4 
 1535000   0.63963143   -8.3728177    266.65329  0.014476292  0.013753036            1 
 1536000   0.62718366   -8.3783044    267.19233  0.014496111  0.013741173            1 
 1537000   0.64722942   -8.3612188    267.08182  0.014480688  0.013729309            2 
 1538000    0.6377812   -8.3685489    266.97118  0.014465279   0.01371745            1 
 1539000   0.63953348   -8.3745544    267.04243  0.014459737  0.013705598            2 
 1540000   0.63764693   -8.3879237    267.18079  0.014457835  0.013693747            2 
 1541000   0.64762078   -8.3955442    266.87524  0.014431929  0.013681879            2 
 1542000   0.62579459   -8.3984228    266.66949  0.014411451  0.013670028            3 
 1543000   0.63956042   -8.3919178    266.75606  0.014406787  0.013658195            2 
 1544000   0.62595399   -8.3892958    266.72163  0.014395597  0.013646362            2 
 1545000   0.63661703   -8.3748891    266.50268  0.014374471  0.013634547            1 
 1546000   0.63848243   -8.3712759    266.10052  0.014343495  0.013622752            5 
 1547000   0.64586539   -8.3869158    266.63946  0.014363255  0.013610947            4 
 1548000    0.6334025   -8.3516691    267.04105  0.014375595  0.013599168            1 
 1549000   0.64143854   -8.3838432    266.82417  0.014354647   0.01358741            3 
 1550000   0.62728586   -8.3992674    266.38256  0.014321643  0.013575633            2 
 1551000   0.64298542   -8.3899131    267.14438  0.014353341  0.013563888            2 
 1552000   0.62926442   -8.4083961    266.71841  0.014321221  0.013552127            2 
 1553000   0.63677759   -8.4027349    267.00254  0.014327245  0.013540402            1 
 1554000   0.64631447   -8.3845287    266.31322  0.014281061  0.013528665            3 
 1555000    0.6321983    -8.390177    266.48137  0.014280888   0.01351695            2 
 1556000   0.62574194   -8.3925832    266.39187  0.014266917  0.013505228            2 
 1557000   0.64430342    -8.385039    266.74964  0.014276902  0.013493534            3 
 1558000    0.6364634   -8.3955719    267.21093  0.014292412  0.013481865            2 
 1559000   0.64031216   -8.3615782    266.78096  0.014260261   0.01347023            2 
 1560000   0.63250057   -8.3881999    266.52943  0.014237683  0.013458596            2 
 1561000   0.63573705   -8.4138309    266.74387   0.01424001  0.013446945            2 
 1562000   0.62934694    -8.383001     266.8299  0.014235483   0.01343532            1 
 1563000    0.6342535   -8.4073595    266.36894  0.014201799  0.013423708            4 
 1564000   0.62102072   -8.3832228    267.24746  0.014239528   0.01341211            5 
 1565000   0.62668444   -8.3975536    266.94871  0.014214521  0.013400521            1 
 1566000   0.62674628   -8.3506389    267.15423  0.014216381  0.013388947            1 
 1567000   0.62486566   -8.3886294    266.54655  0.014174992  0.013377407            2 
 1568000   0.63931839   -8.3756798    267.26753  0.014204269  0.013365851            1 
 1569000   0.62545964   -8.3882546    267.04414  0.014183352  0.013354305            2 
 1570000   0.63065931   -8.3813574    266.94057   0.01416882  0.013342763            2 
 1571000   0.62138947   -8.4078313     266.5615  0.014139693   0.01333122            3 
 1572000   0.62881129   -8.4066673    266.43531  0.014124009  0.013319654            5 
 1573000   0.63345724   -8.3753333    266.67317  0.014127631  0.013308116            2 
 1574000   0.62524127   -8.4135947    266.95646  0.014133654  0.013296572            1 
 1575000   0.62602705   -8.4277609     266.1793  0.014083561  0.013285039            2 
 1576000    0.6133498   -8.4041723    266.51142  0.014092186  0.013273515            3 
 1577000   0.63181815   -8.4191045    266.56114  0.014085877     0.013262            2 
 1578000   0.64523927    -8.382958    266.78252  0.014088642  0.013250503            2 
 1579000    0.6290565    -8.406813    266.27405  0.014052884  0.013239015            2 
 1580000    0.6321635   -8.4131545    266.82833  0.014073224  0.013227533            3 
 1581000   0.62164877   -8.4132499     266.5796  0.014051212  0.013216066            1 
 1582000    0.6389277   -8.4104295    266.28359  0.014026738  0.013204621            3 
 1583000    0.6243264   -8.3778769    266.86231  0.014048342  0.013193195            1 
 1584000   0.61453182   -8.4059744    267.01658  0.014047589  0.013181789            1 
 1585000   0.62560463   -8.3868138    266.58575  0.014016075  0.013170391            1 
 1586000     0.626122   -8.4016526     266.3943  0.013997178  0.013158995            1 
 1587000    0.6299911   -8.4082859    266.60573  0.013999461  0.013147597            1 
 1588000   0.62269001   -8.3849204    266.57821  0.013989201  0.013136206            3 
 1589000   0.60642919   -8.4173731    266.31546  0.013966617  0.013124845            3 
 1590000   0.62722532   -8.4113422     266.6975  0.013977856  0.013113499            3 
 1591000   0.61745567   -8.4218656     266.7177  0.013970129  0.013102145            1 
 1592000   0.62972902   -8.3970141    266.77348  0.013964273  0.013090822            3 
 1593000   0.61640582   -8.4205405    267.17822   0.01397668  0.013079505            3 
 1594000   0.62058925   -8.4070017    266.93057  0.013954965  0.013068195            4 
 1595000   0.63598101   -8.3987378    266.02935   0.01389913  0.013056903            1 
 1596000   0.60914565   -8.4189331    266.61876  0.013921197  0.013045629            3 
 1597000   0.61347951   -8.4141773     266.6827  0.013915816  0.013034363            2 
 1598000   0.61715652   -8.4084582    266.64449  0.013905115  0.013023114            2 
 1599000   0.62061274   -8.3999169    266.01795  0.013863767   0.01301186            1 
 1600000   0.61663827   -8.4191223    266.63428  0.013887202  0.013000624            1 
 1601000   0.61048861   -8.3795594     266.3847  0.013865537  0.012989389            2 
 1602000   0.61962584   -8.4063394    266.38685  0.013856994  0.012978169            6 
 1603000   0.60600809   -8.4226123     266.6533  0.013862201  0.012966956            2 
 1604000   0.61450751   -8.4228081    266.43038  0.013841977  0.012955748            2 
 1605000   0.61814721   -8.4221957    266.25121   0.01382405   0.01294456            2 
 1606000   0.62083473   -8.4023266    266.40219  0.013823277  0.012933388            2 
 1607000   0.60999944   -8.4131713    266.43947  0.013816608  0.012922229            3 
 1608000   0.61548571   -8.4154824    266.99798   0.01383696  0.012911086            1 
 1609000   0.60995309   -8.4352478    266.61865  0.013808714  0.012899952            3 
 1610000   0.61607982   -8.4218536    266.54141  0.013796139   0.01288882            2 
 1611000   0.61487318   -8.4216068    266.84362  0.013803208   0.01287769            1 
 1612000   0.61112005    -8.435625    266.38416  0.013770894  0.012866569            1 
 1613000   0.59638509    -8.444442    266.51221  0.013768971   0.01285545            1 
 1614000   0.59381651   -8.4357252    266.59668  0.013764802  0.012844343            2 
 1615000   0.61127532   -8.4220479    266.31187  0.013741582   0.01283324            2 
 1616000    0.6179701    -8.441981    266.06558  0.013720379  0.012822157            3 
 1617000   0.60754453   -8.4369837    266.07553  0.013712406  0.012811083            2 
 1618000    0.6181924   -8.4413608     266.5992  0.013730902  0.012800013            7 
 1619000   0.60420284   -8.4451314    266.49547  0.013717082  0.012788945            2 
 1620000    0.6161452   -8.4307034    266.60673  0.013714338  0.012777901            2 
 1621000   0.61900046   -8.4493514    266.51121  0.013700967  0.012766873            2 
 1622000   0.59990871   -8.4299178    266.68818  0.013701612  0.012755862            1 
 1623000   0.60871708   -8.4500705    265.99053  0.013657349  0.012744852            2 
 1624000   0.61011005   -8.3939301    266.15386   0.01365732  0.012733859            2 
 1625000    0.6083306   -8.4452191    266.32864  0.013657879  0.012722869            2 
 1626000   0.60850829   -8.4502325    266.59254  0.013663004  0.012711891            1 
 1627000   0.61202061   -8.4430706    266.27718  0.013638454  0.012700911            2 
 1628000    0.5925521   -8.4450197     266.5293  0.013642982  0.012689951            5 
 1629000   0.60385708   -8.4244994    266.26603  0.013621139  0.012679011            3 
 1630000   0.59161635   -8.4423051    266.52853  0.013626203  0.012668075            2 
 1631000   0.60273932   -8.4430374    266.02974  0.013592364  0.012657137            2 
 1632000   0.60154624   -8.4635114    265.92437  0.013578655  0.012646196            2 
 1633000   0.59310878   -8.4440751    266.28222  0.013588601  0.012635286            4 
 1634000   0.61581958   -8.4181354    265.96436  0.013564074  0.012624387            3 
 1635000   0.59859622   -8.4563506    266.66435  0.013591455  0.012613492            4 
 1636000   0.59818541    -8.447665    266.09521  0.013554157  0.012602614            4 
 1637000   0.60968722   -8.4354674    266.44552   0.01356371  0.012591745            2 
 1638000    0.5859851   -8.4275182    266.42815  0.013554546  0.012580881            2 
 1639000   0.61226626    -8.441818    265.92915  0.013520905  0.012570026            2 
 1640000   0.60444952   -8.4422878     266.6489  0.013549233   0.01255919            1 
 1641000    0.6008892   -8.4480154    266.15964  0.013516131  0.012548358            3 
 1642000   0.60783308   -8.4647443    265.70987  0.013485073  0.012537536            2 
 1643000   0.59551311   -8.4625947    265.83402  0.013483162  0.012526733            1 
 1644000   0.60073668   -8.4336602    266.24228  0.013495655  0.012515924            1 
 1645000   0.59993264   -8.4644053    265.92846  0.013471553  0.012505142            2 
 1646000   0.59352309   -8.4314685    266.07767  0.013470923  0.012494363            2 
 1647000   0.59810644   -8.4658408    266.25201  0.013471565  0.012483593            2 
 1648000   0.60254933   -8.4461273    266.30676  0.013466159   0.01247283            1 
 1649000   0.60261498   -8.4532948    266.51538  0.013468535  0.012462073            2 
 1650000   0.61237835    -8.464144    265.93317  0.013430968  0.012451336            3 
 1651000   0.59794712   -8.4666169    266.22477  0.013437551  0.012440604            3 
 1652000    0.5975243   -8.4609092    266.11385  0.013423822   0.01242989            2 
 1653000   0.58556483   -8.4613747    265.99001  0.013409458  0.012419189            3 
 1654000   0.58702614    -8.471985    266.20872   0.01341237  0.012408499            3 
 1655000   0.58255213   -8.4661026    266.21676  0.013404671  0.012397812            1 
 1656000   0.57861932   -8.4775577    266.21557  0.013396516  0.012387132            3 
 1657000   0.57833198   -8.4643586    265.98165  0.013376667  0.012376444            3 
 1658000   0.58322725   -8.4501456    265.80182  0.013359561  0.012365779            1 
 1659000   0.59577234   -8.4722923    265.82282  0.013352563  0.012355121            3 
 1660000   0.59377099   -8.4734671    266.13666  0.013360274  0.012344479            2 
 1661000   0.59029729   -8.4795882    265.92387  0.013341555  0.012333835            2 
 1662000   0.60480022   -8.4819887    265.34614   0.01330456  0.012323196            3 
 1663000   0.58046854    -8.467205    265.88281  0.013323452  0.012312581            3 
 1664000   0.59721166   -8.4588381    266.06824  0.013324732  0.012301978            1 
 1665000   0.58921931   -8.4730463    265.73829  0.013300215  0.012291386            3 
 1666000   0.59548883   -8.4735741    265.81173  0.013295905  0.012280789            2 
 1667000    0.5890696   -8.4972304    266.27666  0.013311171  0.012270226            4 
 1668000   0.57843749   -8.4701975    265.38594   0.01325869   0.01225966            3 
 1669000   0.58125951   -8.4928833    266.23279  0.013293029  0.012249118            4 
 1670000   0.60014988   -8.4793022    266.09849  0.013278368  0.012238592            2 
 1671000   0.57911624   -8.4842323    266.13869  0.013272426  0.012228056            3 
 1672000   0.58766535   -8.4821359    265.59005  0.013237144  0.012217531            5 
 1673000   0.58412297   -8.4753127    265.87982  0.013243665  0.012207014            2 
 1674000   0.59275654   -8.4948392    266.13729  0.013248571  0.012196504            2 
 1675000   0.59279072   -8.4830865    265.74119  0.013220955     0.012186            1 
 1676000   0.58852068   -8.4871529    266.09308  0.013230563   0.01217549            2 
 1677000   0.58802785    -8.492934    266.13386    0.0132247  0.012165029            1 
 1678000   0.58302091   -8.4973666    265.78747  0.013199616  0.012154554            3 
 1679000   0.58904714   -8.4802779    265.42768  0.013173897  0.012144087            2 
 1680000   0.57795692   -8.5000387    265.70893  0.013180007  0.012133633            2 
 1681000   0.57521579   -8.4762964    265.54954  0.013164264  0.012123208            2 
 1682000   0.59026414   -8.5002824    265.75046  0.013166392  0.012112782            1 
 1683000   0.57944773   -8.4967561    266.13074  0.013177398  0.012102377            2 
 1684000   0.57481159   -8.4945683     266.0475  0.013165454  0.012091961            4 
 1685000   0.58392624   -8.4902788    265.84706  0.013147728  0.012081568            3 
 1686000   0.57697379   -8.4777078    266.00608   0.01314779  0.012071183            3 
 1687000   0.58262033   -8.4867554    266.16814  0.013148002  0.012060802            2 
 1688000   0.58036574   -8.4916492    265.68035  0.013116131  0.012050422            5 
 1689000   0.57876683   -8.5119248    265.59029  0.013103922   0.01204007            1 
 1690000   0.56991214   -8.4838411     266.1488  0.013123708  0.012029724            2 
 1691000   0.57522794   -8.4869954    265.69097  0.013093385  0.012019382            1 
 1692000    0.5703776   -8.5242729     266.1067  0.013106122  0.012009057            2 
 1693000   0.59409833    -8.527386    266.00881  0.013093562  0.011998749            2 
 1694000   0.56647486   -8.4834034     266.1747  0.013093994  0.011988448            1 
 1695000   0.58088692   -8.5019303    265.78247  0.013066985  0.011978155            2 
 1696000   0.56606102   -8.5041574    265.97869  0.013068922  0.011967862            4 
 1697000   0.57219261   -8.4886706    265.74534  0.013049761  0.011957583            3 
 1698000   0.56860441   -8.4720998     265.7522  0.013042413  0.011947311            2 
 1699000    0.5634704   -8.4967873     265.9372   0.01304381  0.011937044            1 
 1700000   0.56833079   -8.5112077    265.97045  0.013037767  0.011926786            2 
 1701000   0.58311024   -8.5019123    265.51976  0.013008023   0.01191654            2 
 1702000   0.57783118   -8.5148355    265.77095  0.013012678  0.011906313            2 
 1703000   0.57338924    -8.505122    265.90698  0.013011694  0.011896089            2 
 1704000   0.55536741   -8.5176502    265.59823  0.012988959  0.011885873            4 
 1705000   0.58228775   -8.4995193    265.70311  0.012986467  0.011875671            2 
 1706000   0.56348664   -8.5013747    265.31261  0.012959779  0.011865468            3 
 1707000   0.57027851   -8.5229583    265.46718  0.012959733  0.011855269            2 
 1708000   0.57478901   -8.5225494    265.63254  0.012960213  0.011845083            2 
 1709000   0.57338768   -8.5065491    265.14967  0.012929085  0.011834909            2 
 1710000   0.58305767   -8.4990432    265.41738   0.01293457  0.011824737            3 
 1711000   0.58122963   -8.5094968    265.37419  0.012924907  0.011814585            1 
 1712000   0.56171413   -8.5085268    265.10453  0.012904232   0.01180444            4 
 1713000   0.56814014   -8.5161101    265.38975  0.012910574  0.011794282            2 
 1714000   0.57597437   -8.5189976    265.64445  0.012915425  0.011784151            1 
 1715000   0.57481008   -8.5172516    265.89362  0.012920001  0.011774027            3 
 1716000   0.56195828   -8.5504842    265.21494  0.012879514    0.0117639            2 
 1717000   0.57605153   -8.5094603    265.33155  0.012877672  0.011753795            4 
 1718000   0.57015662   -8.5325739    264.78985    0.0128439  0.011743683            2 
 1719000   0.56482681   -8.5220962    265.03786  0.012848452   0.01173358            1 
 1720000   0.56523843   -8.5311259    265.46889  0.012861865  0.011723498            2 
 1721000   0.56739045   -8.5108247    265.01823   0.01283257  0.011713437            2 
 1722000   0.56839947   -8.5079653    265.51368  0.012849094  0.011703401            1 
 1723000   0.56701039    -8.498032    265.33261  0.012832879  0.011693348            3 
 1724000   0.56139677   -8.5149201    265.68173  0.012842311   0.01168333            4 
 1725000   0.57460376    -8.520217    265.53304  0.012827683  0.011673314            2 
 1726000    0.5617511   -8.4925359    265.19605  0.012803981  0.011663315            3 
 1727000    0.5725419   -8.5060893    265.39156  0.012806001  0.011653312            1 
 1728000   0.57186067   -8.5207762     265.3852  0.012798283  0.011643329            2 
 1729000   0.55940927   -8.5198117    265.53567  0.012798133  0.011633344            3 
 1730000   0.56221915   -8.5195965    265.58714  0.012793215  0.011623367            1 
 1731000   0.55575061   -8.5261081     265.2146   0.01276789  0.011613413            2 
 1732000   0.55608444   -8.5259053    265.61078  0.012779579  0.011603468            2 
 1733000   0.56360171   -8.5155795    265.30796  0.012757644  0.011593516            1 
 1734000   0.56861373   -8.5416317    265.45516  0.012757361  0.011583581            1 
 1735000   0.55679792   -8.5295061    265.80269    0.0127667  0.011573663            3 
 1736000   0.56903753   -8.5371608    265.10622  0.012725913  0.011563741            1 
 1737000   0.55979957   -8.5257277    265.52594  0.012738723  0.011553842            1 
 1738000   0.55095773   -8.5148585    265.26936  0.012719091  0.011543948            4 
 1739000   0.56393049   -8.5222078    265.46969  0.012721377  0.011534055            1 
 1740000   0.55203691   -8.5510308    265.27656  0.012704816  0.011524171            2 
 1741000   0.56713836   -8.5116347    265.44006  0.012705345  0.011514303            3 
 1742000   0.54732164   -8.5389661    265.22999  0.012688002  0.011504461            1 
 1743000   0.56840746   -8.5569404    265.00739   0.01267008  0.011494613            3 
 1744000   0.57780334   -8.5449604    265.27897  0.012675792  0.011484762            1 
 1745000   0.55737546   -8.5501713    265.02209   0.01265626  0.011474911            1 
 1746000   0.56912252   -8.5198022    265.30691  0.012662605  0.011465094            2 
 1747000   0.55494248   -8.5353399    265.32473  0.012656207  0.011455292            2 
 1748000   0.54498856   -8.5342995    265.25965  0.012645864  0.011445478            1 
 1749000   0.55018519   -8.5536071    265.41807  0.012646182  0.011435682            3 
 1750000    0.5401525   -8.5503611    265.17634  0.012627445  0.011425889            2 
 1751000   0.55974238   -8.5493998    265.47198  0.012634303  0.011416099            2 
 1752000   0.55703548   -8.5648834    264.66575  0.012588744  0.011406336            1 
 1753000   0.54196415   -8.5374076    264.90973  0.012593161   0.01139657            1 
 1754000   0.56049805   -8.5501971    265.19948  0.012599747  0.011386836            1 
 1755000   0.55463769   -8.5526077    265.49983   0.01260683  0.011377087            1 
 1756000   0.55048046   -8.5400257    265.14756  0.012582933  0.011367368            2 
 1757000   0.55032224    -8.547874    265.18363  0.012577482  0.011357644            3 
 1758000   0.55076874   -8.5563309    264.61463  0.012543356  0.011347935            1 
 1759000   0.56440477    -8.538188    264.88626  0.012549093  0.011338223            3 
 1760000   0.55332316   -8.5562428    264.88672  0.012541985   0.01132852            2 
 1761000    0.5671625   -8.5583484    264.98847  0.012539678  0.011318836            2 
 1762000    0.5435201   -8.5549573    265.13797  0.012539632  0.011309156            5 
 1763000   0.56001623   -8.5603075    265.23661  0.012537181  0.011299482            2 
 1764000   0.55337447   -8.5501712    265.05533   0.01252151  0.011289824            1 
 1765000   0.54999607    -8.568752    264.79933  0.012502329   0.01128018            2 
 1766000   0.54774221   -8.5598405    265.23958  0.012516024  0.011270535            2 
 1767000   0.53902639   -8.5667972    265.05584  0.012500276  0.011260892            1 
 1768000   0.55607673   -8.5550492     265.1387  0.012497111  0.011251273            1 
 1769000   0.53621947   -8.5675243    264.65066  0.012467056  0.011241655            2 
 1770000   0.54690674    -8.563611    264.64527  0.012459758  0.011232039            2 
 1771000    0.5303062    -8.554538    264.81992  0.012460941  0.011222446            1 
 1772000   0.55255387   -8.5488753    264.78897  0.012452453  0.011212859            2 
 1773000    0.5524266   -8.5491082    264.80579  0.012446221  0.011203275            2 
 1774000    0.5543425   -8.5758511    264.65456  0.012432101  0.011193701            3 
 1775000   0.53527975   -8.5538908    264.96901   0.01243986  0.011184149            2 
 1776000   0.54304746   -8.5538014    264.83024  0.012426344  0.011174595            2 
 1777000   0.53886629   -8.5513219    264.51052  0.012404357  0.011165049            2 
 1778000   0.54870845   -8.5567177    264.72275  0.012407328  0.011155514            1 
 1779000   0.53701068   -8.5532756    264.45976  0.012388034  0.011146008            1 
 1780000   0.54665678   -8.5575502    264.85252  0.012399462    0.0111365            2 
 1781000   0.54113334   -8.5784899    265.24204  0.012410726  0.011127016            2 
 1782000   0.54427417   -8.5535041    264.70056   0.01237844  0.011117525            3 
 1783000   0.54267109   -8.5919033    264.61454  0.012367477   0.01110805            1 
 1784000   0.53149978   -8.5725749    264.91779   0.01237471  0.011098577            3 
 1785000   0.55450987   -8.5860774    265.04394  0.012373667  0.011089117            2 
 1786000   0.53910376   -8.5588971    264.45837  0.012339416  0.011079656            3 
 1787000   0.54759957   -8.5838043    264.66036  0.012341931   0.01107023            5 
 1788000   0.54431543   -8.5832223    265.25662  0.012362818  0.011060799            3 
 1789000   0.54360371   -8.5734307    265.44482  0.012364674   0.01105138            3 
 1790000   0.53489798   -8.5731137    264.88281  0.012331602  0.011041959            4 
 1791000   0.53873444   -8.5912481    264.29655  0.012297439   0.01103255            2 
 1792000   0.54928089    -8.580287    264.84707  0.012316177   0.01102315            1 
 1793000   0.54319109   -8.5618582    264.79233  0.012306764  0.011013764            1 
 1794000   0.52990066   -8.5706671    264.57191  0.012289665  0.011004384            1 
 1795000   0.53880815   -8.5909779    264.82708  0.012294665  0.010995017            2 
 1796000   0.54377656   -8.5655277    264.78485   0.01228586  0.010985668            2 
 1797000   0.55039944   -8.5831135    265.31233  0.012303484  0.010976342            2 
 1798000   0.52992256   -8.5874655    264.39616  0.012254179  0.010966998            2 
 1799000   0.53789534   -8.5856172    264.23991  0.012240129  0.010957668            1 
 1800000   0.52705385   -8.5961611    264.56419  0.012248342  0.010948336            1 
 1801000   0.53322771   -8.5664892    264.78288   0.01225166  0.010939017            3 
 1802000   0.53360062    -8.577017    264.52976  0.012233156  0.010929715            1 
 1803000   0.53255526   -8.5978818    264.75567  0.012236812   0.01092042            2 
 1804000   0.53083907   -8.5847868    264.74111  0.012229357  0.010911147            1 
 1805000    0.5421128    -8.590265     264.3958  0.012206639  0.010901872            1 
 1806000   0.53741196   -8.6057709    264.68625  0.012213282  0.010892609            1 
 1807000   0.52699659   -8.5907242    264.42247  0.012194359  0.010883353            3 
 1808000   0.53560424   -8.5906397    264.65285  0.012198232  0.010874113            2 
 1809000    0.5351101   -8.5861361    265.01257   0.01220806  0.010864876            2 
 1810000   0.52762941   -8.5930173    264.48293  0.012176931  0.010855661            2 
 1811000    0.5150165   -8.5880927     264.5762  0.012174498  0.010846456            2 
 1812000   0.52154524   -8.5784934    264.42306  0.012160737  0.010837258            1 
 1813000   0.53061059   -8.5933577    264.88543  0.012175282  0.010828078            1 
 1814000   0.54089052    -8.592792    264.36838  0.012144817  0.010818898            3 
 1815000   0.54108508   -8.5898157    264.43501  0.012141185  0.010809724            3 
 1816000   0.52022151   -8.5995829    264.73407  0.012148223  0.010800559            2 
 1817000   0.52333721   -8.5639066      264.527   0.01213204  0.010791413            3 
 1818000   0.52679788   -8.5886015     264.7728  0.012136634  0.010782282            1 
 1819000   0.53187772    -8.592029    264.61056  0.012122529  0.010773164            1 
 1820000   0.53494389   -8.5901067    264.54055  0.012112662  0.010764043            2 
 1821000   0.52167858   -8.5971443    264.84025  0.012119726  0.010754934            2 
 1822000   0.51987427   -8.5891864    264.57467  0.012100927  0.010745837            4 
 1823000   0.52325836   -8.6028983    264.40899  0.012086715  0.010736743            1 
 1824000   0.50431002   -8.6131837    264.17258  0.012069288  0.010727657            2 
 1825000   0.52971793   -8.6038471    264.85151  0.012093676  0.010718582            2 
 1826000   0.52419834   -8.5864741    264.53742  0.012072719  0.010709524            2 
 1827000   0.52147106   -8.6013621    264.85035  0.012080384  0.010700471            1 
 1828000   0.51320353   -8.6022005    264.39462  0.012053001  0.010691426            2 
 1829000   0.53031569   -8.5895321    264.31228  0.012042659  0.010682387            4 
 1830000   0.53829766   -8.6096531    263.98769  0.012021297   0.01067336            2 
 1831000   0.52932431   -8.6037691    264.40002  0.012033498  0.010664334            3 
 1832000   0.51528001   -8.6150352    264.88694  0.012049078  0.010655322            1 
 1833000   0.52740348     -8.60869    264.33921  0.012017604  0.010646308            3 
 1834000    0.5314049   -8.5959578    264.29647  0.012009109  0.010637303            2 
 1835000   0.52921817   -8.6227467    264.25295  0.012000588  0.010628311            3 
 1836000   0.51835777   -8.5925488    264.05081  0.011984877   0.01061933            1 
 1837000   0.52772565   -8.6087573     264.2032  0.011985266  0.010610361            1 
 1838000   0.52119014   -8.6090761    264.83172  0.012007242  0.010601402            2 
 1839000   0.52049857   -8.6052554    263.90112  0.011958543  0.010592437            2 
 1840000   0.51758949   -8.6332238     264.3328  0.011971594  0.010583487            3 
 1841000   0.52402834   -8.6079523    264.76122  0.011984484  0.010574551            4 
 1842000   0.53358711   -8.6236645    264.18822  0.011952055  0.010565623            4 
 1843000   0.50574886   -8.6204978    264.37046   0.01195381  0.010556702            1 
 1844000   0.52030325    -8.615043    264.23956  0.011941412  0.010547793            1 
 1845000   0.52165091   -8.6133512    264.31047  0.011938142  0.010538902            3 
 1846000   0.51559355    -8.621976      263.994  0.011917389  0.010530017            3 
 1847000   0.51183056   -8.6187196    264.43128  0.011930666  0.010521135            3 
 1848000   0.52525276    -8.618058    264.35695  0.011920858  0.010512264            4 
 1849000   0.51598927   -8.6194125    264.01546   0.01189902  0.010503393            3 
 1850000   0.51754601   -8.6039613     264.1938  0.011900621  0.010494537            4 
 1851000   0.51443016   -8.6067019    264.62843   0.01191376  0.010485695            4 
 1852000   0.52072845   -8.6036632    264.26394  0.011890926  0.010476866            3 
 1853000   0.51632347   -8.6372024    264.71544  0.011904814  0.010468044            4 
 1854000   0.51636403    -8.599595    264.30887  0.011880118  0.010459225            6 
 1855000   0.51733929   -8.6192332    263.95322  0.011857737   0.01045041            4 
 1856000   0.52248531   -8.6262352    264.35808  0.011869526  0.010441614            3 
 1857000   0.51815227   -8.6299196    264.04831  0.011849233  0.010432822            1 
 1858000   0.50051691   -8.6227601    264.03885  0.011842432  0.010424039            1 
 1859000   0.50954803   -8.6294103    264.41999  0.011853146  0.010415273            2 
 1860000   0.50977316   -8.6197917    263.97147  0.011826679  0.010406507            1 
 1861000   0.50025729   -8.6294144    263.70693  0.011808478  0.010397744            1 
 1862000   0.50759928   -8.6115437    264.15595  0.011822232  0.010388993            1 
 1863000   0.51248996   -8.6038414    264.27558  0.011821237  0.010380267            1 
 1864000    0.5120962   -8.6128749    264.04023  0.011804374  0.010371546            3 
 1865000   0.50452426   -8.6365682     264.2083  0.011805554  0.010362821            6 
 1866000   0.50991655   -8.6206718    264.73477  0.011822739  0.010354114            2 
 1867000   0.50751037    -8.619888    264.26602  0.011795484   0.01034541            4 
 1868000   0.50986177     -8.63603    264.28643   0.01179008  0.010336721            2 
 1869000    0.5087447    -8.610929    264.51481  0.011793955   0.01032804            1 
 1870000   0.51575814   -8.6297492    264.05456  0.011767137  0.010319373            1 
 1871000   0.51382295   -8.6390136    263.86453  0.011752384  0.010310707            1 
 1872000   0.51489434   -8.6296772    264.37723  0.011768929  0.010302057            2 
 1873000   0.51318354   -8.6351111    264.32538  0.011760339  0.010293411            3 
 1874000   0.51474434   -8.6255114    264.06076  0.011742296  0.010284776            1 
 1875000   0.50523151   -8.6228869    264.09083   0.01173737  0.010276149            1 
 1876000   0.50427506    -8.636989    264.19949   0.01173594  0.010267528            1 
 1877000   0.49430878   -8.6302193    263.97568  0.011719751   0.01025891            2 
 1878000   0.50175784   -8.6495271    263.68597  0.011700656  0.010250307            2 
 1879000   0.50682038   -8.6387494    263.98115  0.011707519  0.010241708            3 
 1880000   0.50457795   -8.6495642    264.59164  0.011728353  0.010233115            4 
 1881000   0.50038645    -8.639855      263.983  0.011695153  0.010224539            3 
 1882000   0.50241187   -8.6443062    263.65486  0.011674409  0.010215966            6 
 1883000   0.49459881   -8.6356055    263.75276  0.011672542  0.010207406            3 
 1884000   0.51144428    -8.644366    264.16735  0.011684685   0.01019886            5 
 1885000   0.49718547   -8.6502059    264.35126  0.011686616  0.010190325            1 
 1886000   0.50934597    -8.632359    264.30203  0.011678245  0.010181792            1 
 1887000   0.49963821   -8.6518716     264.0066  0.011659009  0.010173275            3 
 1888000   0.49900796   -8.6376261     264.1423  0.011658823  0.010164753            3 
 1889000   0.51055751   -8.6199736    263.85118  0.011639809  0.010156237            6 
 1890000   0.49037595   -8.6475107    263.86706   0.01163435  0.010147746            1 
 1891000   0.49838487   -8.6439667    264.10696   0.01163877  0.010139263            3 
 1892000   0.50233254   -8.6614806    263.78954  0.011618637  0.010130787            7 
 1893000   0.49727243    -8.655119    264.07246  0.011624954  0.010122318            6 
 1894000     0.498897   -8.6517657    264.30651  0.011629114   0.01011387            2 
 1895000   0.49129274   -8.6364022    263.93552  0.011606663  0.010105416            6 
 1896000   0.49058341   -8.6510085     263.6813  0.011589368  0.010096975            1 
 1897000   0.49545593   -8.6242907    264.10798  0.011602002  0.010088544            2 
 1898000   0.49142657   -8.6462046    263.92902  0.011588032  0.010080121            1 
 1899000   0.49340601   -8.6602304    263.89484   0.01158043  0.010071696            4 
 1900000   0.49726478   -8.6476084    264.12937  0.011584621  0.010063284            1 
 1901000   0.49640543   -8.6482297    263.69413  0.011559448  0.010054883            4 
 1902000    0.5023476    -8.652626    263.83019  0.011559332  0.010046497            4 
 1903000   0.48814059    -8.642146    263.73408  0.011549049   0.01003812            5 
 1904000   0.50261518   -8.6579244    263.67898  0.011540572  0.010029746            4 
 1905000   0.49662414   -8.6567969    263.71435  0.011536061  0.010021382            4 
 1906000   0.47775668   -8.6682832    263.98605  0.011541887  0.010013025            6 
 1907000   0.49237178   -8.6423696    263.42675  0.011511394   0.01000468            2 
 1908000   0.49604316   -8.6475836    263.55277  0.011510865 0.0099963423            4 
 1909000   0.47706635   -8.6472008    263.82009  0.011516505 0.0099880153            7 
 1910000   0.48099032   -8.6547743    263.79343  0.011509312 0.0099796957            5 
 1911000   0.48501535    -8.655922    263.87445  0.011506822 0.0099713721            6 
 1912000   0.49357176   -8.6691743    263.99747  0.011506166 0.0099630678            5 
 1913000   0.48887602    -8.662802     263.6093  0.011483242 0.0099547749            2 
 1914000   0.48594622   -8.6593929    264.04246  0.011496102 0.0099464867            2 
 1915000    0.4895461    -8.672362    263.71562  0.011475876 0.0099382098            2 
 1916000   0.48880558   -8.6598482    263.49225  0.011460171 0.0099299352            6 
 1917000   0.48628402   -8.6639732    263.80351  0.011467724 0.0099216758            4 
 1918000    0.5022729   -8.6708564    263.71322  0.011457821 0.0099134209            1 
 1919000   0.49310072   -8.6722807    264.04965   0.01146646 0.0099051702            4 
 1920000   0.48272506    -8.669978    263.94802  0.011456077 0.0098969292            4 
 1921000    0.4823658   -8.6714501    263.61771  0.011435785 0.0098886953            1 
 1922000   0.48600946   -8.6641817    263.33957  0.011417775 0.0098804662            3 
 1923000   0.48288185   -8.6605924    264.08243   0.01144403 0.0098722495           10 
 1924000   0.48658858   -8.6757858    263.37582  0.011407477 0.0098640479            1 
 1925000   0.47812345   -8.6689565    263.89638  0.011424086 0.0098558517            3 
 1926000   0.47668083   -8.6730274    263.81011  0.011414422 0.0098476578            2 
 1927000    0.4841447   -8.6601947    263.73093  0.011405074 0.0098394769            6 
 1928000    0.4834946   -8.6736715    263.77596  0.011401105 0.0098313091            6 
 1929000   0.48801217    -8.660298    263.78655  0.011395652 0.0098231499            1 
 1930000   0.49029375   -8.6626436    263.53981  0.011379094 0.0098149955            4 
 1931000   0.49062493   -8.6570101     264.1306  0.011398697 0.0098068568            3 
 1932000   0.47878608   -8.6675774    263.75392  0.011376549 0.0097987268            6 
 1933000   0.47339713   -8.6684337    263.42895  0.011356654 0.0097906027            5 
 1934000   0.49135841   -8.6594555    263.78085  0.011365945 0.0097824882            4 
 1935000   0.47121417   -8.6723304    263.66126  0.011354921 0.0097743822            2 
 1936000   0.48205691   -8.6781572    263.38328   0.01133709 0.0097662826            3 
 1937000   0.49724526   -8.6680105    263.51098  0.011336731 0.0097581945            2 
 1938000    0.4809906   -8.6630233    263.40313  0.011326244 0.0097501192            3 
 1939000   0.47444451   -8.6725646    263.57071  0.011327605 0.0097420445            6 
 1940000   0.47933277   -8.6794822    262.96771  0.011295864 0.0097339763            3 
 1941000     0.481017   -8.6789531    263.36205  0.011306975 0.0097259218            6 
 1942000   0.48439786   -8.6706763     263.5664  0.011309921 0.0097178691            3 
 1943000   0.47890117   -8.6785307    263.36911  0.011295639 0.0097098244            4 
 1944000   0.49005436   -8.6937594    263.38965  0.011290709 0.0097017958            2 
 1945000   0.47123282   -8.6615181    263.51717  0.011290367  0.009693764            2 
 1946000   0.47189113   -8.6832642    263.74947  0.011294513  0.009685751            5 
 1947000   0.47915163   -8.6760017    263.35548  0.011271849 0.0096777478            6 
 1948000   0.48465326   -8.6749988    263.73596  0.011282339 0.0096697399            1 
 1949000   0.47933578    -8.689807    263.28747  0.011257374 0.0096617513            5 
 1950000   0.47917551   -8.6785525    263.69871  0.011269176 0.0096537667            2 
 1951000   0.48444512   -8.6859363    263.45159  0.011252844  0.009645784            4 
 1952000   0.46793755   -8.6727434    263.63575  0.011254942 0.0096378182            2 
 1953000   0.48411662   -8.6774077    263.56095  0.011245987 0.0096298597            1 
 1954000   0.46765098   -8.6812198    263.18364   0.01122414 0.0096219049            5 
 1955000   0.47371034    -8.676006    263.32439  0.011224399 0.0096139705            4 
 1956000   0.48408978    -8.685323    263.32997  0.011218898 0.0096060344            2 
 1957000   0.46239404   -8.6890448    263.44338  0.011217994 0.0095981038            5 
 1958000   0.46839768   -8.6698524    263.64235  0.011220733   0.00959019            3 
 1959000   0.46732732   -8.6790063    263.77583  0.011220683 0.0095822796            2 
 1960000   0.46679609   -8.6813844    263.90994  0.011220661 0.0095743686            3 
 1961000   0.47634218   -8.6794318    263.24759  0.011186792  0.009566465            4 
 1962000   0.47121708    -8.685292     263.7575  0.011202748 0.0095585764            2 
 1963000   0.47285093   -8.6748306    263.11596  0.011169807 0.0095506931            5 
 1964000      0.47475   -8.6840174    263.34827  0.011173976 0.0095428229            6 
 1965000   0.45685863   -8.6939428    263.07057  0.011156513 0.0095349539            3 
 1966000   0.47199215   -8.7059771    263.38389  0.011164119 0.0095270911            2 
 1967000   0.46002673   -8.6942326    263.84445  0.011177955 0.0095192451            5 
 1968000   0.48345575   -8.6829076    263.55395  0.011159974 0.0095114004            5 
 1969000   0.46974868   -8.6892204    263.33882  0.011145201 0.0095035743            3 
 1970000   0.47731751   -8.6948214     263.2712  0.011136684 0.0094957413            2 
 1971000   0.46633649   -8.6805492    263.45388  0.011138757 0.0094879154            5 
 1972000   0.46286643   -8.6849143     263.5366  0.011136604 0.0094801031            3 
 1973000   0.46263485    -8.691977    263.68997  0.011137438 0.0094723122            4 
 1974000   0.47053974   -8.7035477     263.3119  0.011115835 0.0094645188            4 
 1975000   0.46725219   -8.7051347    263.17578  0.011104463 0.0094567407            2 
 1976000   0.46607863   -8.7024732    263.20037  0.011099881 0.0094489605            7 
 1977000    0.4697356   -8.6939971    263.38943  0.011102235 0.0094411971            6 
 1978000   0.46136887   -8.6982938    263.49741  0.011101171  0.009433441            3 
 1979000   0.46344762   -8.6998203    263.11919  0.011079636 0.0094256922            2 
 1980000   0.46317204     -8.67874    263.29624  0.011081492 0.0094179482            6 
 1981000   0.46886267   -8.7083753    263.32479  0.011077099 0.0094102175            5 
 1982000   0.46372014   -8.6966934    263.11242  0.011062581 0.0094024911            4 
 1983000   0.46547504   -8.7077915    263.22001  0.011061523 0.0093947747            5 
 1984000   0.46471833   -8.7035601    262.78804  0.011037804 0.0093870673            5 
 1985000   0.47024878   -8.6979785     263.0114  0.011041621 0.0093793601            4 
 1986000   0.46055062   -8.6996425    263.04803  0.011037598 0.0093716562            6 
 1987000   0.47181595   -8.6917076    263.33199  0.011043952 0.0093639645            2 
 1988000   0.46209291   -8.6995297    263.68693  0.011053275 0.0093562807            3 
 1989000   0.45216779   -8.7092157    263.17479  0.011026261 0.0093486071            6 
 1990000   0.46120851   -8.7045723    263.26814  0.011024629 0.0093409395            3 
 1991000   0.45354879   -8.7078365    263.24666  0.011018193 0.0093332774            6 
 1992000   0.45235296   -8.6937733    262.91228  0.010998673 0.0093256295            3 
 1993000   0.44692124   -8.7194843    263.07436  0.010999932 0.0093179818            5 
 1994000   0.45912745   -8.7002514    263.10568  0.010995724  0.009310348            3 
 1995000   0.46290338   -8.6990681    263.22578  0.010995229 0.0093027215            6 
 1996000   0.44062587   -8.6980964    263.09241  0.010984152 0.0092951099            6 
 1997000   0.44885037   -8.7011516    263.16641   0.01098174 0.0092875066            3 
 1998000   0.45415332   -8.6897727     263.0093   0.01096969 0.0092799099            5 
 1999000   0.44489783   -8.7047858    262.70494  0.010951515  0.009272314            3 
 2000000   0.45401366   -8.7116993    263.32947  0.010972061 0.0092647258            4 
 2001000   0.45570272   -8.7094884    263.55684  0.010976047 0.0092571464            6 
 2002000   0.45355678   -8.7199087    262.92697  0.010944346 0.0092495747            5 
 2003000   0.45122057   -8.7193255    263.34096  0.010956106 0.0092420133            3 
 2004000   0.44741189   -8.7129992    263.03178  0.010937782 0.0092344667            2 
 2005000   0.45693633   -8.7008556    263.25969  0.010941799 0.0092269181            2 
 2006000   0.44850113   -8.7074845    262.76302  0.010915712 0.0092193746            1 
 2007000   0.45168682   -8.7146081    263.21466  0.010929026 0.0092118436            6 
 2008000   0.45316186   -8.7270307    263.14077  0.010920517 0.0092043193            3 
 2009000   0.44352771   -8.7185812    262.65678  0.010895005 0.0091968015            6 
 2010000   0.45163803   -8.7247059    263.09559  0.010907777 0.0091892922            3 
 2011000   0.44447027     -8.72655    263.18196  0.010905932  0.009181787            5 
 2012000   0.45454514   -8.7297517    262.93134  0.010890132 0.0091742994            5 
Loop time of 4900.64 on 48 procs for 2000000 steps with 4000 atoms

Performance: 70521.367 tau/day, 408.110 timesteps/s
99.4% CPU use with 48 MPI tasks x no OpenMP threads

MPI task timing breakdown:
Section |  min time  |  avg time  |  max time  |%varavg| %total
---------------------------------------------------------------
Pair    | 297.46     | 320.96     | 340.3      |  60.9 |  6.55
Neigh   | 32.064     | 33.194     | 34.375     |  10.3 |  0.68
Comm    | 290.89     | 318.07     | 349.44     |  81.7 |  6.49
Output  | 4.258      | 4.2601     | 4.3046     |   0.3 |  0.09
Modify  | 4157.2     | 4179       | 4198.4     |  14.3 | 85.27
Other   |            | 45.2       |            |       |  0.92

Nlocal:        83.3333 ave          92 max          75 min
Histogram: 2 1 7 8 9 8 3 4 5 1
Nghost:        2079.94 ave        2093 max        2062 min
Histogram: 2 3 1 5 5 8 4 12 5 3
Neighs:        13510.4 ave       15300 max       11676 min
Histogram: 1 1 7 6 11 7 7 2 2 4
FullNghs:      27020.2 ave       30049 max       24315 min
Histogram: 3 1 7 11 7 4 8 3 3 1

Total # of neighbors = 1296969
Ave neighs/atom = 324.24225
Neighbor list builds = 107005
Dangerous builds = 0

#clear
#
#next RN
#
#jump SELF
Total wall time: 1:21:44
