
units lj                  # Use reduced LJ style units
atom_style atomic         # Uncharged point particles
atom_modify map hash      # Needed for indexing of clusters etc
                          # Used to be able to find where atoms are in relation to each other.

lattice fcc 1.0 spacing 1 1 1
Lattice spacing in x,y,z = 1.5874011 1.5874011 1.5874011
region box block 0 10 0 10 0 10 units lattice
create_box 2 box
Created orthogonal box = (0.0000000 0.0000000 0.0000000) to (15.874011 15.874011 15.874011)
  3 by 4 by 4 MPI processor grid
create_atoms 1 box
Created 4000 atoms
  using lattice units in orthogonal box = (0.0000000 0.0000000 0.0000000) to (15.874011 15.874011 15.874011)
  create_atoms CPU = 0.002 seconds
set type 1 type/fraction 2 0.19 78393
Setting atom values ...
  784 settings made for type/fraction
mass 1 1.0
mass 2 1.0
pair_style lj/cut  3.5
pair_modify tail  yes
pair_coeff 1  1  1.0  1.0   # Intearaction between 1 and 1 set with epsilon = 1 and sigma = 1
pair_coeff 1  2  1.5  0.8
pair_coeff 2  2  0.5  0.88

write_data data.0
System init for write_data ...
Neighbor list info ...
  update every 1 steps, delay 10 steps, check yes
  max neighbors/atom: 2000, page size: 100000
  master list distance cutoff = 3.8
  ghost atom cutoff = 3.8
  binsize = 1.9, bins = 9 9 9
  1 neighbor lists, perpetual/occasional/extra = 1 0 0
  (1) pair lj/cut, perpetual
      attributes: half, newton on
      pair build: half/bin/atomonly/newton
      stencil: half/bin/3d
      bin: standard
WARNING: Not all mixed pair coeffs generated from mixing. Use write_data with 'pair ij' option to store all pair coeffs. (../write_data.cpp:312)


#############################
#   M E L T   S Y S T E M   #
#############################

velocity all create 2.4 9580093 mom yes dist gaussian # Assign velocities
                                                    # Temperature 2.4, random number seed, zero linear momentum
                                                                                # Gaussian distribution

timestep 0.002   # simulation timestep
thermo 1000       # output thermodynamic data every 1000 steps bf 100

# Define a fix  in this case with index 1 applied to all
# particles in the simulation. This fix is for simulations
# in the anisotropic NPT ensemble. Note that we use the MTK
# correction.
fix 1 all npt temp 2.4 2.4 0.1 iso 5.68 5.68 0.5 mtk yes tchain 5 pchain 5 # Use NPT ensemble
                                                                         # Set temperature and pressure and damping
                                                                         # Numbers of thermostats in chain and in barostat
run 10000          # run for 10000 steps
Per MPI rank memory allocation (min/avg/max) = 3.642 | 3.644 | 3.648 Mbytes
Step Temp E_pair E_mol TotEng Press Volume 
       0          2.4   -7.1181064            0   -3.5190064   -3.5570023         4000 
    1000    2.4077357   -4.7448708            0   -1.1341703    5.6792196    4549.0236 
    2000     2.371453   -4.8041449            0   -1.2478548    5.5207876     4524.646 
    3000     2.373136   -4.8220594            0   -1.2632454    5.7483097    4503.3944 
    4000    2.3742102   -4.7854679            0   -1.2250429    5.8930041    4498.5566 
    5000    2.3912003   -4.7850048            0    -1.199101     5.778961    4517.2569 
    6000    2.4060013   -4.7674572            0   -1.1593574    5.7480083    4536.4565 
    7000    2.3801597    -4.828756            0   -1.2594089    5.5485947    4518.5662 
    8000    2.4156268   -4.8355381            0   -1.2130037    5.6313621    4516.1429 
    9000    2.4061407   -4.7646867            0    -1.156378    5.9643439    4504.7984 
   10000     2.377464   -4.8174838            0   -1.2521793    5.5378783    4535.4854 
Loop time of 2.26015 on 48 procs for 10000 steps with 4000 atoms

Performance: 764550.066 tau/day, 4424.480 timesteps/s
99.6% CPU use with 48 MPI tasks x no OpenMP threads

MPI task timing breakdown:
Section |  min time  |  avg time  |  max time  |%varavg| %total
---------------------------------------------------------------
Pair    | 0.95232    | 1.0232     | 1.1706     |   3.8 | 45.27
Neigh   | 0.1944     | 0.20304    | 0.23488    |   1.3 |  8.98
Comm    | 0.60858    | 0.78449    | 0.84686    |   5.2 | 34.71
Output  | 0.00026701 | 0.00027278 | 0.00041192 |   0.0 |  0.01
Modify  | 0.20377    | 0.23437    | 0.27221    |   4.6 | 10.37
Other   |            | 0.01481    |            |       |  0.66

Nlocal:        83.3333 ave          92 max          74 min
Histogram: 1 4 2 7 4 10 11 6 2 1
Nghost:        1512.92 ave        1539 max        1473 min
Histogram: 1 2 3 6 3 5 9 8 6 5
Neighs:        8406.65 ave        9538 max        7221 min
Histogram: 2 3 5 3 9 9 9 4 2 2

Total # of neighbors = 403519
Ave neighs/atom = 100.87975
Neighbor list builds = 904
Dangerous builds = 198

# Equilibrate just above the melting temperature to avoid step fn in T

fix 1 all npt temp 1.25 1.25 0.1 iso 5.68 5.68 0.5 mtk yes tchain 5 pchain 5
run 2000
Per MPI rank memory allocation (min/avg/max) = 3.642 | 3.644 | 3.648 Mbytes
Step Temp E_pair E_mol TotEng Press Volume 
   10000     2.377464   -4.8174838            0   -1.2521793    5.5378783    4535.4854 
   11000    1.2525133   -6.4795878            0   -4.6012875    5.4947912     3709.166 
   12000    1.2219669    -6.525374            0    -4.692882    5.4737667    3692.2809 
Loop time of 0.508102 on 48 procs for 2000 steps with 4000 atoms

Performance: 680178.192 tau/day, 3936.216 timesteps/s
99.6% CPU use with 48 MPI tasks x no OpenMP threads

MPI task timing breakdown:
Section |  min time  |  avg time  |  max time  |%varavg| %total
---------------------------------------------------------------
Pair    | 0.21948    | 0.24273    | 0.29208    |   2.5 | 47.77
Neigh   | 0.031942   | 0.034192   | 0.040216   |   0.8 |  6.73
Comm    | 0.12916    | 0.17474    | 0.19796    |   3.5 | 34.39
Output  | 6.794e-05  | 6.9669e-05 | 8.2445e-05 |   0.0 |  0.01
Modify  | 0.039173   | 0.051822   | 0.0683     |   4.4 | 10.20
Other   |            | 0.004546   |            |       |  0.89

Nlocal:        83.3333 ave          93 max          75 min
Histogram: 2 2 6 12 5 8 6 5 0 2
Nghost:        1733.90 ave        1760 max        1697 min
Histogram: 1 2 3 6 4 5 11 9 3 4
Neighs:        10349.3 ave       11759 max        9056 min
Histogram: 3 0 5 8 10 11 6 2 1 2

Total # of neighbors = 496767
Ave neighs/atom = 124.19175
Neighbor list builds = 142
Dangerous builds = 5

#############################
# L I N E A R  Q U E N C H  #
#############################

# Define solid atoms. This closely follows ten Wolde  Ruiz-Montero and Frenkel  Faraday Discuss  1996  104  93-110
# Compute components of the per-atom q6 vector
compute q6 all orientorder/atom degrees 1 6 components 6 nnn NULL cutoff 1.3 # compute the Q6 parameter.
                                                                             # Use all neighbours within 1.3 unit cell.

# get number of connections
compute coord_number all coord/atom orientorder q6 0.5

# An atom is solid if it has 8 or more connections (of a possible 14)
variable is_solid atom c_coord_number>=8
group solid dynamic all var is_solid    # Must be dynamic to update
dynamic group solid defined

# do clustering
compute cluster solid cluster/atom 1.3 # Create a cluster where all atoms within are solid and max 1.3 units from another member

# define chunks one chunk per cluster
compute clus_chunks solid chunk/atom c_cluster nchunk every compress yes  # Says which atoms are in which chunk

# count the size of each chunk
compute size_chunks solid property/chunk clus_chunks count


# Find the maximum entry in the vector of chunk sizes
variable max_n equal max(c_size_chunks)


# Thermo style which includes this variable
# thermo_style custom step temp pe vol v_max_n

thermo ${N}  # Print the thermo information every 100 steps
thermo 1000  

# Reset the npt fix at a lower temperature (below freezing)
fix 1  all npt temp  ${temp} ${temp}  0.1  iso  5.68  5.68  0.5  mtk yes tchain  5  pchain  5
fix 1  all npt temp  0.45 ${temp}  0.1  iso  5.68  5.68  0.5  mtk yes tchain  5  pchain  5
fix 1  all npt temp  0.45 0.45  0.1  iso  5.68  5.68  0.5  mtk yes tchain  5  pchain  5

dump dmp2 all dcd ${N} traj.dcd
dump dmp2 all dcd 1000 traj.dcd


compute msd all msd com yes
variable twopoint equal c_msd[4]/6/(step*dt+1.0e-6)
fix 9 all vector 10 c_msd[4]
variable fit equal slope(f_9)/6/(10*dt)
thermo_style custom step temp pe c_msd[4] v_twopoint v_fit v_max_n

fix 1 all npt temp 1.25 ${temp} 0.1 iso 5.68 5.68 0.5 mtk yes tchain 5 pchain 5
fix 1 all npt temp 1.25 0.45 0.1 iso 5.68 5.68 0.5 mtk yes tchain 5 pchain 5
run 5000000 # 5000000  # Run for this many steps
Neighbor list info ...
  update every 1 steps, delay 10 steps, check yes
  max neighbors/atom: 2000, page size: 100000
  master list distance cutoff = 3.8
  ghost atom cutoff = 3.8
  binsize = 1.9, bins = 9 9 9
  4 neighbor lists, perpetual/occasional/extra = 1 3 0
  (1) pair lj/cut, perpetual
      attributes: half, newton on
      pair build: half/bin/atomonly/newton
      stencil: half/bin/3d
      bin: standard
  (2) compute orientorder/atom, occasional
      attributes: full, newton on
      pair build: full/bin/atomonly
      stencil: full/bin/3d
      bin: standard
  (3) compute coord/atom, occasional
      attributes: full, newton on
      pair build: full/bin/atomonly
      stencil: full/bin/3d
      bin: standard
  (4) compute cluster/atom, occasional
      attributes: full, newton on
      pair build: full/bin/atomonly
      stencil: full/bin/3d
      bin: standard
Per MPI rank memory allocation (min/avg/max) = 9.769 | 9.777 | 9.782 Mbytes
Step Temp PotEng c_msd[4] v_twopoint v_fit v_max_n 
   12000    1.2219669    -6.525374 1.9721523e-34 1.3695501e-36 8.3333333e+20            3 
   13000    1.2426234   -6.5268333    0.5294816 0.0033941127  0.043901894            2 
   14000    1.2389526   -6.5263575    1.0240191 0.0060953515  0.041806545            2 
   15000    1.2415798   -6.4508333    1.5379462  0.008544145  0.041579658            2 
   16000    1.2446709   -6.4896605    2.0465914   0.01065933   0.04205342            2 
   17000    1.2390541   -6.4884042    2.5987492  0.012738966  0.042658729            2 
   18000    1.2407392   -6.4894672    3.1151494  0.014421988  0.042994743            5 
   19000    1.2591017    -6.540933    3.6700213  0.016096584  0.043278259            1 
   20000    1.2475208   -6.5166791    4.1646535  0.017352723  0.043424558            2 
   21000    1.2535282   -6.5561319    4.5703147  0.018136169  0.043114121            2 
   22000    1.2510798   -6.5261535    5.0978069  0.019309874  0.042733457            1 
   23000    1.2636035    -6.491335    5.6056683  0.020310392  0.042588515            4 
   24000    1.2586633   -6.5497615     6.148323  0.021348343  0.042537274            1 
   25000    1.2898869   -6.5377833    6.6328932  0.022109644  0.042592689            3 
   26000    1.2407643   -6.5538611    7.1940658  0.023057903  0.042599937            1 
   27000    1.2820755   -6.5077266    7.7959643  0.024061618  0.042737036            2 
   28000    1.2572483   -6.5315351    8.4362479   0.02510788  0.043005431            3 
   29000    1.2681914   -6.5185479    8.9942187  0.025845456  0.043315674            1 
   30000    1.2532538   -6.5195533    9.5188344  0.026441206  0.043574163            1 
   31000    1.2610207   -6.5200119    10.123844  0.027214635  0.043769275            1 
   32000    1.2561432   -6.5178921    10.695114  0.027851859  0.044029217            2 
   33000      1.25437   -6.5296727    11.191193  0.028260589  0.044219077            2 
   34000    1.2383689   -6.5346655    11.682444  0.028633442  0.044322654            1 
   35000    1.2514656   -6.5076135    12.173801   0.02898524  0.044373458            2 
   36000    1.2811881   -6.4956787    12.747473   0.02950804  0.044414809            1 
   37000    1.2529649   -6.5192301    13.335909  0.030035832  0.044493267            1 
   38000     1.214588   -6.5169754    14.008923  0.030721321  0.044618227            2 
   39000    1.2434402   -6.5207689    14.612868  0.031224076  0.044762616            4 
   40000    1.2422157   -6.5632264     15.28199  0.031837478  0.044936413            2 
   41000    1.2506106    -6.497786    15.803948  0.032121846  0.045130616            2 
   42000    1.2513781    -6.533122    16.280436  0.032302452  0.045268529            2 
   43000    1.2557895   -6.5347432    16.683239  0.032331858  0.045345347            1 
   44000    1.2495205   -6.5377482     17.26829  0.032705095  0.045368736            1 
   45000    1.2620078   -6.5202673    17.770907  0.032909087  0.045376474            3 
   46000    1.2278574   -6.5265864     18.20156   0.03297384  0.045342307            2 
   47000    1.2660239   -6.5324805    18.687218  0.033133365  0.045287926            7 
   48000     1.228245   -6.5491255    19.100405  0.033160425  0.045211443            3 
   49000    1.2438422   -6.5592444     19.57699    0.0332942  0.045108529            4 
   50000     1.245545   -6.5264949    20.312481  0.033854135   0.04503503            2 
   51000    1.2337547   -6.5255845    20.883944  0.034124091   0.04501803            3 
   52000    1.2471609   -6.5650642    21.423286  0.034332189  0.045021545            2 
   53000    1.2315545   -6.5411522    21.852003  0.034358496  0.044990502            1 
   54000    1.2549843   -6.5761916    22.321996  0.034447524  0.044940071            1 
   55000    1.2217583   -6.5080406    22.980263   0.03481858  0.044914386            2 
   56000    1.2585008   -6.5451576    23.508249  0.034982513   0.04490728            2 
   57000      1.22554   -6.5782803    23.946698  0.035009792  0.044887755            2 
   58000    1.2507945   -6.5292042    24.533102  0.035248709  0.044862239            2 
   59000    1.2283003   -6.5054223    25.061373  0.035397419  0.044841038            1 
   60000    1.2200093   -6.5127916    25.639868  0.035610928  0.044824686            2 
   61000    1.2501206   -6.5683869    25.969443  0.035477381  0.044804729            2 
   62000    1.2555545    -6.565413    26.714583  0.035906697  0.044785437            2 
   63000    1.2434522   -6.5448657    27.322997  0.036141531  0.044795671            2 
   64000    1.2072202   -6.5690186    27.777805  0.036169016  0.044795263            1 
   65000    1.2310726    -6.500786    28.318352  0.036305579  0.044787059            2 
   66000    1.2103726   -6.5389867    28.669203  0.036198488  0.044761124            6 
   67000    1.2436053   -6.5917686    28.970051  0.036032401  0.044713679            2 
   68000    1.2256566   -6.5499027    29.593506  0.036266552  0.044655216            3 
   69000    1.2565749   -6.5472337    30.105704  0.036359545  0.044593568            2 
   70000    1.2333613   -6.5360774    30.607149  0.036437082  0.044551184            1 
   71000    1.2280329   -6.5599526    31.096952   0.03649877  0.044499488            3 
   72000    1.2495314   -6.5203134    31.824232  0.036833602   0.04446703            3 
   73000    1.2310363   -6.5561193    32.193536  0.036750612  0.044440285            1 
   74000    1.2313551   -6.5254493     32.72441  0.036851813  0.044406009            3 
   75000    1.2519462    -6.536461    33.178109  0.036864565  0.044370837            2 
   76000    1.2374053   -6.5539562    33.765577  0.037023659  0.044327294            3 
   77000    1.2086849   -6.5518771    34.338667  0.037163059  0.044292525            2 
   78000    1.2206832   -6.5270842    35.222723  0.037631114  0.044294655            2 
   79000    1.2391464   -6.5327941      35.9325  0.037903481  0.044317001            2 
   80000    1.2197783   -6.5023696    36.437827   0.03795607  0.044350057            5 
   81000    1.2163472   -6.5850536    36.734357  0.037792548  0.044364354            3 
   82000    1.2650363     -6.54074    37.325026  0.037931937  0.044374936            2 
   83000     1.218317   -6.6357478    37.696827   0.03784822  0.044378212            1 
   84000    1.2451305   -6.5157411    38.359933  0.038055488  0.044373715            1 
   85000    1.2448236   -6.6051936    38.738859  0.037979273  0.044356122            2 
   86000    1.2522751   -6.5286365     39.26928  0.038051627  0.044343464            2 
   87000    1.2255379   -6.5599331    39.960022  0.038275883   0.04434833            1 
   88000    1.2259735   -6.5545318    40.432262  0.038288127  0.044357823            1 
   89000    1.2300712   -6.5543774    41.053268  0.038439389  0.044358211            5 
   90000    1.2332048   -6.5458439    41.500614  0.038426494  0.044364919            2 
   91000    1.2441675   -6.5399653    41.988318   0.03845084  0.044361184            1 
   92000    1.2286339   -6.5476266    42.326045  0.038338808  0.044356811            2 
   93000      1.20761   -6.5161081    43.077139  0.038599586  0.044354561            1 
   94000    1.2189648   -6.5723518    43.369243  0.038447911  0.044342299            2 
   95000    1.2308136   -6.5666712    43.794144  0.038415915  0.044315326            2 
   96000    1.2278321   -6.5102124    44.395238  0.038537533  0.044292919            2 
   97000    1.2223314   -6.5252495    45.082548  0.038730711  0.044279891            1 
   98000    1.2314038   -6.5041631    45.360303  0.038571686  0.044269299            1 
   99000    1.2248516   -6.5469269    45.939247    0.0386694  0.044249108            2 
  100000    1.2455334   -6.5183205    46.548728  0.038790606  0.044230424            4 
  101000    1.2334154   -6.5187529    46.982089    0.0387641  0.044213471            2 
  102000    1.2316184   -6.5055223    47.450593  0.038766824   0.04420204            2 
  103000     1.237829   -6.5814878    48.021739  0.038852539  0.044184503            2 
  104000    1.2561933   -6.5615234    48.439762  0.038813912  0.044162821            2 
  105000    1.2269667   -6.5840305    48.710798  0.038659363  0.044132208            3 
  106000    1.2176938   -6.5567223    49.328324  0.038780129  0.044103084            2 
  107000     1.200778   -6.5393749    49.770549   0.03876211  0.044078292            2 
  108000    1.2374247   -6.5546374    50.156242  0.038700804  0.044044859            2 
  109000    1.2227092    -6.558933    50.786418  0.038827536  0.044015324            1 
  110000    1.2112113   -6.5636998    51.486446  0.039004883  0.043991222            1 
  111000      1.22895   -6.5476665    51.919182  0.038978365     0.043966            2 
  112000    1.2334928   -6.5783056     52.39879  0.038987194  0.043943957            1 
  113000    1.2241643   -6.5838489    52.904724  0.039015283  0.043925205            1 
  114000    1.2560922   -6.5553683    53.227594   0.03890906  0.043905563            2 
  115000    1.2122892   -6.5179908    54.044453  0.039162647  0.043886036            3 
  116000     1.257086   -6.5612447    54.680347  0.039281859  0.043876676            3 
  117000    1.2653041   -6.5791605    55.323492  0.039404196  0.043872091            1 
  118000    1.2289129   -6.5522362    56.055144  0.039586966  0.043872923            2 
  119000     1.247219    -6.533462    56.389712  0.039488594  0.043874451            1 
  120000    1.2304233   -6.5869318    56.619388   0.03931902  0.043864389            3 
  121000    1.2208744   -6.5685225    57.374746  0.039514288  0.043858604            2 
  122000    1.2386718   -6.5647356    57.806337  0.039485203  0.043856925            1 
  123000    1.2383551   -6.5782683    58.539518   0.03966092  0.043855638            4 
  124000    1.2187637   -6.5497576    58.897774  0.039581837  0.043853064            2 
  125000    1.2307503   -6.5649309     59.17436  0.039449573  0.043842938            1 
  126000    1.2447703   -6.5565609     59.97896  0.039668624  0.043834495            3 
  127000    1.2044074   -6.5753747    60.491999  0.039692913  0.043827396            2 
  128000    1.2559042   -6.5682323    60.774074  0.039566455  0.043818073            6 
  129000    1.2397686   -6.5396784    61.638556  0.039818188   0.04380546            3 
  130000    1.2117151   -6.5539258    61.813857  0.039624267  0.043795599            2 
  131000    1.2338531   -6.5527805    62.617942  0.039833297  0.043788392            2 
  132000    1.2389154   -6.5864337    62.995857  0.039770112  0.043779437            3 
  133000    1.2328227   -6.5776117    63.535113  0.039808968  0.043775454            1 
  134000    1.2255421   -6.5910854    64.087989  0.039855715  0.043770107            3 
  135000    1.2245051   -6.5284949    65.100374  0.040185416  0.043767094            1 
  136000    1.2064965   -6.5339926    65.246358  0.039979386  0.043764509            1 
  137000     1.205538   -6.5985871    65.977585  0.040132351  0.043761531            4 
  138000    1.2321453   -6.5574337    66.222479   0.03998942  0.043759872            1 
  139000    1.2371794   -6.5791757    66.800626  0.040048337  0.043759471            1 
  140000     1.223398   -6.5951034    67.270658  0.040042058  0.043759725            2 
  141000    1.2406527   -6.5936121    67.945071  0.040156661  0.043759781            1 
  142000    1.2221148   -6.5813987    68.206457  0.040027263  0.043755509            2 
  143000    1.2039171   -6.5695723    68.905283  0.040154593  0.043751527            2 
  144000    1.2348721   -6.5850839    69.393545  0.040158301  0.043747892            2 
  145000    1.2264452   -6.5844186    69.701994  0.040058617  0.043738449            2 
  146000    1.2253572   -6.5610366    70.369281  0.040165114  0.043728231            3 
  147000     1.231981   -6.5742836    70.734058  0.040098672  0.043714874            1 
  148000    1.2029327   -6.5441036    70.958913  0.039954343  0.043699753            2 
  149000    1.2420924   -6.5871293    71.651935  0.040073789  0.043685765            1 
  150000    1.2306989   -6.5446143    72.161125  0.040089514  0.043673502            4 
  151000    1.2300455    -6.578789    72.800485  0.040176868  0.043663614            2 
  152000    1.2244173   -6.5639288    72.763977  0.039892531  0.043647735            1 
  153000    1.2181163   -6.5327538    73.463936  0.040013037  0.043632477            2 
  154000    1.2557481   -6.5669697    73.769653  0.039918643  0.043615355            2 
  155000    1.2268822   -6.5397434     74.40565  0.040003038  0.043597825            1 
  156000     1.240186   -6.5264944    75.044296  0.040087765  0.043577343            1 
  157000    1.2272571   -6.5891427    75.041984  0.039831201   0.04355413            1 
  158000    1.2255784   -6.5570978    75.687653  0.039919648   0.04353041            2 
  159000    1.2533335   -6.5977786    75.970317  0.039816728  0.043506684            1 
  160000    1.2459015   -6.5625528     76.07046  0.039620031  0.043476854            3 
  161000    1.1902385    -6.547467    76.783029  0.039742768  0.043441952            2 
  162000    1.2440127   -6.5992032    76.802333  0.039507373  0.043407642            1 
  163000    1.2188722   -6.5822281    77.530465  0.039637252   0.04337254            2 
  164000    1.2165532   -6.5674055    78.253244  0.039762827  0.043338695            1 
  165000    1.2209319   -6.5650806     78.83846  0.039817404  0.043312137            5 
  166000    1.2433229   -6.5481167    79.281578  0.039799989  0.043285562            1 
  167000    1.2234639   -6.5382921     79.95298  0.039896696  0.043259942            1 
  168000    1.2152298   -6.5613162    80.209655  0.039786535  0.043238247            2 
  169000    1.2037448   -6.5471058    80.972784  0.039927408  0.043218937            2 
  170000    1.2068667   -6.5751196    81.249195  0.039828037   0.04319961            2 
  171000    1.2142283    -6.581749    81.638158  0.039784677  0.043177529            1 
  172000    1.2262389   -6.5823867    81.853996  0.039657944  0.043152412            1 
  173000    1.2399832   -6.6000765    82.653981  0.039814056   0.04312657            2 
  174000    1.2236066   -6.5956933    83.095792  0.039796835  0.043098223            2 
  175000     1.208075   -6.5759572      83.4655  0.039745476     0.043073            2 
  176000    1.2063981   -6.5631932    83.993114  0.039769467  0.043047271            2 
  177000    1.2054633   -6.5540834    84.874988  0.039959975   0.04302502            2 
  178000    1.2009377   -6.5414642    85.331789  0.039949339  0.043005186            1 
  179000    1.2187933   -6.5855462    86.011586  0.040042638  0.042986646            1 
  180000    1.2273081   -6.6243017    86.370592  0.039986385  0.042968003            2 
  181000     1.216371   -6.5921619    87.220933  0.040156967  0.042955265            2 
  182000    1.2363058   -6.5831338    87.483835  0.040056701  0.042944447            4 
  183000    1.2345472   -6.6017375    88.183221  0.040156294  0.042932637            1 
  184000    1.2204456   -6.5203448    89.088171  0.040347903   0.04292485            3 
  185000    1.2317504   -6.5732786    89.011046  0.040095065  0.042916304            2 
  186000    1.2054824   -6.5541558    89.745027  0.040208345   0.04290506            2 
  187000    1.2262106   -6.5624848    89.848998   0.04003966  0.042892401            1 
  188000    1.1975255   -6.5853733    90.464265  0.040099408  0.042877401            2 
  189000     1.220047   -6.6251178    91.049198  0.040145149  0.042862532            2 
  190000    1.2103805    -6.580283    91.236808  0.040016144  0.042848546            2 
  191000    1.2220266   -6.5556871     91.66372  0.039992897  0.042832047            2 
  192000    1.2067004   -6.5934694    92.308353  0.040064389  0.042816795            3 
  193000    1.2145403   -6.5768299    92.278997  0.039844126  0.042799776            4 
  194000    1.2428679   -6.5666494    93.353607  0.040100347  0.042783492            1 
  195000      1.23567   -6.5689051    93.853951  0.040108526  0.042769108            1 
  196000    1.2268394   -6.5561199    94.507448  0.040181738  0.042754136            1 
  197000    1.2189457   -6.5229212    94.938133  0.040159955  0.042739548            3 
  198000    1.2270211   -6.5675014    95.446836  0.040171227  0.042726119            1 
  199000    1.2154441    -6.570974    95.725851  0.040086202  0.042710614            1 
  200000    1.1907642    -6.573322    96.536444  0.040223518  0.042698502            3 
  201000     1.239946   -6.5418367     97.16312  0.040283217  0.042689929            1 
  202000    1.2130428   -6.5392179    98.039411  0.040445302  0.042682871            1 
  203000    1.2450844   -6.5895899    97.777636  0.040138602  0.042674932            4 
  204000    1.2115154   -6.5653652    98.846044  0.040378286  0.042667608            3 
  205000    1.2328738   -6.5836658    98.603375  0.040082673  0.042658142            2 
  206000    1.2014002   -6.5202062     99.99426  0.040450752   0.04264967            2 
  207000     1.207607   -6.5479972    100.35937  0.040402323  0.042643383            1 
  208000    1.2257062   -6.6083529    100.33983  0.040200251  0.042635874            1 
  209000    1.2137105   -6.5871829    100.76043  0.040175608  0.042625354            2 
  210000    1.2072271   -6.6128829    101.85724   0.04041954  0.042616501            3 
  211000    1.2034216   -6.5894667    101.68358  0.040159392  0.042606947            2 
  212000    1.2320779   -6.5918461    102.03929  0.040109783  0.042592942            3 
  213000    1.2325757   -6.5764955    102.40861  0.040065966  0.042576501            2 
  214000    1.2349142   -6.5924978    102.82956  0.040042662  0.042562176            3 
  215000    1.1795383   -6.6143016    103.88332  0.040264851  0.042549399            1 
  216000    1.2161345   -6.6105734     104.3148  0.040244906   0.04253872            1 
  217000    1.2067556   -6.6088168    104.70329  0.040208636  0.042528603            1 
  218000    1.2182052   -6.5513249    105.75406  0.040425865  0.042518137            1 
  219000    1.1967412   -6.5813285    105.65344  0.040202982  0.042505583            1 
  220000    1.1918938   -6.5652141    106.42091  0.040310951  0.042493389            2 
  221000    1.2177047   -6.5738008    106.46455  0.040145005  0.042480652            2 
  222000     1.199343   -6.5873541    106.99904  0.040164804  0.042467916            2 
  223000    1.2219076   -6.5972306    107.33511  0.040110278  0.042457159            3 
  224000     1.230462   -6.6067012    107.96819  0.040166739  0.042444872            7 
  225000    1.2185748   -6.6104974    108.38843  0.040143862    0.0424331            1 
  226000    1.1976279   -6.5762199    108.64283  0.040060039  0.042421005            3 
  227000    1.2206156   -6.5951299    109.07643  0.040042742  0.042408023            1 
  228000    1.2004378   -6.5958925    110.20659  0.040280186  0.042396963            1 
  229000    1.2432584   -6.6391544    110.82653  0.040329887  0.042388561            1 
  230000    1.2261423   -6.5789059    111.57296  0.040424984  0.042381136            2 
  231000      1.20674   -6.5452333    112.08736  0.040435554  0.042374226            3 
  232000    1.2259017   -6.5825478    112.38451  0.040367999  0.042367685            1 
  233000    1.2041814   -6.5828255    113.26818  0.040510795  0.042363971            1 
  234000     1.199815   -6.5722104    114.25694  0.040689793  0.042365148            1 
  235000    1.2215087   -6.5935754    114.63892  0.040652101  0.042365085            3 
  236000     1.180621    -6.588581     115.6639  0.040841773  0.042367374            1 
  237000    1.1882024   -6.5625485    115.73636  0.040694923  0.042369103            3 
  238000    1.2469433   -6.5644437    115.66366  0.040498481  0.042369264            2 
  239000    1.2634091   -6.6105616    116.59283  0.040653009  0.042366739            1 
  240000    1.2158998   -6.6424224      116.363  0.040403819  0.042366756            5 
  241000     1.224647   -6.5911273    117.91155  0.040771629  0.042367343            1 
  242000    1.2216616   -6.5904192    117.96918  0.040622997  0.042368298            2 
  243000     1.189811   -6.5817786    118.90539  0.040776881  0.042368622            3 
  244000     1.232723   -6.5791316    119.51899  0.040819327  0.042370869            2 
  245000    1.1878593   -6.6016884    119.75155  0.040731819  0.042374705            2 
  246000    1.2215392   -6.5831464    120.17395  0.040709333  0.042376097            4 
  247000    1.2046408   -6.5287039    120.81934  0.040762259  0.042377622            1 
  248000    1.2147648   -6.6356448    121.00541   0.04066042   0.04237931            1 
  249000    1.2296058   -6.5508914    121.49321  0.040660377  0.042379288            1 
  250000    1.2074351   -6.5674533    122.00068  0.040666893  0.042378528            3 
  251000    1.1850512   -6.5838931    122.49537  0.040669114  0.042376572            1 
  252000    1.1955492   -6.6134864     122.4075  0.040478672  0.042374599            3 
  253000    1.1891914   -6.5875549    123.61153   0.04071526  0.042372718            1 
  254000    1.2250557   -6.5977567    124.30698  0.040783128  0.042370568            2 
  255000    1.2246422   -6.6407168    124.48909  0.040682709  0.042367804            1 
  256000    1.1956229   -6.5952466    125.07003  0.040712902  0.042365645            3 
  257000    1.2402549   -6.5639608    125.11984  0.040570636  0.042361903            2 
  258000    1.2108651   -6.5701235    125.91132  0.040669029  0.042357601            2 
  259000    1.2221478   -6.5895184    126.23139  0.040614991  0.042353445            5 
  260000    1.2429295   -6.5924328    126.52144  0.040551745  0.042347592            4 
  261000    1.2260674   -6.5798042     126.7469  0.040468359  0.042340799            1 
  262000    1.2040614   -6.5608809    127.32793  0.040498706  0.042332467            1 
  263000    1.2148186   -6.6054829    127.92571  0.040534129  0.042325198            3 
  264000     1.233609   -6.6016858    128.46734   0.04055156  0.042319832            3 
  265000    1.1811638   -6.6125251    128.60172  0.040440791  0.042314804            2 
  266000    1.2172422   -6.5714495    129.41707  0.040544196  0.042309213            3 
  267000    1.1673543    -6.570182    130.46643  0.040719858  0.042306477            2 
  268000    1.1895928    -6.553335    130.93738  0.040714358  0.042305286            2 
  269000    1.1856776   -6.5661954    131.30373  0.040676495  0.042303371            2 
  270000    1.2137803   -6.5764078    131.23884  0.040505815    0.0423005            2 
  271000    1.2130345   -6.5835346     132.0803  0.040615099  0.042293376            2 
  272000    1.2132779   -6.5934246    132.34215  0.040546003  0.042287084            2 
  273000    1.2199702   -6.6166149    133.23638  0.040670446   0.04228236            2 
  274000    1.2191058    -6.637679    133.21924  0.040516802   0.04227783            5 
  275000    1.2428521   -6.6199263    133.59827  0.040484325  0.042273697            1 
  276000    1.1942148   -6.6269585     133.9591  0.040446587  0.042268948            3 
  277000    1.1926838   -6.5758204    135.03963  0.040625639  0.042264939            3 
  278000    1.2040937   -6.6104904     135.2819  0.040552128  0.042260797            2 
  279000    1.1863657   -6.6419268    136.15549   0.04066771  0.042256706            1 
  280000    1.2079904   -6.6045939     136.1261  0.040513721  0.042251277            1 
  281000    1.2146426   -6.6439354      137.378  0.040740807  0.042246836            2 
  282000    1.2166998   -6.6475229    137.47542  0.040625125  0.042243756            3 
  283000    1.1951882   -6.6080931    138.25191  0.040710222  0.042241063            6 
  284000      1.18706   -6.5957022    138.36865  0.040601129  0.042236989            1 
  285000    1.2095064   -6.5731143    138.81214  0.040588345  0.042232135            2 
  286000    1.2068892   -6.6037731    139.95622  0.040779784  0.042228243            2 
  287000    1.2063187   -6.5819735    140.14132  0.040691441  0.042223152            2 
  288000    1.2156633   -6.6128348    139.96089  0.040497943  0.042217693            2 
  289000    1.2094851    -6.532791    140.76184  0.040588766  0.042211072            4 
  290000    1.2111103   -6.6019145    141.47287  0.040653124  0.042205104            2 
  291000    1.1817124   -6.5271741    141.98102  0.040658941  0.042197583            3 
  292000    1.1799959   -6.6090694    141.74227   0.04045156  0.042190197            1 
  293000     1.183972   -6.5764717    142.58617  0.040553517  0.042181059            2 
  294000    1.1813578   -6.6059117    142.97105  0.040524673   0.04217381            2 
  295000    1.2305106   -6.5996687    142.96173  0.040384669  0.042163773            1 
  296000    1.1918031   -6.6163603    143.18444  0.040310934  0.042152978            2 
  297000     1.217608   -6.5856238    144.02588  0.040411303  0.042140703            1 
  298000    1.2153104   -6.5849929    144.01522  0.040272714   0.04212939            2 
  299000     1.218563   -6.5696327    144.80383  0.040357812  0.042117576            1 
  300000    1.2276021   -6.6147205    145.46176  0.040406044  0.042106988            2 
  301000    1.1968598   -6.6239982    145.73666  0.040347913  0.042096142            2 
  302000    1.2067187   -6.6285352    146.35788   0.04038573  0.042085593            1 
  303000    1.2103315    -6.639788    146.48149  0.040286438  0.042075083            3 
  304000    1.2162135    -6.580473    146.59018  0.040183712  0.042063776            1 
  305000    1.2287832   -6.6383911    147.00537  0.040165402  0.042053963            1 
  306000    1.2118221   -6.6243358    147.58087  0.040190869  0.042042005            2 
  307000    1.2247291   -6.6044523     148.4911  0.040307029   0.04203099            1 
  308000    1.1953675   -6.6047119    148.45884  0.040167434  0.042020753            2 
  309000    1.2022251   -6.6219042    149.04593  0.040195775  0.042010267            1 
  310000    1.1914238   -6.5912308    150.25463  0.040391028  0.041999637            2 
  311000    1.1958758   -6.6129557    150.37435  0.040293235  0.041988307            2 
  312000    1.2007939   -6.6182554    150.40933  0.040173432  0.041977708            2 
  313000     1.180625   -6.6475368    150.95352  0.040189967  0.041964803            2 
  314000    1.2030019   -6.5947716    151.49396  0.040205402  0.041953388            2 
  315000    1.1967565    -6.575945    152.32826   0.04029848  0.041943387            3 
  316000    1.2042868   -6.5909829    153.17103  0.040393205  0.041933244            2 
  317000    1.1743654    -6.617533     153.0423  0.040231939  0.041923169            1 
  318000    1.2015095   -6.6301515    153.87264  0.040323019  0.041913045            3 
  319000    1.1792868   -6.6509149     153.4244   0.04007952  0.041900685            2 
  320000     1.199714   -6.6284348    153.86339   0.04006859  0.041889196            2 
  321000    1.1830275   -6.5904438    154.14432  0.040016699  0.041877391            2 
  322000    1.2112172   -6.6317013    154.86601  0.040079195  0.041865131            3 
  323000     1.206299   -6.6294159    155.97029  0.040240012  0.041854406            2 
  324000    1.1924669   -6.6290882    156.82066  0.040334532  0.041844048            3 
  325000    1.1989739   -6.5999383    157.05117   0.04026953  0.041834032            3 
  326000     1.232824   -6.6408543    157.31371  0.040213116  0.041823909            1 
  327000    1.2195155   -6.5959231     157.8852  0.040235781   0.04181386            3 
  328000    1.2183246   -6.6922354    157.68625  0.040062563  0.041803468            2 
  329000    1.1875343    -6.587567    158.61906  0.040177068  0.041793191            1 
  330000    1.1893605   -6.6062233     158.6243  0.040056641  0.041782926            1 
  331000    1.1871974   -6.6052334    159.19932  0.040080394   0.04177121            4 
  332000     1.190127   -6.6281716    159.30144  0.039985301  0.041757922            4 
  333000    1.1919216   -6.6194182    160.42316  0.040145937  0.041744727            2 
  334000    1.1722593   -6.5922567    160.54612  0.040056417  0.041734272            4 
  335000    1.2312943   -6.6218101    161.30936  0.040126706  0.041723763            2 
  336000    1.2097059   -6.6265642    161.68262  0.040099857  0.041712606            1 
  337000    1.1900216   -6.6504934    162.19209  0.040106847   0.04170046            2 
  338000    1.1748582   -6.6274749    162.79306  0.040136355  0.041688901            3 
  339000    1.2138199   -6.6515977    162.85867  0.040034089  0.041679476            1 
  340000    1.2122775   -6.5967753     163.5835  0.040093995   0.04166886            1 
  341000    1.1956943   -6.6575604    163.60021    0.0399805  0.041657427            3 
  342000    1.2070548   -6.6580778    164.44053  0.040068356  0.041646561            2 
  343000    1.2432405   -6.6144437    164.99505   0.04008626  0.041635795            1 
  344000     1.201226   -6.6478409    165.79956  0.040164622   0.04162568            3 
  345000    1.1894431   -6.6310576    166.02805  0.040103394  0.041615869            2 
  346000    1.2033452   -6.6056318    166.81806   0.04017776  0.041606319            2 
  347000    1.2003696   -6.6231789    167.10507  0.040130901  0.041596599            1 
  348000     1.211018    -6.633749    166.92756  0.039973074  0.041587213            3 
  349000    1.1694486   -6.5725956    168.55263  0.040246568  0.041576319            2 
  350000    1.2115841   -6.6403999    168.63598  0.040151424  0.041566975            3 
  351000    1.1937708   -6.5986527    168.42631  0.039987253  0.041557998            2 
  352000    1.2133581    -6.634023    169.15543  0.040046267  0.041548504            1 
  353000    1.2074971   -6.6212268    169.01082  0.039898683  0.041537121            1 
  354000     1.213204   -6.6224914    169.55519  0.039914123  0.041525326            4 
  355000    1.1969792   -6.6582525    170.09678  0.039928821  0.041512684            2 
  356000    1.1866785    -6.631975     170.6414  0.039944148  0.041500198            2 
  357000    1.2055789    -6.620948    170.42515  0.039781781  0.041486647            1 
  358000    1.2032608   -6.6146059    171.34644  0.039885112  0.041474098            3 
  359000    1.1917874   -6.6109427    171.16482  0.039731852  0.041460424            1 
  360000    1.1960888   -6.6637301    170.88174  0.039555957    0.0414451            2 
  361000    1.1982207   -6.6533554    171.69831  0.039634882   0.04142964            2 
  362000    1.1891764   -6.6669085    172.22669  0.039647029  0.041414484            2 
  363000    1.1975799   -6.6460121     173.4728  0.039823876   0.04140028            2 
  364000    1.2029909   -6.6230863    174.17147  0.039874422  0.041386907            2 
  365000    1.2041247    -6.581626    174.68928  0.039883397  0.041374032            1 
  366000    1.1778944   -6.6193123    174.92487  0.039828066  0.041362403            2 
  367000    1.1887528    -6.625578    175.66462  0.039887515  0.041351156            1 
  368000    1.1832969   -6.6260265    175.63141  0.039771605  0.041339891            2 
  369000    1.1982596   -6.6316415    177.11478  0.039998822  0.041328884            2 
  370000    1.2113079   -6.5959862    177.99147  0.040088168  0.041318968            3 
  371000    1.1843026   -6.6633625    177.99528  0.039980971  0.041308857            2 
  372000    1.1929382   -6.6183532    178.49738  0.039985972  0.041297844            1 
  373000     1.207033   -6.6287038    178.76334  0.039938189  0.041286696            1 
  374000    1.1823295   -6.6377579    179.45576  0.039985686  0.041276325            1 
  375000    1.1881566   -6.5956065    179.21696  0.039825991  0.041265175            2 
  376000    1.1858834   -6.6302061    179.16655  0.039708898  0.041252884            2 
  377000    1.1871373   -6.6372261    179.06167  0.039580387  0.041239372            2 
  378000    1.1654079    -6.641952     179.7066  0.039617856  0.041226137            1 
  379000    1.2177059   -6.6244042    180.45457  0.039677786  0.041213532            1 
  380000     1.184079    -6.661224    180.28771  0.039536779  0.041199442            2 
  381000    1.1977895   -6.6509948    181.00477  0.039589844  0.041184804            2 
  382000    1.1800703   -6.6336121    181.81052   0.03966198  0.041169689            2 
  383000    1.1851991   -6.6694333    180.83044  0.039345178  0.041153678            4 
  384000    1.1798201    -6.619595    182.37605  0.039578137   0.04113772            1 
  385000    1.1759104   -6.6374363    182.48565  0.039499059  0.041122296            3 
  386000    1.2077966   -6.6370702    182.95412  0.039497867  0.041108093            3 
  387000    1.2085522   -6.6310995    183.70218  0.039556885   0.04109324            4 
  388000    1.1530471   -6.6107201    183.75639  0.039466579  0.041078138            4 
  389000     1.200373   -6.6093574    184.13635   0.03944652  0.041063116            1 
  390000    1.1987893   -6.6713591    184.06401  0.039329916  0.041047812            5 
  391000    1.1902372   -6.6343836    185.09481  0.039449021  0.041031719            1 
  392000    1.1895015   -6.6122416    185.92799  0.039525508  0.041015981            2 
  393000    1.1739415   -6.6531833    186.24152  0.039491416  0.041000391            2 
  394000    1.1820803   -6.6473256    186.57699  0.039462139  0.040986103            2 
  395000     1.184237   -6.6302234    187.07267  0.039466808  0.040971875            3 
  396000    1.1607201    -6.630939    187.43885  0.039444202  0.040956565            5 
  397000     1.216462   -6.6447384    187.71494  0.039402801  0.040940863            1 
  398000    1.1885083   -6.6236362    187.98281  0.039359884  0.040925294            3 
  399000    1.1799794   -6.6008386    189.73763  0.039627742  0.040910936            2 
  400000    1.1661054   -6.6198732    189.60654  0.039501362  0.040897539            2 
  401000    1.1957461   -6.6319836    189.76633  0.039436062  0.040883873            2 
  402000    1.1702206   -6.6152747    190.30683  0.039450006  0.040869237            5 
  403000     1.204291   -6.6391586    190.60669  0.039414122  0.040854838            2 
  404000     1.165974   -6.6406836    191.40897  0.039482048  0.040839987            2 
  405000    1.1994318   -6.6663462    191.07614  0.039316079  0.040825658            3 
  406000    1.1681486   -6.6687891     191.2854  0.039262192  0.040810935            8 
  407000    1.1893238   -6.6370576    191.79933  0.039270953  0.040795252            3 
  408000    1.1811325   -6.6182129    193.26456  0.039473971  0.040781136            2 
  409000    1.1928131   -6.6520858    192.93346  0.039309996  0.040766874            1 
  410000    1.1872085   -6.5942032    194.34732  0.039501489  0.040752398            3 
  411000    1.1950586   -6.6592264    194.08831   0.03935286  0.040738308            1 
  412000    1.1895759   -6.5794025    193.99507  0.039238486  0.040723385            2 
  413000    1.1893816    -6.606323    194.00785  0.039146054   0.04070844            1 
  414000    1.1651778   -6.6235108    195.02964  0.039257174  0.040692929            2 
  415000    1.1919406   -6.6799929    195.34087  0.039225074  0.040677229            2 
  416000    1.1827187   -6.6823301    195.19853  0.039102269  0.040661941            2 
  417000    1.1978766    -6.647384    195.59595  0.039087919  0.040646845            2 
  418000    1.2091988   -6.6266394     196.6953  0.039213576  0.040632502            2 
  419000    1.1706044   -6.6290654    197.22259   0.03922486  0.040618284            3 
  420000    1.1833375   -6.6372968    197.40112  0.039166888   0.04060405            1 
  421000    1.1803082   -6.6340498    197.92569  0.039177689  0.040590252            2 
  422000    1.1601978   -6.6511339    198.28766  0.039156331  0.040575995            1 
  423000    1.2008749   -6.6912467    197.91372  0.038990094  0.040561296            1 
  424000    1.1971896   -6.6237603    198.98879  0.039109432   0.04054642            2 
  425000    1.1917709   -6.6520873    199.76389  0.039169391  0.040531425            2 
  426000     1.222113   -6.6103916    200.51618  0.039224604  0.040518049            3 
  427000    1.1618926   -6.6256276    200.38425  0.039106997  0.040504691            3 
  428000    1.1832893   -6.6364881    200.68853   0.03907487  0.040489757            2 
  429000     1.176609   -6.6195099     201.7479  0.039189568  0.040475687            3 
  430000    1.2139971   -6.6549253    201.91859  0.039131509  0.040462367            8 
  431000     1.183153   -6.6799427    202.84627  0.039220084  0.040449453            3 
  432000    1.1958366   -6.6513466    202.85791   0.03913154  0.040436927            3 
  433000    1.1881885     -6.65779    204.18454  0.039296485  0.040424824            2 
  434000     1.189989   -6.6293595     204.2031  0.039209505  0.040412203            3 
  435000    1.1627013   -6.6329992    204.40477  0.039158001  0.040398906            1 
  436000    1.1741834   -6.6287912    204.76534  0.039137106  0.040386283            1 
  437000    1.2014851   -6.6247272    205.56142  0.039199355  0.040373635            2 
  438000    1.1735502   -6.6448954    205.60697  0.039118526  0.040360484            2 
  439000    1.1750447   -6.6181698    205.77115  0.039060583  0.040347211            3 
  440000    1.1739913   -6.6671874    206.73053  0.039153509  0.040333873            1 
  441000    1.1624349   -6.6362333     206.6858  0.039056274  0.040321166            2 
  442000    1.1687495   -6.6206655    207.45311  0.039112577  0.040308294            4 
  443000     1.165252   -6.6641139    207.28419  0.038992511  0.040295878            4 
  444000     1.177989   -6.6376875    208.73929  0.039177795  0.040283017            2 
  445000    1.1884637   -6.6508572    208.33842  0.039014686  0.040270963            3 
  446000    1.1554728   -6.6371745    209.55237   0.03915403  0.040258615            2 
  447000    1.1468094   -6.6501974    209.45643  0.039048551  0.040246767            2 
  448000    1.1588544   -6.6592095    210.61358  0.039176633  0.040233921            2 
  449000    1.1969261   -6.6506526    210.21784  0.039015932  0.040222087            2 
  450000    1.1700515   -6.7030477    211.43474  0.039154581  0.040210025            2 
  451000    1.1835163   -6.6687464    211.09616  0.039005203   0.04019883            3 
  452000    1.1956535   -6.6308429    213.02177  0.039273925  0.040187838            1 
  453000    1.1769739   -6.6658456    212.49232   0.03908983  0.040176843            2 
  454000    1.1877204   -6.6110215     213.1852   0.03913091  0.040165901            1 
  455000    1.2011991    -6.656414     213.7178  0.039142454  0.040155404            1 
  456000    1.1746337   -6.6638017    212.97845  0.038921501  0.040143836            5 
  457000    1.2105441   -6.6627204    214.59657  0.039131395  0.040132835            1 
  458000    1.1863955   -6.6676826    214.61311  0.039048965  0.040121622            3 
  459000    1.1857473   -6.6744085    214.78637  0.038995346  0.040110553            4 
  460000    1.1690391   -6.6730509    215.84374  0.039102127  0.040099629            1 
  461000    1.1958054   -6.6596451     215.4492  0.038945987  0.040087754            4 
  462000    1.1667189   -6.6904091    215.92829  0.038948104  0.040075366            2 
  463000    1.1981566    -6.687451    215.54194  0.038794446  0.040063032            1 
  464000    1.1734772   -6.6524853    217.17877  0.039004808  0.040051329            2 
  465000    1.1690887   -6.6964779     217.3401  0.038949839  0.040040303            2 
  466000    1.1604461   -6.6832957    217.85952  0.038959141  0.040029154            1 
  467000    1.1702537   -6.6845478    218.46235  0.038983289  0.040018905            2 
  468000     1.161747   -6.6546138     219.3554  0.039059011  0.040008077            2 
  469000    1.1688357   -6.6695215    218.46621  0.038817734  0.039996734            1 
  470000    1.1425108   -6.6672591    219.91995  0.038992899  0.039985238            6 
  471000    1.1748231   -6.6238009    220.17722   0.03895563  0.039973841            3 
  472000    1.1837681   -6.6990078    219.97184  0.038836835  0.039962307            2 
  473000    1.1451767   -6.6685637      220.622  0.038869274  0.039950937            1 
  474000    1.1783631   -6.6612714    221.35664  0.038916428  0.039939474            1 
  475000      1.20313    -6.657145    221.96829  0.038941806  0.039928518            2 
  476000    1.1552848   -6.6577527    221.76949  0.038825191   0.03991618            3 
  477000    1.1809888   -6.6598063    222.27399  0.038831935  0.039903633            1 
  478000    1.1647759   -6.6234594    222.35677  0.038765127  0.039890738            4 
  479000    1.1629639   -6.6457061    223.27103  0.038843256  0.039878094            2 
  480000    1.1719527   -6.6256682    222.98695  0.038713012  0.039865617            4 
  481000     1.163014   -6.6419224    224.56261   0.03890551  0.039853378            1 
  482000    1.1593424   -6.6678557    224.51543  0.038816638  0.039841891            3 
  483000    1.1723742   -6.6453827    225.19496  0.038853512  0.039830011            3 
  484000    1.1979448   -6.6770515    224.67255  0.038683291  0.039818288            1 
  485000    1.1837792   -6.6843489    226.11341  0.038851101   0.03980619            2 
  486000    1.1593073   -6.6411203    226.72957  0.038876812  0.039794822            1 
  487000    1.1664917    -6.653214    226.88234  0.038823125  0.039783445            1 
  488000    1.1798758   -6.6736566    226.26976  0.038638962  0.039771305            2 
  489000     1.163698   -6.6579817     226.2919  0.038563718   0.03975802            1 
  490000      1.17189    -6.691176    227.73772  0.038730904   0.03974446            2 
  491000     1.160518   -6.6514673    227.54748  0.038619736  0.039732082            2 
  492000    1.1913507   -6.6561334    228.07965  0.038631377  0.039719783            2 
  493000    1.1774864   -6.6924616    228.09907  0.038556301  0.039706628            3 
  494000    1.1643877   -6.6804026    229.47447  0.038710268  0.039694186            2 
  495000     1.171728   -6.6907995    229.15704  0.038578627  0.039682365            2 
  496000    1.1808376   -6.6944032    229.38742  0.038539553  0.039669919            4 
  497000    1.1897408   -6.6310881    231.40358  0.038800063  0.039658795            5 
  498000    1.1820989   -6.6728738    230.76975   0.03861609  0.039647463            3 
  499000      1.18361   -6.6711559     231.7289  0.038698881    0.0396363            2 
  500000    1.1879157   -6.6509338    232.89186  0.038815311  0.039624931            2 
  501000    1.1477309   -6.6943533    232.19847  0.038622501  0.039613413            1 
  502000    1.1809625   -6.6799746    233.28747   0.03872634  0.039601365            2 
  503000    1.1742134   -6.6778534    231.74445  0.038393713  0.039589405            2 
  504000    1.1718777   -6.7107025    232.01503  0.038362273  0.039576473            4 
  505000    1.1495326   -6.6636451    233.47067  0.038526514  0.039563837            1 
  506000    1.1755826   -6.7005184    233.50936  0.038456746  0.039550775            2 
  507000    1.1890757   -6.6761179    233.90325  0.038445636   0.03953845            2 
  508000    1.1450077   -6.6722747    234.69143  0.038499251  0.039526182            1 
  509000    1.1853696   -6.6445575    234.73046  0.038430004  0.039513635            2 
  510000    1.1712573   -6.6502955    235.84436   0.03853666  0.039502357            6 
  511000    1.1711082    -6.711655    236.06548  0.038497306  0.039491763            2 
  512000    1.1564118   -6.6501315    237.77922  0.038701046  0.039480718            2 
  513000    1.1723285   -6.6605752    238.58484  0.038756471   0.03946996            3 
  514000    1.1687874   -6.6851388    238.07584  0.038598548  0.039459262            2 
  515000    1.1560214   -6.6978471     238.4332  0.038581423  0.039447815            2 
  516000    1.1564673   -6.6487114    239.26978   0.03864176  0.039437869            4 
  517000    1.1505481   -6.6706654    239.25661  0.038564895  0.039427264            1 
  518000    1.1802878   -6.6246052    240.10762  0.038627351  0.039416694            2 
  519000    1.1780097   -6.6529108    240.51428  0.038618222  0.039406163            2 
  520000    1.2526599   -6.6784502    240.61633   0.03856031  0.039395841            3 
  521000    1.1460573   -6.6854797    241.32091  0.038598994  0.039385564            2 
  522000      1.19575   -6.6879608    240.53965  0.038400327  0.039375005            2 
  523000    1.1942385   -6.7246682    241.41821  0.038466891  0.039364156            5 
  524000    1.1669365   -6.6583352     242.4871   0.03856347  0.039353505            1 
  525000    1.1897038   -6.6761727    242.64597  0.038515234  0.039342575            2 
  526000    1.1478948   -6.6904204    242.43873  0.038409178  0.039331327            3 
  527000    1.1747769   -6.6362625     242.5933  0.038360737   0.03932038            2 
  528000     1.195307   -6.6799607    243.94256  0.038501035  0.039309166            2 
  529000    1.1665132   -6.6727715    244.35039  0.038492501  0.039298174            2 
  530000    1.1714215   -6.6515691     244.8267  0.038494764  0.039287969            2 
  531000    1.1280199   -6.6650333    245.36087    0.0385061  0.039277839            3 
  532000    1.1380475   -6.6618103    244.92625  0.038365641  0.039267375            1 
  533000    1.1682165   -6.6522899    245.92437  0.038449714   0.03925724            2 
  534000      1.16224   -6.6711443    245.87841  0.038370539  0.039246825            3 
  535000     1.168736   -6.6515784    246.74518  0.038433828  0.039236378            1 
  536000    1.1322909   -6.6662657    246.50153  0.038324244  0.039225455            3 
  537000    1.1539161   -6.6731075    246.61973  0.038271218  0.039213999            3 
  538000    1.1381707   -6.7052227    247.72678  0.038371558  0.039202179            3 
  539000     1.175465    -6.686193     248.8566  0.038475046  0.039190889            4 
  540000    1.1504281    -6.677702    247.88132   0.03825329  0.039180124            5 
  541000    1.1657441   -6.6706686    249.06579  0.038365032  0.039169116            2 
  542000    1.1561013   -6.6844457    248.75724  0.038246808  0.039157732            2 
  543000    1.1834641   -6.6962939    248.51101  0.038138584  0.039146287            2 
  544000     1.149358   -6.6879392    249.78061  0.038262961  0.039135127            1 
  545000     1.146258   -6.6670852    250.36269  0.038281757  0.039124576            1 
  546000    1.1593902   -6.7308554    250.40256  0.038217729  0.039113784            3 
  547000    1.1579375   -6.7051451    250.40268  0.038147879  0.039102213            2 
  548000    1.1464417   -6.6677392    251.51513  0.038247434  0.039090338            2 
  549000    1.1777458    -6.699476     251.3938   0.03815935  0.039078601            2 
  550000    1.1532954   -6.6382855    251.80473  0.038152231  0.039066681            2 
  551000    1.1690147   -6.6965734    251.79903  0.038082128  0.039054859            3 
  552000     1.146539   -6.6752327    253.01623  0.038196895  0.039042645            2 
  553000    1.1458749    -6.692586    253.10736  0.038141556  0.039029949            2 
  554000    1.1686073   -6.7068407    253.30284  0.038102112  0.039017729            3 
  555000    1.1544284   -6.6874535    253.59261  0.038076969  0.039004899            2 
  556000    1.1851477   -6.6413131    253.75437   0.03803273  0.038991984            2 
  557000    1.1520666    -6.646203    255.29185  0.038194472  0.038979882            2 
  558000    1.1742129   -6.6632163     255.0672  0.038092472  0.038968042            3 
  559000     1.168855   -6.6807454    255.56452  0.038098468   0.03895619            1 
  560000    1.1410512   -6.6961359    254.88216  0.037928892  0.038943962            2 
  561000    1.1289254   -6.7122354    255.21086   0.03791011  0.038930871            2 
  562000    1.1878312   -6.6371441     256.5232  0.038037248  0.038917988            2 
  563000      1.18674   -6.7110442    256.07228  0.037902943  0.038905263            2 
  564000    1.1665051   -6.6795549    256.21221  0.037856413  0.038892646            3 
  565000    1.1537538   -6.7278996    256.44846  0.037824256  0.038879951            2 
  566000    1.1529249   -6.7261748    257.14104  0.037859399  0.038867028            4 
  567000    1.1556831   -6.7023783    258.27288  0.037958977  0.038853922            3 
  568000     1.159274   -6.7150786    258.59128  0.037938861  0.038841549            1 
  569000    1.1800747   -6.7329604    257.95109  0.037778426  0.038829116            2 
  570000    1.1491445   -6.6842581     259.2439  0.037901155  0.038816169            2 
  571000    1.1806402   -6.6984125    259.63012  0.037891143  0.038803258            2 
  572000    1.1426543   -6.6981061    259.39053  0.037789996  0.038790192            2 
  573000     1.174123   -6.6805319    260.47982  0.037882463  0.038777678            3 
  574000    1.1820683   -6.7000947    260.49509  0.037818683  0.038765215            1 
  575000    1.1670004   -6.7373715     260.7648     0.037792  0.038752788            3 
  576000    1.1587123   -6.6825485    261.17117  0.037785181  0.038739702            4 
  577000    1.1713323   -6.6867038    261.09997  0.037709412  0.038726482            2 
  578000    1.1633237     -6.67392    262.12967  0.037792628   0.03871362            1 
  579000    1.1651113   -6.6430203     263.9218  0.037985291  0.038701244            2 
  580000    1.1770644   -6.6910053    262.79046   0.03775725   0.03868951            2 
  581000    1.1764738   -6.7323632    262.47602  0.037647163  0.038677556            2 
  582000    1.1659849     -6.71698    264.58766  0.037884831  0.038665232            2 
  583000    1.1531642   -6.6979163    264.57734  0.037818373  0.038653926            2 
  584000    1.1613862    -6.691458    265.48532  0.037883179  0.038642715            1 
  585000    1.1839295   -6.6612662    265.91542   0.03787969  0.038631378            1 
  586000    1.1435925   -6.6954657    266.51847  0.037900806  0.038620198            2 
  587000     1.120385   -6.7243593    266.85139  0.037883503  0.038609951            3 
  588000    1.1933498   -6.7188476    267.11407  0.037856303  0.038599291            5 
  589000    1.1678925   -6.7171937    267.16206  0.037798819  0.038588369            1 
  590000    1.1246467   -6.6527477    268.24068  0.037887102  0.038577979            2 
  591000    1.1550706   -6.7348427    268.08544  0.037801106  0.038567375            1 
  592000    1.1770464   -6.7134702    269.59487  0.037949728  0.038556271            3 
  593000    1.1583343   -6.6996712    268.97827  0.037799082  0.038545749            3 
  594000     1.132061   -6.6888282    270.07041  0.037888666  0.038535144            1 
  595000     1.177766   -6.7069878    270.37491  0.037867634  0.038524104            1 
  596000    1.1354969   -6.6880463    269.66896  0.037705391   0.03851273            3 
  597000    1.1466382   -6.7031495    270.68475  0.037784025  0.038501515            1 
  598000    1.1552603    -6.690368    271.15091  0.037785801  0.038491039            3 
  599000    1.1624852   -6.6806749    271.19853  0.037729345   0.03848066            1 
  600000    1.1388272   -6.7105533    272.18973  0.037804129  0.038469448            3 
  601000    1.1621646   -6.7133898    271.62023  0.037662262  0.038458793            2 
  602000    1.1739528   -6.6825278     272.4923  0.037720418  0.038448307            2 
  603000    1.1435269      -6.6842    273.98419  0.037864039    0.0384371            2 
  604000    1.1511432   -6.7041498    273.41068  0.037722224  0.038426507            3 
  605000    1.1562129   -6.7257164    273.61018  0.037687352  0.038415914            2 
  606000    1.1516516   -6.6686285    275.30437  0.037858137  0.038406035            1 
  607000    1.1657452   -6.6765396    274.95343  0.037747588  0.038396429            3 
  608000    1.1573744   -6.6904978    275.55837  0.037768417   0.03838597            1 
  609000     1.162566   -6.6856476    275.85725  0.037747298  0.038375945            2 
  610000    1.1476029   -6.6784242    276.11724  0.037720934  0.038365694            5 
  611000    1.1492673   -6.6873139    276.17673  0.037667312  0.038355927            3 
  612000    1.1781706   -6.7349722    275.83145  0.037558749   0.03834534            1 
  613000    1.1342146    -6.719197     275.6495  0.037472743  0.038333986            6 
  614000    1.1503699   -6.7302258    276.27345  0.037496396  0.038323039            4 
  615000     1.169285   -6.7015051    276.62704  0.037483338  0.038311313            2 
  616000    1.1559458   -6.7072262     277.4171   0.03752937  0.038299997            3 
  617000    1.1544894   -6.7300649    277.37971  0.037463493  0.038289049            4 
  618000    1.1519452   -6.6885162    278.62718  0.037571087  0.038278259            3 
  619000    1.1616634    -6.700045    279.29381  0.037600136  0.038267536            2 
  620000    1.1473882   -6.6960668    279.79353  0.037606657  0.038256972            1 
  621000     1.158473   -6.7305923    279.43053  0.037497388  0.038245756            3 
  622000    1.1628069   -6.7094549    279.75453   0.03748051  0.038233833            1 
  623000    1.1456652   -6.7170221    280.50024  0.037520096  0.038222074            2 
  624000    1.1444379   -6.7464169    279.12077  0.037275744  0.038210564            4 
  625000    1.1495711   -6.7237388     281.0183  0.037469106  0.038198842            2 
  626000    1.1298145   -6.6714803    281.61138  0.037488203  0.038187006            2 
  627000    1.1481047   -6.6757108    282.48897  0.037545051  0.038175797            2 
  628000    1.1527252   -6.6572211    282.20134  0.037447099  0.038164116            3 
  629000    1.1686041   -6.6868413    281.75466  0.037328387  0.038152425            2 
  630000     1.160989   -6.6897744    282.32462  0.037344527  0.038140645            1 
  631000    1.1347453   -6.7349991    281.99871  0.037242302  0.038128475            3 
  632000    1.1605727   -6.7218308    283.27762  0.037352007  0.038116629            2 
  633000    1.1442116   -6.6843642    284.74745  0.037486499  0.038105004            2 
  634000    1.1692287   -6.7152548    283.47684  0.037260363  0.038093829            2 
  635000    1.1634052   -6.7368955    284.31882  0.037312182  0.038082218            4 
  636000    1.1483998   -6.6741328    284.61778  0.037292686  0.038071035            3 
  637000     1.143636    -6.701552    285.34853  0.037329739  0.038059747            2 
  638000    1.1580201   -6.7429363     285.8001  0.037330212  0.038048641            3 
  639000    1.1365651   -6.7647346    285.32133  0.037209354  0.038036974            1 
  640000    1.1509918   -6.7127542    286.76828   0.03733962  0.038025302            2 
  641000    1.1305965   -6.7042317    286.88771  0.037296894  0.038014367            2 
  642000    1.1757305   -6.6867256    287.73818  0.037349193  0.038003427            1 
  643000    1.1521069   -6.7085674    288.78842  0.037427219   0.03799283            5 
  644000    1.1273269   -6.6851981    289.49536  0.037460579  0.037982533            1 
  645000    1.1595618   -6.7026892    288.47987  0.037271302  0.037972373            2 
  646000    1.1514223   -6.7335677    289.40678  0.037333176  0.037962308            4 
  647000    1.1364605   -6.7192816     289.8741  0.037335665  0.037951496            2 
  648000    1.1433841   -6.7358195    290.54334  0.037364113  0.037940944            1 
  649000    1.1332281   -6.6976736    290.70233  0.037326956  0.037930354            3 
  650000    1.1419605   -6.6751446    290.72637  0.037272611  0.037919765            2 
  651000    1.1578804   -6.7126517    291.80747  0.037353747  0.037909688            1 
  652000    1.1414499   -6.7110853    292.41134  0.037373637  0.037899587            3 
  653000    1.1252895   -6.7222791    292.02886  0.037267593  0.037889215            1 
  654000    1.1303594    -6.707231    293.33354  0.037376853   0.03787881            5 
  655000    1.1434618   -6.7328289    293.41115  0.037329663   0.03786854            1 
  656000    1.1299429   -6.7005166     293.1568  0.037240447  0.037858516            2 
  657000    1.1524612   -6.7326306    293.58867  0.037238542  0.037848694            3 
  658000    1.1428061   -6.7643922    294.47948  0.037294767  0.037838345            3 
  659000    1.1272426   -6.7267196    295.43444  0.037358932  0.037828441            2 
  660000    1.1347102   -6.7336362    294.48959  0.037183029  0.037818145            3 
  661000    1.1572592   -6.7213159    295.01903  0.037193524  0.037807759            5 
  662000    1.1725251    -6.736824    294.55231  0.037078589  0.037796989            2 
  663000    1.1229768     -6.68487    296.20827  0.037230803  0.037786557            2 
  664000    1.1641204   -6.6984868    296.04393  0.037154108  0.037776527            2 
  665000    1.1742603   -6.7004046    295.23521  0.036996893  0.037766241            2 
  666000    1.1670746   -6.7136998    297.62129  0.037239901  0.037755815            1 
  667000    1.1169734   -6.7128815    298.48146  0.037291537  0.037745725            4 
  668000    1.1693375   -6.7455591    297.37638  0.037097852  0.037735704            3 
  669000    1.1492374   -6.6991447    298.41833  0.037172188  0.037725318            1 
  670000    1.1146614   -6.7175527    298.39551   0.03711387  0.037715011            5 
  671000    1.1479791   -6.7523332    298.34332  0.037052076  0.037704216            5 
  672000    1.1217441   -6.6901858    299.01038   0.03707966  0.037693508            5 
  673000    1.1392182   -6.6962372    300.06059  0.037154605  0.037683161            3 
  674000    1.1600568   -6.7452129    300.66933  0.037174744  0.037673325            3 
  675000    1.1534489   -6.7280658    300.13438  0.037053627  0.037663287            2 
  676000    1.1316136   -6.7190424    301.55915  0.037174452  0.037653347            2 
  677000    1.1333527   -6.7434132    302.27365   0.03720749  0.037643013            3 
  678000    1.1375137   -6.7122873    302.09771  0.037130987  0.037633458            2 
  679000    1.1455302   -6.7370324    302.84098  0.037167523  0.037623314            3 
  680000    1.1530502   -6.7601212    302.83416  0.037112029  0.037613339            1 
  681000    1.1631434   -6.7158009    303.06469  0.037085743  0.037603241            2 
  682000    1.1332124   -6.7604583    303.47619  0.037081646  0.037593745            4 
  683000    1.1673977   -6.7311782    303.02935  0.036972834  0.037584157            2 
  684000    1.1544329   -6.7322561    305.45016  0.037213714    0.0375748            2 
  685000    1.1759922   -6.7417853    305.67655  0.037186928  0.037565605            1 
  686000    1.1484514   -6.7271945    305.82132  0.037150306  0.037556657            2 
  687000    1.1409355    -6.711731    306.59713  0.037190336  0.037548035            3 
  688000    1.1401221   -6.7042532    306.68765  0.037147244  0.037539774            2 
  689000    1.1468383   -6.7421711     305.9374  0.037002588   0.03753073            2 
  690000    1.1406346    -6.743767    307.12545  0.037092445  0.037521829            2 
  691000    1.1395282   -6.7412213    308.62371  0.037219453   0.03751317            4 
  692000    1.1552047   -6.7109831    308.24999  0.037120664  0.037504118            4 
  693000    1.1203576   -6.7264265    307.87224  0.037021674  0.037495195            2 
  694000    1.1432727   -6.7168824    308.38433  0.037029819  0.037485982            2 
  695000    1.1389222   -6.7550363    307.79806  0.036906242  0.037476533            3 
  696000    1.1366377   -6.7089244     308.4881  0.036935836  0.037466972            2 
  697000    1.1602697   -6.7112115    309.53511  0.037008024  0.037457408            4 
  698000    1.1343037   -6.7215235     309.5145  0.036952543  0.037448301            3 
  699000    1.1119987    -6.710279    310.61958  0.037031424  0.037438796            3 
  700000    1.1481645   -6.7325017    310.21791  0.036930703  0.037429572            3 
  701000    1.1297409   -6.7068292    311.62544  0.037045344  0.037420524            3 
  702000    1.1374479   -6.7649767    311.31327  0.036955517  0.037411834            3 
  703000    1.1369404   -6.7259749    311.38899  0.036911924  0.037402988            3 
  704000    1.1261464    -6.731592    311.73886  0.036900907  0.037393685            4 
  705000    1.1480795   -6.7436994     312.3542    0.0369213  0.037384085            2 
  706000    1.1438001   -6.7435953    313.29625  0.036980199  0.037374464            1 
  707000    1.1554669   -6.7754047    312.46637  0.036830076  0.037364625            2 
  708000    1.1345117   -6.7491527    312.69962  0.036805511  0.037354261            1 
  709000    1.1449173    -6.728231    312.52903  0.036733548  0.037343841            2 
  710000     1.119907   -6.7533285    312.97806  0.036734514  0.037333569            1 
  711000    1.1204361    -6.703099    313.98328  0.036800666  0.037323223            2 
  712000    1.1441025   -6.7400056    314.34414  0.036791215  0.037313386            1 
  713000    1.1341442   -6.7569293    314.27936  0.036732043  0.037303573            5 
  714000    1.1508648    -6.732492    314.59013  0.036716869  0.037293048            2 
  715000    1.1719639   -6.7544066    314.96125   0.03670877  0.037282739            4 
  716000    1.1523731   -6.7403955    315.60093  0.036731951  0.037272328            2 
  717000    1.1292925   -6.7039136    315.90145   0.03671565  0.037261883            3 
  718000    1.1313236   -6.7490409     316.7702  0.036765344  0.037251587            1 
  719000    1.1348729   -6.7225246     316.6486  0.036700116   0.03724168            2 
  720000    1.1212455   -6.7227915    317.80664  0.036783176  0.037232057            2 
  721000    1.1445666   -6.6715855    318.66657   0.03683155  0.037222089            2 
  722000    1.1555384   -6.7319657    318.35474  0.036744545   0.03721222            3 
  723000     1.141024   -6.7350094    317.67226   0.03661506  0.037201963            1 
  724000     1.156022   -6.7033685    318.03432  0.036606161  0.037191975            4 
  725000    1.1129884   -6.7678546    319.08953  0.036676958  0.037181719            1 
  726000    1.1519233   -6.7428867    319.74701  0.036701907  0.037171676            1 
  727000    1.1119559   -6.7288129    320.71329  0.036762184  0.037161566            1 
  728000    1.1207075   -6.7418031    320.21909  0.036655116  0.037151696            3 
  729000    1.1426814   -6.7228337    320.70705  0.036660614  0.037141944            1 
  730000    1.1400533   -6.7360884     321.1963  0.036666244  0.037132147            2 
  731000    1.1215442   -6.7619754    319.94195  0.036473091  0.037121948            2 
  732000    1.1279639   -6.7565004    321.07406  0.036552147  0.037111528            3 
  733000     1.120735   -6.7207035     322.3435    0.0366466  0.037101014            2 
  734000    1.1454764    -6.756091    322.28559  0.036590099  0.037090531            5 
  735000    1.1379362    -6.767148    323.19884  0.036643859  0.037080079            1 
  736000    1.1343749    -6.749525    323.13427   0.03658676  0.037070364            1 
  737000    1.1309663   -6.7372663    323.96478  0.036631024  0.037060706            2 
  738000    1.1472218   -6.7371501    325.19536  0.036720344  0.037051113            4 
  739000    1.1388261   -6.7346529    324.96097  0.036644223  0.037041804            5 
  740000    1.1125215   -6.7661108    325.67884  0.036675546  0.037032344            2 
  741000    1.1270901   -6.7051009    326.55403  0.036724475  0.037023268            2 
  742000    1.1005282   -6.7501032    326.87266  0.036710766  0.037014675            2 
  743000    1.1002207   -6.7400128    326.52605  0.036622482  0.037005838            3 
  744000    1.1529926   -6.7384653    326.23611  0.036540783  0.036996768            1 
  745000    1.1349606   -6.7428014    327.98046  0.036686852  0.036987778            2 
  746000    1.1115302   -6.7485705    327.26597  0.036557861  0.036978973            1 
  747000    1.0976111   -6.7304494    327.31755  0.036514675  0.036969142            3 
  748000    1.1243636   -6.7571887    327.61064  0.036498512  0.036959459            1 
  749000    1.1435546   -6.7655691    328.33904  0.036530823   0.03694924            1 
  750000    1.1169509   -6.7101772    328.06506  0.036451673  0.036939433            2 
  751000    1.1595979   -6.7615904    328.90073  0.036495865   0.03692944            2 
  752000    1.1473379   -6.7664123    328.64122  0.036418575   0.03691935            1 
  753000    1.1249536   -6.7421097    328.97383  0.036407019  0.036909269            1 
  754000    1.1220936   -6.7459329    329.19711  0.036383411  0.036899064            7 
  755000    1.1305972   -6.7595074    329.45271  0.036363434  0.036888837            2 
  756000    1.1263339   -6.7633322    330.80266  0.036464138  0.036878742            2 
  757000    1.1316561   -6.7468165    331.28028  0.036468547  0.036869247            2 
  758000    1.1136236   -6.7095163    331.77973  0.036475344  0.036859834            2 
  759000    1.1254583   -6.7331146    332.43933  0.036499707  0.036850515            3 
  760000    1.1264497   -6.7225457    332.25335  0.036431289  0.036841387            1 
  761000    1.1399982   -6.7549805    333.13513  0.036479975  0.036832254            2 
  762000    1.1393418    -6.766681     332.3758  0.036349059  0.036823122            3 
  763000    1.1335317    -6.710727    335.19919  0.036609784  0.036813953            4 
  764000    1.1398646   -6.7312527    333.70007  0.036398349  0.036804817            3 
  765000    1.1123676   -6.7526341    334.59305  0.036448045  0.036795765            4 
  766000    1.1231241   -6.7778808    333.41695  0.036272514  0.036786547            2 
  767000    1.0984105   -6.7681522     335.2301  0.036422219  0.036777661            3 
  768000    1.1412785   -6.7642164    334.69625  0.036316867  0.036768447            3 
  769000    1.1374592   -6.7556289     335.2989  0.036334948  0.036759866            2 
  770000    1.1389137    -6.785547    335.30983  0.036288942  0.036750921            2 
  771000     1.114956   -6.7498455    335.97622  0.036313902  0.036742077            2 
  772000     1.110796   -6.7362315    337.48318  0.036429531  0.036733092            2 
  773000    1.1233177   -6.7716779    337.67715  0.036403315  0.036724077            3 
  774000    1.1504815   -6.7770598    338.03654  0.036394976  0.036715544            2 
  775000    1.1341925   -6.7625708    338.85689  0.036436225  0.036706731            5 
  776000    1.1267749    -6.762496    338.55878  0.036357257  0.036698359           11 
  777000    1.1294584   -6.7196699    340.55248   0.03652429  0.036689947            1 
  778000    1.1086872   -6.7465169    340.55931  0.036478075  0.036681694            3 
  779000    1.0995987   -6.7190625    341.56887  0.036539246  0.036673859            2 
  780000    1.1269604   -6.7660277    340.09646  0.036335092  0.036665626            3 
  781000    1.1176112   -6.7551133    340.58538  0.036340736  0.036657054            3 
  782000    1.1382109   -6.7547942    341.34124  0.036374813  0.036648238            2 
  783000      1.14328   -6.7566309    340.84648  0.036275701  0.036639433            1 
  784000    1.1270968   -6.7433241    341.50968  0.036299923  0.036630402            2 
  785000    1.1509956   -6.7888149    341.26176  0.036227363  0.036621203            2 
  786000    1.1014294   -6.7674888    342.39373  0.036301286  0.036612259            3 
  787000    1.1110667   -6.7485628    342.15504  0.036229886  0.036603047            6 
  788000    1.1235972   -6.7975575    341.55215  0.036120151  0.036593852            1 
  789000    1.1386463   -6.7340584    342.54291  0.036179015  0.036584376            2 
  790000    1.1248293   -6.7908917    342.29857  0.036107444   0.03657465            1 
  791000    1.1344074   -6.7671354    343.37588  0.036175293  0.036565223            1 
  792000    1.1206213   -6.7354374    345.14058  0.036315296  0.036556169            2 
  793000    1.1281045   -6.7733825    344.19755  0.036170402  0.036546954            2 
  794000    1.1353486   -6.7682983    346.26557  0.036341895  0.036538175            2 
  795000    1.1294471   -6.7281156    346.22017  0.036291422   0.03652934            2 
  796000    1.1387103   -6.7618666    345.77248  0.036198961  0.036520174            2 
  797000    1.1260259   -6.7422634    347.36911  0.036320484  0.036511759            3 
  798000     1.135248   -6.7367928    347.41123  0.036279369  0.036503266            2 
  799000    1.1215696   -6.7702741    348.20799  0.036317062  0.036495263            2 
  800000    1.1336705   -6.7263046    347.43018  0.036190644  0.036487042            4 
  801000    1.1349351   -6.7380268    348.77523  0.036285396  0.036478827            4 
  802000    1.1356206   -6.7462846    349.21226  0.036285563  0.036470851            3 
  803000     1.111762   -6.7742411    347.88312  0.036102441   0.03646234            2 
  804000    1.1245113   -6.7521539    349.05877  0.036179392  0.036453704            2 
  805000    1.1408721   -6.7862505    348.99822   0.03612818  0.036444836            2 
  806000    1.0970866   -6.7643737    350.28233  0.036216122  0.036436624            4 
  807000    1.1223007   -6.7478802    350.31313  0.036174425  0.036428329            2 
  808000    1.1294556   -6.7107611     351.2511  0.036226392  0.036419988            2 
  809000    1.1559743   -6.7856307    351.22297  0.036178716  0.036411448            2 
  810000    1.1092576    -6.765177    350.89403  0.036100209  0.036402927            3 
  811000    1.1106458   -6.7551436    351.67611  0.036136058  0.036394072            5 
  812000    1.1094031   -6.7471287     351.4783  0.036071254  0.036385391            5 
  813000    1.0974246   -6.7471428     351.9353  0.036073729  0.036376753            2 
  814000    1.1059287   -6.7550533    352.96811  0.036135146  0.036367607            3 
  815000    1.1065997   -6.7677649    351.87427  0.035978965   0.03635841            1 
  816000    1.0850589   -6.8084636    350.75106  0.035820166  0.036348938            5 
  817000    1.1332276   -6.7541328    352.17054  0.035921107  0.036339627            4 
  818000    1.1298242   -6.8107947     352.2201  0.035882244  0.036330425            6 
  819000    1.1050278   -6.8010639     352.6543  0.035882611  0.036320987            1 
  820000    1.1044614   -6.7315432    353.48473  0.035923245  0.036311751            2 
  821000     1.115841   -6.7793229    353.45636   0.03587661  0.036302008            2 
  822000    1.1264813    -6.745417    353.57083  0.035844569  0.036292545            3 
  823000    1.1226785   -6.8089781    354.98377  0.035944084  0.036283255            1 
  824000    1.1031421   -6.7775011    354.60266   0.03586192  0.036273727            3 
  825000     1.123263   -6.7237694    354.91107  0.035849603  0.036264037            2 
  826000    1.1165458   -6.7734573    354.39839  0.035754478  0.036254072            2 
  827000    1.1328985   -6.7783517    355.50941  0.035823197  0.036244735            1 
  828000     1.133507   -6.7893276    356.12428  0.035841815   0.03623496            3 
  829000      1.13881   -6.7463935    356.46122  0.035832451  0.036225606            2 
  830000    1.1089978   -6.7661007    356.61549  0.035804768  0.036216317            4 
  831000     1.108933   -6.7760164    358.53539   0.03595421  0.036207382            2 
  832000    1.1210599   -6.7595363    358.80986  0.035938488    0.0361989            2 
  833000    1.1134268   -6.8066321    358.98865   0.03591323  0.036190643            2 
  834000    1.1166856   -6.7785785    358.71554  0.035842879  0.036182317            1 
  835000    1.1153102   -6.8224771    359.94633  0.035922787  0.036173992            4 
  836000    1.1562641   -6.7271904    361.34871  0.036019608  0.036165941            1 
  837000    1.1044506   -6.8019338    360.18377  0.035860591  0.036157988            2 
  838000    1.1290616   -6.8381156    361.79035  0.035977561   0.03614976            5 
  839000    1.1077111   -6.7647814    361.17609  0.035873668  0.036141154            3 
  840000    1.1292763   -6.7850103    361.18595   0.03583194  0.036132683            1 
  841000    1.1146041   -6.7649547    362.96745  0.035965859  0.036124492            5 
  842000    1.0853808    -6.766039    362.69669  0.035896347  0.036116214            3 
  843000    1.1038675   -6.7378446     364.7528  0.036057018  0.036108048            2 
  844000    1.1210461   -6.7616698    362.42988  0.035784941  0.036099742            3 
  845000    1.1320437   -6.7298983    364.19481  0.035916648  0.036091319            1 
  846000    1.1360031   -6.7996376    364.14727   0.03586951  0.036082868            4 
  847000    1.1256068   -6.7260425    364.03745  0.035816357  0.036074545            2 
  848000     1.087748    -6.781512    365.21354  0.035889695  0.036066827            2 
  849000    1.1129812   -6.7922753    365.90966   0.03591575  0.036058197            3 
  850000    1.1238798   -6.7880616     364.8921  0.035773736  0.036049608            2 
  851000    1.0910532   -6.7848349    366.16575  0.035856419  0.036041278            4 
  852000    1.1299761   -6.7949601    366.03487  0.035801533  0.036033126            4 
  853000     1.101851   -6.7820383    366.53895  0.035808807  0.036025035            2 
  854000    1.1344854   -6.7993309    367.18471  0.035829889  0.036016794            2 
  855000     1.119691    -6.737206    367.49221  0.035817954  0.036008773            3 
  856000     1.107844    -6.780904    368.05831  0.035831221  0.036000961            3 
  857000    1.0640664   -6.7859688    368.59098  0.035841208  0.035993039            5 
  858000    1.0921409    -6.776099    368.70605  0.035810611  0.035984915            5 
  859000    1.1220682   -6.8330253    368.73491  0.035771722  0.035977165            1 
  860000     1.114619   -6.8104522    369.51692  0.035805904  0.035969453            3 
  861000    1.1230061   -6.7925414    370.95736  0.035903732  0.035961557            4 
  862000    1.1081285   -6.7385125    371.65506   0.03592953  0.035953927            2 
  863000    1.1046967   -6.7792093    371.14283  0.035838434  0.035946595            2 
  864000    1.1175658   -6.7720178    372.83044  0.035959726  0.035939078            2 
  865000    1.1143928   -6.7806201    372.31305   0.03586831  0.035931669            1 
  866000    1.1211211   -6.7986907    371.20203  0.035719979  0.035924233            4 
  867000    1.0900156   -6.7585617    373.37202  0.035887353    0.0359169            3 
  868000    1.1150839   -6.7877618    373.46885  0.035855305  0.035909559            2 
  869000    1.1063177   -6.8094005    373.96556  0.035861676  0.035902525            1 
  870000    1.0987702   -6.7810006    373.21035  0.035748118  0.035895183            2 
  871000    1.1159246   -6.7307033    374.45748  0.035826395   0.03588792            6 
  872000    1.1226948   -6.8030398    373.75173  0.035717864  0.035880542            4 
  873000    1.1016559   -6.8197847    376.00594  0.035892128   0.03587321            3 
  874000    1.1310552    -6.755883    375.57338  0.035809819  0.035865938            2 
  875000    1.1003066     -6.81533    376.25071  0.035833401  0.035858722            3 
  876000    1.1143252   -6.7939318    375.71041  0.035741097  0.035851274            3 
  877000    1.1092663   -6.7847692     376.4166  0.035767446  0.035844126            4 
  878000    1.1012116   -6.7717658    376.97044  0.035779275  0.035836916            1 
  879000    1.1154533   -6.7786246    377.17298  0.035757772   0.03582968            3 
  880000    1.1033883   -6.8211088    376.98439  0.035699279  0.035822143            2 
  881000    1.1427697   -6.8252797    376.65299  0.035627411  0.035814409            2 
  882000    1.0994824   -6.7950765    377.39541  0.035657162  0.035806631            3 
  883000    1.0985496   -6.7754581    378.46705  0.035717917  0.035799176            2 
  884000    1.1316771    -6.772699    378.84298  0.035712951  0.035792167            1 
  885000    1.1006218   -6.8033553     377.9991  0.035593135  0.035784826            2 
  886000    1.1293083   -6.7709791    380.17995  0.035758084  0.035777696            3 
  887000    1.1176193   -6.8008547    380.90941  0.035786303  0.035770445            2 
  888000    1.1073065   -6.7881187    379.86321  0.035647824   0.03576325            3 
  889000    1.1300261   -6.8009129    380.82886  0.035698243  0.035755862            2 
  890000    1.1169174   -6.7854324    380.30815  0.035609377  0.035748558            2 
  891000    1.0911406    -6.802497    381.35958   0.03566775  0.035741243            2 
  892000    1.1050025   -6.7836445    381.43393   0.03563471  0.035734039            2 
  893000    1.1135537    -6.806001    382.61724  0.035705229  0.035726419            2 
  894000    1.1159616   -6.8014219      381.953  0.035603375  0.035719072            2 
  895000    1.1031023   -6.8088132    382.66114  0.035629529  0.035711373            2 
  896000    1.1162197   -6.7947048     382.3032  0.035556473  0.035703749            4 
  897000    1.1069297   -6.7989532    381.74555  0.035465027  0.035695889            1 
  898000    1.1117985   -6.7623817     383.4879  0.035587221  0.035688065            2 
  899000    1.1080516    -6.812456    383.22548  0.035523312  0.035680506            2 
  900000    1.1127121   -6.7944429    383.94938  0.035550868  0.035673078            2 
  901000    1.1009015   -6.8187632    384.54086  0.035566118  0.035665608            2 
  902000    1.1097355   -6.7816624    385.26527  0.035593613  0.035658213            3 
  903000    1.1282272   -6.8089649    385.06462  0.035535679  0.035650931            7 
  904000    1.0988191   -6.8005516    385.95684  0.035578618  0.035643302            2 
  905000    1.1109446   -6.7901033     387.6251  0.035692919  0.035636077            1 
  906000    1.0952105   -6.7941669     386.5745  0.035556889  0.035628934            8 
  907000    1.1562228   -6.7805373    387.57838  0.035609921   0.03562176            3 
  908000    1.0859449   -6.8163645    387.25908  0.035541399  0.035614949            2 
  909000    1.1149812   -6.7441437    388.74813  0.035638809  0.035608014            2 
  910000    1.1104438    -6.766895    389.33321  0.035653224  0.035600929            3 
  911000    1.0821203   -6.8122605      388.861  0.035570893  0.035593918            1 
  912000    1.0810479   -6.8033801    389.93122  0.035629681  0.035586605            2 
  913000    1.0979403   -6.8397929    388.82003  0.035489233  0.035579325            1 
  914000    1.1022458    -6.776715    390.12838  0.035569692  0.035572543            3 
  915000    1.1133828   -6.8355057    390.97899  0.035608287   0.03556563            2 
  916000    1.1082434   -6.8056963    391.87076  0.035650542  0.035559002            2 
  917000    1.1076445   -6.8124191    391.31184  0.035560873  0.035552496            2 
  918000    1.1130209   -6.7820942    391.36726  0.035527166  0.035545628            1 
  919000    1.0891688   -6.7853523     392.6095  0.035601152  0.035538982            8 
  920000    1.0951779    -6.818982    392.62696  0.035564036  0.035532328            2 
  921000    1.1149437   -6.8116062    390.52368  0.035335114  0.035525497            2 
  922000    1.1302971    -6.800348    392.71923   0.03549523  0.035518407            2 
  923000    1.0926182     -6.82531    392.11993  0.035402666  0.035511127            2 
  924000    1.0932371   -6.8438684    392.53292  0.035401598  0.035503689            4 
  925000    1.1091356   -6.7967034    393.93429  0.035489576  0.035496588            2 
  926000    1.1050177   -6.8066738    394.12217  0.035468158   0.03548935            3 
  927000    1.0953015   -6.8344346    394.22061  0.035438746  0.035482283            2 
  928000    1.0915055   -6.7779746    395.91102  0.035552354  0.035475395            4 
  929000    1.0920282   -6.7747836    394.79883  0.035414319   0.03546874            2 
  930000    1.1289286   -6.8296984    395.45447  0.035434989  0.035461964            3 
  931000    1.1322552   -6.8114567    394.98144  0.035354586  0.035455019            3 
  932000    1.0792487   -6.7920415    396.33318  0.035437516  0.035447956            2 
  933000    1.1189046   -6.8003161    396.75946  0.035437608  0.035440786            1 
  934000     1.110687   -6.7943744    395.83506  0.035317189    0.0354336            4 
  935000    1.0884024   -6.7745289    397.17103  0.035398488  0.035426571            1 
  936000    1.0784568   -6.8098431    397.89293  0.035424941  0.035419698            2 
  937000    1.0964219    -6.833316    396.72042  0.035282855  0.035412614            3 
  938000    1.1103881   -6.8438008     397.9345    0.0353531  0.035405358            5 
  939000    1.0948319   -6.8060911    398.39008  0.035355882  0.035397965            2 
  940000    1.0972602   -6.7886754    398.00198  0.035283863  0.035390798            4 
  941000    1.0933476   -6.8107538    399.00992  0.035335629  0.035383301            2 
  942000    1.0870561    -6.776014    398.66794  0.035267864    0.0353758            2 
  943000    1.0682363   -6.8243727    399.67821  0.035319743  0.035368511            2 
  944000    1.1290472   -6.8456687    399.28948  0.035248012  0.035361171            4 
  945000    1.0960486   -6.7964279    401.52022  0.035407427  0.035354275            2 
  946000    1.1096844   -6.7882963    401.34422  0.035354494   0.03534761            1 
  947000    1.0997721   -6.8061329     401.6069  0.035340276  0.035340852            7 
  948000     1.103625   -6.7693443    402.89083  0.035415861  0.035334258            2 
  949000    1.1100031   -6.8303609    401.71642  0.035275414  0.035327529            2 
  950000    1.0829819   -6.8243108    403.19944  0.035368372  0.035320759            2 
  951000    1.1017751   -6.7801061    404.53911  0.035448573  0.035314026            2 
  952000    1.0847459   -6.7764622    404.39798  0.035398983  0.035307491            2 
  953000    1.1180705   -6.8336289    404.62736  0.035381896  0.035300709            5 
  954000    1.0971616   -6.8167207    404.49445  0.035333198  0.035294095            2 
  955000    1.1204824   -6.8333571    404.19978  0.035270487  0.035287467            2 
  956000    1.0929082   -6.7998317    405.48027  0.035345212   0.03528062            2 
  957000    1.0780709   -6.8040959    403.75565  0.035158103  0.035273547            2 
  958000    1.0975546    -6.800099    404.86874  0.035218228   0.03526632            2 
  959000    1.0914898    -6.818037    404.16698  0.035120523  0.035259283            2 
  960000    1.1074118   -6.8275027    403.69054  0.035042582  0.035251619            2 
  961000    1.0821468   -6.7934015    405.84437  0.035192886  0.035244088            3 
  962000      1.10386   -6.7937396    406.52276  0.035215069  0.035236604            2 
  963000    1.1176018   -6.8237571    405.17478  0.035061853  0.035229098            2 
  964000     1.097619   -6.8049906    405.96662  0.035093933  0.035221503            1 
  965000    1.0963142   -6.8245104    407.34697  0.035176768  0.035214117            2 
  966000    1.1099375    -6.829701    407.23855     0.035131  0.035206452            4 
  967000    1.0961484   -6.7897453    407.13581  0.035085816  0.035198875            2 
  968000    1.0852258   -6.8248927    408.00212  0.035124149  0.035191412            3 
  969000    1.0988297    -6.806742    407.71886  0.035063542  0.035183734            3 
  970000    1.1217439   -6.8135372    408.27819  0.035075446  0.035175909            1 
  971000    1.0919025   -6.7711108    409.87826  0.035176645  0.035168089            2 
  972000    1.1104481   -6.8381316    409.01989  0.035066863  0.035160389            2 
  973000    1.0968825   -6.8054297    408.81185  0.035013006    0.0351528            2 
  974000    1.0843424   -6.8238493    408.99995  0.034993151  0.035145128            2 
  975000    1.0879118    -6.787522    410.58885  0.035093064  0.035137298            3 
  976000    1.0819954   -6.8208277    409.47807  0.034962267  0.035129343            2 
  977000    1.0897666   -6.8381873    409.77713   0.03495199  0.035121387            2 
  978000    1.0993113   -6.7778978     410.3119  0.034961818  0.035113422            3 
  979000    1.1166977   -6.8389344    410.75906  0.034964169  0.035105227            4 
  980000    1.0789359   -6.8498955    409.61817  0.034831477  0.035096976            6 
  981000    1.1005084   -6.8363912    410.97931  0.034911596    0.0350889            2 
  982000    1.1044432   -6.8238007    411.48656   0.03491909  0.035081352            2 
  983000    1.1091189   -6.7869075    413.81227  0.035080728   0.03507392            2 
  984000    1.0958289   -6.8101428    412.38419  0.034924135  0.035066503            2 
  985000    1.1073087   -6.7544186    413.94313   0.03502057   0.03505921            2 
  986000    1.0939313   -6.8528632    413.05286  0.034909809   0.03505191            2 
  987000    1.0770409   -6.8130941    414.87447   0.03502824  0.035044339            1 
  988000    1.1021771   -6.7644077    415.56325  0.035050882  0.035037064            2 
  989000    1.0961517   -6.8339173    414.37555  0.034915365  0.035029725            2 
  990000    1.0961628   -6.8218666    416.13554  0.035028244  0.035022457            2 
  991000    1.0922252    -6.811523    415.19532  0.034913834  0.035015181            3 
  992000    1.0776754   -6.8404654    415.91438  0.034939044   0.03500784            1 
  993000      1.10473   -6.8558581    416.57475  0.034959277  0.035000727            2 
  994000     1.064313   -6.8303826    417.75383  0.035022957  0.034993529            2 
  995000    1.0704678   -6.8340878     419.0751  0.035098417  0.034986812            3 
  996000    1.0816106    -6.807033    418.73574  0.035034784  0.034980154            4 
  997000    1.0842865   -6.7840318    419.92538  0.035099079   0.03497355            2 
  998000    1.0956405   -6.8344776    418.97009  0.034984143  0.034966853            3 
  999000    1.0761555   -6.8310353    420.26467  0.035057113  0.034959913            4 
 1000000    1.1069466   -6.8146944    420.23216  0.035019346  0.034953335            2 
 1001000     1.092147   -6.8126281    419.63156  0.034934362  0.034946758            2 
 1002000    1.0700348   -6.8111005    421.31878  0.035039818   0.03494026            3 
 1003000    1.0804401   -6.8210797    421.74529   0.03504032  0.034933776            1 
 1004000    1.0845112   -6.8400216    421.13253  0.034954559  0.034927248            2 
 1005000    1.0762135   -6.8013091    421.41677  0.034943348  0.034920402            1 
 1006000    1.1106316   -6.8242355    421.05618  0.034878743   0.03491364            1 
 1007000    1.0712336   -6.8432617    421.31267  0.034865332  0.034906915            3 
 1008000    1.0963076   -6.8547898    423.18209  0.034985292  0.034900091            4 
 1009000    1.0745589    -6.844934    422.31252  0.034878801  0.034893508            4 
 1010000    1.0935372   -6.8400136    422.56253  0.034864895  0.034886701            1 
 1011000     1.096552   -6.7890346    424.91115  0.035023998  0.034879947            2 
 1012000    1.1170769   -6.8153436    424.03611  0.034917334  0.034873145            2 
 1013000    1.1006462   -6.8151526    424.21284  0.034897404  0.034866012            5 
 1014000    1.0941519   -6.8172689    424.31358  0.034871267  0.034858841            3 
 1015000    1.0813516   -6.8330794    423.75254  0.034790849  0.034851642            4 
 1016000    1.1111305   -6.8352496    425.11573  0.034868416  0.034844414            4 
 1017000    1.0893909   -6.8154102    423.38964  0.034692694  0.034836988            2 
 1018000    1.0821942   -6.8488157    425.13802  0.034801737  0.034829458            2 
 1019000    1.0938281   -6.8620924    424.65208  0.034727844  0.034822108            2 
 1020000    1.0749428    -6.790844    425.91408  0.034796902  0.034814718            3 
 1021000    1.0930954   -6.8710095    424.74878   0.03466771  0.034807123            2 
 1022000    1.0987183   -6.8150928    425.51768  0.034696484  0.034799536            2 
 1023000    1.0800788   -6.8332642    426.05805  0.034706586  0.034792196            5 
 1024000    1.0571021   -6.8508433    425.73722  0.034646584  0.034784633            7 
 1025000    1.0857255   -6.8543467    427.36336  0.034744989  0.034776963            2 
 1026000    1.0793124   -6.8490464     427.3078  0.034706612  0.034769076            3 
 1027000    1.0955508   -6.8210169     427.4449  0.034683942  0.034761181            3 
 1028000    1.1042755   -6.8014064     427.6964   0.03467059  0.034753147            4 
 1029000    1.1000064   -6.8564289    425.46931  0.034456536  0.034745214            2 
 1030000    1.0926026   -6.8414694    426.44722  0.034502202   0.03473699            1 
 1031000    1.0587255   -6.7944725    427.64631  0.034565657  0.034728659            4 
 1032000    1.0817992   -6.8143144    427.66336   0.03453354   0.03472026            3 
 1033000    1.0717032   -6.8133573    427.64342  0.034498501  0.034711823            1 
 1034000    1.0985912   -6.8228181    428.83667  0.034561305  0.034703632            3 
 1035000     1.071976   -6.8423018    428.39874  0.034492652  0.034695396            3 
 1036000    1.0864385   -6.8007489     429.4202  0.034541522  0.034687074            4 
 1037000    1.0814229   -6.8673115    429.25544  0.034494973  0.034678777            2 
 1038000    1.0760752   -6.8308042    429.81093  0.034506337  0.034670437            3 
 1039000    1.1065048   -6.8443345      430.189  0.034503449  0.034661996            2 
 1040000    1.0827487   -6.8667584    429.23717  0.034394004  0.034653712            3 
 1041000    1.0524724   -6.8418436    429.70119   0.03439811  0.034645365            3 
 1042000    1.0778134   -6.8236504    429.24304  0.034328458  0.034637027            3 
 1043000    1.0841295   -6.8264028    430.73008  0.034414356  0.034628967            2 
 1044000    1.0689093   -6.8621652     431.7815  0.034465318  0.034620764            5 
 1045000    1.0790348   -6.8328349    432.44974  0.034485625   0.03461272            2 
 1046000    1.0943291    -6.853379     433.3207  0.034522044   0.03460488            2 
 1047000    1.0886455   -6.8380281    434.15773  0.034555694  0.034597068            2 
 1048000    1.0835858   -6.8227585    433.14349  0.034442071   0.03458941            3 
 1049000    1.0918844    -6.847766    432.24265  0.034337675  0.034581525            3 
 1050000    1.1141424   -6.8231502    434.97552  0.034521867  0.034573785            3 
 1051000    1.0751514    -6.850257    436.04022  0.034573439  0.034566272            2 
 1052000    1.0851492   -6.8624269    435.13972  0.034469243  0.034558623            2 
 1053000    1.0814201   -6.8625467    435.74355  0.034484295  0.034550928            4 
 1054000    1.0788866   -6.8467048    434.20479  0.034329917  0.034543119            1 
 1055000    1.0846399   -6.8566739    435.72064  0.034417112  0.034535614            3 
 1056000    1.0727519   -6.8042056    436.04234  0.034409907  0.034527778            3 
 1057000    1.0780294   -6.8456502    437.34513  0.034480064  0.034520226            3 
 1058000    1.1067042   -6.8607889    437.72977   0.03447777  0.034512571            3 
 1059000    1.0677995   -6.8560743    436.33071   0.03433512  0.034504779            2 
 1060000    1.0867825    -6.815238     436.3229  0.034302115  0.034496851            5 
 1061000    1.0689189    -6.843141    437.45913  0.034359027  0.034488931            3 
 1062000    1.0872763   -6.8618327    437.14076  0.034301692  0.034480804            2 
 1063000    1.0785534   -6.8618749    436.73209  0.034237385  0.034472793            2 
 1064000    1.1037719   -6.8227384    438.80169    0.0343673  0.034464689            2 
 1065000    1.0692769   -6.8359613    439.71954   0.03440685  0.034456923            2 
 1066000    1.1096423   -6.8429204    438.09469  0.034247552  0.034448914            3 
 1067000    1.0703548   -6.8491586    439.30753  0.034310179  0.034440823            2 
 1068000    1.0689284   -6.8517501    438.17577  0.034189745  0.034432335            5 
 1069000    1.0845521   -6.8136051    440.14934  0.034311611   0.03442415            2 
 1070000    1.0897644   -6.8150906    439.06467  0.034195067  0.034416076            1 
 1071000    1.0825364   -6.8336149    439.76858   0.03421791  0.034407952            2 
 1072000    1.0744301     -6.83218    438.92183  0.034120167  0.034399485            1 
 1073000    1.0927109   -6.8823918    438.62588  0.034065383  0.034390983            1 
 1074000    1.0857428   -6.8349945    439.94148  0.034135745  0.034382492            2 
 1075000    1.0967387    -6.819624    440.57354  0.034152987  0.034374133            3 
 1076000    1.0773686   -6.8562743    440.46019  0.034112469   0.03436581            1 
 1077000    1.0755724   -6.8382187    441.80465  0.034184823  0.034357321            1 
 1078000    1.0796856   -6.8463508    441.55659  0.034133935  0.034348775            4 
 1079000    1.0813004   -6.8710073    441.56664  0.034103077  0.034340202            4 
 1080000     1.102593   -6.8614143    444.49405   0.03429738  0.034331969            2 
 1081000    1.0930617   -6.8606578     444.7636  0.034286433  0.034323826            2 
 1082000    1.0710892   -6.8775034    442.02248  0.034043629  0.034315712            4 
 1083000    1.0894321   -6.8704673    442.73668   0.03406715  0.034307522            1 
 1084000    1.1014359   -6.8338591    444.49803  0.034171128  0.034299509            2 
 1085000    1.0782297   -6.8367465    443.88314  0.034092407  0.034291563            2 
 1086000    1.0730697   -6.8499541     444.6485  0.034119744  0.034283631            2 
 1087000    1.0890972    -6.862731    443.98878  0.034037778   0.03427533            6 
 1088000    1.0733768   -6.8186507    446.27654   0.03418172  0.034266925            2 
 1089000    1.0573428   -6.8344603    445.56412  0.034095816  0.034258932            4 
 1090000    1.0744598   -6.8461295    444.44891  0.033979275  0.034250457            2 
 1091000    1.1098011   -6.8055394    446.40306  0.034097392  0.034242025            1 
 1092000    1.0817452    -6.876774    445.00841  0.033959738  0.034233725            2 
 1093000    1.1029268     -6.83906    446.42316  0.034036532  0.034225368            4 
 1094000    1.0798424   -6.8367565    447.79361  0.034109812  0.034217028            1 
 1095000    1.0864983   -6.8357802      446.744  0.033998782  0.034209149            2 
 1096000    1.0937835   -6.8989334    447.40096  0.034017713  0.034200953            2 
 1097000    1.0708617   -6.8467092      446.999  0.033956169  0.034192613            1 
 1098000    1.0766298   -6.8583548    448.79537  0.034061579  0.034184393            3 
 1099000    1.0761916   -6.8451471    450.50674  0.034160353  0.034176459            3 
 1100000    1.0638776   -6.8529033    451.05596  0.034170906  0.034168594            5 
 1101000    1.0877383   -6.8629724     450.5258  0.034099742  0.034160811            2 
 1102000     1.096858   -6.8855763    451.23484  0.034122417  0.034153116            2 
 1103000    1.0618353    -6.845062    450.25225  0.034017244  0.034145609            2 
 1104000    1.0651692   -6.8631742    451.48305  0.034079337  0.034138071            3 
 1105000    1.0681667   -6.8657325    450.48465  0.033973202  0.034130547            5 
 1106000    1.0719778    -6.856295    452.00141  0.034056767  0.034123005            4 
 1107000    1.1056822   -6.8625093    451.62241  0.033997471  0.034115322            3 
 1108000    1.0669255   -6.9054451    450.99996  0.033919973  0.034107637            1 
 1109000    1.0721602   -6.8471244    451.69245  0.033941423  0.034099894            5 
 1110000    1.0578437   -6.8423973    453.89274  0.034076031  0.034092272            3 
 1111000    1.0759196   -6.8698603    452.73637  0.033958624  0.034084557            3 
 1112000    1.0926809   -6.8785929    453.38416   0.03397663  0.034076843            2 
 1113000    1.0699085   -6.8302929    453.33869  0.033942699   0.03406899            3 
 1114000    1.0703692   -6.8682154    453.22699  0.033903874  0.034061175            3 
 1115000    1.0797894   -6.8872783    454.36858  0.033958788  0.034053318            4 
 1116000    1.0584363   -6.8695927    454.47688  0.033936446  0.034045489            4 
 1117000    1.0772048   -6.8848354    455.46851  0.033980044  0.034037606            2 
 1118000    1.0680983   -6.9036692    455.80414  0.033974667  0.034030014            8 
 1119000    1.0704071    -6.869495    455.36626  0.033911696  0.034022124            2 
 1120000     1.071611   -6.8828729    455.01298  0.033855132  0.034014302            3 
 1121000    1.0839781    -6.790673    456.44774  0.033931589  0.034006519            2 
 1122000    1.0706129   -6.9119183      454.933  0.033788844  0.033998468            2 
 1123000     1.066782   -6.8455306    456.69147  0.033889246  0.033990314            4 
 1124000    1.0844549   -6.8696754    457.01679  0.033883214  0.033982522            3 
 1125000    1.0667923   -6.8493196    457.97906  0.033924375  0.033974858            2 
 1126000    1.0713616   -6.8579237    458.38544  0.033924322  0.033967247            3 
 1127000     1.082053    -6.871447    457.15584  0.033803301   0.03395969            2 
 1128000    1.0805906   -6.8579172    460.28396  0.034004429  0.033952103            5 
 1129000    1.0868711   -6.8836403    458.96204  0.033876737   0.03394449            4 
 1130000    1.0729696   -6.8409102    458.99759   0.03384938  0.033936773            7 
 1131000    1.0752866   -6.8304474    460.14599  0.033904066  0.033929172            2 
 1132000    1.0914332   -6.8606617     459.8435  0.033851848  0.033921357            3 
 1133000     1.077147   -6.9121319    458.58417  0.033729345  0.033913479            3 
 1134000    1.0760706   -6.8947883    458.49718  0.033693208   0.03390547            3 
 1135000     1.070138   -6.8679618    458.91283   0.03369404  0.033897438            3 
 1136000    1.0715568   -6.8846756    459.02667  0.033672731   0.03388924            4 
 1137000     1.058532   -6.8605475    459.74847  0.033696018  0.033880766            3 
 1138000    1.0683814   -6.8531721    460.82622   0.03374533  0.033872463            3 
 1139000    1.0383511   -6.8769736    458.83219  0.033569812  0.033864082            3 
 1140000    1.0649169   -6.8791997     460.9647   0.03369625  0.033855645            3 
 1141000    1.0715388   -6.8858533    461.52382  0.033707553  0.033847156            3 
 1142000    1.0698248   -6.8591159    460.10884  0.033574784  0.033838638            2 
 1143000    1.0767695   -6.8547728    461.04222   0.03361346  0.033830231            1 
 1144000     1.069043   -6.8454637    461.81058  0.033640048  0.033821736            2 
 1145000    1.0701125   -6.8830552    461.79093  0.033609238  0.033813245            3 
 1146000    1.0847056   -6.8614568    461.64699  0.033569444  0.033804715            2 
 1147000    1.0665844   -6.8715409    461.91083  0.033559345  0.033796381            3 
 1148000    1.0967224   -6.8496948    463.13734  0.033619145  0.033788099            2 
 1149000    1.0681303   -6.8793529    462.00927   0.03350807  0.033779904            5 
 1150000    1.0610069   -6.8764152    462.79088  0.033535571  0.033771384            2 
 1151000     1.053771   -6.8749768    462.54769  0.033488827     0.033763            2 
 1152000    1.0691138   -6.8848519     463.6654   0.03354061   0.03375455            3 
 1153000    1.0626303   -6.9089351    463.25557    0.0334819  0.033746229            6 
 1154000    1.0746361   -6.8582069    464.59908  0.033549905  0.033737857            5 
 1155000     1.083688    -6.930942    463.65228  0.033452545  0.033729165            4 
 1156000    1.0808513   -6.8645975    463.82412  0.033435995   0.03372069            2 
 1157000    1.0803404   -6.8768488    465.35008  0.033517003  0.033712436            2 
 1158000    1.0644339   -6.8768241    465.16281  0.033474583  0.033704172            4 
 1159000    1.0538505   -6.8638933    466.04546  0.033509165  0.033695991            2 
 1160000    1.0582848   -6.8629648    466.60112  0.033520195  0.033687712            3 
 1161000    1.0840599   -6.9063901    466.44688  0.033480252  0.033679553            2 
 1162000    1.0639836   -6.8562144    468.28132  0.033582998  0.033671505            3 
 1163000    1.0864917   -6.8896985    466.69015  0.033440108  0.033663539            2 
 1164000    1.0826169   -6.8909469    468.99477  0.033576373   0.03365539            2 
 1165000     1.093497   -6.8805982      467.959  0.033473462  0.033647267            3 
 1166000     1.077919   -6.8741326    467.92819  0.033442552  0.033639194            4 
 1167000    1.0711476   -6.8829247    470.13732  0.033571645  0.033631143            3 
 1168000    1.0602699   -6.9044039    469.17602  0.033474317  0.033622921            2 
 1169000     1.084382    -6.893428    470.40388  0.033533211  0.033614764            3 
 1170000    1.0718935    -6.836254    470.94428   0.03354304  0.033606608            3 
 1171000    1.0847867   -6.8488148    470.98862  0.033517551  0.033598638            5 
 1172000    1.0938589   -6.8944022    469.28264   0.03336765  0.033590411            4 
 1173000    1.0941286   -6.8752817    469.55777   0.03335875  0.033582012            2 
 1174000    1.0675036   -6.9055704    468.19141  0.033233348   0.03357331            3 
 1175000     1.079551   -6.8429938     470.8174  0.033391305  0.033564864            4 
 1176000    1.0781932   -6.8788287    471.23505  0.033392506  0.033556578            1 
 1177000    1.0425682    -6.861026    470.14104  0.033286678  0.033548253            1 
 1178000    1.0786807   -6.8997911    469.76918  0.033232115   0.03353989            2 
 1179000    1.0532086   -6.8922434    471.21967  0.033306451  0.033531711            2 
 1180000     1.094441   -6.8949297    471.69522   0.03331181  0.033523302            2 
 1181000    1.0740362   -6.8698546    472.65742  0.033351497  0.033514907            2 
 1182000    1.0581625   -6.8869487    472.85268  0.033337047  0.033506645            2 
 1183000    1.0450105   -6.8789171    473.07118  0.033324259  0.033498342            2 
 1184000    1.0333118   -6.8578735    474.25118  0.033379165  0.033490205            1 
 1185000    1.0597208   -6.8849548    473.34467  0.033287248  0.033482063            2 
 1186000    1.0581003   -6.8921915    473.44093  0.033265945  0.033473754            2 
 1187000    1.0598972   -6.8790633    475.43975  0.033378247  0.033465396            2 
 1188000    1.0675737   -6.8794763    473.40246  0.033207243  0.033457225            2 
 1189000    1.0565582   -6.8694699    474.25235  0.033238881   0.03344916            3 
 1190000    1.0641426   -6.8901831    474.61369  0.033236253  0.033441111            2 
 1191000    1.0408248     -6.86094    476.23988   0.03332213  0.033432858            1 
 1192000    1.0512654    -6.902495    474.58207  0.033178277  0.033424681            1 
 1193000    1.0626308   -6.8947937    475.30409    0.0332009  0.033416354            3 
 1194000    1.0595919   -6.9033491    476.84646  0.033280741  0.033407883            2 
 1195000    1.0603681   -6.9058451    477.40469  0.033291819  0.033399511            4 
 1196000    1.0810154   -6.8864635    476.44665   0.03319723  0.033391349            3 
 1197000    1.0687958   -6.9089296     477.8578  0.033267739   0.03338323            4 
 1198000    1.0498222   -6.8947786    478.73918  0.033301279  0.033375187            3 
 1199000     1.066697   -6.8954189    477.19175  0.033165954  0.033367211            2 
 1200000    1.0601756   -6.8933901    478.40941  0.033222876  0.033358935            2 
 1201000    1.0541473   -6.8920056    480.03187   0.03330779  0.033351178            2 
 1202000    1.0549851    -6.882596    479.92929  0.033272968  0.033343514            2 
 1203000    1.0817961   -6.9329184    478.89421  0.033173608  0.033335682            2 
 1204000    1.0550289   -6.8690691    480.18567  0.033235442  0.033327897            1 
 1205000    1.0535198   -6.8992363    480.21611  0.033209966  0.033320141            2 
 1206000    1.0620793   -6.8747843     480.8765  0.033228061  0.033312115            4 
 1207000    1.0485223   -6.8812767    480.88219  0.033200924  0.033304291            4 
 1208000    1.0448018   -6.9244414    480.69108  0.033160257   0.03329646            1 
 1209000    1.0614411   -6.9060221    482.47256  0.033255622  0.033288758            3 
 1210000    1.0570485   -6.9237522    481.35501  0.033151171  0.033281026            4 
 1211000    1.0577998   -6.8903872    481.99164  0.033167606  0.033273346            2 
 1212000    1.0631721   -6.8833668    481.86708  0.033131675  0.033265693            3 
 1213000    1.0587731   -6.9416351    482.21926  0.033128556  0.033258014            5 
 1214000     1.061963   -6.8690788    484.57092  0.033262693  0.033250477            3 
 1215000    1.0564238   -6.8545976    484.22562  0.033211634  0.033242943            1 
 1216000    1.0320724   -6.8915564    484.19922  0.033182512  0.033235514            2 
 1217000    1.0604938   -6.8922364    484.76989  0.033194323  0.033227894            3 
 1218000    1.0697157   -6.8810652    486.67417  0.033297357  0.033220288            3 
 1219000    1.0756085    -6.926568    484.16375  0.033098424  0.033212826            3 
 1220000    1.0678502   -6.8865307    485.87631  0.033188272  0.033205406            1 
 1221000    1.0524523   -6.9247468    486.06212  0.033173773  0.033197814            2 
 1222000    1.0411233   -6.8810754     486.8008     0.033197  0.033190221            2 
 1223000    1.0289533   -6.9378383    485.59887  0.033087958  0.033182665            2 
 1224000    1.0547934   -6.9110248    488.83552  0.033281286  0.033175075            3 
 1225000    1.0589933   -6.9049271    486.39941  0.033088395  0.033167548            4 
 1226000    1.0527671   -6.8976493    486.88247  0.033094241  0.033160025            1 
 1227000    1.0555087   -6.9178623    488.52397  0.033178754  0.033152602            2 
 1228000     1.040442   -6.9030653    489.22532  0.033199329  0.033145182            2 
 1229000    1.0651972   -6.9006043    488.91708  0.033151415   0.03313787            2 
 1230000    1.0683188   -6.9005646    488.74403  0.033112739  0.033130742            2 
 1231000    1.0679153   -6.9131655    489.75077  0.033153992  0.033123523            2 
 1232000    1.0412455   -6.9208967     488.4661  0.033040185  0.033116336            4 
 1233000    1.0718705   -6.9072178    490.09539  0.033123506  0.033109274            3 
 1234000     1.064705   -6.9172268     491.6452  0.033201323  0.033101991            4 
 1235000    1.0225145    -6.898728    492.03958  0.033201052  0.033094995            4 
 1236000    1.0654084   -6.8616405    493.73923  0.033288783  0.033088131            2 
 1237000    1.0914197   -6.9032575    490.90908  0.033071213  0.033080985            2 
 1238000    1.0604332   -6.8768871    492.00881  0.033118525  0.033073784            2 
 1239000    1.0616844   -6.8628023    493.84534  0.033215317  0.033066644            2 
 1240000    1.0563502   -6.8766866    493.80409  0.033185759  0.033059639            2 
 1241000    1.0400059   -6.8928448    493.50245  0.033138763  0.033052402            4 
 1242000    1.0555541    -6.882131    491.94835  0.033007806  0.033045119            2 
 1243000     1.051386   -6.8891903    493.86329  0.033109633  0.033037779            3 
 1244000    1.0573609   -6.8980251     493.4065  0.033052418  0.033030425            2 
 1245000     1.049334   -6.9257217    493.98419  0.033064538   0.03302324            4 
 1246000    1.0533104   -6.9056167    494.19624  0.033052183  0.033016002            3 
 1247000     1.068033   -6.9099025    493.63336  0.032988062  0.033008796            2 
 1248000    1.0688551   -6.8711437    494.48381  0.033018417  0.033001722            3 
 1249000    1.0491252   -6.9022441    494.37482  0.032984709  0.032994455            4 
 1250000    1.0700719   -6.9198729    496.92042  0.033128028  0.032987128            1 
 1251000    1.0506783   -6.9061541    495.58804  0.033012792  0.032979972            4 
 1252000    1.0425569   -6.9381109    494.98541  0.032946313  0.032972574            2 
 1253000    1.0281842   -6.8991084    495.25465  0.032937926  0.032965219            2 
 1254000    1.0430526   -6.9074635    496.68002  0.033006381  0.032957798            1 
 1255000    1.0449769   -6.9063387    494.81368  0.032856154  0.032950276            1 
 1256000    1.0363104   -6.9037031    497.05282  0.032978558  0.032942662            4 
 1257000    1.0576632   -6.8877763    495.27257  0.032834299  0.032935223            1 
 1258000     1.050261   -6.9261787    497.47027   0.03295378  0.032927689            2 
 1259000    1.0532105   -6.8947966    496.59083  0.032869396  0.032920078            2 
 1260000    1.0547211    -6.938256    497.21436  0.032884548  0.032912668            2 
 1261000    1.0571981   -6.9180545    498.44832  0.032940016   0.03290515            5 
 1262000    1.0337361   -6.9324805    496.72075  0.032799838  0.032897693            2 
 1263000    1.0350333   -6.9481122    498.02357  0.032859829  0.032890183            1 
 1264000    1.0264423   -6.9391038    498.60786  0.032872354  0.032882652            1 
 1265000      1.04088   -6.8863343    498.21814  0.032820694  0.032875002            4 
 1266000    1.0496391   -6.9123934    498.68336  0.032825392   0.03286757            4 
 1267000    1.0590221   -6.9227641    499.17095  0.032831554  0.032859948            1 
 1268000    1.0500682   -6.8839599    498.90868  0.032788425  0.032852566            4 
 1269000    1.0574548   -6.9243691    497.42912  0.032665427  0.032844758            2 
 1270000    1.0436075   -6.8958283    500.17215  0.032819695  0.032837021            2 
 1271000    1.0257993   -6.9178235    498.91621  0.032711527  0.032829268            3 
 1272000    1.0470463   -6.8878616    499.99178  0.032756275  0.032821378            3 
 1273000    1.0662091   -6.8800757    501.44116  0.032825423  0.032813718            1 
 1274000    1.0404928   -6.9222247    500.33078  0.032727026  0.032806224            2 
 1275000    1.0503004   -6.9261597     501.6101  0.032784974  0.032798694            3 
 1276000    1.0544621   -6.9284834    501.77585  0.032770105  0.032791092            2 
 1277000    1.0513474   -6.8955613    501.95274  0.032755987  0.032783555            3 
 1278000    1.0490295   -6.9236295    500.96798  0.032666144  0.032775897            4 
 1279000    1.0299923   -6.9092514    502.42572  0.032735582   0.03276816            1 
 1280000    1.0271192   -6.9000824    502.78703   0.03273353  0.032760414            2 
 1281000    1.0686856   -6.9032962    502.92799  0.032717148  0.032752652            3 
 1282000    1.0629367   -6.9396473      503.215  0.032710283  0.032744886            3 
 1283000    1.0692814   -6.9238868    502.77383  0.032656133  0.032737265            2 
 1284000    1.0424773   -6.9140847    504.51036  0.032743403  0.032729614            3 
 1285000    1.0459781   -6.9220781    502.58511  0.032593068  0.032721819            3 
 1286000    1.0422564   -6.9405398    503.28544  0.032613105  0.032713884            2 
 1287000    1.0629986   -6.8929601    504.50527  0.032666749  0.032706144            2 
 1288000    1.0610414   -6.9200867    503.04685  0.032547027    0.0326986            2 
 1289000    1.0562657   -6.9333016    504.44615  0.032612241  0.032690973            3 
 1290000    1.0502178   -6.9382492    504.12469  0.032566195  0.032683158            2 
 1291000    1.0431835    -6.936538    504.74582  0.032581063  0.032675414            2 
 1292000     1.028678    -6.934505     505.4915  0.032603941  0.032667705            4 
 1293000    1.0357699   -6.9321353    505.28787  0.032565601  0.032660062            2 
 1294000    1.0818917   -6.8941142    506.53963  0.032621047  0.032652486            6 
 1295000    1.0316462   -6.9230296     505.2495  0.032512838  0.032644896            4 
 1296000    1.0526615   -6.9014466    507.53719   0.03263485  0.032637365            3 
 1297000    1.0382645   -6.9256233    508.01965  0.032640687  0.032629815            4 
 1298000    1.0433086   -6.9146152    507.86445  0.032605576  0.032622355            4 
 1299000    1.0305715   -6.9503017    508.38083  0.032613602  0.032614834            1 
 1300000    1.0528692   -6.9212538    509.36275  0.032651458  0.032607422            3 
 1301000     1.059417   -6.9219856    508.78325  0.032589242  0.032600098            2 
 1302000    1.0374474   -6.9434066    508.98834  0.032577339  0.032592781            2 
 1303000     1.056293   -6.9510731    509.96774  0.032614974  0.032585403            1 
 1304000    1.0161199   -6.9396646    510.59394  0.032629981  0.032578063            2 
 1305000    1.0298881   -6.9062625    511.88551  0.032687453  0.032570678            4 
 1306000    1.0852966   -6.9489303    510.79313  0.032592722  0.032563347            2 
 1307000    1.0451285   -6.9150748    510.36258  0.032540333  0.032556071            2 
 1308000    1.0685296   -6.9295027    510.93148    0.0325517  0.032548883            2 
 1309000    1.0377546   -6.8992335    512.14475  0.032604071  0.032541796            4 
 1310000    1.0425887   -6.9247921    514.12355  0.032705061  0.032534642            4 
 1311000    1.0458799   -6.9353832    512.24857  0.032560931  0.032527534            2 
 1312000    1.0509625   -6.9583277    512.16381   0.03253073  0.032520175            5 
 1313000    1.0130673   -6.9512418     512.4751  0.032525711  0.032512912            7 
 1314000    1.0508902     -6.93405    512.27563  0.032488307  0.032505709            2 
 1315000    1.0627384   -6.8977156    513.43148  0.032536849  0.032498414            3 
 1316000    1.0370587   -6.9349827    513.49589  0.032516204  0.032491197            3 
 1317000    1.0348416   -6.9591656    512.95707   0.03245742  0.032483906            3 
 1318000     1.056495   -6.9092837    513.47861   0.03246577  0.032476634            5 
 1319000    1.0284734   -6.9169286     515.0345  0.032539455  0.032469279            4 
 1320000    1.0487687   -6.9091602    515.29015  0.032530944  0.032462188            2 
 1321000    1.0555709   -6.9309068    516.18888  0.032563013   0.03245509            2 
 1322000    1.0237988   -6.8856381     517.1191  0.032597018  0.032448169            3 
 1323000    1.0388674   -6.9152895    517.02361  0.032566365  0.032441306            1 
 1324000    1.0146991   -6.8996671    518.09082  0.032608939  0.032434443            6 
 1325000    1.0278887   -6.9231117    518.20291  0.032591378  0.032427563            1 
 1326000    1.0634331   -6.9543776    515.95758   0.03242569  0.032420516            6 
 1327000    1.0383479   -6.9001684    519.35062  0.032614332  0.032413656            3 
 1328000    1.0379053   -6.9339816    518.65956  0.032546408  0.032406809            2 
 1329000    1.0306207    -6.898567    518.36271  0.032503305  0.032399989            1 
 1330000    1.0538865    -6.904754    519.11607   0.03252607  0.032393094            2 
 1331000    1.0427484   -6.9159025    519.22686  0.032508569  0.032386167            1 
 1332000     1.044963   -6.9326131    518.84866  0.032460502  0.032379337            7 
 1333000     1.062541   -6.9271629    520.28786  0.032526123  0.032372595            2 
 1334000    1.0437936    -6.929537    520.61189  0.032521982  0.032365557            9 
 1335000    1.0271737   -6.9086906    520.20912   0.03247248   0.03235852            4 
 1336000    1.0665381   -6.9493026    519.52832  0.032405709  0.032351662            1 
 1337000    1.0450798   -6.9512542    521.32481  0.032493444  0.032344739            8 
 1338000     1.052947   -6.9348236    521.38669  0.032473012  0.032337828            3 
 1339000    1.0474961   -6.9135239    522.38398  0.032510827  0.032331078            2 
 1340000    1.0212492   -6.9178841    521.46968  0.032429707  0.032324363            2 
 1341000    1.0177723    -6.939312    522.58228  0.032474663  0.032317506            1 
 1342000     1.019997   -6.9465625    521.83858  0.032404283  0.032310771            1 
 1343000    1.0355131   -6.9741207    522.65585  0.032430867  0.032303919            3 
 1344000    1.0265412    -6.886364    523.14774  0.032437236   0.03229707            3 
 1345000    1.0337395    -6.958892    521.99194  0.032341508  0.032290159            2 
 1346000    1.0567818   -6.9471435    523.11072  0.032386746  0.032283304            3 
 1347000    1.0403367   -6.9257864     524.2748  0.032434719  0.032276457            3 
 1348000    1.0415981   -6.9087462    524.05124  0.032396837  0.032269427            7 
 1349000    1.0324907    -6.950567    523.94265  0.032366114  0.032262524            5 
 1350000    1.0638609    -6.927478    527.35493  0.032552774   0.03225579            2 
 1351000    1.0259962   -6.9471512    525.60213  0.032420561  0.032249035            4 
 1352000    1.0713371   -6.9195367    525.93692  0.032417216  0.032242215            2 
 1353000     1.013277   -6.9149779    524.70237  0.032317219  0.032235352            2 
 1354000    1.0550867   -6.9664244    525.32639  0.032331757  0.032228403            5 
 1355000    1.0440028   -6.9603707    524.73847  0.032271739   0.03222143            5 
 1356000    1.0517888   -6.9315411    526.23048  0.032339631  0.032214352            2 
 1357000     1.047163   -6.9484911    524.49016  0.032208927  0.032207096            3 
 1358000    1.0389458   -6.9302008    524.85185  0.032207403  0.032199884            2 
 1359000    1.0312663   -6.9188526    524.89581    0.0321864  0.032192728            2 
 1360000    1.0185538   -6.9426603    525.57476  0.032204336  0.032185228            3 
 1361000    1.0359626   -6.9309247     526.8606  0.032259405   0.03217793            4 
 1362000    1.0589522    -6.920541    525.80904   0.03217138  0.032170513            5 
 1363000    1.0349777   -6.9442777    526.91437  0.032215356  0.032163058            2 
 1364000    1.0398884   -6.9452408    525.80733  0.032124104  0.032155687            2 
 1365000    1.0159741   -6.9574932    524.43849  0.032017002  0.032148215            2 
 1366000    1.0322065   -6.9599756    526.80345  0.032137838  0.032140551            4 
 1367000    1.0297992   -6.9169081    526.65253  0.032105129  0.032132908            3 
 1368000    1.0142662   -6.9303205    526.61698  0.032079494  0.032125438            1 
 1369000    1.0401579   -6.9099105    528.12743  0.032148005   0.03211799            3 
 1370000    1.0445511   -6.9064435    527.28749  0.032073449  0.032110389            3 
 1371000    1.0313616   -6.9279546     526.5096  0.032002772  0.032102723            2 
 1372000    1.0316662   -6.9607813    526.11615  0.031955549  0.032094858            3 
 1373000    1.0431264   -6.9375546    528.89195  0.032100749  0.032087215            3 
 1374000    1.0396543   -6.9553778     526.8664  0.031954537  0.032079306            3 
 1375000    1.0273681   -6.9575901    528.70006  0.032042428  0.032071473            5 
 1376000    1.0257336   -6.9257762     528.0927  0.031982359  0.032063636            1 
 1377000    1.0519659    -6.974357    528.19822  0.031965518  0.032055861            2 
 1378000    1.0401272   -6.9838377    530.35128  0.032072525  0.032048112            4 
 1379000    1.0448477   -6.9127057    528.59452  0.031943106  0.032040515            3 
 1380000    1.0441203   -6.9900486    527.81391   0.03187282  0.032032704            7 
 1381000     1.037724   -6.9466119    529.04205  0.031923851  0.032024855            2 
 1382000    1.0100886    -6.992613    529.17938  0.031909032  0.032016967            4 
 1383000     1.039276   -6.9051134    530.93285  0.031991615  0.032009294            2 
 1384000    1.0275668   -6.9342604    531.63415  0.032010727  0.032001618            3 
 1385000     1.033662    -6.941583    531.17958  0.031960263  0.031993841            5 
 1386000     1.043046   -6.9537375    530.36441  0.031888192  0.031986216            2 
 1387000     1.017193   -6.9400325    531.33864  0.031923735  0.031978584            2 
 1388000     1.035339   -6.9238333    532.00316  0.031940632  0.031970895            1 
 1389000      1.06089   -6.9651052    531.57651  0.031892039   0.03196324            3 
 1390000    1.0247377   -6.9618824    531.74727  0.031879333  0.031955441            4 
 1391000    1.0407943   -6.9670412    531.88657   0.03186476  0.031947729            2 
 1392000    1.0274129   -6.9246191    533.16964  0.031918681  0.031940215            2 
 1393000    1.0029202   -6.9281707    534.58639  0.031980521  0.031932677            2 
 1394000    1.0451236   -6.9499663    533.05796   0.03186621  0.031925197            2 
 1395000    1.0266641   -6.9327767    533.51614  0.031870737  0.031917638            3 
 1396000    1.0150032    -6.944069     534.3622  0.031898412   0.03191015            1 
 1397000    1.0207118    -6.972449    533.41673   0.03181918  0.031902624            4 
 1398000    1.0385797   -6.9941878     534.7825  0.031877832  0.031895112            2 
 1399000    1.0280856   -6.9665864    534.52416  0.031839657   0.03188769            3 
 1400000    1.0039154   -6.9672046      534.578  0.031820119  0.031880118            2 
 1401000    1.0061309   -6.9419576    535.98465  0.031881076  0.031872427            2 
 1402000      1.03147   -6.9809591    535.26117  0.031815334  0.031864866            2 
 1403000    1.0269695   -6.9647852    534.56409  0.031751253    0.0318574            3 
 1404000    1.0353692   -6.9571369    536.46235  0.031841308  0.031849895            2 
 1405000    1.0256741   -6.9416889    536.39836  0.031814849  0.031842545            2 
 1406000    1.0125446   -6.9518493     536.7923   0.03181557  0.031835117            3 
 1407000    1.0525738   -6.9239568    537.35734  0.031826424  0.031827745            2 
 1408000    1.0416422   -6.9158589    536.51825  0.031754158  0.031820189            1 
 1409000    1.0212814   -6.9676829    537.32131  0.031779117  0.031812641            2 
 1410000    1.0212245   -6.9460793    536.95544  0.031734955  0.031805103            3 
 1411000    1.0265322   -6.9337756      538.149  0.031782955  0.031797691            3 
 1412000       1.0179   -6.9626571    538.44561  0.031777952   0.03179017            2 
 1413000    1.0183111   -6.9930033    538.06168  0.031732819  0.031782566            3 
 1414000    1.0504299      -6.9683    537.78518  0.031694082  0.031774987            5 
 1415000    1.0237705   -6.9661194    540.40098  0.031825735  0.031767621            1 
 1416000    1.0111314   -6.9853427    539.66502  0.031759947  0.031760224            3 
 1417000    1.0151385   -6.9491512    540.15977  0.031766629   0.03175292            2 
 1418000     1.049103   -6.9538846    541.03512   0.03179567  0.031745648            4 
 1419000    1.0328628   -6.8996459    540.79564  0.031759199  0.031738457            2 
 1420000    1.0142046   -6.9771682    540.30613  0.031708106  0.031731223            2 
 1421000    1.0020195   -6.9832618    542.18157  0.031795776  0.031723951            2 
 1422000    1.0179967   -6.9875969    541.78318  0.031750069  0.031716797            2 
 1423000    1.0110481   -6.9469457     542.1573  0.031749666  0.031709659            2 
 1424000    1.0409446   -6.9971763    543.16615  0.031786408  0.031702534            3 
 1425000    1.0417519   -6.9277845     545.3311  0.031890708  0.031695414            3 
 1426000    1.0190788   -6.9933509    542.98969  0.031731516   0.03168839            3 
 1427000    1.0375111   -6.9572745    543.20995  0.031722142   0.03168116            4 
 1428000    1.0184717   -6.9291933    542.26053  0.031644522  0.031673852            2 
 1429000   0.99245786    -6.979097    543.38268  0.031687817  0.031666632            3 
 1430000    1.0186666   -6.9812995    543.49746  0.031672346  0.031659231            2 
 1431000    1.0307664   -6.9308921     545.5755  0.031771227  0.031652018            3 
 1432000    1.0201629   -6.9310273    545.41637   0.03173978  0.031644923            3 
 1433000    1.0291293   -6.9655599    546.04982  0.031754467  0.031637858            2 
 1434000   0.99618801   -6.9479652    545.48613  0.031699566  0.031630661            1 
 1435000    1.0319073   -6.9516666    545.64616  0.031686769  0.031623415            3 
 1436000    1.0435246   -7.0014442    542.73399  0.031495705  0.031616027            3 
 1437000    1.0096619   -6.9821766    543.77841  0.031534355  0.031608517            1 
 1438000    1.0303577    -7.000458    544.35814  0.031546021  0.031601173            2 
 1439000    1.0359807    -6.935636     546.6966   0.03165952  0.031593759            2 
 1440000    1.0334408   -6.9670161    546.07429  0.031601521   0.03158642            3 
 1441000     1.033138   -6.9574518    547.07518  0.031637473  0.031579232            2 
 1442000    1.0116131   -6.9783691    546.07998   0.03155802  0.031571972            3 
 1443000    1.0279932   -6.9473161    548.18848  0.031657916  0.031564768            4 
 1444000    1.0228909   -6.9992468    547.74122  0.031610181  0.031557613            2 
 1445000    1.0102967   -6.9803965    549.20179  0.031672537  0.031550502            2 
 1446000    1.0304119   -6.9577985    549.57119  0.031671922  0.031543441            4 
 1447000    1.0100013   -7.0157903    549.11652   0.03162385  0.031536299            2 
 1448000    1.0091996   -6.9973874    549.58798  0.031629142  0.031529321            4 
 1449000     1.022369   -6.9436542    549.64344  0.031610504   0.03152222            2 
 1450000    1.0194073   -6.9912513    548.36414  0.031515181  0.031514994            1 
 1451000    1.0248735   -6.9507267    549.65948  0.031567854  0.031507638            3 
 1452000    1.0180521   -6.9478165    550.33967  0.031585151  0.031500331            1 
 1453000    1.0175065   -6.9484877    550.66193  0.031581896  0.031493248            2 
 1454000   0.99247542   -6.9747005    550.97129  0.031577905     0.031486            2 
 1455000    1.0215342   -6.9615387     550.9222  0.031553391  0.031478795            2 
 1456000   0.99568144   -6.9661303    550.57221  0.031511688  0.031471749            3 
 1457000     1.026612   -7.0127159    550.37831   0.03147897  0.031464449            2 
 1458000    1.0208682   -6.9781125    550.80812  0.031481946  0.031457222            2 
 1459000    1.0158645   -6.9864584    549.94676   0.03141117  0.031449898            4 
 1460000    1.0212149   -6.9758093    553.01913  0.031565019  0.031442629            3 
 1461000     1.038697   -6.9890556    552.04923  0.031488092  0.031435383            3 
 1462000   0.99754168   -6.9684552     552.4971  0.031492083     0.031428            3 
 1463000    1.0452673   -6.9772011     552.6169  0.031477381  0.031420844            3 
 1464000    1.0129812   -6.9871882    553.70095  0.031517586   0.03141364            5 
 1465000   0.99855728   -6.9688401    553.38709  0.031478219  0.031406563            2 
 1466000    1.0353473   -6.9636025     555.2262  0.031561289  0.031399551            2 
 1467000    1.0303088   -6.9898309    553.71122  0.031453716  0.031392695            3 
 1468000    1.0209991   -7.0146231    553.39905  0.031414569  0.031385679            3 
 1469000    1.0160309   -6.9654123    554.83909  0.031474875  0.031378727            3 
 1470000    1.0254278    -6.951661    556.87413  0.031568828  0.031371904            1 
 1471000    1.0142525   -7.0208017    554.77521  0.031428462  0.031364964            5 
 1472000    1.0238672   -6.9913105    555.19681  0.031430979   0.03135814            2 
 1473000    1.0092943   -6.9186132    558.44281   0.03159328  0.031351472            3 
 1474000    1.0077187   -7.0061272    557.30523  0.031507532  0.031344783            2 
 1475000    1.0224556   -6.9656409    557.45668  0.031494728  0.031338018            3 
 1476000   0.97177738    -6.985622    558.42482   0.03152805   0.03133128            4 
 1477000    1.0197282   -6.9471851    557.49314  0.031454138  0.031324457            4 
 1478000   0.99536598   -6.9767166    558.24561  0.031475282  0.031317783            5 
 1479000    1.0196612   -6.9712121    558.58394  0.031473064   0.03131096            4 
 1480000   0.99685346   -7.0235827    556.45885  0.031332143  0.031304089            3 
 1481000    1.0141036   -6.9920753    559.87678  0.031503307  0.031297326            3 
 1482000   0.99899861   -6.9416074    558.64843  0.031412979  0.031290569            6 
 1483000    1.0201182   -7.0021604    560.38552  0.031489409   0.03128391            3 
 1484000    1.0168611   -6.9452545    557.89362  0.031328258  0.031277064            3 
 1485000    1.0189504   -6.9770374    559.05241  0.031372189  0.031270257            3 
 1486000    1.0042011   -6.9714167    559.24032  0.031361615  0.031263512            4 
 1487000   0.99855279   -6.9452703    560.72398  0.031423671  0.031256768            4 
 1488000    1.0151766   -7.0034147    558.94217  0.031302765  0.031249987            3 
 1489000    1.0182053   -7.0084883    559.97364  0.031339469  0.031243237            3 
 1490000    1.0082077   -7.0040222    562.84379  0.031478959  0.031236571            1 
 1491000    1.0357624   -6.9990792    561.31916  0.031372633  0.031229732            2 
 1492000   0.99865182   -6.9609016    562.68834   0.03142808  0.031222875            3 
 1493000   0.99871764   -6.9986045    561.64009   0.03134852  0.031216034            3 
 1494000   0.99588742   -6.9563694    562.77929   0.03139108  0.031209252            5 
 1495000   0.99904281   -6.9990026    561.26421   0.03128563  0.031202307            4 
 1496000    1.0171636   -6.9964707    562.11161  0.031311921  0.031195356            2 
 1497000   0.98127985   -6.9910852    562.21389  0.031296698  0.031188388            3 
 1498000    1.0111979   -7.0126663    561.89509  0.031258071  0.031181204            3 
 1499000   0.99471184   -6.9779953    563.64954  0.031334753  0.031174184            1 
 1500000    1.0111599   -6.9892749    562.42673  0.031245929  0.031167276            4 
 1501000   0.99517809   -7.0226571    562.91298  0.031252109  0.031160193            2 
 1502000    1.0247141   -7.0031353    563.80325  0.031280695   0.03115328            6 
 1503000   0.99232013   -6.9389252    565.17339   0.03133585  0.031146383            3 
 1504000    1.0327119   -6.9976203    565.94326  0.031357672   0.03113956            1 
 1505000    1.0101889   -6.9834981    563.85158  0.031221018  0.031132747            2 
 1506000   0.99110314   -7.0175134    564.64671  0.031244285  0.031125802            3 
 1507000    1.0190665   -6.9743327    566.08087  0.031302857   0.03111881            2 
 1508000    1.0042509   -6.9578535    566.15055   0.03128595  0.031111994            3 
 1509000   0.97297867   -6.9635128    566.88101  0.031305556  0.031105183            3 
 1510000    1.0155203    -6.971588    566.35187  0.031255622  0.031098422            3 
 1511000    1.0046007   -6.9603683    567.35746  0.031290396  0.031091473            6 
 1512000    1.0135688   -6.9919368    565.73419  0.031180235  0.031084567            3 
 1513000   0.99882699   -6.9891709    566.93223  0.031225613  0.031077595            3 
 1514000    0.9986615   -6.9550477    566.04373  0.031156084  0.031070739            2 
 1515000    1.0191715   -6.9717366    567.18197  0.031198128  0.031063693            2 
 1516000    1.0059376   -6.9877314    567.26472  0.031182098  0.031056723            2 
 1517000    1.0083794   -6.9989374    567.82276  0.031192197  0.031049699            3 
 1518000    1.0147529    -6.987069    565.43877  0.031040775  0.031042626            5 
 1519000    1.0088163   -6.9782791    569.58734  0.031247934  0.031035615            2 
 1520000   0.99779665   -6.9823788    568.89401  0.031189365  0.031028607            2 
 1521000     1.015651   -7.0060879    567.87238  0.031112885  0.031021697            4 
 1522000    1.0097703   -6.9976436    569.55358  0.031184493  0.031014734            6 
 1523000   0.98627649   -6.9628687    570.21905  0.031200429  0.031007871            1 
 1524000     1.018679    -6.967916    569.12292   0.03112002  0.031000969            6 
 1525000    1.0043251   -7.0269367    568.05127  0.031041053  0.030993978            2 
 1526000   0.97671746   -6.9857961    570.43973  0.031151143  0.030987009            3 
 1527000    1.0203065      -7.0303    567.96009  0.030995421  0.030980064            2 
 1528000    1.0164323   -7.0052232    568.96129  0.031029739  0.030973172            3 
 1529000    1.0253948   -7.0148967    568.89771  0.031005979  0.030966188            1 
 1530000   0.98834335   -6.9725703    570.86368  0.031092793  0.030959214            9 
 1531000    1.0087075   -7.0111498    569.44097  0.030995045  0.030952194            2 
 1532000    1.0075845   -6.9901475    570.86386  0.031052212  0.030945078            3 
 1533000    1.0044902   -7.0057296    570.76388  0.031026521  0.030938085            3 
 1534000   0.98894307   -7.0184742     571.5132  0.031047001    0.0309311            3 
 1535000     1.028535   -6.9909606    572.78025  0.031095562  0.030924103            2 
 1536000    1.0212005    -6.959005    574.18054  0.031151288  0.030917286            2 
 1537000     1.011557   -6.9727615    574.64473  0.031156188  0.030910519            2 
 1538000    1.0150901   -7.0225617    572.19914  0.031003421  0.030903639            3 
 1539000   0.97267815   -6.9911936    571.75853  0.030959418  0.030896706            6 
 1540000    1.0022055   -7.0211906    573.26066  0.031020599  0.030889784            5 
 1541000    1.0043933   -7.0137097    571.73568  0.030918001  0.030882903            2 
 1542000   0.98569435   -7.0020168    573.47252  0.030991814  0.030876029            2 
 1543000    1.0094842   -6.9794891    574.30149  0.031016499   0.03086913            2 
 1544000   0.99954949    -7.023663    573.05753  0.030929271  0.030862232            2 
 1545000    1.0057383   -7.0162073    574.21061  0.030971446  0.030855253            2 
 1546000    1.0122565   -7.0013969    572.56478  0.030862698  0.030848222            1 
 1547000    1.0061764   -7.0484554    573.43499  0.030889624  0.030841103            2 
 1548000    1.0003623     -6.99983    573.49879  0.030873104  0.030833925            5 
 1549000    1.0012198   -7.0211809    574.84576  0.030925638  0.030826799            3 
 1550000    0.9938416   -6.9806204    574.78561  0.030902452  0.030819681            2 
 1551000    0.9988457    -6.996789     574.4778   0.03086599  0.030812513            7 
 1552000    1.0155159   -7.0061458    573.66042  0.030802213  0.030805283            2 
 1553000    1.0065947    -7.026095    573.64211  0.030781397  0.030798116            3 
 1554000    1.0104293   -7.0231503    574.55957  0.030810788    0.0307908            3 
 1555000   0.98320998   -6.9865381    573.81036  0.030750823  0.030783538            3 
 1556000    1.0161801   -7.0094668    574.69851  0.030778626  0.030776291            3 
 1557000    1.0084812   -6.9722942    576.01573  0.030829358  0.030769109            3 
 1558000    1.0227702   -7.0035193    576.08258  0.030813146  0.030761903            4 
 1559000    1.0169618   -6.9713216    577.15269  0.030850582  0.030754691            2 
 1560000    1.0154477   -7.0335668     575.7155  0.030754033  0.030747346            5 
 1561000   0.99076317   -6.9737321    577.23596  0.030815501  0.030740009            4 
 1562000    1.0116156   -7.0357244    576.68596   0.03076643  0.030732866            1 
 1563000    1.0234981   -6.9923822    578.87753  0.030863592  0.030725754            3 
 1564000   0.98699864   -7.0000468    577.76701  0.030784687  0.030718658            2 
 1565000    1.0050566   -7.0139768    577.41112  0.030746066  0.030711447            2 
 1566000   0.99234069   -6.9871759    577.79401  0.030746808  0.030704308            2 
 1567000    0.9992452   -7.0088654    577.63376  0.030718664  0.030697153            2 
 1568000     1.002528    -7.026515    579.40804  0.030793369  0.030690033            2 
 1569000    1.0065908   -7.0050598    578.50226  0.030725635  0.030682874            7 
 1570000    1.0091697   -6.9837705    578.12175  0.030685868  0.030675801            2 
 1571000   0.98969622   -7.0066449     577.6746  0.030642616  0.030668639            3 
 1572000   0.98208624   -6.9935706    579.03407   0.03069519   0.03066144            4 
 1573000   0.99420185   -6.9697512     579.7868  0.030715554  0.030654054            5 
 1574000   0.98564677   -7.0131238     577.7981  0.030590751  0.030646708            2 
 1575000   0.99588541    -7.049294    579.11565   0.03064104  0.030639447            5 
 1576000    1.0219754   -7.0349684    579.78352  0.030656912  0.030632022            2 
 1577000    1.0173678   -6.9803317    579.43186  0.030618889  0.030624716            6 
 1578000    1.0256337   -7.0085824     579.5502  0.030605735  0.030617427            2 
 1579000   0.97419469   -6.9963298     580.0619  0.030613358  0.030610079            4 
 1580000    1.0012157   -6.9842199    581.32786  0.030660752  0.030602764            2 
 1581000   0.99806653   -7.0013674    581.59952  0.030655678  0.030595415            2 
 1582000    1.0116437   -7.0243361    580.89495  0.030599186  0.030588131            2 
 1583000    1.0003682     -6.98842    581.55456   0.03061458  0.030580782            2 
 1584000    1.0025406    -7.017761    579.62561  0.030493771  0.030573321            3 
 1585000   0.98553172   -7.0022161    580.88308  0.030540645  0.030565704            3 
 1586000   0.97834375   -7.0270921    580.41501  0.030496795  0.030558052            2 
 1587000    1.0016763   -7.0028544    582.42404  0.030583073  0.030550544            3 
 1588000   0.98864347   -7.0276273    580.58591  0.030467355  0.030543037            2 
 1589000   0.97642932   -6.9689994    582.77036  0.030562742  0.030535648            4 
 1590000   0.97661694   -7.0215552    581.68513  0.030486642  0.030528224            4 
 1591000    1.0084956   -6.9964071    584.71879  0.030626377  0.030520827            2 
 1592000   0.99203722   -7.0235941    580.87637  0.030406008  0.030513475            2 
 1593000    1.0124829   -7.0072319    586.31642  0.030671501  0.030505984            1 
 1594000     1.008188   -7.0232205    582.78641  0.030467713  0.030498633            3 
 1595000   0.98083429   -7.0331367    583.83995  0.030503655   0.03049121            2 
 1596000   0.99996513   -6.9908186    585.24446  0.030557877  0.030483954            2 
 1597000   0.99226895   -7.0209124    584.65249  0.030507853  0.030476558            2 
 1598000   0.99858499   -6.9994672    585.26441  0.030520672  0.030469226            3 
 1599000   0.99871854   -6.9948015    584.36407  0.030454663  0.030461904            3 
 1600000   0.97546112   -7.0011623    584.98616  0.030468029  0.030454412            1 
 1601000   0.98862309   -7.0389875    583.59127  0.030376393  0.030446991            3 
 1602000    1.0171438   -7.0096927     586.3889   0.03050296   0.03043957            4 
 1603000   0.99473386    -7.032927    584.87253  0.030405102  0.030432124            5 
 1604000   0.98359172   -6.9787091    587.78088  0.030537244   0.03042489            4 
 1605000   0.97883678   -7.0310982    586.18251  0.030435229  0.030417447            2 
 1606000    1.0067659   -7.0080831    585.36606  0.030373913  0.030410094            3 
 1607000    1.0112505   -6.9934422    587.79262  0.030480845  0.030402782            2 
 1608000   0.99662578   -7.0039417    587.99051  0.030472145  0.030395422            2 
 1609000   0.97732958   -7.0058373    586.45507  0.030373683  0.030388111            4 
 1610000   0.99226292    -7.002753    587.17612  0.030392139  0.030380793            2 
 1611000   0.99340097   -7.0216952    587.73308  0.030402083  0.030373303            4 
 1612000   0.98952994    -7.007835    587.89821   0.03039176  0.030366075            3 
 1613000   0.99003635   -7.0272645    588.95734  0.030427637  0.030358786            4 
 1614000   0.99922357   -7.0436961    587.34648  0.030325613  0.030351519            4 
 1615000   0.98097255   -7.0173243    587.58547  0.030319168  0.030344293            2 
 1616000   0.97106448   -7.0337953     589.0895  0.030377965  0.030337064            1 
 1617000    1.0006486    -7.030527    588.33566  0.030320329  0.030329755            3 
 1618000   0.99379659   -7.0165693    589.94201  0.030384323  0.030322454            2 
 1619000   0.99582707   -7.0145069    591.30753  0.030435841  0.030315203            2 
 1620000    1.0116611   -6.9754551    590.06496  0.030353136  0.030308018            5 
 1621000   0.99728219   -7.0128621    590.07075  0.030334709  0.030300854            5 
 1622000   0.97196939   -7.0081385     592.3156   0.03043134  0.030293699            4 
 1623000   0.99159585    -7.072431    591.94637  0.030393631   0.03028657            2 
 1624000   0.98795333   -7.0246753    591.79852   0.03036733  0.030279432            2 
 1625000   0.98919476   -7.0253079    591.58123  0.030337499  0.030272345            3 
 1626000   0.98481361   -7.0324774    589.93025  0.030234228  0.030265154            1 
 1627000    0.9971577   -7.0287553    592.51038  0.030347797  0.030258046            6 
 1628000    1.0019145   -7.0215994    592.70081  0.030338903  0.030250977            3 
 1629000    1.0000731   -7.0256947     593.6156  0.030367076  0.030243841            3 
 1630000     1.002893   -7.0212775    593.20377  0.030327391  0.030236858            5 
 1631000   0.99192813   -7.0500751    592.01445  0.030248031  0.030229735            5 
 1632000    0.9749112    -7.011966     594.1701  0.030339568  0.030222552            3 
 1633000   0.98294217   -7.0324555    595.17916  0.030372482  0.030215476            6 
 1634000   0.99289492   -6.9808917    595.38128  0.030364202  0.030208442            3 
 1635000   0.99324236    -7.047562    593.85602  0.030267891  0.030201472            4 
 1636000   0.98353595    -7.007336    594.71517  0.030293153  0.030194376            5 
 1637000   0.99155857   -7.0529325    593.94426  0.030235403  0.030187335            3 
 1638000   0.99013425   -7.0472052    595.00913   0.03027112  0.030180284            2 
 1639000   0.99898526   -7.0229358     596.3164  0.030319117  0.030173368            2 
 1640000    1.0102062   -7.0083509    595.55522  0.030261952   0.03016651            2 
 1641000   0.95960596   -7.0114262    596.43382  0.030288128   0.03015963            3 
 1642000    0.9833325   -7.0263039    595.61595  0.030228174  0.030152622            4 
 1643000    0.9819799   -7.0206267    597.95017  0.030328169  0.030145598            1 
 1644000    1.0211195   -7.0275592    595.29008  0.030174882  0.030138716            2 
 1645000   0.98590081   -7.0530251    595.62616  0.030173564  0.030131694            4 
 1646000   0.97840203   -7.0344511     596.8533   0.03021736  0.030124773            3 
 1647000   0.99923235    -7.026622    598.28662  0.030271535  0.030117813            7 
 1648000   0.97914235   -6.9986779    598.00733  0.030239044  0.030110938            4 
 1649000   0.98568695   -7.0191393    597.44267   0.03019217  0.030104037            3 
 1650000    0.9919349   -7.0646922    597.62106  0.030182882  0.030097063            3 
 1651000   0.96955831   -7.0446044    598.64089  0.030216076  0.030090174            3 
 1652000   0.98726669   -7.0064382    599.60296  0.030246316  0.030083305            3 
 1653000    1.0016168   -7.0195944    599.54544  0.030225118  0.030076378            4 
 1654000   0.95973476   -7.0326989    600.25351  0.030242519  0.030069547            2 
 1655000   0.99969449   -7.0782799    600.56074  0.030239715  0.030062763            3 
 1656000    1.0017135   -7.0567063    600.16089  0.030201333  0.030055798            3 
 1657000   0.98831012   -7.0401669    599.79718  0.030164815  0.030048975            3 
 1658000   0.99803642   -7.0290893    600.71401  0.030192703  0.030042122            2 
 1659000    0.9901838   -7.0900289    600.49589  0.030163547  0.030035402            2 
 1660000   0.99400202   -7.0189041    601.20879  0.030181164  0.030028588            2 
 1661000   0.98748078   -7.0390368    603.49951   0.03027792  0.030021807            2 
 1662000   0.97110531   -7.0219704    603.09769  0.030239555  0.030015236            3 
 1663000   0.98876346   -7.0439737    602.34335  0.030183572  0.030008533            2 
 1664000    1.0038965    -7.018178    602.57583  0.030177075  0.030001694            3 
 1665000   0.99575088    -7.047106    602.40555  0.030150428  0.029994998            3 
 1666000   0.99669424   -7.0264003    603.89011  0.030206588  0.029988214            2 
 1667000   0.96421268   -7.0215459    603.92034  0.030189979  0.029981446            3 
 1668000   0.99070119   -7.0405012    603.65025  0.030158386  0.029974754            2 
 1669000   0.98473882   -7.0161777    603.13376  0.030114528  0.029967872            2 
 1670000   0.99225492   -7.0827482    602.84104  0.030081888   0.02996108            2 
 1671000   0.99039831    -7.023395    603.51071  0.030097283  0.029954241            6 
 1672000   0.99085954   -7.0522618    603.13979  0.030060795   0.02994746            4 
 1673000   0.99931511   -7.0521199    602.50049  0.030010983  0.029940554            3 
 1674000   0.98725077   -7.0383657    604.16114  0.030075724  0.029933633            3 
 1675000   0.97697735   -7.0584896    604.06117  0.030052794  0.029926697            5 
 1676000   0.96711213   -7.0490956    604.61074  0.030062189  0.029919697            2 
 1677000   0.98039542   -7.1010054    603.03043  0.029965734  0.029912614            9 
 1678000     1.000868   -7.0310346    604.91856  0.030041645  0.029905534            3 
 1679000   0.97009046    -7.052831    606.58036  0.030106232  0.029898731            2 
 1680000   0.95329182   -7.1007174    602.92263  0.029906876  0.029891892            2 
 1681000   0.97604497   -7.0421077    604.59253  0.029971869  0.029884878            3 
 1682000   0.97467963   -7.0847179    605.16753  0.029982537  0.029877917            4 
 1683000   0.97852758   -7.0786896    606.26152  0.030018891  0.029871026            2 
 1684000   0.95234446   -7.0642436    606.40296  0.030008064  0.029864252            2 
 1685000     1.010134   -7.0534457    606.71619  0.030005746  0.029857387            2 
 1686000   0.99127896   -7.0283287    606.48231  0.029976389  0.029850503            3 
 1687000    0.9839571   -7.0694229    604.10309  0.029841093  0.029843516            2 
 1688000   0.98018707   -7.0503921    605.46828  0.029890812  0.029836495            4 
 1689000   0.96539992   -7.0494426    607.06017  0.029951656  0.029829498            6 
 1690000   0.98376231   -7.0713763    607.27979  0.029944763  0.029822423            2 
 1691000   0.98322851   -7.0714874    605.97005   0.02986251   0.02981536            3 
 1692000   0.96378328   -7.0586884    607.25062   0.02990793  0.029808314            2 
 1693000   0.97697133   -7.0368617    607.63537  0.029909203  0.029801303            3 
 1694000   0.97525501   -7.0678253    604.56386   0.02974045  0.029794167            6 
 1695000   0.98029145   -7.0356478    608.99975   0.02994099  0.029787068            3 
 1696000   0.96487738   -7.0588499    606.72945  0.029811785  0.029779998            2 
 1697000    0.9864554   -7.0313411     607.2504    0.0298198  0.029772997            1 
 1698000   0.96666661   -7.0546863    607.74036  0.029826284  0.029765941            2 
 1699000   0.98167733   -7.0468012    609.05193  0.029873059   0.02975891            3 
 1700000   0.97196626    -7.052939    609.93125  0.029898591  0.029751843            2 
 1701000   0.96883149      -7.0477    610.73099  0.029920194  0.029744956            6 
 1702000   0.98013141   -7.0314504    608.16582  0.029777018  0.029737965            4 
 1703000   0.96729973    -7.039211    611.66728  0.029930871  0.029730946            2 
 1704000   0.95676499    -7.074544    609.06333  0.029785961  0.029724047            6 
 1705000   0.97528888   -7.0312099     609.2954  0.029779834  0.029717117            3 
 1706000   0.97835035   -7.0478095    611.22554   0.02985666  0.029710179            2 
 1707000   0.95027947   -7.0354892    610.14532  0.029786434   0.02970317            2 
 1708000   0.98149556   -7.0409063    611.74603  0.029847094  0.029696176            3 
 1709000   0.98342775   -7.0792621    610.61402   0.02977443  0.029689168            3 
 1710000   0.98993221   -7.0760386    610.63165  0.029757878  0.029682175            5 
 1711000   0.98329552   -7.0637086    611.07673  0.029762163  0.029675202            3 
 1712000   0.98770909    -7.053131    611.15391  0.029748535  0.029668135            3 
 1713000   0.96908325   -7.0783476    610.78375  0.029713162  0.029660926            4 
 1714000   0.97377771   -7.0652521    611.71252  0.029740982  0.029653728            6 
 1715000    1.0018137   -7.0805277     612.2707  0.029750763  0.029646691            3 
 1716000   0.97858512   -7.0668566    613.11894  0.029774618   0.02963963            3 
 1717000   0.96388352   -7.0470248    612.53831  0.029729097  0.029632623            4 
 1718000   0.95803322   -7.1014179    612.51645  0.029710732  0.029625632            4 
 1719000   0.98606635   -7.0452297    611.09226  0.029624407  0.029618508            3 
 1720000   0.97044436   -7.0653696    612.44378  0.029672664  0.029611569            2 
 1721000   0.95792224   -7.0714482    613.00594  0.029682643   0.02960455            5 
 1722000    0.9886289   -7.0221912    614.60644  0.029742859  0.029597486            3 
 1723000    0.9925718   -7.0929036    612.91741  0.029643907  0.029590486            3 
 1724000    0.9675213    -7.053113    614.39001  0.029697893  0.029583392            6 
 1725000   0.98341564   -7.0996881    613.77117  0.029650781  0.029576334            3 
 1726000   0.97773107   -7.0571008    614.45511  0.029666623  0.029569342            2 
 1727000   0.96089122   -7.0549043    613.95983  0.029625547  0.029562329            3 
 1728000   0.97227918   -7.0568978    615.92496  0.029703171  0.029555469            3 
 1729000   0.97874562   -7.0160713    615.15451  0.029648858  0.029548455            2 
 1730000   0.97833444   -7.0495388    616.25462  0.029684712  0.029541618            4 
 1731000   0.97141415   -7.0692705    615.93173  0.029652019  0.029534646            5 
 1732000   0.96171014   -7.0693699    615.95079  0.029635816  0.029527768            3 
 1733000   0.98697053     -7.06495    617.75379  0.029705414  0.029520914            2 
 1734000   0.96020816   -7.0843186    617.15752  0.029659627  0.029514146            2 
 1735000   0.97165269   -7.0760256    617.00596  0.029635253  0.029507322            2 
 1736000   0.97279743   -7.0618327    618.89101   0.02970867   0.02950041            3 
 1737000   0.95945763   -7.0645735    618.44331  0.029670088  0.029493604            1 
 1738000   0.97360861   -7.0203607    619.99904   0.02972761  0.029486837            8 
 1739000   0.99404838   -7.0949671    619.73424  0.029697826  0.029480188            4 
 1740000   0.97549412   -7.0535988    619.20485  0.029655405  0.029473482            3 
 1741000   0.95654476   -7.0496421    618.69149  0.029613799  0.029466722            3 
 1742000   0.96117551   -7.0635158    621.15531  0.029714663  0.029459995            4 
 1743000    0.9639371   -7.0745861    619.38417  0.029612936  0.029453282            3 
 1744000   0.98130235   -7.0817341    619.45182  0.029599189   0.02944646            4 
 1745000   0.97099682   -7.0225538    620.77604  0.029645465  0.029439612            2 
 1746000    0.9723872   -7.0920886    618.19392  0.029505246   0.02943287            2 
 1747000   0.97690647   -7.0854772    619.61185  0.029555994  0.029426121            9 
 1748000   0.98162987   -7.0881015    620.62442  0.029587358  0.029419356            3 
 1749000   0.97430117    -7.058621     620.5697  0.029567834  0.029412485            5 
 1750000   0.98051019   -7.0729769    620.28882  0.029537563  0.029405678            2 
 1751000   0.96712445   -7.0439257    621.60742  0.029583448  0.029398913            2 
 1752000   0.95242567   -7.0363592    622.08119  0.029589098  0.029392146            5 
 1753000   0.95747248   -7.0475897    620.90333  0.029516226  0.029385416            3 
 1754000   0.97341417   -7.0917316    621.39598  0.029522804  0.029378663            5 
 1755000   0.95271936   -7.0789418    621.44703  0.029508406  0.029371861            2 
 1756000   0.97575414   -7.1002552    623.12678  0.029571316  0.029365183            4 
 1757000   0.97959532   -7.0409147    622.27271  0.029513978  0.029358516            4 
 1758000   0.94994338   -7.0955181    623.71787  0.029565694  0.029351776            3 
 1759000   0.97606974   -7.0509498    622.36719  0.029484896  0.029345052            3 
 1760000   0.99324252   -7.0402242    622.40756  0.029470055  0.029338283            7 
 1761000   0.98928931   -7.0907818    623.60391  0.029509933  0.029331504            4 
 1762000   0.97409328   -7.0836511    625.54338  0.029584912   0.02932476            3 
 1763000    0.9691762   -7.1127433    624.05775  0.029497909  0.029317998            5 
 1764000   0.98625098   -7.0735799    622.83416  0.029423383  0.029311201            4 
 1765000   0.96881803   -7.0880125    623.22172   0.02942501   0.02930441            2 
 1766000   0.96140691   -7.0921184    623.88288  0.029439547  0.029297646            2 
 1767000   0.95164323   -7.0981246    623.62564  0.029410754  0.029290804            2 
 1768000   0.98890911   -7.0780309    626.41619   0.02952565  0.029284082            6 
 1769000   0.95963011   -7.0694123    624.18411  0.029403811  0.029277262            3 
 1770000   0.97509738   -7.0716997    625.49865  0.029449089  0.029270404            2 
 1771000   0.95971385   -7.0818056    626.10135   0.02946082  0.029263725            5 
 1772000   0.97213056   -7.0671505    627.64441  0.029516761  0.029257047            4 
 1773000   0.98188006   -7.0679678    626.13209  0.029429032  0.029250357            3 
 1774000   0.94363302   -7.0720851    626.56832  0.029432935  0.029243678            2 
 1775000   0.93534508   -7.0849342    624.87503  0.029336856  0.029237041            4 
 1776000   0.98501858   -7.0880715    626.25188  0.029384942  0.029230316            3 
 1777000   0.96067642   -7.0739505    627.44284  0.029424256  0.029223569            7 
 1778000   0.94746388   -7.1094817    626.36976  0.029357413  0.029216806            2 
 1779000   0.95416907   -7.1010038    627.34221  0.029386463  0.029210028            3 
 1780000   0.97373148   -7.0882632    628.68045  0.029432605  0.029203333            6 
 1781000   0.97876658   -7.0685667    628.86607  0.029424764  0.029196636            2 
 1782000   0.96673699   -7.0845595    627.33495  0.029336651  0.029189885            3 
 1783000   0.95152206   -7.0922102    626.28454  0.029271104  0.029183048            4 
 1784000   0.98035853   -7.0587351     628.8862  0.029376224  0.029176268            6 
 1785000   0.94771713   -7.0734137    628.27706  0.029331329  0.029169573            5 
 1786000   0.96354856   -7.0588968    630.59233  0.029422934  0.029162983            2 
 1787000   0.96101275   -7.0983381    629.00774  0.029332575  0.029156295            4 
 1788000   0.95540557   -7.1092607    630.83376  0.029401275  0.029149621            3 
 1789000    0.9610989   -7.0777611    628.96728  0.029297898  0.029142975            2 
 1790000   0.99429562   -7.0242547    629.56876  0.029309532  0.029136374            2 
 1791000   0.94907201   -7.1031105    629.00401  0.029266891  0.029129746            2 
 1792000   0.97782896   -7.0905123    630.92203  0.029339752  0.029123152            3 
 1793000   0.96954396   -7.0558228    630.26346   0.02929278  0.029116607            4 
 1794000   0.99121049   -7.0525991    632.16859  0.029364948  0.029110022            2 
 1795000    0.9580011   -7.0251317    632.24596   0.02935218  0.029103524            2 
 1796000   0.96650656   -7.0889175     632.8633  0.029364481  0.029097052            1 
 1797000   0.97519179    -7.081597    631.82742  0.029300103  0.029090525            2 
 1798000   0.95773085    -7.085529    631.25202  0.029257139  0.029083921            2 
 1799000   0.93433514   -7.1024558    632.12619  0.029281369  0.029077285            3 
 1800000   0.95337424   -7.0909526    631.29969  0.029226838  0.029070709            4 
 1801000   0.97526464   -7.1050377    632.47797  0.029265129  0.029064088            3 
 1802000    0.9526401   -7.0837964    633.91623  0.029315401  0.029057487            3 
 1803000   0.94211646   -7.0703071    633.28511  0.029269972  0.029050933            2 
 1804000   0.97425833   -7.0478816    633.85657  0.029280145  0.029044375            2 
 1805000    0.9629421   -7.0905737    633.14886  0.029231249  0.029037694            2 
 1806000   0.96069763   -7.0858828     633.0535  0.029210664  0.029031043            5 
 1807000   0.97403491   -7.1057587    632.54476  0.029171037  0.029024359            3 
 1808000   0.96230067   -7.1330913    633.37501   0.02919317  0.029017683            2 
 1809000   0.95820061   -7.0910731    631.96155   0.02911192  0.029010901            4 
 1810000   0.98036316   -7.1065409    631.29205  0.029065011  0.029004151            2 
 1811000   0.95892995   -7.0762919    635.38324  0.029237219  0.028997419            1 
 1812000   0.96248421   -7.0935823    633.32739  0.029126536  0.028990823            8 
 1813000    0.9762395   -7.0740501     635.5331  0.029211854  0.028984195            2 
 1814000   0.98675562   -7.1100941     634.9115  0.029167195  0.028977546            2 
 1815000   0.96281238   -7.1436397    634.21335   0.02911907  0.028970839            2 
 1816000   0.96872963   -7.0851755    635.64671   0.02916881  0.028964194            4 
 1817000   0.96497835    -7.084043    635.03925  0.029124897   0.02895755            1 
 1818000   0.97254161   -7.0763864    636.73752  0.029186721  0.028950923            5 
 1819000   0.95462153   -7.0734021    637.00044  0.029182721   0.02894435            2 
 1820000   0.96513542   -7.0763703     635.4074  0.029093746  0.028937724            2 
 1821000   0.93296984    -7.100833     636.4205  0.029124131  0.028931094            3 
 1822000   0.94207477   -7.1129346    636.05196   0.02909129  0.028924398            2 
 1823000   0.97100527   -7.1048482     638.3611  0.029180888  0.028917791            5 
 1824000   0.97004503   -7.0975183    636.09865  0.029061524  0.028911238            3 
 1825000   0.96622263    -7.110398    637.85296  0.029125706  0.028904706            3 
 1826000   0.96130943   -7.0781138    640.90939  0.029249242  0.028898217            6 
 1827000   0.97779873   -7.1243428    637.77129  0.029090097  0.028891695            3 
 1828000   0.96213155   -7.1100909    637.79791  0.029075397  0.028885062            2 
 1829000   0.96043775   -7.0777515    638.81054  0.029105638  0.028878528            4 
 1830000   0.95398631    -7.082222    638.24111  0.029063803  0.028871986            5 
 1831000   0.95419947   -7.1091565    638.49115  0.029059309  0.028865458            3 
 1832000    0.9644207   -7.1178946    640.86918  0.029151619  0.028858902            3 
 1833000   0.96023079   -7.0692066    640.71706  0.029128799  0.028852386            1 
 1834000   0.95603429    -7.104512    637.84343  0.028982344   0.02884574            2 
 1835000   0.96517232   -7.0951704    640.71321  0.029096876  0.028839103            3 
 1836000   0.95893147   -7.1122428    639.71442  0.029035694  0.028832514            3 
 1837000   0.95200477   -7.0969322    638.68061  0.028972991  0.028825946            3 
 1838000   0.94150731   -7.1102911    639.91645  0.029013259   0.02881941            3 
 1839000   0.97666327   -7.0887564    640.51141  0.029024443  0.028812868            3 
 1840000   0.95224571   -7.0848309    639.87754  0.028979961  0.028806318            2 
 1841000   0.95475578   -7.1181762     639.1461  0.028931111   0.02879972            4 
 1842000   0.97329262   -7.1003201    642.46835  0.029065705  0.028792973            3 
 1843000   0.97278182   -7.1083623    640.28921  0.028951402  0.028786293            5 
 1844000   0.94453604   -7.0849103    639.39159  0.028895137  0.028779617            3 
 1845000   0.97164215   -7.0886996    641.51658  0.028975455   0.02877296            3 
 1846000   0.94441742    -7.089262    642.48941  0.029003675  0.028766307            4 
 1847000   0.96000997   -7.0986903    642.92554  0.029007649  0.028759768            5 
 1848000   0.95939212   -7.0961583    642.26858  0.028962328  0.028753236            6 
 1849000   0.95539729   -7.0954237    642.81697   0.02897138  0.028746642            6 
 1850000   0.95537214   -7.0584672    644.46855  0.029030115  0.028740112            3 
 1851000   0.97566909   -7.1108095    643.19983  0.028957313  0.028733551            1 
 1852000   0.94535791   -7.0516867    643.10423  0.028937375  0.028726924            2 
 1853000   0.94709555   -7.1155017    642.76058  0.028906304  0.028720372            4 
 1854000   0.95097372   -7.1028827    644.88104  0.028986023  0.028713707            2 
 1855000   0.93601263   -7.0889239    643.07498  0.028889262  0.028707037            3 
 1856000   0.96984569   -7.0902589    642.65057  0.028854641  0.028700441            3 
 1857000   0.97078211   -7.0888679    643.20367  0.028863923  0.028693798            3 
 1858000   0.93140925   -7.1262746    643.02851  0.028840532  0.028687113            2 
 1859000   0.96939607   -7.1380157    642.00855  0.028779297  0.028680386            2 
 1860000   0.94281874   -7.1610315    644.46699  0.028873969  0.028673631            2 
 1861000   0.95488009   -7.0800847    643.96003  0.028835753  0.028666927            2 
 1862000   0.94456659   -7.1001264    645.37465  0.028883577  0.028660301            5 
 1863000    0.9630184   -7.1215141    645.46017  0.028871899  0.028653604            3 
 1864000   0.93829966   -7.1247382    644.60036   0.02881797  0.028646952            2 
 1865000   0.95641747   -7.1411815    644.10484  0.028780377  0.028640254            5 
 1866000   0.94793174   -7.1128195    644.90465  0.028800672  0.028633487            3 
 1867000   0.94549134   -7.1484758    644.28724  0.028757688  0.028626733            4 
 1868000   0.96108156    -7.120122    644.30094  0.028742904   0.02862005            5 
 1869000   0.95538538   -7.1227069    647.25968  0.028859447   0.02861333            3 
 1870000   0.93944736   -7.1341263    646.27231  0.028800014  0.028606671            6 
 1871000   0.97355289   -7.1086915    647.06609  0.028819976  0.028600087            2 
 1872000   0.96458663   -7.1022357    646.82835  0.028793997  0.028593452            3 
 1873000   0.93392257   -7.0987958    648.19464  0.028839413  0.028586777            2 
 1874000   0.94864232    -7.106133    646.91483  0.028767112  0.028580114            2 
 1875000   0.96100028   -7.1348303    646.69535  0.028742016  0.028573387            2 
 1876000   0.97423114   -7.1098605    646.75688  0.028729428  0.028566681            4 
 1877000   0.94262092   -7.0940032    649.95473  0.028856097  0.028560041            1 
 1878000   0.94211762   -7.1002654    648.52024  0.028777079  0.028553389            6 
 1879000   0.95490463   -7.0955334    649.85162   0.02882081   0.02854675            2 
 1880000    0.9365416   -7.1029794     648.5888  0.028749504  0.028539989            4 
 1881000   0.94749916   -7.0693334    649.16627  0.028759803  0.028533317            3 
 1882000   0.94347481   -7.0979083    649.54498   0.02876129  0.028526778            9 
 1883000   0.95222146   -7.1138709    647.42632  0.028652253  0.028520167            5 
 1884000   0.91500627   -7.1378714    648.39282  0.028679796  0.028513495            2 
 1885000   0.95902497   -7.1009111    650.97457  0.028778717  0.028506871            1 
 1886000   0.94264666   -7.1405687    649.07857  0.028679682  0.028500227            3 
 1887000    0.9800717   -7.0948334     649.4431  0.028680582  0.028493549            4 
 1888000   0.97445737   -7.1089735    650.32281   0.02870422  0.028486934            3 
 1889000   0.94876263   -7.1493427    647.88981  0.028581693  0.028480208            6 
 1890000   0.95868934   -7.1161538    650.80797  0.028695237  0.028473505            9 
 1891000    0.9374764   -7.1502976    649.73081  0.028632594  0.028466885            2 
 1892000   0.95772022   -7.1427421    650.62161  0.028656695   0.02846018            4 
 1893000   0.93441267    -7.134134     650.6905   0.02864459   0.02845351            4 
 1894000   0.93051056   -7.1207542     650.4411  0.028618492  0.028446839            2 
 1895000   0.95073425   -7.0905878    652.27954  0.028684236  0.028440192            5 
 1896000   0.92499503   -7.1390785    651.68506  0.028642979  0.028433543            2 
 1897000   0.95884209   -7.0975122     651.0335  0.028599258  0.028426842            5 
 1898000   0.93659607   -7.1533835    650.11956  0.028544062  0.028420149            3 
 1899000   0.93552787   -7.1348676    650.20869  0.028532942  0.028413355            3 
 1900000   0.95123346   -7.1122466    652.23385  0.028606748  0.028406635            3 
 1901000   0.97643462    -7.126586    653.11724  0.028630425  0.028399956            2 
 1902000   0.98153451   -7.1070141    652.27668  0.028578544   0.02839329            3 
 1903000   0.94076872   -7.1134598    652.39976  0.028568916  0.028386535            3 
 1904000   0.96182818   -7.1107108    653.57964  0.028605551  0.028379883            2 
 1905000   0.94871766    -7.133551    652.88484  0.028560142  0.028373217            2 
 1906000   0.94830482   -7.1213208    652.37637  0.028522926  0.028366507            4 
 1907000   0.93882474   -7.1408802    653.46438  0.028555514  0.028359842            3 
 1908000   0.94136558   -7.1522333    650.94527  0.028430524  0.028353053            4 
 1909000   0.95123693   -7.0780508    653.14829  0.028511799  0.028346259            2 
 1910000   0.94138323   -7.1132125    652.77961  0.028480786  0.028339497            2 
 1911000   0.93698218   -7.1353673    653.03127  0.028476856   0.02833277            2 
 1912000    0.9366717   -7.1478264    652.48936  0.028438344  0.028326005            2 
 1913000   0.93651703   -7.1379494    653.04039  0.028447482  0.028319054            6 
 1914000   0.94720028   -7.1043728    652.86842  0.028425132  0.028312169            4 
 1915000   0.94711285   -7.1439792     654.1043  0.028464069  0.028305285            3 
 1916000   0.93791054   -7.1516919    652.94371  0.028398735  0.028298427            2 
 1917000   0.94863314   -7.1045018    653.62518  0.028413545  0.028291652            2 
 1918000   0.94017583   -7.1187872    653.79188  0.028405973  0.028284889            4 
 1919000   0.94835425   -7.1584327    653.30617  0.028370079  0.028278092            3 
 1920000   0.93979586   -7.1250217    655.35774  0.028444346  0.028271197            2 
 1921000   0.94320783   -7.1294835    654.73433  0.028402495  0.028264375            4 
 1922000   0.95148092   -7.0941192    654.98666  0.028398659  0.028257555            3 
 1923000   0.95040223   -7.1061874    655.15465  0.028391171  0.028250742            4 
 1924000   0.96722815   -7.1431389    654.67852  0.028355792  0.028243886            4 
 1925000   0.94781066   -7.1658611    655.53193  0.028378005  0.028237017            6 
 1926000   0.93644426   -7.1360516    656.07585  0.028386805  0.028230111            3 
 1927000   0.94868775   -7.1328425    655.25593  0.028336617  0.028223216            4 
 1928000   0.92699534   -7.1099452    655.03835  0.028312515  0.028216348            2 
 1929000   0.95534594   -7.0958333    656.25603  0.028350442  0.028209582            5 
 1930000   0.95145449   -7.1153342    655.61957  0.028308272  0.028202725            4 
 1931000   0.94742319   -7.1154997    656.84896  0.028346667  0.028195858            2 
 1932000   0.93582263   -7.1710116    655.98812  0.028294864  0.028189056            4 
 1933000   0.93110257   -7.1255289    659.28432  0.028422328  0.028182262            3 
 1934000   0.92816725   -7.1424058     656.8078  0.028300922  0.028175435            4 
 1935000   0.93436526   -7.1247369    658.62022  0.028364351    0.0281686            6 
 1936000   0.95497304   -7.1179031    657.07549  0.028283208  0.028161811            3 
 1937000   0.92248131   -7.1401334     658.2704  0.028320014   0.02815511            6 
 1938000   0.93968103   -7.1201872    658.53822  0.028316917  0.028148334            6 
 1939000   0.94474301   -7.1583011    658.86501  0.028316358  0.028141572            3 
 1940000   0.94366534   -7.1835211    658.38346  0.028281077   0.02813489            3 
 1941000   0.93686449   -7.1571473    658.83521  0.028285901  0.028128234            7 
 1942000   0.94152651    -7.101883     659.9295  0.028318293  0.028121672            4 
 1943000   0.94341758   -7.1520115    658.77014  0.028253995   0.02811504            2 
 1944000   0.94332687   -7.0941764    661.42339  0.028353197   0.02810844            6 
 1945000   0.95510643   -7.1123796     661.0231  0.028321469  0.028101946            5 
 1946000   0.93782542    -7.109054    662.03912  0.028350425   0.02809538            2 
 1947000   0.94115072   -7.1375963    661.04954  0.028293509  0.028088798            4 
 1948000   0.92790524   -7.1219966    660.32172  0.028247849  0.028082206            2 
 1949000    0.9473362   -7.1593557    659.48157  0.028197433  0.028075599            2 
 1950000    0.9462675   -7.1413945    661.37365  0.028263831  0.028068961            3 
 1951000   0.93135656   -7.1407811    659.67138  0.028176635  0.028062293            3 
 1952000    0.9266879   -7.1375371    661.33112  0.028233057  0.028055514            2 
 1953000   0.93153617   -7.1840545    660.51356  0.028183715   0.02804879            4 
 1954000   0.93537144   -7.1490652    662.12478  0.028238007  0.028042049            5 
 1955000   0.93508011   -7.1688028    662.50673  0.028239844  0.028035388            2 
 1956000   0.92327974   -7.1089193    663.91319  0.028285327   0.02802882            3 
 1957000   0.92236922   -7.1397957    661.20767  0.028155666  0.028022142            2 
 1958000   0.95023015   -7.1395354     660.2969  0.028102524  0.028015451            3 
 1959000   0.91857931   -7.1394732    661.64549  0.028145546  0.028008709            2 
 1960000   0.92761114   -7.1709906     662.2773  0.028158048   0.02800187            4 
 1961000    0.9192208    -7.122193    661.23868  0.028099553  0.027995089            4 
 1962000   0.91356716    -7.168049    662.81093   0.02815201  0.027988345            4 
 1963000   0.92708015   -7.1486292      662.938  0.028143063  0.027981505            4 
 1964000   0.94841906   -7.1873728    661.17644   0.02805399  0.027974692            4 
 1965000   0.94560545   -7.1491485    661.92913  0.028071634  0.027967938            4 
 1966000   0.91286517    -7.121863    663.05565  0.028105106  0.027961202            5 
 1967000   0.95207042    -7.146071    663.42707  0.028106553  0.027954351            3 
 1968000   0.93531549   -7.1769108    662.18742  0.028039779  0.027947525            3 
 1969000   0.92421986   -7.1184846    662.65077  0.028045149  0.027940681            6 
 1970000   0.92815341   -7.1243757    662.88007  0.028040612  0.027933848            8 
 1971000   0.92782518   -7.1375329    663.30973  0.028044551  0.027927002            5 
 1972000    0.9363468   -7.1568694    662.12638  0.027980324  0.027920092            4 
 1973000   0.90602937   -7.1621821    663.95414  0.028043341  0.027913141            6 
 1974000   0.95653479   -7.1307466    664.53199  0.028053529  0.027906179            2 
 1975000   0.92575585   -7.1914544    662.37106  0.027948146  0.027899239            2 
 1976000   0.94776122    -7.178723    664.49757  0.028023683  0.027892287            3 
 1977000    0.9148019   -7.1386558    666.06045  0.028075386  0.027885385            2 
 1978000    0.9401805   -7.1599303    664.15992  0.027981122  0.027878556            3 
 1979000   0.93251479   -7.1176591    665.24228   0.02801256  0.027871744            7 
 1980000   0.92660696   -7.1078256    664.72339  0.027976574  0.027864979            5 
 1981000   0.93658076   -7.1664091    665.64597  0.028001261    0.0278581            2 
 1982000   0.93995215   -7.1171808    666.24944  0.028012506  0.027851271            2 
 1983000   0.92365206   -7.1542272    666.94476    0.0280276  0.027844439            2 
 1984000   0.93329095   -7.1384508     665.4639  0.027951273  0.027837593            4 
 1985000   0.92210982   -7.1398721    666.61014  0.027985313  0.027830799            4 
 1986000   0.91224566   -7.1591971    666.21966  0.027954837  0.027823934            4 
 1987000   0.94795653   -7.1263178     668.2393   0.02802547  0.027817202            3 
 1988000   0.91399964   -7.1483506    667.23387  0.027969226  0.027810529            3 
 1989000    0.9282777   -7.1498437    667.21717  0.027954465  0.027803771            1 
 1990000   0.92680469   -7.1802019    668.24233  0.027983347  0.027796971            3 
 1991000   0.93961952   -7.1648974    666.90269  0.027913222  0.027790103            3 
 1992000   0.92371083   -7.1538109    667.54855  0.027926228  0.027783225            2 
 1993000   0.92002907   -7.1498133    666.79501  0.027880708  0.027776355            4 
 1994000   0.91837665   -7.1708193      668.092   0.02792093  0.027769464            4 
 1995000   0.93765106   -7.1947028    666.81446   0.02785357  0.027762603            7 
 1996000   0.92429287   -7.2048558    666.51296  0.027827027  0.027755583            2 
 1997000   0.93222102   -7.1724582    668.51857  0.027896786  0.027748638            4 
 1998000   0.93552351   -7.1538206    667.56368  0.027842996  0.027741757            5 
 1999000   0.91848401   -7.1977532    666.71512  0.027793694  0.027734836            2 
 2000000   0.91928525   -7.1511556    667.74032  0.027822513  0.027727929            5 
 2001000   0.92795565   -7.1477193    668.16057  0.027826111  0.027721059            2 
 2002000   0.91792368   -7.1474695    668.55311  0.027828551  0.027714151            3 
 2003000   0.91043649   -7.1482342     668.5174  0.027813172  0.027707246            4 
 2004000   0.93807468   -7.1524778     667.7021   0.02776539  0.027700288            4 
 2005000   0.94465944   -7.1666938    668.68037  0.027792202  0.027693276            2 
 2006000   0.93236783   -7.1927288    667.69565   0.02773744  0.027686293            1 
 2007000   0.93502769   -7.1573466    667.00307  0.027694862  0.027679227            3 
 2008000   0.95783059   -7.1782056    669.33857  0.027777995  0.027672266            2 
 2009000   0.91836588   -7.1672175    669.89729  0.027787344  0.027665245            3 
 2010000   0.90590038   -7.1775667    670.43688  0.027795891  0.027658261            4 
 2011000   0.93865869   -7.1642814    669.50349   0.02774339  0.027651298            2 
 2012000   0.90810594   -7.1430876    668.41859  0.027684666  0.027644307            2 
 2013000   0.90939021   -7.1355923      669.195  0.027703055  0.027637346            6 
 2014000   0.93742479    -7.165114    669.75285  0.027712382  0.027630416            4 
 2015000   0.92743464   -7.1229016    669.93587  0.027706198  0.027623424            2 
 2016000   0.91308988   -7.1279058    670.65367  0.027722126  0.027616423            3 
 2017000   0.91451406   -7.1301895    672.17297  0.027771152  0.027609428            7 
 2018000   0.92270681   -7.1595572    671.16178  0.027715634  0.027602411            5 
 2019000   0.94479953    -7.192097    670.46074  0.027672971  0.027595321            5 
 2020000    0.9405625   -7.1854363    668.97919  0.027598151   0.02758819            3 
 2021000    0.9334827   -7.1702461    672.17505  0.027716273  0.027581172            3 
 2022000   0.94024024   -7.1727584    671.41723  0.027671333    0.0275742            3 
 2023000   0.94383519   -7.1474332    671.52172  0.027661959  0.027567202            4 
 2024000   0.93589958    -7.172211    673.46039  0.027728112  0.027560162            4 
 2025000   0.94494858   -7.1591909    671.33765  0.027627064  0.027553138            3 
 2026000   0.92842053   -7.1481216    671.44925  0.027618018  0.027546053            3 
 2027000   0.93208917   -7.1940419    670.63111  0.027570758  0.027539013            3 
 2028000   0.93821771   -7.1377676    670.91429  0.027568799  0.027531935            2 
 2029000   0.91366967   -7.1788056    670.72163  0.027547299  0.027524844            3 
 2030000   0.94446458   -7.1603315    672.06721  0.027588966  0.027517744            4 
 2031000   0.92687237   -7.1512281    671.09357  0.027535433  0.027510658            5 
 2032000   0.92780409   -7.1631344    671.25422   0.02752847  0.027503462           13 
 2033000   0.94691546   -7.1791071    670.62846  0.027489279  0.027496255            6 
 2034000    0.9245257   -7.1409863    672.14296  0.027537814  0.027489069            4 
 2035000   0.89697184   -7.1619186    669.31656   0.02740854  0.027481851            2 
 2036000   0.92989913   -7.1637526    670.57746  0.027446687  0.027474656            2 
 2037000   0.94253261   -7.1402129    671.16205  0.027457129  0.027467397            6 
 2038000   0.93487282   -7.1857818    671.79383  0.027469489  0.027460136            3 
 2039000   0.91688834   -7.1733137    670.88284  0.027418785  0.027452893            7 
 2040000   0.91562313   -7.1833666    671.92857  0.027448063   0.02744576            2 
 2041000   0.91954968   -7.1489163    672.83081  0.027471452   0.02743863            2 
 2042000   0.94653393    -7.190246    671.55525  0.027405944  0.027431471            4 
 2043000    0.9204379   -7.1401755    671.88076  0.027405807  0.027424255            3 
 2044000    0.9264978   -7.1464057    673.46024  0.027456794  0.027417026            2 
 2045000   0.93871809   -7.1764938    672.31372  0.027396647  0.027409752            6 
 2046000    0.9206542   -7.1734862    672.73737  0.027400512  0.027402482            3 
 2047000   0.92718852   -7.1623047     674.3874  0.027454299  0.027395251            3 
 2048000   0.92599691    -7.163351    671.67673  0.027330596   0.02738798            5 
 2049000   0.93506751   -7.1984802    673.16326  0.027377715  0.027380733            9 
 2050000    0.9142473   -7.1369784     672.3255  0.027330305  0.027373424            2 
 2051000   0.92563869   -7.1745743    671.06717  0.027265853  0.027366078            2 
 2052000   0.92873057     -7.15663    675.43365  0.027429892  0.027358875            1 
 2053000   0.92642056   -7.1704732    675.07657  0.027402036  0.027351719            5 
 2054000   0.93734963   -7.1257712    675.66238  0.027412463   0.02734457            2 
 2055000   0.92403287   -7.1803986     674.7983  0.027364083  0.027337461            2 
 2056000   0.91231258   -7.1649397    674.85991  0.027353271  0.027330318            5 
 2057000    0.9042369   -7.1532374     676.4119  0.027402848  0.027323107            4 
 2058000    0.9228894    -7.177252    676.37161  0.027387901  0.027315891            7 
 2059000   0.93458133   -7.1695612    674.76653  0.027309638  0.027308696            6 
 2060000   0.90463059   -7.1768607    674.43006  0.027282769  0.027301559            2 
 2061000   0.92474136     -7.16278    674.30378  0.027264426   0.02729434            3 
 2062000    0.9142592   -7.1732168    674.32344  0.027251998  0.027287099            3 
 2063000   0.91878098   -7.2201256    674.33293  0.027239171  0.027279805            4 
 2064000   0.93945027   -7.1397028    677.26201  0.027344235  0.027272589            3 
 2065000   0.91953769   -7.1724886    675.76107  0.027270422  0.027265403            6 
 2066000    0.9332569   -7.1782269     675.1588   0.02723293   0.02725816            3 
 2067000   0.90200779   -7.1813498    674.83143  0.027206557  0.027250918            3 
 2068000   0.92998038   -7.1970511     674.0179  0.027160618  0.027243625            3 
 2069000   0.91956296   -7.1525923    674.88032  0.027182227  0.027236398            2 
 2070000   0.93105273    -7.214966    677.87925  0.027289825  0.027229147            2 
 2071000   0.92101012   -7.1568856    677.62215  0.027266302  0.027221929            5 
 2072000   0.91785821    -7.179612    678.08978  0.027271951  0.027214733            3 
 2073000   0.93984371   -7.1972989    677.95584  0.027253411  0.027207529            3 
 2074000   0.93736244   -7.1860159    677.81669  0.027234679  0.027200257            2 
 2075000   0.91864937   -7.1816837    676.86638  0.027183389   0.02719301            4 
 2076000   0.91212384   -7.2110682    676.54588  0.027157429  0.027185714           15 
 2077000    0.9216961   -7.2031689     676.3425  0.027136194  0.027178489            2 
 2078000    0.9242362    -7.162043     680.5857  0.027293299  0.027171315            4 
 2079000   0.90646719   -7.1841064    678.32216   0.02718944  0.027164117            4 
 2080000   0.92893447   -7.2379709    677.69978  0.027151434  0.027156855            2 
 2081000   0.92451401   -7.1601087    678.75145    0.0271805  0.027149587            3 
 2082000   0.92231028   -7.1713858     678.7191   0.02716615  0.027142352            4 
 2083000   0.90099464   -7.1794283    679.28549  0.027175768  0.027135057            4 
 2084000   0.91947889   -7.2071139    678.08307  0.027114646  0.027127829            5 
 2085000   0.93431583   -7.1725014    677.06033  0.027060764  0.027120568            3 
 2086000   0.90983639    -7.148917    680.09928  0.027169195  0.027113445            3 
 2087000     0.930343   -7.1831367    678.37218  0.027087214  0.027106251            4 
 2088000   0.91305251   -7.2043845    678.93794  0.027096821  0.027099059            3 
 2089000   0.91264972    -7.159869    679.70536  0.027114463   0.02709186            2 
 2090000   0.91785164   -7.1745594    678.05402  0.027035647  0.027084599            6 
 2091000   0.92346406   -7.1915533     677.7666  0.027011262  0.027077356            2 
 2092000   0.93343118    -7.207556    681.28517  0.027138511  0.027070085            5 
 2093000   0.93171531   -7.1878542    680.24736  0.027084224  0.027062873            4 
 2094000   0.90616875    -7.177401    680.61592  0.027085957  0.027055667            4 
 2095000   0.89901475   -7.1758189    680.84447  0.027082119  0.027048475            2 
 2096000   0.92172523   -7.1677232    681.26566  0.027085944  0.027041259            3 
 2097000   0.91646522   -7.1992509    681.81905  0.027095019  0.027034131            5 
 2098000   0.94164066   -7.1844899    681.05051  0.027051577  0.027026989            3 
 2099000   0.91350593   -7.1732935     681.2967  0.027048464  0.027019862            3 
 2100000   0.91604037   -7.2004684    682.33791  0.027076901  0.027012711            6 
 2101000   0.92501051    -7.216169    680.96359  0.027009503   0.02700553            5 
 2102000   0.91478695   -7.2215733    683.45905  0.027095585    0.0269984            3 
 2103000   0.89596043   -7.2198866     681.8292  0.027018117  0.026991241            4 
 2104000   0.91909303   -7.2099265    681.22351  0.026981286  0.026984099            3 
 2105000   0.91403918   -7.2374294    680.77907  0.026950874  0.026976941            4 
 2106000   0.91486227   -7.2011635    683.47223  0.027044643  0.026969823            7 
 2107000   0.92191186   -7.2188803    683.26739  0.027023706  0.026962766            2 
 2108000   0.91268598   -7.2093808    683.46833   0.02701883  0.026955695            5 
 2109000   0.91319766    -7.190591    683.41465  0.027003898   0.02694858            7 
 2110000   0.90182811    -7.203738    685.13001  0.027058847  0.026941507            5 
 2111000   0.90812858   -7.1765358    684.20691  0.027009589  0.026934435            3 
 2112000   0.93498904   -7.1824995    684.47898  0.027007536  0.026927382            2 
 2113000   0.92189787   -7.1626076    685.97651  0.027053814  0.026920432            2 
 2114000   0.90499393   -7.1528635    686.14052  0.027047482  0.026913425            5 
 2115000   0.89799208   -7.2059209    682.67159  0.026898014  0.026906437            5 
 2116000   0.91527326   -7.1936241    685.56888  0.026999404  0.026899381            5 
 2117000   0.93203244   -7.1801646     685.1223  0.026969072   0.02689235            2 
 2118000   0.90883091   -7.1946689    682.94508  0.026870675  0.026885246            4 
 2119000    0.9287237   -7.1997689    685.58149  0.026961676  0.026878122            2 
 2120000   0.91279179   -7.1739628    685.32206   0.02693876  0.026870946            5 
 2121000   0.89140501   -7.1977266    684.94767  0.026911349   0.02686388            3 
 2122000    0.9061894   -7.2067448    685.27396  0.026911481  0.026856663            4 
 2123000   0.91242519   -7.1782049    683.44399  0.026826974  0.026849495            4 
 2124000   0.90769304   -7.2183286    685.34781  0.026889039  0.026842274            4 
 2125000   0.90370354    -7.190293    684.62571  0.026848067  0.026835068            2 
 2126000   0.91950714   -7.2154319    683.28576  0.026782916  0.026827896            3 
 2127000   0.91006556   -7.2120875    685.94149  0.026874373  0.026820717            3 
 2128000   0.89964383    -7.200817    685.23292  0.026833996  0.026813516            2 
 2129000   0.88708832   -7.2109715     683.7446  0.026763136  0.026806355            4 
 2130000   0.92568439   -7.1948177    683.80198  0.026752816  0.026799135            4 
 2131000   0.90817813   -7.1873831    685.99981  0.026826209  0.026791957            4 
 2132000   0.91109783    -7.196684    684.52834  0.026756111  0.026784767            4 
 2133000   0.90439934   -7.2123139    685.75698  0.026791568   0.02677759            2 
 2134000   0.92106128   -7.1948013    687.25903  0.026837669  0.026770497            6 
 2135000   0.91582556   -7.2055237    688.33764  0.026867199   0.02676342            4 
 2136000   0.91228851   -7.1620133    688.12732  0.026846415  0.026756392            3 
 2137000    0.8944465   -7.2301801    686.91227  0.026786471  0.026749322            2 
 2138000   0.90805729   -7.2286302    686.51434  0.026758432  0.026742248            4 
 2139000   0.89376358   -7.1836705    688.47672  0.026822375  0.026735157            6 
 2140000   0.88791091   -7.1981159    688.62185  0.026815493  0.026728062            6 
 2141000   0.91654254   -7.2081227     687.5489  0.026761206  0.026720919            5 
 2142000   0.91225433   -7.2059258    688.89714  0.026801165  0.026713838            3 
 2143000   0.91749383   -7.1972698    687.76069  0.026744466  0.026706715            1 
 2144000   0.89873666   -7.2110433    687.95008  0.026739353  0.026699521            3 
 2145000   0.89782064   -7.2474996    685.88762  0.026646761   0.02669232            6 
 2146000   0.90949259   -7.2380838    688.19281  0.026723859  0.026685148            4 
 2147000   0.87680803    -7.202412    687.78475  0.026695573  0.026677959            2 
 2148000   0.90946246   -7.1984226    689.02841  0.026731394   0.02667078            4 
 2149000   0.90875928   -7.2249061    689.29085  0.026729132  0.026663639            2 
 2150000   0.90778468   -7.2278387    688.50005  0.026686048  0.026656541            4 
 2151000   0.90444592    -7.199187    688.20217  0.026662102    0.0266494            3 
 2152000   0.91208969   -7.2126574     689.8078  0.026711888  0.026642239            5 
 2153000   0.92416624   -7.2371121    687.67458  0.026616914   0.02663513            4 
 2154000   0.90148587   -7.2209866    688.06068  0.026619494  0.026627935            3 
 2155000    0.9061272   -7.2030755    688.00901  0.026605143  0.026620786            4 
 2156000   0.89250993   -7.2073215    689.49672  0.026650306  0.026613598            6 
 2157000   0.92069234   -7.2126005     688.9051  0.026615094  0.026606435            4 
 2158000   0.90611212   -7.2517876    688.97704  0.026605539  0.026599289            3 
 2159000   0.91467213   -7.2202958     689.9644  0.026631326  0.026592157            4 
 2160000   0.90776977   -7.2099743    690.44585  0.026637571   0.02658496            3 
 2161000   0.91040374   -7.2271581    690.21108  0.026616192  0.026577713            3 
 2162000   0.92132394    -7.192194    690.31721  0.026607971  0.026570479            5 
 2163000   0.92259052   -7.1844704    690.46509  0.026601367  0.026563334           10 
 2164000   0.89008304   -7.2127437    688.84846   0.02652682  0.026556178            2 
 2165000   0.92280218   -7.2350143    688.21209  0.026490073  0.026548977            4 
 2166000   0.89587525   -7.2460685    688.53392  0.026490225   0.02654167            3 
 2167000   0.90273677   -7.2053919    688.48177  0.026475995  0.026534325            5 
 2168000   0.92317767   -7.2307206    688.97993  0.026482931  0.026526965            5 
 2169000    0.9053162   -7.1971674    690.45708  0.026527473  0.026519583            4 
 2170000   0.90681858   -7.1903285    689.95842  0.026496099  0.026512228            2 
 2171000   0.89948237   -7.2336263    688.22207  0.026417245  0.026504855            4 
 2172000   0.91057767   -7.1950769    690.09442  0.026476919  0.026497385            4 
 2173000   0.90225692   -7.2067337    689.16255  0.026428998  0.026490091            3 
 2174000     0.895207   -7.2060849    689.72243  0.026438302   0.02648274            3 
 2175000   0.93510134   -7.2321159    689.34015    0.0264115  0.026475364            6 
 2176000   0.92313125   -7.2043311    690.05321   0.02642667  0.026468046            2 
 2177000   0.92182583   -7.2186632    690.47221   0.02643057  0.026460713            3 
 2178000   0.90321956   -7.2245827     687.7551  0.026314474  0.026453352            5 
 2179000   0.91166482   -7.2129577    689.56919  0.026371776  0.026445942            3 
 2180000   0.89221239   -7.2093491    689.32773  0.026350449  0.026438619            2 
 2181000   0.90777423   -7.2225717    691.44512   0.02641927  0.026431299            3 
 2182000   0.92628526   -7.2261012    691.32147  0.026402439   0.02642398            3 
 2183000   0.89533789   -7.2006825    691.38749  0.026392865  0.026416632            4 
 2184000    0.9070187   -7.2256621    690.94832  0.026364023  0.026409271            5 
 2185000   0.89869574    -7.219796    691.86454  0.026386901   0.02640191            5 
 2186000   0.89115058   -7.2417611    691.23683  0.026350901  0.026394487            3 
 2187000   0.89422813   -7.2199944    689.16576  0.026259936  0.026387077            3 
 2188000   0.90330305    -7.238438    691.58586  0.026340107   0.02637974            3 
 2189000   0.88567078   -7.2306231    691.15582  0.026311703  0.026372429            2 
 2190000   0.87918371   -7.2180237     690.3404  0.026268661  0.026365051            4 
 2191000   0.90557231   -7.2268458    693.50784  0.026377143  0.026357711            3 
 2192000    0.9242342   -7.2341515     691.1576   0.02627576  0.026350324            4 
 2193000   0.92077545   -7.2351879     691.9147  0.026292548  0.026342909           14 
 2194000   0.90816669   -7.2244686    692.27427  0.026294222  0.026335523            2 
 2195000   0.90076496   -7.2329891    693.26281  0.026319773  0.026328129            4 
 2196000   0.92335601   -7.2159656    692.07433  0.026262687  0.026320691            2 
 2197000   0.89260595   -7.2299665    690.89659  0.026206061  0.026313219           12 
 2198000   0.90080884   -7.2176868    690.73216  0.026187904  0.026305778            3 
 2199000   0.89052865   -7.2471817    691.16772  0.026192501  0.026298333            3 
 2200000   0.89390309   -7.2098194    693.17436  0.026256605  0.026290856            1 
 2201000   0.88518847   -7.2121242    691.83001  0.026193776  0.026283454            6 
 2202000   0.88579312   -7.2209054    692.52294  0.026208104  0.026276046            3 
 2203000    0.9213715   -7.2232814    693.12073   0.02621882  0.026268622            3 
 2204000   0.87748222   -7.2585419    693.23257  0.026211153  0.026261178            5 
 2205000   0.91094982   -7.2281234    692.87894  0.026185901  0.026253732            8 
 2206000   0.86437034   -7.2594066    693.32424  0.026190852  0.026246293            7 
 2207000   0.90827762   -7.2408922    690.95573  0.026089553  0.026238876            4 
 2208000   0.89796116   -7.2329156    692.73507  0.026144892  0.026231469            4 
 2209000   0.91443944   -7.2382688    692.80696  0.026135769   0.02622408            6 
 2210000   0.90190516    -7.231373    693.47085  0.026148976  0.026216628            6 
 2211000    0.8940429    -7.226779    692.32488  0.026093958  0.026209205            2 
 2212000   0.89285159   -7.2555782     694.6864  0.026171127  0.026201731            4 
 2213000   0.89355303   -7.2705374    692.13356  0.026063171  0.026194212            3 
 2214000    0.9121412   -7.2289385    696.77793   0.02622621  0.026186801            3 
 2215000   0.90157864   -7.2231918    694.50093  0.026128703  0.026179413            1 
 2216000   0.90122149   -7.1904129    696.33492   0.02618588  0.026172082            3 
 2217000   0.90516104   -7.2367021    693.73256   0.02607625  0.026164741            3 
 2218000    0.8817552   -7.2245015    697.02319  0.026188127  0.026157378            2 
 2219000   0.91449945   -7.2204573    695.41912  0.026116085   0.02614997            3 
 2220000   0.90220627   -7.2582834    696.18392   0.02613303  0.026142599            3 
 2221000   0.90427995   -7.2140918     694.1318  0.026044267   0.02613526            5 
 2222000   0.90466853    -7.246286    695.70222  0.026091443   0.02612794            5 
 2223000   0.91497809   -7.2123689    697.13885   0.02613356  0.026120685            3 
 2224000   0.90592885    -7.235211    697.22152  0.026124907  0.026113358            1 
 2225000   0.89369676   -7.2395007    696.51689  0.026086775  0.026106024            5 
 2226000   0.90591509   -7.2175926    696.55562  0.026076506  0.026098712            3 
 2227000   0.88597099   -7.2463474    695.98524  0.026043453  0.026091448            5 
 2228000   0.88148749   -7.2453841    697.05197  0.026071663  0.026084237            4 
 2229000   0.89653993   -7.2411939     698.5444  0.026115762  0.026076986            3 
 2230000   0.89162897   -7.2206282    698.14846  0.026089255   0.02606979            5 
 2231000   0.89496442    -7.219837    696.30833  0.026008828  0.026062649            2 
 2232000   0.89543311   -7.2293705    698.38138  0.026074573  0.026055468            3 
 2233000   0.88360668   -7.2714755    698.08482  0.026051829  0.026048307            2 
 2234000   0.89339109   -7.2271201    699.77183  0.026103097  0.026041129            5 
 2235000   0.88965336    -7.220799    700.61537   0.02612287  0.026033998            4 
 2236000   0.87281937   -7.2488923    698.73043  0.026040937  0.026026856            2 
 2237000   0.87695901   -7.2557741    699.34034  0.026052017  0.026019721            3 
 2238000   0.89766329    -7.237511    700.38548  0.026079292  0.026012617            5 
 2239000   0.89929686   -7.2462553    698.96666  0.026014838   0.02600546            5 
 2240000   0.89728493   -7.2532094    699.13387  0.026009445  0.025998327            5 
 2241000   0.89949401   -7.2577456    699.01541  0.025993434  0.025991147            3 
 2242000   0.90069081    -7.198374    700.46118  0.026035578  0.025983971            3 
 2243000   0.88273552   -7.2273707    700.70748  0.026033121  0.025976822            3 
 2244000    0.8980446   -7.2341983    700.98265  0.026031738  0.025969676            2 
 2245000   0.89272905   -7.2474109    702.18683  0.026064842  0.025962535            2 
 2246000   0.89131929   -7.2439125    699.50683    0.0259538  0.025955366            2 
 2247000   0.89924261   -7.2224038    701.14891  0.026003149  0.025948187            5 
 2248000   0.89691459   -7.2390157    701.95281  0.026021382  0.025941069            3 
 2249000   0.90555365   -7.2468988    702.87143   0.02604385  0.025933974            4 
 2250000    0.9094862   -7.2344154    701.78514  0.025992042  0.025926856            4 
 2251000   0.90690072   -7.2440149    700.49184  0.025932616  0.025919732            5 
 2252000    0.9056753   -7.2435151    699.24162  0.025874838  0.025912528            3 
 2253000   0.89669524   -7.2395301     701.4937  0.025946652  0.025905338            3 
 2254000   0.89155805   -7.2696369    700.55396  0.025900398  0.025898178            2 
 2255000   0.87410773   -7.2627101    702.24502  0.025951405  0.025891031            5 
 2256000    0.9068746   -7.2382088    701.68747  0.025919307  0.025883897            5 
 2257000   0.91148083   -7.1932867    704.18978  0.026000213  0.025876821            3 
 2258000   0.90014739   -7.2208025    700.89258  0.025867013  0.025869765            4 
 2259000    0.8825955   -7.2273747     703.6279  0.025956467  0.025862684            3 
 2260000   0.89785861   -7.2134498    702.99282  0.025921564  0.025855584            5 
 2261000   0.88571258   -7.2501486    702.51579  0.025892518  0.025848478            4 
 2262000    0.8771286   -7.2729392     701.5215  0.025844441  0.025841306            3 
 2263000   0.89313828   -7.2670733    702.18002   0.02585727  0.025834122            3 
 2264000   0.90423491   -7.2570647    703.15976  0.025881911  0.025826945            5 
 2265000   0.89118481   -7.2575215    703.47514  0.025882088  0.025819843            2 
 2266000    0.8896075   -7.2630211     700.1195   0.02574726  0.025812684            2 
 2267000   0.90545763    -7.228309    705.04426  0.025916933  0.025805589            7 
 2268000   0.90690029   -7.2753901    701.82474  0.025787211  0.025798445            4 
 2269000   0.91716491    -7.264249     703.4888  0.025836962  0.025791258            3 
 2270000   0.88051931   -7.2728234    701.29415  0.025745013  0.025784092            3 
 2271000   0.87079134   -7.2668978      703.131  0.025801079  0.025776879            2 
 2272000   0.89202323   -7.2498224    703.28517  0.025795377  0.025769658            5 
 2273000    0.8938327   -7.2506079    704.15888  0.025816061  0.025762477            3 
 2274000   0.88951284   -7.2329182    706.06974  0.025874734  0.025755382            3 
 2275000   0.89118369   -7.2219004      704.939  0.025821942  0.025748311            2 
 2276000   0.88998539   -7.2478516    703.04977  0.025741424  0.025741184            3 
 2277000   0.88966932   -7.2519131     705.4352   0.02581742  0.025734028            4 
 2278000   0.88114609   -7.2298045    705.89596  0.025822942  0.025726983            7 
 2279000   0.89117712   -7.2638043     704.5959  0.025764074  0.025719919            5 
 2280000   0.87681626   -7.2677334    705.13231   0.02577238  0.025712813            3 
 2281000   0.87431381    -7.252127    706.42413  0.025808276  0.025705753            4 
 2282000   0.87897995   -7.2564541    705.38745  0.025759109  0.025698665            2 
 2283000   0.89367742   -7.2295521    705.53067  0.025753054  0.025691661            2 
 2284000   0.88843315   -7.2799064     705.1058  0.025726277   0.02568462            6 
 2285000   0.88097155   -7.2635428    704.94319  0.025709088  0.025677543            8 
 2286000   0.90676291   -7.2329682    706.14615  0.025741694  0.025670455            5 
 2287000   0.87536364   -7.2345207     707.3439  0.025774082  0.025663409            3 
 2288000   0.89875855   -7.2529247    708.25996  0.025796182  0.025656342            2 
 2289000   0.86761787   -7.2400241    706.05001  0.025704457   0.02564927            2 
 2290000   0.88694209   -7.2547296     705.9253  0.025688693  0.025642219            9 
 2291000   0.88834247   -7.2381006    707.62411  0.025739273  0.025635173            2 
 2292000   0.88250459   -7.2716533    705.96545  0.025667737  0.025628135            3 
 2293000   0.87807483   -7.2530107     707.5793  0.025715195  0.025621066            7 
 2294000   0.87488922   -7.2471668    707.87223  0.025714626  0.025614016            2 
 2295000   0.84959062   -7.2318977    707.07612  0.025674514  0.025606958            3 
 2296000   0.88883583   -7.2730687    708.84478  0.025727525  0.025599911            5 
 2297000    0.8710888   -7.2361199    706.66801  0.025637353  0.025592872            4 
 2298000   0.88691992   -7.2611528    707.57836   0.02565921  0.025585798            3 
 2299000   0.85930454   -7.2921235    707.25163  0.025636205  0.025578685            4 
 2300000   0.88315673   -7.2670806    706.73332   0.02560628  0.025571587            4 
 2301000      0.88081    -7.270687    708.59808  0.025662686  0.025564444            2 
 2302000    0.8942381   -7.2921889    707.43597  0.025609469  0.025557401            9 
 2303000   0.87736402   -7.2623098    707.06004  0.025584746  0.025550415            3 
 2304000   0.87941549   -7.2628206    710.27007  0.025689745  0.025543393            3 
 2305000   0.86295688   -7.2835639    707.92151  0.025593692  0.025536376            2 
 2306000   0.88237817   -7.2565415    710.03876  0.025659105  0.025529379            5 
 2307000   0.88655349   -7.2651096    707.54881  0.025558041  0.025522421            3 
 2308000   0.90220687   -7.2657821    710.00717   0.02563573  0.025515444            2 
 2309000   0.86853103   -7.2796482    709.91137   0.02562117  0.025508413            3 
 2310000   0.87232155   -7.2543419    708.91207  0.025574028   0.02550137            3 
 2311000   0.88214856   -7.2581352    710.51354   0.02562071  0.025494341            3 
 2312000   0.87853476   -7.2597638    710.39798  0.025605463  0.025487337            4 
 2313000   0.86843712   -7.2679753    710.28625  0.025590368  0.025480387            4 
 2314000   0.87430472    -7.276716    710.50703   0.02558726  0.025473368            6 
 2315000   0.85959386   -7.2670223    708.06684  0.025488367  0.025466349            3 
 2316000   0.87787313   -7.2364517    709.77218  0.025538723  0.025459314            3 
 2317000     0.871805   -7.2553262    709.93598  0.025533592  0.025452285            4 
 2318000   0.89359591   -7.2168725    708.51527  0.025471501  0.025445245            3 
 2319000   0.89438774   -7.2545117     709.4331  0.025493499  0.025438243            2 
 2320000   0.89016937   -7.2717391    709.84713  0.025497382  0.025431223            2 
 2321000   0.87295142   -7.2784282    710.39208  0.025505963  0.025424156            3 
 2322000   0.87002998     -7.28653    710.65818  0.025504528  0.025417086            3 
 2323000   0.86805727    -7.275838     710.7614  0.025497252   0.02541002            4 
 2324000   0.90584705   -7.2454047    710.13386  0.025463779  0.025403084            3 
 2325000     0.889791   -7.2767841     711.1014  0.025487506  0.025396116            4 
 2326000   0.88935489   -7.2598898    711.71841  0.025498653  0.025389147            4 
 2327000   0.89451837   -7.3024513    712.96054  0.025532178  0.025382124            3 
 2328000   0.87014399    -7.246487    711.43875  0.025466737  0.025375111            5 
 2329000     0.877013   -7.2632606    710.42217  0.025419428  0.025368106            4 
 2330000   0.87951382    -7.239362    714.09121  0.025539743  0.025361129            2 
 2331000   0.87895907   -7.2851107     711.8131  0.025447344  0.025354136            5 
 2332000   0.88703335   -7.2733788    710.59024  0.025392733  0.025347064            6 
 2333000   0.87821325   -7.2763942    710.84727   0.02539103  0.025339898            2 
 2334000   0.87373769   -7.2834914    710.68273  0.025374276  0.025332787            3 
 2335000   0.87542348   -7.2819195    711.43041  0.025390093  0.025325683            3 
 2336000    0.8735702    -7.282542    710.35876  0.025340995  0.025318618            5 
 2337000   0.86794365   -7.2823728    710.22174  0.025325265  0.025311512            5 
 2338000   0.88405142   -7.2677375    711.67125  0.025366098  0.025304497            2 
 2339000   0.88843388   -7.2582047    713.05708  0.025404627  0.025297454            2 
 2340000   0.88229867   -7.2848238    713.33603  0.025403705  0.025290455            3 
 2341000   0.87183927   -7.2776904    711.93574  0.025343007  0.025283438            3 
 2342000   0.85843487   -7.2657153    712.52502  0.025353153   0.02527638            3 
 2343000   0.87834194   -7.2767023    713.47963  0.025376285  0.025269388            1 
 2344000   0.88692809   -7.2668153    714.81358  0.025412883  0.025262382            2 
 2345000   0.87815661   -7.2769394    712.86189   0.02533269  0.025255346            2 
 2346000   0.87979525   -7.2592356     712.6625  0.025314809  0.025248337            4 
 2347000   0.88782027   -7.2460766    712.17935  0.025286868  0.025241312            7 
 2348000    0.8697386   -7.2644321    712.68007   0.02529387   0.02523433            4 
 2349000    0.8894519   -7.2901763    713.55086  0.025313994  0.025227303            3 
 2350000   0.86133168   -7.2752443    713.43882  0.025299249  0.025220256            3 
 2351000   0.86331302   -7.2845496    711.48596  0.025219267  0.025213159            6 
 2352000   0.87513885   -7.2956124    713.17172  0.025268272  0.025206036            2 
 2353000    0.8539721   -7.2950994    714.76283  0.025313884  0.025198949            3 
 2354000   0.87599423   -7.2630977     715.0737  0.025314135  0.025191936            5 
 2355000   0.88612219   -7.3039156    712.90034   0.02522648  0.025184905            3 
 2356000    0.8587988   -7.2688274    713.50988  0.025237333   0.02517782            5 
 2357000   0.87396565   -7.2792802    714.83742  0.025273562  0.025170738            4 
 2358000   0.87114887   -7.2586123    715.55845  0.025288325  0.025163762            2 
 2359000   0.86659472    -7.277099    715.53571  0.025276802  0.025156783            2 
 2360000   0.87307168   -7.2867349    716.03072  0.025283571  0.025149774            4 
 2361000   0.86475597   -7.2909202    714.88263  0.025232339  0.025142827            2 
 2362000   0.88693929   -7.2781589    714.86916  0.025221181  0.025135774            5 
 2363000   0.87608929   -7.2731699    715.80619  0.025243553   0.02512874            6 
 2364000   0.86635153   -7.2559648    715.88338  0.025235596  0.025121695            3 
 2365000   0.86537977   -7.3010238    716.19618  0.025235947  0.025114705            2 
 2366000   0.85628356    -7.250518    716.53334  0.025237156  0.025107681            3 
 2367000    0.8750289   -7.3021967    714.41076  0.025151766  0.025100598            3 
 2368000   0.86905104   -7.2494163    714.17504  0.025132849  0.025093474            7 
 2369000   0.86591078   -7.2927025     713.9321  0.025113694  0.025086403            4 
 2370000   0.86894551   -7.3096077    715.20078  0.025147707  0.025079301            4 
 2371000   0.86809259   -7.2954064    715.90922     0.025162  0.025072141            6 
 2372000   0.86387105   -7.2804288    714.51823  0.025102524  0.025065002            3 
 2373000   0.86970375   -7.2781649    714.55859  0.025093363  0.025057879            6 
 2374000     0.873915   -7.2959179    714.44352  0.025078753  0.025050766            2 
 2375000   0.88586674   -7.3370324      713.878  0.025048351  0.025043687            4 
 2376000   0.89223681   -7.3100519    715.22964  0.025085215  0.025036587            3 
 2377000   0.86859833   -7.2983985    716.37921  0.025114963  0.025029505            4 
 2378000   0.86685421   -7.2789741    714.73921  0.025046931  0.025022399            2 
 2379000   0.86959183   -7.2765767     716.5349  0.025099303  0.025015316            6 
 2380000   0.87488903   -7.3380599    713.18886  0.024971599  0.025008173            4 
 2381000   0.86686578   -7.2605895    715.81169  0.025052908  0.025000996            4 
 2382000   0.86759533   -7.3390106    716.07388  0.025051563    0.0249938            3 
 2383000   0.86717614   -7.2816089      715.392  0.025017205  0.024986657            7 
 2384000   0.87785766   -7.3052991    717.97211    0.0250969  0.024979591            5 
 2385000   0.88787914   -7.2913936    716.83368    0.0250466  0.024972562            4 
 2386000   0.87651552   -7.2785445    717.93452   0.02507455  0.024965535            2 
 2387000   0.85190913   -7.2407013    719.24122  0.025109664  0.024958551            3 
 2388000   0.86437108   -7.2761054    716.09472  0.024989347  0.024951536            6 
 2389000   0.87269017   -7.3203909    717.58268   0.02503079  0.024944517            8 
 2390000   0.85207212    -7.312236    716.22956  0.024973137  0.024937444            9 
 2391000   0.86409269   -7.3066043    717.34745  0.025001654  0.024930415            5 
 2392000   0.84984265   -7.2885144    719.28452  0.025058686  0.024923412            3 
 2393000   0.87366247   -7.2846257    718.19356  0.025010223  0.024916411            2 
 2394000   0.86070149   -7.3312558    716.04002  0.024924813  0.024909387            3 
 2395000   0.86320172   -7.2666838    717.99496  0.024982427  0.024902351            6 
 2396000   0.85368388   -7.3222634    716.13423  0.024907284  0.024895282            3 
 2397000   0.88131064   -7.3322401    717.08293  0.024929875    0.0248882            5 
 2398000   0.87100807   -7.3031541    717.18375  0.024922983  0.024881049            5 
 2399000   0.85412752   -7.2874694    716.91113  0.024903124  0.024874026            3 
 2400000    0.8487789   -7.2767362     717.9988  0.024930514  0.024866987            2 
 2401000    0.8603547   -7.2983519    717.62023  0.024906991  0.024859943            3 
 2402000   0.85740692   -7.2822569    719.43582  0.024959611  0.024852876            4 
 2403000   0.87139114   -7.3014793    719.13619  0.024938833  0.024845842            3 
 2404000   0.86594399   -7.2981485    719.53668  0.024942342  0.024838782            1 
 2405000   0.87029983   -7.2746686    720.13119  0.024952571  0.024831741            3 
 2406000   0.86895037   -7.2872078     719.3611  0.024915527  0.024824726            2 
 2407000   0.88434756   -7.3323953    720.09609  0.024930622  0.024817681            6 
 2408000   0.86385546   -7.2876539    719.24009  0.024890646  0.024810638            5 
 2409000   0.85562606   -7.2658404    720.23343  0.024914675  0.024803568            3 
 2410000   0.87122201    -7.284277    720.06484  0.024898507  0.024796536            3 
 2411000   0.85726728   -7.2745959     718.3174  0.024827782  0.024789449            4 
 2412000   0.87350751   -7.3330957     719.6994  0.024865236  0.024782342            6 
 2413000   0.87326769    -7.289184    717.89765  0.024792708  0.024775233            3 
 2414000   0.87098573   -7.2930207    719.09107  0.024823635  0.024768129            2 
 2415000   0.86117499   -7.2721283    719.81072  0.024838189  0.024761031            5 
 2416000   0.88378471   -7.3298658    718.45275  0.024781069  0.024753914            3 
 2417000   0.86689307   -7.3285841    719.18623  0.024796105  0.024746755            5 
 2418000   0.86939506    -7.337437    717.34307  0.024722328  0.024739599            2 
 2419000   0.86771866   -7.3064866    719.79405  0.024796543  0.024732458            2 
 2420000   0.87662175   -7.2667184    719.30936  0.024769606  0.024725347            3 
 2421000   0.86793626   -7.3468955    718.82065  0.024742553  0.024718174            4 
 2422000   0.85364463   -7.2644343    719.96203  0.024771609  0.024711047            4 
 2423000   0.88714511   -7.3209886    717.61413  0.024680635  0.024703939            3 
 2424000   0.87497431   -7.3164573    719.84408  0.024747115  0.024696774            3 
 2425000   0.85586877    -7.300643    719.02428  0.024708738  0.024689607            4 
 2426000   0.87886218   -7.3015652    721.10741  0.024770109  0.024682494            5 
 2427000   0.86805679   -7.2996231    719.97598  0.024721054  0.024675366            5 
 2428000   0.84686887   -7.2990808    720.45081  0.024727169    0.0246682            5 
 2429000   0.86715669   -7.3002849    720.27071  0.024710811  0.024661058            4 
 2430000   0.85983814   -7.3279291    719.02242  0.024657833  0.024653891            3 
 2431000   0.87433563   -7.3093892    720.82266  0.024709402  0.024646668            4 
 2432000   0.87720601   -7.3183694    722.74701   0.02476518  0.024639517            1 
 2433000   0.86256867   -7.2894497     721.4168   0.02470944  0.024632403            2 
 2434000   0.87875884   -7.2950567    720.49607  0.024667765  0.024625283            6 
 2435000   0.87825665    -7.313609    720.50481  0.024657933  0.024618169            6 
 2436000   0.85946698   -7.3053847    719.94954  0.024628816  0.024611079            3 
 2437000   0.86452391   -7.3389034    720.39278  0.024633866   0.02460392            3 
 2438000   0.86873369   -7.3121164    720.62771  0.024631792  0.024596717            6 
 2439000   0.86109991   -7.3437281    719.24781  0.024574546  0.024589484            6 
 2440000   0.87310446   -7.2952515     721.5736  0.024643907  0.024582299            3 
 2441000   0.85503655   -7.2951137     721.3575  0.024626434  0.024575117            2 
 2442000   0.84384751   -7.3113205    721.51223  0.024621629  0.024567963            3 
 2443000   0.85459631   -7.3429955    719.49566  0.024542764  0.024560767            3 
 2444000   0.84507943   -7.2933746    720.61331   0.02457083  0.024553562            5 
 2445000   0.85887012   -7.3183054    720.32014  0.024550789  0.024546364            2 
 2446000   0.84441086   -7.3190145    719.71649  0.024520186  0.024539163            3 
 2447000   0.88061575   -7.3169145    721.91175  0.024584925   0.02453198            4 
 2448000   0.85617369   -7.3226081    719.71324  0.024500042  0.024524798            3 
 2449000   0.86953464   -7.3231044     720.7015  0.024523666  0.024517606            1 
 2450000   0.86029876   -7.3097947    720.93435  0.024521577  0.024510429            3 
 2451000   0.85095274   -7.3542503    721.43373   0.02452855  0.024503256            4 
 2452000   0.87577831   -7.3141431    721.29657  0.024513886  0.024496082            4 
 2453000   0.86828965   -7.3353638    720.45836  0.024475416  0.024488907            3 
 2454000   0.83899629   -7.3021776    722.46706  0.024533655   0.02448176            4 
 2455000   0.84713992   -7.3085882     722.1001  0.024511205  0.024474592            4 
 2456000   0.86124817   -7.3015744    721.24328  0.024472153  0.024467454            3 
 2457000   0.84059703   -7.3159128    723.62682  0.024543034  0.024460284            5 
 2458000   0.86206017   -7.2818427    723.72205  0.024536278  0.024453104            3 
 2459000   0.85973695   -7.2907228    723.07867  0.024504496  0.024445969            6 
 2460000   0.84403671   -7.3275685    722.96729  0.024490762  0.024438826            3 
 2461000   0.84243348   -7.3037905    722.46651  0.024463853  0.024431665            4 
 2462000   0.84712373   -7.3063919    723.46487  0.024487709  0.024424536            4 
 2463000   0.86528105   -7.3348661    722.80993  0.024455607   0.02441737            4 
 2464000   0.85406172   -7.3544828    721.96328  0.024417048   0.02441021            7 
 2465000   0.84866082   -7.3248049    721.92625  0.024405891   0.02440302            6 
 2466000    0.8552715   -7.3038701    721.70492  0.024388514  0.024395853            3 
 2467000   0.85348214   -7.3197498    721.92952  0.024386216  0.024388739            2 
 2468000   0.85429626    -7.325282    722.94535  0.024410634  0.024381565            7 
 2469000   0.85729098   -7.3272945    723.01854  0.024403218  0.024374414            3 
 2470000   0.84394642   -7.3305772    724.12617  0.024430708  0.024367216            6 
 2471000   0.85600118   -7.3170039    721.94302  0.024347195   0.02436004            3 
 2472000   0.85761153    -7.318393    722.74183  0.024364274  0.024352915            3 
 2473000   0.85534786   -7.3015829    726.55254  0.024482833  0.024345768            3 
 2474000   0.86083037   -7.3097489    725.27613  0.024429943  0.024338684            2 
 2475000   0.85168161   -7.3734117    724.14974  0.024382146   0.02433156            7 
 2476000   0.83633015   -7.3304695    724.11418  0.024371102  0.024324366            4 
 2477000   0.84453483   -7.3292248    723.83172   0.02435176  0.024317187            3 
 2478000   0.84818574   -7.3301879    723.80342  0.024340981  0.024310054            3 
 2479000   0.87709959   -7.3323616    724.42722  0.024352132  0.024302926            2 
 2480000   0.87077552   -7.3354387    724.23026  0.024335694  0.024295795            3 
 2481000   0.85281989    -7.318992    725.45412  0.024366993  0.024288648            1 
 2482000   0.86804727   -7.2771996    724.87517  0.024337737  0.024281496            2 
 2483000   0.84133843    -7.316772    724.52362  0.024316137  0.024274408            3 
 2484000   0.86645039   -7.3225237    726.23198   0.02436366  0.024267278            3 
 2485000   0.83920778   -7.3247446    725.74182  0.024337418  0.024260201            4 
 2486000   0.85947887   -7.3490569    724.71973  0.024293367   0.02425307            5 
 2487000   0.86200776   -7.3080653    726.28209   0.02433595  0.024245954            5 
 2488000   0.85439168   -7.3041636    725.78937  0.024309665  0.024238798            3 
 2489000   0.85876976    -7.316777    723.95975  0.024238642  0.024231657            6 
 2490000   0.87530932   -7.3364506      726.186  0.024303414  0.024224485            2 
 2491000   0.85187786   -7.2974635    724.84532  0.024248806  0.024217324            9 
 2492000   0.85419572   -7.3215773    724.37967  0.024223504   0.02421017            6 
 2493000   0.85525937   -7.3146821    725.29755   0.02424447  0.024203037            4 
 2494000   0.87119779   -7.2920158    725.01912  0.024225445  0.024195919            3 
 2495000   0.86311121   -7.3025839    724.69674  0.024204968  0.024188765            3 
 2496000   0.83981787   -7.3240705    723.23248  0.024146383  0.024181539            2 
 2497000   0.85449351   -7.3152435    724.82908  0.024189997  0.024174331            3 
 2498000    0.8503957   -7.3025483    723.89305  0.024149088   0.02416714            5 
 2499000   0.85435061   -7.3376231    725.66454  0.024198497  0.024159987            3 
 2500000   0.83919652   -7.3581943    723.98605  0.024132868  0.024152776            3 
 2501000   0.84916161   -7.3134852    724.49095  0.024140042  0.024145604            3 
 2502000   0.86899656   -7.3363228    724.91026   0.02414436  0.024138407            4 
 2503000    0.8484445   -7.3233087    724.89309  0.024134142  0.024131198            3 
 2504000   0.83797095   -7.3564102    724.93176  0.024125791  0.024123967            3 
 2505000   0.87268625   -7.3560838     725.1756  0.024124271  0.024116753            1 
 2506000   0.85792064   -7.3390659     725.1233  0.024112906  0.024109553            3 
 2507000   0.87654598    -7.319892    725.76528  0.024124627  0.024102358            4 
 2508000   0.85382344   -7.3246863    727.16989  0.024161679  0.024095184            5 
 2509000   0.85263474   -7.3130927     727.7464  0.024171197   0.02408807            3 
 2510000   0.84034167   -7.3267118    727.00199  0.024136852   0.02408099            5 
 2511000   0.84813266   -7.3486284    725.09525   0.02406396   0.02407386            5 
 2512000    0.8686053   -7.3486217    725.35058  0.024062851  0.024066731            3 
 2513000   0.83641995   -7.3307839    726.43458  0.024089222  0.024059573            5 
 2514000   0.84665837   -7.3361278    727.19743  0.024104927  0.024052431            3 
 2515000   0.85524303    -7.328278    728.04315  0.024123365  0.024045292            4 
 2516000   0.84706986   -7.3624206    727.61266  0.024099518  0.024038192            2 
 2517000   0.82362381   -7.3272542     726.6398  0.024057734  0.024031074            6 
 2518000   0.84534216   -7.3216416    729.18985  0.024132574  0.024023964            4 
 2519000   0.85088903   -7.3469078    728.12388  0.024087729  0.024016877            3 
 2520000    0.8466361   -7.3385902    727.14379   0.02404576  0.024009781            4 
 2521000   0.83399811   -7.3338234    729.22546  0.024105033  0.024002672            6 
 2522000   0.84386274   -7.3017216    728.64353  0.024076247  0.023995632            4 
 2523000   0.85096837   -7.3105337    728.07255  0.024047845   0.02398858            2 
 2524000   0.85060745    -7.328441    728.82264  0.024063082   0.02398154            3 
 2525000   0.85540135   -7.3631117    728.81376   0.02405326  0.023974468            2 
 2526000   0.86530034   -7.3356098    729.87822  0.024078854  0.023967342            6 
 2527000   0.85410937   -7.3241729    730.81151  0.024100103   0.02396031            2 
 2528000   0.84738185    -7.324143    729.91547  0.024061032  0.023953294            3 
 2529000   0.83836787    -7.341671     729.2826  0.024030664   0.02394627            5 
 2530000   0.85638539   -7.3636567    727.78968  0.023971992  0.023939216            2 
 2531000   0.82282314    -7.338622    730.90638  0.024065138  0.023932118            6 
 2532000   0.83793757   -7.3533156    728.03619   0.02396117   0.02392502            3 
 2533000   0.84057507   -7.3697068    727.86068  0.023945936  0.023917898            3 
 2534000   0.84796483   -7.3205761    728.57609  0.023960013   0.02391084            2 
 2535000   0.83684762   -7.3786442    728.87443  0.023960369  0.023903762            5 
 2536000   0.83571786    -7.320808    731.80859  0.024047338  0.023896693            5 
 2537000   0.85120817   -7.3568632    728.72735  0.023936649  0.023889604            5 
 2538000   0.84050379   -7.3591805    728.58489   0.02392254  0.023882492            4 
 2539000   0.85082722    -7.352777    728.06612  0.023896091  0.023875399            7 
 2540000   0.82009007   -7.3465277    727.66396  0.023873489  0.023868297            5 
 2541000    0.8524747   -7.3638154    728.82105  0.023902042  0.023861242            3 
 2542000   0.83250908   -7.3500389    729.48465  0.023914393   0.02385419            2 
 2543000   0.84390777   -7.3385416    731.19488  0.023961033  0.023847164            5 
 2544000   0.85482769   -7.3579291    730.89757  0.023941875  0.023840146            4 
 2545000   0.85150612   -7.3444343    730.84041  0.023930596  0.023833164            5 
 2546000   0.84789683   -7.3383937    731.59078  0.023945757  0.023826184            4 
 2547000   0.83792126   -7.3423938    732.50218  0.023966175  0.023819199            3 
 2548000   0.86810144   -7.3449149    731.92097  0.023937761  0.023812201            2 
 2549000    0.8434753   -7.3577558    732.11132  0.023934593  0.023805222            6 
 2550000   0.86125073      -7.3666    730.53413  0.023873664    0.0237982            4 
 2551000   0.84664583   -7.3698756    731.18898  0.023885698  0.023791197            4 
 2552000   0.83841263   -7.3410923    733.55272  0.023953524  0.023784229            6 
 2553000    0.8456883   -7.3265605    732.91726  0.023923399  0.023777296            2 
 2554000   0.82811448   -7.3376424    732.43005  0.023898135  0.023770362            3 
 2555000   0.82846019   -7.3346829     731.7818  0.023867639  0.023763409            5 
 2556000   0.83510284   -7.3513734     733.1761  0.023903759  0.023756434            4 
 2557000   0.83770213   -7.3258183    732.47821  0.023871666  0.023749503            7 
 2558000   0.83996949   -7.3067587    734.96539   0.02394336  0.023742639           11 
 2559000   0.84547344   -7.3236994    733.74463   0.02389425  0.023735796            4 
 2560000   0.83950555   -7.3406995    732.47259  0.023843509  0.023728863            3 
 2561000   0.82792689   -7.3267504    733.56396  0.023869711  0.023721939            2 
 2562000   0.84090229    -7.312437    735.57435  0.023925786  0.023715039            4 
 2563000   0.83501086   -7.3381748    734.79748  0.023891191  0.023708132            2 
 2564000   0.84504695   -7.3310356    734.80576  0.023882143  0.023701225            2 
 2565000    0.8618426   -7.3362586    733.18336  0.023820122  0.023694374            2 
 2566000    0.8589426   -7.3363124    735.03244   0.02387089  0.023687502            6 
 2567000   0.86580093   -7.3821901    734.13782  0.023832548  0.023680619            5 
 2568000   0.82871913   -7.3685898    733.47683  0.023801818  0.023673717            4 
 2569000   0.84717582   -7.3370483    734.50741  0.023825983  0.023666852            8 
 2570000   0.83368218   -7.3827764    733.18822  0.023773937   0.02365994            3 
 2571000   0.83917565   -7.3719128    735.97792  0.023855112   0.02365298            7 
 2572000   0.83264893   -7.3612373    733.35284  0.023760784  0.023646046            5 
 2573000   0.83066736   -7.3428738    732.93265  0.023737941  0.023639077            5 
 2574000   0.85064008   -7.3591191    734.40403  0.023776354  0.023632144            6 
 2575000   0.82002805    -7.379574    733.07515  0.023724115  0.023625169            3 
 2576000   0.84206096   -7.3586347    733.85348  0.023740084  0.023618183            2 
 2577000   0.85429774   -7.3950348    732.92226  0.023700758  0.023611207            4 
 2578000   0.83378263   -7.3553519    734.63843   0.02374704  0.023604272            3 
 2579000   0.85812962   -7.3696482    733.78608  0.023710291  0.023597363            3 
 2580000   0.81863147   -7.3089772    736.19941  0.023779051  0.023590446            4 
 2581000   0.84474786   -7.3543746     735.4756  0.023746468  0.023583613            3 
 2582000   0.83658593   -7.3468386    734.28786  0.023698937  0.023576741            3 
 2583000   0.84772313    -7.328723    734.04231   0.02368184  0.023569789            4 
 2584000    0.8292716   -7.3684813    732.28983  0.023616158  0.023562836           11 
 2585000   0.83286475   -7.3175647    735.85147   0.02372184  0.023555896            5 
 2586000   0.83222188   -7.3957696    733.15956   0.02362592   0.02354896            8 
 2587000   0.85036819   -7.3601009    735.82638  0.023702692  0.023542027            3 
 2588000    0.8411087   -7.3683774      734.286  0.023643933  0.023535123            4 
 2589000   0.83865289   -7.3866297     734.7162  0.023648648  0.023528189            5 
 2590000   0.84254406   -7.3814222     735.9805  0.023680196  0.023521261            6 
 2591000   0.82726585   -7.4080483    736.44948   0.02368614  0.023514342            3 
 2592000   0.86407857   -7.3586513    736.15073  0.023667398  0.023507468            7 
 2593000    0.8305547   -7.3870823    733.14367   0.02356163  0.023500536            5 
 2594000   0.83126571   -7.3725852    736.66311   0.02366561  0.023493603            3 
 2595000   0.83783267   -7.3939817    736.49515  0.023651097  0.023486706            4 
 2596000   0.84634892   -7.4103733    735.52759  0.023610927    0.0234798            6 
 2597000   0.84402117   -7.3750689    736.58165  0.023635658  0.023472872            5 
 2598000   0.84334634   -7.3797194    735.59898   0.02359504  0.023465981            5 
 2599000   0.83704217   -7.3724775    735.14679  0.023571463  0.023459063            3 
 2600000   0.84239838   -7.3564521    736.83064  0.023616367  0.023452176            5 
 2601000   0.82714705   -7.3651907    737.00566  0.023612894  0.023445341            4 
 2602000   0.84149794   -7.3915534    735.87403  0.023567577  0.023438466            3 
 2603000   0.85252525   -7.3666673    735.35205  0.023541812  0.023431626            3 
 2604000   0.82629615   -7.3648606    736.97315   0.02358465  0.023424759            6 
 2605000    0.8230029   -7.3647549    737.08601  0.023579207  0.023417893            7 
 2606000    0.8342184   -7.3828033    738.62953  0.023619517  0.023411057            6 
 2607000   0.82600736    -7.400132    734.58459  0.023481159  0.023404142            9 
 2608000   0.82665582   -7.3800724    736.57424  0.023535731  0.023397227            4 
 2609000   0.83082505     -7.39578    734.49256   0.02346022  0.023390342            9 
 2610000   0.83075035   -7.3956124    736.25047  0.023507359  0.023383419            5 
 2611000   0.83636086   -7.3175871    738.44516  0.023568402  0.023376543            5 
 2612000   0.84032199   -7.3690222    735.47826  0.023464722  0.023369662            4 
 2613000   0.83524439   -7.3620709    737.08793  0.023507078  0.023362768            7 
 2614000   0.85004697   -7.3625216    738.45194  0.023541569  0.023355895            9 
 2615000   0.83811489   -7.3529296    739.08696  0.023552803  0.023349064            4 
 2616000   0.84460514   -7.3255837    738.19542  0.023515399  0.023342206            4 
 2617000   0.81719148   -7.3414116    739.32753  0.023542464  0.023335376            4 
 2618000   0.84097397   -7.3809252    737.37808  0.023471418  0.023328516            3 
 2619000   0.82825947   -7.4053492    738.57514  0.023500545  0.023321622            5 
 2620000    0.8228386     -7.40172    738.10098  0.023476494  0.023314744            6 
 2621000   0.83145807   -7.3783055    738.78764  0.023489369  0.023307849            4 
 2622000   0.84677703   -7.3840737     738.1608  0.023460488  0.023300975            6 
 2623000   0.83775486   -7.3861192    738.86844  0.023474026  0.023294112            4 
 2624000   0.83217277   -7.3747185    736.91588   0.02340307  0.023287222            5 
 2625000   0.81810922   -7.3587483    738.74749  0.023452301  0.023280358            2 
 2626000   0.83266394   -7.3815965    737.45889  0.023402478  0.023273528            4 
 2627000   0.83545489   -7.3292241    740.02906    0.0234751  0.023266745            4 
 2628000   0.82616493   -7.3689394    739.54806  0.023450915  0.023259941            5 
 2629000   0.81552276   -7.3731136    738.20154  0.023399313  0.023253106            6 
 2630000   0.83374149    -7.366499    739.13319  0.023419936  0.023246249            8 
 2631000   0.83333089   -7.3971914    738.17947  0.023380827  0.023239385            3 
 2632000   0.81449025   -7.3711334    737.60991  0.023353911  0.023232471            5 
 2633000   0.82506158   -7.3790414    739.87371  0.023416689  0.023225612            2 
 2634000   0.81514483    -7.367476    739.39494  0.023392652  0.023218776            6 
 2635000   0.82055366   -7.3613537    739.24207   0.02337894  0.023211915            6 
 2636000   0.83472411   -7.3927184    739.56711  0.023380346   0.02320506            3 
 2637000   0.82632207   -7.3613746    739.18479  0.023359398  0.023198223            5 
 2638000   0.84087526   -7.3912121    740.67144  0.023397506  0.023191356            3 
 2639000   0.81588592   -7.4138094    738.33288  0.023314793  0.023184503            2 
 2640000   0.81984509   -7.3908005    739.76355  0.023351122   0.02317765            2 
 2641000    0.8411576    -7.379571    739.41437  0.023331262  0.023170836            4 
 2642000    0.8155446   -7.3647996    739.64011  0.023329552  0.023164016            3 
 2643000   0.81529229    -7.356049    741.60098  0.023382551   0.02315726            4 
 2644000   0.82998727   -7.3766611    741.31308  0.023364633  0.023150467            4 
 2645000   0.82849711    -7.368901    740.26506  0.023322781  0.023143633            2 
 2646000     0.832591   -7.3769418     740.3417   0.02331638   0.02313683            2 
 2647000   0.82862078   -7.3599961    742.22591  0.023366891  0.023130028            4 
 2648000   0.81350075   -7.4078216    741.19968   0.02332577  0.023123241            5 
 2649000   0.82387233   -7.3955378     741.0367  0.023311838  0.023116435            5 
 2650000   0.82957378   -7.3433902    740.53917  0.023287395  0.023109665            6 
 2651000   0.82082322   -7.3410944    741.94927  0.023322937  0.023102868            4 
 2652000   0.82784162   -7.3816579    741.83373  0.023310512  0.023096062            4 
 2653000   0.80877656    -7.401615    741.40415  0.023288232  0.023089247            6 
 2654000   0.83457158   -7.3880011    742.60115  0.023317042  0.023082435            4 
 2655000   0.84124533   -7.4104392    741.83284  0.023284144  0.023075623            2 
 2656000   0.83776911   -7.3444341    741.61975  0.023268692  0.023068821           12 
 2657000   0.83501901    -7.370932      742.917  0.023300621  0.023062072            3 
 2658000   0.83776854   -7.3569671    740.64192  0.023220527  0.023055347            6 
 2659000   0.83106464   -7.3431275    741.67245  0.023244091  0.023048613            4 
 2660000   0.80564458   -7.3731098    744.42606  0.023321618  0.023041884            3 
 2661000   0.82906968   -7.3780658    742.05692  0.023238661  0.023035154            4 
 2662000   0.83180053   -7.3858724    741.04762  0.023198335  0.023028356            4 
 2663000   0.83456349   -7.4096459    740.80797  0.023182125  0.023021531            5 
 2664000   0.82740292   -7.3846996     743.2793  0.023250729  0.023014744            6 
 2665000   0.83914666   -7.3723273    742.40414  0.023214639  0.023008001            7 
 2666000   0.80661711   -7.3754322     743.0036  0.023224669  0.023001264            3 
 2667000    0.8119115   -7.3939066     741.5066  0.023169185  0.022994517            5 
 2668000    0.8084871   -7.3818848    741.28613  0.023153615  0.022987788            2 
 2669000   0.83179837   -7.3840077    743.43796  0.023212126  0.022981042            3 
 2670000    0.8318237   -7.3973105    741.96056  0.023157321   0.02297431            4 
 2671000   0.81897565   -7.3515612    743.04093  0.023182358  0.022967599            5 
 2672000   0.82047295   -7.4131899    744.56269  0.023221142  0.022960939            4 
 2673000   0.84439717   -7.3797677    743.36049  0.023174975  0.022954215            4 
 2674000   0.81731761   -7.4134749     742.7629  0.023147684  0.022947495            5 
 2675000   0.81746222   -7.4199595    742.96066  0.023145192  0.022940757           10 
 2676000   0.80531482   -7.3768967    744.26043  0.023177019  0.022934071            9 
 2677000   0.84842643   -7.3949828    743.62547  0.023148595  0.022927381            2 
 2678000   0.81784241     -7.36012     745.1758  0.023188194  0.022920697           10 
 2679000   0.82577576   -7.3896831    744.37547  0.023154643   0.02291403            8 
 2680000   0.83661808    -7.393096    743.54153  0.023120073  0.022907344            5 
 2681000   0.82230253   -7.4121392    742.60478  0.023082332  0.022900596            4 
 2682000   0.85531822   -7.4019109    742.70947  0.023076978  0.022893824            4 
 2683000   0.83796525   -7.4136722    744.88794   0.02313604  0.022887119            3 
 2684000   0.83305175   -7.3516286    745.06211  0.023132828  0.022880442            2 
 2685000   0.82805799   -7.3843282    744.10475  0.023094499  0.022873799            4 
 2686000   0.81353769   -7.3677536    745.81056  0.023138824  0.022867084            4 
 2687000   0.81826362   -7.3978669    745.28265   0.02311384  0.022860361            5 
 2688000   0.82236138   -7.3997466    743.40121  0.023046912  0.022853613            2 
 2689000     0.819156    -7.375018    745.09225  0.023090748  0.022846938            3 
 2690000    0.8201046    -7.398704    745.19988  0.023085498  0.022840205            6 
 2691000   0.83356389    -7.379189    743.91301  0.023037068  0.022833493            3 
 2692000   0.81367584   -7.3791119    743.04723   0.02300171  0.022826818            4 
 2693000   0.83237399   -7.4143543    744.39824  0.023034975  0.022820063            9 
 2694000   0.82739545   -7.4228971    745.29286  0.023054097  0.022813339            4 
 2695000   0.81290389   -7.3771086    744.05157  0.023007161  0.022806613            3 
 2696000   0.82134133   -7.4103511    743.87736  0.022993242  0.022799895            3 
 2697000   0.81777833   -7.3707336    744.61678  0.023007563  0.022793207            2 
 2698000    0.8291527    -7.371938    746.40334  0.023054217  0.022786522            4 
 2699000   0.81280106   -7.3795569    746.05033  0.023034776   0.02277986            4 
 2700000    0.8298828   -7.3922718     745.9357  0.023022707  0.022773183            5 
 2701000   0.82489622   -7.3836495    745.69672   0.02300681   0.02276648            4 
 2702000   0.81431562   -7.3943589    745.06047  0.022978672  0.022759785           12 
 2703000   0.82440312    -7.405746    743.68083  0.022927637  0.022753104            4 
 2704000   0.80698992   -7.3933959    746.90746  0.023018598  0.022746474            3 
 2705000   0.82059595   -7.4279148    745.99676  0.022982032  0.022739839            5 
 2706000    0.8174725   -7.4170297    745.22644  0.022949816  0.022733157            5 
 2707000   0.82707363   -7.3975235    748.64203  0.023046485  0.022726491            3 
 2708000   0.82998179   -7.4186988    745.74432  0.022948804  0.022719815            5 
 2709000   0.81049838    -7.414464    745.80906  0.022942324  0.022713181            5 
 2710000   0.82127911   -7.3937889    747.25407  0.022978292   0.02270652            2 
 2711000   0.82314147   -7.3983512    746.81816  0.022956417  0.022699891            3 
 2712000   0.81527564   -7.4112575    747.70057  0.022975067  0.022693238            5 
 2713000   0.81852648   -7.4168524    746.73331  0.022936888  0.022686569            2 
 2714000   0.83083218   -7.4025974    748.24964  0.022974995  0.022679921            3 
 2715000   0.80890818   -7.4020101    748.01543  0.022959344  0.022673332            4 
 2716000   0.80668931   -7.4215796    747.45031  0.022933551  0.022666707            4 
 2717000   0.82247332   -7.4136814    748.47527  0.022956547  0.022660069            3 
 2718000   0.82712318   -7.4070954    747.69134  0.022924066  0.022653415            3 
 2719000   0.81153103   -7.4047723    747.40315  0.022906803  0.022646767            2 
 2720000    0.8138722   -7.3911776    748.25314  0.022924422  0.022640151            4 
 2721000    0.8128021   -7.3550891    749.34436  0.022949417  0.022633558            4 
 2722000    0.7972118   -7.3738491    748.61913  0.022918783  0.022627016            3 
 2723000   0.82009699   -7.3977546    750.02868  0.022953504  0.022620446            4 
 2724000   0.80755054     -7.41994    748.47492  0.022897544  0.022613874            5 
 2725000   0.81530975   -7.4186187    748.62624  0.022893769  0.022607297            3 
 2726000   0.81848004   -7.4269119    749.24088   0.02290416  0.022600761            2 
 2727000   0.81646482   -7.4301349    748.89018  0.022885044  0.022594172            6 
 2728000   0.83439702   -7.4444666    748.57397  0.022866996  0.022587593            4 
 2729000   0.83269237   -7.4164053    748.03977  0.022842304  0.022581025            4 
 2730000    0.8264617   -7.4111089     749.7074  0.022884841  0.022574457            5 
 2731000   0.81429055   -7.4248399    747.83143  0.022819219   0.02256788            8 
 2732000   0.80956126   -7.4373407    748.87406  0.022842669  0.022561307            4 
 2733000   0.80512706   -7.4208982     749.7334  0.022860514  0.022554768            6 
 2734000   0.80682944   -7.4261487    748.68126  0.022820082  0.022548189            5 
 2735000   0.81684443   -7.3930327    750.60562  0.022870372   0.02254164            9 
 2736000   0.82833358   -7.4168329    748.49472  0.022797719  0.022535115            3 
 2737000   0.82242928   -7.4047525    749.34973  0.022815422  0.022528572            4 
 2738000   0.80512053   -7.4281235    750.03163  0.022827844  0.022522013            4 
 2739000   0.82203862   -7.3801569    750.48052  0.022833166  0.022515476            3 
 2740000     0.842868   -7.4160114    749.96254   0.02280908  0.022508905            2 
 2741000   0.81412851   -7.4064827    749.37716  0.022782961  0.022502357            7 
 2742000   0.80434927      -7.4205    750.30914  0.022802976  0.022495759            4 
 2743000   0.81260387   -7.3688025    751.27988  0.022824155  0.022489206            2 
 2744000   0.80624095   -7.4213749    749.30525  0.022755869  0.022482659            5 
 2745000   0.80464674   -7.4457389    748.97785   0.02273764   0.02247608            3 
 2746000   0.80210882   -7.4045541    752.65123  0.022840836  0.022469572            5 
 2747000   0.81313714   -7.4112472    751.10221   0.02278553  0.022463067            1 
 2748000    0.7898046   -7.4185504    750.68379   0.02276455  0.022456576           10 
 2749000   0.81182713   -7.4118101    752.50017   0.02281133  0.022450122            2 
 2750000   0.80920129   -7.3981227    752.51243  0.022803407  0.022443638            3 
 2751000   0.81311411   -7.4225858    752.64969  0.022799276  0.022437177            4 
 2752000   0.80264406   -7.4205121    750.29336  0.022719639  0.022430712            8 
 2753000   0.80247267   -7.4358542    751.29847  0.022741811  0.022424214            4 
 2754000   0.82061192   -7.3888339    751.81035  0.022749042  0.022417743            3 
 2755000   0.80936906   -7.4118875     752.3252  0.022756358  0.022411255            4 
 2756000   0.80808329   -7.4404902    750.52626  0.022693706   0.02240473            5 
 2757000    0.8217511   -7.4237274    751.17623  0.022705121  0.022398211            6 
 2758000   0.82259699   -7.4383591     752.1486  0.022726269  0.022391735            4 
 2759000   0.81389955   -7.4231656    751.18953  0.022689064  0.022385245            5 
 2760000   0.81700456   -7.4193707    750.32412  0.022654714  0.022378771            7 
 2761000   0.81934849   -7.4015224    753.04956  0.022728768  0.022372312            3 
 2762000   0.80781189   -7.4131944    754.88583  0.022775942  0.022365829            4 
 2763000   0.82538875   -7.4483293    750.85728  0.022646196   0.02235936            3 
 2764000   0.80981679    -7.393331    751.93321  0.022670442  0.022352913            4 
 2765000   0.80304015   -7.3839916    753.92571  0.022722294   0.02234647            3 
 2766000   0.80759098   -7.4270694    752.14969  0.022660572  0.022340045            8 
 2767000   0.81716943   -7.4199917    751.33767  0.022627926  0.022333554            4 
 2768000   0.80306358   -7.4206309     752.5921  0.022657517  0.022327092            4 
 2769000   0.81330384   -7.4333554    752.40144  0.022643597  0.022320594            3 
 2770000   0.80858873   -7.3843204    754.23713  0.022690648  0.022314099            4 
 2771000   0.80086584   -7.4342493    753.88351  0.022671825  0.022307608            5 
 2772000   0.80155271   -7.4189024    751.73918  0.022599182   0.02230112            6 
 2773000   0.81957142   -7.4212593    751.46458   0.02258278  0.022294623            5 
 2774000   0.80438574   -7.4063428    753.15606  0.022625452  0.022288129            5 
 2775000   0.79792267   -7.4439788     751.8431  0.022577871  0.022281611            5 
 2776000   0.79774572   -7.4341021    753.05914  0.022606242  0.022275134            4 
 2777000   0.80496146   -7.4069003    753.21299  0.022602718  0.022268635            2 
 2778000    0.8060616   -7.4106152    753.82247  0.022612865  0.022262179            4 
 2779000   0.82220436   -7.4302589    755.07444  0.022642271  0.022255718            7 
 2780000   0.81165776   -7.4342216    752.70053  0.022562966   0.02224924            5 
 2781000   0.79036286   -7.4400485      752.804  0.022557953  0.022242763            5 
 2782000   0.80483177   -7.4091303    751.20534  0.022501957  0.022236312            4 
 2783000   0.80062239   -7.3972497    752.80634  0.022541811  0.022229871            3 
 2784000    0.7871167    -7.410498    754.60501  0.022587554  0.022223389            5 
 2785000   0.80911948   -7.4013975    753.58161  0.022548821  0.022216918            4 
 2786000   0.80687185   -7.4307779    755.50638    0.0225983  0.022210434            3 
 2787000   0.82084409   -7.4313399    753.21546  0.022521692  0.022203961            3 
 2788000   0.81434364   -7.4185534     754.4059  0.022549196  0.022197479            2 
 2789000   0.80557737   -7.4276436     752.6604  0.022488957  0.022191012            3 
 2790000   0.80101507   -7.4482986     754.2374  0.022527999  0.022184542            5 
 2791000   0.79922967   -7.4295051    752.81881  0.022477571  0.022178092            5 
 2792000   0.81342068   -7.4227399    755.10953  0.022537892  0.022171642            5 
 2793000   0.80731648   -7.4486971    754.04631    0.0224981  0.022165208           10 
 2794000   0.80185916   -7.4131727    754.06284  0.022490541  0.022158737            4 
 2795000   0.79942473   -7.4380404    753.59438  0.022468527  0.022152237            6 
 2796000   0.77867554    -7.476429    753.03918  0.022443943  0.022145694            6 
 2797000    0.7907506   -7.4568441    753.04956  0.022436228  0.022139191            3 
 2798000   0.79764414   -7.4490611    753.79152  0.022450307  0.022132721            5 
 2799000    0.8187991   -7.4589393    754.43741  0.022461516  0.022126245            5 
 2800000   0.81917235   -7.4419013    753.26903  0.022418721  0.022119742            3 
 2801000   0.81023875   -7.4372002    751.71092  0.022364362  0.022113259            5 
 2802000   0.81649968   -7.4181934    756.70159  0.022504806  0.022106836            3 
 2803000   0.79064753   -7.4594257    756.36395  0.022486739  0.022100425            5 
 2804000   0.80148161   -7.4377924    755.39472  0.022449914  0.022094011            6 
 2805000   0.80202022   -7.4465253    753.45775  0.022384366  0.022087578            5 
 2806000   0.81522093   -7.4196321    756.12213  0.022455516   0.02208114           11 
 2807000   0.79588553   -7.4361418    755.53523  0.022430092  0.022074724            4 
 2808000   0.80965185   -7.4211788    753.17978  0.022352201  0.022068294            2 
 2809000   0.79445447   -7.4610678    755.72017  0.022419609   0.02206186            3 
 2810000   0.79935301   -7.4437048    753.79209  0.022354451  0.022055421            4 
 2811000   0.78823479   -7.4278013    755.39778    0.0223941  0.022048983            3 
 2812000   0.78707001   -7.4474103    756.11028  0.022407251  0.022042519            4 
 2813000   0.81636694   -7.4470779    755.96565  0.022395001  0.022036095            7 
 2814000   0.80634511   -7.4499315    754.96136  0.022357302  0.022029665            5 
 2815000   0.81093171   -7.4411496    756.37538  0.022391219  0.022023272            8 
 2816000   0.81023128   -7.4344986    756.39132  0.022383739  0.022016858            3 
 2817000   0.78406115   -7.4466426    755.81537  0.022358755  0.022010444            2 
 2818000   0.79391638   -7.4578132    755.36849  0.022337606  0.022004033            3 
 2819000   0.79389287   -7.4572761    755.96221  0.022347233  0.021997597            3 
 2820000   0.81606791    -7.423359    753.94486  0.022279694  0.021991201            6 
 2821000   0.81337833   -7.4514387    754.53051  0.022289097  0.021984772            5 
 2822000   0.82526914   -7.4349271    755.94822  0.022323064  0.021978326            7 
 2823000   0.79918039   -7.4864108    754.27356  0.022265721  0.021971905            4 
 2824000   0.81671071   -7.4367701    756.44227  0.022321833  0.021965484            8 
 2825000   0.81276836   -7.4331496    756.63236  0.022319539  0.021959092            9 
 2826000   0.80728174   -7.4346354    757.27026  0.022330451  0.021952728            4 
 2827000   0.80155136   -7.4273821    757.71466  0.022335652  0.021946332            3 
 2828000   0.78851887   -7.4319923    759.37924  0.022376805  0.021939975            3 
 2829000    0.8122018   -7.4501103    756.40261  0.022281213  0.021933624            4 
 2830000   0.80606479   -7.4155668    758.42088   0.02233277  0.021927256            6 
 2831000   0.79745125   -7.4483574    757.89475  0.022309394  0.021920861            4 
 2832000   0.81032772   -7.4600442    754.21711    0.0221933  0.021914451            7 
 2833000   0.78797107   -7.4829717    755.15304  0.022212997  0.021908025            4 
 2834000   0.80645673   -7.4750613    754.48292  0.022185454  0.021901567            4 
 2835000    0.7932767   -7.4572131    756.48023  0.022236338  0.021895087            3 
 2836000   0.77831773   -7.4557814     756.3631  0.022225056  0.021888648            6 
 2837000   0.80720244   -7.4508795    755.64501  0.022196129  0.021882222            3 
 2838000   0.78990246   -7.4564326    758.36086  0.022268055  0.021875822            3 
 2839000   0.79677308   -7.4630589    756.03585  0.022191964  0.021869389            6 
 2840000   0.78922282   -7.4636889    757.92913  0.022239704  0.021862945            2 
 2841000    0.7952047   -7.4756623    756.25105  0.022182654  0.021856496            4 
 2842000   0.80958925   -7.4583493    756.16064  0.022172198  0.021850039            8 
 2843000   0.79129424    -7.457144    756.50904  0.022174611  0.021843571            9 
 2844000   0.77647352   -7.4521241    756.47489  0.022165814  0.021837133            3 
 2845000   0.79280204    -7.438933    757.79944   0.02219682  0.021830739            4 
 2846000   0.79224049   -7.4383788    758.31291  0.022204056  0.021824326            4 
 2847000   0.80714796    -7.433166    756.78017  0.022151392  0.021817959            4 
 2848000   0.79178873   -7.4300821    758.20225  0.022185225  0.021811617            4 
 2849000   0.79491533   -7.4568808    758.93452  0.022198857  0.021805262            4 
 2850000    0.7912049   -7.4550723    758.21933  0.022170156  0.021798876            3 
 2851000   0.79902718   -7.4260011    758.59148  0.022173257  0.021792516            3 
 2852000   0.77924849   -7.4666217    757.00866  0.022119234  0.021786126            8 
 2853000   0.79511048   -7.4410948    758.08318  0.022142866  0.021779746            6 
 2854000   0.79963737   -7.4458017    757.92125   0.02213038  0.021773393            3 
 2855000   0.80282998   -7.4176196    758.02073  0.022125532  0.021767018            3 
 2856000   0.81573532   -7.4377588    759.53795  0.022162055  0.021760631            4 
 2857000   0.78489337   -7.4419008    759.05096  0.022140093  0.021754269            5 
 2858000    0.8157011   -7.4509314    758.45573  0.022114991  0.021747913            4 
 2859000   0.80204166   -7.4475351    759.42646   0.02213555   0.02174155            2 
 2860000   0.79050753   -7.4539919    759.27311  0.022123342  0.021735181            4 
 2861000   0.78217252   -7.4769151    756.93694  0.022047563  0.021728791            4 
 2862000   0.78587762   -7.4911357    755.53395  0.021999008   0.02172239            2 
 2863000   0.78926575   -7.4701165    757.47977  0.022047962   0.02171603            1 
 2864000   0.77902126   -7.4654912    756.68578  0.022017161   0.02170966            3 
 2865000   0.80018064   -7.4605329    760.15785  0.022110467    0.0217033            3 
 2866000   0.78948687   -7.4354393    759.99867  0.022098124  0.021696941            3 
 2867000   0.78546218   -7.4634419    759.43852  0.022074134  0.021690582            3 
 2868000    0.7819618   -7.4647605    759.25851  0.022061207  0.021684251            5 
 2869000   0.77464811   -7.4720654    757.60961  0.022005624  0.021677894            3 
 2870000   0.77640562   -7.4570525    759.95075  0.022065934   0.02167155            5 
 2871000    0.7875081   -7.4729081    760.52558  0.022074933   0.02166522            3 
 2872000   0.81331772   -7.4711664    758.32358  0.022003354   0.02165885            8 
 2873000   0.79548036   -7.4909469    758.08113  0.021988663  0.021652475            5 
 2874000    0.7862864   -7.4876508    759.52695  0.022022934  0.021646056            2 
 2875000   0.78744139   -7.4387978    759.67262  0.022019496  0.021639664            7 
 2876000   0.78224843   -7.4919476    758.78721  0.021986185  0.021633298            2 
 2877000   0.78726343   -7.4485664    760.43644  0.022026313  0.021626922            3 
 2878000   0.80099373   -7.4517579    759.88881  0.022002803   0.02162058            4 
 2879000   0.78415605   -7.4692743    758.64727  0.021959224  0.021614224            3 
 2880000   0.78172624   -7.4790347    758.54809  0.021948729  0.021607892            6 
 2881000    0.7891602   -7.4578013      759.181  0.021959418  0.021601545            4 
 2882000   0.78228436     -7.46266     759.0886  0.021949127   0.02159518            4 
 2883000   0.80638293   -7.4763673    758.81758   0.02193368  0.021588819            4 
 2884000   0.78238751   -7.4446091    761.15635  0.021993653  0.021582469            3 
 2885000   0.79307164   -7.4381631    760.99691  0.021981424   0.02157616            9 
 2886000   0.80002499   -7.4803301    760.57491  0.021961623   0.02156985            3 
 2887000   0.78613477   -7.4820045    759.64038   0.02192704  0.021563527            4 
 2888000   0.79412916   -7.4577363    759.88654  0.021926551   0.02155722            4 
 2889000   0.79070572   -7.4819774    760.85803  0.021946984  0.021550937            4 
 2890000   0.80184146   -7.4638094    762.17853  0.021977466  0.021544639            3 
 2891000   0.79286573   -7.4781189    762.89781  0.021990597  0.021538349            4 
 2892000   0.80804291   -7.4563122    760.17586   0.02190456  0.021532055            6 
 2893000    0.8028264   -7.4730083    760.61965  0.021909772   0.02152574            5 
 2894000   0.79992317   -7.4988361    760.71665  0.021904994  0.021519405            6 
 2895000   0.78339451   -7.5013136    758.41509  0.021831177  0.021513061            4 
 2896000   0.77006203   -7.4622581    760.16404  0.021873965  0.021506716            6 
 2897000   0.80229765   -7.4756104    760.69041  0.021881556  0.021500419            4 
 2898000   0.78981166   -7.4662286    761.42847  0.021895229  0.021494114            2 
 2899000   0.78626919    -7.469772    763.20569  0.021938763  0.021487823            4 
 2900000   0.79330877   -7.4392795    761.26671   0.02187548  0.021481531            3 
 2901000   0.78229885   -7.4938028    761.85338  0.021884792  0.021475239            3 
 2902000   0.79403767   -7.4258563    763.91631  0.021936489   0.02146895            4 
 2903000   0.80208269    -7.472206    762.55191  0.021889767  0.021462719            4 
 2904000   0.79216571   -7.4740853    762.18391  0.021871669  0.021456466            7 
 2905000   0.79061617   -7.4584568    761.39579  0.021841532  0.021450218            8 
 2906000   0.77208428     -7.48414    761.92005  0.021849049  0.021443957            3 
 2907000   0.77666408   -7.4757509    761.50509  0.021829638  0.021437664            3 
 2908000   0.77455921   -7.4601575     762.1274  0.021839964  0.021431402            3 
 2909000   0.77415271   -7.4821955    761.26084  0.021807633  0.021425114            3 
 2910000   0.77926687   -7.4983359    759.14139  0.021739444  0.021418774            7 
 2911000   0.78774743   -7.4851476     760.6868  0.021776217   0.02141244            6 
 2912000   0.79620811    -7.458006     762.3136  0.021815293  0.021406132            4 
 2913000   0.77684436   -7.4710015    763.22656  0.021833921  0.021399835            5 
 2914000   0.79595612   -7.4848893    762.02476   0.02179206   0.02139357            7 
 2915000    0.7854507   -7.4578928    762.66184  0.021802797  0.021387304            6 
 2916000   0.78936417   -7.4572457     761.8967  0.021773454  0.021381045            7 
 2917000    0.7794181   -7.4793489    762.24432   0.02177592  0.021374768            3 
 2918000   0.77796419   -7.4885782    763.34925  0.021800013  0.021368507           10 
 2919000   0.78713013   -7.4768684    763.09435  0.021785267  0.021362256            4 
 2920000   0.77752081   -7.4655746    763.19271  0.021780614  0.021355996            5 
 2921000   0.77677682   -7.4810027    761.84381  0.021734675  0.021349716            2 
 2922000   0.76473536   -7.4641877     762.8695  0.021756488  0.021343452            2 
 2923000   0.79112338   -7.4779359    764.34248  0.021791039  0.021337185            3 
 2924000   0.78114111   -7.4848358    762.23203  0.021723439  0.021330928            4 
 2925000   0.79789283   -7.4490175    761.80981  0.021703983  0.021324651            5 
 2926000   0.78066802   -7.4549758    762.74656  0.021723244  0.021318381           13 
 2927000   0.78018235   -7.4948808     763.3331  0.021732522  0.021312102            3 
 2928000   0.79608834   -7.4789346    761.32869  0.021668053  0.021305777            7 
 2929000   0.77936866   -7.5030176     760.8088  0.021645863  0.021299443            3 
 2930000   0.76698981   -7.5016948    762.32546  0.021681611  0.021293118            3 
 2931000   0.78392558   -7.4990338    762.09871  0.021667767  0.021286795            4 
 2932000   0.79462759   -7.4923587    761.52601    0.0216441  0.021280483            3 
 2933000   0.76938384   -7.4704751     762.9926   0.02167839  0.021274179            5 
 2934000    0.7844953   -7.4865178    762.71229  0.021663039  0.021267886           13 
 2935000   0.78644942   -7.5069481    762.40189  0.021646845  0.021261564            6 
 2936000    0.7880883   -7.4844317    762.14644  0.021632222  0.021255267            3 
 2937000    0.8051622   -7.5095921    761.94989  0.021619279  0.021248972            3 
 2938000   0.78252171   -7.4476721     762.3244  0.021622544  0.021242687            6 
 2939000   0.77504221   -7.4992056    762.17877  0.021611057  0.021236379            6 
 2940000   0.78331046   -7.4825001    763.80275  0.021649738  0.021230093            4 
 2941000   0.77546803   -7.4906826    761.32049  0.021572041  0.021223797            4 
 2942000   0.80231488   -7.4726032    763.09115  0.021614864  0.021217526            6 
 2943000   0.79757114   -7.4892098    762.95037  0.021603533  0.021211275            5 
 2944000   0.78669992   -7.4652127    764.35212  0.021635873  0.021205051            3 
 2945000   0.79057214   -7.4660121    765.23098  0.021653395  0.021198822            9 
 2946000   0.77990612   -7.4930837    764.25932   0.02161856  0.021192609            5 
 2947000   0.77028322   -7.4987198    763.57627  0.021591909  0.021186378            5 
 2948000   0.77860157   -7.4771821    765.01596  0.021625281  0.021180151            7 
 2949000   0.75639011      -7.4773    766.29116  0.021653983  0.021173923            3 
 2950000   0.78898962   -7.5277731    763.07043  0.021555662  0.021167665            6 
 2951000   0.77221684   -7.5109745    764.52269  0.021589368  0.021161354            8 
 2952000    0.7973551    -7.485651    760.83213  0.021477872  0.021155097            4 
 2953000   0.77798349   -7.5051575    762.90304  0.021529039  0.021148844            3 
 2954000   0.77800354   -7.4956564    763.15355  0.021528818  0.021142607            6 
 2955000   0.77318496   -7.4996062    764.20616  0.021551217  0.021136367            9 
 2956000     0.780596   -7.5094219    764.74359  0.021559077  0.021130106            8 
 2957000   0.78491443   -7.5082965    764.49563  0.021544799  0.021123892            3 
 2958000   0.79153843   -7.5105086    764.75155  0.021544725  0.021117642            4 
 2959000   0.75963485   -7.4901105    764.83515  0.021539798  0.021111392            3 
 2960000    0.7707699   -7.4780937    765.68168  0.021556354  0.021105153            2 
 2961000   0.76723076   -7.5054786    762.75301   0.02146665  0.021098913            3 
 2962000   0.78434126   -7.4977887     765.0544   0.02152415  0.021092681            8 
 2963000   0.76579102   -7.4609873    765.20813   0.02152121   0.02108646            3 
 2964000   0.80431681   -7.4683485    766.07637  0.021538359  0.021080243            2 
 2965000   0.77350688    -7.507822    763.89674  0.021469835  0.021073989            6 
 2966000   0.79433591    -7.496579    765.09377  0.021496229  0.021067767            4 
 2967000   0.80334792   -7.4990792    765.47059  0.021499567  0.021061574            3 
 2968000   0.77727425   -7.4780996    764.98099  0.021478577  0.021055371            2 
 2969000   0.78759522   -7.5330057     762.8505  0.021411544   0.02104915            5 
 2970000   0.77334217   -7.5005936    766.48691  0.021506367  0.021042954            7 
 2971000   0.79805317   -7.4862119    766.49543  0.021499367  0.021036785            2 
 2972000   0.77161287    -7.495302    763.77609  0.021415884  0.021030591            5 
 2973000   0.77781865   -7.4909546    764.89495  0.021440042  0.021024391            5 
 2974000   0.77357201   -7.4673146    765.48744  0.021449435   0.02101821            3 
 2975000   0.79319743   -7.5151599    765.70108   0.02144821  0.021012007            7 
 2976000   0.79338513   -7.4961677    764.96699  0.021420447  0.021005778            3 
 2977000   0.78332137   -7.4884562    765.14054  0.021418109   0.02099956            5 
 2978000   0.77508584   -7.4784167    766.61892  0.021452287  0.020993364            5 
 2979000    0.7774691   -7.5176214    765.74224  0.021420562  0.020987124            3 
 2980000   0.77941379   -7.5219314    764.86201  0.021388759  0.020980889            6 
 2981000    0.7728777   -7.4894278    765.50832  0.021399651  0.020974663            2 
 2982000   0.76970446   -7.4882007    766.75532  0.021427323  0.020968449            6 
 2983000   0.77614044   -7.4728693     766.1145  0.021402238  0.020962278            4 
 2984000   0.79023072    -7.482376    766.06486  0.021393679  0.020956088            4 
 2985000   0.76249266   -7.5071196    763.86805  0.021325183  0.020949883            3 
 2986000   0.78834694   -7.4765994    765.89152  0.021374512  0.020943699            2 
 2987000   0.77427829   -7.5169427    765.40974  0.021353915  0.020937484            3 
 2988000   0.77219125   -7.5033703    764.01557  0.021307886  0.020931261            4 
 2989000   0.77442037   -7.4842198    765.91804  0.021353798  0.020925045            3 
 2990000   0.76089741   -7.5260543    765.67675  0.021339932  0.020918838           12 
 2991000   0.77077107   -7.5048591     764.9619   0.02131288  0.020912626            9 
 2992000   0.76519682   -7.5117851    765.46057  0.021319646  0.020906396            3 
 2993000   0.74837647   -7.5058204    766.86078  0.021351508  0.020900191            5 
 2994000   0.78701393   -7.5064583    765.34021  0.021302054  0.020894006            5 
 2995000    0.7799278   -7.4961707    766.73866  0.021333852  0.020887826            7 
 2996000   0.77273007   -7.5374909    764.76367  0.021271798  0.020881646            5 
 2997000    0.7707727   -7.5189411    767.34644  0.021336515  0.020875428            7 
 2998000    0.7744119   -7.5281331    764.37282  0.021246743  0.020869223            5 
 2999000   0.76647844   -7.4979242    766.05673  0.021286449  0.020863024            6 
 3000000    0.7534158   -7.5073927    768.13015  0.021336949  0.020856844            4 
 3001000   0.76977474   -7.4888361    766.15147  0.021274894  0.020850702            5 
 3002000   0.77788224   -7.5029279    767.71272  0.021311146  0.020844547            7 
 3003000   0.76378352   -7.4921954    767.01233  0.021284613  0.020838418            2 
 3004000   0.75015591   -7.4990421    767.74205  0.021297771  0.020832295            2 
 3005000   0.75900358   -7.4970709    768.74333  0.021318451  0.020826135            3 
 3006000   0.76953177   -7.5148155    764.93401  0.021205756  0.020819998            4 
 3007000   0.76099807   -7.4877706     766.2693  0.021235708  0.020813859            2 
 3008000   0.76313143   -7.5033602    768.10892  0.021279613  0.020807693            4 
 3009000   0.76950983   -7.4978294    768.05522  0.021271054  0.020801548            5 
 3010000    0.7574842   -7.5107732    766.64842  0.021225039  0.020795389            4 
 3011000   0.77851086   -7.5009671    768.34209  0.021264865  0.020789265            3 
 3012000   0.76511549   -7.5329057    768.00004  0.021248341  0.020783116            7 
 3013000   0.76101739    -7.511501    767.51405  0.021227847   0.02077696           12 
 3014000   0.77465233   -7.5154541     768.4371  0.021246325  0.020770819            4 
 3015000   0.76209781   -7.5334273    766.90613  0.021196963  0.020764666            8 
 3016000   0.77449208   -7.5333236    768.23987  0.021226787  0.020758509            3 
 3017000    0.7692081   -7.5125181    767.10776  0.021188481  0.020752381            4 
 3018000    0.7663638   -7.4989924     769.1353  0.021237445  0.020746242            5 
 3019000   0.75997332   -7.5166457    768.66051  0.021217305  0.020740117            3 
 3020000    0.7641649   -7.5130091    767.80315  0.021186621  0.020733987            5 
 3021000   0.77598635   -7.5034481    769.87899  0.021236869  0.020727854            7 
 3022000   0.78689988    -7.515439    768.54482  0.021193052   0.02072174            3 
 3023000   0.77143018   -7.5226999    766.86472  0.021139727  0.020715589            7 
 3024000   0.77710174   -7.5204681    767.84906  0.021159862  0.020709448            7 
 3025000   0.75552699   -7.5314175    768.12089  0.021160355  0.020703301            3 
 3026000   0.76821882   -7.5189478    768.40661  0.021161231  0.020697189            4 
 3027000   0.76126685   -7.5206385    769.00931  0.021170832  0.020691045            8 
 3028000   0.75591117   -7.5272145    768.23312  0.021142479  0.020684938            8 
 3029000   0.77085484   -7.5120086     769.3053  0.021164997   0.02067885            4 
 3030000   0.76391949   -7.5404829    768.82291  0.021144744  0.020672743            3 
 3031000   0.79129645   -7.5226935    768.88802  0.021139558  0.020666625            3 
 3032000   0.75691617   -7.5030975    771.40151  0.021201669  0.020660522            3 
 3033000   0.76817864   -7.5004864    768.12692  0.021104707  0.020654436            6 
 3034000   0.76546762   -7.4909471    769.36574  0.021131777  0.020648357            7 
 3035000   0.76820482   -7.4912218    771.26169  0.021176872   0.02064229            4 
 3036000     0.758043   -7.5098735    767.50708  0.021066839  0.020636211            9 
 3037000   0.77988529    -7.503996     769.1438  0.021104813  0.020630133            4 
 3038000   0.77530193   -7.5334865    769.07595  0.021096005  0.020624027            7 
 3039000   0.77503193   -7.5632172     766.0802  0.021006916  0.020617897            6 
 3040000   0.77222207   -7.5409354    767.56067  0.021040588  0.020611763            4 
 3041000   0.77455264   -7.5143065    769.29785  0.021081274  0.020605665            6 
 3042000   0.78691164   -7.5154863    768.18947  0.021043981   0.02059956            3 
 3043000   0.77431498   -7.5256718    769.42997  0.021071036  0.020593451            4 
 3044000   0.76714275   -7.5191188    768.34968   0.02103454  0.020587312            6 
 3045000   0.78745432   -7.5323441    768.57235  0.021033726  0.020581189            3 
 3046000   0.74663984   -7.5471794     767.4144  0.020995141  0.020575065            7 
 3047000    0.7658524    -7.544743    767.66311  0.020995053  0.020568913            9 
 3048000   0.76977166   -7.5770698    767.95776  0.020996221  0.020562737            3 
 3049000   0.76918572    -7.556408    767.38208    0.0209736  0.020556564            9 
 3050000   0.75991865   -7.5538019    768.31674  0.020992261   0.02055039            4 
 3051000   0.76939722   -7.5290864    770.23777   0.02103785   0.02054422            5 
 3052000   0.77392956   -7.5287419    768.97632  0.020996514  0.020538086            3 
 3053000   0.76738546   -7.5433553    768.87423   0.02098685  0.020531961            5 
 3054000   0.76668761    -7.546976    767.13188  0.020932435   0.02052581            4 
 3055000   0.77448828   -7.5631797    767.66049  0.020940003  0.020519609            3 
 3056000   0.76709853   -7.5780128    768.80508  0.020964362  0.020513428            4 
 3057000   0.75020989   -7.5539292    767.11096  0.020911323  0.020507232            3 
 3058000   0.75891126   -7.5086437    768.69885  0.020947756  0.020501067            3 
 3059000    0.7634369   -7.5326268    769.90145  0.020973669  0.020494911            8 
 3060000   0.76493533   -7.5365268    770.44937  0.020981737  0.020488756            6 
 3061000   0.76386607   -7.5274684     769.4388   0.02094737  0.020482652            4 
 3062000    0.7410591   -7.5413205    768.42389  0.020912908  0.020476543            5 
 3063000   0.76472496   -7.5102575    769.54245  0.020936512  0.020470426            7 
 3064000     0.752105   -7.5455142    770.74974  0.020962515  0.020464313            6 
 3065000   0.77530301   -7.5342169    769.53014  0.020922516  0.020458218            3 
 3066000   0.77510691   -7.5076764    770.94677  0.020954196  0.020452134            5 
 3067000   0.75582913   -7.5252451      769.877  0.020918297  0.020446057            5 
 3068000   0.77028722   -7.5303118    770.39965  0.020925675  0.020439994            3 
 3069000   0.77271532   -7.5041401    768.49385  0.020867108  0.020433922            3 
 3070000   0.76503934   -7.5465111    770.46775  0.020913891  0.020427857            9 
 3071000   0.77987984     -7.53434    768.70928  0.020859364  0.020421764            7 
 3072000   0.77140299   -7.5058819     769.2523  0.020867304  0.020415676            5 
 3073000   0.73380461   -7.5200885    769.99775  0.020880729  0.020409601            6 
 3074000    0.7540773   -7.5434934    769.36978  0.020856912  0.020403511            6 
 3075000   0.76175739   -7.5225939    769.70889  0.020859319  0.020397432            6 
 3076000    0.7572214   -7.5091678    771.11579  0.020890653  0.020391351           12 
 3077000    0.7680561   -7.5333908    770.80186  0.020875362   0.02038525            7 
 3078000   0.76170307   -7.5407888    770.98574  0.020873558  0.020379175           11 
 3079000   0.75947969   -7.5408333    770.20472   0.02084564  0.020373093            4 
 3080000   0.74151218   -7.5296063    769.90108  0.020830657  0.020366992            6 
 3081000   0.75535606    -7.519098    770.50069  0.020840114  0.020360909            6 
 3082000   0.77673552    -7.510512    771.16566  0.020851332  0.020354827            5 
 3083000   0.77445428   -7.5156138    772.42765   0.02087868  0.020348737            3 
 3084000   0.75627373   -7.5570647    769.16528  0.020783757  0.020342618           10 
 3085000    0.7575028   -7.5484323    769.12501  0.020775932  0.020336492            5 
 3086000   0.74554533     -7.57998    770.96968  0.020819013  0.020330364            4 
 3087000   0.76402585   -7.5592998    769.34253  0.020768344  0.020324247            4 
 3088000    0.7649428   -7.5627355    770.98762  0.020806013  0.020318113            3 
 3089000   0.75041556   -7.5611174    772.03547  0.020827546  0.020312031            4 
 3090000   0.76096409   -7.5540142     771.2385  0.020799312  0.020305953            6 
 3091000   0.76049958   -7.5232628    770.22121  0.020765157  0.020299876            6 
 3092000   0.74408862   -7.5382346    770.39152  0.020763031  0.020293825           18 
 3093000   0.77190113   -7.5498585    771.35915  0.020782389  0.020287744            5 
 3094000   0.73163025   -7.5468292    771.69982  0.020784848    0.0202817            5 
 3095000   0.74326892   -7.5263738    770.62204  0.020749112  0.020275657            5 
 3096000   0.75953951   -7.5324263    770.98392  0.020752151  0.020269601            4 
 3097000   0.74303977    -7.576571    770.56599  0.020734205  0.020263539            4 
 3098000   0.74964386   -7.5316689    772.29196  0.020773939  0.020257495            3 
 3099000   0.75730204   -7.5620943     769.8494  0.020701554  0.020251458            4 
 3100000   0.73715888   -7.5735019    771.15757  0.020730042  0.020245427            9 
 3101000   0.76315716   -7.5193378    773.38825  0.020783302  0.020239428            3 
 3102000   0.75936012    -7.566264    771.40956  0.020723446  0.020233408           11 
 3103000   0.77183786   -7.5208555    773.25683  0.020766377  0.020227381            3 
 3104000   0.76251691   -7.5261038    773.49729  0.020766143  0.020221384            6 
 3105000   0.74494684   -7.5335808    773.90811  0.020770481  0.020215392            4 
 3106000   0.75519802   -7.5380007    774.96829  0.020792238  0.020209399            4 
 3107000   0.75949919   -7.5382149    772.05656   0.02070745   0.02020339            3 
 3108000   0.75517918   -7.5718502    772.38402  0.020709567   0.02019738            6 
 3109000   0.75631312   -7.5586142    773.88587  0.020743161  0.020191371            5 
 3110000   0.75490513    -7.546346    772.87307  0.020709353  0.020185365            9 
 3111000   0.76191786   -7.5479598    772.52307  0.020693321  0.020179381            9 
 3112000   0.75786794   -7.5196461    773.85609  0.020722367  0.020173431            4 
 3113000    0.7543269   -7.5094319    774.81689  0.020741431  0.020167511            3 
 3114000   0.74430844    -7.512935    773.04611  0.020687383   0.02016159            3 
 3115000    0.7640657   -7.5435875    774.24641  0.020712852   0.02015565            8 
 3116000   0.75404802   -7.5729838    773.13041  0.020676359  0.020149703            4 
 3117000    0.7475114   -7.5436604    774.44437  0.020704854  0.020143762            4 
 3118000   0.75606816   -7.5364394    773.57344  0.020674937   0.02013783            4 
 3119000    0.7400766   -7.5267429    774.28796  0.020687399  0.020131893            4 
 3120000     0.763117    -7.546977    773.75637   0.02066657  0.020125949            3 
 3121000   0.74929827   -7.5498097    773.45674  0.020651948  0.020120016            5 
 3122000   0.75436512   -7.5317993    773.12921   0.02063659   0.02011407            3 
 3123000   0.74811839   -7.5257779    774.13019  0.020656692  0.020108124            4 
 3124000   0.74518588   -7.5521676    774.76304  0.020666961  0.020102164            3 
 3125000   0.75291251   -7.5279341    773.87393  0.020636638  0.020096215            6 
 3126000   0.75825262   -7.5421185    774.02928  0.020634178  0.020090253            5 
 3127000   0.75080273    -7.571396    775.15586  0.020657602  0.020084299            5 
 3128000   0.75162314   -7.5762404    772.30649  0.020575088  0.020078329            9 
 3129000   0.76099762   -7.5837346    773.57974  0.020602422  0.020072333            4 
 3130000    0.7393296   -7.5650758    774.53464  0.020621263  0.020066357            3 
 3131000   0.75855755   -7.5548927    774.01151  0.020600753  0.020060403            2 
 3132000   0.74541878    -7.560282    774.07085  0.020595755  0.020054431            2 
 3133000   0.76180124   -7.5716591    772.75763  0.020554251  0.020048482            1 
 3134000   0.75745302   -7.5752735    771.58327  0.020516466  0.020042521            3 
 3135000   0.74851456   -7.5324381    774.63287  0.020590985  0.020036561            6 
 3136000   0.74759035   -7.5551711    775.77447  0.020614755  0.020030655            3 
 3137000      0.75637   -7.5726498    774.90284  0.020585029  0.020024764            4 
 3138000   0.75736682   -7.5509462    774.72208  0.020573669   0.02001886            3 
 3139000   0.76314239   -7.5064416    774.18348  0.020552816  0.020012952            3 
 3140000   0.75152352   -7.5672659    776.52052  0.020608294  0.020007056            6 
 3141000   0.74623093   -7.5503479    774.94062  0.020559817  0.020001126            9 
 3142000   0.74541328   -7.5381295    774.74778  0.020548159  0.019995204            5 
 3143000   0.74526185   -7.5609194    776.38474  0.020585023  0.019989292            6 
 3144000   0.75111771   -7.5709345    773.55589  0.020503496  0.019983365            4 
 3145000    0.7581083   -7.5752153    773.80346  0.020503536  0.019977424            2 
 3146000   0.75546546   -7.5439588    775.84135     0.020551  0.019971496            3 
 3147000    0.7478918   -7.5652329    772.46521  0.020455069  0.019965579            8 
 3148000   0.74613248   -7.5950693    773.77982  0.020483371  0.019959605           13 
 3149000   0.74567409   -7.5407263    774.57298  0.020497856  0.019953656           11 
 3150000   0.74061374   -7.5385339    774.49772  0.020489358  0.019947713            2 
 3151000   0.74064925   -7.5711856    772.46247   0.02042903  0.019941786            4 
 3152000   0.75004674   -7.5959696    774.33424  0.020472035  0.019935852            6 
 3153000   0.73839438   -7.5395329    776.40258  0.020520208  0.019929942            3 
 3154000   0.75532971    -7.550519    776.30639   0.02051116  0.019924028            3 
 3155000   0.73206864   -7.5472654    774.75395  0.020463654  0.019918138            6 
 3156000    0.7516579   -7.5787589    774.12802  0.020440643   0.01991223            3 
 3157000   0.76408342   -7.5694495    774.79634  0.020451809  0.019906324            8 
 3158000   0.77248983   -7.5325241    776.09832   0.02047969  0.019900435            2 
 3159000   0.74970355   -7.5974074    774.84127  0.020440046  0.019894553            4 
 3160000   0.74218948   -7.5680854    775.51629  0.020451379  0.019888665            6 
 3161000   0.76429932   -7.5687345    776.69535  0.020475993  0.019882773            5 
 3162000   0.74283734   -7.5945013     775.8491  0.020447214  0.019876913            5 
 3163000   0.74058179   -7.5713235    776.81029  0.020466074   0.01987104            2 
 3164000   0.73940644   -7.5925735    775.34101  0.020420907  0.019865159            4 
 3165000    0.7324434   -7.6134771    775.05067  0.020406811  0.019859253            4 
 3166000   0.73588354   -7.5799824    774.69908  0.020391111  0.019853375            5 
 3167000    0.7551067   -7.5599056    776.98153   0.02044473  0.019847524            4 
 3168000   0.75227459   -7.5819333       774.41  0.020370633  0.019841671            9 
 3169000   0.76609054   -7.6028867    775.79379  0.020400594  0.019835805            3 
 3170000   0.72486094   -7.5879987     777.6779  0.020443688  0.019829953            2 
 3171000    0.7333559   -7.5770698    773.92886  0.020338717  0.019824083            4 
 3172000   0.73623134   -7.5826355    774.57635  0.020349316  0.019818201            4 
 3173000   0.75132787    -7.553864    775.44128  0.020365618  0.019812323            5 
 3174000   0.75350493   -7.5774389    777.02931  0.020400895  0.019806449           12 
 3175000   0.73545643   -7.5799298    777.75352  0.020413478   0.01980059            5 
 3176000   0.74197442   -7.5803722    776.73073  0.020380214  0.019794751            3 
 3177000   0.74711874   -7.5722191    775.61734  0.020344595  0.019788898            3 
 3178000   0.73818071   -7.5971525    776.63519  0.020364883  0.019783047            4 
 3179000   0.74452193   -7.5535628    776.09179  0.020344233  0.019777202            3 
 3180000   0.71572721   -7.5507372    778.73284  0.020407045  0.019771382            6 
 3181000   0.73807922   -7.5763504    778.04231   0.02038254  0.019765566            5 
 3182000    0.7464553   -7.5536377    777.96035  0.020373988  0.019759769           11 
 3183000   0.72177961    -7.602175    777.83888  0.020364407  0.019753945            7 
 3184000   0.74815058    -7.564018    777.42446  0.020347165    0.0197481            3 
 3185000   0.73659039    -7.585032    777.13415   0.02033318  0.019742264            7 
 3186000   0.73873075   -7.5881911    776.51054  0.020310487    0.0197364            3 
 3187000   0.73374595   -7.5960284    775.37456  0.020274411  0.019730533            4 
 3188000   0.73199689   -7.5740999    777.78729  0.020331119  0.019724671            6 
 3189000   0.74486496    -7.590402    776.12102  0.020281201  0.019718818            4 
 3190000   0.72821705   -7.5900213     778.8868  0.020347095  0.019712968            4 
 3191000   0.73427295    -7.598122    777.40623  0.020302054  0.019707145            4 
 3192000   0.72182911   -7.5777133    776.98668   0.02028474  0.019701335            5 
 3193000   0.73404788   -7.5667729    777.07265  0.020280631  0.019695528            4 
 3194000   0.73878933   -7.6039974    777.26779  0.020279373  0.019689714            5 
 3195000    0.7346152   -7.5624751     777.5692  0.020280887  0.019683903            4 
 3196000   0.74715891   -7.5946273     777.9619   0.02028478  0.019678092            6 
 3197000   0.73782924    -7.594861    775.96688  0.020226433   0.01967229            4 
 3198000   0.74003491   -7.5553433     778.7796  0.020293402  0.019666488            5 
 3199000   0.73738554   -7.5539056     776.9878  0.020240382  0.019660717            6 
 3200000   0.73453287   -7.5627318    778.41207  0.020271148  0.019654951            4 
 3201000   0.74884284   -7.5715373    778.27511  0.020261249  0.019649169           13 
 3202000   0.73289777   -7.6003231    777.22893  0.020227694   0.01964337           10 
 3203000    0.7461791   -7.5915535    776.88135  0.020212336  0.019637567           16 
 3204000   0.74860325   -7.5634877    778.46924  0.020247327  0.019631776            3 
 3205000   0.74638435    -7.561227     778.5804    0.0202439  0.019626018            3 
 3206000   0.73320146   -7.5878658    778.05269  0.020223869  0.019620242            5 
 3207000   0.75395036   -7.5634442    777.72987  0.020209175  0.019614453            5 
 3208000   0.72448294    -7.568406    777.83677  0.020205652  0.019608674            4 
 3209000   0.73153749   -7.5600821    778.73482  0.020222676  0.019602881            5 
 3210000   0.72949738    -7.569382    778.56658  0.020212009  0.019597102            3 
 3211000   0.73675275   -7.5635736    780.75747  0.020262573  0.019591337            4 
 3212000   0.72227449     -7.57669    778.85487  0.020206903  0.019585568            6 
 3213000   0.73306279   -7.5714769    778.76498  0.020198282  0.019579791           12 
 3214000   0.73793668   -7.5723243    780.41979  0.020234904  0.019574035            6 
 3215000   0.72500048   -7.5858186    777.65654  0.020156987  0.019568265            3 
 3216000   0.75721851    -7.550248    780.69516  0.020229456  0.019562525            4 
 3217000   0.73443935   -7.5954217    781.44499  0.020242591  0.019556789            7 
 3218000   0.73359625   -7.5805469    780.26213  0.020205669   0.01955108            3 
 3219000   0.73523472   -7.5599976    782.85369  0.020266483  0.019545382            5 
 3220000   0.73425296   -7.5515598     781.0155  0.020212616  0.019539703            3 
 3221000    0.7199092   -7.5584369    782.17999  0.020236469  0.019534019            3 
 3222000   0.74096939   -7.5813018    780.83968  0.020195522  0.019528345            4 
 3223000   0.74023005   -7.5791617    780.29741  0.020175236  0.019522669            7 
 3224000   0.73672724   -7.5887713    779.78649  0.020155771  0.019516949            5 
 3225000   0.74447275   -7.5885395    780.59464  0.020170404  0.019511234            4 
 3226000    0.7430113   -7.5978574    780.81441  0.020169829  0.019505485            5 
 3227000   0.74796864   -7.5663613    780.95194   0.02016713  0.019499757            3 
 3228000   0.74117815   -7.6171012    780.02014  0.020136827  0.019494027            4 
 3229000   0.71732709   -7.6245188    779.12161  0.020107402  0.019488266            7 
 3230000   0.73670335   -7.6051468    781.74828  0.020168944  0.019482501            3 
 3231000   0.73287203   -7.6237718    777.98795  0.020065716  0.019476761            7 
 3232000   0.72883453   -7.5882925    778.27926  0.020067019  0.019470996           14 
 3233000   0.73996498    -7.591061    779.52627  0.020092955  0.019465243            5 
 3234000   0.73805797   -7.5979164    778.63557   0.02006379  0.019459527            6 
 3235000   0.72214693   -7.5904716     779.3687  0.020076473  0.019453815            3 
 3236000   0.73314934   -7.5926138    779.66809  0.020077979  0.019448099            7 
 3237000    0.7358412    -7.588326    779.68287  0.020072157  0.019442402            3 
 3238000   0.75074684   -7.5953948    779.27818  0.020055543  0.019436705            6 
 3239000   0.73399254   -7.5805489    780.27956  0.020075115  0.019430997            5 
 3240000   0.72753232   -7.5688427    780.78594  0.020081943  0.019425262            4 
 3241000   0.72869463   -7.5826803    780.43044  0.020066606  0.019419539            5 
 3242000   0.71895121    -7.593876      779.663   0.02004069  0.019413818            7 
 3243000   0.71642246   -7.5856485    780.53299  0.020056866  0.019408095            4 
 3244000   0.74643773   -7.5973697    779.87013  0.020033655  0.019402379            5 
 3245000   0.72858014   -7.6095176    780.07292  0.020032689  0.019396629            5 
 3246000   0.72014683   -7.6334792    779.19237  0.020003912  0.019390844            7 
 3247000   0.72773921   -7.6140729    779.21535  0.019998341  0.019385078            7 
 3248000   0.74928942   -7.5851426    778.01626  0.019961419  0.019379322            5 
 3249000   0.73084553    -7.597903    779.85006   0.02000231  0.019373575           11 
 3250000   0.72602779   -7.5818002    781.33361  0.020034195  0.019367815            6 
 3251000   0.72954795   -7.6170768    779.76333  0.019987782  0.019362056            6 
 3252000   0.72835174   -7.6200004    779.03875  0.019963068   0.01935633            5 
 3253000    0.7328446   -7.6117296    778.99522  0.019955816  0.019350613            7 
 3254000   0.72965261    -7.602502    780.30091  0.019983121  0.019344875            5 
 3255000   0.72588975   -7.6021218    778.94063  0.019942156  0.019339143            3 
 3256000   0.72985406   -7.5939204    779.64991  0.019954185  0.019333395            6 
 3257000   0.73663218   -7.5909521    778.97021  0.019930668  0.019327661            5 
 3258000   0.72252369   -7.5971823    780.62046   0.01996676  0.019321953            3 
 3259000   0.72258934   -7.6045516    779.94339  0.019943321  0.019316238            4 
 3260000   0.71183169    -7.610936    780.20659  0.019943931  0.019310523            5 
 3261000   0.74205405   -7.6312984    779.34729  0.019915856  0.019304792            5 
 3262000   0.71707917   -7.6080239    779.50625  0.019913812  0.019299037            3 
 3263000   0.73034828   -7.6084707    779.93378  0.019918627  0.019293293            6 
 3264000   0.72280658   -7.6279743    780.44032  0.019925458  0.019287529            4 
 3265000   0.73172817   -7.6406865    778.46477  0.019868932  0.019281774            3 
 3266000    0.7308742   -7.6159171    779.09631  0.019878963  0.019276026           10 
 3267000   0.71786156   -7.6222465    780.51713   0.01990912  0.019270272            3 
 3268000   0.71248018   -7.6098114    780.43565   0.01990095  0.019264524            9 
 3269000   0.73199211   -7.6237238    778.87185  0.019854998  0.019258779            5 
 3270000   0.75293027   -7.6250303     778.1746  0.019831157  0.019253026            9 
 3271000   0.71251851   -7.6136696    779.65025  0.019862689  0.019247294            8 
 3272000   0.73594226   -7.6225257    780.41646  0.019876132  0.019241566            7 
 3273000    0.7407295   -7.6267428    780.50201  0.019872238  0.019235823           11 
 3274000   0.71507321   -7.6200697    780.39971  0.019863564  0.019230088            3 
 3275000   0.73219297    -7.648718    781.72546  0.019891233  0.019224362            8 
 3276000   0.72436414   -7.6162103    780.90183   0.01986421  0.019218643            6 
 3277000   0.72014306   -7.6010591     781.2501  0.019867005  0.019212932            3 
 3278000   0.74191041   -7.6140238    780.18252  0.019833804  0.019207203            2 
 3279000   0.72999324   -7.6214796    781.95621  0.019872832    0.0192015            5 
 3280000   0.72361893   -7.6177723    778.43581  0.019777333  0.019195765            6 
 3281000   0.72493564   -7.6391989    781.14472  0.019840108   0.01919002           11 
 3282000   0.72908419   -7.6283881    779.12984  0.019782903  0.019184268            8 
 3283000   0.71144932   -7.6183174    781.57117  0.019838846  0.019178522            7 
 3284000   0.72684464   -7.6106137    780.14556  0.019796629  0.019172769            2 
 3285000   0.72165732   -7.6374179     779.0477  0.019762752  0.019167031            2 
 3286000   0.72888293   -7.6232926     779.5243  0.019768825  0.019161294            3 
 3287000   0.72280441   -7.6315985    777.29792  0.019706367  0.019155528            7 
 3288000   0.72898869   -7.6426688    779.40894  0.019753876  0.019149759            2 
 3289000   0.72225266   -7.6394168     779.0866  0.019739703   0.01914399            2 
 3290000   0.72758549   -7.6171324    781.84035  0.019803454  0.019138229           10 
 3291000   0.72175914   -7.6238401    779.48453  0.019737783  0.019132481           12 
 3292000   0.72768169    -7.636688    780.45547  0.019756366  0.019126703           10 
 3293000    0.7128169   -7.6272269    779.18954   0.01971833  0.019120931            7 
 3294000   0.73102794   -7.6361118    779.77428  0.019727137  0.019115184            5 
 3295000   0.72551932   -7.5960622    781.45602  0.019763683  0.019109426            5 
 3296000   0.73462379   -7.6203048    779.93889  0.019719329  0.019103703           11 
 3297000   0.72711209   -7.5903658    779.20527  0.019694805   0.01909796            6 
 3298000   0.70587599   -7.6241378    780.11827  0.019711903  0.019092224            4 
 3299000   0.72192547   -7.6119776    779.81863  0.019698359  0.019086498            4 
 3300000   0.75255503   -7.6226476    780.27749  0.019703977  0.019080771            3 
 3301000   0.73197584   -7.6053102    778.32259  0.019648657  0.019075012            6 
 3302000   0.72464241   -7.6345689    778.68388  0.019651824  0.019069282            3 
 3303000   0.70697052   -7.6173951    778.66994  0.019645523  0.019063531            8 
 3304000   0.71894475   -7.6276541    779.61662  0.019663454  0.019057791            6 
 3305000    0.7047081   -7.6192366    779.97777   0.01966661  0.019052058            4 
 3306000   0.73673731   -7.6354883    779.97102  0.019660492  0.019046322            5 
 3307000   0.72893744   -7.6224313    782.42835  0.019716469  0.019040589           11 
 3308000   0.72614306   -7.6185764    781.25988  0.019681073  0.019034852            6 
 3309000   0.73081117   -7.6220207    780.47136  0.019655268  0.019029149            8 
 3310000   0.72148047   -7.6315992    779.45608  0.019623768  0.019023431            6 
 3311000    0.6931672   -7.6286271    779.31861  0.019614382  0.019017685            5 
 3312000   0.71039241   -7.6301295    779.86412  0.019622185  0.019011921            7 
 3313000   0.71558625   -7.6428656    779.75862  0.019613608  0.019006153            5 
 3314000   0.72523763   -7.6333462    777.52648  0.019551561  0.019000404            6 
 3315000   0.72436777   -7.6292793    779.95829  0.019606795  0.018994645            9 
 3316000   0.72565336   -7.6600839     780.2026  0.019607021  0.018988889            7 
 3317000   0.72777786   -7.6692156     781.2705   0.01962794  0.018983137            5 
 3318000    0.7261274   -7.6294779    779.65574  0.019581468  0.018977384            5 
 3319000   0.72231699   -7.6098412    782.70142  0.019652039   0.01897166            4 
 3320000   0.71339511   -7.6332474    779.50107   0.01956579  0.018965927            2 
 3321000   0.72350695   -7.6260118    779.44542  0.019558502  0.018960189            6 
 3322000   0.72533319   -7.6057814    780.85104  0.019587875   0.01895447            6 
 3323000    0.7152729   -7.6402676    781.30862  0.019593455  0.018948739            2 
 3324000   0.74532862   -7.6272063    780.96124  0.019578852  0.018943017            4 
 3325000    0.7262355   -7.6539764    779.60506  0.019538974  0.018937302           13 
 3326000   0.72176064   -7.6414996      781.423  0.019578648  0.018931583            4 
 3327000   0.71748912    -7.599573    780.24993  0.019543381  0.018925857            5 
 3328000    0.7181477      -7.6472    782.35277  0.019590164  0.018920131            6 
 3329000   0.72198586   -7.6255142    779.80216  0.019520431    0.0189144            3 
 3330000   0.72502529   -7.6489917    780.27907  0.019526503  0.018908662            6 
 3331000   0.71239385   -7.6352193    781.34947   0.01954742  0.018902909            4 
 3332000   0.71076389   -7.6515158    779.77561  0.019502191  0.018897174            4 
 3333000   0.72173898   -7.6355906    779.97655  0.019501364  0.018891442            4 
 3334000   0.71662942    -7.631113    781.36396  0.019530193  0.018885728            4 
 3335000   0.70681595   -7.6259895    781.03631   0.01951615  0.018880019            5 
 3336000   0.73197344   -7.6151757      780.432  0.019495204  0.018874306            3 
 3337000   0.72002017   -7.5997061    782.26858  0.019535226  0.018868618            3 
 3338000   0.71025117   -7.6379523    782.10529  0.019525297  0.018862938            3 
 3339000   0.72915926   -7.6378469    780.20551  0.019472035  0.018857245            3 
 3340000   0.72490336    -7.630663    780.45167  0.019472347  0.018851552            5 
 3341000   0.72960805   -7.6289238    780.08862  0.019457463  0.018845858            8 
 3342000   0.73487857    -7.623643    780.89406  0.019471725  0.018840185            9 
 3343000   0.70358819   -7.6138766    781.46178  0.019480052  0.018834509            3 
 3344000   0.71693899   -7.6334093     782.6839  0.019504683  0.018828846            6 
 3345000   0.71713172   -7.5971044    780.39022   0.01944171  0.018823169           11 
 3346000   0.73290504   -7.6579496    781.33073  0.019459323  0.018817499            5 
 3347000   0.72179968   -7.6706061    782.19304  0.019474979  0.018811809            4 
 3348000   0.72466424   -7.6507365    781.79277  0.019459199  0.018806119            4 
 3349000   0.70580956   -7.6497075    781.10976  0.019436393  0.018800438            4 
 3350000   0.70265435    -7.673824    781.63385  0.019443628  0.018794746            7 
 3351000   0.71602612   -7.6365558    782.39103  0.019456656  0.018789051            7 
 3352000   0.72350552   -7.6700841    781.41661  0.019426626  0.018783363            7 
 3353000    0.7217211   -7.6369018    783.63162  0.019475883  0.018777686            3 
 3354000   0.73509156   -7.6608076    780.85294  0.019401037  0.018772005            8 
 3355000   0.72278562   -7.6381936    781.54348  0.019412406  0.018766325            5 
 3356000   0.70741714   -7.6643183    781.23328  0.019398919  0.018760652            4 
 3357000   0.71273283   -7.6623583    780.63963  0.019378404  0.018754977            5 
 3358000   0.71643245   -7.6628733    783.09088  0.019433464  0.018749298            8 
 3359000   0.71741058   -7.6329626    780.30075  0.019358459  0.018743633            5 
 3360000   0.72081676   -7.6594174    780.61059  0.019360382  0.018737957            6 
 3361000   0.71022663    -7.643356    782.73006  0.019407172  0.018732283            3 
 3362000    0.7035892   -7.6485586    783.09319    0.0194104  0.018726637            5 
 3363000   0.70983103   -7.6869184    781.45418  0.019364015   0.01872097            8 
 3364000   0.70244638   -7.6458333     780.8211  0.019342576  0.018715295            9 
 3365000   0.71950101   -7.6741343    781.04489   0.01934237  0.018709616            7 
 3366000   0.70631039   -7.6596362    781.45754  0.019346839  0.018703942            7 
 3367000   0.70011151   -7.6783234    782.22081  0.019359984  0.018698278            6 
 3368000   0.72607011   -7.6430512    782.31332  0.019356525  0.018692621            4 
 3369000    0.7049596   -7.6215278    783.06783  0.019369443  0.018686991            6 
 3370000   0.71200046   -7.6655602    782.73623  0.019355495  0.018681367            7 
 3371000   0.71138555   -7.6305403     781.4634  0.019318288  0.018675737            7 
 3372000   0.69264025   -7.6341613    782.18479  0.019330387  0.018670126            7 
 3373000    0.7171781   -7.6552167    783.29792  0.019352157  0.018664509            2 
 3374000   0.71272095   -7.6197749     783.4079  0.019349138  0.018658915            4 
 3375000   0.70362541   -7.6378443    783.10113   0.01933583  0.018653318            6 
 3376000   0.71700578   -7.6604901    781.60382  0.019293143  0.018647701            3 
 3377000   0.71862218    -7.665606    784.13968  0.019350007  0.018642096            3 
 3378000   0.70827802   -7.6410065    783.88383  0.019337967   0.01863648            4 
 3379000   0.70936922   -7.6610186    783.38467  0.019319934  0.018630873            8 
 3380000   0.70934872   -7.6458764    784.39257  0.019339067  0.018625285            4 
 3381000   0.69590965   -7.6389498    784.85602   0.01934477  0.018619693            6 
 3382000   0.71058481   -7.6380638    782.98252  0.019292887  0.018614091            8 
 3383000   0.70497047    -7.640855    781.93751  0.019261442  0.018608487            5 
 3384000   0.71588907   -7.6346997    784.77851  0.019325712  0.018602917            5 
 3385000   0.71729745   -7.6355453    783.29099  0.019283382  0.018597344           10 
 3386000   0.72788458   -7.6498829    784.12131  0.019298122  0.018591772            5 
 3387000   0.70168973   -7.6666933    783.41863  0.019275136  0.018586186           10 
 3388000   0.72357687   -7.6519988    784.89694  0.019305808  0.018580606            5 
 3389000   0.71920479    -7.653037    784.57271  0.019292139  0.018575027            5 
 3390000   0.71865358   -7.6543319    785.82964  0.019317346  0.018569462            4 
 3391000   0.71433917   -7.6617183    781.97255  0.019216862  0.018563873            6 
 3392000   0.69973755   -7.6530743    782.35135  0.019220503  0.018558293            7 
 3393000   0.70740254    -7.632129    783.78772  0.019250116  0.018552725            9 
 3394000   0.72641764    -7.673452    783.27841  0.019231939  0.018547143            3 
 3395000   0.71678549   -7.6707937    782.76001   0.01921355  0.018541552            8 
 3396000   0.70540377    -7.669393     782.1771  0.019193588  0.018535958            7 
 3397000   0.68899871   -7.6575284    783.78081  0.019227279  0.018530347            8 
 3398000   0.71025595   -7.6508615    785.25174  0.019257694  0.018524763            3 
 3399000   0.70592664   -7.6245427    784.41241  0.019231451  0.018519193            3 
 3400000   0.70998499   -7.6701311    784.27275  0.019222371  0.018513604            6 
 3401000   0.71489082   -7.6656854    784.30823  0.019217589   0.01850802            3 
 3402000   0.70888715   -7.6535375     784.9241  0.019227026  0.018502424            5 
 3403000   0.71727219   -7.6678834     783.3469  0.019182753  0.018496837            6 
 3404000   0.70982826   -7.6753174    782.06237  0.019145671   0.01849123            5 
 3405000   0.69057436   -7.6683645    783.49647  0.019175146  0.018485632            6 
 3406000   0.68835776    -7.658629    783.65265  0.019173337  0.018480023            3 
 3407000   0.69373162    -7.659967    783.20489  0.019156758  0.018474435            5 
 3408000   0.71451835   -7.6640604    784.32412  0.019178504  0.018468837            2 
 3409000     0.716627   -7.6721577    784.48788  0.019176882  0.018463235            4 
 3410000   0.71036731   -7.6795406    782.69236  0.019127379  0.018457666            2 
 3411000   0.70933707   -7.6583398    783.67993  0.019145899  0.018452099            5 
 3412000   0.69768983   -7.6622655    782.67098  0.019115645  0.018446526            6 
 3413000   0.71020994   -7.6909126    783.91029  0.019140304  0.018440939            6 
 3414000   0.70826982   -7.6630192    784.28431  0.019143827  0.018435378            5 
 3415000   0.70684818    -7.645295    784.65344  0.019147229  0.018429825            9 
 3416000   0.69172391   -7.6478621    783.89612  0.019123149  0.018424277            5 
 3417000   0.69401352   -7.6562256    785.24619  0.019150478  0.018418755            9 
 3418000   0.70078174   -7.6648989    784.75497  0.019132899  0.018413222           12 
 3419000   0.71242023   -7.6468948    783.40916    0.0190945  0.018407692            3 
 3420000   0.71407306   -7.6657239    784.29314  0.019110457  0.018402144            5 
 3421000   0.70722512   -7.6804417    782.24884  0.019055073  0.018396576            4 
 3422000   0.71047576   -7.6797365    783.25142  0.019073919  0.018391001            4 
 3423000   0.70965471   -7.7044425    781.69453  0.019030444  0.018385432            7 
 3424000   0.70504949   -7.6469343    784.12059  0.019083932  0.018379858            8 
 3425000   0.68670703   -7.6658341    783.21164  0.019056244  0.018374305            3 
 3426000    0.6969913    -7.680051    782.88361  0.019042703  0.018368736            8 
 3427000   0.69041487   -7.6894746    783.10338  0.019042491   0.01836317            4 
 3428000   0.71418559   -7.6632625    785.57843  0.019097103  0.018357607            9 
 3429000   0.68889631   -7.6830351    784.99821  0.019077433  0.018352043            7 
 3430000   0.70034563   -7.7042202      783.538  0.019036395  0.018346471            8 
 3431000   0.68597232   -7.6972864    783.51442  0.019030274  0.018340908            7 
 3432000   0.70576859   -7.6584495    783.45388  0.019023259  0.018335352            7 
 3433000   0.69517824   -7.6866678    784.52095   0.01904362  0.018329813            4 
 3434000   0.69418018   -7.6830171    783.44639  0.019011997  0.018324262            5 
 3435000   0.70136718   -7.6758132     784.2048  0.019024862  0.018318713            7 
 3436000   0.70331153   -7.6327825    784.95582  0.019037539  0.018313187            6 
 3437000   0.72138469   -7.6621521    783.22053  0.018989927  0.018307681            1 
 3438000   0.70972518   -7.6594108    785.58347  0.019041678  0.018302157            8 
 3439000   0.71710854   -7.6852322    784.51691  0.019010296  0.018296648            8 
 3440000   0.70760923   -7.6604288     784.1273  0.018995332  0.018291143            6 
 3441000    0.6977722   -7.6893974    784.12295  0.018989706  0.018285628            7 
 3442000   0.70232571   -7.6612938    785.56738   0.01901916  0.018280109            5 
 3443000   0.69343954   -7.6626285    783.47263  0.018962935  0.018274598            6 
 3444000   0.69701158   -7.6627743     786.5154  0.019031054  0.018269108            7 
 3445000   0.69200257   -7.6371333    786.45335  0.019024029  0.018263623            6 
 3446000   0.70403141   -7.6758327    785.77861  0.019002191  0.018258141            4 
 3447000   0.70152686   -7.6747908    785.02123  0.018978368  0.018252633            7 
 3448000   0.70306635   -7.6650409    783.19419  0.018928707  0.018247131            4 
 3449000   0.69118321   -7.6770255    784.40388  0.018952447  0.018241606            5 
 3450000   0.70247765   -7.6524896    785.71001  0.018978503  0.018236121            4 
 3451000   0.71564562   -7.6751808    784.69507  0.018948495  0.018230635            5 
 3452000   0.70356756   -7.6551218    784.73303  0.018943922  0.018225127            5 
 3453000   0.68089918   -7.6606473    784.71781  0.018938069  0.018219616            9 
 3454000   0.71093945   -7.6617844    784.47043  0.018926617  0.018214102            3 
 3455000   0.69261905   -7.6962967    784.02698  0.018910443  0.018208595            3 
 3456000    0.6872113   -7.6516991    786.43985  0.018963152  0.018203098            5 
 3457000   0.70571986   -7.6722381    785.05188  0.018924209  0.018197612            5 
 3458000   0.69260506    -7.671421    784.84805  0.018913824   0.01819213            6 
 3459000   0.70337806   -7.6676044    785.00483  0.018912133  0.018186633            6 
 3460000   0.68606546   -7.7100278    784.86612  0.018903327   0.01818112            4 
 3461000    0.6922333   -7.7122881    785.00908  0.018901307  0.018175607            4 
 3462000   0.69588979   -7.7266492    784.48376  0.018883202  0.018170084            4 
 3463000   0.69915894   -7.6895888    786.20825  0.018919248  0.018164567            5 
 3464000   0.70812752   -7.6900101    786.30912  0.018916213  0.018159048            6 
 3465000   0.69374896   -7.6942762    786.20563  0.018908264  0.018153532            5 
 3466000   0.71396421   -7.6959075    785.20812  0.018878826  0.018148016            7 
 3467000   0.71268236   -7.6558474    785.13485  0.018871619  0.018142503            5 
 3468000   0.69252103   -7.6913937    785.23806  0.018868658  0.018136992           11 
 3469000   0.68471722   -7.7126084    784.46921  0.018844749  0.018131477            5 
 3470000   0.70513814   -7.6988421    785.65857  0.018867881  0.018125977            8 
 3471000   0.72054014   -7.6836413    783.34483  0.018806896  0.018120476            4 
 3472000   0.70256663   -7.6709827    786.16484  0.018869164   0.01811498            6 
 3473000    0.7017453   -7.6713563     782.7349  0.018781431  0.018109479            4 
 3474000   0.68654856    -7.710059    783.32795   0.01879025   0.01810397            6 
 3475000   0.69413986    -7.707203    785.18817  0.018829452  0.018098456            7 
 3476000    0.6913171   -7.6825452    787.09484  0.018869746  0.018092949            4 
 3477000   0.70907919    -7.688836    785.09014  0.018816272  0.018087443            3 
 3478000   0.68723352   -7.7088414    785.15373  0.018812386   0.01808194            7 
 3479000   0.69423727   -7.6962626      785.509  0.018815488  0.018076429            5 
 3480000   0.69901233   -7.7021001    785.51934  0.018810329  0.018070908            5 
 3481000   0.68817555   -7.6922974    785.01658  0.018792889  0.018065415            7 
 3482000   0.70390072   -7.6845157    782.22221  0.018720616  0.018059927            5 
 3483000   0.70060871   -7.6633036    784.69916  0.018774504  0.018054441            4 
 3484000    0.7092691   -7.6641903    784.69398  0.018768991   0.01804896            7 
 3485000   0.69652506   -7.6655656    784.85476   0.01876745  0.018043498            4 
 3486000   0.68965123   -7.6835198    785.39577  0.018774999  0.018038017            5 
 3487000   0.70985994   -7.6738158    786.84503   0.01880425  0.018032541           11 
 3488000   0.70174381   -7.6584595    787.17378  0.018806713  0.018027074            4 
 3489000   0.68301515   -7.6961549    784.15105  0.018729126  0.018021604            3 
 3490000   0.70198046   -7.6951548    783.88906  0.018717504  0.018016108            5 
 3491000   0.68097086   -7.6669274    784.18171  0.018719128  0.018010615            5 
 3492000    0.6998264   -7.6712042    786.43613  0.018767567  0.018005163            4 
 3493000   0.69626129   -7.6767727    786.55448  0.018765018  0.017999706            3 
 3494000   0.68812543   -7.6790864    786.88956  0.018767639  0.017994263            5 
 3495000   0.69368701   -7.6866733    785.64829  0.018732673  0.017988838            5 
 3496000   0.68008845   -7.7083839    786.32357  0.018743411  0.017983392            8 
 3497000    0.6892752   -7.7020204    786.45814  0.018741258  0.017977948            5 
 3498000   0.69758618   -7.6993613    786.24521  0.018730827   0.01797248            7 
 3499000   0.68367523   -7.6844102    785.69184  0.018712295  0.017967021            7 
 3500000   0.69022377   -7.6816226    787.22034  0.018743341  0.017961574            7 
 3501000   0.69899631   -7.6958126    785.60981  0.018699653  0.017956145            5 
 3502000   0.69007929   -7.6902095     786.1337  0.018706779  0.017950698            7 
 3503000   0.69603386   -7.6853603    785.73477  0.018691949   0.01794524            7 
 3504000   0.69584017   -7.7070429    786.69046  0.018709343  0.017939782           10 
 3505000   0.68752215   -7.6899585    785.81078   0.01868309  0.017934332            6 
 3506000   0.69946098   -7.6960576    785.51354  0.018670696  0.017928895            4 
 3507000   0.69188275   -7.7091542    786.35668  0.018685407  0.017923456            8 
 3508000   0.69253435   -7.6843538    785.66142  0.018663565  0.017918016            7 
 3509000   0.68282964   -7.6975436    784.77371  0.018637164  0.017912582            7 
 3510000   0.69062561   -7.6666736     785.3331  0.018645135  0.017907159            9 
 3511000   0.68299721   -7.6802462    786.35257  0.018664022  0.017901741            7 
 3512000   0.71085476   -7.7126575    785.36633  0.018635306  0.017896338            6 
 3513000   0.69347911   -7.6877297    786.52562  0.018657501  0.017890927            4 
 3514000   0.69310272   -7.6747095     787.5541  0.018676582  0.017885524           10 
 3515000   0.68446407   -7.7025864    785.91281  0.018632357  0.017880118            5 
 3516000   0.68552289   -7.6962552     785.9665   0.01862833  0.017874715            3 
 3517000   0.69027407    -7.699727    785.18832  0.018604595  0.017869293            7 
 3518000   0.69388978   -7.6877682    786.29646  0.018625556  0.017863879            9 
 3519000   0.68373716   -7.6732068    786.00391  0.018613335  0.017858471            5 
 3520000   0.69350474   -7.7097781    785.64967  0.018599661  0.017853059           12 
 3521000   0.68734532   -7.6805224      786.464  0.018613651  0.017847643           12 
 3522000    0.6852335   -7.6928238    785.66151  0.018589379   0.01784224            6 
 3523000   0.68181498   -7.7198053    787.01228  0.018616054  0.017836826            8 
 3524000    0.6999669   -7.7257104    784.63786  0.018554622  0.017831396           12 
 3525000   0.67831021   -7.6960833    786.17356  0.018585663  0.017825958            7 
 3526000   0.68631029   -7.7204923    784.76998   0.01854722  0.017820538            6 
 3527000   0.70417232   -7.7012113    785.62372  0.018562133  0.017815112            8 
 3528000   0.67950225    -7.693322     786.5342  0.018578378  0.017809716            3 
 3529000   0.68940455   -7.6879731    787.96708  0.018606949  0.017804338            5 
 3530000    0.6851894   -7.7012406    788.04902  0.018603612  0.017798971            4 
 3531000   0.69718865   -7.6748719    788.13251  0.018600314  0.017793582            5 
 3532000   0.69597221   -7.7014082    784.12739  0.018500552  0.017788206            7 
 3533000   0.70303371   -7.7055551    786.85913  0.018559749  0.017782813           12 
 3534000   0.68956376   -7.7135119    786.85765  0.018554463  0.017777401           10 
 3535000   0.67877976   -7.7110256    786.41556  0.018538792  0.017772006            9 
 3536000   0.68579155   -7.7031563    786.22937  0.018529161  0.017766603            7 
 3537000   0.68544018   -7.6983699    784.93872  0.018493514  0.017761207            8 
 3538000   0.67660039   -7.7207562    785.49546    0.0185014  0.017755794            6 
 3539000   0.70534759   -7.6887281    786.63537  0.018523014  0.017750393            9 
 3540000   0.68684698   -7.6953975    786.98284  0.018525961  0.017745005           11 
 3541000   0.68903515   -7.6998337    786.70043  0.018514083  0.017739624            4 
 3542000   0.69040232   -7.7133298    786.80884  0.018511407  0.017734237            8 
 3543000   0.68770524   -7.7322329    786.43211  0.018497321  0.017728835            6 
 3544000    0.6856618   -7.7354524    785.95807  0.018480955  0.017723439            6 
 3545000   0.68711293   -7.7272499    786.71416  0.018493516  0.017718042            5 
 3546000   0.67631066   -7.7103507    787.55644  0.018508095  0.017712653            5 
 3547000   0.68508095   -7.7277435    788.31263  0.018520643  0.017707271            7 
 3548000   0.68878486   -7.7336618    789.41601  0.018541338  0.017701911            5 
 3549000    0.6741332   -7.7286809    787.84811  0.018499298  0.017696527            4 
 3550000   0.67814826   -7.7257074    786.97243  0.018473531  0.017691154           14 
 3551000   0.67473278   -7.7209637    787.81452  0.018488091  0.017685784            5 
 3552000   0.68170127   -7.7058879    787.59371  0.018477705   0.01768042            9 
 3553000   0.67397279   -7.7029232    788.10572  0.018484514  0.017675054            8 
 3554000   0.68200015    -7.680357    788.20294  0.018481592  0.017669699            4 
 3555000   0.67733013   -7.7035975    788.07431  0.018473378  0.017664361            4 
 3556000   0.69417736   -7.7288309    786.11282  0.018422217  0.017658988            5 
 3557000   0.67735487    -7.720426    788.02146  0.018461753  0.017653613            7 
 3558000    0.6769313   -7.7199811    786.51615  0.018421308  0.017648257           10 
 3559000    0.6798058    -7.701853    788.99457  0.018474163  0.017642892            7 
 3560000    0.7009678   -7.7003795     787.2079  0.018427151  0.017637524            6 
 3561000   0.67418877   -7.7141079    788.27098  0.018446854  0.017632167           16 
 3562000   0.67451402   -7.7095845    788.93083  0.018457113  0.017626793            9 
 3563000    0.6989879   -7.7394101     787.3042  0.018413888  0.017621405           10 
 3564000   0.67031003   -7.7132287    786.95169  0.018400479   0.01761604            5 
 3565000   0.67785469   -7.7362691    786.61231  0.018387384  0.017610679            7 
 3566000   0.67849574   -7.7234604    786.71123   0.01838454  0.017605309            7 
 3567000   0.68176647   -7.7144735    784.60399  0.018330156   0.01759994            3 
 3568000   0.67787228    -7.738932    786.35942  0.018366018  0.017594575            9 
 3569000   0.68294307     -7.72597    787.01706  0.018376227  0.017589231            6 
 3570000   0.66673168   -7.7314751    787.52819  0.018383011  0.017583876            4 
 3571000   0.69926402   -7.7194544    786.96906  0.018364815   0.01757851           13 
 3572000   0.68303764   -7.7249475    786.01568  0.018337432  0.017573145            6 
 3573000    0.6846891   -7.7049119    787.29536  0.018362146   0.01756779            5 
 3574000     0.680156   -7.7131441    787.65848  0.018365475  0.017562443            7 
 3575000   0.67773474   -7.7223546    787.24546   0.01835071  0.017557097            3 
 3576000   0.68144975   -7.6917031    789.19268  0.018390956  0.017551767            8 
 3577000   0.69212793   -7.7073319    788.21485  0.018363034  0.017546441            5 
 3578000   0.67809056   -7.7173156    787.68505  0.018345562  0.017541115           12 
 3579000   0.66949136   -7.7040903    788.61592   0.01836211  0.017535784            5 
 3580000   0.67159515   -7.7010675    786.80042  0.018314721   0.01753047            3 
 3581000   0.68568915   -7.7153156    784.86145  0.018264485  0.017525116            7 
 3582000   0.67297686   -7.7175278    785.69589  0.018278799  0.017519782            7 
 3583000   0.66921002   -7.6937145    788.71787  0.018343983   0.01751445            7 
 3584000   0.68694228   -7.7379094    787.08058  0.018300795  0.017509127            8 
 3585000   0.66934921   -7.7201439    787.24501  0.018299512  0.017503786            6 
 3586000   0.69236089   -7.6955365    788.60572   0.01832603  0.017498462            4 
 3587000   0.69083051   -7.7153409    786.36769  0.018268927  0.017493142            3 
 3588000   0.67755357   -7.7168383    786.45672  0.018265903  0.017487804            6 
 3589000   0.69093744   -7.6987713     786.2039  0.018254943   0.01748247           14 
 3590000   0.66729194   -7.7410895    785.06485  0.018223418  0.017477128            3 
 3591000   0.67221982   -7.7554154    787.34523  0.018271262  0.017471783            4 
 3592000    0.6874543   -7.7503488    786.66969  0.018250503  0.017466427            4 
 3593000   0.67590608   -7.7361586      787.242  0.018258697  0.017461074            6 
 3594000   0.66951152   -7.7456083    788.02376  0.018271744  0.017455727            5 
 3595000    0.6801878    -7.740697    788.96495  0.018288478  0.017450384            7 
 3596000   0.66065026   -7.7485952    786.48758  0.018225982  0.017445049            7 
 3597000   0.67591887   -7.7237419    788.80001  0.018274488  0.017439716            5 
 3598000   0.68368625   -7.7405505    787.08759  0.018229748  0.017434389            8 
 3599000   0.66452203   -7.7288058    786.92114  0.018220828  0.017429069           10 
 3600000   0.67889355   -7.7018329    787.42539   0.01822744   0.01742376            6 
 3601000   0.69068801   -7.7135645    787.05586  0.018213826  0.017418448            5 
 3602000   0.67482224    -7.745912    786.33673  0.018192132  0.017413124            5 
 3603000   0.67480934   -7.7332323    785.87852  0.018176485  0.017407798            8 
 3604000   0.68318344   -7.7170782    787.74044  0.018214494  0.017402469            5 
 3605000   0.66996094   -7.7447753    787.15329  0.018195869  0.017397136            3 
 3606000   0.67392956   -7.7360594    785.89831  0.018161821  0.017391795            6 
 3607000   0.67356722   -7.7326004    787.71205  0.018198689  0.017386448            6 
 3608000   0.67784177    -7.757413    786.61459  0.018168297  0.017381106            2 
 3609000   0.67645764   -7.7542599    786.60459  0.018163032  0.017375743           12 
 3610000   0.67768334   -7.7494986    787.82719  0.018186223    0.0173704            7 
 3611000   0.67781279   -7.7460936    786.97662  0.018161558  0.017365064            8 
 3612000   0.68229774   -7.7182506    787.08273  0.018158978  0.017359728            6 
 3613000   0.66823322   -7.7182647    786.78536  0.018147093  0.017354407            5 
 3614000   0.66930401   -7.7393324    786.21452  0.018128909  0.017349081            6 
 3615000    0.6740834   -7.7266841    786.89151    0.0181395  0.017343772            3 
 3616000   0.67682303   -7.7222189    786.93854  0.018135567  0.017338462            4 
 3617000   0.66817503   -7.7082732    787.54647   0.01814456  0.017333144            3 
 3618000   0.68091743   -7.7165262    787.91174  0.018147958  0.017327835            8 
 3619000   0.67837039   -7.7263167    788.98182  0.018167584  0.017322526            5 
 3620000   0.68519406   -7.7485655     786.6108  0.018107983   0.01731722            3 
 3621000   0.66862872   -7.7573444    785.35056  0.018073979  0.017311889            8 
 3622000   0.68201862   -7.7280352    785.51379  0.018072745  0.017306566            6 
 3623000   0.67000915   -7.7596822    786.26949  0.018085139  0.017301239            4 
 3624000   0.67573575   -7.7504402    784.25512  0.018033828  0.017295894            7 
 3625000   0.67503954   -7.7413292    788.13426  0.018118029  0.017290565            5 
 3626000   0.66347107   -7.7672316    789.84748  0.018152406  0.017285266            7 
 3627000   0.67009861   -7.7455951    789.13461  0.018131022  0.017279978            9 
 3628000   0.64421038   -7.7367526    787.08361  0.018078914  0.017274676            9 
 3629000   0.67608447   -7.7599328    787.06212  0.018073439   0.01726937            7 
 3630000   0.65714387   -7.7509553    788.33568  0.018097697  0.017264056            5 
 3631000   0.65789357   -7.7627792    785.95469  0.018038068  0.017258748            3 
 3632000   0.67414973   -7.7435192    788.63588  0.018094619  0.017253442            6 
 3633000   0.65749399   -7.7561382    788.60326   0.01808889  0.017248157            7 
 3634000   0.67943347   -7.7474061    788.81034  0.018088661  0.017242886           11 
 3635000   0.66782823   -7.7396773    788.23932  0.018070594  0.017237613            4 
 3636000   0.68148481   -7.7014747     789.5392  0.018095416  0.017232351            5 
 3637000   0.66860962   -7.7407842    788.36456  0.018063527  0.017227073           10 
 3638000   0.67702775    -7.757523     788.6029  0.018064021  0.017221795            4 
 3639000   0.67545802   -7.7353924    788.58977  0.018058756  0.017216531            7 
 3640000   0.66945781   -7.7473743    786.32601  0.018001969   0.01721126            6 
 3641000   0.67854824   -7.7648429    787.69666  0.018028395   0.01720599            7 
 3642000   0.67297388   -7.7307427    788.49816  0.018041785  0.017200719            5 
 3643000   0.66446295   -7.7477904    786.70197  0.017995745  0.017195447            4 
 3644000   0.67626983   -7.7470629    788.02938  0.018021162  0.017190172            7 
 3645000    0.6550184   -7.7498072    787.19673  0.017997182  0.017184892            5 
 3646000    0.6572956   -7.7668323    787.82236  0.018006545  0.017179606            5 
 3647000   0.66866539   -7.7368206    786.57003  0.017972992  0.017174333            8 
 3648000   0.66025483   -7.7729669    787.73671  0.017994717  0.017169072            8 
 3649000   0.68305076   -7.7457354    787.71822  0.017989363  0.017163799            4 
 3650000   0.66280636     -7.73552    787.61561  0.017982092  0.017158546            4 
 3651000    0.6687217    -7.757414    785.99714  0.017940225  0.017153285            5 
 3652000   0.66987719   -7.7454828    787.45976  0.017968687  0.017148017           12 
 3653000   0.66328415   -7.7424146    786.98752  0.017952996  0.017142753            8 
 3654000   0.68383119   -7.7579501    786.58056  0.017938801  0.017137498           11 
 3655000   0.66074221   -7.7545496    788.12064  0.017969007  0.017132219           10 
 3656000   0.65678546   -7.7359829    787.21018  0.017943339  0.017126958            7 
 3657000   0.67127986   -7.7351658    786.89295  0.017931204  0.017121692           12 
 3658000   0.67454233   -7.7683633    787.45687  0.017939149  0.017116441            8 
 3659000   0.67397019   -7.7503277    787.84406  0.017943064  0.017111181            9 
 3660000   0.68327274   -7.7402086    788.64582  0.017956417  0.017105919            9 
 3661000   0.66282587    -7.744623    787.62575  0.017928293  0.017100666            9 
 3662000    0.6530189   -7.7449302    787.60259   0.01792287  0.017095399            7 
 3663000   0.67799595   -7.7489124    787.02795  0.017904904  0.017090141            6 
 3664000   0.65647661   -7.7544485    788.47754  0.017932986  0.017084888            7 
 3665000   0.67347003   -7.7536445    786.47749  0.017882617  0.017079636            6 
 3666000   0.65281216   -7.7549268    787.41827  0.017899124  0.017074374            6 
 3667000    0.6799765     -7.73368    788.35431  0.017915515  0.017069122            5 
 3668000     0.669717   -7.7589289    787.75389   0.01789699  0.017063854            5 
 3669000   0.65784485   -7.7580308    788.93732  0.017918991  0.017058568            7 
 3670000   0.66645437   -7.7634513    787.87999    0.0178901  0.017053304            4 
 3671000   0.66110097   -7.7595093    788.39801  0.017896986  0.017048057            4 
 3672000     0.673239   -7.7488428    787.41068  0.017869705  0.017042816            7 
 3673000   0.65626821   -7.7602975    786.80082  0.017851003  0.017037572            7 
 3674000    0.6690523   -7.7496321    788.43304  0.017883166  0.017032325            5 
 3675000   0.66424909   -7.7682527    789.47673  0.017901967  0.017027088            5 
 3676000   0.67444242   -7.7435575     787.9077  0.017861527   0.01702185            5 
 3677000   0.67650222   -7.7271978    789.55561  0.017894017  0.017016617            5 
 3678000   0.67343915   -7.7555032    787.06974  0.017832829   0.01701139            7 
 3679000   0.66885559   -7.7406595    786.36068  0.017811921  0.017006161            8 
 3680000   0.66689623   -7.7310785     788.6753  0.017859495  0.017000932            6 
 3681000   0.67561897   -7.7548186    788.43516  0.017849207  0.016995683            3 
 3682000   0.65902161   -7.7836864    786.44094  0.017799225  0.016990421            4 
 3683000   0.67024719   -7.7731639    786.06845  0.017785964  0.016985164            6 
 3684000   0.66616725   -7.7834207    787.29421  0.017808863  0.016979892            6 
 3685000   0.65407477   -7.7800987    786.41101  0.017784057  0.016974622            6 
 3686000   0.67111918   -7.7859111    786.23898  0.017775343  0.016969362            6 
 3687000   0.66793814    -7.772812    787.14004  0.017790888  0.016964111            4 
 3688000   0.66665606    -7.779162    787.64299  0.017797428  0.016958855            9 
 3689000   0.67059797   -7.7730258    788.67733  0.017815969  0.016953615            4 
 3690000   0.65524673   -7.7790642    785.97635  0.017750143  0.016948376            4 
 3691000   0.63867719   -7.7765411    787.85458   0.01778774  0.016943123            6 
 3692000   0.66076365   -7.7639726    787.68073  0.017778998  0.016937877            6 
 3693000   0.66105387   -7.7725043    788.20332  0.017785976  0.016932645            5 
 3694000    0.6619754   -7.7702872    787.68865  0.017769551  0.016927417            5 
 3695000   0.66572718   -7.7600847    787.13822  0.017752328  0.016922186            7 
 3696000   0.67165821   -7.7715249    788.74347  0.017783718  0.016916957            5 
 3697000   0.66112673   -7.7827933    788.61964  0.017776117  0.016911743            6 
 3698000     0.663118   -7.7586865    789.11384  0.017782446   0.01690653            2 
 3699000   0.65423769   -7.7516459    790.13681  0.017800685  0.016901333            3 
 3700000   0.67610916   -7.7369516    787.91723  0.017745884  0.016896132           10 
 3701000   0.66663951   -7.7473483    787.82111  0.017738924  0.016890937            5 
 3702000    0.6743288   -7.7458295    787.10251  0.017717957  0.016885738            3 
 3703000   0.65717029   -7.7520827    787.53837  0.017722981  0.016880537            6 
 3704000   0.65020019   -7.7651007    788.12474  0.017731388  0.016875333            4 
 3705000    0.6507168   -7.7433044    788.75806  0.017740847  0.016870143            6 
 3706000   0.66129667    -7.753481     788.8024  0.017737057  0.016864937            6 
 3707000   0.65217427   -7.7527401     788.6211  0.017728197  0.016859743            7 
 3708000   0.66386634   -7.7672738     788.7065  0.017725335  0.016854541            3 
 3709000   0.65259025   -7.7855501    788.12505  0.017707492  0.016849338            5 
 3710000   0.65428212    -7.768297    788.50609  0.017711278  0.016844134            6 
 3711000   0.65884986   -7.7789386    788.54369  0.017707349  0.016838947            6 
 3712000   0.66154188   -7.7609755    788.08153  0.017692204  0.016833754            9 
 3713000    0.6534624   -7.7475231    790.00281  0.017730559  0.016828558           10 
 3714000   0.65599459   -7.7700838    787.94265   0.01767956  0.016823356            6 
 3715000   0.65136518   -7.7915372    787.32431  0.017660931  0.016818148            8 
 3716000   0.66712313   -7.7909425    786.93923  0.017647543  0.016812931            6 
 3717000   0.65071597   -7.7609055    787.63055  0.017658294  0.016807701            4 
 3718000   0.66552366    -7.776617    786.90224  0.017637221  0.016802488            6 
 3719000   0.66729899   -7.7664787    788.50901  0.017668482  0.016797292            4 
 3720000   0.64075066   -7.7924426    787.52832  0.017641763  0.016792082            6 
 3721000   0.65548245   -7.7787115    787.55254  0.017637565  0.016786873            5 
 3722000   0.65051997    -7.750796    786.85228  0.017617147  0.016781668            9 
 3723000   0.65824267   -7.7767179    786.55101  0.017605672  0.016776471            4 
 3724000    0.6505765   -7.7822539    787.40094  0.017619964  0.016771273           10 
 3725000    0.6580924   -7.7900528    785.99647  0.017583814  0.016766073           16 
 3726000   0.63721961   -7.7838167     786.9236   0.01759983  0.016760865            4 
 3727000   0.64849516   -7.7653554    786.91289  0.017594868  0.016755669           13 
 3728000    0.6632044   -7.7772643    787.51484  0.017603604  0.016750479           13 
 3729000   0.67207498   -7.7901019    788.86321  0.017629016  0.016745293            8 
 3730000   0.65819906   -7.7606012    788.37666   0.01761342  0.016740097            6 
 3731000   0.65439426   -7.7895879    787.42959  0.017587546  0.016734907            4 
 3732000   0.65809774   -7.7868215    787.77784  0.017590609  0.016729707            6 
 3733000    0.6422114    -7.808611     785.4072  0.017532976  0.016724494            4 
 3734000    0.6559405   -7.7656409    787.87878   0.01758344  0.016719285            6 
 3735000   0.63879895   -7.7964523     786.5928   0.01755004  0.016714079           12 
 3736000   0.65834203   -7.7741914    787.56261  0.017566975  0.016708873           16 
 3737000   0.66147536   -7.8040816    785.55712  0.017517552  0.016703674            8 
 3738000    0.6427178   -7.7774943    787.17233  0.017548875  0.016698484           10 
 3739000   0.65698904   -7.7698782    788.52451  0.017574318  0.016693319           13 
 3740000   0.65306911   -7.7861256    787.40259  0.017544621  0.016688134            5 
 3741000   0.63926909   -7.7959086    788.11164  0.017555726  0.016682959            6 
 3742000   0.64351189   -7.7774111     787.1496   0.01752961  0.016677767            5 
 3743000   0.64723892    -7.770606    786.18881  0.017503536  0.016672589            5 
 3744000   0.64421092   -7.7815543    787.62841  0.017530903  0.016667419           12 
 3745000   0.64659208   -7.7704223    787.39851  0.017521106  0.016662253            9 
 3746000    0.6524367   -7.7852449     788.0425  0.017530755  0.016657106           10 
 3747000   0.66360101   -7.7726417    788.80537  0.017543043  0.016651961           11 
 3748000   0.64794614   -7.7806699    788.47462  0.017531008  0.016646814            6 
 3749000   0.63962056   -7.7647372    788.47706  0.017526386  0.016641666            5 
 3750000   0.64564259   -7.7737351    787.65218  0.017503382  0.016636517            8 
 3751000   0.64451718   -7.7591171      788.512  0.017517818  0.016631377            9 
 3752000   0.65488337   -7.7968193    788.75427  0.017518529  0.016626242            7 
 3753000    0.6491798   -7.7822852    788.32413   0.01750431  0.016621097            5 
 3754000   0.67019823    -7.764154    788.09135   0.01749448  0.016615967            3 
 3755000   0.65832905   -7.7658703    788.00805  0.017487973  0.016610835            8 
 3756000   0.65486312   -7.7899613    787.30822   0.01746779  0.016605698            6 
 3757000   0.65393324   -7.7703552    787.66573   0.01747107  0.016600559            5 
 3758000   0.64606831   -7.7921362    787.46981  0.017462077  0.016595414            5 
 3759000   0.65522718   -7.7911035    789.82499  0.017509643  0.016590269            5 
 3760000   0.64601625   -7.7804101    789.27859  0.017492877  0.016585126            4 
 3761000   0.66678055   -7.7926708    787.84572  0.017456477  0.016579981            4 
 3762000   0.64828681    -7.795441    786.58098  0.017423821  0.016574833            4 
 3763000   0.64363436   -7.7942983    787.55812   0.01744083   0.01656969            8 
 3764000   0.64873212   -7.8064154     787.4992  0.017434892  0.016564537            6 
 3765000   0.65518787   -7.7923561    787.39136  0.017427874  0.016559377            6 
 3766000   0.64400557   -7.7888128    786.94022  0.017413264  0.016554213            9 
 3767000   0.65944268   -7.7896537    786.38525  0.017396364  0.016549062            6 
 3768000   0.66811078   -7.7851168    787.13633  0.017408358  0.016543913           16 
 3769000   0.65881446   -7.8033259    788.43354  0.017432421  0.016538778            6 
 3770000   0.64607864    -7.793709    786.84267  0.017392632   0.01653364            3 
 3771000     0.660606    -7.781939    786.40079  0.017378255  0.016528504            6 
 3772000   0.65802485   -7.7923169    787.06961  0.017388424  0.016523376            9 
 3773000   0.64372771   -7.8016948    786.76877  0.017377171  0.016518231            4 
 3774000   0.64768693   -7.7999292    787.82525  0.017395894  0.016513093            6 
 3775000   0.63898583   -7.8167381    786.06247  0.017352372  0.016507944            5 
 3776000   0.64543692   -7.8092628    786.70386  0.017361932  0.016502796            6 
 3777000    0.6641465   -7.8018173    787.22012  0.017368726  0.016497649            8 
 3778000   0.64294493   -7.8109054    788.07246  0.017382929  0.016492507            9 
 3779000   0.62327704   -7.7577879    787.22242  0.017359584  0.016487374            3 
 3780000   0.65080962    -7.798799    788.98745  0.017393903  0.016482243            7 
 3781000   0.65608432   -7.8153247    788.74052  0.017383861  0.016477113            4 
 3782000   0.65727963   -7.8085911    788.20858  0.017367543  0.016471966            8 
 3783000   0.64693887   -7.8232842    787.15092  0.017339654  0.016466826           10 
 3784000   0.65119832   -7.7979843    789.01134  0.017376043  0.016461703            8 
 3785000   0.64537592   -7.7951765    786.30628  0.017311895  0.016456575            4 
 3786000   0.64523979   -7.8147002    786.18177  0.017304582  0.016451443           10 
 3787000   0.64694902   -7.8126044    787.98673  0.017339731  0.016446309            8 
 3788000   0.63768931    -7.821802    788.11884   0.01733806  0.016441181            4 
 3789000   0.65385355   -7.8073985    787.57936  0.017321619  0.016436061            5 
 3790000   0.64734916   -7.8219591    785.94515  0.017281116  0.016430936           10 
 3791000   0.64559087   -7.7826168     788.5321  0.017333424  0.016425819            6 
 3792000   0.65480136   -7.7992828    787.78872  0.017312516  0.016420717            7 
 3793000   0.65478064    -7.803155    787.65937   0.01730511  0.016415607            7 
 3794000   0.63595668   -7.8142419    786.49447  0.017274962  0.016410499           14 
 3795000   0.65286726   -7.8124319    786.24646  0.017264964  0.016405381           15 
 3796000   0.64943231   -7.7969703    788.37865  0.017307224  0.016400272           17 
 3797000   0.64211837   -7.8241463    787.96056   0.01729349   0.01639517           12 
 3798000   0.63766186   -7.8102636    787.29388  0.017274308  0.016390068            6 
 3799000   0.64220988   -7.8234253    787.75965  0.017279978  0.016384962            8 
 3800000   0.64859359   -7.7962203    787.99323  0.017280553  0.016379866            7 
 3801000   0.62911651   -7.7811612    788.71599  0.017291853  0.016374784            6 
 3802000   0.65545379   -7.7774781    789.53707  0.017305301  0.016369697            4 
 3803000   0.64083814    -7.773245    789.65755  0.017303391  0.016364624            9 
 3804000   0.65176807   -7.7811737    788.91267  0.017282524  0.016359554            5 
 3805000   0.65703801    -7.790305     790.1778   0.01730569  0.016354489            7 
 3806000   0.63333847   -7.8256073    789.61361   0.01728879  0.016349407            8 
 3807000   0.63571803   -7.8002134    788.31992   0.01725593  0.016344347           11 
 3808000   0.63763541    -7.806192     787.2594  0.017228191  0.016339275           14 
 3809000   0.64848707   -7.8183527    788.13341  0.017242789  0.016334218           17 
 3810000   0.64142088   -7.8184647    788.65156  0.017249597  0.016329159           13 
 3811000   0.65136693   -7.8022035    788.26412  0.017236598  0.016324093           14 
 3812000   0.65556723   -7.8189436    787.53722  0.017216186  0.016319033            9 
 3813000   0.65559837   -7.8319341    789.21331  0.017248302  0.016313976            9 
 3814000   0.64341649   -7.8209582    788.11719   0.01721983  0.016308912           12 
 3815000   0.63711389   -7.8290981    789.00086  0.017234619  0.016303841           16 
 3816000   0.64240338   -7.8042593    788.57834  0.017220876   0.01629878           19 
 3817000    0.6555466   -7.8050674    786.81136  0.017177787   0.01629372           31 
 3818000   0.64131432   -7.7974875    790.05322  0.017244046  0.016288665           18 
 3819000    0.6429442   -7.8066647    787.88865  0.017192298  0.016283602            9 
 3820000   0.65756099   -7.8243458    788.61931  0.017203737  0.016278543           15 
 3821000   0.62998551      -7.8312    787.42493  0.017173186  0.016273481           32 
 3822000   0.63495461   -7.8173988     788.1552  0.017184615  0.016268413           37 
 3823000    0.6389725   -7.8239326    787.45369  0.017164829  0.016263342            8 
 3824000   0.63030534   -7.8193289    787.95905  0.017171353  0.016258282           19 
 3825000   0.63348335   -7.8207855    788.05039  0.017168854  0.016253227           11 
 3826000   0.63780541   -7.8460856    787.64504  0.017155538   0.01624816            6 
 3827000    0.6456858   -7.8194884    789.46094  0.017190596  0.016243102           14 
 3828000   0.63946407   -7.8279621    787.63027  0.017146253  0.016238046           12 
 3829000    0.6393005   -7.8451005    787.53043  0.017139602  0.016232994            8 
 3830000   0.64675805   -7.8245531    787.82716  0.017141583  0.016227942            5 
 3831000   0.63451055   -7.8171288     788.1158  0.017143387  0.016222912            6 
 3832000   0.64834741   -7.8286657    787.00031  0.017114655  0.016217874           25 
 3833000   0.63839704   -7.8016109    787.88231  0.017129366  0.016212845            9 
 3834000   0.64198327   -7.8187455    789.44915  0.017158954  0.016207813            5 
 3835000   0.62120635   -7.7962337    789.27323  0.017150657  0.016202793            8 
 3836000   0.62424448   -7.8291724     788.8261  0.017136472  0.016197773            7 
 3837000   0.63584301   -7.8087771    789.35061  0.017143398  0.016192749            5 
 3838000   0.64352932   -7.8250993    789.72946  0.017147157  0.016187725           12 
 3839000   0.62653096   -7.8152568    788.45675  0.017115064  0.016182698            8 
 3840000   0.63324353   -7.8023662    787.32705  0.017086091  0.016177664           17 
 3841000   0.64900215   -7.8302758    788.69151  0.017111245   0.01617264           14 
 3842000   0.63812526   -7.8242927    786.42515  0.017057634  0.016167613           17 
 3843000   0.63543819   -7.8010168    789.95037  0.017129638  0.016162593            8 
 3844000   0.63003305   -7.8243624    788.95533   0.01710361   0.01615758           10 
 3845000   0.64424406   -7.8153801    788.62051  0.017091905  0.016152569           12 
 3846000   0.63514279   -7.8274016    787.17749  0.017056195  0.016147551            5 
 3847000   0.65709331   -7.8068437    788.42466  0.017078777  0.016142528           12 
 3848000    0.6267829   -7.8206508    786.83004  0.017039805   0.01613751            8 
 3849000   0.63827704   -7.8331367    788.14703  0.017063892  0.016132488            5 
 3850000   0.63753629   -7.8200933    787.35301  0.017042273  0.016127462            8 
 3851000   0.63980339   -7.8472402    788.66357  0.017066207   0.01612243            8 
 3852000   0.63379279   -7.8410487    787.70061  0.017040944  0.016117398           12 
 3853000   0.62188793   -7.8233172    788.20031  0.017047329  0.016112355           11 
 3854000   0.63127065   -7.8213906    787.84942  0.017035319  0.016107316            8 
 3855000   0.62727523   -7.8391217    787.57878  0.017025049  0.016102288           14 
 3856000    0.6448056   -7.8162742    787.95688  0.017028805  0.016097256            5 
 3857000    0.6415907   -7.8395644    787.61223  0.017016944  0.016092228           10 
 3858000   0.62392286   -7.8450238    788.40482  0.017029653  0.016087201            7 
 3859000   0.63418091   -7.8668852    788.70768   0.01703178   0.01608216           29 
 3860000   0.63382599    -7.810416    788.19267  0.017016249  0.016077136            4 
 3861000   0.64412654     -7.82512    789.30244  0.017035795  0.016072114           17 
 3862000   0.64378251   -7.8272185    787.93956  0.017001976  0.016067095           11 
 3863000   0.64568371   -7.8277842    788.72827  0.017014589   0.01606208            6 
 3864000   0.63938902   -7.8608512    788.42896   0.01700373  0.016057061            7 
 3865000   0.62521983   -7.8203251    787.59602  0.016981372  0.016052049            7 
 3866000   0.62068869   -7.8370719    788.37496   0.01699377  0.016047037            8 
 3867000   0.64322629   -7.8292017    787.49686  0.016970452  0.016042021           14 
 3868000   0.63463307   -7.8429032    787.15853  0.016958776  0.016037001           10 
 3869000   0.64199524   -7.8379049    786.72356  0.016945024  0.016031971            6 
 3870000   0.63355003   -7.8204531    786.96129  0.016945764  0.016026945           12 
 3871000   0.62918825   -7.8367391    786.80192  0.016937956  0.016021927            6 
 3872000   0.63706456   -7.8658009    787.62728  0.016951345  0.016016896           13 
 3873000    0.6390442   -7.8414998     785.9238  0.016910315  0.016011875            7 
 3874000   0.64634774    -7.849564    786.53815  0.016919165  0.016006851            7 
 3875000   0.63331179   -7.8201972    786.74903  0.016919334  0.016001836            5 
 3876000   0.63698898   -7.8474191    788.46802  0.016951927  0.015996813            9 
 3877000   0.63699407   -7.8609153    787.44395  0.016925543   0.01599179            5 
 3878000   0.62271066   -7.8594388    786.68291  0.016904824  0.015986763            3 
 3879000   0.62305713    -7.858175    788.18474  0.016932731  0.015981742            4 
 3880000   0.62949099   -7.8280059     787.4841  0.016913318  0.015976724            9 
 3881000   0.60820128   -7.8464439    787.57144  0.016910836  0.015971696            4 
 3882000   0.62922577   -7.8613025    788.21681  0.016920333  0.015966666           11 
 3883000   0.62040735   -7.8570057    787.85251  0.016908157  0.015961638            9 
 3884000   0.63911131   -7.8440844    788.20894  0.016911452  0.015956607            9 
 3885000   0.63067332   -7.8635238    786.89701  0.016878958  0.015951577            6 
 3886000   0.62029943   -7.8700085    786.93442  0.016875416   0.01594654           13 
 3887000   0.60985066   -7.8777918    787.11851  0.016875022  0.015941512            5 
 3888000   0.63194297   -7.8572507    786.13988  0.016849706  0.015936486            9 
 3889000   0.61990316   -7.8501228    788.19987  0.016889515  0.015931466            5 
 3890000    0.6050062   -7.8564521    786.29049  0.016844269  0.015926449            5 
 3891000   0.63561767   -7.8667378    788.47803  0.016886791  0.015921435            8 
 3892000   0.64084967   -7.8625102    787.91424   0.01687038   0.01591643            6 
 3893000   0.61982052   -7.8419761    785.84423  0.016821736  0.015911429            3 
 3894000   0.62896199   -7.8480197    786.29202  0.016826999  0.015906426            4 
 3895000   0.61591262   -7.8544677    786.95843  0.016836937  0.015901427            2 
 3896000   0.62231862   -7.8467172    788.06061   0.01685619  0.015896423            6 
 3897000   0.62802886   -7.8595267    787.66988   0.01684351  0.015891423           10 
 3898000   0.63599807   -7.8624853    787.39315  0.016833272  0.015886417            5 
 3899000   0.62171345    -7.859979    787.39239  0.016828939  0.015881421            3 
 3900000   0.63972415   -7.8569838    787.42304  0.016825279  0.015876415            5 
 3901000   0.63513112   -7.8639582    788.86324  0.016851731  0.015871411            5 
 3902000   0.64669009   -7.8597714     787.3218  0.016814493  0.015866404            9 
 3903000   0.62363151   -7.8812211    785.32706  0.016767595  0.015861402            5 
 3904000   0.61094044   -7.8637353    786.20688   0.01678208  0.015856414            6 
 3905000   0.62500887   -7.8533743    786.55889  0.016785294  0.015851431           11 
 3906000   0.61997911    -7.867919     787.4199  0.016799366  0.015846448            5 
 3907000   0.61926591   -7.8422306    787.45439  0.016795802  0.015841461            8 
 3908000   0.60712104   -7.8417068    785.42992  0.016748335  0.015836482            7 
 3909000   0.61556322    -7.855488    787.96859  0.016798171  0.015831506            4 
 3910000   0.61712626   -7.8557554    788.39074  0.016802872  0.015826527            5 
 3911000   0.61257016   -7.8700688     788.8661  0.016808704  0.015821552            8 
 3912000   0.62053975   -7.8897774    787.03755  0.016765456  0.015816588           10 
 3913000   0.62281777   -7.8443772    787.37962  0.016768456  0.015811628           10 
 3914000   0.62855372   -7.8494953    788.65679  0.016791364  0.015806675            6 
 3915000   0.63745674   -7.8481408    787.52811   0.01676305  0.015801721            8 
 3916000   0.62782061   -7.8561932    786.55809  0.016738128  0.015796759            8 
 3917000   0.62776261   -7.8432509      787.507  0.016754042  0.015791805            7 
 3918000   0.63406495   -7.8492685    786.75115   0.01673369  0.015786845            6 
 3919000   0.64380142    -7.863082    787.68879  0.016749358   0.01578188            7 
 3920000   0.61703582   -7.8525776    786.64125  0.016722816  0.015776918            3 
 3921000    0.6243545   -7.8697923    786.59988  0.016717671  0.015771956            4 
 3922000   0.62732453   -7.9014707    786.26085  0.016706205  0.015766984            9 
 3923000   0.62706754   -7.8425339    787.79833  0.016734606  0.015762021           10 
 3924000   0.62081111   -7.8695948    786.93886  0.016712089   0.01575706            7 
 3925000   0.62170868   -7.8716041    787.41382  0.016717915  0.015752081            8 
 3926000   0.62828626   -7.8553734    787.40641    0.0167135  0.015747121            6 
 3927000   0.62618747   -7.8558362    788.54714  0.016733451  0.015742151           13 
 3928000   0.61199103   -7.8603977    786.72443  0.016690522  0.015737187           17 
 3929000   0.63261919   -7.8593673    786.84893  0.016688914  0.015732232            9 
 3930000   0.61664472   -7.8729207    787.84535  0.016705796  0.015727279            8 
 3931000   0.61448375   -7.8635209    788.79565  0.016721692  0.015722333            6 
 3932000    0.6283959   -7.8466636    786.33513  0.016665292  0.015717383            5 
 3933000   0.62155962   -7.8880081    784.87736  0.016630167  0.015712433            6 
 3934000   0.62379525   -7.8473076    786.49505  0.016660207  0.015707477            8 
 3935000   0.63374499   -7.8570349    786.03621  0.016646256  0.015702523           15 
 3936000    0.6125108   -7.8780836    785.80803  0.016637196  0.015697558            7 
 3937000   0.62331957   -7.8472032    786.10443  0.016639244  0.015692597           10 
 3938000   0.62383915   -7.8828054    784.83022  0.016608054  0.015687629            7 
 3939000   0.62646142   -7.8682115    785.95648  0.016627665  0.015682657            7 
 3940000   0.61454419   -7.8633173     786.7234  0.016639666  0.015677701           12 
 3941000   0.62890525   -7.8819396    785.08993  0.016600903  0.015672745            3 
 3942000   0.62179562   -7.8821616    786.16418  0.016619402   0.01566779            7 
 3943000   0.62452298   -7.8684666    785.20558  0.016594927  0.015662832            8 
 3944000   0.61317528   -7.8704105    786.20988   0.01661194  0.015657866            6 
 3945000    0.6219109   -7.8877972    785.59395  0.016594718  0.015652898            9 
 3946000   0.61531382   -7.8956251     786.2359   0.01660407   0.01564793            7 
 3947000   0.61539192   -7.8801292    786.80026  0.016611778  0.015642967            8 
 3948000   0.63504472   -7.8738407    786.63364  0.016604053  0.015638011            9 
 3949000   0.63273681   -7.8569816    787.54253  0.016619029  0.015633057            7 
 3950000   0.61403649   -7.8819899    786.83806  0.016599959  0.015628105            4 
 3951000   0.63002508   -7.8523504    785.71656  0.016572103  0.015623152           11 
 3952000   0.62281425   -7.8709983     785.5202  0.016563769  0.015618201            6 
 3953000   0.61618957   -7.8836496    786.35345  0.016577145  0.015613255           14 
 3954000   0.62988268   -7.8750053    785.43285   0.01655355  0.015608313           11 
 3955000   0.62111683   -7.8532391    786.59898  0.016573936  0.015603374           22 
 3956000   0.61425935   -7.8996393     787.3868  0.016586341  0.015598438           22 
 3957000   0.61494686   -7.8624314    786.12693  0.016555617  0.015593498           16 
 3958000    0.6129362    -7.887607    787.16835  0.016573361  0.015588561            5 
 3959000   0.63595072   -7.8811482    786.83332  0.016562123  0.015583621            6 
 3960000   0.60860915    -7.884374    786.57287  0.016552459  0.015578689            7 
 3961000   0.62066216   -7.8804084    786.10383  0.016538413  0.015573754            5 
 3962000   0.60491263   -7.8888084    785.77855  0.016527397  0.015568815            6 
 3963000   0.62239397   -7.8750132      785.925  0.016526306   0.01556388            5 
 3964000   0.60460455   -7.8973189    787.00602  0.016544863  0.015558945            4 
 3965000   0.61634851   -7.8832653    785.65882  0.016512375  0.015554006            6 
 3966000   0.62033608    -7.873023    785.46945  0.016504233  0.015549086            8 
 3967000   0.63242156   -7.8781536    787.04815  0.016533236  0.015544166            4 
 3968000   0.62770199   -7.8656124    787.88289    0.0165466  0.015539259            7 
 3969000   0.61331428   -7.8788347    786.43499   0.01651203  0.015534352            7 
 3970000   0.62407067   -7.8932068    785.89771  0.016496593  0.015529447            4 
 3971000   0.61466067   -7.8581888    786.88981  0.016513259  0.015524535            5 
 3972000    0.6016821   -7.8773503    786.85497  0.016508371  0.015519631            9 
 3973000   0.61011236   -7.8713227    786.41858  0.016495062  0.015514726            9 
 3974000   0.61418614   -7.8733691    787.74652  0.016518758  0.015509829            8 
 3975000   0.62088929   -7.8795179    786.04313  0.016478892  0.015504935            9 
 3976000   0.62082215   -7.8598387    789.38771  0.016544846  0.015500049            7 
 3977000   0.60656257   -7.8599118    787.45672  0.016500225  0.015495164            7 
 3978000   0.61393366   -7.8906524    785.77384  0.016460823  0.015490274            7 
 3979000   0.60842478    -7.874947    785.84009  0.016458073  0.015485388           13 
 3980000   0.60560784   -7.8867617    786.69307  0.016471798  0.015480503            6 
 3981000   0.60062826   -7.8803344    786.77893  0.016469458  0.015475613            9 
 3982000   0.61536837   -7.8502878    787.52584  0.016480953  0.015470729           10 
 3983000   0.61488061    -7.879197    785.63488  0.016437252  0.015465842            7 
 3984000   0.61114008   -7.8918965    786.22175  0.016445401  0.015460948            9 
 3985000   0.60432434   -7.8833606    785.43091  0.016424737  0.015456047            7 
 3986000   0.61755475   -7.8880137    787.62122  0.016466408  0.015451157            8 
 3987000   0.61790155   -7.8732534    784.92746  0.016405975  0.015446277            7 
 3988000   0.60889545   -7.8774653    787.80254  0.016461939  0.015441409            8 
 3989000   0.61141208   -7.8873275    787.79203  0.016457592  0.015436531           12 
 3990000   0.61350207   -7.8651941    786.85828  0.016433966  0.015431657            7 
 3991000   0.62863461   -7.8744271    787.87808  0.016451142  0.015426794           11 
 3992000   0.62472475   -7.8811925     786.6366  0.016421105  0.015421921            5 
 3993000   0.62235656    -7.864686     787.4164  0.016433266  0.015417049            5 
 3994000   0.61360787    -7.865656    785.88369  0.016397173  0.015412185            4 
 3995000   0.61374339   -7.8628759    787.12948  0.016419055  0.015407316            6 
 3996000   0.62950642   -7.8686469    786.54106  0.016402675  0.015402448            4 
 3997000   0.60899919   -7.8769356     785.2789  0.016372256  0.015397569            9 
 3998000   0.60726197    -7.880926    786.03305  0.016383881  0.015392684           16 
 3999000   0.60968919   -7.8936688    785.65026  0.016371807  0.015387811           13 
 4000000   0.59908287   -7.9031927    786.04138  0.016375862  0.015382946            6 
 4001000   0.61169988   -7.8999111    784.14069  0.016332181  0.015378075            7 
 4002000   0.62381155   -7.9027105    786.86174  0.016384761  0.015373202           15 
 4003000   0.61262598   -7.8815762    785.98225  0.016362358  0.015368338            9 
 4004000   0.63114027   -7.8860043    786.31538  0.016365205  0.015363484           13 
 4005000   0.62001647   -7.8961716    787.05803  0.016376572  0.015358634           10 
 4006000   0.60912863   -7.8833034    788.17361   0.01639569   0.01535378           15 
 4007000   0.60909598   -7.8627299    786.30136  0.016352661   0.01534893            4 
 4008000   0.61828826   -7.8901652    787.11772  0.016365555  0.015344095            9 
 4009000   0.60138843   -7.8655503    787.00576  0.016359145  0.015339257            8 
 4010000    0.6028248   -7.8809457    786.85958  0.016352028  0.015334423            7 
 4011000   0.61451622   -7.8672158    786.78161  0.016346331  0.015329588           11 
 4012000   0.60300204   -7.8643178    787.38478  0.016354785   0.01532475            8 
 4013000   0.60983453   -7.8619866    787.21556  0.016347196   0.01531991            7 
 4014000   0.61454342   -7.8491105    787.03094   0.01633929  0.015315087           17 
 4015000    0.6121558    -7.857698    786.49995    0.0163242  0.015310256            7 
 4016000   0.60743312   -7.8904273    788.26659  0.016356793  0.015305427            4 
 4017000   0.60689747   -7.8585228    787.13556  0.016329258  0.015300604            5 
 4018000   0.60679411   -7.8821052    785.90929  0.016299761  0.015295776            5 
 4019000   0.59868546   -7.8557231    786.32657  0.016304358  0.015290944            8 
 4020000   0.60196126   -7.8852537    784.88691  0.016270458  0.015286106            5 
 4021000   0.60765823   -7.8961014    787.71291  0.016324979  0.015281263           11 
 4022000    0.6176405   -7.8986602    786.26905  0.016291005  0.015276421            4 
 4023000   0.60438588   -7.8967664    785.91769  0.016279677  0.015271585            5 
 4024000   0.60804365   -7.8921981    785.34775  0.016263829  0.015266748            9 
 4025000   0.60128015    -7.899204    786.42345  0.016282059  0.015261911            8 
 4026000   0.62161919    -7.878836    785.76909   0.01626447  0.015257087            7 
 4027000   0.61726138   -7.8830123    786.45323  0.016274589   0.01525226           10 
 4028000   0.61088075   -7.9163528     787.2702   0.01628745  0.015247433            8 
 4029000   0.60854377    -7.886887    786.28843  0.016263101  0.015242616            3 
 4030000   0.60760431   -7.8884951    787.25977  0.016279152  0.015237803            6 
 4031000   0.60633253   -7.8886077    786.63093  0.016262113  0.015232991            7 
 4032000   0.62179115   -7.8651775    786.95543  0.016264786  0.015228183           10 
 4033000   0.59821491   -7.8836888    787.74982  0.016277168  0.015223378           11 
 4034000   0.60380945    -7.906294    787.29595  0.016263757  0.015218572            9 
 4035000   0.60723456   -7.9027539    785.60692  0.016224843  0.015213765           10 
 4036000   0.61692483    -7.891551    788.52807  0.016281138   0.01520896           11 
 4037000   0.60975155   -7.8803675    785.67119  0.016218132   0.01520416            6 
 4038000   0.60498369    -7.912424    787.65823  0.016255123  0.015199354            9 
 4039000    0.5982727   -7.9057762    786.44366  0.016226039  0.015194541            5 
 4040000   0.58320773   -7.8898573    787.49143  0.016243635   0.01518973            6 
 4041000   0.61431785   -7.9109313    786.32189  0.016215497  0.015184925            5 
 4042000   0.60240774   -7.9254529    786.11061   0.01620713  0.015180119           10 
 4043000   0.60634883   -7.8826867    786.87343  0.016218844  0.015175307            8 
 4044000   0.60094599   -7.9195147    786.11559  0.016199217  0.015170499            7 
 4045000   0.61078958   -7.9056524    786.87074  0.016210769  0.015165695            9 
 4046000   0.60723253   -7.9080352    786.41189  0.016197312  0.015160896            5 
 4047000    0.6126901   -7.8937409    784.79991  0.016160117  0.015156096            9 
 4048000   0.59417693   -7.9124258    786.57366   0.01619264  0.015151304            5 
 4049000    0.6013053   -7.9000481    786.35498   0.01618414  0.015146513           14 
 4050000   0.61708824   -7.9023074    785.58791   0.01616436  0.015141725            8 
 4051000   0.60497719    -7.881617    786.34384   0.01617592  0.015136936           13 
 4052000   0.60331891   -7.8795433    786.24068  0.016169807  0.015132145           17 
 4053000   0.60202601   -7.8953944    786.15925  0.016164143  0.015127352           16 
 4054000    0.5944232   -7.9332744    785.89385    0.0161547  0.015122564            7 
 4055000   0.60519701   -7.8762967    786.76823  0.016168685  0.015117778            6 
 4056000   0.58951096   -7.9054609    785.59254  0.016140544   0.01511299            9 
 4057000   0.61194064   -7.9094325    786.33975  0.016151913  0.015108191            7 
 4058000   0.59979375   -7.9074801    785.18562  0.016124232  0.015103397            8 
 4059000   0.59897143   -7.9178785    785.39881  0.016124637  0.015098607           12 
 4060000   0.59674457   -7.8996106    786.26004  0.016138342  0.015093812           17 
 4061000   0.59928855   -7.9124353    786.41063  0.016137459  0.015089012           29 
 4062000   0.60158765   -7.9217204    786.69515  0.016139323  0.015084212           27 
 4063000   0.59008547   -7.9097002    784.13757  0.016082894  0.015079415           34 
 4064000   0.60848043   -7.9169423    784.55558  0.016087508  0.015074609           34 
 4065000   0.60237321   -7.9163259    786.42007  0.016121773  0.015069823           19 
 4066000   0.60155134    -7.925757    787.28571  0.016135549  0.015065032           19 
 4067000   0.60619243   -7.8958736    786.52214  0.016115936  0.015060248           18 
 4068000    0.6116513     -7.90374    785.05482  0.016081916  0.015055468           16 
 4069000   0.59510372    -7.926637    786.04468  0.016098236  0.015050683           35 
 4070000   0.58944792   -7.9159298    785.66519  0.016086511  0.015045904           23 
 4071000   0.60577025   -7.8919873    787.92863  0.016128892  0.015041131            8 
 4072000   0.59403895   -7.8989692    784.51576  0.016055087  0.015036354           15 
 4073000   0.59198934   -7.9147098    786.98518  0.016101669   0.01503158           14 
 4074000   0.59627142   -7.9151103    785.58053  0.016068985  0.015026804           14 
 4075000   0.58907104   -7.8980532    785.65306  0.016066525  0.015022021            7 
 4076000   0.59935826   -7.9086051    786.28331  0.016075468  0.015017247            7 
 4077000   0.60547216   -7.9100899    786.57346  0.016077456  0.015012471            7 
 4078000   0.58172128   -7.9154558    786.40186  0.016070007  0.015007701            4 
 4079000   0.59875434   -7.9079021    786.70345  0.016072229  0.015002937           12 
 4080000   0.59418193   -7.8973533    785.04849  0.016034487  0.014998174            6 
 4081000   0.58794238   -7.9313827    787.31706  0.016076882  0.014993417            6 
 4082000   0.59694503   -7.8962248    785.96187  0.016045277  0.014988664            6 
 4083000   0.59361282    -7.918004    785.34038  0.016028663  0.014983918            6 
 4084000    0.6011123   -7.9071713    785.17638  0.016021392  0.014979169            7 
 4085000   0.60543191   -7.8990879    786.36205  0.016041658  0.014974416            4 
 4086000   0.60252515   -7.9229946    785.00677  0.016010091   0.01496966            6 
 4087000   0.59400888    -7.922534     786.5122  0.016036869    0.0149649            3 
 4088000   0.58827411   -7.9224336    786.92554  0.016041372  0.014960147            4 
 4089000   0.60296251   -7.9149188    785.80772  0.016014668   0.01495539            9 
 4090000   0.59525649   -7.9346986    786.32182  0.016021227  0.014950639           10 
 4091000   0.60424768   -7.9392506    785.19536  0.015994365  0.014945884            3 
 4092000   0.59260501   -7.9278162    786.07518  0.016008374  0.014941135           11 
 4093000   0.59969259    -7.923062    785.53757  0.015993517  0.014936388            5 
 4094000   0.58132234   -7.9123686    785.96509  0.015998312  0.014931641            5 
 4095000   0.59716394   -7.9080113    786.39677   0.01600319  0.014926899            5 
 4096000   0.58229654   -7.9199784    785.12537  0.015973417  0.014922161            4 
 4097000   0.59178109   -7.9152137    787.12195  0.016010128  0.014917414            6 
 4098000   0.59970173   -7.9029705    787.15359  0.016006865  0.014912675            9 
 4099000   0.59217855     -7.93327    785.92027  0.015977886  0.014907948            3 
 4100000   0.59166279   -7.9170826     785.9781  0.015975165  0.014903223            3 
 4101000   0.60568097   -7.9201192    785.63934  0.015964385  0.014898503            3 
 4102000   0.61541679   -7.9215078     786.7616  0.015983293  0.014893783            5 
 4103000   0.59153539   -7.9037676    787.70215    0.0159985  0.014889063            3 
 4104000   0.60037201   -7.9010114    787.96505   0.01599994  0.014884349            2 
 4105000   0.59696597   -7.9139634    784.82433  0.015932284  0.014879643            3 
 4106000   0.61848561   -7.9001544    786.26062  0.015957554  0.014874928            3 
 4107000   0.59233327   -7.9169965    786.72206  0.015963032  0.014870214            7 
 4108000   0.59597595   -7.9165585    786.62477  0.015957172  0.014865503            4 
 4109000   0.59464324   -7.9320542    786.02211  0.015941067  0.014860795            4 
 4110000   0.58883152   -7.9271384    786.21313  0.015941061   0.01485609            5 
 4111000   0.60416455     -7.89174    785.40569  0.015920816  0.014851397            4 
 4112000   0.58005332   -7.9258689    786.24859  0.015934026    0.0148467            9 
 4113000   0.58948477   -7.9189404    786.84586  0.015942253  0.014842007            5 
 4114000   0.60156127   -7.9088766    784.77861  0.015896504  0.014837317            4 
 4115000    0.5935806   -7.8963546    785.22967  0.015901775  0.014832619            5 
 4116000   0.59360095   -7.9133042    785.16821  0.015896668  0.014827911            6 
 4117000   0.58868907   -7.9331396    785.45567  0.015898625  0.014823206            2 
 4118000   0.58715848   -7.9270924     785.5142  0.015895949  0.014818506            6 
 4119000   0.59933343   -7.9241802    787.94178  0.015941203  0.014813819            5 
 4120000   0.58206063    -7.924306     786.7063  0.015912344   0.01480912            4 
 4121000   0.60494602   -7.9126626     785.2122   0.01587827  0.014804419            5 
 4122000    0.5796065    -7.920221      785.688  0.015884037   0.01479972            4 
 4123000   0.57998755   -7.9338328    786.24396  0.015891421  0.014795018            6 
 4124000   0.59973287   -7.9106948    785.13902   0.01586524   0.01479032            5 
 4125000   0.57487573   -7.9200327    787.80702  0.015915293  0.014785628            6 
 4126000   0.60197624   -7.9272269    784.72401  0.015849168  0.014780935            8 
 4127000   0.60658672   -7.9148517    786.48931  0.015880973  0.014776244            7 
 4128000   0.59062849    -7.906796    785.51126  0.015857382   0.01477156            5 
 4129000   0.57822937   -7.9211139    784.92642  0.015841738  0.014766875           12 
 4130000   0.59339363   -7.9572609    785.35674  0.015846585  0.014762183            5 
 4131000    0.5950167   -7.9252919    786.03361  0.015856403  0.014757495            8 
 4132000   0.58620599   -7.9180131    786.76472   0.01586731  0.014752819            6 
 4133000   0.58950007   -7.9463542    787.55028   0.01587931   0.01474814            4 
 4134000   0.59663938   -7.9149019    785.93004  0.015842808  0.014743464            5 
 4135000   0.58565322   -7.9361603      786.298  0.015846393  0.014738794            9 
 4136000   0.59390626   -7.9336583    786.20787  0.015840745  0.014734123            7 
 4137000   0.60360206   -7.9098068    785.77242  0.015828145  0.014729459            9 
 4138000   0.58915502   -7.9420004     785.8208  0.015825294  0.014724795            9 
 4139000    0.5981892   -7.9446243    784.04583  0.015785734  0.014720114            7 
 4140000   0.59475651   -7.9408392     784.9458  0.015800036   0.01471544            6 
 4141000   0.59356925   -7.9466489    784.57955   0.01578885   0.01471077           12 
 4142000    0.5970893   -7.9315203     784.5802  0.015785051  0.014706098           11 
 4143000   0.59431785   -7.9310537    785.69755  0.015803716  0.014701432            7 
 4144000   0.58773171   -7.9289013    786.16625  0.015809328  0.014696759            7 
 4145000   0.59108604   -7.9216937    784.51731  0.015772363  0.014692095            6 
 4146000   0.58889898   -7.9465651    784.72913  0.015772816  0.014687433            9 
 4147000   0.59970389    -7.938776    784.64457  0.015767313  0.014682771            9 
 4148000   0.59395508   -7.9414776    785.66854  0.015784083  0.014678102            5 
 4149000   0.59478594   -7.9383454    784.73667  0.015761562  0.014673441            5 
 4150000   0.59174323    -7.945642    784.63511  0.015755725  0.014668779            6 
 4151000    0.6033965   -7.9536483    785.56441  0.015770586  0.014664126            7 
 4152000   0.59771531   -7.9415848    785.28489  0.015761177  0.014659467            7 
 4153000   0.57368205   -7.9447919    784.33377  0.015738297  0.014654812            5 
 4154000   0.60138646   -7.9400721    786.14199  0.015770783  0.014650156            6 
 4155000   0.59617894   -7.9344477    784.72635  0.015738595  0.014645503            6 
 4156000   0.57481204   -7.9598275     785.0583  0.015741464  0.014640845            7 
 4157000   0.59258553   -7.9423827    785.84137  0.015753375  0.014636191            8 
 4158000   0.58614574   -7.9416042    787.10893  0.015774991  0.014631543            7 
 4159000   0.57672119   -7.9365084    785.88224  0.015746619  0.014626901            7 
 4160000   0.59080582   -7.9489074    785.38732  0.015732919  0.014622259            9 
 4161000   0.59325153   -7.9182538    784.28172  0.015706996  0.014617619            8 
 4162000   0.57792141   -7.9297639    786.32916  0.015744217  0.014612974            9 
 4163000   0.58300648   -7.9496823    785.40436  0.015721922  0.014608327           16 
 4164000    0.5840886    -7.936377    785.38711  0.015717802  0.014603682           14 
 4165000   0.57984534   -7.9211377     784.5494  0.015697267  0.014599041           12 
 4166000    0.5757648   -7.9533535    785.78623   0.01571824  0.014594402            8 
 4167000   0.57888062   -7.9361521    784.52923   0.01568933  0.014589768            8 
 4168000   0.58797232   -7.9372167    785.01622  0.015695302  0.014585132            8 
 4169000   0.59951398   -7.9472657    784.83213  0.015687857  0.014580497           10 
 4170000   0.57702405    -7.944461     784.5097  0.015677652  0.014575858            7 
 4171000    0.5885244   -7.9307544    785.05457  0.015684779  0.014571225            5 
 4172000    0.5885337   -7.9625978    785.03127  0.015680554  0.014566593           13 
 4173000   0.58698053   -7.9469517    785.47874  0.015685732  0.014561968           21 
 4174000   0.58489897   -7.9575748    784.87015  0.015669824   0.01455734            6 
 4175000    0.5852033   -7.9535872    785.45763  0.015677797  0.014552712           11 
 4176000   0.59000368   -7.9270973    784.46376   0.01565421  0.014548075            9 
 4177000   0.58226669   -7.9375021    784.40398  0.015649269  0.014543447           13 
 4178000   0.58992124   -7.9536181    783.66483  0.015630781  0.014538816           16 
 4179000   0.58580277   -7.9521526    786.21156  0.015677825  0.014534189           26 
 4180000   0.57609587   -7.9471007    784.89941  0.015647915  0.014529564            8 
 4181000   0.57505722   -7.9464408    785.30505  0.015652257  0.014524941           18 
 4182000   0.58081697   -7.9233364    784.17278  0.015625952  0.014520321           13 
 4183000   0.58633013   -7.9536867    785.94686   0.01565756  0.014515701            6 
 4184000   0.58326975   -7.9529026    785.03256  0.015635607  0.014511071            6 
 4185000   0.58479254    -7.935253    785.16483  0.015634505  0.014506447            6 
 4186000   0.58991307   -7.9445689    785.25203  0.015632506  0.014501823            5 
 4187000    0.5976849   -7.9487809    784.34845  0.015610788    0.0144972            6 
 4188000   0.58038917   -7.9507299    784.65691  0.015613199  0.014492583            7 
 4189000   0.57669017   -7.9234221    785.52883  0.015626817  0.014487962            3 
 4190000   0.58856953   -7.9307915    783.68541  0.015586424  0.014483352            5 
 4191000    0.5824622   -7.9602769    784.18905  0.015592719  0.014478748            5 
 4192000   0.58100966   -7.9498798    784.72945  0.015599743  0.014474141            6 
 4193000   0.57773426   -7.9387417    783.53165  0.015572217  0.014469526            6 
 4194000   0.58806426   -7.9537595    784.32517  0.015584271  0.014464914            8 
 4195000   0.56941067   -7.9616737    784.16673  0.015577408  0.014460297           11 
 4196000   0.57892473   -7.9369661    785.72245  0.015604593  0.014455691           12 
 4197000   0.56351409   -7.9470024    785.78544  0.015602125  0.014451094            9 
 4198000   0.57812971   -7.9424202      787.033  0.015623174  0.014446503           11 
 4199000   0.57564712   -7.9480051    784.43962  0.015567985  0.014441908           10 
 4200000   0.58758622   -7.9520863    786.63738  0.015607885  0.014437311           11 
 4201000   0.58096413   -7.9672818     784.6786  0.015565314  0.014432713            8 
 4202000   0.57605685   -7.9695541    783.90299  0.015546228  0.014428108            6 
 4203000   0.59111991   -7.9609233    784.01188  0.015544688  0.014423503            7 
 4204000   0.57834408   -7.9435253    784.89046  0.015558406  0.014418902            8 
 4205000   0.56753866   -7.9479619    784.80433  0.015552999  0.014414301           14 
 4206000   0.57898336   -7.9671103     784.0403  0.015534163  0.014409704            6 
 4207000   0.56021574   -7.9558215    783.26096  0.015515034  0.014405103           14 
 4208000   0.58158988   -7.9777156    784.86005  0.015543014  0.014400498            6 
 4209000   0.59048735   -7.9559909    783.37366  0.015509893    0.0143959            8 
 4210000   0.57739484   -7.9445894    784.95307  0.015537472  0.014391304           11 
 4211000   0.57997518   -7.9481321    784.69231  0.015528622  0.014386712            7 
 4212000   0.57754471   -7.9500206    786.63911  0.015563452  0.014382131            6 
 4213000   0.58739758   -7.9365175    785.26109    0.0155325  0.014377554            9 
 4214000   0.57410198   -7.9437721    784.68085   0.01551734  0.014372974            6 
 4215000   0.57423577   -7.9476963    784.24016  0.015504946    0.0143684           11 
 4216000   0.58233114   -7.9380743    783.59759  0.015488567   0.01436382           10 
 4217000   0.58811374   -7.9611725    784.86043   0.01550985  0.014359237            7 
 4218000   0.58693837   -7.9489765    785.85534  0.015525829  0.014354664            4 
 4219000   0.58098428    -7.940192    784.63008  0.015497947  0.014350089            8 
 4220000   0.57169942   -7.9354669      783.636  0.015474645  0.014345509            7 
 4221000   0.57591401   -7.9417914    784.13008  0.015480733  0.014340929            8 
 4222000   0.57317968   -7.9597695    784.68188  0.015487957  0.014336355            9 
 4223000   0.56439874   -7.9424047    784.68724  0.015484396  0.014331781            7 
 4224000   0.57986628   -7.9373174    784.57608  0.015478537  0.014327215            4 
 4225000   0.56283154   -7.9568773     783.6523  0.015456653  0.014322645            7 
 4226000   0.57626733   -7.9536615    785.23288  0.015484163   0.01431808           18 
 4227000    0.5731133   -7.9485995     784.6857  0.015469713  0.014313515            4 
 4228000   0.57273026   -7.9419238    784.65063  0.015465362  0.014308947           13 
 4229000   0.57090214   -7.9664766    783.98153  0.015448521  0.014304381            7 
 4230000   0.57595581   -7.9643321    783.97318  0.015444704  0.014299817           12 
 4231000   0.56281566   -7.9584609    785.73421  0.015475739  0.014295253           13 
 4232000   0.57013068   -7.9592165    784.53051   0.01544838  0.014290691            7 
 4233000   0.57267875   -7.9660805    785.63307  0.015466436  0.014286133            8 
 4234000   0.59106125   -7.9686695    783.11971  0.015413315  0.014281579            6 
 4235000   0.56389842   -7.9640241    783.89202  0.015424872   0.01427702            5 
 4236000   0.56266969    -7.965324    783.49178  0.015413357  0.014272458            9 
 4237000   0.57316457    -7.967831    784.91168  0.015437646  0.014267896            5 
 4238000   0.59154224   -7.9620803    783.39984  0.015404276  0.014263332            8 
 4239000   0.56411659   -7.9684703    785.21943  0.015436412  0.014258772            8 
 4240000   0.57285297   -7.9585044    783.35671  0.015396162  0.014254211            7 
 4241000   0.56523801   -7.9573621    783.56872  0.015396697  0.014249657            6 
 4242000   0.57328789   -7.9713768    783.43703  0.015390481    0.0142451            9 
 4243000    0.5826596   -7.9669011    783.94254  0.015396782  0.014240543            7 
 4244000    0.5770213   -8.0003586    782.93219  0.015373315  0.014235991            5 
 4245000   0.58411639   -7.9652864    783.28632  0.015376645  0.014231438            6 
 4246000   0.57668868   -7.9620603    782.09849  0.015349711  0.014226884            6 
 4247000   0.56866742    -7.973414    784.07735  0.015384926  0.014222338            5 
 4248000    0.5793776   -7.9761558    784.25658   0.01538482  0.014217792           10 
 4249000    0.5769828   -7.9836147     783.3685  0.015363782  0.014213234            9 
 4250000   0.57655146   -7.9454404    782.77296  0.015348489  0.014208682           10 
 4251000   0.56747537   -7.9631866    783.04934  0.015350297  0.014204134            4 
 4252000   0.57249318   -7.9742756    784.63029  0.015377671  0.014199586            7 
 4253000    0.5700138   -7.9615926    783.02126  0.015342528  0.014195049            6 
 4254000    0.5812557   -7.9868603    783.69912    0.0153522   0.01419051            7 
 4255000   0.56607565   -7.9774749     784.8157   0.01537046   0.01418597            9 
 4256000   0.56448262    -7.988256    783.89271  0.015348776  0.014181437            9 
 4257000   0.57607873   -7.9594417    784.01665  0.015347597  0.014176903            4 
 4258000   0.57481742   -7.9726618    783.36258  0.015331192   0.01417237            5 
 4259000    0.5710752   -7.9717626    783.95843  0.015339251   0.01416784            8 
 4260000   0.57787216   -7.9838223    784.59674  0.015348136  0.014163312           12 
 4261000   0.56459079   -7.9752189    784.10991  0.015335014  0.014158781            4 
 4262000   0.55782423   -7.9853073    783.23318  0.015314273  0.014154253            5 
 4263000    0.5560459   -7.9858156    783.67557  0.015319329  0.014149727           10 
 4264000   0.58765931    -7.966269    782.23419  0.015287566  0.014145203            8 
 4265000   0.58158322   -7.9665401    783.50097  0.015308733  0.014140684            8 
 4266000   0.56112819   -7.9866229    782.88542   0.01529312  0.014136163           10 
 4267000   0.55483789   -7.9849702    784.11127  0.015313477  0.014131635            8 
 4268000   0.56024974   -7.9937189    782.60436  0.015280466  0.014127106            5 
 4269000   0.56625289   -7.9650718    782.96964  0.015284017  0.014122583           10 
 4270000   0.57018962   -7.9566241    783.10687  0.015283116  0.014118058            7 
 4271000   0.55362827   -7.9924504    783.42461  0.015285737  0.014113537            4 
 4272000   0.56770544   -7.9835044    783.18746  0.015277533   0.01410901            8 
 4273000   0.57268271   -7.9660352    783.45237  0.015279124  0.014104484            6 
 4274000   0.56933747   -7.9705463    782.55163  0.015257987  0.014099959            4 
 4275000   0.57208099   -8.0013153    784.72831  0.015296848  0.014095445            7 
 4276000   0.56186674   -7.9823818    784.05967   0.01528024  0.014090926            9 
 4277000   0.58084232   -7.9769652    782.73456  0.015250849  0.014086413            6 
 4278000   0.56663367   -7.9848206     782.9158  0.015250814  0.014081897            6 
 4279000    0.5614073    -8.008851    782.41935  0.015237582  0.014077383            9 
 4280000   0.57756209   -7.9848168    782.11481  0.015228092  0.014072864            6 
 4281000   0.56330802   -7.9761431    783.24997  0.015246632  0.014068349            6 
 4282000   0.55649761   -7.9957007    784.43775  0.015266187  0.014063839            7 
 4283000   0.56235849    -7.993332    784.00974  0.015254295  0.014059336            6 
 4284000   0.56519896   -7.9747402     782.4117  0.015219649  0.014054827            7 
 4285000   0.57482921   -7.9920577    783.95208  0.015246054   0.01405032           18 
 4286000   0.56733683   -7.9765215    782.53304  0.015214906   0.01404582            6 
 4287000   0.57473376   -7.9879683    782.98662  0.015220174  0.014041313           10 
 4288000   0.56734122    -7.989856    782.02905  0.015198015  0.014036813            6 
 4289000   0.57426202   -8.0097725    783.66829  0.015226321  0.014032314            8 
 4290000    0.5748471    -7.996296    782.37792  0.015197706  0.014027816            9 
 4291000   0.58384458   -7.9784612    784.07726  0.015227167  0.014023325            7 
 4292000   0.58032724    -8.003794    784.38699  0.015229632  0.014018829            7 
 4293000   0.56536792   -7.9998187    782.77221   0.01519474  0.014014336            8 
 4294000   0.57068551   -7.9990536    782.41425  0.015184254  0.014009844            6 
 4295000   0.57047217   -7.9779767    782.63244  0.015184952  0.014005363           10 
 4296000   0.57195664   -7.9628037    783.90741  0.015206149  0.014000885            5 
 4297000   0.56299423   -7.9906546    782.78756  0.015180893  0.013996407           11 
 4298000   0.55947298   -7.9883139    784.91012  0.015218515   0.01399193            5 
 4299000   0.55448672     -7.98391    785.05279   0.01521774  0.013987455            6 
 4300000   0.56582702   -8.0055997    782.90882  0.015172652   0.01398298           15 
 4301000   0.56048404    -7.984006    784.01332  0.015190524  0.013978501            5 
 4302000   0.55222795    -7.977429    783.07809  0.015168877  0.013974025            6 
 4303000   0.55867957    -8.000595    782.31963  0.015150663  0.013969546            6 
 4304000   0.56891852   -7.9800531    782.37044  0.015148127   0.01396507            6 
 4305000   0.56405554   -8.0051704    783.64389  0.015169258  0.013960605            7 
 4306000   0.56462576   -7.9754127     782.4958  0.015143517  0.013956137           10 
 4307000   0.54579064   -7.9895055    782.19234  0.015134129  0.013951667            6 
 4308000    0.5485386   -7.9949215     783.1057  0.015148284  0.013947203            6 
 4309000   0.56244852   -7.9874337    783.34601  0.015149416  0.013942738           13 
 4310000   0.55682028   -8.0009278    783.93162  0.015157224  0.013938281           11 
 4311000   0.55592044   -7.9776203    782.87715  0.015133325  0.013933822            7 
 4312000   0.57123816   -7.9880856    782.97586  0.015131723  0.013929365           10 
 4313000   0.55704105   -7.9944287    782.78625  0.015124551  0.013924907            7 
 4314000   0.58077666   -7.9872299    782.72275  0.015119818  0.013920455           13 
 4315000   0.55975003   -7.9863945    783.02283   0.01512211  0.013916009            8 
 4316000   0.57295775   -7.9852224    782.85228  0.015115313  0.013911564            5 
 4317000   0.55607398   -7.9918875    785.27901  0.015158656  0.013907113           10 
 4318000   0.56946798   -8.0075802     781.8631  0.015089221  0.013902661           11 
 4319000   0.54496279   -8.0064568    781.97786  0.015087942  0.013898206            9 
 4320000   0.56593358   -8.0011378    783.26989  0.015109373  0.013893755            8 
 4321000   0.57497687   -7.9964531    784.23847  0.015124556  0.013889312            7 
 4322000   0.56805363   -7.9946634    782.72772  0.015091927  0.013884866            8 
 4323000   0.56219693    -7.980718    781.99417  0.015074296   0.01388042            8 
 4324000   0.55869139   -7.9972014    783.83049    0.0151062   0.01387598           13 
 4325000   0.55723315   -7.9996507    783.75681  0.015101287  0.013871544           10 
 4326000   0.56744643   -8.0072819    783.88529  0.015100271  0.013867101           11 
 4327000   0.55436795   -7.9945428    782.83817  0.015076615  0.013862663           13 
 4328000   0.55210185   -7.9753979    781.67234  0.015050684  0.013858221            7 
 4329000   0.56171418   -7.9908254    783.70009  0.015086242  0.013853784            8 
 4330000   0.54975024   -7.9967411     783.8358  0.015085369  0.013849349           11 
 4331000   0.55689022   -7.9883241    782.77214   0.01506142  0.013844913           19 
 4332000   0.55986249   -7.9938844    782.91506  0.015060693  0.013840475           17 
 4333000   0.55038816   -7.9915372    782.68199  0.015052735  0.013836047            8 
 4334000   0.55883795   -7.9994467    782.19352  0.015039869  0.013831614           13 
 4335000   0.55194471   -8.0018542    782.01748  0.015033016   0.01382718           13 
 4336000   0.55279699   -7.9695535    783.10644  0.015050477  0.013822749           13 
 4337000   0.55761468   -8.0092309    783.68039  0.015058035  0.013818326           10 
 4338000   0.55846848    -8.019074    783.65433  0.015054064  0.013813902           14 
 4339000   0.56468253   -8.0114869    782.62087  0.015030746  0.013809477           19 
 4340000   0.55512714   -8.0025217    782.47454  0.015024473  0.013805058            7 
 4341000   0.56307979   -7.9970898    783.26205  0.015036129  0.013800639           20 
 4342000    0.5550138   -8.0101867    782.63043  0.015020544  0.013796219           14 
 4343000   0.56245935   -8.0236627    783.03076  0.015024767  0.013791802            5 
 4344000   0.55625886    -8.024114    782.05679  0.015002624  0.013787385           10 
 4345000   0.55075136   -8.0257187    781.89639  0.014996095  0.013782964            8 
 4346000   0.54950795   -8.0133762    783.25179  0.015018634  0.013778549           15 
 4347000   0.56270535   -8.0030578     782.5529  0.015001781  0.013774137           10 
 4348000   0.55209572   -8.0154629    783.28032  0.015012272  0.013769728            7 
 4349000   0.54527272   -8.0129531    783.10041  0.015005373  0.013765314           12 
 4350000   0.54154992   -8.0077209    782.99318  0.014999869    0.0137609            9 
 4351000   0.54552081   -7.9981758    782.55439  0.014988018  0.013756492           12 
 4352000   0.55574391   -7.9810553    782.64108  0.014986234  0.013752084            8 
 4353000   0.55395191   -7.9901936    781.45874  0.014960157  0.013747683            9 
 4354000   0.57216144   -8.0105733    782.84849   0.01498332   0.01374328           12 
 4355000   0.55823752   -8.0265107    782.70175  0.014977071  0.013738879           11 
 4356000   0.55749439   -8.0018443    781.67085  0.014953911  0.013734481           11 
 4357000   0.55921534   -8.0101745    782.89894  0.014973968  0.013730078            6 
 4358000   0.55982251   -7.9982124    781.66631  0.014946962   0.01372567           11 
 4359000   0.55600696   -8.0107178    782.15401  0.014952856  0.013721274           12 
 4360000   0.55227447   -8.0100641    783.11484  0.014967791  0.013716874           16 
 4361000   0.56568165   -8.0041796    781.14423  0.014926703  0.013712479           13 
 4362000   0.55739055   -8.0111943    782.63465  0.014951755  0.013708088           10 
 4363000   0.54494541   -8.0283121     782.6225  0.014948096  0.013703704            6 
 4364000     0.554184   -8.0238522    782.49742  0.014942282  0.013699313            6 
 4365000   0.55295474   -8.0192989    782.67946  0.014942334  0.013694925            8 
 4366000   0.55382707   -8.0244749    782.78406  0.014940908  0.013690538            9 
 4367000   0.54619568   -8.0206212    781.29379  0.014909049  0.013686152           14 
 4368000   0.55347244   -8.0239993    781.91152  0.014917421  0.013681761            9 
 4369000   0.54669683   -8.0185313    782.27634  0.014920965  0.013677371           10 
 4370000   0.55410088   -7.9967447    782.62458  0.014924191  0.013672987            8 
 4371000   0.55628116   -8.0067426    782.56506  0.014919642  0.013668598           15 
 4372000   0.54106165   -8.0308997    781.92655  0.014904059  0.013664211           11 
 4373000   0.55934817    -8.023098    782.41694  0.014909996  0.013659829            7 
 4374000   0.54548244   -8.0288097    782.07597  0.014900091  0.013655447           19 
 4375000   0.54562258   -8.0237353    783.14926  0.014917129  0.013651069           19 
 4376000    0.5423401   -8.0176347    782.58199  0.014902917  0.013646683            6 
 4377000   0.54756458   -8.0263113    781.92541  0.014887012  0.013642307           11 
 4378000   0.55879175   -7.9970999    781.76532  0.014880564  0.013637932           18 
 4379000   0.55916973   -8.0387632    781.36407   0.01486953  0.013633561            6 
 4380000   0.55553385   -8.0165543    781.87151   0.01487579  0.013629187           11 
 4381000   0.55653246   -8.0275732    781.25695  0.014860704  0.013624808            8 
 4382000   0.54435588   -8.0211996    781.85652  0.014868715  0.013620438           17 
 4383000   0.55289669   -8.0169164    781.72064  0.014862739  0.013616066            7 
 4384000   0.55543167    -8.016068    781.17159  0.014848913  0.013611693            7 
 4385000    0.5489382   -8.0181959    781.82912  0.014858022  0.013607324           10 
 4386000   0.54905044   -8.0406764     781.3223  0.014845005   0.01360296           11 
 4387000   0.55478259   -8.0243659    781.38023  0.014842721   0.01359859           16 
 4388000   0.56246536   -8.0386064    781.15856  0.014835129  0.013594219            5 
 4389000   0.54148303   -8.0179376    782.40611  0.014855436  0.013589854            4 
 4390000   0.55343372   -8.0199586    782.56842  0.014855133  0.013585486           15 
 4391000   0.55446965   -8.0360413    781.46673  0.014830842  0.013581125           11 
 4392000   0.53747352   -8.0370493    782.11971  0.014839855  0.013576765           14 
 4393000   0.55059026   -8.0351652     781.4856  0.014824448  0.013572407            7 
 4394000   0.54662455   -8.0182088    782.06476  0.014832058  0.013568049           11 
 4395000    0.5485373   -8.0386923    782.24198  0.014832044  0.013563694           15 
 4396000    0.5359421   -8.0445282    782.04556  0.014824946  0.013559339           15 
 4397000   0.55102643   -8.0514844    781.88136  0.014818463  0.013554987           14 
 4398000   0.54504205   -8.0352104    781.37841  0.014805563  0.013550634           14 
 4399000   0.54631545      -8.0307    779.85744  0.014773385  0.013546282           13 
 4400000   0.54066053   -8.0350086    781.88778  0.014808481  0.013541933            8 
 4401000   0.54772348    -8.027878    781.01262  0.014788545  0.013537587            6 
 4402000   0.54515485    -8.017076    782.03926   0.01480462  0.013533242            7 
 4403000   0.54932718   -8.0317754    783.09929   0.01482132  0.013528898           16 
 4404000   0.55734418   -8.0494048    781.38153  0.014785451   0.01352455            5 
 4405000   0.54419676    -8.052398     782.9376  0.014811532  0.013520209            8 
 4406000    0.5413899   -8.0258807    782.04401   0.01479127  0.013515869            5 
 4407000   0.54523011   -8.0186307    780.99043  0.014767991  0.013511528            7 
 4408000   0.54918673   -8.0351778    781.72224  0.014778476  0.013507184            9 
 4409000   0.53970211   -8.0183683     780.3899  0.014749941  0.013502845           11 
 4410000   0.54791292   -8.0289586    781.74498  0.014772203  0.013498513           11 
 4411000    0.5409678   -8.0333683    780.24672  0.014740549   0.01349418           13 
 4412000    0.5442935    -8.037505    781.37106  0.014758444   0.01348985            6 
 4413000   0.55652137   -8.0191605    781.39506  0.014755553  0.013485526           14 
 4414000   0.54464182   -8.0252859    781.70284  0.014758021  0.013481207            9 
 4415000   0.54339845   -8.0406818    780.06805  0.014723821  0.013476883           13 
 4416000   0.55261326   -8.0430578     781.5679   0.01474879  0.013472566           13 
 4417000   0.55268449   -8.0252156    781.52154  0.014744577  0.013468245           21 
 4418000   0.54556469   -8.0484983    782.12945  0.014752706  0.013463929           11 
 4419000   0.54115349   -8.0224529    781.10879   0.01473012   0.01345961           15 
 4420000   0.54044175   -8.0443913    781.47239  0.014733642  0.013455298           13 
 4421000   0.53760714   -8.0250353    780.76524   0.01471698  0.013450979           13 
 4422000   0.54419674   -8.0273269    781.44047  0.014726377  0.013446668           16 
 4423000   0.54330545   -8.0227976    781.73684  0.014728631  0.013442355           15 
 4424000   0.55192586   -8.0267696    781.12299  0.014713739  0.013438043           12 
 4425000   0.54663891   -8.0301468    782.24981  0.014731635  0.013433736           13 
 4426000   0.54119053   -8.0438901    781.59293  0.014715939  0.013429429            9 
 4427000   0.53528394   -8.0233123    781.03087  0.014702034  0.013425125           17 
 4428000    0.5372455   -8.0416414     781.8579  0.014714279  0.013420827            7 
 4429000    0.5351258   -8.0498819    782.03442  0.014714277  0.013416523            7 
 4430000   0.54422219   -8.0325536     781.4488   0.01469994  0.013412217            8 
 4431000   0.54264354   -8.0312789    782.06796  0.014708267  0.013407913           15 
 4432000   0.54096666   -8.0564493    781.99911  0.014703654  0.013403612           10 
 4433000   0.54117781   -8.0187552    781.26254   0.01468649  0.013399321            5 
 4434000   0.54250178   -8.0112836      780.489   0.01466864  0.013395032            8 
 4435000   0.54222627   -8.0443355    782.56736  0.014704385  0.013390742           11 
 4436000    0.5322359   -8.0338693    780.50098  0.014662252  0.013386452           14 
 4437000   0.53125712   -8.0251705    781.02839  0.014668853  0.013382158           16 
 4438000   0.54376567   -8.0386301    780.30735  0.014652008  0.013377869           17 
 4439000   0.53636988   -8.0361126    781.97765  0.014680064  0.013373577           16 
 4440000    0.5532478   -8.0500682    781.65454  0.014670693  0.013369294           10 
 4441000   0.53261241    -8.047541    780.95512  0.014654265  0.013365008           13 
 4442000   0.53532719   -8.0333709    780.84548   0.01464891  0.013360723           22 
 4443000   0.54843358   -8.0394195    780.16289   0.01463281  0.013356435           20 
 4444000   0.54316371   -8.0558804    780.65287  0.014638705  0.013352151           12 
 4445000   0.53696332   -8.0363585    781.33929  0.014648281  0.013347871           22 
 4446000   0.52818928   -8.0316363     781.3518   0.01464522   0.01334359           11 
 4447000   0.54123889   -8.0460068    780.14463  0.014619306  0.013339312           10 
 4448000   0.53611474   -8.0293542    780.43891  0.014621532  0.013335037            6 
 4449000   0.53692981   -8.0284438    780.74542  0.014623987  0.013330763           13 
 4450000   0.55968353   -8.0399491    781.31656  0.014631396  0.013326491            6 
 4451000   0.54057034   -8.0447359     780.9626  0.014621482  0.013322222            8 
 4452000   0.54649872   -8.0526498    779.47886  0.014590425   0.01331795            9 
 4453000   0.54394302   -8.0447821     780.1571  0.014599841  0.013313677           10 
 4454000   0.53490093   -8.0420738    782.27412  0.014636172  0.013309408           15 
 4455000   0.53841474   -8.0379416    781.13272  0.014611536  0.013305138            8 
 4456000   0.54118561   -8.0556699    780.54953  0.014597351  0.013300871           15 
 4457000   0.54095739   -8.0354354    780.32483  0.014589874  0.013296603            7 
 4458000      0.53601   -8.0438391    781.42626   0.01460719  0.013292334            7 
 4459000    0.5324523   -8.0547769    780.06438  0.014578463  0.013288075            8 
 4460000   0.52048732   -8.0520506    782.50505  0.014620797  0.013283812           11 
 4461000   0.54242811   -8.0737995    779.91442  0.014569125  0.013279543           10 
 4462000   0.52890297   -8.0589792    781.39668  0.014593543  0.013275281            7 
 4463000   0.52791946   -8.0417799     781.0958  0.014584655   0.01327102           13 
 4464000    0.5295981   -8.0292889    779.39589  0.014549655  0.013266765           10 
 4465000   0.55331054   -8.0437771    781.88694  0.014592888   0.01326251           10 
 4466000   0.53140311   -8.0566061     780.6083  0.014565762  0.013258253            9 
 4467000   0.54044165   -8.0412274    780.06503  0.014552366     0.013254            7 
 4468000    0.5492926   -8.0434903      781.163  0.014569587  0.013249751            9 
 4469000   0.53022212   -8.0479455    780.11643  0.014546812  0.013245501            6 
 4470000    0.5478306   -8.0734697    780.68681  0.014554191  0.013241255           15 
 4471000   0.53654842   -8.0578754    781.00603  0.014556886  0.013237017            8 
 4472000   0.54165872   -8.0397978    781.50955  0.014563013  0.013232777           12 
 4473000   0.53715447   -8.0550279    779.34268  0.014519388  0.013228533            7 
 4474000   0.52355315   -8.0597023    780.86878  0.014544568  0.013224289           22 
 4475000   0.53802827   -8.0606066    779.71078  0.014519754  0.013220047           10 
 4476000   0.52971641   -8.0458987    781.27456  0.014545624  0.013215807           16 
 4477000    0.5375341   -8.0622676    780.77369  0.014533052  0.013211571           11 
 4478000   0.54429883   -8.0464712    780.54696  0.014525587  0.013207342           10 
 4479000   0.53460768   -8.0458691     781.1912  0.014534331  0.013203111            8 
 4480000   0.53646814   -8.0367903    780.96561   0.01452689  0.013198883            5 
 4481000   0.53312018   -8.0304284    780.51576  0.014515282  0.013194654            8 
 4482000   0.53711759    -8.056965     779.5397  0.014493896  0.013190425           12 
 4483000   0.53179338   -8.0499186    780.65255  0.014511349    0.0131862            7 
 4484000   0.53325297    -8.055953    780.68037   0.01450863   0.01318198           10 
 4485000   0.53065271   -8.0635727    781.99007   0.01452973  0.013177758            6 
 4486000   0.54178219   -8.0497823     780.1748   0.01449277  0.013173537            7 
 4487000   0.52918693   -8.0583098    779.65489  0.014479884  0.013169313           12 
 4488000   0.52923204   -8.0641188    780.61745  0.014494531  0.013165087            9 
 4489000   0.53743257   -8.0524891    781.38776  0.014505602  0.013160868            7 
 4490000    0.5372107   -8.0569274    781.02973  0.014495726  0.013156652            7 
 4491000   0.53520444   -8.0392752    779.41255  0.014462491  0.013152438           14 
 4492000   0.53465878   -8.0794637     780.7584  0.014484239  0.013148219           15 
 4493000   0.52921328   -8.0633299    780.30191  0.014472548  0.013144005           15 
 4494000   0.53100754   -8.0548635    780.55219  0.014473969  0.013139789            6 
 4495000    0.5269837   -8.0637671    780.95581  0.014478232  0.013135577           13 
 4496000   0.52662729   -8.0489578    780.36772  0.014464111   0.01313137           11 
 4497000   0.53652017   -8.0601557    782.00555  0.014491245  0.013127168            7 
 4498000   0.53417317   -8.0619822    779.60444  0.014443539  0.013122961            9 
 4499000   0.53117316   -8.0542321     780.8615  0.014463612  0.013118756            8 
 4500000   0.52981853   -8.0664648    781.58748  0.014473842  0.013114559            8 
 4501000   0.52362259   -8.0567711    780.79739  0.014455999  0.013110359            7 
 4502000   0.52631601   -8.0490683    781.20683  0.014460366   0.01310616           16 
 4503000   0.52742708   -8.0544968    780.63627  0.014446596  0.013101966           14 
 4504000   0.52263309   -8.0611616    780.78574  0.014446154  0.013097769            9 
 4505000   0.53270884   -8.0554124    781.56531  0.014457368  0.013093576           15 
 4506000   0.52555062   -8.0829854    780.93352  0.014442475  0.013089382            8 
 4507000   0.52993649   -8.0584744    781.07758  0.014441934  0.013085183           15 
 4508000   0.53323817   -8.0778473    780.36417  0.014425543  0.013080991            8 
 4509000   0.52470932   -8.0686425    779.91192  0.014413985  0.013076801           11 
 4510000   0.52917263   -8.0483385    780.24096  0.014416869  0.013072609           14 
 4511000   0.53089706    -8.064086     781.8637  0.014443651  0.013068425           13 
 4512000   0.52693668   -8.0579155    780.47396  0.014414782  0.013064239           20 
 4513000   0.52522748   -8.0575637    780.61517  0.014414195  0.013060054           11 
 4514000   0.52814922   -8.0611207    781.90198  0.014434758  0.013055868           15 
 4515000   0.53547366   -8.0716303    779.80017  0.014392768  0.013051689           14 
 4516000   0.52695725   -8.0508486    779.92116  0.014391814  0.013047507            9 
 4517000   0.52329135   -8.0715488     781.6957  0.014421366  0.013043329            8 
 4518000   0.53324275   -8.0768797    780.44509  0.014395106  0.013039155           11 
 4519000   0.53248112   -8.0613756    780.90627  0.014400425  0.013034984           11 
 4520000    0.5301968   -8.0737495    781.69403  0.014411763  0.013030815           13 
 4521000    0.5360803   -8.0738175    781.15862  0.014398706   0.01302665            5 
 4522000   0.52740075    -8.061547    780.23974  0.014378589  0.013022481           10 
 4523000   0.54583599   -8.0728938    781.28129    0.0143946  0.013018318           11 
 4524000   0.52238302   -8.0635798    781.29535  0.014391677  0.013014155           10 
 4525000   0.53637928   -8.0494174    780.22905  0.014368859  0.013009994           12 
 4526000   0.53014168   -8.0598641    780.43918  0.014369553  0.013005829           10 
 4527000   0.52364054   -8.0669147    780.61883  0.014369686  0.013001669            8 
 4528000   0.53169939   -8.0676592    780.74344  0.014368806   0.01299751            9 
 4529000   0.52495379   -8.0703527    780.23716  0.014356318  0.012993358            6 
 4530000   0.52066615   -8.0716336    780.63623   0.01436049  0.012989202            6 
 4531000   0.52428188   -8.0703116    781.36106  0.014370651  0.012985053           11 
 4532000   0.52651516   -8.0685112    781.14817  0.014363566  0.012980898            9 
 4533000   0.54385135   -8.0656789    780.58231  0.014349995  0.012976742           10 
 4534000   0.52558628   -8.0912773    778.97893   0.01431736  0.012972587           13 
 4535000   0.54333385   -8.0670532    780.43633  0.014340984  0.012968432           10 
 4536000    0.5202475   -8.0588769    780.58501  0.014340553  0.012964281           12 
 4537000   0.53035929   -8.0559209    780.61463  0.014337937  0.012960131            9 
 4538000   0.51422913   -8.0628474    779.87709  0.014321233  0.012955986           11 
 4539000   0.51498113   -8.0584521     779.4258  0.014309793  0.012951839           12 
 4540000   0.53814236   -8.0551008    780.18803  0.014320632    0.0129477           10 
 4541000   0.53048076    -8.075422    779.69209  0.014308377  0.012943561           10 
 4542000   0.52480091   -8.0749057    779.95257  0.014310006  0.012939421           11 
 4543000   0.52127499   -8.0571937    780.47193  0.014316383  0.012935281           11 
 4544000   0.52144482   -8.0641243    779.64362  0.014298042  0.012931144           11 
 4545000   0.51857118   -8.0933605    781.07951  0.014321223  0.012927012            6 
 4546000   0.52106428   -8.0696803    780.13518  0.014300762  0.012922878           15 
 4547000    0.5244968    -8.060298    780.88536  0.014311366  0.012918747           12 
 4548000   0.51837325   -8.0621401    780.37782  0.014298919  0.012914617            6 
 4549000    0.5202554   -8.0539805    781.28125  0.014312326  0.012910488            7 
 4550000   0.52197234   -8.0564258    779.59572   0.01427831  0.012906359            4 
 4551000   0.52214853   -8.0795762    779.41919   0.01427194  0.012902231           15 
 4552000   0.51865501   -8.0678143    779.94325  0.014278399  0.012898106           13 
 4553000   0.51761302    -8.061669    779.53136  0.014267724  0.012893986            9 
 4554000   0.53181703   -8.0747871    780.78103  0.014287459  0.012889862            7 
 4555000   0.51997528   -8.0736916    780.25361  0.014274673  0.012885739            7 
 4556000   0.51950562   -8.0693278    781.04077  0.014285937  0.012881619           10 
 4557000   0.52581818   -8.0638161    780.86359  0.014279562  0.012877498            5 
 4558000   0.52660615   -8.0792467    780.12171  0.014262866  0.012873385           11 
 4559000   0.52159024   -8.0734209    780.14732  0.014260205  0.012869268           13 
 4560000   0.52593926   -8.0708269    780.01147  0.014254596  0.012865153            7 
 4561000   0.51818431   -8.0851388    779.72304    0.0142462  0.012861041           16 
 4562000   0.52582368    -8.081661     780.2897  0.014253429   0.01285693           13 
 4563000    0.5171129   -8.0723123    779.78074   0.01424101  0.012852823           20 
 4564000   0.51997751    -8.072052    780.60971  0.014253026  0.012848713           13 
 4565000   0.52666964   -8.0795977    779.45554  0.014228834  0.012844608            8 
 4566000   0.54699898    -8.098348    780.45472  0.014243954  0.012840501            5 
 4567000   0.52460842   -8.0827912    779.41997  0.014221954  0.012836397           16 
 4568000    0.5204729   -8.0621195    779.73103  0.014224515  0.012832291           16 
 4569000   0.52554806   -8.0755976    780.97878   0.01424416   0.01282819           14 
 4570000   0.52117985   -8.0772139    779.06863  0.014206211   0.01282409           10 
 4571000   0.52641559   -8.0791874    779.03548  0.014202499  0.012819987            6 
 4572000   0.51474248   -8.0726078    780.30264  0.014222489  0.012815884           11 
 4573000   0.52138834   -8.0654508    779.02296   0.01419606  0.012811784            8 
 4574000   0.52427508   -8.0613229    780.58709  0.014221453  0.012807685            9 
 4575000   0.51265329   -8.0900353    779.59103  0.014200201  0.012803591           12 
 4576000    0.5140211   -8.0718766      780.479  0.014213269  0.012799497            6 
 4577000     0.515543   -8.0577989    778.29953  0.014170482  0.012795408            8 
 4578000     0.527936   -8.0791879    779.76996  0.014194152  0.012791315            5 
 4579000   0.52129101   -8.0666162    779.55349  0.014187113  0.012787225           13 
 4580000   0.51637298    -8.081037    780.01243  0.014192366  0.012783137           13 
 4581000   0.52550096    -8.099518    779.73057   0.01418414  0.012779048            8 
 4582000   0.52044152    -8.059521    779.50507  0.014176944  0.012774965           13 
 4583000   0.51774216   -8.0904304    779.68297  0.014177085  0.012770882           16 
 4584000   0.50238406   -8.0885055    779.31277  0.014167262  0.012766802           14 
 4585000   0.51525524   -8.0821479    779.02111  0.014158872   0.01276272            7 
 4586000   0.51673843   -8.0757137    780.23823  0.014177901  0.012758642           12 
 4587000   0.51494645   -8.1029217    779.06742  0.014153539  0.012754566            9 
 4588000   0.51869833   -8.0908611    779.33387  0.014155294  0.012750488           10 
 4589000   0.51564265   -8.0875983    779.56547  0.014156415  0.012746411           16 
 4590000    0.5103019   -8.0789527    780.91825  0.014177891  0.012742338           16 
 4591000   0.51441369   -8.0957259    780.56355  0.014168365  0.012738267            6 
 4592000   0.51832476   -8.0700013    779.82549  0.014151885  0.012734196            7 
 4593000   0.51723984   -8.0571578    778.75483  0.014129379  0.012730127           16 
 4594000   0.51744868   -8.0927971    779.36141  0.014137306  0.012726061           12 
 4595000   0.51667393   -8.0811956    779.18959  0.014131113  0.012721995           23 
 4596000    0.5012884   -8.0857133    779.15912  0.014127486  0.012717934           13 
 4597000   0.50410217   -8.0766177    779.35463  0.014127957  0.012713877           11 
 4598000   0.51680392   -8.1048069    778.79341  0.014114713  0.012709814           10 
 4599000   0.51491449   -8.0727093    779.51331  0.014124689   0.01270576           11 
 4600000   0.51756435   -8.0793967    781.29541  0.014153902  0.012701706            8 
 4601000   0.51478866   -8.1043421    779.03875  0.014109953  0.012697657           17 
 4602000   0.52581192   -8.0937119    780.41621  0.014131831  0.012693605            5 
 4603000   0.52084259   -8.0791799    779.51681  0.014112478  0.012689556           12 
 4604000   0.51197433   -8.0904747    779.80626  0.014114651  0.012685506           34 
 4605000   0.51266162   -8.0893953     779.6414  0.014108603  0.012681456           22 
 4606000   0.51555864   -8.0887912    779.68774  0.014106378  0.012677407           12 
 4607000   0.51502439     -8.08954    779.53949  0.014100635  0.012673362           10 
 4608000   0.50542075   -8.0857195    779.61303  0.014098905  0.012669315            6 
 4609000   0.51024224   -8.0835462    779.29492  0.014090094   0.01266527           16 
 4610000   0.50872821   -8.0737149    778.87194  0.014079392  0.012661227           11 
 4611000   0.51964031   -8.0884897    779.47027  0.014087152  0.012657186            8 
 4612000   0.51733892   -8.0878309    780.43424  0.014101515  0.012653149            7 
 4613000   0.52106312   -8.0944096    779.60976  0.014083564  0.012649117           10 
 4614000   0.51149755   -8.0812392    779.49417  0.014078424  0.012645085           17 
 4615000    0.5192536   -8.0990726     777.9243  0.014047026  0.012641048            9 
 4616000   0.50643051   -8.0776845    779.31071  0.014069012  0.012637017           11 
 4617000   0.50995018   -8.0931749    778.99052  0.014060185  0.012632982           12 
 4618000   0.50862311   -8.0941003    778.05338   0.01404023  0.012628947            6 
 4619000   0.52481612   -8.0838077    780.13801    0.0140748  0.012624918            8 
 4620000   0.52404624   -8.0810301    778.07222  0.014034492  0.012620887            8 
 4621000   0.51170238   -8.0635718    779.39849  0.014055372  0.012616861            7 
 4622000   0.50844694    -8.096764    779.70278  0.014057817  0.012612833            9 
 4623000    0.5073498   -8.0882464    779.36366  0.014048664  0.012608808            6 
 4624000   0.50880275   -8.0620557    779.77948  0.014053119  0.012604785           12 
 4625000   0.50663589   -8.0717769    779.31984  0.014041799  0.012600767            7 
 4626000   0.50975819   -8.0748981    780.12472  0.014053263   0.01259675           17 
 4627000    0.5183233   -8.0865075    780.24308  0.014052357  0.012592736           12 
 4628000   0.50802604   -8.0830084    780.07143   0.01404623  0.012588719            7 
 4629000   0.50590581   -8.0553714    781.27323  0.014064831  0.012584704           11 
 4630000   0.50627132   -8.0724588    779.44618  0.014028909  0.012580694            9 
 4631000   0.52759897   -8.0914796    779.45633  0.014026062  0.012576681           11 
 4632000   0.52040292   -8.0753813    779.54057   0.01402455  0.012572669            8 
 4633000   0.51332518   -8.0947733     779.1185  0.014013931  0.012568664           14 
 4634000   0.50418162   -8.0884431    779.19798  0.014012336  0.012564653            5 
 4635000   0.51165936   -8.1076113    780.17291  0.014026841   0.01256065           15 
 4636000   0.50542396   -8.0799667    779.97677   0.01402029  0.012556644            9 
 4637000   0.51234776   -8.0889365    779.75793  0.014013334  0.012552641           10 
 4638000   0.50054347   -8.1084521    778.12857  0.013981036  0.012548638            9 
 4639000   0.51880771   -8.0835553    780.12111  0.014013816  0.012544634           10 
 4640000   0.51737116   -8.0701048    778.67437  0.013984813  0.012540634            9 
 4641000    0.5090939   -8.0900926    778.32308  0.013975492  0.012536635           11 
 4642000   0.50060834    -8.087067    779.36579    0.0139912  0.012532639            8 
 4643000   0.50693813   -8.0965856    778.75405  0.013977207   0.01252864            6 
 4644000   0.50235217   -8.0789636    779.44282  0.013986556  0.012524643           14 
 4645000   0.50595515   -8.0962396    780.10663  0.013995454  0.012520654            7 
 4646000    0.5152628   -8.0933194    779.31698  0.013978278  0.012516667            5 
 4647000   0.51600387   -8.0776868    778.91707  0.013968099  0.012512678            6 
 4648000   0.51904771   -8.0911707     779.0598  0.013967653  0.012508692            8 
 4649000   0.50338479   -8.0931706    780.18708  0.013984855  0.012504708           14 
 4650000   0.50520152   -8.1005151    779.25354  0.013965117  0.012500723           11 
 4651000   0.51027129   -8.0966292    779.13245  0.013959945  0.012496741            8 
 4652000    0.5042811   -8.0839037    779.45819  0.013962779  0.012492763            9 
 4653000    0.5107493   -8.0992003    779.86997  0.013967153  0.012488782            7 
 4654000   0.50056642   -8.0925515    778.94996  0.013947679  0.012484806           13 
 4655000   0.50225832   -8.0952913    779.95251   0.01396263  0.012480826            9 
 4656000   0.49900752   -8.1112325    779.29464  0.013947857   0.01247685            9 
 4657000   0.50489494   -8.0932478    777.94721   0.01392075  0.012472873            5 
 4658000   0.50831441   -8.0994487     779.6791  0.013948746  0.012468894            7 
 4659000   0.49781222   -8.0874774    779.74195  0.013946876  0.012464922            8 
 4660000   0.51058197   -8.0874903    778.87651  0.013928407   0.01246096           13 
 4661000   0.51492913   -8.0933011    778.00826  0.013909895  0.012456997           11 
 4662000   0.51279751   -8.1102919    779.39965  0.013931783  0.012453031           11 
 4663000    0.5042549   -8.0967609    778.80968  0.013918251   0.01244907            9 
 4664000   0.50734638    -8.088084    779.18906  0.013922046  0.012445107            8 
 4665000   0.50426079   -8.0684159    778.91767  0.013914213  0.012441148            9 
 4666000   0.51798333   -8.1034223    779.63348  0.013924015  0.012437192           11 
 4667000   0.50336202   -8.1044831    779.02735  0.013910209  0.012433236           13 
 4668000   0.51225435   -8.1024843    778.07114  0.013890159  0.012429283           10 
 4669000   0.50669514    -8.091209    778.74915  0.013899285  0.012425325            7 
 4670000    0.5069217   -8.1149312    778.98956  0.013900599  0.012421371           24 
 4671000   0.50779822   -8.0856452    779.86043   0.01391316  0.012417422            9 
 4672000    0.5043782   -8.0982203    779.38028  0.013901618  0.012413474            9 
 4673000   0.51596025   -8.0973872    778.55121  0.013883858  0.012409523            9 
 4674000   0.50249514   -8.1240722     778.0667  0.013872249  0.012405573           11 
 4675000   0.52020516   -8.1124698    778.36237  0.013874552  0.012401625           10 
 4676000   0.50782828   -8.1087236    779.43627  0.013890723  0.012397678           10 
 4677000   0.50253733   -8.0840864    777.57723   0.01385463  0.012393732           13 
 4678000   0.50133478   -8.0899235    779.12576  0.013879253  0.012389794            9 
 4679000   0.49724142   -8.0856513    777.76457  0.013852044  0.012385852            7 
 4680000    0.5071597   -8.1106038    779.06726   0.01387228  0.012381916           17 
 4681000   0.50242131   -8.1045916    778.32205   0.01385605  0.012377975            6 
 4682000   0.49712844    -8.105026    779.10049  0.013866946  0.012374039            7 
 4683000   0.49882759   -8.1213907    780.20886  0.013883708  0.012370106            9 
 4684000   0.49785198   -8.1095091    777.93988  0.013840377  0.012366172            9 
 4685000   0.50345551   -8.0995602    777.81216  0.013835151  0.012362238            7 
 4686000   0.50161265   -8.1064551    778.36187  0.013841974  0.012358306            6 
 4687000   0.50264731   -8.0929229    779.17966  0.013853561  0.012354373            9 
 4688000   0.49622389   -8.1106938    778.45409  0.013837708   0.01235044           10 
 4689000   0.49799597   -8.0855476    778.95461  0.013843652  0.012346509            6 
 4690000   0.48833393   -8.1112337    778.54682  0.013833455   0.01234258           10 
 4691000   0.51325751   -8.1044177    778.87949  0.013836415  0.012338652            8 
 4692000   0.49308772   -8.0885038     778.9918  0.013835461  0.012334727            9 
 4693000   0.49962818   -8.1270578      777.889  0.013812931  0.012330803            5 
 4694000    0.5008283    -8.111268    780.13007  0.013849774  0.012326881            9 
 4695000   0.50160611   -8.1058985    778.06499   0.01381017  0.012322965            8 
 4696000   0.49373032   -8.0942062    780.19781  0.013845078  0.012319049            6 
 4697000   0.49193382   -8.1158402    779.16925  0.013823881  0.012315136           11 
 4698000   0.50257105    -8.117865    778.31584  0.013805801  0.012311222           10 
 4699000   0.48790203   -8.1006119    778.47271  0.013805645  0.012307307            9 
 4700000   0.49927756   -8.1022277    779.37119  0.013818638  0.012303398            4 
 4701000   0.50956763   -8.0995353     777.9597  0.013790677  0.012299488           12 
 4702000   0.50433049   -8.0813658     778.5573  0.013798336  0.012295582            7 
 4703000    0.4972203   -8.1094866    777.69122  0.013780056  0.012291672           10 
 4704000    0.4992899    -8.096341    779.37891  0.013807024   0.01228777           11 
 4705000   0.50476302   -8.0800274    778.43499  0.013787371  0.012283868           11 
 4706000   0.50296098   -8.1022888    778.67972  0.013788775  0.012279963            6 
 4707000    0.4918077   -8.1145208    779.68997  0.013803731  0.012276063            9 
 4708000   0.49648495   -8.1169482    778.13187  0.013773221  0.012272162            8 
 4709000   0.49752253   -8.0993461    778.49384  0.013776701  0.012268264            9 
 4710000   0.49631646   -8.1114164    778.72685  0.013777899  0.012264365            8 
 4711000   0.50167943   -8.1003437    777.49824  0.013753241  0.012260471            8 
 4712000   0.49685467   -8.1308888    777.70815  0.013754035  0.012256575            7 
 4713000   0.49950894   -8.1134003    779.21786  0.013777811  0.012252679            9 
 4714000   0.51294869   -8.1033761    778.30353  0.013758724  0.012248785            6 
 4715000   0.49525085   -8.1214459     777.5968  0.013743316  0.012244896            6 
 4716000   0.49649539   -8.1163271    777.74177  0.013742963  0.012241008           11 
 4717000   0.49508096   -8.1135989    779.94382  0.013778952  0.012237126            7 
 4718000   0.49585771   -8.1102627    777.89704   0.01373988  0.012233243           20 
 4719000   0.50187658   -8.1177754    780.35137   0.01378031  0.012229359           11 
 4720000    0.4997636   -8.1297949    778.78467  0.013749729  0.012225479            7 
 4721000   0.49611499   -8.1472178    778.58512  0.013743295    0.0122216           12 
 4722000   0.49334592   -8.1095669    779.11928  0.013749811  0.012217719            8 
 4723000   0.50534426   -8.1125693    778.79624    0.0137412  0.012213843            9 
 4724000   0.49304798    -8.112376     779.1026  0.013743695  0.012209966           13 
 4725000   0.48735584   -8.1147604    778.57939  0.013731559  0.012206088            6 
 4726000     0.497614   -8.1233511    777.60425  0.013711459  0.012202213           10 
 4727000   0.49469739   -8.1130082    778.45926  0.013723631  0.012198338           10 
 4728000   0.50495636   -8.1209761    777.89397  0.013710765  0.012194465            8 
 4729000   0.49388133   -8.1335419     778.2008  0.013713273  0.012190592            6 
 4730000   0.49163474   -8.1236197    777.63099  0.013700335  0.012186721            8 
 4731000   0.50572037    -8.120905    778.94927  0.013720659  0.012182853            6 
 4732000    0.4944778   -8.1247542    778.72948  0.013713889  0.012178988            7 
 4733000   0.48948524   -8.1280685    777.69614  0.013692798  0.012175123            5 
 4734000   0.47837344   -8.1179224    779.24558   0.01371718  0.012171257            3 
 4735000   0.48357092   -8.1289667    778.25397  0.013696832  0.012167392            5 
 4736000   0.49418427   -8.1043517     778.3165   0.01369504   0.01216353            8 
 4737000   0.49416991   -8.1088162    778.33778  0.013692523  0.012159673            7 
 4738000   0.49473737   -8.1120802    777.07445  0.013667413  0.012155816            5 
 4739000   0.49179831    -8.123526     777.9741  0.013680349  0.012151961            8 
 4740000   0.49020438   -8.1168864    779.46437  0.013703663  0.012148105            5 
 4741000   0.50244591   -8.1157385    778.18857  0.013678348  0.012144252            4 
 4742000   0.48652627   -8.1248871    778.91333    0.0136882    0.0121404           12 
 4743000   0.50094061   -8.1194213    779.00963  0.013687006  0.012136549            3 
 4744000   0.49530726   -8.1158623    777.54645  0.013658419  0.012132702            9 
 4745000   0.48782149   -8.1209301    778.18101  0.013666684  0.012128856            7 
 4746000   0.48009168   -8.1173283    778.64715   0.01367199  0.012125012            6 
 4747000   0.49529113   -8.1054965    778.77019  0.013671269   0.01212117            5 
 4748000   0.48547853   -8.1332609    778.41612  0.013662176  0.012117328            6 
 4749000   0.48726245   -8.0931861    778.33449  0.013657866  0.012113489            4 
 4750000   0.49486041   -8.1033814    779.18987  0.013669998  0.012109651           12 
 4751000   0.49426962   -8.1232096    779.27089  0.013668542  0.012105817            9 
 4752000   0.49150587   -8.1385843     777.9156  0.013641898  0.012101981            6 
 4753000   0.49458474   -8.1226437    779.08785  0.013659581  0.012098143            4 
 4754000    0.4925372   -8.1105681     778.7774  0.013651266  0.012094311            7 
 4755000   0.48450502   -8.1193473    778.31165  0.013640232  0.012090474            6 
 4756000    0.4879019   -8.1363358    778.98824  0.013649219  0.012086639            7 
 4757000   0.48056086   -8.1397193    777.67643   0.01362337  0.012082807            8 
 4758000    0.4917731   -8.1147032    777.81312    0.0136229  0.012078972            6 
 4759000   0.49486742    -8.112358    777.82626  0.013620268   0.01207514            8 
 4760000   0.49196283   -8.1257652    777.57562  0.013613019  0.012071313            7 
 4761000   0.48516345   -8.1086466    778.08461  0.013619068  0.012067488            4 
 4762000   0.48895926   -8.1237367    778.17223  0.013617742  0.012063666            7 
 4763000    0.4886426   -8.1173167    778.20385  0.013615436  0.012059845            8 
 4764000   0.48241019   -8.0933214    777.33189  0.013597325  0.012056024            8 
 4765000   0.49181138   -8.1311972     777.6813  0.013600582  0.012052204           10 
 4766000   0.50328627   -8.1261701    777.27384  0.013590604  0.012048384            9 
 4767000   0.48795176   -8.1219739    777.76618   0.01359636  0.012044568            4 
 4768000   0.49276502   -8.1259413    778.60876  0.013608235  0.012040756            8 
 4769000   0.48744079   -8.1273718    777.78092  0.013590916  0.012036942            6 
 4770000   0.48864413   -8.1091284    778.42027  0.013599236  0.012033132           13 
 4771000     0.496741   -8.1302339    777.70292  0.013583856  0.012029321            8 
 4772000   0.48156816   -8.1131849    777.94886  0.013585304  0.012025508            8 
 4773000   0.47790987   -8.1284378    777.55811  0.013575636    0.0120217            8 
 4774000   0.49268184   -8.1352017    778.06868  0.013581704  0.012017891           12 
 4775000   0.49949278   -8.1261216    778.48844  0.013586186  0.012014088            4 
 4776000   0.48649592   -8.1349768    777.53334  0.013566676  0.012010284            7 
 4777000   0.48614507   -8.1297624    778.85384  0.013586872  0.012006482            7 
 4778000    0.4799771    -8.121094    778.21692   0.01357292  0.012002682            6 
 4779000   0.49111546   -8.1244951    776.58554  0.013541633  0.011998884            5 
 4780000   0.49627684   -8.1239977    778.56626  0.013573331  0.011995088           13 
 4781000   0.48390933   -8.1292041    777.42059  0.013550523  0.011991292            8 
 4782000   0.48591329   -8.1226007    778.35663  0.013564001  0.011987498           15 
 4783000   0.49115541   -8.1189356    777.29263  0.013542627  0.011983706            6 
 4784000   0.48768494   -8.1204546    777.45292  0.013542589  0.011979916            6 
 4785000   0.49163559    -8.117468    779.56528  0.013576546  0.011976129            7 
 4786000   0.48430891   -8.1097903    777.44837   0.01353685  0.011972342            5 
 4787000   0.49865917   -8.1167155    777.97168  0.013543132  0.011968554            5 
 4788000   0.47336188   -8.1266695    778.66234  0.013552324  0.011964769            7 
 4789000   0.47556602    -8.134701    777.76412  0.013533864  0.011960985            5 
 4790000   0.49020283   -8.1389938    777.55666   0.01352743  0.011957199            4 
 4791000   0.49171064   -8.1200267    778.09317  0.013533938  0.011953416            7 
 4792000   0.48318663   -8.1119368    777.79268  0.013525888  0.011949632            5 
 4793000   0.47810784   -8.1441241    777.16683  0.013512185  0.011945853            5 
 4794000   0.47951953   -8.1284933    777.92751  0.013522589  0.011942072           16 
 4795000   0.47977798   -8.1270336    777.02684  0.013504116  0.011938294            8 
 4796000   0.49267633   -8.1221758     778.2021  0.013521721  0.011934521            7 
 4797000   0.47904808    -8.122719    777.92656  0.013514116  0.011930748            5 
 4798000   0.48791781    -8.116832    777.62938  0.013506138  0.011926978            8 
 4799000   0.48311822   -8.1297316    778.24174  0.013513957  0.011923207            8 
 4800000   0.47807614    -8.127974    778.21126  0.013510612  0.011919442           10 
 4801000   0.48248185   -8.1320188    778.79232  0.013517884  0.011915678           14 
 4802000   0.48878245   -8.1341421    777.90315  0.013499638  0.011911917            5 
 4803000   0.47981743   -8.1424436    776.78206  0.013477376   0.01190815            6 
 4804000   0.48166129   -8.1232887    777.27865  0.013483185  0.011904387            4 
 4805000   0.47627417   -8.1361535    776.97185  0.013475058  0.011900624            6 
 4806000   0.49294779   -8.1339478    779.85231    0.0135222  0.011896864            6 
 4807000     0.487791   -8.1401555    776.93904  0.013468883  0.011893105            7 
 4808000   0.48485326   -8.1331806    777.78464  0.013480738  0.011889347            4 
 4809000   0.48003724   -8.1319308    778.14149  0.013484118  0.011885593            6 
 4810000   0.48320953    -8.124245    777.17169  0.013464513  0.011881842            7 
 4811000   0.47336729   -8.1388298    778.10648  0.013477906   0.01187809           11 
 4812000   0.48021595   -8.1380985    778.51658  0.013482207   0.01187434           10 
 4813000   0.48727005   -8.1281166    778.13895  0.013472868  0.011870586           10 
 4814000   0.48367126   -8.1281254    777.40603  0.013457382  0.011866839            5 
 4815000   0.47958616    -8.128437    776.60466  0.013440718   0.01186309            5 
 4816000   0.48344759   -8.1185297    776.70482   0.01343966  0.011859346            7 
 4817000   0.48136432    -8.120287      777.822  0.013456197  0.011855603            7 
 4818000   0.47105842   -8.1326958    776.25272  0.013426261  0.011851863            6 
 4819000   0.47775261    -8.124616    778.73678  0.013466431  0.011848127            4 
 4820000   0.49053196   -8.1141304    777.34101  0.013439506  0.011844389            6 
 4821000   0.46598906   -8.1323915    778.61409  0.013458724  0.011840656            8 
 4822000   0.48094087   -8.1430889    777.75708  0.013441122  0.011836919            7 
 4823000   0.46788054   -8.1327206    778.00158   0.01344256  0.011833183            6 
 4824000   0.47077582   -8.1272436    775.61861  0.013398608  0.011829446            5 
 4825000   0.47158857   -8.1291749    778.45179  0.013444763  0.011825709            9 
 4826000   0.47743197   -8.1322146    777.11928  0.013418968  0.011821975            4 
 4827000   0.48317283   -8.1339416    778.56784  0.013441196  0.011818248            7 
 4828000   0.47735209   -8.1384124    777.31178  0.013416732   0.01181452            7 
 4829000   0.47692394   -8.1426398    777.03087  0.013409106  0.011810793            7 
 4830000   0.47668182   -8.1495499    777.80765  0.013419732  0.011807067            6 
 4831000   0.48020921   -8.1112205    776.16663  0.013388647  0.011803344            6 
 4832000    0.4929482   -8.1327384    777.05342   0.01340117  0.011799624            7 
 4833000   0.47409664   -8.1450145    778.37043  0.013421105  0.011795902            9 
 4834000   0.46823964   -8.1366209    776.43653  0.013384991   0.01179218            7 
 4835000    0.4808578   -8.1425552    777.07189  0.013393173  0.011788462            9 
 4836000   0.48339061   -8.1561209    778.15892  0.013409135   0.01178474            9 
 4837000   0.47601345   -8.1362973    777.13639  0.013388746  0.011781023            6 
 4838000    0.4855989   -8.1381027    777.86689  0.013398562  0.011777305            6 
 4839000   0.46726386   -8.1372739    777.84114  0.013395349  0.011773589            8 
 4840000   0.48012471   -8.1374178    776.67524  0.013372508  0.011769876           10 
 4841000   0.47244775   -8.1393935    777.37111  0.013381724  0.011766163           11 
 4842000   0.48157544   -8.1410116    777.61742  0.013383199  0.011762451           12 
 4843000   0.47009581   -8.1244754    777.27688  0.013374576  0.011758741            5 
 4844000    0.4758827   -8.1433457    778.26765   0.01338886  0.011755032            9 
 4845000   0.47458281   -8.1224831    776.46894  0.013355159  0.011751323            7 
 4846000   0.47712646   -8.1371103    777.56938  0.013371327  0.011747618            5 
 4847000   0.46870203   -8.1139825    777.55662  0.013368349  0.011743918           11 
 4848000   0.48178343    -8.144004    778.29506  0.013378284  0.011740219            8 
 4849000   0.48704367   -8.1427849    777.69732  0.013365253  0.011736517           10 
 4850000   0.47201827   -8.1379791    778.06988  0.013368898  0.011732818            5 
 4851000   0.46704763   -8.1437919    776.58026  0.013340553  0.011729122            8 
 4852000   0.47604947   -8.1563992    777.74796  0.013357859  0.011725424           10 
 4853000   0.47445496   -8.1557521    777.39991   0.01334913  0.011721731            7 
 4854000   0.47759254   -8.1564388    777.18655  0.013342716  0.011718034            6 
 4855000   0.47111309   -8.1489708    777.72713  0.013349247  0.011714342            9 
 4856000   0.47569771   -8.1628146    777.47064  0.013342096  0.011710649            7 
 4857000   0.47907899   -8.1419998    776.62612   0.01332486  0.011706956            6 
 4858000    0.4774912   -8.1536607    777.25438  0.013332894  0.011703267            6 
 4859000   0.47530188   -8.1422155    776.99958   0.01332578   0.01169958            6 
 4860000   0.46910692   -8.1459876    776.60289  0.013316236  0.011695895           13 
 4861000   0.47756495   -8.1243805    777.04841  0.013321134  0.011692209            8 
 4862000   0.48231408   -8.1492074    777.32014  0.013323052  0.011688523            5 
 4863000   0.46936247   -8.1293016    776.83939  0.013312074  0.011684842           13 
 4864000   0.47002546   -8.1468302    777.83289  0.013326358  0.011681159            4 
 4865000   0.47276902    -8.138483    776.39168  0.013298933  0.011677478            5 
 4866000   0.47197917   -8.1295775    777.28956  0.013311576  0.011673796            6 
 4867000   0.46311343   -8.1495215    776.74675  0.013299547  0.011670119            5 
 4868000   0.47440483   -8.1499408    776.44304  0.013291616  0.011666439            7 
 4869000   0.47273148   -8.1515589    777.89168   0.01331368  0.011662767            6 
 4870000    0.4807981   -8.1485265    776.73487  0.013291151  0.011659092            7 
 4871000   0.46424395   -8.1520434    777.10381  0.013294734  0.011655419            7 
 4872000   0.47157786    -8.141864    776.54896  0.013282515  0.011651748            6 
 4873000   0.46515248    -8.149446    776.84856  0.013284913  0.011648078            6 
 4874000   0.47187484   -8.1394201     777.5764  0.013294631  0.011644411            4 
 4875000   0.46578531   -8.1728275    777.32559  0.013287617  0.011640742           14 
 4876000   0.47038746   -8.1547847    776.25481  0.013266592  0.011637077            9 
 4877000   0.46706536   -8.1551088    776.75632  0.013272441  0.011633415            6 
 4878000   0.47357789   -8.1492785    775.47203   0.01324778  0.011629755            9 
 4879000   0.47593403   -8.1432101    777.70895  0.013283271  0.011626094           10 
 4880000   0.46921529   -8.1535251    776.68946   0.01326314  0.011622436            6 
 4881000   0.47661569   -8.1570227    776.83626  0.013262929  0.011618778            6 
 4882000   0.47471556   -8.1309306    776.81437  0.013259838   0.01161512            7 
 4883000   0.46161964   -8.1469997    777.90202  0.013275685  0.011611463            6 
 4884000   0.47743014   -8.1424253     777.3857  0.013264157  0.011607807            6 
 4885000   0.47653469   -8.1607719    776.03792   0.01323845  0.011604151            8 
 4886000    0.4579939   -8.1385377    777.58312  0.013262094  0.011600498            5 
 4887000   0.46991428   -8.1432968    776.75732  0.013245299  0.011596846            6 
 4888000   0.46947297   -8.1631035    776.98849   0.01324653  0.011593199            9 
 4889000   0.47261526   -8.1556249    777.37111  0.013250343  0.011589549            9 
 4890000   0.46206769   -8.1309216     776.1476  0.013226783  0.011585904            6 
 4891000   0.47870164    -8.147173    776.73537  0.013234093  0.011582262            9 
 4892000   0.47073317   -8.1563584    776.91976  0.013234528  0.011578621            6 
 4893000   0.46057658   -8.1423367    776.38755   0.01322276  0.011574984            8 
 4894000   0.47718462    -8.162028    776.95482  0.013229717  0.011571342           12 
 4895000   0.46703645   -8.1650418    776.79816  0.013224347  0.011567701           10 
 4896000   0.46537858   -8.1592815    776.40214  0.013214906  0.011564063           10 
 4897000   0.46271134   -8.1598022    776.78616  0.013218742  0.011560425           11 
 4898000   0.45860464    -8.149627    776.90176   0.01321801  0.011556787            5 
 4899000   0.46729266   -8.1625865    776.76414  0.013212971  0.011553154            9 
 4900000   0.47292092   -8.1649196    777.49098  0.013222636  0.011549523            5 
 4901000   0.46052215   -8.1396168    776.07892  0.013195928   0.01154589            5 
 4902000   0.46157419   -8.1465958    777.61249  0.013219307   0.01154226            5 
 4903000   0.46025822   -8.1606408    776.73598  0.013201713  0.011538632            8 
 4904000   0.45940822   -8.1627419    776.16881  0.013189383  0.011535003            6 
 4905000   0.47182716   -8.1555613    776.36304  0.013189994  0.011531376           10 
 4906000    0.4585102   -8.1614623    776.59986  0.013191328  0.011527752            6 
 4907000   0.46895711   -8.1716645    776.25591  0.013182799  0.011524129            5 
 4908000   0.46346518   -8.1390406    776.31463   0.01318111  0.011520504            8 
 4909000   0.47307666   -8.1544579    776.52897  0.013182063  0.011516885           11 
 4910000   0.46455905   -8.1539079    778.23911  0.013208403  0.011513265            6 
 4911000   0.46696306   -8.1561466    776.48146  0.013175888  0.011509645            4 
 4912000   0.46297823   -8.1645365    776.73541  0.013177514   0.01150603            5 
 4913000   0.46676787   -8.1511168      776.162  0.013165106  0.011502414            7 
 4914000   0.45528009   -8.1674465    776.18329  0.013162788  0.011498803            7 
 4915000   0.47166109   -8.1645805    777.09994  0.013175652  0.011495192            8 
 4916000   0.46506108   -8.1682189     776.5364  0.013163419  0.011491583            9 
 4917000   0.46977663   -8.1561781    776.49958  0.013160118  0.011487972            8 
 4918000   0.46895063   -8.1582862    776.89483  0.013164139  0.011484365            6 
 4919000   0.46705465   -8.1475774    776.43063  0.013153599  0.011480756            9 
 4920000   0.46482916   -8.1548995    777.05241  0.013161457  0.011477149            8 
 4921000    0.4742381   -8.1676848    775.69089  0.013135726  0.011473547            8 
 4922000   0.45734854   -8.1579194    776.40501  0.013145148  0.011469944            7 
 4923000   0.46681882   -8.1595231    775.22312  0.013122471  0.011466347            8 
 4924000   0.45940035   -8.1638121    776.06306  0.013134021  0.011462748           14 
 4925000   0.46137148   -8.1660624    776.16065  0.013133006  0.011459149            6 
 4926000   0.45738217   -8.1731583    775.80332  0.013124295  0.011455553            9 
 4927000    0.4738969   -8.1610264    776.37073  0.013131228  0.011451958            3 
 4928000   0.45282725   -8.1743233     777.1333  0.013141459  0.011448366            6 
 4929000   0.45514581   -8.1714972    777.28781  0.013141405  0.011444775            6 
 4930000    0.4511639    -8.156551    776.95906  0.013133182  0.011441185            7 
 4931000   0.46381548    -8.165549    777.63925  0.013142014  0.011437598            6 
 4932000   0.45963072   -8.1738559    776.01273  0.013111867  0.011434011            4 
 4933000   0.46599937   -8.1463498    776.34455  0.013114814  0.011430426            6 
 4934000   0.45494566   -8.1660803    777.57707  0.013132973  0.011426841           11 
 4935000    0.4621236   -8.1629501    777.33255  0.013126183   0.01142326            5 
 4936000   0.46842825   -8.1591988    776.60944  0.013111315  0.011419681            6 
 4937000   0.46001448   -8.1388838    778.17493  0.013135084  0.011416102            4 
 4938000    0.4687053   -8.1526913    776.54159   0.01310486  0.011412524            5 
 4939000   0.46376224    -8.161837    776.69842  0.013104853  0.011408945           12 
 4940000    0.4611179   -8.1480497    775.63588  0.013084276  0.011405366           14 
 4941000   0.46261866   -8.1560846    776.28462  0.013092569   0.01140179           11 
 4942000   0.45692642   -8.1611979    776.30069  0.013090191  0.011398216            6 
 4943000   0.45558192   -8.1648067    775.43443  0.013072939  0.011394645            6 
 4944000   0.45926041   -8.1652304    777.23712   0.01310068  0.011391071            6 
 4945000   0.46257622   -8.1667555    776.42778  0.013084391  0.011387501            9 
 4946000   0.45967561   -8.1604031    777.06224  0.013092436   0.01138393           13 
 4947000   0.46323806   -8.1675015      776.311  0.013077134  0.011380362            5 
 4948000   0.45379186   -8.1789904    775.66323  0.013063582  0.011376792            6 
 4949000     0.450041    -8.167543     776.8988  0.013081747  0.011373224            6 
 4950000   0.46745031   -8.1648424    775.35284  0.013053078  0.011369653            6 
 4951000   0.44819059   -8.1640861    777.34808  0.013084025  0.011366087            6 
 4952000     0.442497   -8.1770548    775.54797   0.01305109  0.011362524            9 
 4953000    0.4562749   -8.1738023    776.15967  0.013058747  0.011358958            5 
 4954000   0.45982762   -8.1606716    776.97889  0.013069891  0.011355398           10 
 4955000   0.45330138   -8.1690361    776.21352  0.013054381  0.011351839            6 
 4956000    0.4606712   -8.1698951    775.68055  0.013042786  0.011348281            4 
 4957000   0.44931455   -8.1719022    777.38635  0.013068831  0.011344723            5 
 4958000   0.45626943   -8.1836503    776.16364  0.013045644   0.01134117            4 
 4959000   0.45498134   -8.1684341     775.9644  0.013039665  0.011337613            5 
 4960000   0.46354618   -8.1826496    775.80303  0.013034325  0.011334063           11 
 4961000   0.46752751   -8.1843788    776.20725  0.013038488  0.011330511            7 
 4962000   0.45235074   -8.1776332    775.67323  0.013026892  0.011326961            7 
 4963000   0.45730912   -8.1851491    775.57205  0.013022568  0.011323408            7 
 4964000   0.46785769   -8.1810436    775.74719  0.013022885  0.011319861            5 
 4965000     0.458704   -8.1729764    776.49081  0.013032743  0.011316313           12 
 4966000   0.46472183   -8.1731011    776.03336  0.013022442  0.011312764            8 
 4967000   0.45536884    -8.174196    777.45009  0.013043589  0.011309223            6 
 4968000   0.45428366   -8.1740254    777.39584  0.013040054  0.011305679           10 
 4969000   0.45292291   -8.1598883    775.78902  0.013010482   0.01130214            7 
 4970000   0.45535135   -8.1641714    776.40538  0.013018199  0.011298601            7 
 4971000    0.4628603   -8.1534924    776.61783  0.013019142  0.011295065           10 
 4972000    0.4588346   -8.1845549    776.47726  0.013014167   0.01129153            6 
 4973000    0.4581066   -8.1680569    775.90807  0.013002012  0.011287998            5 
 4974000   0.45903667    -8.173436    775.02006   0.01298452  0.011284463            8 
 4975000   0.46365787   -8.1703366    776.64906  0.013009197  0.011280933            6 
 4976000   0.45208164    -8.181056    776.45758  0.013003376  0.011277402            9 
 4977000    0.4629819    -8.163331     775.5998  0.012986401  0.011273873            6 
 4978000   0.44470288   -8.1537448    775.56262   0.01298317  0.011270344            8 
 4979000   0.46292185   -8.1772817    776.06092  0.012988902  0.011266816            8 
 4980000   0.45266877   -8.1726881    775.65758  0.012979545   0.01126329            6 
 4981000    0.4671995   -8.1736167    775.62245  0.012976351  0.011259762            8 
 4982000   0.45161864    -8.176839     775.5458  0.012972464  0.011256236            9 
 4983000   0.45296718   -8.1635626    776.20641  0.012980909   0.01125271            7 
 4984000   0.46501592   -8.1641654    776.01779   0.01297515  0.011249188            7 
 4985000   0.45053072   -8.1841229    775.49426  0.012963796  0.011245668            6 
 4986000   0.44882012   -8.1682635    775.94613  0.012968748  0.011242148            4 
 4987000   0.44454044   -8.1789479    775.72777  0.012962499   0.01123863            6 
 4988000   0.45324134   -8.1859706    776.41459  0.012971374  0.011235113            6 
 4989000   0.44347266    -8.166262    776.02667  0.012962295  0.011231596            5 
 4990000   0.45130315   -8.1823892    775.33223    0.0129481  0.011228081            6 
 4991000   0.45701982   -8.1795828      775.488  0.012948107  0.011224566            5 
 4992000   0.44764951   -8.1747669    775.17818  0.012940341  0.011221054            4 
 4993000   0.45218721   -8.1788552     775.3465  0.012940558  0.011217542            6 
 4994000   0.44606278   -8.1812075    775.88093  0.012946885  0.011214031            7 
 4995000   0.45628807   -8.1649943    775.51651  0.012938213  0.011210523            5 
 4996000   0.45196135   -8.1810723    774.48239  0.012918375  0.011207017            3 
 4997000   0.44897702    -8.167893    774.71001  0.012919585  0.011203511            9 
 4998000   0.44691673   -8.1709267    775.66632  0.012932945  0.011200004            6 
 4999000    0.4460044   -8.1793961    776.57042  0.012945429  0.011196499            4 
 5000000   0.44692384   -8.1841002    775.40583   0.01292343     0.011193            3 
 5001000   0.45523111   -8.1815845    775.01905  0.012914401  0.011189502            4 
 5002000   0.44689444   -8.1725105    775.29725  0.012916454  0.011186003            4 
 5003000    0.4615533   -8.1735649    775.29526  0.012913839  0.011182506           12 
 5004000   0.43613156   -8.1702906    776.25962  0.012927318  0.011179011            6 
 5005000   0.45093732   -8.1897204    775.10408  0.012905496  0.011175515            6 
 5006000   0.45756539   -8.1762751    775.51579  0.012909771  0.011172023            7 
 5007000   0.45114428   -8.1805177    775.66512  0.012909679  0.011168528           10 
 5008000   0.44253783    -8.179177    775.79446  0.012909253  0.011165036            8 
 5009000    0.4574597   -8.1828142    775.70297  0.012905153   0.01116155            9 
 5010000   0.44512241   -8.1819703    774.77393  0.012887125  0.011158062           12 
 5011000   0.45084638   -8.1881001     775.5008  0.012896641  0.011154578           12 
 5012000   0.44796767   -8.1808212    775.26165  0.012890091  0.011151094            4 
Loop time of 11655.2 on 48 procs for 5000000 steps with 4000 atoms

Performance: 74130.237 tau/day, 428.994 timesteps/s
99.4% CPU use with 48 MPI tasks x no OpenMP threads

MPI task timing breakdown:
Section |  min time  |  avg time  |  max time  |%varavg| %total
---------------------------------------------------------------
Pair    | 726.28     | 752.69     | 800.11     |  62.0 |  6.46
Neigh   | 73.539     | 75.751     | 78.633     |  13.5 |  0.65
Comm    | 674.94     | 735.42     | 774.98     |  79.4 |  6.31
Output  | 14.498     | 14.502     | 14.592     |   0.3 |  0.12
Modify  | 9920.7     | 9959.3     | 10002      |  18.1 | 85.45
Other   |            | 117.5      |            |       |  1.01

Nlocal:        83.3333 ave          91 max          78 min
Histogram: 7 1 6 12 5 5 9 1 1 1
Nghost:        1919.06 ave        1940 max        1889 min
Histogram: 1 0 3 6 6 9 7 5 9 2
Neighs:        12078.3 ave       13283 max       10443 min
Histogram: 2 1 2 1 8 10 10 6 6 2
FullNghs:      24156.7 ave       26627 max       22267 min
Histogram: 4 5 7 4 10 5 6 5 1 1

Total # of neighbors = 1159520
Ave neighs/atom = 289.88000
Neighbor list builds = 268788
Dangerous builds = 1

#clear
#
#next RN
#
#jump SELF
Total wall time: 3:14:18
